# el_label, x, y, sXX, sYY, sZZ, sXY
1.000000000000000000e+00 3.182253074645996094e+01 -6.813644886016845703e+00 -4.078293800354003906e+00 -2.679869413375854492e+00 -2.027448892593383789e+00 -2.726359367370605469e+00
2.000000000000000000e+00 3.162478637695312500e+01 -6.836323261260986328e+00 1.467951983213424683e-01 1.047100424766540527e+00 3.581686913967132568e-01 7.348349094390869141e-01
3.000000000000000000e+00 3.142704200744628906e+01 -6.859001636505126953e+00 -9.717807173728942871e-01 -4.519697129726409912e-01 -4.271251261234283447e-01 -4.388254880905151367e-02
4.000000000000000000e+00 3.122929763793945312e+01 -6.881680011749267578e+00 -1.145045876502990723e+00 2.675028145313262939e-01 -2.632629275321960449e-01 9.923360496759414673e-02
5.000000000000000000e+00 3.183482933044433594e+01 -6.870739936828613281e+00 1.099944782257080078e+01 -2.337343692779541016e+00 2.598631143569946289e+00 2.011987209320068359e+00
6.000000000000000000e+00 3.164528274536132812e+01 -6.931481838226318359e+00 4.071101188659667969e+00 3.163032531738281250e-01 1.316221356391906738e+00 1.382321476936340332e+00
7.000000000000000000e+00 3.145573806762695312e+01 -6.992223739624023438e+00 3.909428119659423828e+00 9.827606081962585449e-01 1.467656612396240234e+00 2.035863876342773438e+00
8.000000000000000000e+00 3.126619148254394531e+01 -7.052965641021728516e+00 2.490207910537719727e+00 1.471060514450073242e-01 7.911941409111022949e-01 1.357530236244201660e+00
9.000000000000000000e+00 3.185800743103027344e+01 -6.924348354339599609e+00 1.586810779571533203e+01 2.766745567321777344e+00 5.590456008911132812e+00 8.964096069335937500e+00
1.000000000000000000e+01 3.168391227722167969e+01 -7.020829677581787109e+00 9.840415000915527344e+00 1.650837421417236328e+00 3.447375535964965820e+00 5.201101779937744141e+00
1.100000000000000000e+01 3.150981903076171875e+01 -7.117310047149658203e+00 6.637860298156738281e+00 2.203268527984619141e+00 2.652338743209838867e+00 4.141283512115478516e+00
1.200000000000000000e+01 3.133572578430175781e+01 -7.213790893554687500e+00 5.789999485015869141e+00 2.016661643981933594e+00 2.341998338699340820e+00 3.981791734695434570e+00
1.300000000000000000e+01 3.189117813110351562e+01 -6.972418785095214844e+00 1.735975837707519531e+01 9.748036384582519531e+00 8.132338523864746094e+00 1.419335365295410156e+01
1.400000000000000000e+01 3.173919868469238281e+01 -7.100946903228759766e+00 1.136583232879638672e+01 6.083661079406738281e+00 5.234848022460937500e+00 9.240588188171386719e+00
1.500000000000000000e+01 3.158721923828125000e+01 -7.229474544525146484e+00 9.004917144775390625e+00 4.951803207397460938e+00 4.187016010284423828e+00 7.384640693664550781e+00
1.600000000000000000e+01 3.143523979187011719e+01 -7.358002185821533203e+00 7.369259834289550781e+00 4.499933719635009766e+00 3.560758113861083984e+00 6.222672462463378906e+00
1.700000000000000000e+01 3.193307304382324219e+01 -7.013111591339111328e+00 1.546170711517333984e+01 1.840307617187500000e+01 1.015943431854248047e+01 1.727089118957519531e+01
1.800000000000000000e+01 3.180902481079101562e+01 -7.168767929077148438e+00 1.129614639282226562e+01 1.195199966430664062e+01 6.974443912506103516e+00 1.217146873474121094e+01
1.900000000000000000e+01 3.168497467041015625e+01 -7.324424743652343750e+00 8.990467071533203125e+00 9.438391685485839844e+00 5.528657436370849609e+00 9.735363006591796875e+00
2.000000000000000000e+01 3.156092453002929688e+01 -7.480081081390380859e+00 7.622485160827636719e+00 8.178461074829101562e+00 4.740283966064453125e+00 8.460479736328125000e+00
2.100000000000000000e+01 3.198208999633789062e+01 -7.044869899749755859e+00 1.264644336700439453e+01 2.720672988891601562e+01 1.195595169067382812e+01 1.775255584716796875e+01
2.200000000000000000e+01 3.189071655273437500e+01 -7.221698284149169922e+00 9.562089920043945312e+00 1.860148811340332031e+01 8.449073791503906250e+00 1.318349266052246094e+01
2.300000000000000000e+01 3.179934310913085938e+01 -7.398526668548583984e+00 7.982556819915771484e+00 1.485082054138183594e+01 6.850013256072998047e+00 1.095154953002929688e+01
2.400000000000000000e+01 3.170796966552734375e+01 -7.575355529785156250e+00 6.580832958221435547e+00 1.267148590087890625e+01 5.775695800781250000e+00 9.491593360900878906e+00
2.500000000000000000e+01 3.203635025024414062e+01 -7.066477775573730469e+00 9.609021186828613281e+00 3.519833374023437500e+01 1.344220733642578125e+01 1.559693336486816406e+01
2.600000000000000000e+01 3.198114967346191406e+01 -7.257711410522460938e+00 7.751473426818847656e+00 2.498679161071777344e+01 9.821478843688964844e+00 1.240700531005859375e+01
2.700000000000000000e+01 3.192595100402832031e+01 -7.448945522308349609e+00 6.240159988403320312e+00 2.033599662780761719e+01 7.972846984863281250e+00 1.049572467803955078e+01
2.800000000000000000e+01 3.187075042724609375e+01 -7.640179157257080078e+00 5.365923404693603516e+00 1.757368659973144531e+01 6.881883144378662109e+00 9.343694686889648438e+00
2.900000000000000000e+01 3.209378051757812500e+01 -7.077108860015869141e+00 7.927003860473632812e+00 4.135140609741210938e+01 1.478352355957031250e+01 1.157788467407226562e+01
3.000000000000000000e+01 3.207686614990234375e+01 -7.275429725646972656e+00 6.204558372497558594e+00 3.035391616821289062e+01 1.096754264831542969e+01 9.902004241943359375e+00
3.100000000000000000e+01 3.205995178222656250e+01 -7.473751068115234375e+00 4.990048408508300781e+00 2.515567398071289062e+01 9.043716430664062500e+00 8.750308036804199219e+00
3.200000000000000000e+01 3.204303741455078125e+01 -7.672072410583496094e+00 4.184260368347167969e+00 2.194014549255371094e+01 7.837321758270263672e+00 7.801694869995117188e+00
3.300000000000000000e+01 3.215217971801757812e+01 -7.076355934143066406e+00 7.904388427734375000e+00 4.506359863281250000e+01 1.589039611816406250e+01 6.422029495239257812e+00
3.400000000000000000e+01 3.217419815063476562e+01 -7.274175167083740234e+00 5.835226535797119141e+00 3.419552230834960938e+01 1.200922489166259766e+01 6.450602054595947266e+00
3.500000000000000000e+01 3.219621658325195312e+01 -7.471994400024414062e+00 4.514157295227050781e+00 2.865354728698730469e+01 9.950311660766601562e+00 5.845833778381347656e+00
3.600000000000000000e+01 3.221823883056640625e+01 -7.669814109802246094e+00 3.742287874221801758e+00 2.523021316528320312e+01 8.691750526428222656e+00 5.442351818084716797e+00
3.700000000000000000e+01 3.220931243896484375e+01 -7.064248085021972656e+00 9.838821411132812500e+00 4.636513900756835938e+01 1.686118888854980469e+01 1.391553878784179688e+00
3.800000000000000000e+01 3.226942443847656250e+01 -7.253995895385742188e+00 6.782781124114990234e+00 3.612699890136718750e+01 1.287293434143066406e+01 2.519669294357299805e+00
3.900000000000000000e+01 3.232953643798828125e+01 -7.443743228912353516e+00 5.205778121948242188e+00 3.067795181274414062e+01 1.076511859893798828e+01 2.597704172134399414e+00
4.000000000000000000e+01 3.238964462280273438e+01 -7.633490562438964844e+00 4.289138793945312500e+00 2.702422523498535156e+01 9.394009590148925781e+00 2.477471351623535156e+00
4.100000000000000000e+01 3.226299667358398438e+01 -7.041248798370361328e+00 1.330315494537353516e+01 4.550418472290039062e+01 1.764220046997070312e+01 -2.785015344619750977e+00
4.200000000000000000e+01 3.235889816284179688e+01 -7.215663433074951172e+00 9.060427665710449219e+00 3.637891006469726562e+01 1.363180160522460938e+01 -1.013563275337219238e+00
4.300000000000000000e+01 3.245479965209960938e+01 -7.390078067779541016e+00 7.061909198760986328e+00 3.102670097351074219e+01 1.142658329010009766e+01 -5.345189571380615234e-01
4.400000000000000000e+01 3.255070114135742188e+01 -7.564492702484130859e+00 5.816734313964843750e+00 2.759304428100585938e+01 1.002293395996093750e+01 -3.166734576225280762e-01
4.500000000000000000e+01 3.231118011474609375e+01 -7.008237838745117188e+00 1.764342498779296875e+01 4.334746170043945312e+01 1.829726600646972656e+01 -5.413294315338134766e+00
4.600000000000000000e+01 3.243920135498046875e+01 -7.160645484924316406e+00 1.233662223815917969e+01 3.511670303344726562e+01 1.423599720001220703e+01 -3.666494369506835938e+00
4.700000000000000000e+01 3.256722259521484375e+01 -7.313052654266357422e+00 9.810999870300292969e+00 3.019621849060058594e+01 1.200216579437255859e+01 -2.906197071075439453e+00
4.800000000000000000e+01 3.269524383544921875e+01 -7.465459823608398438e+00 8.225227355957031250e+00 2.683563613891601562e+01 1.051825904846191406e+01 -2.466037273406982422e+00
4.900000000000000000e+01 3.235201263427734375e+01 -6.966478824615478516e+00 2.214047050476074219e+01 4.053634643554687500e+01 1.880304527282714844e+01 -6.367061614990234375e+00
5.000000000000000000e+01 3.250725555419921875e+01 -7.091046810150146484e+00 1.602135086059570312e+01 3.306189346313476562e+01 1.472497272491455078e+01 -5.009676456451416016e+00
5.100000000000000000e+01 3.266249847412109375e+01 -7.215614318847656250e+00 1.304855442047119141e+01 2.846802330017089844e+01 1.245497322082519531e+01 -4.165623188018798828e+00
5.200000000000000000e+01 3.281774139404296875e+01 -7.340182304382324219e+00 1.109590244293212891e+01 2.539509391784667969e+01 1.094729900360107422e+01 -3.683007955551147461e+00
5.300000000000000000e+01 3.238393402099609375e+01 -6.917569160461425781e+00 2.602085494995117188e+01 3.788707733154296875e+01 1.917238044738769531e+01 -5.800509452819824219e+00
5.400000000000000000e+01 3.256045532226562500e+01 -7.009530544281005859e+00 1.956843757629394531e+01 3.075286674499511719e+01 1.509639167785644531e+01 -4.918057441711425781e+00
5.500000000000000000e+01 3.273698043823242188e+01 -7.101492404937744141e+00 1.613140678405761719e+01 2.650734138488769531e+01 1.279162502288818359e+01 -4.218227386474609375e+00
5.600000000000000000e+01 3.291350173950195312e+01 -7.193453788757324219e+00 1.392876720428466797e+01 2.373638916015625000e+01 1.129954719543457031e+01 -3.752672433853149414e+00
5.700000000000000000e+01 3.240572357177734375e+01 -6.863381385803222656e+00 2.888734054565429688e+01 3.588171005249023438e+01 1.943071556091308594e+01 -4.036292076110839844e+00
5.800000000000000000e+01 3.259677124023437500e+01 -6.919217109680175781e+00 2.228875541687011719e+01 2.883257293701171875e+01 1.533639812469482422e+01 -3.613004207611083984e+00
5.900000000000000000e+01 3.278781890869140625e+01 -6.975053310394287109e+00 1.858330535888671875e+01 2.485411262512207031e+01 1.303122520446777344e+01 -3.128273248672485352e+00
6.000000000000000000e+01 3.297886657714843750e+01 -7.030889511108398438e+00 1.611073303222656250e+01 2.226906204223632812e+01 1.151393890380859375e+01 -2.790909051895141602e+00
6.100000000000000000e+01 3.241654586791992188e+01 -6.805988311767578125e+00 3.034839630126953125e+01 3.481013107299804688e+01 1.954755783081054688e+01 -1.615917921066284180e+00
6.200000000000000000e+01 3.261480712890625000e+01 -6.823562145233154297e+00 2.382131195068359375e+01 2.777869033813476562e+01 1.548000049591064453e+01 -1.425342202186584473e+00
6.300000000000000000e+01 3.281307220458984375e+01 -6.841135978698730469e+00 1.988884162902832031e+01 2.393337059020996094e+01 1.314666366577148438e+01 -1.293261051177978516e+00
6.400000000000000000e+01 3.301133728027343750e+01 -6.858709812164306641e+00 1.733950805664062500e+01 2.135883903503417969e+01 1.160950469970703125e+01 -1.096726775169372559e+00
6.500000000000000000e+01 3.241598892211914062e+01 -6.747586250305175781e+00 3.037413024902343750e+01 3.489668273925781250e+01 1.958124351501464844e+01 1.072146415710449219e+00
6.600000000000000000e+01 3.261387634277343750e+01 -6.726225852966308594e+00 2.383157348632812500e+01 2.775299263000488281e+01 1.547537040710449219e+01 9.937603473663330078e-01
6.700000000000000000e+01 3.281176757812500000e+01 -6.704864978790283203e+00 1.992149353027343750e+01 2.402147483825683594e+01 1.318288993835449219e+01 8.896175622940063477e-01
6.800000000000000000e+01 3.300966262817382812e+01 -6.683504581451416016e+00 1.734706687927246094e+01 2.131766319274902344e+01 1.159941959381103516e+01 7.429141998291015625e-01
6.900000000000000000e+01 3.240406799316406250e+01 -6.690410614013671875e+00 2.890647697448730469e+01 3.595102310180664062e+01 1.945725059509277344e+01 3.456640005111694336e+00
7.000000000000000000e+01 3.259401702880859375e+01 -6.630932807922363281e+00 2.238697814941406250e+01 2.892363548278808594e+01 1.539318370819091797e+01 3.139595270156860352e+00
7.100000000000000000e+01 3.278396224975585938e+01 -6.571455001831054688e+00 1.863595771789550781e+01 2.492031669616699219e+01 1.306688213348388672e+01 2.737651824951171875e+00
7.200000000000000000e+01 3.297390747070312500e+01 -6.511977195739746094e+00 1.622100067138671875e+01 2.236566543579101562e+01 1.157600021362304688e+01 2.384363651275634766e+00
7.300000000000000000e+01 3.238124847412109375e+01 -6.636648654937744141e+00 2.613997840881347656e+01 3.806435012817382812e+01 1.926129913330078125e+01 5.131484508514404297e+00
7.400000000000000000e+01 3.255598068237304688e+01 -6.541329860687255859e+00 1.970259475708007812e+01 3.079419517517089844e+01 1.514903736114501953e+01 4.399851322174072266e+00
7.500000000000000000e+01 3.273071289062500000e+01 -6.446011066436767578e+00 1.628912353515625000e+01 2.662611389160156250e+01 1.287457084655761719e+01 3.802830457687377930e+00
7.600000000000000000e+01 3.290544509887695312e+01 -6.350691795349121094e+00 1.410849666595458984e+01 2.389941406250000000e+01 1.140237331390380859e+01 3.309807300567626953e+00
7.700000000000000000e+01 3.234840011596679688e+01 -6.588358402252197266e+00 2.233002090454101562e+01 4.062534713745117188e+01 1.888661003112792969e+01 5.630873203277587891e+00
7.800000000000000000e+01 3.250123214721679688e+01 -6.460845947265625000e+00 1.627513122558593750e+01 3.317456436157226562e+01 1.483490848541259766e+01 4.408308506011962891e+00
7.900000000000000000e+01 3.265406417846679688e+01 -6.333333492279052734e+00 1.330001354217529297e+01 2.845837974548339844e+01 1.252751827239990234e+01 3.711214542388916016e+00
8.000000000000000000e+01 3.280689620971679688e+01 -6.205821037292480469e+00 1.130000495910644531e+01 2.562950897216796875e+01 1.107885456085205078e+01 3.241374492645263672e+00
8.100000000000000000e+01 3.230677413940429688e+01 -6.547387599945068359e+00 1.804938316345214844e+01 4.343117523193359375e+01 1.844416809082031250e+01 4.566444396972656250e+00
8.200000000000000000e+01 3.243185806274414062e+01 -6.392560958862304688e+00 1.266144847869873047e+01 3.513781356811523438e+01 1.433977890014648438e+01 3.060854673385620117e+00
8.300000000000000000e+01 3.255694580078125000e+01 -6.237734317779541016e+00 1.019448375701904297e+01 3.021439552307128906e+01 1.212266349792480469e+01 2.320545196533203125e+00
8.400000000000000000e+01 3.268202972412109375e+01 -6.082907676696777344e+00 8.460085868835449219e+00 2.679110145568847656e+01 1.057535648345947266e+01 2.083962917327880859e+00
8.500000000000000000e+01 3.225797271728515625e+01 -6.515303611755371094e+00 1.383955955505371094e+01 4.550147247314453125e+01 1.780230903625488281e+01 1.902028083801269531e+00
8.600000000000000000e+01 3.235052108764648438e+01 -6.339087963104248047e+00 9.590641975402832031e+00 3.632243728637695312e+01 1.377392387390136719e+01 3.520418107509613037e-01
8.700000000000000000e+01 3.244307327270507812e+01 -6.162871837615966797e+00 7.475539207458496094e+00 3.101933097839355469e+01 1.154846096038818359e+01 -3.552252799272537231e-02
8.800000000000000000e+01 3.253561782836914062e+01 -5.986656188964843750e+00 6.216892719268798828e+00 2.745381736755371094e+01 1.010121345520019531e+01 -2.034398466348648071e-01
8.900000000000000000e+01 3.220385742187500000e+01 -6.493334770202636719e+00 1.060205936431884766e+01 4.623435211181640625e+01 1.705092239379882812e+01 -2.251658678054809570e+00
9.000000000000000000e+01 3.226033020019531250e+01 -6.302473068237304688e+00 7.450492382049560547e+00 3.602305221557617188e+01 1.304206275939941406e+01 -3.212415218353271484e+00
9.100000000000000000e+01 3.231680297851562500e+01 -6.111610889434814453e+00 5.769340038299560547e+00 3.053701019287109375e+01 1.089190483093261719e+01 -3.130780220031738281e+00
9.200000000000000000e+01 3.237327575683593750e+01 -5.920749187469482422e+00 4.778547763824462891e+00 2.702185249328613281e+01 9.540120124816894531e+00 -2.970034599304199219e+00
9.300000000000000000e+01 3.214649963378906250e+01 -6.482321262359619141e+00 8.878228187561035156e+00 4.483643341064453125e+01 1.611439895629882812e+01 -7.259756088256835938e+00
9.400000000000000000e+01 3.216473388671875000e+01 -6.284117221832275391e+00 6.650867938995361328e+00 3.400680160522460938e+01 1.219730091094970703e+01 -7.078974723815917969e+00
9.500000000000000000e+01 3.218296813964843750e+01 -6.085913181304931641e+00 5.237082004547119141e+00 2.847425079345703125e+01 1.011340045928955078e+01 -6.380227088928222656e+00
9.600000000000000000e+01 3.220120239257812500e+01 -5.887709140777587891e+00 4.379269123077392578e+00 2.502129364013671875e+01 8.820168495178222656e+00 -5.811637401580810547e+00
9.700000000000000000e+01 3.208809661865234375e+01 -6.482684612274169922e+00 9.123922348022460938e+00 4.103834533691406250e+01 1.504867935180664062e+01 -1.230759429931640625e+01
9.800000000000000000e+01 3.206739425659179688e+01 -6.284723281860351562e+00 7.131442070007324219e+00 3.009953498840332031e+01 1.116929340362548828e+01 -1.047076797485351562e+01
9.900000000000000000e+01 3.204669570922851562e+01 -6.086761474609375000e+00 5.869194984436035156e+00 2.494052886962890625e+01 9.242917060852050781e+00 -9.199452400207519531e+00
1.000000000000000000e+02 3.202599334716796875e+01 -5.888800144195556641e+00 4.936532020568847656e+00 2.164554023742675781e+01 7.974621295928955078e+00 -8.223878860473632812e+00
1.010000000000000000e+02 3.203087997436523438e+01 -6.494411468505859375e+00 1.093438148498535156e+01 3.479850387573242188e+01 1.371986579895019531e+01 -1.624196434020996094e+01
1.020000000000000000e+02 3.197203636169433594e+01 -6.304267883300781250e+00 8.843461990356445312e+00 2.470861434936523438e+01 1.006562328338623047e+01 -1.281528568267822266e+01
1.030000000000000000e+02 3.191319274902343750e+01 -6.114123821258544922e+00 7.134562969207763672e+00 2.008137321472167969e+01 8.164780616760253906e+00 -1.090140724182128906e+01
1.040000000000000000e+02 3.185434913635253906e+01 -5.923980236053466797e+00 6.257505893707275391e+00 1.745901679992675781e+01 7.114956855773925781e+00 -9.667486190795898438e+00
1.050000000000000000e+02 3.197704505920410156e+01 -6.517052650451660156e+00 1.411414337158203125e+01 2.682205581665039062e+01 1.228085899353027344e+01 -1.822729301452636719e+01
1.060000000000000000e+02 3.188230705261230469e+01 -6.342002868652343750e+00 1.074488925933837891e+01 1.825881385803222656e+01 8.701110839843750000e+00 -1.349052143096923828e+01
1.070000000000000000e+02 3.178757286071777344e+01 -6.166953086853027344e+00 8.896622657775878906e+00 1.466954898834228516e+01 7.069851398468017578e+00 -1.117696857452392578e+01
1.080000000000000000e+02 3.169283676147460938e+01 -5.991903305053710938e+00 7.468339920043945312e+00 1.253692626953125000e+01 6.001579761505126953e+00 -9.711021423339843750e+00
1.090000000000000000e+02 3.192864608764648438e+01 -6.549741744995117188e+00 1.698256111145019531e+01 1.798977661132812500e+01 1.049170112609863281e+01 -1.761067390441894531e+01
1.100000000000000000e+02 3.180164337158203125e+01 -6.396484851837158203e+00 1.255006790161132812e+01 1.168332290649414062e+01 7.270017147064208984e+00 -1.234529590606689453e+01
1.110000000000000000e+02 3.167464065551757812e+01 -6.243227958679199219e+00 9.961272239685058594e+00 9.235794067382812500e+00 5.759119987487792969e+00 -9.813655853271484375e+00
1.120000000000000000e+02 3.154763793945312500e+01 -6.089971065521240234e+00 8.393424034118652344e+00 7.929986476898193359e+00 4.897023200988769531e+00 -8.532364845275878906e+00
1.130000000000000000e+02 3.188753509521484375e+01 -6.591228008270263672e+00 1.895348739624023438e+01 9.466224670410156250e+00 8.525913238525390625e+00 -1.434828472137451172e+01
1.140000000000000000e+02 3.173312759399414062e+01 -6.465628623962402344e+00 1.256995868682861328e+01 5.836846828460693359e+00 5.522041320800781250e+00 -9.361931800842285156e+00
1.150000000000000000e+02 3.157871818542480469e+01 -6.340028762817382812e+00 1.011729240417480469e+01 4.803538322448730469e+00 4.476249217987060547e+00 -7.355256080627441406e+00
1.160000000000000000e+02 3.142430877685546875e+01 -6.214429378509521484e+00 8.150140762329101562e+00 4.171668529510498047e+00 3.696542739868164062e+00 -6.262833118438720703e+00
1.170000000000000000e+02 3.185528945922851562e+01 -6.639923572540283203e+00 1.743175697326660156e+01 2.512919664382934570e+00 5.983402729034423828e+00 -9.022656440734863281e+00
1.180000000000000000e+02 3.167938232421875000e+01 -6.546787738800048828e+00 1.101162147521972656e+01 1.608402729034423828e+00 3.786007404327392578e+00 -5.242088794708251953e+00
1.190000000000000000e+02 3.150347709655761719e+01 -6.453651905059814453e+00 7.764810085296630859e+00 1.979747653007507324e+00 2.923367261886596680e+00 -4.199162960052490234e+00
1.200000000000000000e+02 3.132756996154785156e+01 -6.360516548156738281e+00 6.860793113708496094e+00 2.039417028427124023e+00 2.670063018798828125e+00 -4.030446052551269531e+00
1.210000000000000000e+02 3.183313941955566406e+01 -6.693965435028076172e+00 1.246798992156982422e+01 -2.369852066040039062e+00 3.029441356658935547e+00 -2.018964290618896484e+00
1.220000000000000000e+02 3.164246749877929688e+01 -6.636857032775878906e+00 5.235335350036621094e+00 3.363952338695526123e-01 1.671519160270690918e+00 -1.448151588439941406e+00
1.230000000000000000e+02 3.145179557800292969e+01 -6.579749107360839844e+00 5.000110626220703125e+00 8.494705557823181152e-01 1.754874348640441895e+00 -2.197655916213989258e+00
1.240000000000000000e+02 3.126112365722656250e+01 -6.522641181945800781e+00 3.600185394287109375e+00 3.072806000709533691e-01 1.172239780426025391e+00 -1.392010211944580078e+00
1.250000000000000000e+02 3.182193565368652344e+01 -6.751285076141357422e+00 -2.575567007064819336e+00 -2.512953758239746094e+00 -1.526556134223937988e+00 2.595258235931396484e+00
1.260000000000000000e+02 3.162379264831542969e+01 -6.732389926910400391e+00 1.407244682312011719e+00 9.673541188240051270e-01 7.123796343803405762e-01 -8.444050550460815430e-01
1.270000000000000000e+02 3.142565155029296875e+01 -6.713495254516601562e+00 5.061499308794736862e-03 -3.982780873775482178e-01 -1.179649755358695984e-01 -5.134779214859008789e-02
1.280000000000000000e+02 3.122750854492187500e+01 -6.694600582122802734e+00 -3.011515438556671143e-01 2.488103508949279785e-01 -1.570235751569271088e-02 -1.714114546775817871e-01
1.290000000000000000e+02 2.196186065673828125e+01 -6.700578212738037109e+00 -1.107240676879882812e+00 1.674266345798969269e-02 -3.271493911743164062e-01 3.907864168286323547e-02
1.300000000000000000e+02 2.033289909362792969e+01 -7.179516792297363281e+00 -5.839293003082275391e-01 6.764293462038040161e-02 -1.548859030008316040e-01 -2.382918745279312134e-01
1.310000000000000000e+02 2.261169624328613281e+01 -7.556783676147460938e+00 -1.035300612449645996e+00 5.282166227698326111e-02 -2.947436869144439697e-01 -1.974961310625076294e-01
1.320000000000000000e+02 2.185197448730468750e+01 -7.432458400726318359e+00 -9.241725206375122070e-01 7.490798830986022949e-02 -2.547793686389923096e-01 -2.135601639747619629e-01
1.330000000000000000e+02 2.270871162414550781e+01 -6.822772979736328125e+00 -1.419889569282531738e+00 -1.035867631435394287e-02 -4.290744960308074951e-01 5.766591802239418030e-02
1.340000000000000000e+02 2.121509361267089844e+01 -6.576943874359130859e+00 -8.354874253273010254e-01 1.443654298782348633e-02 -2.463152706623077393e-01 9.847158798947930336e-04
1.350000000000000000e+02 2.046852302551269531e+01 -6.451897144317626953e+00 -5.794703960418701172e-01 2.187462337315082550e-02 -1.672787219285964966e-01 -2.973703294992446899e-02
1.360000000000000000e+02 2.109233665466308594e+01 -7.306693553924560547e+00 -7.557556629180908203e-01 8.289303630590438843e-02 -2.018587887287139893e-01 -2.248461395502090454e-01
1.370000000000000000e+02 2.421343040466308594e+01 -6.977969646453857422e+00 -1.845026850700378418e+00 8.263986092060804367e-05 -5.534832477569580078e-01 5.393483489751815796e-02
1.380000000000000000e+02 2.414235687255859375e+01 -7.714632511138916016e+00 -1.233817696571350098e+00 3.939586877822875977e-02 -3.583265244960784912e-01 -1.007784456014633179e-01
1.390000000000000000e+02 2.337517356872558594e+01 -7.650850772857666016e+00 -1.137388110160827637e+00 2.911458723247051239e-02 -3.324820399284362793e-01 -1.500903666019439697e-01
1.400000000000000000e+02 2.490980529785156250e+01 -7.777047634124755859e+00 -1.270685553550720215e+00 3.303249180316925049e-02 -3.712959289550781250e-01 -8.243050426244735718e-02
1.410000000000000000e+02 2.496787261962890625e+01 -7.039327144622802734e+00 -2.016619682312011719e+00 1.027037762105464935e-02 -6.019048094749450684e-01 7.516399025917053223e-02
1.420000000000000000e+02 2.567740631103515625e+01 -7.838097095489501953e+00 -1.203931450843811035e+00 1.626132987439632416e-02 -3.563010394573211670e-01 -2.750924788415431976e-02
1.430000000000000000e+02 2.572246742248535156e+01 -7.099318504333496094e+00 -2.205104351043701172e+00 -2.789799124002456665e-02 -6.699007153511047363e-01 6.619635969400405884e-02
1.440000000000000000e+02 2.345925331115722656e+01 -6.915245532989501953e+00 -1.674938321113586426e+00 -8.186185732483863831e-03 -5.049373507499694824e-01 5.266138538718223572e-02
1.450000000000000000e+02 2.838467979431152344e+01 -7.582547664642333984e+00 -1.155199050903320312e+00 -3.502062987536191940e-03 -3.476103246212005615e-01 2.771633267402648926e-01
1.460000000000000000e+02 2.646242713928222656e+01 -7.134171009063720703e+00 -2.312720060348510742e+00 -1.385977142490446568e-03 -6.942317485809326172e-01 4.367913305759429932e-02
1.470000000000000000e+02 2.896686553955078125e+01 -7.939861774444580078e+00 4.178366363048553467e-01 1.639466583728790283e-01 1.745349913835525513e-01 7.963934540748596191e-01
1.480000000000000000e+02 2.638972282409667969e+01 -7.872690677642822266e+00 -1.120043396949768066e+00 2.393930451944470406e-03 -3.352948129177093506e-01 3.818896412849426270e-02
1.490000000000000000e+02 2.886644554138183594e+01 -8.170484542846679688e+00 9.336448311805725098e-01 3.497659564018249512e-01 3.850232362747192383e-01 1.023185849189758301e+00
1.500000000000000000e+02 2.900411796569824219e+01 -7.391039371490478516e+00 -1.064527153968811035e+00 1.227746456861495972e-01 -2.825257778167724609e-01 1.620311588048934937e-01
1.510000000000000000e+02 2.764316940307617188e+01 -7.999802112579345703e+00 -4.742781817913055420e-01 7.853132486343383789e-02 -1.187240555882453918e-01 2.687470912933349609e-01
1.520000000000000000e+02 2.719746398925781250e+01 -7.155622005462646484e+00 -2.332946777343750000e+00 -1.583890616893768311e-02 -7.046357393264770508e-01 2.580750547349452972e-02
1.530000000000000000e+02 2.902560997009277344e+01 -7.754369735717773438e+00 6.664165761321783066e-03 1.578867435455322266e-01 4.936527460813522339e-02 5.975277423858642578e-01
1.540000000000000000e+02 2.881571769714355469e+01 -7.483415603637695312e+00 -9.461448788642883301e-01 1.501372158527374268e-01 -2.388022989034652710e-01 2.674596011638641357e-01
1.550000000000000000e+02 2.844447517395019531e+01 -7.185503959655761719e+00 -2.225581407546997070e+00 -5.494437366724014282e-02 -6.841577291488647461e-01 -1.253468357026576996e-02
1.560000000000000000e+02 2.882854270935058594e+01 -6.955052375793457031e+00 -2.785345315933227539e+00 6.476610898971557617e-02 -8.161737918853759766e-01 -2.438608743250370026e-02
1.570000000000000000e+02 2.852103996276855469e+01 -7.954201698303222656e+00 1.384267657995223999e-01 2.038467973470687866e-01 1.026820689439773560e-01 6.268573403358459473e-01
1.580000000000000000e+02 2.894965744018554688e+01 -7.191501140594482422e+00 -1.756416916847229004e+00 1.619250774383544922e-01 -4.783475697040557861e-01 4.721472412347793579e-02
1.590000000000000000e+02 2.889297676086425781e+01 -7.649826049804687500e+00 -4.497217833995819092e-01 1.112326383590698242e-01 -1.015467420220375061e-01 4.131734371185302734e-01
1.600000000000000000e+02 2.903490829467773438e+01 -7.579062938690185547e+00 -4.486832618713378906e-01 1.164754927158355713e-01 -9.966233372688293457e-02 3.303677737712860107e-01
1.610000000000000000e+02 2.813824844360351562e+01 -8.074736595153808594e+00 1.202625110745429993e-01 2.407250106334686279e-01 1.082962527871131897e-01 4.999562501907348633e-01
1.620000000000000000e+02 2.870181274414062500e+01 -7.337673187255859375e+00 -1.540826797485351562e+00 1.340045332908630371e-01 -4.220466613769531250e-01 1.345670074224472046e-01
1.630000000000000000e+02 2.796626663208007812e+01 -7.661641597747802734e+00 -1.010366678237915039e+00 3.996948897838592529e-02 -2.911191582679748535e-01 2.145242840051651001e-01
1.640000000000000000e+02 2.705646896362304688e+01 -7.892566680908203125e+00 -9.137795567512512207e-01 3.888627514243125916e-02 -2.624679803848266602e-01 1.224484369158744812e-01
1.650000000000000000e+02 2.791956710815429688e+01 -7.131703853607177734e+00 -2.398338794708251953e+00 -1.257243659347295761e-02 -7.232733368873596191e-01 -1.713486039079725742e-03
1.660000000000000000e+02 2.864320182800292969e+01 -7.555000305175781250e+00 -1.005817413330078125e+00 1.025218442082405090e-01 -2.709886729717254639e-01 3.533491492271423340e-01
1.670000000000000000e+02 2.874375915527343750e+01 -7.780310630798339844e+00 -2.388570308685302734e-01 1.132069900631904602e-01 -3.769501298666000366e-02 5.983693599700927734e-01
1.680000000000000000e+02 3.151592254638671875e+01 -7.950390338897705078e+00 5.171175479888916016e+00 1.043725109100341797e+01 4.682528018951416016e+00 7.799675941467285156e+00
1.690000000000000000e+02 3.327674484252929688e+01 -7.518734455108642578e+00 9.546955108642578125e+00 2.005211257934570312e+01 8.879720687866210938e+00 -3.058497190475463867e+00
1.700000000000000000e+02 3.320154953002929688e+01 -6.488065719604492188e+00 1.455045318603515625e+01 2.005456161499023438e+01 1.038150501251220703e+01 2.009843349456787109e+00
1.710000000000000000e+02 3.220759963989257812e+01 -5.665800094604492188e+00 3.760413646697998047e+00 2.229240226745605469e+01 7.815845012664794922e+00 -5.480406761169433594e+00
1.720000000000000000e+02 2.974745178222656250e+01 -6.376827716827392578e+00 -2.999222576618194580e-01 6.165964156389236450e-02 -7.147878408432006836e-02 -2.701204419136047363e-01
1.730000000000000000e+02 3.315900421142578125e+01 -7.664429187774658203e+00 8.084935188293457031e+00 2.125255012512207031e+01 8.801245689392089844e+00 -2.849695444107055664e+00
1.740000000000000000e+02 3.171854972839355469e+01 -7.999239444732666016e+00 4.500715255737304688e+00 1.389943885803222656e+01 5.520046234130859375e+00 7.973064422607421875e+00
1.750000000000000000e+02 2.921013832092285156e+01 -8.205646514892578125e+00 1.444950103759765625e+00 8.354666233062744141e-01 6.841250061988830566e-01 1.454839706420898438e+00
1.760000000000000000e+02 2.957955360412597656e+01 -8.193794250488281250e+00 1.883437037467956543e+00 1.054694890975952148e+00 8.814395666122436523e-01 1.880357503890991211e+00
1.770000000000000000e+02 2.940381431579589844e+01 -8.216775894165039062e+00 1.603213191032409668e+00 8.872009515762329102e-01 7.471242547035217285e-01 1.684349179267883301e+00
1.780000000000000000e+02 3.099624824523925781e+01 -7.413504600524902344e+00 4.373629093170166016e+00 1.602578639984130859e+00 1.792862415313720703e+00 3.153105735778808594e+00
1.790000000000000000e+02 3.221335601806640625e+01 -7.893189907073974609e+00 3.116333961486816406e+00 2.210439109802246094e+01 7.566217422485351562e+00 5.223753452301025391e+00
1.800000000000000000e+02 3.180140113830566406e+01 -7.823024272918701172e+00 4.762247085571289062e+00 1.538252830505371094e+01 6.043432712554931641e+00 8.523281097412109375e+00
1.810000000000000000e+02 3.126519584655761719e+01 -7.506958484649658203e+00 6.246878623962402344e+00 4.095846652984619141e+00 3.102817535400390625e+00 5.653431892395019531e+00
1.820000000000000000e+02 3.101846313476562500e+01 -6.916290760040283203e+00 -1.409966230392456055e+00 -1.950383037328720093e-01 -4.815013706684112549e-01 9.106696397066116333e-02
1.830000000000000000e+02 2.977295303344726562e+01 -8.167205810546875000e+00 2.214805603027343750e+00 1.140902638435363770e+00 1.006712555885314941e+00 2.114848852157592773e+00
1.840000000000000000e+02 3.239343643188476562e+01 -5.693159580230712891e+00 3.967826128005981445e+00 2.419242477416992188e+01 8.448075294494628906e+00 -3.189509391784667969e+00
1.850000000000000000e+02 3.283321380615234375e+01 -5.807822227478027344e+00 6.425359725952148438e+00 2.360266304016113281e+01 9.008406639099121094e+00 1.159906029701232910e+00
1.860000000000000000e+02 3.300006103515625000e+01 -5.875680923461914062e+00 7.876701831817626953e+00 2.253629875183105469e+01 9.123900413513183594e+00 2.206907272338867188e+00
1.870000000000000000e+02 2.923138236999511719e+01 -5.417778015136718750e+00 2.023173570632934570e+00 9.082198739051818848e-01 8.794180750846862793e-01 -1.426296234130859375e+00
1.880000000000000000e+02 2.923409271240234375e+01 -5.853655338287353516e+00 1.124211430549621582e+00 2.083402872085571289e-01 3.997655212879180908e-01 -6.277821063995361328e-01
1.890000000000000000e+02 3.165861892700195312e+01 -5.602078437805175781e+00 5.356218338012695312e+00 1.262284755706787109e+01 5.393719673156738281e+00 -8.095673561096191406e+00
1.900000000000000000e+02 3.183287620544433594e+01 -5.622304439544677734e+00 4.746317863464355469e+00 1.620508766174316406e+01 6.285421848297119141e+00 -8.109408378601074219e+00
1.910000000000000000e+02 2.921745300292968750e+01 -6.683869838714599609e+00 -1.993435859680175781e+00 -9.263391792774200439e-02 -6.258209347724914551e-01 -3.186620026826858521e-02
1.920000000000000000e+02 2.942196846008300781e+01 -6.310120582580566406e+00 -3.680289089679718018e-01 4.953743144869804382e-02 -9.554744511842727661e-02 -2.625417113304138184e-01
1.930000000000000000e+02 2.923440742492675781e+01 -5.637010574340820312e+00 1.509586215019226074e+00 5.695784687995910645e-01 6.237493753433227539e-01 -9.706269502639770508e-01
1.940000000000000000e+02 3.111551856994628906e+01 -6.245585441589355469e+00 5.508232116699218750e+00 1.438807249069213867e+00 2.084111690521240234e+00 -3.301610231399536133e+00
1.950000000000000000e+02 3.102564430236816406e+01 -6.674532890319824219e+00 -6.059239506721496582e-01 -1.549494415521621704e-01 -2.282620072364807129e-01 -1.237055733799934387e-01
1.960000000000000000e+02 3.322727584838867188e+01 -6.673057079315185547e+00 1.549151992797851562e+01 1.957136535644531250e+01 1.051886558532714844e+01 6.384831666946411133e-01
1.970000000000000000e+02 3.201708984375000000e+01 -5.659462451934814453e+00 4.267847061157226562e+00 1.953069496154785156e+01 7.139562606811523438e+00 -7.349601745605468750e+00
1.980000000000000000e+02 3.181930732727050781e+01 -5.396868705749511719e+00 4.122309207916259766e+00 1.551726245880126953e+01 5.891871452331542969e+00 -7.384753704071044922e+00
1.990000000000000000e+02 3.175661468505859375e+01 -5.760670185089111328e+00 5.776714801788330078e+00 1.505519580841064453e+01 6.249573230743408203e+00 -8.864801406860351562e+00
2.000000000000000000e+02 3.123749923706054688e+01 -6.055234909057617188e+00 7.014573097229003906e+00 3.868240594863891602e+00 3.264843940734863281e+00 -5.600068092346191406e+00
2.010000000000000000e+02 3.105514717102050781e+01 -6.460301876068115234e+00 2.925930500030517578e+00 3.659680783748626709e-01 9.875696301460266113e-01 -1.390894412994384766e+00
2.020000000000000000e+02 3.241233825683593750e+01 -8.121926307678222656e+00 2.640331983566284180e+00 2.119488525390625000e+01 7.150565147399902344e+00 3.316886425018310547e+00
2.030000000000000000e+02 3.240959930419921875e+01 -7.863710403442382812e+00 3.388638734817504883e+00 2.416345405578613281e+01 8.265627861022949219e+00 2.782272815704345703e+00
2.040000000000000000e+02 3.284553146362304688e+01 -7.624964237213134766e+00 7.264388084411621094e+00 2.432437705993652344e+01 9.476629257202148438e+00 -2.266413927078247070e+00
2.050000000000000000e+02 3.320668411254882812e+01 -7.050308704376220703e+00 1.448771190643310547e+01 2.003160476684570312e+01 1.035579490661621094e+01 -2.360517263412475586e+00
2.060000000000000000e+02 2.921910285949707031e+01 -8.004222869873046875e+00 9.346218109130859375e-01 5.450191497802734375e-01 4.438922703266143799e-01 1.098202586174011230e+00
2.070000000000000000e+02 2.942467117309570312e+01 -6.939554691314697266e+00 -2.758701086044311523e+00 4.893704876303672791e-02 -8.129292726516723633e-01 -2.187361195683479309e-02
2.080000000000000000e+02 2.962879180908203125e+01 -6.944105625152587891e+00 -2.673478126525878906e+00 -2.748256176710128784e-02 -8.102881908416748047e-01 3.061976167373359203e-05
2.090000000000000000e+02 2.922101974487304688e+01 -6.935998439788818359e+00 -2.917535066604614258e+00 -1.404678076505661011e-01 -9.174008965492248535e-01 6.714850664138793945e-02
2.100000000000000000e+02 3.322922515869140625e+01 -6.865010738372802734e+00 1.540861415863037109e+01 1.949661636352539062e+01 1.047156906127929688e+01 -9.804494380950927734e-01
2.110000000000000000e+02 3.266523742675781250e+01 -5.837079524993896484e+00 5.642337322235107422e+00 2.530254554748535156e+01 9.283464431762695312e+00 1.321208029985427856e-01
2.120000000000000000e+02 3.315864562988281250e+01 -5.846671104431152344e+00 8.136938095092773438e+00 2.102403068542480469e+01 8.748291015625000000e+00 2.389651298522949219e+00
2.130000000000000000e+02 3.073122215270996094e+01 -5.666873931884765625e+00 5.184917449951171875e+00 3.001823902130126953e+00 2.456022500991821289e+00 -4.282521247863769531e+00
2.140000000000000000e+02 3.304747390747070312e+01 -5.715735435485839844e+00 6.529525279998779297e+00 2.173534011840820312e+01 8.479459762573242188e+00 1.673997163772583008e+00
2.150000000000000000e+02 3.138299179077148438e+01 -5.580704212188720703e+00 5.826672554016113281e+00 8.864028930664062500e+00 4.407210350036621094e+00 -7.315379142761230469e+00
2.160000000000000000e+02 3.083160209655761719e+01 -6.408507823944091797e+00 2.349925756454467773e+00 2.077411264181137085e-01 7.673000693321228027e-01 -1.120597243309020996e+00
2.170000000000000000e+02 3.045193862915039062e+01 -5.431942939758300781e+00 4.435400009155273438e+00 2.636984109878540039e+00 2.121715068817138672e+00 -3.809212207794189453e+00
2.180000000000000000e+02 3.256681442260742188e+01 -5.460694313049316406e+00 3.305047035217285156e+00 2.198343086242675781e+01 7.586543083190917969e+00 -2.329568386077880859e+00
2.190000000000000000e+02 3.288081359863281250e+01 -7.922537803649902344e+00 4.917190074920654297e+00 2.208762931823730469e+01 8.101446151733398438e+00 -9.785326123237609863e-01
2.200000000000000000e+02 3.324229049682617188e+01 -7.232599258422851562e+00 1.264803218841552734e+01 2.017850685119628906e+01 9.847961425781250000e+00 -2.859239816665649414e+00
2.210000000000000000e+02 3.106699943542480469e+01 -7.129834175109863281e+00 2.215673685073852539e+00 5.102588534355163574e-01 8.177797198295593262e-01 1.492317199707031250e+00
2.220000000000000000e+02 3.107424545288085938e+01 -7.873088359832763672e+00 5.248769760131835938e+00 4.731853485107421875e+00 2.994186878204345703e+00 5.613492488861083984e+00
2.230000000000000000e+02 3.200361633300781250e+01 -7.877092838287353516e+00 3.642318725585937500e+00 1.933658790588378906e+01 6.893671989440917969e+00 7.313921451568603516e+00
2.240000000000000000e+02 3.269884872436523438e+01 -7.740309715270996094e+00 5.201941490173339844e+00 2.488668441772460938e+01 9.026587486267089844e+00 -4.809290170669555664e-01
2.250000000000000000e+02 3.160844802856445312e+01 -7.754847526550292969e+00 5.880163669586181641e+00 1.145457363128662109e+01 5.200421333312988281e+00 8.564460754394531250e+00
2.260000000000000000e+02 3.221438980102539062e+01 -8.144931793212890625e+00 2.656294822692871094e+00 1.980276298522949219e+01 6.737717151641845703e+00 4.995152473449707031e+00
2.270000000000000000e+02 3.259411621093750000e+01 -7.894742965698242188e+00 3.939412593841552734e+00 2.375533485412597656e+01 8.308423995971679688e+00 1.103219270706176758e+00
2.280000000000000000e+02 3.272356033325195312e+01 -5.528495788574218750e+00 4.334811687469482422e+00 2.261871528625488281e+01 8.086057662963867188e+00 -4.553542435169219971e-01
2.290000000000000000e+02 3.258899307250976562e+01 -8.095046043395996094e+00 2.948114395141601562e+00 2.214105415344238281e+01 7.526750564575195312e+00 1.974550724029541016e+00
2.300000000000000000e+02 3.344200897216796875e+01 -7.224660873413085938e+00 1.234762477874755859e+01 1.842184257507324219e+01 9.230840682983398438e+00 -2.475919485092163086e+00
2.310000000000000000e+02 3.348079299926757812e+01 -6.862883090972900391e+00 1.370867061614990234e+01 1.766318702697753906e+01 9.411557197570800781e+00 -7.316269278526306152e-01
2.320000000000000000e+02 3.302428436279296875e+01 -7.801876544952392578e+00 6.408098220825195312e+00 2.204661369323730469e+01 8.536413192749023438e+00 -2.138626813888549805e+00
2.330000000000000000e+02 3.307571029663085938e+01 -6.192479133605957031e+00 1.183394050598144531e+01 2.190685844421386719e+01 1.012224006652832031e+01 3.001938343048095703e+00
2.340000000000000000e+02 3.309183883666992188e+01 -7.338819503784179688e+00 1.185279273986816406e+01 2.178182601928710938e+01 1.009038543701171875e+01 -3.429219245910644531e+00
2.350000000000000000e+02 3.297974777221679688e+01 -7.487799167633056641e+00 9.556986808776855469e+00 2.321279716491699219e+01 9.830935478210449219e+00 -3.265920639038085938e+00
2.360000000000000000e+02 3.347883605957031250e+01 -6.670375347137451172e+00 1.368420982360839844e+01 1.766958808898925781e+01 9.406139373779296875e+00 3.634749650955200195e-01
2.370000000000000000e+02 3.343344497680664062e+01 -6.308835983276367188e+00 1.248795127868652344e+01 1.861104965209960938e+01 9.329700469970703125e+00 2.106421232223510742e+00
2.380000000000000000e+02 3.323237991333007812e+01 -6.303225517272949219e+00 1.283101081848144531e+01 2.022517204284667969e+01 9.916854858398437500e+00 2.438522577285766602e+00
2.390000000000000000e+02 3.274095153808593750e+01 -8.030361175537109375e+00 3.934243202209472656e+00 2.242226600646972656e+01 7.906952857971191406e+00 2.309418469667434692e-01
2.400000000000000000e+02 3.239123916625976562e+01 -5.434937953948974609e+00 3.150187253952026367e+00 2.108095741271972656e+01 7.269343852996826172e+00 -3.628986120223999023e+00
2.410000000000000000e+02 3.346443939208984375e+01 -7.049700260162353516e+00 1.299853134155273438e+01 1.788952636718750000e+01 9.266417503356933594e+00 -1.693677663803100586e+00
2.420000000000000000e+02 3.288619613647460938e+01 -5.626461505889892578e+00 5.508536338806152344e+00 2.227548217773437500e+01 8.335206031799316406e+00 6.839253306388854980e-01
2.430000000000000000e+02 3.065054512023925781e+01 -5.418817996978759766e+00 4.726641654968261719e+00 3.539416074752807617e+00 2.479817390441894531e+00 -4.456581115722656250e+00
2.440000000000000000e+02 3.161892127990722656e+01 -5.398079872131347656e+00 4.795861721038818359e+00 1.238333606719970703e+01 5.153759479522705078e+00 -7.584747314453125000e+00
2.450000000000000000e+02 3.121537208557128906e+01 -5.380492687225341797e+00 5.336485385894775391e+00 7.562747955322265625e+00 3.869770050048828125e+00 -6.708692073822021484e+00
2.460000000000000000e+02 3.084171867370605469e+01 -5.402757167816162109e+00 5.181240081787109375e+00 4.463826179504394531e+00 2.893519878387451172e+00 -5.166921138763427734e+00
2.470000000000000000e+02 2.943523597717285156e+01 -5.425023078918457031e+00 2.294201374053955078e+00 8.338764905929565430e-01 9.384233355522155762e-01 -1.585583925247192383e+00
2.480000000000000000e+02 3.040797042846679688e+01 -6.645521640777587891e+00 -1.339380145072937012e+00 3.778187930583953857e-02 -3.904795050621032715e-01 -1.270375698804855347e-01
2.490000000000000000e+02 3.091634750366210938e+01 -5.623925685882568359e+00 5.401324272155761719e+00 4.106736183166503906e+00 2.852418184280395508e+00 -5.003954410552978516e+00
2.500000000000000000e+02 3.141341018676757812e+01 -5.393616199493408203e+00 5.138953208923339844e+00 9.626292228698730469e+00 4.429574012756347656e+00 -7.115900993347167969e+00
2.510000000000000000e+02 2.986309623718261719e+01 -5.731177330017089844e+00 2.554071426391601562e+00 7.261258363723754883e-01 9.840592145919799805e-01 -1.633663535118103027e+00
2.520000000000000000e+02 3.201208496093750000e+01 -5.404874324798583984e+00 3.487597465515136719e+00 1.763220977783203125e+01 6.335941791534423828e+00 -6.445580482482910156e+00
2.530000000000000000e+02 3.000094985961914062e+01 -6.648078441619873047e+00 -1.660021305084228516e+00 9.217004291713237762e-03 -4.952413141727447510e-01 -8.307806402444839478e-02
2.540000000000000000e+02 2.980098533630371094e+01 -6.654105186462402344e+00 -1.780233979225158691e+00 2.429844811558723450e-02 -5.267806649208068848e-01 -6.243792921304702759e-02
2.550000000000000000e+02 3.061053848266601562e+01 -5.932083129882812500e+00 4.286236763000488281e+00 1.360555768013000488e+00 1.694037675857543945e+00 -2.746463775634765625e+00
2.560000000000000000e+02 3.061175727844238281e+01 -6.646816730499267578e+00 -1.135864257812500000e+00 -1.120984554290771484e-02 -3.441222310066223145e-01 -1.422282159328460693e-01
2.570000000000000000e+02 3.081908416748046875e+01 -6.657186985015869141e+00 -8.784175515174865723e-01 7.063552737236022949e-02 -2.423346042633056641e-01 -1.854097694158554077e-01
2.580000000000000000e+02 3.024571990966796875e+01 -6.931566715240478516e+00 -2.514483928680419922e+00 1.632951945066452026e-02 -7.494463324546813965e-01 -2.835850976407527924e-02
2.590000000000000000e+02 2.998777008056640625e+01 -8.163397789001464844e+00 2.733046293258666992e+00 1.436081528663635254e+00 1.250738382339477539e+00 2.533618927001953125e+00
2.600000000000000000e+02 3.044487190246582031e+01 -7.663923740386962891e+00 2.880429983139038086e+00 1.116194725036621094e+00 1.198987364768981934e+00 2.341404199600219727e+00
2.610000000000000000e+02 2.922625732421875000e+01 -7.370603561401367188e+00 -9.223678112030029297e-01 2.505610138177871704e-02 -2.691935002803802490e-01 1.658721268177032471e-01
2.620000000000000000e+02 2.923160552978515625e+01 -7.586538791656494141e+00 -1.910714209079742432e-01 1.431822925806045532e-01 -1.436674036085605621e-02 4.473824203014373779e-01
2.630000000000000000e+02 3.079957199096679688e+01 -6.927375793457031250e+00 -1.673602938652038574e+00 6.396970897912979126e-02 -4.828899800777435303e-01 2.091110646724700928e-01
2.640000000000000000e+02 3.141783714294433594e+01 -7.659133434295654297e+00 6.415441036224365234e+00 7.144880771636962891e+00 4.068096637725830078e+00 7.294109821319580078e+00
2.650000000000000000e+02 3.165344047546386719e+01 -8.186301231384277344e+00 3.987962961196899414e+00 1.267610931396484375e+01 4.999221801757812500e+00 7.300488471984863281e+00
2.660000000000000000e+02 3.104123497009277344e+01 -8.151141166687011719e+00 4.650548934936523438e+00 5.846989154815673828e+00 3.149261474609375000e+00 5.868170261383056641e+00
2.670000000000000000e+02 3.130371665954589844e+01 -7.892303466796875000e+00 5.489535331726074219e+00 7.154840469360351562e+00 3.793312549591064453e+00 6.816948413848876953e+00
2.680000000000000000e+02 3.083238220214843750e+01 -8.153857231140136719e+00 4.472352981567382812e+00 4.247179985046386719e+00 2.615859746932983398e+00 5.064414501190185547e+00
2.690000000000000000e+02 2.923131942749023438e+01 -7.799358844757080078e+00 3.673526942729949951e-01 2.866819798946380615e-01 1.962104141712188721e-01 7.347335219383239746e-01
2.700000000000000000e+02 3.043583297729492188e+01 -7.876609325408935547e+00 3.244793415069580078e+00 1.724939107894897461e+00 1.490919709205627441e+00 2.917154312133789062e+00
2.710000000000000000e+02 3.011173057556152344e+01 -7.851516723632812500e+00 2.415820837020874023e+00 1.035971045494079590e+00 1.035537481307983398e+00 2.121599912643432617e+00
2.720000000000000000e+02 3.191202926635742188e+01 -8.053616523742675781e+00 3.559749364852905273e+00 1.682503509521484375e+01 6.115435600280761719e+00 7.067570209503173828e+00
2.730000000000000000e+02 3.063708877563476562e+01 -7.893610000610351562e+00 3.934662818908691406e+00 2.379719972610473633e+00 1.894314765930175781e+00 3.677989244461059570e+00
2.740000000000000000e+02 3.201917266845703125e+01 -8.183096885681152344e+00 2.843369245529174805e+00 1.769942665100097656e+01 6.162838459014892578e+00 6.257364749908447266e+00
2.750000000000000000e+02 2.921493339538574219e+01 -6.476110935211181641e+00 -1.283414483070373535e+00 -6.500784307718276978e-02 -4.045267105102539062e-01 -7.773279398679733276e-02
2.760000000000000000e+02 2.945216178894042969e+01 -6.113181591033935547e+00 5.258591175079345703e-01 1.192584037780761719e-01 1.935352534055709839e-01 -4.124639034271240234e-01
2.770000000000000000e+02 2.963964462280273438e+01 -5.910140991210937500e+00 1.634385347366333008e+00 4.427743554115295410e-01 6.231479048728942871e-01 -1.024114012718200684e+00
2.780000000000000000e+02 2.965139389038085938e+01 -5.685139656066894531e+00 2.105221748352050781e+00 6.326289772987365723e-01 8.213552236557006836e-01 -1.349023461341857910e+00
2.790000000000000000e+02 2.963832855224609375e+01 -5.433029174804687500e+00 2.774808168411254883e+00 9.679840803146362305e-01 1.122837662696838379e+00 -1.890129208564758301e+00
2.800000000000000000e+02 3.009651947021484375e+01 -5.762681007385253906e+00 2.999574422836303711e+00 9.638709425926208496e-01 1.189033627510070801e+00 -1.906174659729003906e+00
2.810000000000000000e+02 3.004780769348144531e+01 -5.450074672698974609e+00 3.536771297454833984e+00 1.632232666015625000e+00 1.550701141357421875e+00 -2.663717985153198242e+00
2.820000000000000000e+02 3.104631233215332031e+01 -5.846598625183105469e+00 6.090671062469482422e+00 3.693358421325683594e+00 2.935208797454833984e+00 -5.176514625549316406e+00
2.830000000000000000e+02 2.955846405029296875e+01 -6.445449352264404297e+00 -7.763387560844421387e-01 1.125638559460639954e-01 -1.991324722766876221e-01 -1.606799662113189697e-01
2.840000000000000000e+02 3.083057594299316406e+01 -5.917141437530517578e+00 5.228794574737548828e+00 2.175990819931030273e+00 2.221435785293579102e+00 -3.769622087478637695e+00
2.850000000000000000e+02 3.004193878173828125e+01 -6.949202060699462891e+00 -2.555171251296997070e+00 -1.986292889341711998e-03 -7.671473026275634766e-01 -3.776021301746368408e-02
2.860000000000000000e+02 2.983545494079589844e+01 -6.950770378112792969e+00 -2.596885442733764648e+00 -9.266363456845283508e-03 -7.818455100059509277e-01 -2.880430780351161957e-02
2.870000000000000000e+02 3.008880615234375000e+01 -7.223566055297851562e+00 -3.891511559486389160e-01 7.934331148862838745e-02 -9.294235706329345703e-02 4.186624884605407715e-01
2.880000000000000000e+02 2.922166824340820312e+01 -6.272214889526367188e+00 -2.737958133220672607e-01 6.881438940763473511e-02 -6.149442493915557861e-02 -1.298330724239349365e-01
2.890000000000000000e+02 2.964000129699707031e+01 -7.182330131530761719e+00 -1.445659399032592773e+00 3.716473653912544250e-02 -4.225484132766723633e-01 1.519023925065994263e-01
2.900000000000000000e+02 3.013065147399902344e+01 -6.005829334259033203e+00 2.410117864608764648e+00 5.570121407508850098e-01 8.901389837265014648e-01 -1.383810400962829590e+00
2.910000000000000000e+02 3.020484352111816406e+01 -6.648279190063476562e+00 -1.515823006629943848e+00 6.414827425032854080e-03 -4.528224766254425049e-01 -9.444813430309295654e-02
2.920000000000000000e+02 2.996573829650878906e+01 -6.369549751281738281e+00 2.110877633094787598e-02 1.326524913311004639e-01 4.612838104367256165e-02 -3.762914836406707764e-01
2.930000000000000000e+02 3.060063171386718750e+01 -6.369974613189697266e+00 1.740340948104858398e+00 3.010033071041107178e-01 6.124032735824584961e-01 -9.395949244499206543e-01
2.940000000000000000e+02 3.038278579711914062e+01 -6.367185592651367188e+00 1.094986200332641602e+00 1.763385236263275146e-01 3.813973963260650635e-01 -6.703972816467285156e-01
2.950000000000000000e+02 2.981947708129882812e+01 -5.989895820617675781e+00 1.577770829200744629e+00 2.962429523468017578e-01 5.622041225433349609e-01 -9.494882225990295410e-01
2.960000000000000000e+02 3.051798629760742188e+01 -7.067022800445556641e+00 -7.319915294647216797e-01 1.266958713531494141e-01 -1.815886944532394409e-01 3.629513978958129883e-01
2.970000000000000000e+02 3.063703536987304688e+01 -7.655415058135986328e+00 3.355708599090576172e+00 1.463906288146972656e+00 1.445884466171264648e+00 2.755920410156250000e+00
2.980000000000000000e+02 2.985882186889648438e+01 -7.218276500701904297e+00 -8.674836754798889160e-01 4.797587916254997253e-02 -2.458523362874984741e-01 3.256713449954986572e-01
2.990000000000000000e+02 2.997770309448242188e+01 -7.607644557952880859e+00 1.078739762306213379e+00 3.685012757778167725e-01 4.341723024845123291e-01 1.142581582069396973e+00
3.000000000000000000e+02 3.116229057312011719e+01 -7.317324161529541016e+00 5.005528926849365234e+00 1.506205916404724121e+00 1.953520536422729492e+00 3.299937725067138672e+00
3.010000000000000000e+02 3.070652389526367188e+01 -7.168709278106689453e+00 8.393769264221191406e-01 2.226502746343612671e-01 3.186081647872924805e-01 7.710291743278503418e-01
3.020000000000000000e+02 3.015272712707519531e+01 -6.173273563385009766e+00 1.357564687728881836e+00 7.732873409986495972e-02 4.304680228233337402e-01 -8.354954123497009277e-01
3.030000000000000000e+02 2.944102859497070312e+01 -7.388998031616210938e+00 -7.102934718132019043e-01 4.874908830970525742e-03 -2.116255611181259155e-01 3.206991851329803467e-01
3.040000000000000000e+02 2.998864555358886719e+01 -6.118165493011474609e+00 1.493558287620544434e+00 3.859574794769287109e-01 5.638547539710998535e-01 -8.493583202362060547e-01
3.050000000000000000e+02 2.946983718872070312e+01 -7.613334655761718750e+00 3.189099431037902832e-01 2.183556258678436279e-01 1.611796766519546509e-01 6.612764596939086914e-01
3.060000000000000000e+02 2.944516754150390625e+01 -5.885843276977539062e+00 1.324323415756225586e+00 3.676257431507110596e-01 5.075847506523132324e-01 -8.297107219696044922e-01
3.070000000000000000e+02 2.943639945983886719e+01 -8.050549507141113281e+00 1.482810974121093750e+00 6.835135817527770996e-01 6.498973369598388672e-01 1.446440339088439941e+00
3.080000000000000000e+02 3.019595527648925781e+01 -8.139554023742675781e+00 3.155477285385131836e+00 1.733233332633972168e+00 1.466613173484802246e+00 2.904015779495239258e+00
3.090000000000000000e+02 2.981062698364257812e+01 -7.739082336425781250e+00 1.263522386550903320e+00 5.516831278800964355e-01 5.445616841316223145e-01 1.285719156265258789e+00
3.100000000000000000e+02 3.041130447387695312e+01 -8.137994766235351562e+00 3.629416227340698242e+00 2.355656623840332031e+00 1.795521855354309082e+00 3.500475883483886719e+00
3.110000000000000000e+02 2.948442459106445312e+01 -7.850652217864990234e+00 1.023540258407592773e+00 5.001766681671142578e-01 4.571150541305541992e-01 1.167109727859497070e+00
3.120000000000000000e+02 3.062527275085449219e+01 -8.153639793395996094e+00 4.078266620635986328e+00 3.181218862533569336e+00 2.177845716476440430e+00 4.187311172485351562e+00
3.130000000000000000e+02 2.922346305847167969e+01 -7.153759479522705078e+00 -1.890469312667846680e+00 -1.367151588201522827e-01 -6.081553101539611816e-01 1.174471303820610046e-01
3.140000000000000000e+02 2.943231964111328125e+01 -7.167596817016601562e+00 -1.762154579162597656e+00 -1.296041347086429596e-02 -5.325344800949096680e-01 1.490785330533981323e-01
3.150000000000000000e+02 3.084057044982910156e+01 -7.652208328247070312e+00 4.200484275817871094e+00 2.135961055755615234e+00 1.900933623313903809e+00 3.575475454330444336e+00
3.160000000000000000e+02 2.923125457763671875e+01 -6.066795349121093750e+00 4.150556325912475586e-01 1.775954067707061768e-01 1.777953207492828369e-01 -4.509941935539245605e-01
3.170000000000000000e+02 2.944437408447265625e+01 -5.659177780151367188e+00 1.905852317810058594e+00 6.259582638740539551e-01 7.595431804656982422e-01 -1.254119038581848145e+00
3.180000000000000000e+02 2.984239578247070312e+01 -5.443732738494873047e+00 3.092128515243530273e+00 1.176806926727294922e+00 1.280680656433105469e+00 -2.156142950057983398e+00
3.190000000000000000e+02 3.032284164428710938e+01 -5.737307548522949219e+00 3.678745746612548828e+00 1.270200252532958984e+00 1.484683752059936523e+00 -2.520110368728637695e+00
3.200000000000000000e+02 2.939539337158203125e+01 -6.485612869262695312e+00 -1.217547774314880371e+00 5.244148895144462585e-03 -3.636910915374755859e-01 -8.945924043655395508e-02
3.210000000000000000e+02 2.941272544860839844e+01 -6.683351993560791016e+00 -1.943685412406921387e+00 5.570685863494873047e-02 -5.663935542106628418e-01 -2.971797948703169823e-03
3.220000000000000000e+02 3.025115585327148438e+01 -5.444298267364501953e+00 4.038567066192626953e+00 1.996089696884155273e+00 1.810397028923034668e+00 -3.147708654403686523e+00
3.230000000000000000e+02 3.106946372985839844e+01 -5.568467140197753906e+00 5.826774597167968750e+00 5.037586212158203125e+00 3.259308338165283203e+00 -5.966063499450683594e+00
3.240000000000000000e+02 3.102741813659667969e+01 -5.386095046997070312e+00 5.348130226135253906e+00 5.870554924011230469e+00 3.365605592727661133e+00 -5.929666519165039062e+00
3.250000000000000000e+02 3.117788505554199219e+01 -5.709205150604248047e+00 6.423045635223388672e+00 5.760227203369140625e+00 3.654981851577758789e+00 -6.421690464019775391e+00
3.260000000000000000e+02 3.135035705566406250e+01 -5.748977184295654297e+00 6.579607486724853516e+00 7.330954074859619141e+00 4.173168182373046875e+00 -7.276909828186035156e+00
3.270000000000000000e+02 3.220381927490234375e+01 -5.414084911346435547e+00 3.187920331954956055e+00 1.986901473999023438e+01 6.917080402374267578e+00 -5.218703269958496094e+00
3.280000000000000000e+02 3.258101654052734375e+01 -5.669021606445312500e+00 4.582191467285156250e+00 2.385032081604003906e+01 8.529753684997558594e+00 -1.352810859680175781e+00
3.290000000000000000e+02 3.278869247436523438e+01 -5.947709083557128906e+00 7.628565311431884766e+00 2.523411941528320312e+01 9.858805656433105469e+00 1.792588710784912109e+00
3.300000000000000000e+02 3.325714492797851562e+01 -6.009062290191650391e+00 9.588774681091308594e+00 2.020904541015625000e+01 8.939345359802246094e+00 2.652040243148803711e+00
3.310000000000000000e+02 3.336828231811523438e+01 -6.156137466430664062e+00 1.106169319152832031e+01 1.944962310791015625e+01 9.153394699096679688e+00 2.714699983596801758e+00
3.320000000000000000e+02 3.345926666259765625e+01 -6.483746528625488281e+00 1.316329956054687500e+01 1.804708099365234375e+01 9.363114356994628906e+00 1.333386421203613281e+00
3.330000000000000000e+02 3.338133239746093750e+01 -7.377204418182373047e+00 1.092252826690673828e+01 1.931039428710937500e+01 9.069876670837402344e+00 -3.052530527114868164e+00
3.340000000000000000e+02 2.960634613037109375e+01 -6.671139717102050781e+00 -1.880894184112548828e+00 -6.216197740286588669e-03 -5.661330819129943848e-01 -4.347684979438781738e-02
3.350000000000000000e+02 3.017700958251953125e+01 -6.385569095611572266e+00 4.264502227306365967e-01 7.685419917106628418e-02 1.509913206100463867e-01 -5.083805322647094727e-01
3.360000000000000000e+02 3.043320274353027344e+01 -6.899978160858154297e+00 -2.423063993453979492e+00 4.987777397036552429e-02 -7.119559049606323242e-01 2.204983867704868317e-02
3.370000000000000000e+02 3.184123039245605469e+01 -8.203364372253417969e+00 3.344439506530761719e+00 1.484274291992187500e+01 5.456154823303222656e+00 6.913101673126220703e+00
3.380000000000000000e+02 3.145252227783203125e+01 -8.170579910278320312e+00 4.617551326751708984e+00 1.008632183074951172e+01 4.411161899566650391e+00 7.238861083984375000e+00
3.390000000000000000e+02 3.124842262268066406e+01 -8.156240463256835938e+00 4.701238632202148438e+00 7.751026630401611328e+00 3.735679626464843750e+00 6.596749305725097656e+00
3.400000000000000000e+02 3.084614753723144531e+01 -7.890353202819824219e+00 4.556120872497558594e+00 3.131367921829223633e+00 2.306246757507324219e+00 4.419844150543212891e+00
3.410000000000000000e+02 3.060621070861816406e+01 -6.897977828979492188e+00 -2.075997591018676758e+00 3.133034333586692810e-02 -6.134002208709716797e-01 1.267548501491546631e-01
3.420000000000000000e+02 3.032402420043945312e+01 -7.172070503234863281e+00 -2.737796008586883545e-01 1.559030711650848389e-01 -3.536295145750045776e-02 4.380021989345550537e-01
3.430000000000000000e+02 3.082992744445800781e+01 -7.440387725830078125e+00 3.440893650054931641e+00 1.135506033897399902e+00 1.372919917106628418e+00 2.464712619781494141e+00
3.440000000000000000e+02 3.105778121948242188e+01 -7.619710922241210938e+00 5.260457038879394531e+00 3.186521291732788086e+00 2.534093379974365234e+00 4.642742156982421875e+00
3.450000000000000000e+02 3.141756820678710938e+01 -5.925394535064697266e+00 7.374972343444824219e+00 7.161805152893066406e+00 4.361033439636230469e+00 -7.490506649017333984e+00
3.460000000000000000e+02 3.159591293334960938e+01 -5.832535266876220703e+00 6.876754283905029297e+00 1.146921348571777344e+01 5.503790378570556641e+00 -8.850273132324218750e+00
3.470000000000000000e+02 3.150850105285644531e+01 -5.677808761596679688e+00 6.114462852478027344e+00 1.031358337402343750e+01 4.928413867950439453e+00 -8.018651008605957031e+00
3.480000000000000000e+02 3.294187164306640625e+01 -6.053428173065185547e+00 9.669311523437500000e+00 2.345335388183593750e+01 9.936800003051757812e+00 2.757630586624145508e+00
3.490000000000000000e+02 2.963603973388671875e+01 -7.390511989593505859e+00 -5.180406570434570312e-01 6.292101740837097168e-02 -1.365358978509902954e-01 3.822177052497863770e-01
3.500000000000000000e+02 2.967871093750000000e+01 -7.575414657592773438e+00 5.417181849479675293e-01 2.395026087760925293e-01 2.343662381172180176e-01 8.373046517372131348e-01
3.510000000000000000e+02 3.052703475952148438e+01 -5.696374416351318359e+00 4.521911621093750000e+00 1.958457231521606445e+00 1.944110631942749023e+00 -3.335380792617797852e+00
3.520000000000000000e+02 3.062454986572265625e+01 -6.134886741638183594e+00 3.225889205932617188e+00 7.404599189758300781e-01 1.189904689788818359e+00 -1.966546416282653809e+00
3.530000000000000000e+02 3.121660041809082031e+01 -5.553771495819091797e+00 5.821942329406738281e+00 7.294327735900878906e+00 3.934880971908569336e+00 -6.803598403930664062e+00
3.540000000000000000e+02 3.089588356018066406e+01 -7.258884429931640625e+00 2.588872194290161133e+00 5.170304179191589355e-01 9.317708015441894531e-01 1.681712865829467773e+00
3.550000000000000000e+02 2.967005348205566406e+01 -6.122196197509765625e+00 8.031560778617858887e-01 1.986219137907028198e-01 3.005333840847015381e-01 -5.508468151092529297e-01
3.560000000000000000e+02 3.063113975524902344e+01 -7.410127639770507812e+00 2.431762218475341797e+00 7.431365847587585449e-01 9.524696469306945801e-01 1.781065940856933594e+00
3.570000000000000000e+02 2.981636810302734375e+01 -7.440403461456298828e+00 1.713759005069732666e-01 2.102047353982925415e-01 1.144741922616958618e-01 6.492190957069396973e-01
3.580000000000000000e+02 2.972823715209960938e+01 -7.914965152740478516e+00 1.601263642311096191e+00 7.371537089347839355e-01 7.015252113342285156e-01 1.551020741462707520e+00
3.590000000000000000e+02 3.086345672607421875e+01 -6.165142536163330078e+00 4.411520481109619141e+00 1.256172657012939453e+00 1.700307846069335938e+00 -2.689669847488403320e+00
3.600000000000000000e+02 3.043868637084960938e+01 -6.000218391418457031e+00 3.216744422912597656e+00 8.700275421142578125e-01 1.226031541824340820e+00 -1.924583435058593750e+00
3.610000000000000000e+02 3.028000068664550781e+01 -7.742737293243408203e+00 2.632092475891113281e+00 9.635109901428222656e-01 1.078680992126464844e+00 2.171023368835449219e+00
3.620000000000000000e+02 3.016867637634277344e+01 -7.493312358856201172e+00 1.083248019218444824e+00 4.302659034729003906e-01 4.540541768074035645e-01 1.129970669746398926e+00
3.630000000000000000e+02 2.992669677734375000e+01 -7.919365406036376953e+00 2.099846363067626953e+00 9.222944974899291992e-01 9.066422581672668457e-01 1.884134650230407715e+00
3.640000000000000000e+02 3.030088233947753906e+01 -6.115924358367919922e+00 2.182642221450805664e+00 4.976952373981475830e-01 8.041012287139892578e-01 -1.374961137771606445e+00
3.650000000000000000e+02 3.039840698242187500e+01 -7.423066139221191406e+00 1.589771151542663574e+00 4.509899020195007324e-01 6.122283339500427246e-01 1.299570560455322266e+00
3.660000000000000000e+02 2.798905944824218750e+01 -5.622419357299804688e+00 3.417091667652130127e-01 2.056518942117691040e-01 1.642083227634429932e-01 -3.454207181930541992e-01
3.670000000000000000e+02 2.725735855102539062e+01 -5.639627456665039062e+00 -9.093313664197921753e-02 7.717612385749816895e-02 -4.127101972699165344e-03 -1.363943517208099365e-01
3.680000000000000000e+02 2.711894989013671875e+01 -6.376631736755371094e+00 -1.477220416069030762e+00 -2.732718177139759064e-02 -4.513642787933349609e-01 9.960336983203887939e-02
3.690000000000000000e+02 2.896176528930664062e+01 -5.858388423919677734e+00 8.733270168304443359e-01 1.933799684047698975e-01 3.200120925903320312e-01 -6.062135696411132812e-01
3.700000000000000000e+02 2.900771331787109375e+01 -6.057620048522949219e+00 1.799433976411819458e-01 1.506172418594360352e-01 9.916818886995315552e-02 -3.752708137035369873e-01
3.710000000000000000e+02 2.893575096130371094e+01 -5.642704963684082031e+00 1.219507455825805664e+00 1.643705368041992188e-01 4.151633977890014648e-01 -7.084853649139404297e-01
3.720000000000000000e+02 2.653403091430664062e+01 -5.616228580474853516e+00 -3.680720329284667969e-01 6.003723293542861938e-02 -9.241044521331787109e-02 7.516307290643453598e-03
3.730000000000000000e+02 2.646218872070312500e+01 -6.354768276214599609e+00 -1.385923624038696289e+00 8.624021895229816437e-03 -4.131898880004882812e-01 9.525588899850845337e-02
3.740000000000000000e+02 2.769353485107421875e+01 -6.487160205841064453e+00 -1.580647945404052734e+00 2.793857082724571228e-02 -4.658128023147583008e-01 1.151247918605804443e-01
3.750000000000000000e+02 2.863455772399902344e+01 -5.941945552825927734e+00 1.679469496011734009e-01 1.776015013456344604e-01 1.036645323038101196e-01 -3.990600705146789551e-01
3.760000000000000000e+02 2.900841712951660156e+01 -6.239964485168457031e+00 -4.431107342243194580e-01 1.042706891894340515e-01 -1.016520187258720398e-01 -1.193706393241882324e-01
3.770000000000000000e+02 2.896081161499023438e+01 -6.433202266693115234e+00 -9.942307472229003906e-01 1.314049214124679565e-01 -2.588477432727813721e-01 -3.760185837745666504e-02
3.780000000000000000e+02 2.887662696838378906e+01 -6.659286022186279297e+00 -2.051634311676025391e+00 5.910670012235641479e-02 -5.977582931518554688e-01 5.235533043742179871e-02
3.790000000000000000e+02 2.845293235778808594e+01 -6.167184352874755859e+00 -5.667821168899536133e-01 1.408254355192184448e-01 -1.277870088815689087e-01 -1.472505629062652588e-01
3.800000000000000000e+02 2.884877204895019531e+01 -5.416422843933105469e+00 1.441608428955078125e+00 3.949544727802276611e-01 5.509688258171081543e-01 -9.515349864959716797e-01
3.810000000000000000e+02 2.854836463928222656e+01 -5.623977184295654297e+00 8.690356612205505371e-01 3.128871917724609375e-01 3.545768558979034424e-01 -5.836735367774963379e-01
3.820000000000000000e+02 2.817545127868652344e+01 -6.570935249328613281e+00 -1.841125369071960449e+00 -5.335197597742080688e-02 -5.683432221412658691e-01 1.399072110652923584e-01
3.830000000000000000e+02 2.853377914428710938e+01 -6.483243465423583984e+00 -1.605736255645751953e+00 8.323325216770172119e-02 -4.567508995532989502e-01 3.575698286294937134e-02
3.840000000000000000e+02 2.869692993164062500e+01 -6.306938648223876953e+00 -7.917657494544982910e-01 4.377007856965065002e-02 -2.243987023830413818e-01 -1.106204539537429810e-01
3.850000000000000000e+02 2.803943061828613281e+01 -6.168186664581298828e+00 -8.244417905807495117e-01 3.832806646823883057e-02 -2.358341068029403687e-01 -4.723346978425979614e-02
3.860000000000000000e+02 2.881753540039062500e+01 -6.137589454650878906e+00 -3.264277577400207520e-01 9.909022599458694458e-02 -6.820125877857208252e-02 -2.206990569829940796e-01
3.870000000000000000e+02 2.428754043579101562e+01 -6.197861671447753906e+00 -1.131842136383056641e+00 -1.300299819558858871e-02 -3.434535264968872070e-01 1.622473746538162231e-01
3.880000000000000000e+02 2.502826499938964844e+01 -6.258197307586669922e+00 -1.249516725540161133e+00 -9.962256997823715210e-03 -3.778436779975891113e-01 1.579871773719787598e-01
3.890000000000000000e+02 2.581491851806640625e+01 -5.581003189086914062e+00 -4.886167943477630615e-01 6.773777306079864502e-02 -1.262637078762054443e-01 6.737472862005233765e-02
3.900000000000000000e+02 2.363185691833496094e+01 -5.403356075286865234e+00 -5.093740224838256836e-01 5.846934858709573746e-03 -1.510581225156784058e-01 2.222914695739746094e-01
3.910000000000000000e+02 2.435861396789550781e+01 -5.461198806762695312e+00 -5.157130956649780273e-01 1.542716380208730698e-02 -1.500857770442962646e-01 1.879181116819381714e-01
3.920000000000000000e+02 2.508633232116699219e+01 -5.520476818084716797e+00 -5.116884112358093262e-01 3.339385241270065308e-02 -1.434883773326873779e-01 1.237229630351066589e-01
3.930000000000000000e+02 2.354777717590332031e+01 -6.138960838317871094e+00 -9.718166589736938477e-01 -5.353081040084362030e-03 -2.931509315967559814e-01 1.733940690755844116e-01
3.940000000000000000e+02 2.576985549926757812e+01 -6.319781780242919922e+00 -1.320737600326538086e+00 1.421151682734489441e-02 -3.919578194618225098e-01 1.305022835731506348e-01
3.950000000000000000e+02 2.146717453002929688e+01 -5.077126979827880859e+00 -2.706297039985656738e-01 -6.400616466999053955e-02 -1.003907546401023865e-01 2.745439708232879639e-01
3.960000000000000000e+02 2.134441947937011719e+01 -5.806876659393310547e+00 -5.285861492156982422e-01 -4.912249743938446045e-02 -1.733126044273376465e-01 1.746608167886734009e-01
3.970000000000000000e+02 2.061148262023925781e+01 -5.684748649597167969e+00 -3.451975584030151367e-01 -2.847850695252418518e-02 -1.121028214693069458e-01 1.561084091663360596e-01
3.980000000000000000e+02 2.207760429382324219e+01 -5.928263664245605469e+00 -6.930500268936157227e-01 -3.420698270201683044e-02 -2.181770950555801392e-01 1.976114213466644287e-01
3.990000000000000000e+02 2.290797805786132812e+01 -5.314875125885009766e+00 -4.513283371925354004e-01 -7.034579291939735413e-03 -1.375088691711425781e-01 2.400551587343215942e-01
4.000000000000000000e+02 2.281096076965332031e+01 -6.048885822296142578e+00 -8.268271088600158691e-01 -2.269051223993301392e-02 -2.548552751541137695e-01 1.904871761798858643e-01
4.010000000000000000e+02 2.074710655212402344e+01 -4.957129478454589844e+00 -1.938872039318084717e-01 -8.661520481109619141e-02 -8.415072411298751831e-02 2.540002465248107910e-01
4.020000000000000000e+02 2.218749046325683594e+01 -5.196383476257324219e+00 -3.604124188423156738e-01 -4.054061695933341980e-02 -1.202859133481979370e-01 2.533179521560668945e-01
4.030000000000000000e+02 1.905580329895019531e+01 -4.613489627838134766e+00 -4.077613726258277893e-02 -1.761364191770553589e-01 -6.507376581430435181e-02 1.232494190335273743e-01
4.040000000000000000e+02 1.978026580810546875e+01 -5.523462295532226562e+00 -1.668031066656112671e-01 -5.674248561263084412e-02 -6.706367433071136475e-02 1.052980646491050720e-01
4.050000000000000000e+02 1.992511749267578125e+01 -4.797539234161376953e+00 -1.004741266369819641e-01 -1.052044555544853210e-01 -6.170357763767242432e-02 2.246062457561492920e-01
4.060000000000000000e+02 1.847771644592285156e+01 -4.667171001434326172e+00 -4.582620225846767426e-03 -7.864360511302947998e-02 -2.496786601841449738e-02 -2.879991196095943451e-03
4.070000000000000000e+02 1.890536689758300781e+01 -5.338151454925537109e+00 -2.319618687033653259e-02 -2.418436668813228607e-02 -1.421416550874710083e-02 5.254535377025604248e-02
4.080000000000000000e+02 1.882146453857421875e+01 -6.111851215362548828e+00 -7.048537582159042358e-02 1.695080311037600040e-03 -2.063708938658237457e-02 -4.364623501896858215e-02
4.090000000000000000e+02 1.800308799743652344e+01 -6.754832744598388672e+00 -3.024110384285449982e-02 -2.405696660280227661e-01 -8.124323189258575439e-02 -1.101572588086128235e-01
4.100000000000000000e+02 1.831862449645996094e+01 -6.817986488342285156e+00 -1.568734347820281982e-01 -8.842774480581283569e-02 -7.359035313129425049e-02 -1.463210433721542358e-01
4.110000000000000000e+02 1.959215354919433594e+01 -7.028707504272460938e+00 -4.297575652599334717e-01 4.725545272231101990e-02 -1.147506311535835266e-01 -2.228322178125381470e-01
4.120000000000000000e+02 1.890554809570312500e+01 -6.889476776123046875e+00 -3.040868341922760010e-01 -1.975961402058601379e-02 -9.715393185615539551e-02 -1.933059096336364746e-01
4.130000000000000000e+02 1.965883255004882812e+01 -6.285129547119140625e+00 -2.996782362461090088e-01 1.387071330100297928e-02 -8.574225753545761108e-02 -5.162870883941650391e-02
4.140000000000000000e+02 1.828899765014648438e+01 -6.266255378723144531e+00 -2.624597027897834778e-02 -5.793878808617591858e-03 -9.611954912543296814e-03 -3.019261918962001801e-02
4.150000000000000000e+02 1.796524238586425781e+01 -6.500696659088134766e+00 1.661808928474783897e-03 -8.931653946638107300e-02 -2.629642002284526825e-02 -1.111625973135232925e-02
4.160000000000000000e+02 1.885776901245117188e+01 -7.603167533874511719e+00 -3.560332953929901123e-01 -3.398649394512176514e-02 -1.170059442520141602e-01 -3.038236200809478760e-01
4.170000000000000000e+02 1.717102050781250000e+01 -9.278619766235351562e+00 -3.322803676128387451e-01 -5.896255373954772949e-01 -2.765717506408691406e-01 -4.626884162425994873e-01
4.180000000000000000e+02 2.169151878356933594e+01 -8.946245193481445312e+00 -4.702871739864349365e-01 1.689060777425765991e-01 -9.041433036327362061e-02 -3.778662681579589844e-01
4.190000000000000000e+02 2.814311981201171875e+01 -8.556483268737792969e+00 7.367795109748840332e-01 4.241769611835479736e-01 3.482869565486907959e-01 8.981249928474426270e-01
4.200000000000000000e+02 2.408743476867675781e+01 -8.394777297973632812e+00 -7.131694555282592773e-01 8.532274514436721802e-02 -1.883540153503417969e-01 -1.718280166387557983e-01
4.210000000000000000e+02 1.507756423950195312e+01 -1.280172538757324219e+01 -5.524926781654357910e-01 -9.982755184173583984e-01 -4.652304649353027344e-01 -7.092545032501220703e-01
4.220000000000000000e+02 1.239487552642822266e+01 -1.604518508911132812e+01 -7.265176773071289062e-01 -8.063201904296875000e-01 -4.598513543605804443e-01 -7.468954324722290039e-01
4.230000000000000000e+02 1.427491283416748047e+01 -1.586270904541015625e+01 -4.711577296257019043e-01 -5.681150555610656738e-01 -3.117818236351013184e-01 -4.607405960559844971e-01
4.240000000000000000e+02 1.389848899841308594e+01 -2.274830245971679688e+01 1.920073032379150391e-01 2.312441915273666382e-01 1.269754469394683838e-01 1.409245878458023071e-01
4.250000000000000000e+02 1.818921089172363281e+01 -3.229270553588867188e+01 5.356724187731742859e-02 1.954913973808288574e+00 6.025443673133850098e-01 3.533959686756134033e-01
4.260000000000000000e+02 1.781373214721679688e+01 -4.054926681518554688e+01 -7.464135438203811646e-02 2.075758457183837891e+00 6.003351807594299316e-01 7.127168774604797363e-02
4.270000000000000000e+02 2.270363235473632812e+01 -4.081593322753906250e+01 -2.952739596366882324e-01 3.309349060058593750e+00 9.042224884033203125e-01 8.505823463201522827e-02
4.280000000000000000e+02 1.907657432556152344e+01 -3.678608322143554688e+01 -6.806673109531402588e-02 2.322728872299194336e+00 6.763986945152282715e-01 2.364714145660400391e-01
4.290000000000000000e+02 2.493918800354003906e+01 -3.061555290222167969e+01 -2.478745281696319580e-01 3.716231107711791992e+00 1.040506958961486816e+00 7.235106229782104492e-01
4.300000000000000000e+02 2.005969429016113281e+01 -2.321590423583984375e+01 2.195380628108978271e-01 1.794257998466491699e+00 6.041387915611267090e-01 7.999727129936218262e-01
4.310000000000000000e+02 2.083211135864257812e+01 -1.665758323669433594e+01 3.504007756710052490e-01 1.105821132659912109e+00 4.368665814399719238e-01 6.255519986152648926e-01
4.320000000000000000e+02 2.336192131042480469e+01 -1.325646686553955078e+01 6.932184100151062012e-01 1.065790534019470215e+00 5.277026891708374023e-01 6.395269632339477539e-01
4.330000000000000000e+02 1.332378005981445312e+01 -1.498140335083007812e+01 -6.904321908950805664e-01 -8.649650216102600098e-01 -4.666191637516021729e-01 -7.476083636283874512e-01
4.340000000000000000e+02 1.142682170867919922e+01 -1.717205619812011719e+01 -9.254087209701538086e-01 -7.504928708076477051e-01 -5.027704834938049316e-01 -7.157372832298278809e-01
4.350000000000000000e+02 1.024026393890380859e+01 -1.806659698486328125e+01 -1.223008155822753906e+00 -5.842797160148620605e-01 -5.421863794326782227e-01 -5.944413542747497559e-01
4.360000000000000000e+02 8.961634635925292969e+00 -1.836739349365234375e+01 -9.835161566734313965e-01 -2.234423905611038208e-01 -3.620875775814056396e-01 -2.852875888347625732e-01
4.370000000000000000e+02 7.187123775482177734e+00 -1.736732482910156250e+01 -2.409099489450454712e-01 3.659864887595176697e-02 -6.129338964819908142e-02 -6.416058167815208435e-04
4.380000000000000000e+02 6.371779918670654297e+00 -1.639526939392089844e+01 -2.394663728773593903e-02 1.323659904301166534e-02 -3.213011659681797028e-03 5.622974596917629242e-03
4.390000000000000000e+02 7.090156078338623047e+00 -1.513194465637207031e+01 1.230342034250497818e-02 4.871350526809692383e-02 1.830507814884185791e-02 -1.224556006491184235e-02
4.400000000000000000e+02 8.842112541198730469e+00 -1.149538326263427734e+01 -2.873992780223488808e-03 -7.393212290480732918e-04 -1.083994284272193909e-03 2.426048275083303452e-03
4.410000000000000000e+02 9.632688522338867188e+00 -1.033275699615478516e+01 1.896182424388825893e-03 1.432207878679037094e-03 9.985171491280198097e-04 -1.458464888855814934e-03
4.420000000000000000e+02 1.214947795867919922e+01 -7.059560775756835938e+00 -1.118241925723850727e-03 -4.585939750541001558e-04 -4.730507789645344019e-04 5.554637755267322063e-04
4.430000000000000000e+02 1.173560142517089844e+01 -2.756239652633666992e+00 -5.289010005071759224e-04 1.953039609361439943e-04 -1.000791162368841469e-04 4.811779363080859184e-04
4.440000000000000000e+02 1.226623249053955078e+01 -4.650527477264404297e+00 6.975993164815008640e-04 2.309973933733999729e-04 2.785790129564702511e-04 -5.660428432747721672e-04
4.450000000000000000e+02 1.105258274078369141e+01 -1.915154457092285156e+00 -2.652429684530943632e-04 6.577576186828082427e-06 -7.759961590636521578e-05 4.237603570800274611e-04
4.460000000000000000e+02 4.282533645629882812e+00 -1.938730001449584961e+00 -5.496369340107776225e-05 1.301244046771898866e-04 2.254821083624847233e-05 -1.981818350031971931e-04
4.470000000000000000e+02 1.634333968162536621e+00 -1.467275714874267578e+01 1.274976995773613453e-03 5.659861955791711807e-03 2.080451697111129761e-03 1.053736265748739243e-02
4.480000000000000000e+02 4.419796943664550781e+00 -1.862341690063476562e+01 -1.761560142040252686e-01 -1.745500601828098297e-02 -5.808330699801445007e-02 -1.166596710681915283e-01
4.490000000000000000e+02 6.632964611053466797e-01 -2.477688598632812500e+01 -1.808446017093956470e-03 -4.155895113945007324e-01 -1.252193897962570190e-01 -6.043078377842903137e-02
4.500000000000000000e+02 7.759597301483154297e-01 -3.188972091674804688e+01 5.364243406802415848e-03 -9.216923117637634277e-01 -2.748984396457672119e-01 -3.278759121894836426e-02
4.510000000000000000e+02 2.826317071914672852e+00 -3.790356063842773438e+01 4.155343770980834961e-02 -7.379099130630493164e-01 -2.089069336652755737e-01 2.851631678640842438e-02
4.520000000000000000e+02 8.057801723480224609e-01 -3.728426361083984375e+01 1.168754231184720993e-02 -1.005051016807556152e+00 -2.980090379714965820e-01 2.523051574826240540e-02
4.530000000000000000e+02 8.857469558715820312e+00 -3.803626251220703125e+01 6.885466724634170532e-02 2.995725870132446289e-01 1.105281710624694824e-01 -3.935174643993377686e-02
4.540000000000000000e+02 7.800496578216552734e+00 -3.316041946411132812e+01 1.078628674149513245e-01 7.547089457511901855e-02 5.500012636184692383e-02 -8.774088323116302490e-02
4.550000000000000000e+02 1.232267284393310547e+01 -2.119083976745605469e+01 2.025805599987506866e-02 -1.755485832691192627e-01 -4.658715799450874329e-02 -7.452531158924102783e-02
4.560000000000000000e+02 1.114213085174560547e+01 -2.271871757507324219e+01 1.030897796154022217e-01 -1.336510330438613892e-01 -9.168375283479690552e-03 -1.452287733554840088e-01
4.570000000000000000e+02 6.343049407005310059e-01 -2.335096740722656250e+01 -3.025779500603675842e-03 -2.895031571388244629e-01 -8.775868266820907593e-02 -5.512923747301101685e-02
4.580000000000000000e+02 1.254719448089599609e+01 -2.000513076782226562e+00 -1.333319523837417364e-04 5.604356556432321668e-05 -2.318651604582555592e-05 7.631383050465956330e-05
4.590000000000000000e+02 2.752505111694335938e+01 -4.087721633911132812e+01 -5.692578554153442383e-01 4.507186889648437500e+00 1.181378722190856934e+00 9.288336336612701416e-02
4.600000000000000000e+02 2.756648826599121094e+01 -3.756916809082031250e+01 -5.564044713973999023e-01 4.526908397674560547e+00 1.191151142120361328e+00 2.976761460304260254e-01
4.610000000000000000e+02 3.023812675476074219e+01 -2.832591247558593750e+01 -5.927639007568359375e-01 5.482472419738769531e+00 1.466912508010864258e+00 8.669753074645996094e-01
4.620000000000000000e+02 2.759207916259765625e+01 -2.139316749572753906e+01 -1.306206826120615005e-02 4.625068187713623047e+00 1.383601903915405273e+00 1.558608293533325195e+00
4.630000000000000000e+02 2.646161651611328125e+01 -1.463182163238525391e+01 1.005297303199768066e+00 2.970003366470336914e+00 1.192590236663818359e+00 1.878946185111999512e+00
4.640000000000000000e+02 4.238785934448242188e+01 -4.038690948486328125e+01 -1.059796571731567383e+00 7.321641921997070312e+00 1.878553509712219238e+00 -1.872402848675847054e-03
4.650000000000000000e+02 3.729756164550781250e+01 -4.041272354125976562e+01 -1.012549042701721191e+00 6.671937942504882812e+00 1.697816610336303711e+00 5.028971284627914429e-02
4.660000000000000000e+02 3.938268280029296875e+01 -3.447337341308593750e+01 -1.015374898910522461e+00 7.129065036773681641e+00 1.834107041358947754e+00 8.118071407079696655e-02
4.670000000000000000e+02 3.343674850463867188e+01 -2.302362823486328125e+01 -6.366298198699951172e-01 6.904760360717773438e+00 1.880439162254333496e+00 9.536503553390502930e-01
4.680000000000000000e+02 3.491016387939453125e+01 -1.471935176849365234e+01 -1.178103908896446228e-01 9.949344635009765625e+00 2.949460268020629883e+00 6.651154756546020508e-01
4.690000000000000000e+02 4.295281982421875000e+01 -3.647434234619140625e+01 -1.028333902359008789e+00 7.454947948455810547e+00 1.927984237670898438e+00 -3.470759838819503784e-02
4.700000000000000000e+02 4.410526275634765625e+01 -3.316063308715820312e+01 -9.540692567825317383e-01 7.695794105529785156e+00 2.022517442703247070e+00 -1.243860051035881042e-01
4.710000000000000000e+02 4.026694869995117188e+01 -2.442896270751953125e+01 -7.281348705291748047e-01 8.055129051208496094e+00 2.198098182678222656e+00 -9.639263898134231567e-02
4.720000000000000000e+02 3.936600875854492188e+01 -1.924212837219238281e+01 -3.299650251865386963e-01 8.768748283386230469e+00 2.531634807586669922e+00 -2.615016698837280273e-01
4.730000000000000000e+02 3.928149795532226562e+01 -8.473317146301269531e+00 4.101845264434814453e+00 9.398504257202148438e+00 4.050105094909667969e+00 -8.343131542205810547e-01
4.740000000000000000e+02 4.025876235961914062e+01 4.744693279266357422e+00 9.912600368261337280e-02 8.780346870422363281e+00 2.663841962814331055e+00 4.968181252479553223e-01
4.750000000000000000e+02 4.000116348266601562e+01 1.157964992523193359e+01 -5.526946783065795898e-01 7.711635589599609375e+00 2.147682428359985352e+00 3.383623203262686729e-03
4.760000000000000000e+02 4.402811431884765625e+01 1.582134437561035156e+01 -5.881842374801635742e-01 7.568781852722167969e+00 2.094179153442382812e+00 2.949916720390319824e-01
4.770000000000000000e+02 4.597016525268554688e+01 2.071447563171386719e+01 -6.643452644348144531e-01 7.381313800811767578e+00 2.015090465545654297e+00 2.963113188743591309e-01
4.780000000000000000e+02 4.366721343994140625e+01 3.393111419677734375e+01 -7.600426673889160156e-01 6.681704044342041016e+00 1.776498436927795410e+00 2.815169095993041992e-02
4.790000000000000000e+02 4.259632873535156250e+01 4.051271820068359375e+01 -7.721334099769592285e-01 6.437808990478515625e+00 1.699702739715576172e+00 3.506910521537065506e-03
4.800000000000000000e+02 3.753598022460937500e+01 4.047189712524414062e+01 -7.477759718894958496e-01 5.833153724670410156e+00 1.525613307952880859e+00 -2.390748262405395508e-02
4.810000000000000000e+02 3.955122375488281250e+01 3.179781532287597656e+01 -7.682113647460937500e-01 6.194765090942382812e+00 1.627966046333312988e+00 -5.769059062004089355e-02
4.820000000000000000e+02 4.097515869140625000e+01 2.433803749084472656e+01 -7.542696595191955566e-01 6.697351932525634766e+00 1.782924652099609375e+00 -2.621230855584144592e-02
4.830000000000000000e+02 3.451398849487304688e+01 1.617071151733398438e+01 -6.160621047019958496e-01 6.285369873046875000e+00 1.700792312622070312e+00 -6.344486474990844727e-01
4.840000000000000000e+02 3.334396362304687500e+01 1.301792144775390625e+01 -5.265448093414306641e-01 6.354570388793945312e+00 1.748407721519470215e+00 -8.998983502388000488e-01
4.850000000000000000e+02 3.384098434448242188e+01 6.182695865631103516e+00 -3.846804499626159668e-01 7.677008152008056641e+00 2.187698364257812500e+00 -1.105246663093566895e+00
4.860000000000000000e+02 3.325059890747070312e+01 -5.451817035675048828e+00 5.529040336608886719e+00 1.973247146606445312e+01 7.578453540802001953e+00 1.456975936889648438e+00
4.870000000000000000e+02 3.988824844360351562e+01 -4.721073150634765625e+00 3.772544145584106445e+00 9.185652732849121094e+00 3.887459039688110352e+00 7.943173646926879883e-01
4.880000000000000000e+02 4.739482498168945312e+01 -4.069305038452148438e+01 -9.883232712745666504e-01 7.768344402313232422e+00 2.034006357192993164e+00 -5.106423050165176392e-02
4.890000000000000000e+02 5.082582092285156250e+01 -3.366165161132812500e+01 -7.592625021934509277e-01 7.949767112731933594e+00 2.157151460647583008e+00 -3.185768127441406250e-01
4.900000000000000000e+02 4.859293365478515625e+01 -2.252591705322265625e+01 -1.324372589588165283e-01 8.186704635620117188e+00 2.416280269622802734e+00 -7.167837619781494141e-01
4.910000000000000000e+02 4.962141418457031250e+01 -1.714690780639648438e+01 6.024438738822937012e-01 8.082983970642089844e+00 2.605628490447998047e+00 -8.276397585868835449e-01
4.920000000000000000e+02 5.206933212280273438e+01 -1.265550994873046875e+01 1.136656761169433594e+00 7.757458686828613281e+00 2.668234586715698242e+00 -5.503361225128173828e-01
4.930000000000000000e+02 5.186287689208984375e+01 -2.272493600845336914e+00 1.338449358940124512e+00 7.670486450195312500e+00 2.702680826187133789e+00 5.300065875053405762e-01
4.940000000000000000e+02 4.941033554077148438e+01 2.507233858108520508e+00 9.137929677963256836e-01 7.954583168029785156e+00 2.660512924194335938e+00 9.063296318054199219e-01
4.950000000000000000e+02 5.211662673950195312e+01 8.749628067016601562e+00 1.604170054197311401e-01 7.890989303588867188e+00 2.415421724319458008e+00 8.703545928001403809e-01
4.960000000000000000e+02 5.096150207519531250e+01 1.599450302124023438e+01 -3.660824298858642578e-01 7.769135475158691406e+00 2.220916032791137695e+00 6.460679173469543457e-01
4.970000000000000000e+02 4.846394348144531250e+01 2.164836692810058594e+01 -6.234333515167236328e-01 7.477146625518798828e+00 2.056113958358764648e+00 3.846846520900726318e-01
4.980000000000000000e+02 4.988471603393554688e+01 2.898906707763671875e+01 -6.626420617103576660e-01 7.315052986145019531e+00 1.995723366737365723e+00 2.615092396736145020e-01
4.990000000000000000e+02 4.751667785644531250e+01 4.070227050781250000e+01 -7.290253043174743652e-01 6.959129810333251953e+00 1.869031429290771484e+00 2.843833155930042267e-02
5.000000000000000000e+02 5.235847473144531250e+01 4.062324905395507812e+01 -6.335386037826538086e-01 7.339840412139892578e+00 2.011890411376953125e+00 4.053606465458869934e-02
5.010000000000000000e+02 6.217551803588867188e+01 -4.052919769287109375e+01 -4.419083595275878906e-01 7.908942222595214844e+00 2.240110158920288086e+00 -8.197923749685287476e-02
5.020000000000000000e+02 5.713693618774414062e+01 -4.044739913940429688e+01 -6.255716085433959961e-01 7.953242301940917969e+00 2.198301315307617188e+00 -8.517055958509445190e-02
5.030000000000000000e+02 5.651371383666992188e+01 -2.757327270507812500e+01 -3.047118782997131348e-01 7.946945190429687500e+00 2.292670011520385742e+00 -5.589903593063354492e-01
5.040000000000000000e+02 5.735753250122070312e+01 -2.349402236938476562e+01 -3.024099394679069519e-02 7.871685981750488281e+00 2.352433443069458008e+00 -6.349869370460510254e-01
5.050000000000000000e+02 6.036756515502929688e+01 -1.847475242614746094e+01 2.915873527526855469e-01 7.666637897491455078e+00 2.387467622756958008e+00 -5.377871394157409668e-01
5.060000000000000000e+02 6.056200027465820312e+01 -1.179825210571289062e+01 6.316677331924438477e-01 7.505102157592773438e+00 2.441030979156494141e+00 -2.631941735744476318e-01
5.070000000000000000e+02 5.826295089721679688e+01 -2.886248230934143066e-01 7.674720883369445801e-01 7.554234027862548828e+00 2.496511936187744141e+00 5.403673052787780762e-01
5.080000000000000000e+02 5.901382446289062500e+01 3.119099140167236328e+00 5.245715379714965820e-01 7.620719909667968750e+00 2.443587303161621094e+00 6.836206316947937012e-01
5.090000000000000000e+02 5.874880981445312500e+01 9.129318237304687500e+00 1.617243438959121704e-01 7.750493526458740234e+00 2.373665332794189453e+00 8.059391975402832031e-01
5.100000000000000000e+02 5.792934799194335938e+01 1.986864089965820312e+01 -3.039897978305816650e-01 7.813829421997070312e+00 2.252951860427856445e+00 6.579059362411499023e-01
5.110000000000000000e+02 5.607876968383789062e+01 2.631696891784667969e+01 -4.857268333435058594e-01 7.692858695983886719e+00 2.162139654159545898e+00 4.592150747776031494e-01
5.120000000000000000e+02 5.720047760009765625e+01 4.049005889892578125e+01 -5.128512978553771973e-01 7.654532432556152344e+00 2.142504453659057617e+00 5.264509469270706177e-02
5.130000000000000000e+02 6.242446517944335938e+01 -3.693557357788085938e+01 -4.046876430511474609e-01 7.894891738891601562e+00 2.247061252593994141e+00 -2.093860954046249390e-01
5.140000000000000000e+02 6.186697769165039062e+01 -2.977534866333007812e+01 -2.509278655052185059e-01 7.845973014831542969e+00 2.278513431549072266e+00 -4.445683360099792480e-01
5.150000000000000000e+02 6.568261718750000000e+01 -2.616448783874511719e+01 -6.850114464759826660e-02 7.696679592132568359e+00 2.288453578948974609e+00 -4.457938969135284424e-01
5.160000000000000000e+02 6.474142456054687500e+01 -1.750004005432128906e+01 2.373489737510681152e-01 7.534159183502197266e+00 2.331452608108520508e+00 -4.126008152961730957e-01
5.170000000000000000e+02 6.431345367431640625e+01 -1.230486297607421875e+01 4.280449450016021729e-01 7.445865631103515625e+00 2.362173080444335938e+00 -2.293359935283660889e-01
5.180000000000000000e+02 6.815048217773437500e+01 -4.779514312744140625e+00 3.124769330024719238e-01 7.343358039855957031e+00 2.296750307083129883e+00 1.532045900821685791e-01
5.190000000000000000e+02 6.451512908935546875e+01 5.574059486389160156e+00 2.448790073394775391e-01 7.606828689575195312e+00 2.355512380599975586e+00 6.265032887458801270e-01
5.200000000000000000e+02 6.678326416015625000e+01 1.160411262512207031e+01 3.871142864227294922e-02 7.744684696197509766e+00 2.335018873214721680e+00 6.422923803329467773e-01
5.210000000000000000e+02 6.471444702148437500e+01 1.672402572631835938e+01 -9.548515081405639648e-02 7.861652374267578125e+00 2.329850196838378906e+00 6.633276343345642090e-01
5.220000000000000000e+02 6.062925338745117188e+01 2.505811691284179688e+01 -3.377898335456848145e-01 7.864137172698974609e+00 2.257904291152954102e+00 5.164527893066406250e-01
5.230000000000000000e+02 6.119935226440429688e+01 3.619858551025390625e+01 -3.914792537689208984e-01 7.871828556060791016e+00 2.244104862213134766e+00 1.954924613237380981e-01
5.240000000000000000e+02 6.205588912963867188e+01 4.046330261230468750e+01 -3.765505850315093994e-01 7.909644603729248047e+00 2.259928226470947266e+00 5.978726968169212341e-02
5.250000000000000000e+02 6.709793090820312500e+01 -4.093100357055664062e+01 -2.541656792163848877e-01 7.838215351104736328e+00 2.275214910507202148e+00 -4.821472242474555969e-02
5.260000000000000000e+02 7.301612091064453125e+01 -3.791986465454101562e+01 -9.032224118709564209e-02 7.779163360595703125e+00 2.306652307510375977e+00 -1.007390469312667847e-01
5.270000000000000000e+02 7.254457855224609375e+01 -2.998717117309570312e+01 -5.543616786599159241e-02 7.641980648040771484e+00 2.275963306427001953e+00 -2.628642320632934570e-01
5.280000000000000000e+02 7.064984893798828125e+01 -2.468250274658203125e+01 -1.383013278245925903e-02 7.545958042144775391e+00 2.259638309478759766e+00 -3.454703092575073242e-01
5.290000000000000000e+02 7.118873596191406250e+01 -1.803597640991210938e+01 8.794094622135162354e-02 7.371615409851074219e+00 2.237866878509521484e+00 -2.893433570861816406e-01
5.300000000000000000e+02 7.162271118164062500e+01 -9.626317977905273438e+00 1.592049747705459595e-01 7.230014801025390625e+00 2.216765880584716797e+00 -5.315740406513214111e-02
5.310000000000000000e+02 7.169151306152343750e+01 -4.398938179016113281e+00 1.659381240606307983e-01 7.245115756988525391e+00 2.223316192626953125e+00 1.312476694583892822e-01
5.320000000000000000e+02 7.279718017578125000e+01 4.001196384429931641e+00 8.117048442363739014e-02 7.410541057586669922e+00 2.247513532638549805e+00 3.433816432952880859e-01
5.330000000000000000e+02 7.248760986328125000e+01 1.092837619781494141e+01 2.286669611930847168e-02 7.691175460815429688e+00 2.314212560653686523e+00 4.437693357467651367e-01
5.340000000000000000e+02 7.163327026367187500e+01 1.811542892456054688e+01 -4.390849173069000244e-02 7.979645252227783203e+00 2.380721092224121094e+00 4.639357626438140869e-01
5.350000000000000000e+02 7.156845092773437500e+01 2.589756202697753906e+01 -8.479446172714233398e-02 8.227933883666992188e+00 2.442941665649414062e+00 3.562307357788085938e-01
5.360000000000000000e+02 7.228280639648437500e+01 3.124199295043945312e+01 -8.377340435981750488e-02 8.406641960144042969e+00 2.496860742568969727e+00 2.263469099998474121e-01
5.370000000000000000e+02 7.158061218261718750e+01 3.749851989746093750e+01 -1.160183623433113098e-01 8.438455581665039062e+00 2.496731281280517578e+00 1.094406992197036743e-01
5.380000000000000000e+02 7.793085479736328125e+01 -4.163684082031250000e+01 -6.497603841125965118e-03 7.887835502624511719e+00 2.364401340484619141e+00 -1.827988773584365845e-03
5.390000000000000000e+02 7.788187408447265625e+01 -3.690888595581054688e+01 -8.337529376149177551e-03 7.823456764221191406e+00 2.344535827636718750e+00 -4.158131778240203857e-02
5.400000000000000000e+02 7.791928100585937500e+01 -3.050157546997070312e+01 -7.243130821734666824e-03 7.635133266448974609e+00 2.288367033004760742e+00 -8.894541114568710327e-02
5.410000000000000000e+02 7.804998779296875000e+01 -2.359105300903320312e+01 3.217138000763952732e-04 7.330162048339843750e+00 2.199145078659057617e+00 -1.011142730712890625e-01
5.420000000000000000e+02 7.803389739990234375e+01 -1.666979980468750000e+01 7.219399791210889816e-03 7.032911300659179688e+00 2.112039089202880859e+00 -7.910029590129852295e-02
5.430000000000000000e+02 7.807501220703125000e+01 -9.723610877990722656e+00 1.141221169382333755e-02 6.865934848785400391e+00 2.063204050064086914e+00 -1.848316937685012817e-02
5.440000000000000000e+02 7.809104919433593750e+01 -2.755753040313720703e+00 1.144896447658538818e-02 6.924505710601806641e+00 2.080786466598510742e+00 5.610008165240287781e-02
5.450000000000000000e+02 7.806595611572265625e+01 4.221752643585205078e+00 7.373498287051916122e-03 7.213126182556152344e+00 2.166149854660034180e+00 1.175786182284355164e-01
5.460000000000000000e+02 7.804430389404296875e+01 1.119493961334228516e+01 2.193312160670757294e-03 7.648070812225341797e+00 2.295079231262207031e+00 1.479499936103820801e-01
5.470000000000000000e+02 7.796423339843750000e+01 1.956248092651367188e+01 -3.382252063602209091e-03 8.204383850097656250e+00 2.460300683975219727e+00 1.428358256816864014e-01
5.480000000000000000e+02 7.660363006591796875e+01 2.235064506530761719e+01 -1.457220688462257385e-02 8.308748245239257812e+00 2.488252878189086914e+00 2.045529335737228394e-01
5.490000000000000000e+02 7.926446533203125000e+01 3.208787536621093750e+01 -3.300747601315379143e-03 8.939326286315917969e+00 2.680807590484619141e+00 2.997706644237041473e-02
5.500000000000000000e+02 7.776207733154296875e+01 3.834223175048828125e+01 -9.387757629156112671e-03 8.951648712158203125e+00 2.682678222656250000e+00 -1.204894296824932098e-02
5.510000000000000000e+02 7.934628295898437500e+01 3.753135299682617188e+01 -3.454047488048672676e-03 9.047266960144042969e+00 2.713143825531005859e+00 -4.830984864383935928e-03
5.520000000000000000e+02 3.253004455566406250e+01 4.069106674194335938e+01 -6.656304001808166504e-01 5.057896137237548828e+00 1.317679762840270996e+00 -3.776625543832778931e-02
5.530000000000000000e+02 2.793010139465332031e+01 3.718793869018554688e+01 -5.390061140060424805e-01 4.294832706451416016e+00 1.126747965812683105e+00 -1.594070643186569214e-01
5.540000000000000000e+02 3.226792144775390625e+01 3.344388198852539062e+01 -6.517919301986694336e-01 5.098009109497070312e+00 1.333865165710449219e+00 -2.116508036851882935e-01
5.550000000000000000e+02 2.718814086914062500e+01 2.175993919372558594e+01 -3.698491454124450684e-01 4.331858158111572266e+00 1.188602685928344727e+00 -7.160731554031372070e-01
5.560000000000000000e+02 2.993911933898925781e+01 1.723967361450195312e+01 -3.857120573520660400e-01 5.100506305694580078e+00 1.414438247680664062e+00 -9.152743816375732422e-01
5.570000000000000000e+02 2.839674949645996094e+01 8.275629997253417969e+00 1.683809421956539154e-02 4.924443244934082031e+00 1.482384443283081055e+00 -1.704702615737915039e+00
5.580000000000000000e+02 2.645100975036621094e+01 5.096339702606201172e+00 4.206389784812927246e-01 3.793760776519775391e+00 1.264319896697998047e+00 -1.897171974182128906e+00
5.590000000000000000e+02 2.728001785278320312e+01 -4.997307777404785156e+00 8.004444837570190430e-01 3.093658387660980225e-01 3.329431116580963135e-01 -4.969085156917572021e-01
5.600000000000000000e+02 2.916012382507324219e+01 -5.089143276214599609e+00 2.487751722335815430e+00 1.002979278564453125e+00 1.047219276428222656e+00 -1.810801029205322266e+00
5.610000000000000000e+02 1.787339782714843750e+01 4.061817932128906250e+01 -2.340322434902191162e-01 2.427653789520263672e+00 6.580864787101745605e-01 -5.562160909175872803e-02
5.620000000000000000e+02 2.276910781860351562e+01 4.071728897094726562e+01 -3.856870234012603760e-01 3.334959506988525391e+00 8.847817778587341309e-01 -5.454861745238304138e-02
5.630000000000000000e+02 2.446015930175781250e+01 3.320213699340820312e+01 -4.039797484874725342e-01 3.622602224349975586e+00 9.655867218971252441e-01 -3.007404804229736328e-01
5.640000000000000000e+02 2.179909515380859375e+01 1.566087436676025391e+01 1.658092290163040161e-01 2.897938013076782227e+00 9.191241860389709473e-01 -9.096035361289978027e-01
5.650000000000000000e+02 2.006645393371582031e+01 9.808464050292968750e+00 4.422720372676849365e-01 2.038524627685546875e+00 7.442389726638793945e-01 -9.847883582115173340e-01
5.660000000000000000e+02 1.988202857971191406e+01 5.321292400360107422e+00 1.856120526790618896e-01 1.051835417747497559e+00 3.712342381477355957e-01 -6.898878812789916992e-01
5.670000000000000000e+02 2.162448120117187500e+01 -4.368511676788330078e+00 -7.311598211526870728e-02 -4.402517899870872498e-02 -3.514234721660614014e-02 2.845475673675537109e-01
5.680000000000000000e+02 2.453058242797851562e+01 -4.214338779449462891e+00 3.269298970699310303e-01 1.795456558465957642e-01 1.519426554441452026e-01 -1.507718022912740707e-02
5.690000000000000000e+02 2.373524093627929688e+01 -4.727301120758056641e+00 -9.089474380016326904e-02 4.962132871150970459e-02 -1.238202489912509918e-02 1.797553747892379761e-01
5.700000000000000000e+02 1.725106048583984375e+01 3.179458618164062500e+01 -1.638552695512771606e-01 2.293564081192016602e+00 6.389126181602478027e-01 -3.006193339824676514e-01
5.710000000000000000e+02 1.703034400939941406e+01 2.283387184143066406e+01 -4.655396565794944763e-02 2.029044866561889648e+00 5.947472453117370605e-01 -5.866833329200744629e-01
5.720000000000000000e+02 1.296043586730957031e+01 1.756995773315429688e+01 2.734931707382202148e-01 5.770147442817687988e-01 2.551523745059967041e-01 -4.125836491584777832e-01
5.730000000000000000e+02 1.510107326507568359e+01 1.560656070709228516e+01 5.583736896514892578e-01 1.338025569915771484e+00 5.689197778701782227e-01 -7.954065799713134766e-01
5.740000000000000000e+02 1.885754776000976562e+01 1.593058586120605469e+01 2.530583441257476807e-01 2.250567674636840820e+00 7.510877847671508789e-01 -7.516393661499023438e-01
5.750000000000000000e+02 1.594220733642578125e+01 1.441492843627929688e+01 5.564976930618286133e-01 1.720438838005065918e+00 6.830809712409973145e-01 -8.754132390022277832e-01
5.760000000000000000e+02 1.800509834289550781e+01 9.088545799255371094e+00 2.458073794841766357e-01 1.912201046943664551e+00 6.474025249481201172e-01 -6.238464117050170898e-01
5.770000000000000000e+02 1.855861091613769531e+01 6.372424125671386719e+00 9.267842769622802734e-02 1.027830839157104492e+00 3.361527919769287109e-01 -3.610365986824035645e-01
5.780000000000000000e+02 1.894809913635253906e+01 2.219242334365844727e+00 2.579436823725700378e-02 -3.402976989746093750e-01 -9.435100108385086060e-02 -1.465584784746170044e-01
5.790000000000000000e+02 1.887409400939941406e+01 -4.920676648616790771e-01 2.756075002253055573e-02 -7.067009806632995605e-01 -2.037420719861984253e-01 -9.336660616099834442e-03
5.800000000000000000e+02 1.969310188293457031e+01 -3.018502712249755859e+00 5.072372779250144958e-02 -2.670708298683166504e-01 -6.490412354469299316e-02 2.065379917621612549e-01
5.810000000000000000e+02 1.287789630889892578e+01 4.075487518310546875e+01 -1.110118851065635681e-01 1.566375136375427246e+00 4.366089701652526855e-01 -4.247095063328742981e-02
5.820000000000000000e+02 8.807736396789550781e+00 3.798829269409179688e+01 -3.469122946262359619e-02 8.413221240043640137e-01 2.419892698526382446e-01 -3.344766795635223389e-02
5.830000000000000000e+02 5.692649841308593750e+00 2.428378868103027344e+01 6.037035956978797913e-02 1.513012498617172241e-01 6.350148469209671021e-02 3.916319459676742554e-02
5.840000000000000000e+02 1.024804782867431641e+01 1.889764595031738281e+01 -2.610165178775787354e-01 8.863175660371780396e-02 -5.171542987227439880e-02 -1.167938336730003357e-01
5.850000000000000000e+02 1.169227886199951172e+01 1.842991447448730469e+01 8.954876102507114410e-03 2.769025862216949463e-01 8.575724065303802490e-02 -2.278032600879669189e-01
5.860000000000000000e+02 2.011966228485107422e+00 4.164671325683593750e+01 -5.976931750774383545e-02 -1.610247343778610229e-01 -6.623821705579757690e-02 -1.694499701261520386e-02
5.870000000000000000e+02 4.460483074188232422e+00 3.786867141723632812e+01 1.578204333782196045e-02 1.252863407135009766e-01 4.232051596045494080e-02 4.507308453321456909e-02
5.880000000000000000e+02 2.224547386169433594e+00 3.593868255615234375e+01 1.450929325073957443e-02 -1.537437289953231812e-01 -4.177033156156539917e-02 -3.606616705656051636e-02
5.890000000000000000e+02 2.160137891769409180e+00 2.902912139892578125e+01 1.183205936104059219e-02 -1.618354320526123047e-01 -4.500101134181022644e-02 1.120917592197656631e-02
5.900000000000000000e+02 2.022231817245483398e+00 2.328841781616210938e+01 8.501138538122177124e-03 -1.143636703491210938e-01 -3.175875917077064514e-02 6.813345849514007568e-02
5.910000000000000000e+02 4.204949855804443359e+00 1.567805194854736328e+01 -2.646900527179241180e-02 2.798029687255620956e-03 -7.101292721927165985e-03 5.525793880224227905e-03
5.920000000000000000e+02 4.889906942844390869e-01 6.428617477416992188e+00 6.007286719977855682e-04 7.282557780854403973e-04 3.986953524872660637e-04 -2.284774527652189136e-04
5.930000000000000000e+02 6.063908100128173828e+00 1.859767198562622070e+00 1.055621323757804930e-04 1.740540174068883061e-04 8.388484275201335549e-05 1.187144225696101785e-04
5.940000000000000000e+02 8.098927497863769531e+00 2.597362518310546875e+00 1.933580824697855860e-05 3.486849018372595310e-04 1.104062175727449358e-04 4.018698527943342924e-04
5.950000000000000000e+02 9.630639076232910156e+00 1.869074583053588867e+00 1.582631812198087573e-04 -1.718744460958987474e-04 -4.083379280928056687e-06 -1.984344416996464133e-04
5.960000000000000000e+02 1.392624855041503906e+01 1.749321937561035156e+00 -9.473045065533369780e-05 1.151183096226304770e-04 6.116357781138503924e-06 1.696392610028851777e-05
5.970000000000000000e+02 1.445552349090576172e+01 6.256618499755859375e+00 4.041147476527839899e-04 2.132476074621081352e-04 1.852087007137015462e-04 2.104785671690478921e-04
5.980000000000000000e+02 1.183573055267333984e+01 9.573587417602539062e+00 4.379809543024748564e-04 2.636204473674297333e-03 9.222556254826486111e-04 1.332766143605113029e-03
5.990000000000000000e+02 1.132733154296875000e+01 1.234407901763916016e+01 -2.484026597812771797e-03 -1.683105714619159698e-03 -1.250139670446515083e-03 -3.295391332358121872e-03
6.000000000000000000e+02 1.217390441894531250e+01 1.123962116241455078e+01 2.150828018784523010e-03 2.409882377833127975e-03 1.368213095702230930e-03 1.376507570967078209e-03
6.010000000000000000e+02 9.410613059997558594e+00 1.445988082885742188e+01 -4.353669937700033188e-03 -3.583377460017800331e-03 -2.381114289164543152e-03 -9.361602365970611572e-03
6.020000000000000000e+02 7.841052532196044922e+00 1.687127113342285156e+01 -3.009745851159095764e-02 -3.502423688769340515e-02 -1.953650824725627899e-02 -4.474208503961563110e-02
6.030000000000000000e+02 2.066512584686279297e+00 2.172728919982910156e+01 -6.108826957643032074e-03 -7.523503154516220093e-02 -2.440315671265125275e-02 7.147960364818572998e-02
6.040000000000000000e+02 1.151472926139831543e+00 3.863545894622802734e+00 1.116799830924719572e-04 6.610966374864801764e-05 5.333689477993175387e-05 1.964407274499535561e-04
6.050000000000000000e+02 1.325775241851806641e+01 2.477849721908569336e+00 2.582826418802142143e-04 -1.764688058756291866e-04 2.454415334796067327e-05 -9.685046825325116515e-05
6.060000000000000000e+02 2.175716972351074219e+01 -8.176275253295898438e+00 -6.879239678382873535e-01 1.184890493750572205e-01 -1.708304733037948608e-01 -3.453143537044525146e-01
6.070000000000000000e+02 3.891910171508789062e+01 -9.841946601867675781e+00 3.373909235000610352e+00 9.781302452087402344e+00 3.946563243865966797e+00 -1.247261524200439453e+00
6.080000000000000000e+02 6.658991241455078125e+01 -8.363525390625000000e+00 3.747143447399139404e-01 7.367403507232666016e+00 2.322635412216186523e+00 -2.214365825057029724e-02
6.090000000000000000e+02 7.264733886718750000e+01 -1.237369060516357422e+01 1.148839369416236877e-01 7.212276458740234375e+00 2.198148250579833984e+00 -1.304595768451690674e-01
6.100000000000000000e+02 7.935289764404296875e+01 -1.253014469146728516e+01 2.150936285033822060e-03 6.805647850036621094e+00 2.042339563369750977e+00 -1.589172333478927612e-02
6.110000000000000000e+02 7.936559295654296875e+01 -5.560608386993408203e+00 2.369564492255449295e-03 6.757408142089843750e+00 2.027933359146118164e+00 1.036487240344285965e-02
6.120000000000000000e+02 7.298552703857421875e+01 -5.663536071777343750e+00 1.239146515727043152e-01 7.181237697601318359e+00 2.191545724868774414e+00 7.548034191131591797e-02
6.130000000000000000e+02 6.719866943359375000e+01 -5.897470951080322266e+00 3.617842197418212891e-01 7.354706287384033203e+00 2.314947128295898438e+00 1.045228168368339539e-01
6.140000000000000000e+02 5.957093048095703125e+01 -4.992247104644775391e+00 8.206098079681396484e-01 7.468433856964111328e+00 2.486713171005249023e+00 1.924209743738174438e-01
6.150000000000000000e+02 5.304870605468750000e+01 -1.980075597763061523e+00 1.233979344367980957e+00 7.634064197540283203e+00 2.660413026809692383e+00 5.296639204025268555e-01
6.160000000000000000e+02 2.350931167602539062e+01 -2.380357551574707031e+01 1.016427129507064819e-01 3.012180089950561523e+00 9.341468214988708496e-01 1.109904170036315918e+00
6.170000000000000000e+02 1.540346813201904297e+01 -2.271769905090332031e+01 2.039790600538253784e-01 5.356850028038024902e-01 2.218992114067077637e-01 3.257930278778076172e-01
6.180000000000000000e+02 3.552881240844726562e+01 -1.535831069946289062e+01 -1.428302079439163208e-01 9.761545181274414062e+00 2.885614633560180664e+00 4.422841668128967285e-01
6.190000000000000000e+02 4.063628768920898438e+01 -2.020537567138671875e+01 -3.429484069347381592e-01 8.619646072387695312e+00 2.483009338378906250e+00 -3.778629601001739502e-01
6.200000000000000000e+02 4.917207336425781250e+01 -1.972072410583496094e+01 2.176093757152557373e-01 8.161712646484375000e+00 2.513796806335449219e+00 -8.046760559082031250e-01
6.210000000000000000e+02 5.998989868164062500e+01 -1.580148601531982422e+01 4.607448577880859375e-01 7.607795238494873047e+00 2.420562028884887695e+00 -4.704045653343200684e-01
6.220000000000000000e+02 6.754199218750000000e+01 -1.759634590148925781e+01 1.746704429388046265e-01 7.468184947967529297e+00 2.292856693267822266e+00 -3.610415160655975342e-01
6.230000000000000000e+02 7.247052001953125000e+01 -1.947801780700683594e+01 4.815384745597839355e-02 7.366465568542480469e+00 2.224385738372802734e+00 -2.778216898441314697e-01
6.240000000000000000e+02 7.935261535644531250e+01 -2.226549911499023438e+01 1.961866073543205857e-04 7.223300933837890625e+00 2.167049169540405273e+00 -3.523967042565345764e-02
6.250000000000000000e+02 5.391975879669189453e+00 -1.560916137695312500e+01 -1.818411611020565033e-02 -2.839448675513267517e-02 -1.397358160465955734e-02 -7.932291366159915924e-03
6.260000000000000000e+02 1.777722358703613281e+00 -1.742102432250976562e+01 -1.905612088739871979e-02 -9.261781349778175354e-03 -8.495370857417583466e-03 -8.860746398568153381e-03
6.270000000000000000e+02 5.629818439483642578e-01 -1.065745162963867188e+01 9.481876622885465622e-04 3.034747438505291939e-03 1.194880576804280281e-03 1.301275682635605335e-03
6.280000000000000000e+02 2.396785736083984375e+01 -3.389313125610351562e+01 -2.696658968925476074e-01 3.497524499893188477e+00 9.683575630187988281e-01 4.913849234580993652e-01
6.290000000000000000e+02 3.241994857788085938e+01 -2.761489677429199219e+01 -7.033018469810485840e-01 6.139390468597412109e+00 1.630826711654663086e+00 7.671307921409606934e-01
6.300000000000000000e+02 3.745182418823242188e+01 -2.473240852355957031e+01 -8.102155923843383789e-01 7.673991680145263672e+00 2.059132814407348633e+00 2.937985062599182129e-01
6.310000000000000000e+02 4.326345062255859375e+01 -2.369689369201660156e+01 -5.298864841461181641e-01 8.263199806213378906e+00 2.319993972778320312e+00 -4.262541234493255615e-01
6.320000000000000000e+02 4.809390640258789062e+01 -2.556266593933105469e+01 -4.595391154289245605e-01 8.124589920043945312e+00 2.299515247344970703e+00 -5.643540024757385254e-01
6.330000000000000000e+02 5.903945159912109375e+01 -2.478647422790527344e+01 -1.018785312771797180e-01 7.846282958984375000e+00 2.323321342468261719e+00 -5.815710425376892090e-01
6.340000000000000000e+02 6.618730163574218750e+01 -2.402516174316406250e+01 -5.110398400574922562e-03 7.640327453613281250e+00 2.290565013885498047e+00 -4.499835371971130371e-01
6.350000000000000000e+02 7.272035217285156250e+01 -2.470749473571777344e+01 -1.122461911290884018e-02 7.505795955657958984e+00 2.248371362686157227e+00 -2.925991117954254150e-01
6.360000000000000000e+02 7.934319305419921875e+01 -2.643545913696289062e+01 2.380489604547619820e-05 7.447776317596435547e+00 2.234339952468872070e+00 -3.561729937791824341e-02
6.370000000000000000e+02 7.463761568069458008e-01 -3.045920181274414062e+01 2.771599916741251945e-03 -8.529381155967712402e-01 -2.550499737262725830e-01 -4.037976637482643127e-02
6.380000000000000000e+02 8.500112533569335938e+00 -3.546432495117187500e+01 1.083723604679107666e-01 2.515365481376647949e-01 1.079726740717887878e-01 -4.905409738421440125e-02
6.390000000000000000e+02 2.816719245910644531e+01 -2.850770950317382812e+01 -4.178483784198760986e-01 4.695467948913574219e+00 1.283285856246948242e+00 9.015833139419555664e-01
6.400000000000000000e+02 3.449322891235351562e+01 -3.316201400756835938e+01 -8.920962214469909668e-01 6.333941936492919922e+00 1.632553696632385254e+00 3.629666566848754883e-01
6.410000000000000000e+02 4.743089675903320312e+01 -3.380641174316406250e+01 -8.876308798789978027e-01 7.841412544250488281e+00 2.086134433746337891e+00 -2.367609441280364990e-01
6.420000000000000000e+02 4.733769226074218750e+01 -3.715275955200195312e+01 -9.558562040328979492e-01 7.778337001800537109e+00 2.046744108200073242e+00 -1.436396092176437378e-01
6.430000000000000000e+02 5.571637344360351562e+01 -3.645256805419921875e+01 -6.395302414894104004e-01 7.961833477020263672e+00 2.196691036224365234e+00 -2.386034876108169556e-01
6.440000000000000000e+02 6.730014038085937500e+01 -3.199254417419433594e+01 -1.748322844505310059e-01 7.761978149414062500e+00 2.276143789291381836e+00 -3.227282762527465820e-01
6.450000000000000000e+02 7.352078247070312500e+01 -3.098460769653320312e+01 -5.648069083690643311e-02 7.663930416107177734e+00 2.282234907150268555e+00 -2.254855334758758545e-01
6.460000000000000000e+02 7.930258178710937500e+01 -3.337813949584960938e+01 -1.606555772013962269e-03 7.757935523986816406e+00 2.326898574829101562e+00 -2.386135421693325043e-02
6.470000000000000000e+02 7.935649871826171875e+01 2.802258491516113281e+00 1.672138459980487823e-03 7.056715488433837891e+00 2.117516279220581055e+00 3.970117866992950439e-02
6.480000000000000000e+02 7.284490966796875000e+01 1.221843242645263672e+00 9.951390326023101807e-02 7.320012569427490234e+00 2.225857973098754883e+00 2.792660295963287354e-01
6.490000000000000000e+02 6.575366210937500000e+01 1.321622282266616821e-01 3.501027822494506836e-01 7.458676815032958984e+00 2.342633962631225586e+00 4.020912349224090576e-01
6.500000000000000000e+02 5.860796737670898438e+01 1.429493308067321777e+00 6.420139670372009277e-01 7.588563919067382812e+00 2.469173192977905273e+00 6.229809522628784180e-01
6.510000000000000000e+02 5.185030746459960938e+01 7.634844183921813965e-01 1.045173287391662598e+00 7.757030963897705078e+00 2.640661239624023438e+00 7.607489824295043945e-01
6.520000000000000000e+02 3.298500442504882812e+01 6.925763607025146484e+00 -3.651144206523895264e-01 7.142146110534667969e+00 2.033109426498413086e+00 -1.292677164077758789e+00
6.530000000000000000e+02 7.935581207275390625e+01 8.380144119262695312e+00 8.686211658641695976e-04 7.419497966766357422e+00 2.226109981536865234e+00 5.129593238234519958e-02
6.540000000000000000e+02 7.271256256103515625e+01 6.804045677185058594e+00 5.891220271587371826e-02 7.518192291259765625e+00 2.273131370544433594e+00 3.955901265144348145e-01
6.550000000000000000e+02 6.803971862792968750e+01 8.795060157775878906e+00 9.122007340192794800e-02 7.653796672821044922e+00 2.323504924774169922e+00 5.803394913673400879e-01
6.560000000000000000e+02 5.781456375122070312e+01 5.396899223327636719e+00 4.084197282791137695e-01 7.697366714477539062e+00 2.431735754013061523e+00 7.782813310623168945e-01
6.570000000000000000e+02 5.258230590820312500e+01 1.101433658599853516e+01 -1.993112824857234955e-02 7.856879234313964844e+00 2.351084470748901367e+00 8.168423771858215332e-01
6.580000000000000000e+02 3.397494888305664062e+01 1.064631938934326172e+01 -5.117288827896118164e-01 6.851491928100585938e+00 1.901928901672363281e+00 -9.168658256530761719e-01
6.590000000000000000e+02 4.016305541992187500e+01 7.840363025665283203e+00 -3.054460287094116211e-01 8.285040855407714844e+00 2.393878459930419922e+00 2.128625810146331787e-01
6.600000000000000000e+02 2.598697662353515625e+01 5.930399417877197266e+00 3.690674006938934326e-01 3.652205705642700195e+00 1.206381916999816895e+00 -1.796675086021423340e+00
6.610000000000000000e+02 2.014242172241210938e+01 3.879454135894775391e+00 1.557637006044387817e-01 7.465886473655700684e-01 2.707056999206542969e-01 -6.166167855262756348e-01
6.620000000000000000e+02 1.891968536376953125e+01 3.609764099121093750e+00 3.539387881755828857e-02 4.547357186675071716e-02 2.426023595035076141e-02 -2.045409381389617920e-01
6.630000000000000000e+02 7.932611846923828125e+01 1.674546623229980469e+01 -1.002234406769275665e-03 8.051725387573242188e+00 2.415216922760009766e+00 5.494262650609016418e-02
6.640000000000000000e+02 7.196386718750000000e+01 1.655003547668457031e+01 -2.868202328681945801e-02 7.923951148986816406e+00 2.368580818176269531e+00 4.609659016132354736e-01
6.650000000000000000e+02 6.623080444335937500e+01 1.769696807861328125e+01 -9.763698279857635498e-02 7.893089771270751953e+00 2.338635683059692383e+00 6.222592592239379883e-01
6.660000000000000000e+02 6.041234207153320312e+01 1.590155887603759766e+01 -1.400970965623855591e-01 7.826922893524169922e+00 2.306047677993774414e+00 7.309406995773315430e-01
6.670000000000000000e+02 3.786922836303710938e+01 1.646471595764160156e+01 -6.837810277938842773e-01 6.927782058715820312e+00 1.873200416564941406e+00 -2.609801888465881348e-01
6.680000000000000000e+02 2.646664810180664062e+01 1.015754699707031250e+01 1.088562458753585815e-01 4.102829933166503906e+00 1.263505816459655762e+00 -1.523090124130249023e+00
6.690000000000000000e+02 1.973767852783203125e+01 1.119184780120849609e+01 4.504565894603729248e-01 2.150432348251342773e+00 7.802666425704956055e-01 -9.435191750526428223e-01
6.700000000000000000e+02 7.932607269287109375e+01 2.369531059265136719e+01 6.824285956099629402e-04 8.529013633728027344e+00 2.558908700942993164e+00 4.534484446048736572e-02
6.710000000000000000e+02 7.230059814453125000e+01 2.427438926696777344e+01 -7.256000488996505737e-02 8.208833694458007812e+00 2.440882205963134766e+00 3.619502782821655273e-01
6.720000000000000000e+02 6.520283508300781250e+01 2.787546157836914062e+01 -2.369695603847503662e-01 8.013548851013183594e+00 2.332973957061767578e+00 4.343897700309753418e-01
6.730000000000000000e+02 5.967404937744140625e+01 2.131076049804687500e+01 -2.881119251251220703e-01 7.848361015319824219e+00 2.268074750900268555e+00 6.244538426399230957e-01
6.740000000000000000e+02 5.107503128051757812e+01 2.139163589477539062e+01 -5.415564775466918945e-01 7.596833705902099609e+00 2.116583108901977539e+00 4.891144633293151855e-01
6.750000000000000000e+02 3.503921890258789062e+01 2.627391052246093750e+01 -6.960852742195129395e-01 5.749092102050781250e+00 1.515902042388916016e+00 -3.063033223152160645e-01
6.760000000000000000e+02 2.634758567810058594e+01 1.565782070159912109e+01 -1.040220335125923157e-01 4.151603221893310547e+00 1.214274406433105469e+00 -1.071673393249511719e+00
6.770000000000000000e+02 2.075916862487792969e+01 1.750820541381835938e+01 9.529794752597808838e-02 2.754121780395507812e+00 8.548259735107421875e-01 -7.944406867027282715e-01
6.780000000000000000e+02 1.990008354187011719e+00 2.017909240722656250e+01 -1.310704462230205536e-02 -4.808332026004791260e-02 -1.835710927844047546e-02 5.782539397478103638e-02
6.790000000000000000e+02 7.927848052978515625e+01 2.926684379577636719e+01 5.689443787559866905e-04 8.821401596069335938e+00 2.646590948104858398e+00 3.642261400818824768e-02
6.800000000000000000e+02 7.348471069335937500e+01 3.197943305969238281e+01 -6.256210058927536011e-02 8.482875823974609375e+00 2.526094198226928711e+00 1.849922239780426025e-01
6.810000000000000000e+02 5.830208969116210938e+01 2.976786422729492188e+01 -4.480907320976257324e-01 7.760676383972167969e+00 2.193775653839111328e+00 3.770685493946075439e-01
6.820000000000000000e+02 5.193307876586914062e+01 3.676893997192382812e+01 -6.585651040077209473e-01 7.330295085906982422e+00 2.001518964767456055e+00 1.253568232059478760e-01
6.830000000000000000e+02 3.607343673706054688e+01 3.282410430908203125e+01 -7.327651977539062500e-01 5.706987857818603516e+00 1.492266774177551270e+00 -1.515394598245620728e-01
6.840000000000000000e+02 2.911654663085937500e+01 2.699042320251464844e+01 -5.199993848800659180e-01 4.638901233673095703e+00 1.235670566558837891e+00 -4.785734117031097412e-01
6.850000000000000000e+02 2.246435928344726562e+01 2.309432411193847656e+01 -2.131080776453018188e-01 3.253511905670166016e+00 9.121211171150207520e-01 -6.593774557113647461e-01
6.860000000000000000e+02 1.757359695434570312e+01 2.518717193603515625e+01 -9.016040712594985962e-02 2.173099994659423828e+00 6.248818635940551758e-01 -5.210968255996704102e-01
6.870000000000000000e+02 7.035544872283935547e+00 2.402328872680664062e+01 7.903608679771423340e-02 2.298479676246643066e-01 9.266521781682968140e-02 -6.053281016647815704e-03
6.880000000000000000e+02 2.832540702819824219e+01 3.358938217163085938e+01 -5.411236286163330078e-01 4.381743907928466797e+00 1.152186036109924316e+00 -2.541764378547668457e-01
6.890000000000000000e+02 2.142147064208984375e+01 3.181388473510742188e+01 -2.953201532363891602e-01 3.053874969482421875e+00 8.275664448738098145e-01 -3.539974093437194824e-01
6.900000000000000000e+02 1.477705764770507812e+01 3.338209533691406250e+01 -9.200609475374221802e-02 1.775692701339721680e+00 5.051059722900390625e-01 -2.018085867166519165e-01
6.910000000000000000e+02 6.975845336914062500e+00 3.208783721923828125e+01 1.293819025158882141e-02 5.151370167732238770e-01 1.584225594997406006e-01 -4.819175973534584045e-02
6.920000000000000000e+02 2.307114839553833008e+00 3.185687446594238281e+01 1.443047448992729187e-02 -1.513366550207138062e-01 -4.107185453176498413e-02 2.331589785171672702e-04
6.930000000000000000e+02 1.569346666336059570e+00 9.082211494445800781e+00 -1.112776590161956847e-04 1.213874202221632004e-03 3.307789738755673170e-04 -8.326853276230394840e-04
6.940000000000000000e+02 1.788642883300781250e+01 -7.394507408142089844e+00 -1.800836622714996338e-01 -2.436692118644714355e-01 -1.271258592605590820e-01 -2.429047822952270508e-01
6.950000000000000000e+02 1.951261329650878906e+01 -7.779074668884277344e+00 -4.588370919227600098e-01 2.203370071947574615e-02 -1.310410201549530029e-01 -3.476767838001251221e-01
6.960000000000000000e+02 1.423004913330078125e+01 -1.391625976562500000e+01 -6.502158045768737793e-01 -9.638307690620422363e-01 -4.842139780521392822e-01 -7.544289827346801758e-01
6.970000000000000000e+02 7.560598850250244141e+00 -1.388684272766113281e+01 -5.901109427213668823e-03 1.202272344380617142e-02 1.836484181694686413e-03 6.879988592118024826e-03
6.980000000000000000e+02 1.133308696746826172e+01 -8.134156227111816406e+00 1.244405517354607582e-03 4.417198942974209785e-04 5.058376118540763855e-04 -8.786310208961367607e-04
6.990000000000000000e+02 1.016475486755371094e+01 -3.154661178588867188e+00 -2.624611988721881062e-05 7.073566084727644920e-04 2.043331478489562869e-04 -8.165865438058972359e-04
7.000000000000000000e+02 1.321040439605712891e+01 -1.961532354354858398e+00 3.454194256846676581e-06 4.467563030630117282e-06 2.376527163505670615e-06 -9.893182141240686178e-05
7.010000000000000000e+02 1.491144371032714844e+01 -2.293671131134033203e+00 -1.085997428162954748e-04 -9.820684499572962523e-05 -6.204197416082024574e-05 1.193734133266843855e-04
7.020000000000000000e+02 1.430559825897216797e+01 -2.140883922576904297e+00 8.518739196006208658e-05 1.793650444597005844e-04 7.936573092592880130e-05 -1.797948643798008561e-04
7.030000000000000000e+02 1.375212001800537109e+01 -1.996340632438659668e+00 -3.190972711308859289e-05 -2.161229349439963698e-04 -7.440979970851913095e-05 1.744018663885071874e-04
7.040000000000000000e+02 1.179885387420654297e+01 -1.972431182861328125e+00 2.796412736643105745e-04 -1.412936981068924069e-04 4.150427412241697311e-05 -1.761915918905287981e-04
7.050000000000000000e+02 1.031552219390869141e+01 -1.859588146209716797e+00 1.351578102912753820e-04 1.149267773143947124e-04 7.502537482650950551e-05 -4.113188479095697403e-04
7.060000000000000000e+02 9.574056625366210938e+00 -1.835584640502929688e+00 -1.323890173807740211e-04 -1.561935932841151953e-04 -8.657477883389219642e-05 4.604442219715565443e-04
7.070000000000000000e+02 8.825927734375000000e+00 -1.843048334121704102e+00 7.798654405632987618e-05 1.954694598680362105e-04 8.203680044971406460e-05 -3.573056892491877079e-04
7.080000000000000000e+02 7.321116447448730469e+00 -1.862825870513916016e+00 9.553277777740731835e-05 2.039859391516074538e-04 8.985561726149171591e-05 -3.303290868643671274e-04
7.090000000000000000e+02 5.800048828125000000e+00 -1.881138682365417480e+00 -1.805950887501239777e-05 2.325286623090505600e-04 6.434074748540297151e-05 -2.703341888263821602e-04
7.100000000000000000e+02 3.518671274185180664e+00 -1.983625054359436035e+00 -1.576163958816323429e-05 -4.764192271977663040e-05 -1.902106851048301905e-05 6.413678056560456753e-05
7.110000000000000000e+02 5.040650367736816406e+00 -1.904524326324462891e+00 9.252259587810840458e-06 -1.853737630881369114e-04 -5.283645441522821784e-05 2.032290212810039520e-04
7.120000000000000000e+02 4.446241855621337891e+00 -2.802670478820800781e+00 5.495817822520621121e-05 -1.235186500707641244e-04 -2.056813900708220899e-05 1.575746282469481230e-04
7.130000000000000000e+02 2.748047113418579102e+00 -2.034690618515014648e+00 3.814894444076344371e-05 3.388337790966033936e-05 2.160969779652077705e-05 -1.013203873299062252e-04
7.140000000000000000e+02 1.970678806304931641e+00 -2.075742721557617188e+00 -1.183948625111952424e-04 -9.007738299260381609e-06 -3.822077997028827667e-05 1.093361279345117509e-04
7.150000000000000000e+02 4.881876111030578613e-01 -3.599513769149780273e+00 2.046962326858192682e-04 -1.193122880067676306e-04 2.561518340371549129e-05 -6.355078949127346277e-05
7.160000000000000000e+02 2.035153865814208984e+00 -4.163083648681640625e+01 -6.519691646099090576e-02 -8.831672072410583496e-01 -2.845092415809631348e-01 1.846631802618503571e-02
7.170000000000000000e+02 6.193207263946533203e+00 -3.807704162597656250e+01 7.282420992851257324e-02 -1.135075315833091736e-01 -1.220499537885189056e-02 -6.237870454788208008e-02
7.180000000000000000e+02 1.018811702728271484e+00 -3.865104675292968750e+01 -4.563941620290279388e-03 -9.659869670867919922e-01 -2.911652624607086182e-01 2.526559121906757355e-02
7.190000000000000000e+02 6.583696603775024414e-01 -3.475974655151367188e+01 8.690534159541130066e-03 -1.018392920494079590e+00 -3.029107153415679932e-01 -1.997148245573043823e-02
7.200000000000000000e+02 8.082588911056518555e-01 -3.336289215087890625e+01 8.922986453399062157e-04 -9.761652946472167969e-01 -2.925819158554077148e-01 -2.721477858722209930e-02
7.210000000000000000e+02 7.168183922767639160e-01 -2.903541564941406250e+01 6.355362478643655777e-03 -7.658796310424804688e-01 -2.278572767972946167e-01 -4.897001758217811584e-02
7.220000000000000000e+02 6.940593123435974121e-01 -2.761599731445312500e+01 -1.217499448102898896e-05 -6.599450111389160156e-01 -1.979871690273284912e-01 -5.565554276108741760e-02
7.230000000000000000e+02 6.792109608650207520e-01 -2.619809532165527344e+01 3.232477698475122452e-03 -5.413167476654052734e-01 -1.614252775907516479e-01 -5.863475054502487183e-02
7.240000000000000000e+02 6.002970337867736816e-01 -2.192531394958496094e+01 -1.733187935315072536e-03 -1.682408004999160767e-01 -5.099219456315040588e-02 -4.947062954306602478e-02
7.250000000000000000e+02 1.712264060974121094e+00 -2.035022544860839844e+01 -2.257424406707286835e-02 -9.516823291778564453e-02 -3.532274067401885986e-02 -9.949576109647750854e-02
7.260000000000000000e+02 5.553264021873474121e-01 -1.624324226379394531e+01 2.166796009987592697e-03 3.658498823642730713e-02 1.162553485482931137e-02 5.166815128177404404e-03
7.270000000000000000e+02 5.442061424255371094e-01 -1.484431934356689453e+01 -1.620034920051693916e-03 2.478061802685260773e-02 6.948174908757209778e-03 3.771810093894600868e-03
7.280000000000000000e+02 5.540453195571899414e-01 -1.344855785369873047e+01 1.852244022302329540e-03 1.460635848343372345e-02 4.937580786645412445e-03 3.983356058597564697e-03
7.290000000000000000e+02 4.477612495422363281e+00 -1.479677677154541016e+01 2.122650039382278919e-04 -2.062000520527362823e-02 -6.122322287410497665e-03 -2.885483438149094582e-03
7.300000000000000000e+02 5.440582633018493652e-01 -9.263795852661132812e+00 -2.106235479004681110e-04 1.046247663907706738e-03 2.506872406229376793e-04 2.845631679520010948e-04
7.310000000000000000e+02 5.215338468551635742e-01 -7.872818470001220703e+00 2.103626757161691785e-04 1.710962242214009166e-04 1.144376728916540742e-04 3.178598126396536827e-04
7.320000000000000000e+02 5.097183585166931152e-01 -6.480494499206542969e+00 5.049875835538841784e-05 -7.873208232922479510e-05 -8.469996828353032470e-06 -7.107447163434699178e-05
7.330000000000000000e+02 7.473059082031250000e+01 -4.026206207275390625e+01 -4.390799254179000854e-02 7.809712409973144531e+00 2.329741477966308594e+00 -4.625038430094718933e-02
7.340000000000000000e+02 5.224841308593750000e+01 -4.070784378051757812e+01 -8.271659612655639648e-01 7.928069591522216797e+00 2.130271196365356445e+00 -6.088735535740852356e-02
7.350000000000000000e+02 3.235603713989257812e+01 -4.077458190917968750e+01 -8.359932303428649902e-01 5.663542747497558594e+00 1.448264837265014648e+00 8.159095048904418945e-02
7.360000000000000000e+02 1.284278964996337891e+01 -4.062587738037109375e+01 4.105933010578155518e-02 1.083852410316467285e+00 3.374735116958618164e-01 3.342348709702491760e-02
7.370000000000000000e+02 7.883627319335937500e+01 4.015095138549804688e+01 -1.974885910749435425e-02 9.009627342224121094e+00 2.696963548660278320e+00 -2.250439487397670746e-02
7.380000000000000000e+02 7.918595886230468750e+01 3.883930587768554688e+01 2.770673483610153198e-03 9.035376548767089844e+00 2.711444139480590820e+00 -4.247576463967561722e-03
7.390000000000000000e+02 7.932410430908203125e+01 3.487555694580078125e+01 -2.786544384434819221e-03 9.023961067199707031e+00 2.706352472305297852e+00 1.875557005405426025e-02
7.400000000000000000e+02 7.780227661132812500e+01 3.362779998779296875e+01 -1.618223078548908234e-02 8.853147506713867188e+00 2.651089668273925781e+00 6.562728434801101685e-02
7.410000000000000000e+02 7.927809143066406250e+01 3.349541473388671875e+01 -2.716367598623037338e-03 8.985728263854980469e+00 2.694903612136840820e+00 2.424559928476810455e-02
7.420000000000000000e+02 7.926863861083984375e+01 3.067446899414062500e+01 -2.029455965384840965e-03 8.883244514465332031e+00 2.664364337921142578e+00 3.507622331380844116e-02
7.430000000000000000e+02 7.640433502197265625e+01 2.783201408386230469e+01 -1.607234776020050049e-02 8.547161102294921875e+00 2.559326648712158203e+00 1.649298071861267090e-01
7.440000000000000000e+02 7.930362701416015625e+01 2.647490692138671875e+01 1.518694683909416199e-03 8.685066223144531250e+00 2.605975627899169922e+00 4.025723040103912354e-02
7.450000000000000000e+02 7.652626800537109375e+01 2.505951881408691406e+01 -1.872508600354194641e-02 8.441072463989257812e+00 2.526704311370849609e+00 1.838129460811614990e-01
7.460000000000000000e+02 7.931678771972656250e+01 2.508455467224121094e+01 -3.544590435922145844e-03 8.610067367553710938e+00 2.581956863403320312e+00 4.239835590124130249e-02
7.470000000000000000e+02 7.933209228515625000e+01 2.091617393493652344e+01 5.608712672255933285e-05 8.349914550781250000e+00 2.504991292953491211e+00 5.025634169578552246e-02
7.480000000000000000e+02 7.932878112792968750e+01 1.952605438232421875e+01 -1.839348929934203625e-03 8.253417968750000000e+00 2.475473642349243164e+00 5.224385485053062439e-02
7.490000000000000000e+02 7.932610321044921875e+01 1.813656425476074219e+01 1.798778830561786890e-04 8.153801918029785156e+00 2.446194648742675781e+00 5.396916717290878296e-02
7.500000000000000000e+02 7.933899688720703125e+01 1.395762920379638672e+01 -3.860723518300801516e-05 7.841347217559814453e+00 2.352392673492431641e+00 5.562407523393630981e-02
7.510000000000000000e+02 7.934516143798828125e+01 1.256190395355224609e+01 3.806665190495550632e-04 7.734435558319091797e+00 2.320444822311401367e+00 5.532351136207580566e-02
7.520000000000000000e+02 7.935077667236328125e+01 1.116769123077392578e+01 5.135226529091596603e-04 7.627614021301269531e+00 2.288438320159912109e+00 5.443830788135528564e-02
7.530000000000000000e+02 7.935620880126953125e+01 6.986208915710449219e+00 1.234883442521095276e-03 7.320572376251220703e+00 2.196542263031005859e+00 4.906732216477394104e-02
7.540000000000000000e+02 7.935580444335937500e+01 5.591701030731201172e+00 1.196039258502423763e-03 7.226515769958496094e+00 2.168313503265380859e+00 4.649200662970542908e-02
7.550000000000000000e+02 7.935579681396484375e+01 4.197391986846923828e+00 1.737241167575120926e-03 7.138205528259277344e+00 2.141982793807983398e+00 4.335169121623039246e-02
7.560000000000000000e+02 7.936055755615234375e+01 1.561263203620910645e-02 2.046459121629595757e-03 6.917723178863525391e+00 2.075930833816528320e+00 3.105100244283676147e-02
7.570000000000000000e+02 7.936242675781250000e+01 -1.378831148147583008e+00 2.377100754529237747e-03 6.861942768096923828e+00 2.059295892715454102e+00 2.623068913817405701e-02
7.580000000000000000e+02 7.809543609619140625e+01 -4.148029804229736328e+00 1.149436831474304199e-02 6.892679214477539062e+00 2.071252107620239258e+00 4.144021496176719666e-02
7.590000000000000000e+02 7.936557769775390625e+01 -4.166533470153808594e+00 2.557000145316123962e-03 6.781256198883056641e+00 2.035143852233886719e+00 1.578635163605213165e-02
7.600000000000000000e+02 7.936203002929687500e+01 -8.347410202026367188e+00 2.413379494100809097e-03 6.743852138519287109e+00 2.023879766464233398e+00 -6.163181387819349766e-04
7.610000000000000000e+02 7.806388854980468750e+01 -1.111934280395507812e+01 1.107765827327966690e-02 6.883689403533935547e+00 2.068430185317993164e+00 -3.275454416871070862e-02
7.620000000000000000e+02 7.935556030273437500e+01 -1.113674068450927734e+01 2.291711978614330292e-03 6.774761199951171875e+00 2.033115863800048828e+00 -1.108685228973627090e-02
7.630000000000000000e+02 7.934932708740234375e+01 -1.531135368347167969e+01 1.873196219094097614e-03 6.894189357757568359e+00 2.068818807601928711e+00 -2.428123913705348969e-02
7.640000000000000000e+02 7.803443145751953125e+01 -1.805976867675781250e+01 5.672713741660118103e-03 7.085772037506103516e+00 2.127433300018310547e+00 -8.706056326627731323e-02
7.650000000000000000e+02 7.934772491455078125e+01 -1.809491539001464844e+01 1.332554267719388008e-03 7.011980533599853516e+00 2.103993892669677734e+00 -3.053602576255798340e-02
7.660000000000000000e+02 7.935169219970703125e+01 -2.365544509887695312e+01 3.607024846132844687e-04 7.298265457153320312e+00 2.189587831497192383e+00 -3.583236783742904663e-02
7.670000000000000000e+02 7.804213714599609375e+01 -2.497310829162597656e+01 -5.357047775760293007e-04 7.394811153411865234e+00 2.218282699584960938e+00 -1.012503579258918762e-01
7.680000000000000000e+02 7.934857177734375000e+01 -2.504569625854492188e+01 -2.758246555458754301e-04 7.373437404632568359e+00 2.211948394775390625e+00 -3.588926792144775391e-02
7.690000000000000000e+02 7.932323455810546875e+01 -2.921565437316894531e+01 -3.620973729994148016e-04 7.589156150817871094e+00 2.276638269424438477e+00 -3.361470252275466919e-02
7.700000000000000000e+02 7.786898803710937500e+01 -3.189292144775390625e+01 -1.017235219478607178e-02 7.687453746795654297e+00 2.303184270858764648e+00 -8.084984123706817627e-02
7.710000000000000000e+02 7.929920196533203125e+01 -3.199831390380859375e+01 -1.802951213903725147e-03 7.709252834320068359e+00 2.312235116958618164e+00 -2.722504176199436188e-02
7.720000000000000000e+02 7.933545684814453125e+01 -3.610173034667968750e+01 -2.336666075279936194e-04 7.833098888397216797e+00 2.349859476089477539e+00 -1.548641268163919449e-02
7.730000000000000000e+02 7.923435211181640625e+01 -3.742053604125976562e+01 -2.496850444003939629e-03 7.859849929809570312e+00 2.357205867767333984e+00 -1.211325544863939285e-02
7.740000000000000000e+02 7.898548889160156250e+01 -3.872019958496093750e+01 -4.630490439012646675e-04 7.876675605773925781e+00 2.362863779067993164e+00 -1.030948478728532791e-02
7.750000000000000000e+02 7.859651947021484375e+01 -4.007250213623046875e+01 -3.826696425676345825e-03 7.885442733764648438e+00 2.364484786987304688e+00 -6.766215432435274124e-03
7.760000000000000000e+02 2.763926696777343750e+01 4.075101089477539062e+01 -5.374764204025268555e-01 4.215032100677490234e+00 1.103266716003417969e+00 -5.164042860269546509e-02
7.770000000000000000e+02 6.698044586181640625e+01 4.046382522583007812e+01 -2.242804169654846191e-01 8.190031051635742188e+00 2.389725208282470703e+00 6.195206567645072937e-02
7.780000000000000000e+02 6.940023899078369141e-01 3.053814411163330078e+00 -1.083772003767080605e-04 1.339028094662353396e-04 7.657682544959243387e-06 -3.583135840017348528e-04
7.790000000000000000e+02 3.190431594848632812e+00 2.744845390319824219e+00 2.575282414909452200e-04 -3.479787483229301870e-05 6.681910599581897259e-05 -3.235744661651551723e-04
7.800000000000000000e+02 5.307880401611328125e+00 2.601375579833984375e+00 9.383951692143455148e-05 1.324032928096130490e-04 6.787283928133547306e-05 5.290965054882690310e-05
7.810000000000000000e+02 1.505740404129028320e+00 6.365365982055664062e+00 -1.864518417278304696e-04 4.885856760665774345e-04 9.064014739124104381e-05 -2.347328700125217438e-04
7.820000000000000000e+02 5.189931988716125488e-01 9.214605331420898438e+00 8.801951189525425434e-04 2.216593362390995026e-03 9.290365851484239101e-04 -5.616226699203252792e-04
7.830000000000000000e+02 5.739663839340209961e-01 1.201489257812500000e+01 9.908269857987761497e-04 5.643341690301895142e-03 1.990250544622540474e-03 -9.951994288712739944e-04
7.840000000000000000e+02 1.742601394653320312e+00 1.180867862701416016e+01 -1.854697620728984475e-04 1.839340897276997566e-03 4.961613449268043041e-04 -1.909340382553637028e-03
7.850000000000000000e+02 6.105395555496215820e-01 1.761780738830566406e+01 -2.927403431385755539e-03 -1.609246991574764252e-02 -5.705961957573890686e-03 9.338500909507274628e-03
7.860000000000000000e+02 7.638131618499755859e+00 1.839297485351562500e+01 -2.091622203588485718e-01 4.940657527185976505e-04 -6.260044872760772705e-02 -2.609998919069766998e-02
7.870000000000000000e+02 3.027116060256958008e+00 1.844163322448730469e+01 -2.875274233520030975e-02 -6.054778117686510086e-03 -1.044225599616765976e-02 4.595069959759712219e-02
7.880000000000000000e+02 6.927940249443054199e-01 2.190663719177246094e+01 6.633389275521039963e-04 -1.484069824218750000e-01 -4.432309046387672424e-02 2.762662433087825775e-02
7.890000000000000000e+02 6.873053312301635742e-01 2.336350440979003906e+01 -2.471408515702933073e-04 -2.047128528356552124e-01 -6.148799881339073181e-02 2.737328037619590759e-02
7.900000000000000000e+02 6.817467808723449707e-01 2.480571174621582031e+01 3.533190581947565079e-03 -2.580047547817230225e-01 -7.634146511554718018e-02 2.379566989839076996e-02
7.910000000000000000e+02 7.159792184829711914e-01 2.906028747558593750e+01 -4.533799365162849426e-03 -3.525451421737670898e-01 -1.071236804127693176e-01 1.010334119200706482e-02
7.920000000000000000e+02 7.395437955856323242e-01 3.047243499755859375e+01 1.359016727656126022e-02 -3.637201488018035889e-01 -1.050390005111694336e-01 1.084845978766679764e-03
7.930000000000000000e+02 2.241878032684326172e+00 3.043674659729003906e+01 4.417065065354108810e-03 -1.507447063922882080e-01 -4.389829188585281372e-02 1.367546059191226959e-02
7.940000000000000000e+02 7.576381564140319824e-01 3.188462448120117188e+01 -1.169142592698335648e-02 -3.646636903285980225e-01 -1.129065304994583130e-01 -3.605752717703580856e-04
7.950000000000000000e+02 7.352500557899475098e-01 3.605296325683593750e+01 -8.039338514208793640e-03 -3.323625326156616211e-01 -1.021205633878707886e-01 -7.800812367349863052e-03
7.960000000000000000e+02 3.321714401245117188e+00 3.726707839965820312e+01 3.576588630676269531e-02 -2.815048396587371826e-02 2.284620422869920731e-03 -4.573358595371246338e-02
7.970000000000000000e+02 9.137143492698669434e-01 3.875238037109375000e+01 -1.009900867938995361e-02 -2.446226030588150024e-01 -7.641648501157760620e-02 -3.046692162752151489e-02
7.980000000000000000e+02 1.283352613449096680e+00 4.010274887084960938e+01 2.492044121026992798e-02 -1.864139139652252197e-01 -4.844804108142852783e-02 -4.925890639424324036e-02
7.990000000000000000e+02 1.037066555023193359e+01 1.858116030693054199e+00 1.248788757948204875e-04 9.473159298067912459e-05 6.588314136024564505e-05 3.197617479600012302e-04
8.000000000000000000e+02 8.910502433776855469e+00 1.866270303726196289e+00 9.548836533213034272e-05 2.056257071672007442e-04 9.033422247739508748e-05 3.624270902946591377e-04
8.010000000000000000e+02 8.196707725524902344e+00 1.862178921699523926e+00 2.862949622794985771e-04 -2.919092075899243355e-04 -1.684272433521982748e-06 -2.136753901140764356e-04
8.020000000000000000e+02 7.485601425170898438e+00 1.858805298805236816e+00 8.785892714513465762e-05 2.305238012922927737e-04 9.551482071401551366e-05 2.664811618160456419e-04
8.030000000000000000e+02 5.350440025329589844e+00 1.867128014564514160e+00 2.949853951577097178e-04 -2.196397690568119287e-04 2.260369001305662096e-05 -1.885320962173864245e-04
8.040000000000000000e+02 4.636117458343505859e+00 1.879945516586303711e+00 1.102872338378801942e-04 1.042379808495752513e-04 6.435756222344934940e-05 2.106033571180887520e-05
8.050000000000000000e+02 3.922952651977539062e+00 1.894666314125061035e+00 2.240565954707562923e-04 -1.033782828017137945e-04 3.620349525590427220e-05 -2.239278983324766159e-04
8.060000000000000000e+02 3.213935375213623047e+00 1.904328703880310059e+00 -4.046572485094657168e-06 1.011778367683291435e-04 2.913937896664720029e-05 1.675570820225402713e-05
8.070000000000000000e+02 2.514881372451782227e+00 1.903085350990295410e+00 2.480682160239666700e-04 -5.488786337082274258e-05 5.795410470454953611e-05 -1.589566818438470364e-04
8.080000000000000000e+02 1.820945739746093750e+00 1.901134848594665527e+00 -5.904665158595889807e-05 6.337436934700235724e-05 1.298316078646166716e-06 -5.728343603550456464e-05
8.090000000000000000e+02 1.263424396514892578e+01 1.765632987022399902e+00 1.051708532031625509e-04 -1.022424621623940766e-04 8.785175396042177454e-07 9.028282875078730285e-06
8.100000000000000000e+02 1.331596660614013672e+01 1.740862727165222168e+00 7.549391739303246140e-05 1.074730389518663287e-04 5.489008617587387562e-05 1.954147010110318661e-04
8.110000000000000000e+02 1.513097953796386719e+01 1.858843684196472168e+00 6.918932194821536541e-05 -2.755985769908875227e-04 -6.192277214722707868e-05 -2.757053589448332787e-04
8.120000000000000000e+02 1.340828514099121094e+01 3.119119882583618164e+00 -1.751685922499746084e-04 -5.405325209721922874e-04 -2.147103368770331144e-04 -2.420826422167010605e-05
8.130000000000000000e+02 1.476142024993896484e+01 3.609739542007446289e+00 -7.610426837345585227e-05 -9.392308857059106231e-05 -5.100820635561831295e-05 1.836108131101354957e-04
8.140000000000000000e+02 1.406347560882568359e+01 7.559681892395019531e+00 -7.137041538953781128e-04 1.944064388226252049e-05 -2.082790451822802424e-04 -4.208523314446210861e-04
8.150000000000000000e+02 1.352545166015625000e+01 8.822692871093750000e+00 1.070288941264152527e-03 8.185993647202849388e-04 5.666664801537990570e-04 5.675940774381160736e-04
8.160000000000000000e+02 1.289160823822021484e+01 1.005306720733642578e+01 -1.452134223654866219e-03 -3.041264426428824663e-04 -5.268782260827720165e-04 -1.256029470823705196e-03
8.170000000000000000e+02 1.029801750183105469e+01 1.168916797637939453e+01 -4.578685620799660683e-04 6.557152606546878815e-03 1.829785294830799103e-03 1.663643866777420044e-03
8.180000000000000000e+02 9.394248962402343750e+00 1.272639274597167969e+01 4.381056642159819603e-04 -4.327289760112762451e-03 -1.166755217127501965e-03 -1.653761602938175201e-03
8.190000000000000000e+02 8.439273834228515625e+00 1.556786060333251953e+01 1.237716898322105408e-02 2.533364482223987579e-02 1.131324376910924911e-02 5.870104301720857620e-03
8.200000000000000000e+02 1.634838104248046875e+01 1.685615158081054688e+01 2.433030307292938232e-01 1.743207931518554688e+00 5.959532856941223145e-01 -6.640865206718444824e-01
8.210000000000000000e+02 1.658544540405273438e+01 1.309426975250244141e+01 4.545946717262268066e-01 1.884438633918762207e+00 7.017099857330322266e-01 -8.806945085525512695e-01
8.220000000000000000e+02 1.761707305908203125e+01 1.043257617950439453e+01 3.698206841945648193e-01 2.083136558532714844e+00 7.358871698379516602e-01 -7.965723872184753418e-01
8.230000000000000000e+02 1.830005073547363281e+01 7.733167171478271484e+00 1.358367502689361572e-01 1.478819370269775391e+00 4.843968152999877930e-01 -4.553931951522827148e-01
8.240000000000000000e+02 1.877643585205078125e+01 4.997499465942382812e+00 7.070830464363098145e-02 5.389174222946166992e-01 1.828877180814743042e-01 -2.770473957061767578e-01
8.250000000000000000e+02 1.924393272399902344e+01 -3.785018444061279297e+00 8.608506061136722565e-03 -2.504372298717498779e-01 -7.254862040281295776e-02 1.758797466754913330e-01
8.260000000000000000e+02 1.912671661376953125e+01 -2.620196104049682617e+00 3.204403910785913467e-04 -4.537837505340576172e-01 -1.360389888286590576e-01 1.072153225541114807e-01
8.270000000000000000e+02 2.011348342895507812e+01 -4.035965442657470703e+00 -2.205137349665164948e-02 -1.511284410953521729e-01 -5.195394530892372131e-02 2.525284588336944580e-01
8.280000000000000000e+02 2.091064453125000000e+01 -4.223290443420410156e+00 -3.884059563279151917e-02 -1.031116321682929993e-01 -4.258566722273826599e-02 2.973588705062866211e-01
8.290000000000000000e+02 2.303487396240234375e+01 -4.628642082214355469e+00 -1.052504926919937134e-01 2.031408064067363739e-02 -2.548092417418956757e-02 2.241642177104949951e-01
8.300000000000000000e+02 2.443769454956054688e+01 -4.802573680877685547e+00 -4.519009217619895935e-02 8.145923167467117310e-02 1.088074035942554474e-02 1.091606840491294861e-01
8.310000000000000000e+02 2.514405059814453125e+01 -4.871441841125488281e+00 4.379907250404357910e-02 1.179944500327110291e-01 4.853805527091026306e-02 2.628875151276588440e-02
8.320000000000000000e+02 2.585193252563476562e+01 -4.933048248291015625e+00 1.831586360931396484e-01 1.512051075696945190e-01 1.003091186285018921e-01 -8.280944079160690308e-02
8.330000000000000000e+02 2.799429702758789062e+01 -5.014789581298828125e+00 1.276380896568298340e+00 4.678051173686981201e-01 5.232557654380798340e-01 -8.369650244712829590e-01
8.340000000000000000e+02 2.868872451782226562e+01 -5.027880668640136719e+00 1.881422400474548340e+00 8.012720346450805664e-01 8.048083186149597168e-01 -1.363366484642028809e+00
8.350000000000000000e+02 3.000864219665527344e+01 -5.179329872131347656e+00 3.749806165695190430e+00 2.115703582763671875e+00 1.759652972221374512e+00 -3.073823213577270508e+00
8.360000000000000000e+02 3.079850196838378906e+01 -5.131553173065185547e+00 4.587299346923828125e+00 5.193755149841308594e+00 2.934316396713256836e+00 -5.287885665893554688e+00
8.370000000000000000e+02 3.263393020629882812e+01 -5.203729152679443359e+00 2.950559616088867188e+00 2.020163726806640625e+01 6.945658683776855469e+00 -2.087258815765380859e+00
8.380000000000000000e+02 3.283808898925781250e+01 -5.264710903167724609e+00 3.514755725860595703e+00 2.042382431030273438e+01 7.181574344635009766e+00 -6.246113777160644531e-01
8.390000000000000000e+02 3.340008926391601562e+01 -5.625002384185791016e+00 6.961379051208496094e+00 1.909187126159667969e+01 7.815974712371826172e+00 2.179808378219604492e+00
8.400000000000000000e+02 3.368609237670898438e+01 -7.287262916564941406e+00 1.114351558685302734e+01 1.709334182739257812e+01 8.471056938171386719e+00 -2.223164558410644531e+00
8.410000000000000000e+02 3.374998092651367188e+01 -7.088363170623779297e+00 1.178998184204101562e+01 1.652884864807128906e+01 8.495649337768554688e+00 -1.462197065353393555e+00
8.420000000000000000e+02 3.368815994262695312e+01 -7.947311401367187500e+00 6.927176952362060547e+00 1.777290916442871094e+01 7.410025596618652344e+00 -2.444427967071533203e+00
8.430000000000000000e+02 3.273515701293945312e+01 -8.380777359008789062e+00 2.595732212066650391e+00 2.006678962707519531e+01 6.798756599426269531e+00 1.399872899055480957e+00
8.440000000000000000e+02 3.041798591613769531e+01 -8.468832015991210938e+00 3.642533063888549805e+00 3.359019279479980469e+00 2.100465536117553711e+00 4.106558322906494141e+00
8.450000000000000000e+02 2.980473518371582031e+01 -8.449804306030273438e+00 2.859005689620971680e+00 1.681955456733703613e+00 1.362288355827331543e+00 2.702392339706420898e+00
8.460000000000000000e+02 2.961094665527343750e+01 -8.481090545654296875e+00 2.519195556640625000e+00 1.375260114669799805e+00 1.168336629867553711e+00 2.345010995864868164e+00
8.470000000000000000e+02 2.873379325866699219e+01 -8.583829879760742188e+00 1.383969545364379883e+00 7.700546979904174805e-01 6.462072730064392090e-01 1.401593685150146484e+00
8.480000000000000000e+02 2.754021644592285156e+01 -8.538412094116210938e+00 2.359125465154647827e-01 2.540076971054077148e-01 1.469760686159133911e-01 6.030287742614746094e-01
8.490000000000000000e+02 2.630666542053222656e+01 -8.513127326965332031e+00 -2.387455403804779053e-01 1.058288887143135071e-01 -3.987499698996543884e-02 1.782741695642471313e-01
8.500000000000000000e+02 2.253279685974121094e+01 -8.277273178100585938e+00 -7.227239012718200684e-01 1.093761399388313293e-01 -1.840043216943740845e-01 -3.007819652557373047e-01
8.510000000000000000e+02 2.331127357482910156e+01 -8.348936080932617188e+00 -7.266532778739929199e-01 9.880249947309494019e-02 -1.883552372455596924e-01 -2.398652136325836182e-01
8.520000000000000000e+02 2.485637664794921875e+01 -8.437451362609863281e+00 -6.375212669372558594e-01 8.136291056871414185e-02 -1.668474972248077393e-01 -8.250777423381805420e-02
8.530000000000000000e+02 2.098636627197265625e+01 -8.061676025390625000e+00 -6.375356316566467285e-01 1.159780696034431458e-01 -1.564672738313674927e-01 -3.653760254383087158e-01
8.540000000000000000e+02 2.022520065307617188e+01 -7.931913375854492188e+00 -5.575419068336486816e-01 8.947151154279708862e-02 -1.404211223125457764e-01 -3.691157102584838867e-01
8.550000000000000000e+02 1.825588607788085938e+01 -7.426868915557861328e+00 -2.562959790229797363e-01 -1.420916318893432617e-01 -1.195162832736968994e-01 -2.470366805791854858e-01
8.560000000000000000e+02 1.816249275207519531e+01 -7.966725349426269531e+00 -2.962176203727722168e-01 -1.651715040206909180e-01 -1.384167373180389404e-01 -3.374291658401489258e-01
8.570000000000000000e+02 3.190896415710449219e+01 -8.912961959838867188e+00 1.983453154563903809e+00 1.387303352355957031e+01 4.756946086883544922e+00 5.236347675323486328e+00
8.580000000000000000e+02 3.292950820922851562e+01 -8.276549339294433594e+00 3.373835086822509766e+00 2.044342231750488281e+01 7.145177364349365234e+00 2.406580559909343719e-02
8.590000000000000000e+02 3.350770187377929688e+01 -7.658622741699218750e+00 8.646075248718261719e+00 1.874508285522460938e+01 8.217348098754882812e+00 -2.839151859283447266e+00
8.600000000000000000e+02 3.326310729980468750e+01 -8.002901077270507812e+00 5.794770717620849609e+00 1.994896316528320312e+01 7.723120212554931641e+00 -2.005797147750854492e+00
8.610000000000000000e+02 3.380899047851562500e+01 -6.664631843566894531e+00 1.200619506835937500e+01 1.606921195983886719e+01 8.422622680664062500e+00 3.443095386028289795e-01
8.620000000000000000e+02 3.377756881713867188e+01 -6.190913677215576172e+00 1.070391464233398438e+01 1.665033531188964844e+01 8.206274986267089844e+00 1.934327244758605957e+00
8.630000000000000000e+02 3.418855667114257812e+01 -6.681241989135742188e+00 1.067043972015380859e+01 1.477984905242919922e+01 7.635086536407470703e+00 5.460287258028984070e-02
8.640000000000000000e+02 3.360385513305664062e+01 -7.477214336395263672e+00 9.989483833312988281e+00 1.795391845703125000e+01 8.383020401000976562e+00 -2.758522748947143555e+00
8.650000000000000000e+02 3.381933975219726562e+01 -6.425060272216796875e+00 1.145196628570556641e+01 1.619423675537109375e+01 8.293860435485839844e+00 1.273523926734924316e+00
8.660000000000000000e+02 3.321006774902343750e+01 -8.498558044433593750e+00 3.287025690078735352e+00 1.879424476623535156e+01 6.624381065368652344e+00 -4.555831849575042725e-01
8.670000000000000000e+02 3.180884742736816406e+01 -5.110245227813720703e+00 3.498309850692749023e+00 1.427222633361816406e+01 5.331161022186279297e+00 -6.561977386474609375e+00
8.680000000000000000e+02 3.318777465820312500e+01 -4.980478286743164062e+00 3.594750881195068359e+00 1.864148521423339844e+01 6.670870780944824219e+00 1.815592199563980103e-01
8.690000000000000000e+02 3.415847778320312500e+01 -6.936130046844482422e+00 1.071177959442138672e+01 1.485937976837158203e+01 7.671347618103027344e+00 -6.523923277854919434e-01
8.700000000000000000e+02 3.377518081665039062e+01 -7.766069889068603516e+00 8.111042976379394531e+00 1.730004119873046875e+01 7.623325347900390625e+00 -2.619930982589721680e+00
8.710000000000000000e+02 3.397757720947265625e+01 -7.380849838256835938e+00 9.959753990173339844e+00 1.590528964996337891e+01 7.759512901306152344e+00 -2.034946680068969727e+00
8.720000000000000000e+02 3.305585479736328125e+01 -5.332490921020507812e+00 4.418633460998535156e+00 2.005133819580078125e+01 7.340991497039794922e+00 5.674675703048706055e-01
8.730000000000000000e+02 3.250591659545898438e+01 -8.430935859680175781e+00 2.168008804321289062e+00 1.921449661254882812e+01 6.414751529693603516e+00 2.998033523559570312e+00
8.740000000000000000e+02 2.960632896423339844e+01 -5.113681316375732422e+00 3.109419345855712891e+00 1.364252924919128418e+00 1.342101693153381348e+00 -2.319462060928344727e+00
8.750000000000000000e+02 2.923726463317871094e+01 -4.803202629089355469e+00 2.675000190734863281e+00 1.380324840545654297e+00 1.216597557067871094e+00 -2.222074508666992188e+00
8.760000000000000000e+02 3.019637870788574219e+01 -5.158086776733398438e+00 3.944098234176635742e+00 2.627065420150756836e+00 1.971349120140075684e+00 -3.521555900573730469e+00
8.770000000000000000e+02 3.039523696899414062e+01 -5.143217086791992188e+00 4.212708950042724609e+00 3.377342224121093750e+00 2.277015447616577148e+00 -4.064813137054443359e+00
8.780000000000000000e+02 3.059634590148925781e+01 -5.133430957794189453e+00 4.500725746154785156e+00 4.168277740478515625e+00 2.600701093673706055e+00 -4.688330650329589844e+00
8.790000000000000000e+02 3.121067619323730469e+01 -5.107073307037353516e+00 4.579414844512939453e+00 8.325829505920410156e+00 3.871573448181152344e+00 -6.450308322906494141e+00
8.800000000000000000e+02 3.141287994384765625e+01 -5.116630077362060547e+00 4.388034343719482422e+00 1.012814140319824219e+01 4.354852676391601562e+00 -6.820330619812011719e+00
8.810000000000000000e+02 3.222547149658203125e+01 -5.135750770568847656e+00 2.709753513336181641e+00 1.798614120483398438e+01 6.208768367767333984e+00 -4.746766567230224609e+00
8.820000000000000000e+02 2.915810775756835938e+01 -8.544425964355468750e+00 1.865317106246948242e+00 1.056537747383117676e+00 8.765564560890197754e-01 1.849219918251037598e+00
8.830000000000000000e+02 3.102296829223632812e+01 -8.401871681213378906e+00 4.090423107147216797e+00 6.463148593902587891e+00 3.166071414947509766e+00 5.870734214782714844e+00
8.840000000000000000e+02 3.163426017761230469e+01 -8.519041061401367188e+00 3.196916341781616211e+00 1.198195362091064453e+01 4.553660869598388672e+00 6.473120212554931641e+00
8.850000000000000000e+02 3.020729255676269531e+01 -8.473039627075195312e+00 3.403460502624511719e+00 2.708031654357910156e+00 1.833447694778442383e+00 3.620233058929443359e+00
8.860000000000000000e+02 3.207041931152343750e+01 -8.487525939941406250e+00 2.325442314147949219e+00 1.661677932739257812e+01 5.682666301727294922e+00 5.418487548828125000e+00
8.870000000000000000e+02 3.168105888366699219e+01 -8.950094223022460938e+00 2.345489740371704102e+00 1.200505161285400391e+01 4.305162429809570312e+00 5.694668769836425781e+00
8.880000000000000000e+02 3.228596115112304688e+01 -8.465900421142578125e+00 2.105563640594482422e+00 1.796562957763671875e+01 6.021357536315917969e+00 4.249140262603759766e+00
8.890000000000000000e+02 1.452346801757812500e+01 1.739082694053649902e+00 -2.137756964657455683e-04 8.041875844355672598e-05 -4.000708577223122120e-05 2.056551456917077303e-04
8.900000000000000000e+02 1.463497352600097656e+01 2.563478231430053711e+00 4.420613695401698351e-04 4.132930771447718143e-04 2.566063194535672665e-04 -1.099600631278008223e-04
8.910000000000000000e+02 1.188596343994140625e+01 1.800325632095336914e+00 7.864258077461272478e-05 4.852847996517084539e-05 3.815132004092447460e-05 1.405007642460986972e-04
8.920000000000000000e+02 2.561549568176269531e+01 -8.482034683227539062e+00 -4.920449256896972656e-01 9.553778171539306641e-02 -1.189521476626396179e-01 2.649078704416751862e-02
8.930000000000000000e+02 2.686745452880859375e+01 -9.062186241149902344e+00 5.092123746871948242e-01 3.703099191188812256e-01 2.638566792011260986e-01 5.816885232925415039e-01
8.940000000000000000e+02 2.804309082031250000e+01 -9.105994224548339844e+00 1.308422088623046875e+00 7.588545680046081543e-01 6.201829910278320312e-01 1.312893033027648926e+00
8.950000000000000000e+02 2.692891883850097656e+01 -8.526125907897949219e+00 1.311831455677747726e-02 1.927764862775802612e-01 6.176844239234924316e-02 3.824924230575561523e-01
8.960000000000000000e+02 2.623787879943847656e+01 -9.054337501525878906e+00 2.480198442935943604e-01 2.659131288528442383e-01 1.541798859834671021e-01 3.641524910926818848e-01
8.970000000000000000e+02 2.746837043762207031e+01 -9.074492454528808594e+00 9.011077880859375000e-01 5.052022337913513184e-01 4.218930006027221680e-01 8.782124519348144531e-01
8.980000000000000000e+02 2.925721359252929688e+01 -8.872860908508300781e+00 2.242266893386840820e+00 1.462023854255676270e+00 1.111287236213684082e+00 2.327552795410156250e+00
8.990000000000000000e+02 1.446736049652099609e+01 -3.373735666275024414e+00 1.645245356485247612e-04 5.356880719773471355e-04 2.100637793773785233e-04 -1.805364590836688876e-04
9.000000000000000000e+02 1.385013198852539062e+01 -2.963459730148315430e+00 -1.934399915626272559e-04 -2.225806238129734993e-04 -1.248061889782547951e-04 2.317335929546970874e-05
9.010000000000000000e+02 1.842659759521484375e+01 -9.064777374267578125e+00 -4.130344092845916748e-01 -1.912914365530014038e-01 -1.812977492809295654e-01 -4.476813375949859619e-01
9.020000000000000000e+02 3.914787769317626953e+00 3.526209831237792969e+00 3.148258838336914778e-04 -1.470968418288975954e-04 5.031870750826783478e-05 -3.375920641701668501e-04
9.030000000000000000e+02 9.529950141906738281e+00 2.620923280715942383e+00 7.300741708604618907e-05 2.764555101748555899e-04 1.048388803610578179e-04 4.967357963323593140e-04
9.040000000000000000e+02 7.400963306427001953e+00 2.586050271987915039e+00 4.096885386388748884e-04 -4.735215043183416128e-04 -1.914989115903154016e-05 -2.166801568819209933e-04
9.050000000000000000e+02 6.775162696838378906e+00 1.857616305351257324e+00 3.367639146745204926e-04 -3.042366879526525736e-04 9.758164196682628244e-06 -1.891719875857234001e-04
9.060000000000000000e+02 6.705609321594238281e+00 2.579883337020874023e+00 3.570137778297066689e-05 2.656501892488449812e-04 9.040546865435317159e-05 2.097459509968757629e-04
9.070000000000000000e+02 7.985454082489013672e+00 3.362870931625366211e+00 4.753904941026121378e-04 -6.702660466544330120e-04 -5.846266503795050085e-05 -2.247549709863960743e-04
9.080000000000000000e+02 5.870705127716064453e+00 4.019304275512695312e+00 5.900691030547022820e-04 -5.792498704977333546e-04 3.245764673920348287e-06 -1.567337458254769444e-04
9.090000000000000000e+02 1.543400645256042480e+00 7.733320713043212891e+00 5.583175225183367729e-04 8.063614950515329838e-04 4.094036994501948357e-04 -8.078393875621259212e-04
9.100000000000000000e+02 3.918476998805999756e-01 3.801388263702392578e+00 4.593757039401680231e-04 2.492327766958624125e-04 2.125825412804260850e-04 4.467524195206351578e-05
9.110000000000000000e+02 2.400333166122436523e+00 3.698599100112915039e+00 4.478880728129297495e-04 3.895160989486612380e-05 1.460519124520942569e-04 -3.984264621976763010e-04
9.120000000000000000e+02 3.877041935920715332e-01 2.100464344024658203e+00 -1.747030182741582394e-04 -4.446576713235117495e-05 -6.575063162017613649e-05 4.646849993150681257e-05
9.130000000000000000e+02 1.124366164207458496e+00 1.948485016822814941e+00 3.048122744075953960e-05 1.304474862990900874e-04 4.827861630474217236e-05 -5.276665251585654914e-05
9.140000000000000000e+02 1.112815380096435547e+01 1.832001924514770508e+00 4.186486330581828952e-05 -3.615464447648264468e-05 1.713064875730196945e-06 -9.593361028237268329e-05
9.150000000000000000e+02 8.684026718139648438e+00 3.384807348251342773e+00 -4.206905578030273318e-05 4.810485988855361938e-04 1.316938578383997083e-04 5.576380644924938679e-04
9.160000000000000000e+02 2.656314659118652344e+01 -4.974861621856689453e+00 4.297749102115631104e-01 1.769631356000900269e-01 1.820214241743087769e-01 -2.395408749580383301e-01
9.170000000000000000e+02 2.319723701477050781e+01 -3.994363784790039062e+00 1.792564243078231812e-01 9.606670588254928589e-02 8.259694278240203857e-02 1.408274918794631958e-01
9.180000000000000000e+02 2.520262336730957031e+01 -4.305022716522216797e+00 4.504456222057342529e-01 2.371485829353332520e-01 2.062782645225524902e-01 -1.404268443584442139e-01
9.190000000000000000e+02 2.386601829528808594e+01 -4.108829021453857422e+00 2.415978610515594482e-01 1.312941908836364746e-01 1.118676140904426575e-01 6.527537107467651367e-02
9.200000000000000000e+02 2.336409759521484375e+01 -3.362333059310913086e+00 4.328849911689758301e-01 2.065836042165756226e-01 1.918405890464782715e-01 3.925796132534742355e-03
9.210000000000000000e+02 2.233192443847656250e+01 -4.504057884216308594e+00 -8.928041905164718628e-02 -7.385924924165010452e-03 -2.899990417063236237e-02 2.617588937282562256e-01
9.220000000000000000e+02 2.251773262023925781e+01 -3.861154317855834961e+00 1.383110284805297852e-01 5.147037282586097717e-02 5.693442001938819885e-02 1.992876529693603516e-01
9.230000000000000000e+02 2.655765724182128906e+01 -4.419145107269287109e+00 9.275554418563842773e-01 3.814049363136291504e-01 3.926880955696105957e-01 -5.192952752113342285e-01
9.240000000000000000e+02 2.590462875366210938e+01 -3.807411432266235352e+00 1.011392712593078613e+00 4.743241369724273682e-01 4.457150697708129883e-01 -5.405460000038146973e-01
9.250000000000000000e+02 2.723983001708984375e+01 -4.444254875183105469e+00 1.278674721717834473e+00 5.546229481697082520e-01 5.499892830848693848e-01 -8.116785287857055664e-01
9.260000000000000000e+02 1.346908283233642578e+01 -4.840268135070800781e+00 -7.052450091578066349e-04 -1.113141261157579720e-04 -2.449677267577499151e-04 2.473250206094235182e-04
9.270000000000000000e+02 1.288236522674560547e+01 -5.963128566741943359e+00 9.444992174394428730e-04 1.698382984613999724e-04 3.343012649565935135e-04 -4.124185361433774233e-04
9.280000000000000000e+02 1.333284473419189453e+01 -2.561450242996215820e+00 8.526354213245213032e-05 3.307424194645136595e-04 1.248017942998558283e-04 -1.298911374760791659e-04
9.290000000000000000e+02 8.142750740051269531e+00 -2.588921785354614258e+00 1.925071410369127989e-04 1.814995921449735761e-04 1.122020184993743896e-04 -3.982155176345258951e-04
9.300000000000000000e+02 8.805406570434570312e+00 2.610653638839721680e+00 2.879090316127985716e-04 -4.048546834383159876e-04 -3.508369627525098622e-05 -2.677078300621360540e-04
9.310000000000000000e+02 1.361185169219970703e+01 3.925407171249389648e+00 -1.940756774274632335e-04 4.028721014037728310e-04 6.263892282731831074e-05 -3.139602486044168472e-04
9.320000000000000000e+02 1.257496547698974609e+01 2.542294263839721680e+00 4.045661626150831580e-05 -1.168018661701353267e-05 8.632929166196845472e-06 9.320670505985617638e-05
9.330000000000000000e+02 1.104724025726318359e+01 2.607043743133544922e+00 1.581190444994717836e-04 9.685618715593591332e-05 7.649256440345197916e-05 4.031489079352468252e-04
9.340000000000000000e+02 8.076106071472167969e+00 -1.855437397956848145e+00 -1.729801151668652892e-04 -1.705333124846220016e-04 -1.030540297506377101e-04 3.803012368734925985e-04
9.350000000000000000e+02 1.254776000976562500e+01 -3.697884082794189453e+00 -6.346220616251230240e-04 1.953966129804030061e-04 -1.317676360486075282e-04 4.084657994098961353e-04
9.360000000000000000e+02 7.403267860412597656e+00 -2.601091146469116211e+00 -1.836360752349719405e-04 -1.564068952575325966e-04 -1.020128911477513611e-04 4.572912876028567553e-04
9.370000000000000000e+02 1.177502727508544922e+01 -5.627544879913330078e+00 -6.906701601110398769e-04 -6.159113254398107529e-04 -3.919744340237230062e-04 6.017982377670705318e-04
9.380000000000000000e+02 7.244894027709960938e+00 -4.914597511291503906e+00 -4.606867514667101204e-05 1.159541192464530468e-03 3.340417461004108191e-04 -1.583078264957293868e-04
9.390000000000000000e+02 6.561495304107666016e+00 -1.868612766265869141e+00 -1.154031124315224588e-04 -1.926198165165260434e-04 -9.240688086720183492e-05 3.126743249595165253e-04
9.400000000000000000e+02 6.656878948211669922e+00 -2.605753421783447266e+00 9.947380021912977099e-05 2.327097754459828138e-04 9.965507342712953687e-05 -4.328552458900958300e-04
9.410000000000000000e+02 5.178258895874023438e+00 -2.707099676132202148e+00 -3.876480695907957852e-05 2.240405156044289470e-04 5.558271368499845266e-05 -2.950034977402538061e-04
9.420000000000000000e+02 1.576403141021728516e+00 -7.882164001464843750e+00 4.174073983449488878e-04 2.435981296002864838e-04 1.983016554731875658e-04 4.783013719134032726e-05
9.430000000000000000e+02 3.939949274063110352e+00 -3.794722080230712891e+00 4.744786929222755134e-05 -3.022111968675744720e-06 1.332772808382287621e-05 7.564962288597598672e-05
9.440000000000000000e+02 1.531541466712951660e+00 -6.563223361968994141e+00 -7.578568329336121678e-05 4.578816879075020552e-05 -8.999253623187541962e-06 4.226569726597517729e-04
9.450000000000000000e+02 1.188870787620544434e+00 -2.132506370544433594e+00 3.734290658030658960e-05 3.768590249819681048e-05 2.250864417874254286e-05 -1.747374626575037837e-04
9.460000000000000000e+02 5.349970459938049316e-01 -5.050456047058105469e+00 -1.167510781669989228e-04 -1.649668993195518851e-04 -8.451539179077371955e-05 7.150606688810512424e-05
9.470000000000000000e+02 2.328463172912597656e+01 -9.019845962524414062e+00 -3.763517439365386963e-01 1.647509187459945679e-01 -6.348024308681488037e-02 -2.298104465007781982e-01
9.480000000000000000e+02 1.999279594421386719e+01 -9.609325408935546875e+00 -3.839142620563507080e-01 9.117609262466430664e-02 -8.782145380973815918e-02 -4.448018074035644531e-01
9.490000000000000000e+02 2.012320518493652344e+01 -8.740434646606445312e+00 -4.850639402866363525e-01 9.060098230838775635e-02 -1.183388903737068176e-01 -4.332060515880584717e-01
9.500000000000000000e+02 2.249042129516601562e+01 -8.995586395263671875e+00 -4.261601567268371582e-01 1.698057055473327637e-01 -7.690633088350296021e-02 -3.118808269500732422e-01
9.510000000000000000e+02 2.406388092041015625e+01 -9.028082847595214844e+00 -2.891202270984649658e-01 1.633501052856445312e-01 -3.773103281855583191e-02 -1.257613748311996460e-01
9.520000000000000000e+02 1.858985519409179688e+01 -3.511031627655029297e+00 -1.221194630488753319e-03 -4.266217052936553955e-01 -1.283528655767440796e-01 4.065938666462898254e-02
9.530000000000000000e+02 2.183240127563476562e+01 -3.695718526840209961e+00 1.179169341921806335e-01 7.725293398834764957e-04 3.560683876276016235e-02 2.346791923046112061e-01
9.540000000000000000e+02 2.041570854187011719e+01 -3.263699531555175781e+00 6.503633409738540649e-02 -1.791695058345794678e-01 -3.423995524644851685e-02 2.505234777927398682e-01
9.550000000000000000e+02 1.220027732849121094e+01 -1.960440254211425781e+01 -2.965666353702545166e-01 -3.488433361053466797e-01 -1.936229914426803589e-01 -1.437455117702484131e-01
9.560000000000000000e+02 3.609086275100708008e+00 -1.963627052307128906e+01 -9.801799803972244263e-02 -8.067352324724197388e-02 -5.360745638608932495e-02 -1.483444571495056152e-01
9.570000000000000000e+02 1.250052738189697266e+01 1.978768157958984375e+01 3.683223202824592590e-02 6.953899264335632324e-01 2.196666449308395386e-01 -4.470997750759124756e-01
9.580000000000000000e+02 8.686702728271484375e+00 2.020925331115722656e+01 -2.725689113140106201e-02 5.220647528767585754e-02 7.484875619411468506e-03 3.940806258469820023e-03
9.590000000000000000e+02 1.932727241516113281e+01 8.081891059875488281e+00 3.044319152832031250e-01 1.663409948348999023e+00 5.903525352478027344e-01 -7.987093329429626465e-01
9.600000000000000000e+02 1.901525497436523438e+01 9.450955390930175781e+00 4.023495614528656006e-01 1.874137282371520996e+00 6.829460859298706055e-01 -8.351286649703979492e-01
9.610000000000000000e+02 1.380937194824218750e+01 1.885866165161132812e+01 9.028758853673934937e-02 1.010350465774536133e+00 3.301914334297180176e-01 -5.340369939804077148e-01
9.620000000000000000e+02 1.408196163177490234e+01 1.663681030273437500e+01 4.400714933872222900e-01 9.040394425392150879e-01 4.032332897186279297e-01 -6.219741106033325195e-01
9.630000000000000000e+02 1.713269424438476562e+01 1.176273059844970703e+01 4.134735763072967529e-01 1.996133208274841309e+00 7.228820323944091797e-01 -8.713139891624450684e-01
9.640000000000000000e+02 1.729232025146484375e+01 1.540406131744384766e+01 3.747962117195129395e-01 1.909360170364379883e+00 6.852469444274902344e-01 -7.337168455123901367e-01
9.650000000000000000e+02 2.014924240112304688e+01 2.394239664077758789e+00 1.337328851222991943e-01 3.999449908733367920e-01 1.601033508777618408e-01 -4.609064161777496338e-01
9.660000000000000000e+02 6.112071871757507324e-01 1.620963096618652344e+01 -1.522363629192113876e-03 4.163605335634201765e-04 -3.318009548820555210e-04 3.784872125834226608e-03
9.670000000000000000e+02 1.961258125305175781e+01 6.713303089141845703e+00 2.210167199373245239e-01 1.362131595611572266e+00 4.749445021152496338e-01 -7.307133674621582031e-01
9.680000000000000000e+02 1.826110649108886719e+01 1.226402378082275391e+01 4.280467629432678223e-01 2.083723783493041992e+00 7.535311579704284668e-01 -8.572614192962646484e-01
9.690000000000000000e+02 1.507956027984619141e+01 1.792277717590332031e+01 1.751376986503601074e-01 1.390673518180847168e+00 4.697433412075042725e-01 -6.146852970123291016e-01
9.700000000000000000e+02 1.890100288391113281e+01 8.439825177192687988e-01 2.577599883079528809e-02 -6.040343642234802246e-01 -1.734775155782699585e-01 -8.146630972623825073e-02
9.710000000000000000e+02 1.995646095275878906e+01 9.897695779800415039e-01 1.214219331741333008e-01 -1.326472498476505280e-02 3.244716301560401917e-02 -2.305888235569000244e-01
9.720000000000000000e+02 1.782411575317382812e+01 1.375984096527099609e+01 4.577292203903198242e-01 2.037096500396728516e+00 7.484477162361145020e-01 -8.528025746345520020e-01
9.730000000000000000e+02 2.181115341186523438e+01 -2.173043727874755859e+00 3.415788412094116211e-01 1.430812925100326538e-01 1.453980505466461182e-01 3.347210213541984558e-02
9.740000000000000000e+02 1.889192962646484375e+01 -1.745196700096130371e+00 2.007261291146278381e-02 -6.209627389907836914e-01 -1.802670359611511230e-01 5.279355868697166443e-02
9.750000000000000000e+02 3.730417251586914062e+00 -1.596888446807861328e+01 -2.332809939980506897e-02 -3.222348168492317200e-02 -1.666547544300556183e-02 -2.325681271031498909e-03
9.760000000000000000e+02 5.863746404647827148e-01 -1.765344619750976562e+01 -8.711851201951503754e-03 3.482379764318466187e-02 7.833583280444145203e-03 -5.096863955259323120e-03
9.770000000000000000e+02 1.256428718566894531e+01 -1.814280700683593750e+01 -5.765745639801025391e-01 -4.174345433712005615e-01 -2.982027530670166016e-01 -3.086268305778503418e-01
9.780000000000000000e+02 1.026080131530761719e+01 -2.530294418334960938e+00 -1.466530957259237766e-04 -2.834158949553966522e-04 -1.290207001147791743e-04 7.412071572616696358e-04
9.790000000000000000e+02 1.653737640380859375e+01 -1.044980430603027344e+01 -3.797411322593688965e-01 -7.820225954055786133e-01 -3.485291302204132080e-01 -5.605372786521911621e-01
9.800000000000000000e+02 1.758959388732910156e+01 -1.125678253173828125e+01 -3.602259755134582520e-01 -3.204337656497955322e-01 -2.041979134082794189e-01 -4.465388953685760498e-01
9.810000000000000000e+02 1.585040092468261719e+01 -1.164458942413330078e+01 -4.489541649818420410e-01 -9.291260242462158203e-01 -4.134240746498107910e-01 -6.380890011787414551e-01
9.820000000000000000e+02 1.339245128631591797e+01 -1.694342803955078125e+01 -5.803043842315673828e-01 -5.180857777595520020e-01 -3.295170366764068604e-01 -4.567389488220214844e-01
9.830000000000000000e+02 1.693204689025878906e+01 -1.254016494750976562e+01 -3.790462315082550049e-01 -3.850191533565521240e-01 -2.292196154594421387e-01 -4.204342961311340332e-01
9.840000000000000000e+02 1.364302635192871094e+01 -3.803055286407470703e+00 4.583886766340583563e-04 -5.225688801147043705e-04 -1.925405740621499717e-05 -3.380107955308631063e-05
9.850000000000000000e+02 1.605499458312988281e+01 -1.368782520294189453e+01 -4.130772352218627930e-01 -4.963991641998291016e-01 -2.728429138660430908e-01 -4.082140326499938965e-01
9.860000000000000000e+02 1.517184734344482422e+01 -1.479329109191894531e+01 -4.435127079486846924e-01 -5.549287199974060059e-01 -2.995324134826660156e-01 -4.203267693519592285e-01
9.870000000000000000e+02 1.048001384735107422e+01 -9.217002868652343750e+00 -1.595068490132689476e-03 -7.637817761860787868e-04 -7.076550973579287529e-04 9.650151478126645088e-04
9.880000000000000000e+02 9.515591621398925781e+00 -8.717543601989746094e+00 9.037445415742695332e-04 1.709475065581500530e-03 7.839658646844327450e-04 -1.332961604930460453e-03
9.890000000000000000e+02 1.112057590484619141e+01 -6.630862712860107422e+00 8.269576937891542912e-04 7.587128202430903912e-04 4.757011483889073133e-04 -7.821174222044646740e-04
9.900000000000000000e+02 1.035941123962402344e+01 -7.656025886535644531e+00 -8.197807474061846733e-04 -1.103713409975171089e-03 -5.770482821390032768e-04 9.804446017369627953e-04
9.910000000000000000e+02 1.721214532852172852e+00 -1.057926940917968750e+01 1.258798060007393360e-03 1.136174541898071766e-03 7.184917922131717205e-04 2.058511134237051010e-03
9.920000000000000000e+02 8.160273551940917969e+00 -1.267979335784912109e+01 4.650156944990158081e-03 7.202693726867437363e-03 3.555855248123407364e-03 -3.159420797601342201e-03
9.930000000000000000e+02 1.043577289581298828e+01 -4.071254730224609375e+00 5.019708260078914464e-05 1.028934144414961338e-03 3.237393975723534822e-04 -6.835879175923764706e-04
9.940000000000000000e+02 7.779027557373046875e+01 3.216262817382812500e+01 -1.213746424764394760e-02 8.802103996276855469e+00 2.636989831924438477e+00 8.261152356863021851e-02
9.950000000000000000e+02 7.937660217285156250e+01 3.621655273437500000e+01 -7.584479637444019318e-03 9.048459053039550781e+00 2.712262392044067383e+00 7.702342700213193893e-03
9.960000000000000000e+02 7.933483123779296875e+01 -2.782494735717773438e+01 -7.645198493264615536e-04 7.520058631896972656e+00 2.255788326263427734e+00 -3.478357195854187012e-02
9.970000000000000000e+02 7.722622680664062500e+01 -3.787749862670898438e+01 -1.591206155717372894e-02 7.827539443969726562e+00 2.343488216400146484e+00 -4.424412548542022705e-02
9.980000000000000000e+02 7.932532501220703125e+01 -3.474795532226562500e+01 -3.268439788371324539e-03 7.798850536346435547e+00 2.338674783706665039e+00 -1.872992143034934998e-02
9.990000000000000000e+02 7.935120391845703125e+01 -2.087640190124511719e+01 7.289369241334497929e-04 7.149816513061523438e+00 2.145163536071777344e+00 -3.426346927881240845e-02
1.000000000000000000e+03 7.802703857421875000e+01 -2.635283470153808594e+01 -1.923637930303812027e-03 7.458546638488769531e+00 2.236986875534057617e+00 -1.001787930727005005e-01
1.001000000000000000e+03 7.930934143066406250e+01 -3.060821723937988281e+01 -2.022278960794210434e-03 7.653049945831298828e+00 2.295308351516723633e+00 -3.106482885777950287e-02
1.002000000000000000e+03 7.794358062744140625e+01 -3.462172317504882812e+01 -8.797585032880306244e-03 7.768916606903076172e+00 2.328035831451416016e+00 -5.792668834328651428e-02
1.003000000000000000e+03 7.785501861572265625e+01 -3.326789855957031250e+01 -1.002432033419609070e-02 7.730926036834716797e+00 2.316270351409912109e+00 -6.825628876686096191e-02
1.004000000000000000e+03 7.477796936035156250e+01 -3.733301925659179688e+01 -4.692802578210830688e-02 7.780320167541503906e+00 2.320017576217651367e+00 -9.648660570383071899e-02
1.005000000000000000e+03 7.625636291503906250e+01 -3.896937561035156250e+01 -2.389336563646793365e-02 7.833026885986328125e+00 2.342740058898925781e+00 -5.070427432656288147e-02
1.006000000000000000e+03 7.800394439697265625e+01 1.399021720886230469e+01 -4.466302052605897188e-04 7.839143276214599609e+00 2.351608991622924805e+00 1.521778404712677002e-01
1.007000000000000000e+03 7.933136749267578125e+01 1.535242366790771484e+01 2.469313039910048246e-04 7.947606086730957031e+00 2.384356021881103516e+00 5.575346574187278748e-02
1.008000000000000000e+03 7.797842407226562500e+01 2.094626045227050781e+01 -5.561071913689374924e-03 8.290294647216796875e+00 2.485420227050781250e+00 1.365830004215240479e-01
1.009000000000000000e+03 7.933154296875000000e+01 2.230617713928222656e+01 -2.661336446180939674e-03 8.442129135131835938e+00 2.531840324401855469e+00 4.753223434090614319e-02
1.010000000000000000e+03 7.780992889404296875e+01 3.070182418823242188e+01 -6.914606783539056778e-03 8.753732681274414062e+00 2.624045372009277344e+00 9.013711661100387573e-02
1.011000000000000000e+03 7.786295318603515625e+01 2.785675430297851562e+01 -4.793827887624502182e-03 8.646805763244628906e+00 2.592603683471679688e+00 1.039095222949981689e-01
1.012000000000000000e+03 7.929019165039062500e+01 2.786790084838867188e+01 -2.949930028989911079e-03 8.755378723144531250e+00 2.625728607177734375e+00 3.883081674575805664e-02
1.013000000000000000e+03 7.793710327148437500e+01 2.508143615722656250e+01 -5.416739266365766525e-03 8.520895957946777344e+00 2.554643869400024414e+00 1.168172955513000488e-01
1.014000000000000000e+03 7.796700286865234375e+01 2.370348739624023438e+01 -7.833020761609077454e-03 8.450086593627929688e+00 2.532676219940185547e+00 1.224357783794403076e-01
1.015000000000000000e+03 7.795404815673828125e+01 1.817872810363769531e+01 -3.633389482274651527e-03 8.116822242736816406e+00 2.433956861495971680e+00 1.472810953855514526e-01
1.016000000000000000e+03 7.797684478759765625e+01 1.539038848876953125e+01 -1.660554902628064156e-03 7.933576107025146484e+00 2.379574537277221680e+00 1.517058461904525757e-01
1.017000000000000000e+03 7.795735168457031250e+01 1.678800010681152344e+01 -1.850521191954612732e-03 8.026030540466308594e+00 2.407254219055175781e+00 1.510826796293258667e-01
1.018000000000000000e+03 7.802513122558593750e+01 1.258967494964599609e+01 8.059453684836626053e-04 7.742900371551513672e+00 2.323111772537231445e+00 1.507939845323562622e-01
1.019000000000000000e+03 7.671501922607421875e+01 1.119046878814697266e+01 4.712405614554882050e-03 7.664137840270996094e+00 2.300655126571655273e+00 2.325814366340637207e-01
1.020000000000000000e+03 7.806256866455078125e+01 8.409128189086914062e+00 4.307121969759464264e-03 7.463366031646728516e+00 2.240301847457885742e+00 1.394990235567092896e-01
1.021000000000000000e+03 7.935420227050781250e+01 9.773826599121093750e+00 8.230682578869163990e-04 7.522159576416015625e+00 2.256894826889038086e+00 5.305867269635200500e-02
1.022000000000000000e+03 7.935103607177734375e+01 -1.392117214202880859e+01 1.882683369331061840e-03 6.845694065093994141e+00 2.054272890090942383e+00 -2.024317905306816101e-02
1.023000000000000000e+03 7.936448669433593750e+01 -6.953958988189697266e+00 2.602794440463185310e-03 6.744915485382080078e+00 2.024255514144897461e+00 4.893139936029911041e-03
1.024000000000000000e+03 7.934906768798828125e+01 -1.948645210266113281e+01 7.186409202404320240e-04 7.078983783721923828e+00 2.123910665512084961e+00 -3.271921351552009583e-02
1.025000000000000000e+03 7.807968902587890625e+01 3.560377657413482666e-02 1.025051809847354889e-02 7.016112327575683594e+00 2.107908964157104492e+00 8.366890996694564819e-02
1.026000000000000000e+03 7.935837554931640625e+01 1.408489108085632324e+00 2.141921315342187881e-03 6.982936382293701172e+00 2.095523595809936523e+00 3.558759018778800964e-02
1.027000000000000000e+03 7.676202392578125000e+01 7.017387866973876953e+00 1.333929318934679031e-02 7.421479225158691406e+00 2.230445623397827148e+00 2.091394513845443726e-01
1.028000000000000000e+03 7.783512878417968750e+01 2.926588249206542969e+01 -6.802912335842847824e-03 8.702715873718261719e+00 2.608773946762084961e+00 9.932152926921844482e-02
1.029000000000000000e+03 7.701334381103515625e+01 3.670863342285156250e+01 -4.335473850369453430e-02 8.843512535095214844e+00 2.640047311782836914e+00 5.382406339049339294e-02
1.030000000000000000e+03 7.638539123535156250e+01 3.543235397338867188e+01 -4.090444371104240417e-02 8.774795532226562500e+00 2.620167255401611328e+00 8.167843520641326904e-02
1.031000000000000000e+03 7.805725860595703125e+01 9.802734375000000000e+00 3.086810000240802765e-03 7.554553031921386719e+00 2.267292022705078125e+00 1.442270129919052124e-01
1.032000000000000000e+03 7.679333496093750000e+01 2.987611293792724609e-02 2.503832429647445679e-02 7.099669456481933594e+00 2.137412309646606445e+00 1.306959390640258789e-01
1.033000000000000000e+03 7.806834411621093750e+01 2.823004722595214844e+00 8.576292544603347778e-03 7.140344619750976562e+00 2.144676208496093750e+00 1.075311228632926941e-01
1.034000000000000000e+03 7.808553314208984375e+01 -1.360279083251953125e+00 1.061719190329313278e-02 6.965839385986328125e+00 2.092936992645263672e+00 7.025011628866195679e-02
1.035000000000000000e+03 7.936430358886718750e+01 -2.773033380508422852e+00 2.296710154041647911e-03 6.816240787506103516e+00 2.045561313629150391e+00 2.111874520778656006e-02
1.036000000000000000e+03 7.808567810058593750e+01 -8.327149391174316406e+00 1.186213456094264984e-02 6.857592582702636719e+00 2.060836315155029297e+00 -3.558065509423613548e-03
1.037000000000000000e+03 7.809615325927734375e+01 -5.541815757751464844e+00 1.193188689649105072e-02 6.870826721191406250e+00 2.064827680587768555e+00 2.648592181503772736e-02
1.038000000000000000e+03 7.935865783691406250e+01 -9.742285728454589844e+00 2.449389779940247536e-03 6.753972053527832031e+00 2.026926517486572266e+00 -5.928337108343839645e-03
1.039000000000000000e+03 7.805311584472656250e+01 -1.251197433471679688e+01 1.013769768178462982e-02 6.910014629364013672e+00 2.076045751571655273e+00 -4.622991755604743958e-02
1.040000000000000000e+03 7.934776306152343750e+01 -1.670292472839355469e+01 1.322752446867525578e-03 6.950002193450927734e+00 2.085397481918334961e+00 -2.769965305924415588e-02
1.041000000000000000e+03 7.803870391845703125e+01 -1.944792175292968750e+01 4.412719514220952988e-03 7.142951965332031250e+00 2.144209384918212891e+00 -9.307790547609329224e-02
1.042000000000000000e+03 7.441157817840576172e+00 1.991478538513183594e+01 -1.170810535550117493e-01 7.024717330932617188e-02 -1.405016425997018814e-02 7.018259912729263306e-02
1.043000000000000000e+03 8.834640502929687500e+00 1.871339797973632812e+01 -3.410381972789764404e-01 -5.397744476795196533e-02 -1.185046955943107605e-01 -7.015566527843475342e-02
1.044000000000000000e+03 1.347009778022766113e+00 -4.005537414550781250e+01 3.227927908301353455e-02 -9.091970324516296387e-01 -2.630753219127655029e-01 5.331699922680854797e-02
1.045000000000000000e+03 7.567390799522399902e-01 3.741453552246093750e+01 2.236276678740978241e-02 -2.970832586288452148e-01 -8.241614699363708496e-02 -2.633449994027614594e-02
1.046000000000000000e+03 7.520108819007873535e-01 3.467999649047851562e+01 3.404832445085048676e-03 -3.520961999893188477e-01 -1.046074107289314270e-01 -1.329602487385272980e-02
1.047000000000000000e+03 7.632094621658325195e-01 3.329067993164062500e+01 1.104049105197191238e-02 -3.645454645156860352e-01 -1.060514971613883972e-01 -4.856052692048251629e-05
1.048000000000000000e+03 6.974973082542419434e-01 2.764686203002929688e+01 5.190934985876083374e-03 -3.313968479633331299e-01 -9.786177426576614380e-02 1.062331162393093109e-02
1.049000000000000000e+03 6.864287257194519043e-01 2.623064422607421875e+01 2.057699719443917274e-03 -3.016663491725921631e-01 -8.988258987665176392e-02 1.808497868478298187e-02
1.050000000000000000e+03 5.938441157341003418e-01 -3.600829315185546875e+01 8.039103820919990540e-03 -1.040762305259704590e+00 -3.098169565200805664e-01 4.020769149065017700e-03
1.051000000000000000e+03 2.414617776870727539e+00 -3.329226303100585938e+01 2.899548038840293884e-02 -7.117564678192138672e-01 -2.048283070325851440e-01 -6.672061979770660400e-02
1.052000000000000000e+03 3.436628818511962891e+00 2.617664337158203125e+01 2.235854603350162506e-02 -2.865451015532016754e-02 -1.888789120130240917e-03 4.755834117531776428e-02
1.053000000000000000e+03 3.345122575759887695e+00 2.474731445312500000e+01 2.867193892598152161e-02 -3.680749982595443726e-02 -2.440668642520904541e-03 6.565623730421066284e-02
1.054000000000000000e+03 2.319068908691406250e+00 3.463351440429687500e+01 1.279327925294637680e-02 -1.432097405195236206e-01 -3.912493586540222168e-02 -5.410503596067428589e-03
1.055000000000000000e+03 2.343345880508422852e+00 3.326781845092773438e+01 3.324429038912057877e-03 -1.344211995601654053e-01 -3.932903334498405457e-02 -1.668066158890724182e-02
1.056000000000000000e+03 2.455060243606567383e+00 3.818843841552734375e+01 2.468355745077133179e-02 -9.903711080551147461e-02 -2.230606600642204285e-02 -5.554971471428871155e-02
1.057000000000000000e+03 3.345472812652587891e+00 3.918767547607421875e+01 8.404033724218606949e-04 -9.325142204761505127e-02 -2.772330678999423981e-02 -1.894183270633220673e-02
1.058000000000000000e+03 2.236342668533325195e+00 -3.039557838439941406e+01 2.823757007718086243e-02 -6.465743780136108398e-01 -1.855010390281677246e-01 -1.157824471592903137e-01
1.059000000000000000e+03 2.079011917114257812e+00 -2.753453826904296875e+01 1.663017645478248596e-02 -5.254833698272705078e-01 -1.526559591293334961e-01 -1.497840136289596558e-01
1.060000000000000000e+03 2.333331346511840820e+00 -3.659883880615234375e+01 2.731221914291381836e-02 -7.981451749801635742e-01 -2.312498986721038818e-01 -1.193157304078340530e-02
1.061000000000000000e+03 5.348486900329589844e+00 -1.757647323608398438e+01 -1.727479249238967896e-01 -1.685203053057193756e-02 -5.687998980283737183e-02 -9.882060810923576355e-03
1.062000000000000000e+03 6.663228273391723633e-01 2.045732307434082031e+01 -4.373562987893819809e-03 -9.428303688764572144e-02 -2.959698066115379333e-02 2.468842454254627228e-02
1.063000000000000000e+03 6.262506246566772461e-01 1.903012084960937500e+01 -2.986920531839132309e-03 -4.720309376716613770e-02 -1.505700405687093735e-02 1.615778356790542603e-02
1.064000000000000000e+03 6.136980056762695312e-01 1.480698299407958984e+01 -6.068905349820852280e-04 6.687267683446407318e-03 1.824113191105425358e-03 1.176475663669407368e-03
1.065000000000000000e+03 6.023353338241577148e-01 1.341206359863281250e+01 -1.026836689561605453e-03 7.619941141456365585e-03 1.977931475266814232e-03 -6.714427145197987556e-04
1.066000000000000000e+03 5.060374736785888672e-01 7.821357727050781250e+00 -6.467679049819707870e-04 1.264801481738686562e-03 1.854100846685469151e-04 -1.231145142810419202e-04
1.067000000000000000e+03 5.952384471893310547e-01 -1.907707786560058594e+01 -3.339968854561448097e-03 5.384043324738740921e-03 6.132222479209303856e-04 -1.827281527221202850e-02
1.068000000000000000e+03 1.652795076370239258e+00 -9.221385002136230469e+00 6.556133157573640347e-04 5.146389594301581383e-04 3.510756650939583778e-04 1.538777840323746204e-03
1.069000000000000000e+03 4.994045734405517578e+00 -4.030192565917968750e+01 5.433716811239719391e-03 -4.135394096374511719e-01 -1.224317103624343872e-01 -6.025478988885879517e-02
1.070000000000000000e+03 3.474845409393310547e+00 -3.911231613159179688e+01 2.279631048440933228e-02 -7.485552430152893066e-01 -2.177276760339736938e-01 -2.284500747919082642e-02
1.071000000000000000e+03 4.751908302307128906e+00 -3.620283889770507812e+01 5.520557612180709839e-02 -4.062672555446624756e-01 -1.053185090422630310e-01 -8.225410431623458862e-02
1.072000000000000000e+03 1.638155579566955566e+00 -3.539276123046875000e+01 2.573368325829505920e-02 -8.564394712448120117e-01 -2.492117285728454590e-01 -4.315917380154132843e-03
1.073000000000000000e+03 2.330177307128906250e+00 -3.183670043945312500e+01 1.552970893681049347e-02 -6.905270814895629883e-01 -2.024992108345031738e-01 -9.576003253459930420e-02
1.074000000000000000e+03 3.462999105453491211e+00 -2.746032333374023438e+01 2.957735396921634674e-02 -4.111804068088531494e-01 -1.144809201359748840e-01 -2.127227932214736938e-01
1.075000000000000000e+03 1.996048092842102051e+00 -2.466551971435546875e+01 4.288788477424532175e-04 -3.575010597705841064e-01 -1.071216538548469543e-01 -1.614295542240142822e-01
1.076000000000000000e+03 2.041250944137573242e+00 -2.611175155639648438e+01 5.656274966895580292e-03 -4.446987509727478027e-01 -1.317127496004104614e-01 -1.626821607351303101e-01
1.077000000000000000e+03 5.842506289482116699e-01 -2.050232887268066406e+01 -1.032370794564485550e-02 -6.302782893180847168e-02 -2.200546115636825562e-02 -3.592108935117721558e-02
1.078000000000000000e+03 2.917843341827392578e+00 -2.152254486083984375e+01 -4.227198287844657898e-02 -1.565732359886169434e-01 -5.965356528759002686e-02 -1.892714500427246094e-01
1.079000000000000000e+03 1.658414602279663086e+00 -1.601902770996093750e+01 -2.607829868793487549e-03 2.756005153059959412e-03 4.445255763130262494e-05 6.741803139448165894e-03
1.080000000000000000e+03 1.739053606986999512e+00 -1.195485401153564453e+01 2.474605571478605270e-03 2.054118318483233452e-03 1.358617213554680347e-03 5.161417648196220398e-03
1.081000000000000000e+03 5.673359632492065430e-01 -1.205313014984130859e+01 -3.837410476990044117e-04 7.105174474418163300e-03 2.016430022194981575e-03 1.880546449683606625e-03
1.082000000000000000e+03 8.616034507751464844e+00 -9.841151237487792969e+00 -9.932053508237004280e-04 -1.463155727833509445e-03 -7.369083468802273273e-04 1.250019879080355167e-03
1.083000000000000000e+03 5.361528873443603516e+00 -3.495760917663574219e+00 1.627316232770681381e-04 -1.844605721998959780e-04 -6.518682766909478232e-06 3.328134771436452866e-04
1.084000000000000000e+03 3.696015596389770508e+00 -2.923704624176025391e+00 2.192708052461966872e-05 7.091242150636389852e-05 2.785185097309295088e-05 -1.614336651982739568e-04
1.085000000000000000e+03 2.906924009323120117e+00 -3.102582931518554688e+00 -5.812515155412256718e-05 4.716953117167577147e-05 -3.286686478531919420e-06 3.383129296707920730e-05
1.086000000000000000e+03 2.105749607086181641e+00 -3.186527729034423828e+00 3.009179199580103159e-04 -6.909524381626397371e-05 6.954680429771542549e-05 -2.248216042062267661e-04
1.087000000000000000e+03 1.344204306602478027e+00 -3.368804454803466797e+00 -5.068067366664763540e-06 2.070391492452472448e-04 6.059132283553481102e-05 1.749018701957538724e-04
1.088000000000000000e+03 4.487748742103576660e-01 5.057341098785400391e+00 -4.844681243412196636e-04 3.285175480414181948e-04 -4.678517507272772491e-05 -7.029677362879738212e-05
1.089000000000000000e+03 3.184228181838989258e+00 3.651328086853027344e+00 9.640995267545804381e-05 3.785477019846439362e-05 4.027941758977249265e-05 -4.081458973814733326e-05
1.090000000000000000e+03 1.632430911064147949e+00 1.043766689300537109e+01 8.091867202892899513e-04 1.439434592612087727e-03 6.745863938704133034e-04 -1.614877372048795223e-03
1.091000000000000000e+03 5.418011546134948730e-01 1.061272430419921875e+01 -7.825018838047981262e-04 3.688349155709147453e-03 8.717541350051760674e-04 -5.072370986454188824e-04
1.092000000000000000e+03 1.850457310676574707e+00 1.317515945434570312e+01 -6.070254603400826454e-04 5.392198800109326839e-04 -2.034166755038313568e-05 -9.614786831662058830e-04
1.093000000000000000e+03 1.877788305282592773e+00 1.455244922637939453e+01 -4.307619761675596237e-03 5.167296621948480606e-04 -1.137266983278095722e-03 1.332947053015232086e-03
1.094000000000000000e+03 1.841310024261474609e+00 1.595187568664550781e+01 -7.682753261178731918e-03 -3.446205053478479385e-03 -3.338687354698777199e-03 1.056845579296350479e-02
1.095000000000000000e+03 2.024703264236450195e+00 2.477184677124023438e+01 8.827388286590576172e-03 -1.410736292600631714e-01 -3.967387229204177856e-02 5.516257509589195251e-02
1.096000000000000000e+03 9.350859642028808594e+00 1.103992366790771484e+01 1.040232018567621708e-03 -3.207793459296226501e-03 -6.502683972939848900e-04 1.312238629907369614e-03
1.097000000000000000e+03 1.246470928192138672e+01 8.463244438171386719e+00 -6.830619531683623791e-04 -7.717080297879874706e-04 -4.364310007076710463e-04 -1.012165914289653301e-03
1.098000000000000000e+03 1.468338966369628906e+01 4.926183223724365234e+00 -1.721352455206215382e-04 9.374188812216743827e-05 -2.351800685573834926e-05 -1.187766538350842893e-04
1.099000000000000000e+03 1.181978893280029297e+01 2.582293510437011719e+00 -6.499690061900764704e-05 5.309404878062196076e-05 -3.570854914869414642e-06 -1.050317805493250489e-04
1.100000000000000000e+03 1.038528823852539062e+01 1.339934158325195312e+01 4.434310831129550934e-03 7.483664434403181076e-03 3.575392533093690872e-03 2.971071982756257057e-03
1.101000000000000000e+03 8.491701126098632812e+00 1.036974716186523438e+01 -1.671980950050055981e-03 2.490188926458358765e-03 2.454623754601925611e-04 -1.016697380691766739e-03
1.102000000000000000e+03 8.428064346313476562e+00 1.381720066070556641e+01 -5.425422918051481247e-03 1.379200909286737442e-02 2.509975805878639221e-03 1.723517663776874542e-03
1.103000000000000000e+03 1.177350425720214844e+01 3.371934652328491211e+00 2.571166842244565487e-04 1.973486905626486987e-05 8.305546361953020096e-05 5.235709832049906254e-04
1.104000000000000000e+03 7.722732067108154297e+00 -1.109947872161865234e+01 3.526835353113710880e-04 5.571160465478897095e-03 1.777153112925589085e-03 -2.856555161997675896e-03
1.105000000000000000e+03 3.358379745483398438e+01 -5.110335826873779297e+00 4.760625839233398438e+00 1.762373161315917969e+01 6.715307235717773438e+00 1.405248284339904785e+00
1.106000000000000000e+03 2.950024795532226562e+01 -3.792768239974975586e+00 2.930600643157958984e+00 3.421250581741333008e+00 1.905555367469787598e+00 -3.426881551742553711e+00
1.107000000000000000e+03 3.160488891601562500e+01 -5.122281551361083984e+00 3.964526653289794922e+00 1.232665634155273438e+01 4.887354850769042969e+00 -6.841671466827392578e+00
1.108000000000000000e+03 3.150783729553222656e+01 -4.859678745269775391e+00 3.520933151245117188e+00 1.120287799835205078e+01 4.417143344879150391e+00 -6.336520671844482422e+00
1.109000000000000000e+03 2.992109298706054688e+01 -4.958798408508300781e+00 3.531239986419677734e+00 2.380036830902099609e+00 1.773383021354675293e+00 -3.149252653121948242e+00
1.110000000000000000e+03 3.140636634826660156e+01 -8.498793601989746094e+00 3.524671077728271484e+00 9.904318809509277344e+00 4.028697013854980469e+00 6.536479473114013672e+00
1.111000000000000000e+03 2.999959754943847656e+01 -8.467756271362304688e+00 3.063106060028076172e+00 2.009897947311401367e+00 1.521901130676269531e+00 3.029654741287231445e+00
1.112000000000000000e+03 3.120231437683105469e+01 -8.427566528320312500e+00 3.896404266357421875e+00 7.987820625305175781e+00 3.565267324447631836e+00 6.256273746490478516e+00
1.113000000000000000e+03 3.066162490844726562e+01 -8.771289825439453125e+00 3.550059556961059570e+00 5.232713699340820312e+00 2.634831905364990234e+00 4.986476421356201172e+00
1.114000000000000000e+03 3.087341499328613281e+01 -8.677269935607910156e+00 3.715291738510131836e+00 6.267138004302978516e+00 2.994728803634643555e+00 5.421220302581787109e+00
1.115000000000000000e+03 3.451121902465820312e+01 -7.055600643157958984e+00 9.576211929321289062e+00 1.393166828155517578e+01 7.052363872528076172e+00 -8.580466508865356445e-01
1.116000000000000000e+03 3.387563705444335938e+01 -7.580128192901611328e+00 9.130436897277832031e+00 1.657780647277832031e+01 7.712472915649414062e+00 -2.435997247695922852e+00
1.117000000000000000e+03 3.366470718383789062e+01 -5.990700721740722656e+00 9.580437660217285156e+00 1.750863265991210938e+01 8.126721382141113281e+00 2.381753444671630859e+00
1.118000000000000000e+03 3.442507934570312500e+01 -6.189295291900634766e+00 9.292613029479980469e+00 1.434242916107177734e+01 7.090512752532958984e+00 1.286398172378540039e+00
1.119000000000000000e+03 3.308975982666015625e+01 -8.135408401489257812e+00 4.571866989135742188e+00 2.050665855407714844e+01 7.523557662963867188e+00 -1.142883896827697754e+00
1.120000000000000000e+03 3.347225189208984375e+01 -8.533721923828125000e+00 3.844155073165893555e+00 1.777382469177246094e+01 6.485393524169921875e+00 -1.154556512832641602e+00
1.121000000000000000e+03 3.450312042236328125e+01 -6.417680740356445312e+00 9.459560394287109375e+00 1.388799285888671875e+01 7.004265785217285156e+00 7.278755903244018555e-01
1.122000000000000000e+03 3.292350387573242188e+01 -8.760772705078125000e+00 2.169198989868164062e+00 1.814281463623046875e+01 6.093604087829589844e+00 1.098616123199462891e+00
1.123000000000000000e+03 3.242982864379882812e+01 -5.159590244293212891e+00 2.684408187866210938e+00 1.927385330200195312e+01 6.587478637695312500e+00 -3.525773286819458008e+00
1.124000000000000000e+03 2.956472015380859375e+01 -9.055161476135253906e+00 2.646186828613281250e+00 2.375037431716918945e+00 1.506367206573486328e+00 2.997424840927124023e+00
1.125000000000000000e+03 2.791399383544921875e+01 -4.450866699218750000e+00 1.752517223358154297e+00 8.342314958572387695e-01 7.760246396064758301e-01 -1.249321579933166504e+00
1.126000000000000000e+03 2.555533409118652344e+01 -9.041981697082519531e+00 1.605087891221046448e-02 2.056998014450073242e-01 6.652520596981048584e-02 1.593317985534667969e-01
1.127000000000000000e+03 2.681863212585449219e+01 -9.601119041442871094e+00 9.452521800994873047e-01 5.954822301864624023e-01 4.622203409671783447e-01 8.398692607879638672e-01
1.128000000000000000e+03 2.482224082946777344e+01 -9.031995773315429688e+00 -1.710641980171203613e-01 1.717658191919326782e-01 2.104830928146839142e-04 -1.537288539111614227e-03
1.129000000000000000e+03 2.619907569885253906e+01 -9.603224754333496094e+00 6.470527648925781250e-01 4.563761353492736816e-01 3.310286700725555420e-01 5.575597882270812988e-01
1.130000000000000000e+03 2.125697326660156250e+01 -1.799603700637817383e+00 2.623185515403747559e-01 7.153250277042388916e-02 1.001553162932395935e-01 3.519278764724731445e-02
1.131000000000000000e+03 2.075126838684082031e+01 -2.464266061782836914e+00 1.617349237203598022e-01 -8.069656789302825928e-02 2.431150712072849274e-02 1.719263046979904175e-01
1.132000000000000000e+03 2.401536560058593750e+01 -3.478606700897216797e+00 5.202160477638244629e-01 2.557258307933807373e-01 2.327825576066970825e-01 -8.462657034397125244e-02
1.133000000000000000e+03 2.588035583496093750e+01 -4.373078823089599609e+00 6.554657816886901855e-01 2.885266244411468506e-01 2.831977307796478271e-01 -2.968922555446624756e-01
1.134000000000000000e+03 1.775788879394531250e+01 -8.448801040649414062e+00 -3.227068781852722168e-01 -3.708965480327606201e-01 -2.080810219049453735e-01 -3.596822321414947510e-01
1.135000000000000000e+03 3.896796464920043945e+00 2.699322462081909180e+00 9.345981379738077521e-05 6.700702215312048793e-05 4.814004932995885611e-05 -1.334216540271881968e-05
1.136000000000000000e+03 4.603282928466796875e+00 2.643774747848510742e+00 3.055230190511792898e-04 -2.026010770350694656e-04 3.087658478762023151e-05 -2.520705747883766890e-04
1.137000000000000000e+03 6.009579181671142578e+00 2.582005739212036133e+00 4.046177782583981752e-04 -3.746904840227216482e-04 8.978186997410375625e-06 -1.987449941225349903e-04
1.138000000000000000e+03 5.280270099639892578e+00 3.323191881179809570e+00 4.328195063862949610e-04 -3.673770697787404060e-04 1.963273098226636648e-05 -2.332577423658221960e-04
1.139000000000000000e+03 5.954169273376464844e+00 3.304620027542114258e+00 3.163931251037865877e-05 2.053203788818791509e-04 7.108790305210277438e-05 9.887585474643856287e-05
1.140000000000000000e+03 1.027906227111816406e+01 2.620677232742309570e+00 8.477392111672088504e-05 -1.783766783773899078e-04 -2.808082899719011039e-05 -2.493931679055094719e-04
1.141000000000000000e+03 7.302581787109375000e+00 3.337460994720458984e+00 -4.243470903020352125e-05 3.982780035585165024e-04 1.067529883584938943e-04 3.093583509325981140e-04
1.142000000000000000e+03 6.625779151916503906e+00 3.316315174102783203e+00 5.261995247565209866e-04 -5.820500664412975311e-04 -1.675515886745415628e-05 -1.666064490564167500e-04
1.143000000000000000e+03 4.605753898620605469e+00 3.405587434768676758e+00 1.322761090705171227e-04 5.578710261033847928e-05 5.641896132146939635e-05 5.481603693624492735e-06
1.144000000000000000e+03 1.871946215629577637e+00 2.676802396774291992e+00 2.709703112486749887e-04 2.919704274972900748e-05 9.005020547192543745e-05 -7.343156175920739770e-05
1.145000000000000000e+03 1.017376422882080078e+01 3.402765274047851562e+00 6.534267595270648599e-05 3.465810732450336218e-04 1.235771196661517024e-04 6.579761393368244171e-04
1.146000000000000000e+03 2.526638031005859375e+01 -3.738548040390014648e+00 7.995370030403137207e-01 4.025402963161468506e-01 3.606231808662414551e-01 -3.549167513847351074e-01
1.147000000000000000e+03 2.590818023681640625e+01 -3.232615709304809570e+00 1.220142245292663574e+00 7.158480882644653320e-01 5.807970762252807617e-01 -7.602128386497497559e-01
1.148000000000000000e+03 2.270824241638183594e+01 -3.239956140518188477e+00 3.428423106670379639e-01 1.491742432117462158e-01 1.476049572229385376e-01 8.364845812320709229e-02
1.149000000000000000e+03 2.207253646850585938e+01 -3.054587364196777344e+00 2.649350166320800781e-01 8.017887175083160400e-02 1.035341694951057434e-01 1.407425999641418457e-01
1.150000000000000000e+03 2.113815879821777344e+01 -3.495700597763061523e+00 7.990544289350509644e-02 -5.547951161861419678e-02 7.327780593186616898e-03 2.579980790615081787e-01
1.151000000000000000e+03 9.566382408142089844e+00 -2.501228094100952148e+00 5.695922300219535828e-05 2.545274037402123213e-04 9.344598947791382670e-05 -5.217694560997188091e-04
1.152000000000000000e+03 2.143213081359863281e+01 -2.800741195678710938e+00 2.266096323728561401e-01 2.042059786617755890e-02 7.410907000303268433e-02 1.594225913286209106e-01
1.153000000000000000e+03 2.654490852355957031e+01 -3.850066184997558594e+00 1.262332916259765625e+00 6.367778778076171875e-01 5.697332620620727539e-01 -7.836234569549560547e-01
1.154000000000000000e+03 1.158340644836425781e+01 -3.564452171325683594e+00 5.513039650395512581e-04 1.086135598598048091e-04 1.979752560146152973e-04 -6.869740318506956100e-04
1.155000000000000000e+03 1.097057437896728516e+01 -2.639105081558227539e+00 3.479947044979780912e-04 8.700013131601735950e-05 1.304984471062198281e-04 -6.463648751378059387e-04
1.156000000000000000e+03 1.125957775115966797e+01 -4.397360324859619141e+00 -4.539654182735830545e-04 -6.023864843882620335e-04 -3.169055562466382980e-04 7.569833542220294476e-04
1.157000000000000000e+03 1.258131313323974609e+01 -2.802371263504028320e+00 3.811057831626385450e-04 -4.274134116712957621e-04 -1.389228236803319305e-05 -1.114576389227295294e-05
1.158000000000000000e+03 1.357724285125732422e+01 5.012822628021240234e+00 2.716428134590387344e-04 1.619739050511270761e-04 1.300850126426666975e-04 5.046240403316915035e-04
1.159000000000000000e+03 9.411976814270019531e+00 3.398475885391235352e+00 2.666260115802288055e-04 -4.865881637670099735e-04 -6.598865002160891891e-05 -3.301661345176398754e-04
1.160000000000000000e+03 1.262872409820556641e+01 4.120557308197021484e+00 3.714805352501571178e-04 -4.989587250747717917e-05 9.647539991419762373e-05 6.493480177596211433e-04
1.161000000000000000e+03 1.259280586242675781e+01 3.309992074966430664e+00 -2.191449166275560856e-04 3.607699763961136341e-04 4.248751793056726456e-05 -1.378394517814740539e-04
1.162000000000000000e+03 9.284232139587402344e+00 4.207715034484863281e+00 -1.242926082341000438e-04 6.402424187399446964e-04 1.547849387861788273e-04 7.401425391435623169e-04
1.163000000000000000e+03 1.939199829101562500e+01 -8.561796188354492188e+00 -4.611270427703857422e-01 7.918942719697952271e-03 -1.359624266624450684e-01 -4.320354461669921875e-01
1.164000000000000000e+03 6.745137214660644531e+00 -3.328773498535156250e+00 -2.215146741946227849e-05 -2.890216128434985876e-04 -9.335191862192004919e-05 6.030102958902716637e-04
1.165000000000000000e+03 2.546573162078857422e+00 -6.631996154785156250e+00 4.642443382181227207e-04 1.277759292861446738e-04 1.776060817064717412e-04 -1.087864147848449647e-04
1.166000000000000000e+03 7.470474243164062500e+00 -4.146433353424072266e+00 7.704449672019109130e-06 -6.601479253731667995e-04 -1.957330387085676193e-04 6.886979681439697742e-04
1.167000000000000000e+03 8.863645553588867188e+00 -2.545831680297851562e+00 -1.290330255869776011e-04 -1.618292153580114245e-04 -8.725866791792213917e-05 4.713198577519506216e-04
1.168000000000000000e+03 5.621742248535156250e+00 -4.273464202880859375e+00 -3.426684997975826263e-05 1.606876612640917301e-04 3.792624193010851741e-05 -4.081091319676488638e-04
1.169000000000000000e+03 5.912759304046630859e+00 -2.637967109680175781e+00 3.562787696864688769e-06 -1.901131763588637114e-04 -5.596511618932709098e-05 3.615124733187258244e-04
1.170000000000000000e+03 6.045357704162597656e+00 -3.370404005050659180e+00 -1.985148173844208941e-06 2.860754029825329781e-04 8.522707503288984299e-05 -4.967417335137724876e-04
1.171000000000000000e+03 3.428199052810668945e+00 -4.733739376068115234e+00 2.220329770352691412e-04 -2.395812625763937831e-04 -5.264487754175206646e-06 1.248554326593875885e-04
1.172000000000000000e+03 1.582054615020751953e+00 -5.241989135742187500e+00 2.525132731534540653e-04 2.182750613428652287e-04 1.412365090800449252e-04 -2.477083180565387011e-04
1.173000000000000000e+03 2.089789962768554688e+01 -8.864339828491210938e+00 -4.838388860225677490e-01 1.412550806999206543e-01 -1.027751341462135315e-01 -4.227341413497924805e-01
1.174000000000000000e+03 2.329616928100585938e+01 -9.699794769287109375e+00 -5.782919749617576599e-02 2.562734484672546387e-01 5.953327193856239319e-02 -1.450810283422470093e-01
1.175000000000000000e+03 2.082513236999511719e+01 -9.701403617858886719e+00 -3.354052305221557617e-01 1.861387938261032104e-01 -4.477993398904800415e-02 -3.970455825328826904e-01
1.176000000000000000e+03 2.407468032836914062e+01 -9.666404724121093750e+00 6.126175820827484131e-02 2.712043821811676025e-01 9.973984211683273315e-02 -1.807766035199165344e-02
1.177000000000000000e+03 2.080292892456054688e+01 -1.057174873352050781e+01 -1.562927216291427612e-01 2.435119897127151489e-01 2.616578340530395508e-02 -3.061142563819885254e-01
1.178000000000000000e+03 2.482056427001953125e+01 -9.634788513183593750e+00 2.198695540428161621e-01 3.033490180969238281e-01 1.569655686616897583e-01 1.400341540575027466e-01
1.179000000000000000e+03 1.996815872192382812e+01 -2.282778263092041016e+00 8.405363559722900391e-02 -2.680349051952362061e-01 -5.519437789916992188e-02 1.472424566745758057e-01
1.180000000000000000e+03 2.166270828247070312e+01 -9.731931686401367188e+00 -2.482894510030746460e-01 2.264634072780609131e-01 -6.547813303768634796e-03 -3.321404755115509033e-01
1.181000000000000000e+03 2.248954772949218750e+01 -9.725350379943847656e+00 -1.657137125730514526e-01 2.458271682262420654e-01 2.403403818607330322e-02 -2.524262964725494385e-01
1.182000000000000000e+03 2.127346420288085938e+01 2.229768991470336914e+00 2.845221161842346191e-01 8.378090262413024902e-01 3.366993367671966553e-01 -6.729063391685485840e-01
1.183000000000000000e+03 2.100527572631835938e+01 5.765323162078857422e+00 2.791788280010223389e-01 1.525688171386718750e+00 5.414600968360900879e-01 -9.924865365028381348e-01
1.184000000000000000e+03 1.802500915527343750e+01 -1.000990486145019531e+01 -3.822486102581024170e-01 -2.608820497989654541e-01 -1.929392069578170776e-01 -4.634208083152770996e-01
1.185000000000000000e+03 1.086629867553710938e+01 9.077655792236328125e+00 2.048464521067216992e-04 -2.159864176064729691e-03 -5.865052808076143265e-04 -5.619215080514550209e-04
1.186000000000000000e+03 1.111348533630371094e+01 1.064916229248046875e+01 -6.392644136212766171e-04 -2.238568849861621857e-03 -8.633499965071678162e-04 -1.674936851486563683e-03
1.187000000000000000e+03 1.335797882080078125e+01 6.172263145446777344e+00 -4.719711432699114084e-04 -1.056632754625752568e-04 -1.732903183437883854e-04 -5.500534316524863243e-04
1.188000000000000000e+03 6.147254943847656250e+00 -1.449743843078613281e+01 3.365738317370414734e-03 -5.369154736399650574e-03 -6.010248907841742039e-04 -1.650463230907917023e-02
1.189000000000000000e+03 6.811664581298828125e+00 -1.345135879516601562e+01 -5.657200817950069904e-04 1.838064752519130707e-02 5.344478413462638855e-03 -1.021611969918012619e-02
1.190000000000000000e+03 1.865918731689453125e+01 1.084017181396484375e+01 4.456156194210052490e-01 2.020115137100219727e+00 7.397192120552062988e-01 -8.369417190551757812e-01
1.191000000000000000e+03 2.068376731872558594e+01 7.111725807189941406e+00 3.303731083869934082e-01 1.722507834434509277e+00 6.158642768859863281e-01 -1.018072128295898438e+00
1.192000000000000000e+03 1.079537677764892578e+01 -3.360841274261474609e+00 -2.586815389804542065e-04 -5.204714834690093994e-04 -2.337459009140729904e-04 8.970150956884026527e-04
1.193000000000000000e+03 8.500101089477539062e+00 -2.029357719421386719e+01 -3.799441158771514893e-01 -2.756246328353881836e-01 -1.966706216335296631e-01 -4.867213964462280273e-01
1.194000000000000000e+03 7.842328548431396484e+00 -1.880451583862304688e+01 -5.387858152389526367e-01 -7.245071977376937866e-02 -1.833709627389907837e-01 -2.338661849498748779e-01
1.195000000000000000e+03 1.006266021728515625e+01 4.200319290161132812e+00 2.265864604851230979e-04 -5.475692451000213623e-04 -9.629483247408643365e-05 -4.627114976756274700e-04
1.196000000000000000e+03 1.012909793853759766e+01 -6.178152084350585938e+00 -2.592696400824934244e-04 -1.270098728127777576e-03 -4.588105366565287113e-04 7.518959464505314827e-04
1.197000000000000000e+03 1.545214271545410156e+01 -1.871326255798339844e+01 -7.859452068805694580e-02 9.925732016563415527e-02 6.198840215802192688e-03 1.029853224754333496e-01
1.198000000000000000e+03 1.617078971862792969e+01 -1.576626300811767578e+01 -2.553204894065856934e-01 -1.684214025735855103e-01 -1.271225661039352417e-01 -1.510424911975860596e-01
1.199000000000000000e+03 9.537507057189941406e+00 -1.990161323547363281e+01 -2.986901402473449707e-01 -5.049972534179687500e-01 -2.411062121391296387e-01 -4.739786684513092041e-01
1.200000000000000000e+03 1.988611602783203125e+01 -2.613576054573059082e-01 1.093025803565979004e-01 -2.016214281320571899e-01 -2.769565582275390625e-02 -5.798355862498283386e-02
1.201000000000000000e+03 1.988473701477050781e+01 -1.055604171752929688e+01 -2.793281972408294678e-01 1.377301812171936035e-01 -4.247940704226493835e-02 -3.782936036586761475e-01
1.202000000000000000e+03 3.380047082901000977e+00 2.177446937561035156e+01 -8.614066056907176971e-03 -1.934103108942508698e-02 -8.386529050767421722e-03 9.079476445913314819e-02
1.203000000000000000e+03 7.491526794433593750e+01 -3.148330688476562500e+01 -3.919230028986930847e-02 7.667620182037353516e+00 2.288528442382812500e+00 -1.764588356018066406e-01
1.204000000000000000e+03 7.702060699462890625e+01 -3.601967620849609375e+01 -1.874681562185287476e-02 7.789698123931884766e+00 2.331285476684570312e+00 -6.811549514532089233e-02
1.205000000000000000e+03 7.539284515380859375e+01 -2.213743972778320312e+01 7.900808006525039673e-03 7.349257946014404297e+00 2.207147598266601562e+00 -2.065074592828750610e-01
1.206000000000000000e+03 7.796816253662109375e+01 -2.911247062683105469e+01 -4.788848571479320526e-03 7.579405784606933594e+00 2.272385120391845703e+00 -9.419288486242294312e-02
1.207000000000000000e+03 7.513754272460937500e+01 1.535991287231445312e+01 -7.486697752028703690e-03 7.901355266571044922e+00 2.368160724639892578e+00 3.228347897529602051e-01
1.208000000000000000e+03 7.658022308349609375e+01 1.539819431304931641e+01 -4.650363698601722717e-03 7.919209003448486328e+00 2.374367713928222656e+00 2.413298338651657104e-01
1.209000000000000000e+03 7.791708374023437500e+01 3.503126144409179688e+01 -1.055927481502294540e-02 8.898724555969238281e+00 2.666449546813964844e+00 4.682370647788047791e-02
1.210000000000000000e+03 7.632010650634765625e+01 3.221140289306640625e+01 -2.313175424933433533e-02 8.678013801574707031e+00 2.596464633941650391e+00 1.225780621170997620e-01
1.211000000000000000e+03 7.805101776123046875e+01 -2.220950317382812500e+01 1.742663094773888588e-03 7.265896320343017578e+00 2.180291652679443359e+00 -9.997067600488662720e-02
1.212000000000000000e+03 7.673669433593750000e+01 -2.353375053405761719e+01 1.256378367543220520e-03 7.362915515899658203e+00 2.209251642227172852e+00 -1.584739834070205688e-01
1.213000000000000000e+03 7.652645111083984375e+01 -3.036039352416992188e+01 -1.659380458295345306e-02 7.626958370208740234e+00 2.283109426498413086e+00 -1.402924805879592896e-01
1.214000000000000000e+03 7.800335693359375000e+01 -2.773116874694824219e+01 -3.066854318603873253e-03 7.520524024963378906e+00 2.255237102508544922e+00 -9.799129515886306763e-02
1.215000000000000000e+03 7.661639404296875000e+01 -2.898841285705566406e+01 -1.208203658461570740e-02 7.577977180480957031e+00 2.269768476486206055e+00 -1.474129706621170044e-01
1.216000000000000000e+03 7.666960906982421875e+01 -2.762863540649414062e+01 -7.679009810090065002e-03 7.526399135589599609e+00 2.255616188049316406e+00 -1.526504307985305786e-01
1.217000000000000000e+03 7.672608947753906250e+01 -2.490515708923339844e+01 -2.057216130197048187e-03 7.419145107269287109e+00 2.225126266479492188e+00 -1.583582609891891479e-01
1.218000000000000000e+03 7.539938354492187500e+01 -2.484878730773925781e+01 -3.376456443220376968e-03 7.445272922515869141e+00 2.232568979263305664e+00 -2.086974829435348511e-01
1.219000000000000000e+03 7.627050018310546875e+01 -3.320003509521484375e+01 -2.797804400324821472e-02 7.716991901397705078e+00 2.306704044342041016e+00 -1.180877462029457092e-01
1.220000000000000000e+03 7.648306274414062500e+01 -3.469086074829101562e+01 -2.565828897058963776e-02 7.753966808319091797e+00 2.318492412567138672e+00 -9.454980492591857910e-02
1.221000000000000000e+03 7.798128509521484375e+01 2.232712554931640625e+01 -5.489448085427284241e-03 8.372974395751953125e+00 2.510245561599731445e+00 1.306873559951782227e-01
1.222000000000000000e+03 7.654726409912109375e+01 1.960686492919921875e+01 -1.070266030728816986e-02 8.159828186035156250e+00 2.444737672805786133e+00 2.262656986713409424e-01
1.223000000000000000e+03 7.519898986816406250e+01 2.238755607604980469e+01 -2.849591895937919617e-02 8.256395339965820312e+00 2.468369722366333008e+00 2.738974690437316895e-01
1.224000000000000000e+03 7.658921051025390625e+01 2.098561286926269531e+01 -1.274500135332345963e-02 8.236929893493652344e+00 2.467255353927612305e+00 2.157176434993743896e-01
1.225000000000000000e+03 7.668112945556640625e+01 1.258407306671142578e+01 1.971458084881305695e-03 7.748757839202880859e+00 2.325218677520751953e+00 2.368837594985961914e-01
1.226000000000000000e+03 7.542229461669921875e+01 8.382067680358886719e+00 1.953773014247417450e-02 7.530530929565429688e+00 2.265020608901977539e+00 2.904346883296966553e-01
1.227000000000000000e+03 7.663664245605468750e+01 1.398712825775146484e+01 -1.072148676030337811e-03 7.833402156829833984e+00 2.349699020385742188e+00 2.397405505180358887e-01
1.228000000000000000e+03 7.658154296875000000e+01 2.370081329345703125e+01 -1.708512380719184875e-02 8.377372741699218750e+00 2.508086204528808594e+00 1.963718682527542114e-01
1.229000000000000000e+03 7.789830017089843750e+01 2.646489715576171875e+01 -7.564545143395662308e-03 8.587379455566406250e+00 2.573944330215454102e+00 1.107016205787658691e-01
1.230000000000000000e+03 7.804551696777343750e+01 -2.083036613464355469e+01 2.925414824858307838e-03 7.203120231628417969e+00 2.161813735961914062e+00 -9.733401983976364136e-02
1.231000000000000000e+03 7.673329925537109375e+01 -2.216311645507812500e+01 4.199204966425895691e-03 7.307596683502197266e+00 2.193538665771484375e+00 -1.562386006116867065e-01
1.232000000000000000e+03 7.533107757568359375e+01 -1.523866844177246094e+01 3.919666633009910583e-02 7.140608310699462891e+00 2.153941392898559570e+00 -1.433678120374679565e-01
1.233000000000000000e+03 7.552753448486328125e+01 -8.323866844177246094e+00 5.380102992057800293e-02 7.039159297943115234e+00 2.127887964248657227e+00 -6.820481736212968826e-03
1.234000000000000000e+03 7.803824615478515625e+01 -1.528177261352539062e+01 8.145612664520740509e-03 6.985387802124023438e+00 2.098059892654418945e+00 -6.947054713964462280e-02
1.235000000000000000e+03 7.551367950439453125e+01 -1.401593327522277832e+00 4.964210093021392822e-02 7.129611015319824219e+00 2.153775930404663086e+00 1.447854787111282349e-01
1.236000000000000000e+03 7.680805206298828125e+01 -8.319539070129394531e+00 2.909037284553050995e-02 6.955290794372558594e+00 2.095314502716064453e+00 -5.511736497282981873e-03
1.237000000000000000e+03 7.806473541259765625e+01 5.617540359497070312e+00 6.549421697854995728e-03 7.291564941406250000e+00 2.189434289932250977e+00 1.262715905904769897e-01
1.238000000000000000e+03 7.545166015625000000e+01 5.587937831878662109e+00 3.001228906214237213e-02 7.392716407775878906e+00 2.226818561553955078e+00 2.617152333259582520e-01
1.239000000000000000e+03 7.814392852783203125e+01 3.624517822265625000e+01 -2.853207848966121674e-02 8.944487571716308594e+00 2.674786567687988281e+00 3.030931390821933746e-02
1.240000000000000000e+03 7.806432342529296875e+01 7.013728618621826172e+00 5.257051438093185425e-03 7.375369071960449219e+00 2.214187860488891602e+00 1.336470991373062134e-01
1.241000000000000000e+03 7.676631164550781250e+01 5.620145797729492188e+00 1.589909195899963379e-02 7.346851825714111328e+00 2.208825349807739258e+00 1.976534873247146606e-01
1.242000000000000000e+03 7.681330108642578125e+01 -2.761088609695434570e+00 2.801647596061229706e-02 7.016974925994873047e+00 2.113497495651245117e+00 8.750248700380325317e-02
1.243000000000000000e+03 7.678816986083984375e+01 -9.714889526367187500e+00 2.873834222555160522e-02 6.962574958801269531e+00 2.097393989562988281e+00 -2.850865013897418976e-02
1.244000000000000000e+03 7.669588470458984375e+01 -1.664498710632324219e+01 1.790343411266803741e-02 7.108142852783203125e+00 2.137813806533813477e+00 -1.239639148116111755e-01
1.245000000000000000e+03 7.627362060546875000e+01 3.378191375732421875e+01 -3.327051550149917603e-02 8.715337753295898438e+00 2.604619979858398438e+00 1.118302345275878906e-01
1.246000000000000000e+03 7.468222045898437500e+01 3.379104614257812500e+01 -4.691863805055618286e-02 8.588893890380859375e+00 2.562592744827270508e+00 1.388458013534545898e-01
1.247000000000000000e+03 7.636409759521484375e+01 3.070641517639160156e+01 -2.009838446974754333e-02 8.640188217163085938e+00 2.586026906967163086e+00 1.381828933954238892e-01
1.248000000000000000e+03 7.651865386962890625e+01 1.821937942504882812e+01 -7.464487571269273758e-03 8.080812454223632812e+00 2.422004461288452148e+00 2.342608571052551270e-01
1.249000000000000000e+03 7.674060058593750000e+01 9.802895545959472656e+00 7.847925648093223572e-03 7.581122398376464844e+00 2.276691198348999023e+00 2.263993322849273682e-01
1.250000000000000000e+03 7.804455566406250000e+01 -1.389818668365478516e+01 9.460822679102420807e-03 6.944228172302246094e+00 2.086106777191162109e+00 -5.863074585795402527e-02
1.251000000000000000e+03 7.670309448242187500e+01 -1.525810527801513672e+01 2.107664011418819427e-02 7.066893577575683594e+00 2.126391172409057617e+00 -1.088322028517723083e-01
1.252000000000000000e+03 7.809295654296875000e+01 -6.934435844421386719e+00 1.178310718387365341e-02 6.859146595001220703e+00 2.061279058456420898e+00 1.136550586670637131e-02
1.253000000000000000e+03 7.807324218750000000e+01 1.427363276481628418e+00 9.252831339836120605e-03 7.074386596679687500e+00 2.125091791152954102e+00 9.611506015062332153e-02
1.254000000000000000e+03 7.680386352539062500e+01 -1.365997672080993652e+00 2.695492655038833618e-02 7.054420948028564453e+00 2.124412775039672852e+00 1.097068265080451965e-01
1.255000000000000000e+03 7.677015686035156250e+01 4.220794200897216797e+00 1.869018189609050751e-02 7.276402473449707031e+00 2.188527822494506836e+00 1.838918626308441162e-01
1.256000000000000000e+03 7.677529907226562500e+01 2.818623065948486328e+00 2.098312042653560638e-02 7.211174488067626953e+00 2.169647216796875000e+00 1.679774522781372070e-01
1.257000000000000000e+03 7.682359313964843750e+01 -5.541795730590820312e+00 2.934922836720943451e-02 6.967916965484619141e+00 2.099179983139038086e+00 4.124200344085693359e-02
1.258000000000000000e+03 7.682074737548828125e+01 -4.151774883270263672e+00 2.902603335678577423e-02 6.988045692443847656e+00 2.105121374130249023e+00 6.466151028871536255e-02
1.259000000000000000e+03 7.671626281738281250e+01 -1.388071632385253906e+01 2.336563356220722198e-02 7.031376361846923828e+00 2.116422653198242188e+00 -9.143856167793273926e-02
1.260000000000000000e+03 7.676329040527343750e+01 -1.111037254333496094e+01 2.745022624731063843e-02 6.978101253509521484e+00 2.101665496826171875e+00 -5.106600001454353333e-02
1.261000000000000000e+03 7.549503326416015625e+01 -9.712404251098632812e+00 5.265899002552032471e-02 7.045784473419189453e+00 2.129533052444458008e+00 -3.697645664215087891e-02
1.262000000000000000e+03 7.671898651123046875e+01 -2.079715347290039062e+01 7.359781768172979355e-03 7.254526615142822266e+00 2.178565979003906250e+00 -1.525088995695114136e-01
1.263000000000000000e+03 7.669688415527343750e+01 -1.803686904907226562e+01 1.476562581956386566e-02 7.153658390045166016e+00 2.150527238845825195e+00 -1.363613307476043701e-01
1.264000000000000000e+03 7.532622528076171875e+01 -1.662969207763671875e+01 3.426172956824302673e-02 7.176086902618408203e+00 2.163104534149169922e+00 -1.634848266839981079e-01
1.265000000000000000e+03 7.466963768005371094e+00 1.310631561279296875e+01 2.044172491878271103e-03 -1.071906532160937786e-03 2.916797820944339037e-04 7.825847715139389038e-03
1.266000000000000000e+03 1.148329734802246094e+01 8.078339576721191406e+00 -2.227004588348791003e-04 2.375497948378324509e-03 6.458392599597573280e-04 1.125451410189270973e-03
1.267000000000000000e+03 1.297915172576904297e+01 7.328743934631347656e+00 4.939761129207909107e-04 9.895220864564180374e-04 4.450494598131626844e-04 8.464878192171454430e-04
1.268000000000000000e+03 1.910481071472167969e+01 1.417811775207519531e+01 3.913487792015075684e-01 2.217973232269287109e+00 7.827965617179870605e-01 -8.329086899757385254e-01
1.269000000000000000e+03 2.096125841140747070e+00 2.762182617187500000e+01 1.208700612187385559e-02 -1.692457348108291626e-01 -4.714761674404144287e-02 3.325209766626358032e-02
1.270000000000000000e+03 3.800764799118041992e+00 3.035574340820312500e+01 1.134576275944709778e-02 4.415509477257728577e-02 1.665025763213634491e-02 -6.818030495196580887e-03
1.271000000000000000e+03 2.055285453796386719e+00 2.620711326599121094e+01 1.334793958812952042e-02 -1.551500856876373291e-01 -4.254064336419105530e-02 4.362907633185386658e-02
1.272000000000000000e+03 3.497804403305053711e+00 2.757640266418457031e+01 3.048703819513320923e-02 -2.079976256936788559e-03 8.522118441760540009e-03 3.003562800586223602e-02
1.273000000000000000e+03 7.755867004394531250e+00 2.880497169494628906e+01 5.370190367102622986e-02 5.343105196952819824e-01 1.764037311077117920e-01 -7.641860097646713257e-02
1.274000000000000000e+03 3.914178848266601562e+00 3.180890083312988281e+01 1.865057460963726044e-02 9.428940713405609131e-02 3.388199210166931152e-02 -6.134286522865295410e-03
1.275000000000000000e+03 3.630898714065551758e+00 2.895599555969238281e+01 2.943590469658374786e-02 1.206310559064149857e-02 1.244970317929983139e-02 1.678028889000415802e-02
1.276000000000000000e+03 4.059445381164550781e+00 3.471240997314453125e+01 4.131994792260229588e-04 1.006395816802978516e-01 3.031583316624164581e-02 -2.228423580527305603e-02
1.277000000000000000e+03 4.043170928955078125e+00 3.326592254638671875e+01 2.114146016538143158e-02 9.455701708793640137e-02 3.470954298973083496e-02 -8.488929830491542816e-03
1.278000000000000000e+03 3.470173358917236328e+00 -3.563377761840820312e+01 7.213659584522247314e-02 -5.925314426422119141e-01 -1.561184674501419067e-01 -5.491736158728599548e-02
1.279000000000000000e+03 3.968607425689697266e+00 -3.449331665039062500e+01 6.019268184900283813e-02 -4.679530262947082520e-01 -1.223281100392341614e-01 -8.858689665794372559e-02
1.280000000000000000e+03 3.719085454940795898e+00 -3.030474662780761719e+01 4.648518934845924377e-02 -4.552649855613708496e-01 -1.226339414715766907e-01 -1.652387678623199463e-01
1.281000000000000000e+03 2.144477128982543945e+00 -2.895876693725585938e+01 1.583382114768028259e-02 -5.913974642753601074e-01 -1.726690977811813354e-01 -1.356211006641387939e-01
1.282000000000000000e+03 4.878076076507568359e+00 -2.743439483642578125e+01 6.201295554637908936e-02 -3.112567067146301270e-01 -7.477313280105590820e-02 -2.408094257116317749e-01
1.283000000000000000e+03 3.285236358642578125e+00 2.327815246582031250e+01 1.685999520123004913e-02 -3.440953046083450317e-02 -5.264860112220048904e-03 8.568843454122543335e-02
1.284000000000000000e+03 1.677333474159240723e+00 -1.332594680786132812e+01 2.168466104194521904e-03 2.979026408866047859e-03 1.544247730635106564e-03 6.852833088487386703e-03
1.285000000000000000e+03 1.850634336471557617e+00 1.873820686340332031e+01 -1.388230733573436737e-02 -2.837354131042957306e-02 -1.267675403505563736e-02 3.932292014360427856e-02
1.286000000000000000e+03 5.403483390808105469e+00 1.815852928161621094e+01 -8.328931033611297607e-02 3.777635097503662109e-02 -1.365388650447130203e-02 2.373769506812095642e-02
1.287000000000000000e+03 1.789495706558227539e+00 -1.890001296997070312e+01 -4.182415828108787537e-02 -3.338013589382171631e-02 -2.256128937005996704e-02 -5.164634808897972107e-02
1.288000000000000000e+03 3.591605186462402344e+00 -1.784112358093261719e+01 -9.672267735004425049e-02 -2.845363877713680267e-02 -3.755289688706398010e-02 -3.036809526383876801e-02
1.289000000000000000e+03 5.414290904998779297e+00 1.335698795318603516e+01 -3.815399250015616417e-03 -3.200517501682043076e-03 -2.104775048792362213e-03 9.120914037339389324e-04
1.290000000000000000e+03 1.777956724166870117e+00 -2.175868225097656250e+01 -1.928976736962795258e-02 -1.714532077312469482e-01 -5.722289532423019409e-02 -1.261895895004272461e-01
1.291000000000000000e+03 6.808574676513671875e+00 -1.978688049316406250e+01 -2.957655191421508789e-01 -6.612147390842437744e-02 -1.085660979151725769e-01 -3.032888174057006836e-01
1.292000000000000000e+03 3.938180208206176758e+00 5.212158203125000000e+00 6.982168997637927532e-04 -3.399671986699104309e-04 1.074749161489307880e-04 -3.796610399149358273e-04
1.293000000000000000e+03 2.631350040435791016e+00 7.654468059539794922e+00 1.963992108358070254e-04 2.497901441529393196e-04 1.338568108621984720e-04 -6.739402306266129017e-04
1.294000000000000000e+03 4.480206489562988281e+00 1.450868225097656250e+01 -9.567004628479480743e-03 -5.731607321649789810e-03 -4.589583724737167358e-03 -1.518059987574815750e-03
1.295000000000000000e+03 1.822313785552978516e+00 1.734822082519531250e+01 -1.079198531806468964e-02 -1.308129914104938507e-02 -7.161985617130994797e-03 2.212831191718578339e-02
1.296000000000000000e+03 3.148895263671875000e+00 1.972334480285644531e+01 -2.914763987064361572e-02 -9.417389519512653351e-03 -1.156950835138559341e-02 6.996643543243408203e-02
1.297000000000000000e+03 2.636895656585693359e+00 8.946543693542480469e+00 7.709803758189082146e-04 1.297860308113740757e-05 2.351877046748995781e-04 -1.173257362097501755e-03
1.298000000000000000e+03 2.719328165054321289e+00 -4.541798591613769531e+00 1.871588756330311298e-04 4.890221753157675266e-04 2.028543094638735056e-04 -1.428298273822292686e-04
1.299000000000000000e+03 1.914583325386047363e+00 -4.148342132568359375e+00 -3.307665465399622917e-04 -4.037015023641288280e-04 -2.203404146712273359e-04 8.022226393222808838e-05
1.300000000000000000e+03 2.769647836685180664e+00 -1.574498748779296875e+01 -6.621675100177526474e-03 -1.534072030335664749e-02 -6.588718388229608536e-03 5.581728648394346237e-03
1.301000000000000000e+03 7.659179687500000000e+00 -9.280108451843261719e+00 -4.001795896328985691e-04 3.315090667456388474e-03 8.744733640924096107e-04 -9.831117931753396988e-04
1.302000000000000000e+03 3.555320978164672852e+00 -2.886729240417480469e+01 4.719382897019386292e-02 -4.428039789199829102e-01 -1.186830475926399231e-01 -1.870156228542327881e-01
1.303000000000000000e+03 4.396475315093994141e+00 -3.770325851440429688e+01 5.976700037717819214e-02 -5.408102869987487793e-01 -1.443129926919937134e-01 -1.023510843515396118e-01
1.304000000000000000e+03 2.648762226104736328e+00 -7.845451354980468750e+00 2.545965253375470638e-04 1.227639731951057911e-04 1.132081524701789021e-04 8.065907168202102184e-04
1.305000000000000000e+03 2.705868959426879883e+00 -3.463298034667968750e+01 3.754278644919395447e-02 -7.367968559265136719e-01 -2.097762227058410645e-01 -6.264161318540573120e-02
1.306000000000000000e+03 5.416104793548583984e+00 -3.488698959350585938e+01 8.727713674306869507e-02 -2.510506212711334229e-01 -4.913204908370971680e-02 -8.808412402868270874e-02
1.307000000000000000e+03 2.749362945556640625e+00 -2.021517372131347656e+01 -6.694994866847991943e-02 -9.563729166984558105e-02 -4.877617210149765015e-02 -1.332816779613494873e-01
1.308000000000000000e+03 1.896551370620727539e+00 -2.320359039306640625e+01 -7.745450362563133240e-03 -2.643483877182006836e-01 -8.162815123796463013e-02 -1.560347825288772583e-01
1.309000000000000000e+03 3.414935111999511719e+00 -2.604420089721679688e+01 2.437115646898746490e-02 -3.667548000812530518e-01 -1.027150899171829224e-01 -2.288585156202316284e-01
1.310000000000000000e+03 6.235266685485839844e+00 -2.467422485351562500e+01 5.071928724646568298e-02 -2.187553495168685913e-01 -5.041081830859184265e-02 -3.166079223155975342e-01
1.311000000000000000e+03 2.738454103469848633e+00 -1.450913333892822266e+01 2.893465338274836540e-03 -1.179216615855693817e-02 -2.669610315933823586e-03 7.489883340895175934e-03
1.312000000000000000e+03 2.814655542373657227e+00 -1.327576637268066406e+01 4.409072455018758774e-03 -5.593945272266864777e-03 -3.554619324859231710e-04 6.612710189074277878e-03
1.313000000000000000e+03 5.685732364654541016e+00 -9.568091392517089844e+00 1.501157297752797604e-03 -9.998583700507879257e-04 1.503896928625181317e-04 -8.405046537518501282e-04
1.314000000000000000e+03 2.717200994491577148e+00 1.022022247314453125e+01 5.984462331980466843e-04 -6.100509199313819408e-05 1.612323540030047297e-04 -1.385992858558893204e-03
1.315000000000000000e+03 3.236086606979370117e+00 1.433329772949218750e+01 -7.100744638592004776e-03 -2.802330534905195236e-03 -2.970922505483031273e-03 1.774109899997711182e-03
1.316000000000000000e+03 6.782659530639648438e+00 1.662765312194824219e+01 -5.778790265321731567e-02 -2.059354446828365326e-03 -1.795417815446853638e-02 -3.575087711215019226e-02
1.317000000000000000e+03 5.528471469879150391e+00 1.665474319458007812e+01 -5.080229789018630981e-02 1.362877245992422104e-02 -1.115205790847539902e-02 1.238884404301643372e-03
1.318000000000000000e+03 4.240250110626220703e+00 1.691524505615234375e+01 -4.198100045323371887e-02 1.234258990734815598e-02 -8.891522884368896484e-03 1.811170950531959534e-02
1.319000000000000000e+03 5.295719146728515625e+00 1.531943798065185547e+01 -2.365195564925670624e-02 3.192433621734380722e-03 -6.137856747955083847e-03 -5.284883547574281693e-03
1.320000000000000000e+03 7.427855491638183594e+00 1.508633995056152344e+01 5.924674216657876968e-03 -9.062372148036956787e-03 -9.413094958290457726e-04 2.474048640578985214e-03
1.321000000000000000e+03 3.984052658081054688e+00 -8.909313201904296875e+00 1.009442028589546680e-03 -6.507895304821431637e-04 1.075957552529871464e-04 5.501407431438565254e-04
1.322000000000000000e+03 9.418380737304687500e+00 -7.158841609954833984e+00 2.312824071850627661e-04 1.756893005222082138e-03 5.964526208117604256e-04 -8.668362279422581196e-04
1.323000000000000000e+03 8.602925300598144531e+00 -8.187425613403320312e+00 1.233183720614761114e-04 -1.851030625402927399e-03 -5.183136672712862492e-04 6.356163066811859608e-04
1.324000000000000000e+03 1.198402309417724609e+01 7.072658061981201172e+00 -2.080732228932902217e-04 -9.722444228827953339e-04 -3.540952748153358698e-04 -7.864537765271961689e-04
1.325000000000000000e+03 2.139197158813476562e+01 4.417314052581787109e+00 2.930986583232879639e-01 1.363777875900268555e+00 4.970629513263702393e-01 -9.636756777763366699e-01
1.326000000000000000e+03 1.600980567932128906e+01 1.940575599670410156e+01 4.683626070618629456e-02 1.684713363647460938e+00 5.194649100303649902e-01 -6.153506040573120117e-01
1.327000000000000000e+03 2.177322387695312500e+01 8.534861207008361816e-01 3.785057961940765381e-01 7.419264316558837891e-01 3.361296653747558594e-01 -5.443230867385864258e-01
1.328000000000000000e+03 2.308020591735839844e+01 4.153540134429931641e+00 4.444860517978668213e-01 2.023781776428222656e+00 7.404803037643432617e-01 -1.320677161216735840e+00
1.329000000000000000e+03 1.909049224853515625e+01 1.785170936584472656e+01 1.158745661377906799e-01 2.374916553497314453e+00 7.472373843193054199e-01 -7.178092002868652344e-01
1.330000000000000000e+03 1.940593338012695312e+01 1.263124847412109375e+01 4.441910684108734131e-01 2.211628913879394531e+00 7.967459559440612793e-01 -9.084756970405578613e-01
1.331000000000000000e+03 1.706103897094726562e+01 -1.470223140716552734e+01 -2.297247052192687988e-01 -9.330771863460540771e-02 -9.690972417593002319e-02 -1.566337943077087402e-01
1.332000000000000000e+03 1.798373603820800781e+01 -1.366176414489746094e+01 -1.895509660243988037e-01 1.520896423608064651e-02 -5.230259895324707031e-02 -1.722050309181213379e-01
1.333000000000000000e+03 1.527264595031738281e+01 -1.677820396423339844e+01 -2.929585576057434082e-01 -1.919651478528976440e-01 -1.454771161079406738e-01 -1.663841456174850464e-01
1.334000000000000000e+03 2.037924194335937500e+01 8.455224037170410156e+00 3.913525938987731934e-01 1.888926148414611816e+00 6.840836405754089355e-01 -1.013830900192260742e+00
1.335000000000000000e+03 2.084433364868164062e+01 1.149560070037841797e+01 4.290266633033752441e-01 2.371012687683105469e+00 8.400118350982666016e-01 -1.046511292457580566e+00
1.336000000000000000e+03 1.079211044311523438e+01 -1.960537528991699219e+01 -2.969026863574981689e-01 -5.091398358345031738e-01 -2.418127655982971191e-01 -2.663989067077636719e-01
1.337000000000000000e+03 1.350873947143554688e+01 -1.982988548278808594e+01 -1.211665421724319458e-01 -1.163373664021492004e-01 -7.125116884708404541e-02 -2.672425284981727600e-02
1.338000000000000000e+03 1.248404216766357422e+01 2.183318328857421875e+01 7.552936673164367676e-02 8.727424740791320801e-01 2.844815552234649658e-01 -4.472385942935943604e-01
1.339000000000000000e+03 1.147268867492675781e+01 2.100146293640136719e+01 6.162811070680618286e-02 5.387278795242309570e-01 1.801068037748336792e-01 -3.702540695667266846e-01
1.340000000000000000e+03 5.551586151123046875e+00 -1.183780670166015625e+01 2.097210614010691643e-03 -1.049173763021826744e-03 3.144110378343611956e-04 -4.086846020072698593e-03
1.341000000000000000e+03 4.908149242401123047e+00 4.036729812622070312e+01 -2.776497043669223785e-02 2.271378189325332642e-01 5.981185287237167358e-02 2.622638829052448273e-02
1.342000000000000000e+03 2.905471420288085938e+01 -4.361759185791015625e+00 2.807798385620117188e+00 1.823346257209777832e+00 1.389343380928039551e+00 -2.447823762893676758e+00
1.343000000000000000e+03 3.077133941650390625e+01 -4.813045501708984375e+00 4.268595695495605469e+00 5.976121902465820312e+00 3.073415279388427734e+00 -5.390232086181640625e+00
1.344000000000000000e+03 3.054984474182128906e+01 -4.806982517242431641e+00 4.097002029418945312e+00 4.966742992401123047e+00 2.719123601913452148e+00 -4.823281288146972656e+00
1.345000000000000000e+03 2.953047370910644531e+01 -4.727097988128662109e+00 3.112027883529663086e+00 2.052157878875732422e+00 1.549255728721618652e+00 -2.809607982635498047e+00
1.346000000000000000e+03 3.078339195251464844e+01 -9.041865348815917969e+00 3.270269393920898438e+00 6.286308288574218750e+00 2.866973161697387695e+00 5.187648773193359375e+00
1.347000000000000000e+03 3.108960533142089844e+01 -9.019920349121093750e+00 2.982698440551757812e+00 8.322294235229492188e+00 3.391497611999511719e+00 5.601809978485107422e+00
1.348000000000000000e+03 2.994536209106445312e+01 -8.803108215332031250e+00 2.996975183486938477e+00 2.709204435348510742e+00 1.711853861808776855e+00 3.447431087493896484e+00
1.349000000000000000e+03 3.018087387084960938e+01 -8.821578025817871094e+00 3.172688484191894531e+00 3.397947072982788086e+00 1.971190690994262695e+00 3.881998777389526367e+00
1.350000000000000000e+03 3.214948272705078125e+01 -8.899541854858398438e+00 1.746223330497741699e+00 1.524093437194824219e+01 5.096147537231445312e+00 4.557599067687988281e+00
1.351000000000000000e+03 3.205116271972656250e+01 -4.828859806060791016e+00 2.505373477935791016e+00 1.536715221405029297e+01 5.361757755279541016e+00 -5.167956829071044922e+00
1.352000000000000000e+03 3.248961639404296875e+01 -4.854643821716308594e+00 2.269956827163696289e+00 1.779098510742187500e+01 6.018282413482666016e+00 -3.237010478973388672e+00
1.353000000000000000e+03 3.403642272949218750e+01 -7.887354850769042969e+00 7.463668823242187500e+00 1.610678291320800781e+01 7.071135520935058594e+00 -2.388326644897460938e+00
1.354000000000000000e+03 3.324965667724609375e+01 -8.784625053405761719e+00 2.743511676788330078e+00 1.783856582641601562e+01 6.174623012542724609e+00 -1.025428995490074158e-01
1.355000000000000000e+03 3.452583694458007812e+01 -7.652172088623046875e+00 8.188012123107910156e+00 1.432221317291259766e+01 6.753067493438720703e+00 -1.934020996093750000e+00
1.356000000000000000e+03 3.414625930786132812e+01 -7.705868721008300781e+00 8.300879478454589844e+00 1.559087562561035156e+01 7.167526721954345703e+00 -2.284420728683471680e+00
1.357000000000000000e+03 2.739902496337890625e+01 -9.615095138549804688e+00 1.254886507987976074e+00 8.206001520156860352e-01 6.226460337638854980e-01 1.184969425201416016e+00
1.358000000000000000e+03 2.857860183715820312e+01 -9.167720794677734375e+00 1.794898986816406250e+00 1.223133325576782227e+00 9.054096937179565430e-01 1.831141948699951172e+00
1.359000000000000000e+03 2.854124069213867188e+01 -4.438337802886962891e+00 2.287166357040405273e+00 1.275699377059936523e+00 1.068859696388244629e+00 -1.796997189521789551e+00
1.360000000000000000e+03 2.946444892883300781e+01 -4.299283027648925781e+00 3.184714794158935547e+00 2.608569860458374023e+00 1.737985372543334961e+00 -3.126909732818603516e+00
1.361000000000000000e+03 2.678889083862304688e+01 -1.014172363281250000e+01 1.204999446868896484e+00 8.826885223388671875e-01 6.263064146041870117e-01 1.089610099792480469e+00
1.362000000000000000e+03 3.015922927856445312e+01 -9.177410125732421875e+00 3.092503786087036133e+00 4.040580272674560547e+00 2.139925241470336914e+00 4.109129905700683594e+00
1.363000000000000000e+03 2.903003692626953125e+01 -9.318660736083984375e+00 2.265943765640258789e+00 1.834372758865356445e+00 1.230094909667968750e+00 2.435008525848388672e+00
1.364000000000000000e+03 2.284853553771972656e+01 -2.140045404434204102e+00 5.335615873336791992e-01 3.544563353061676025e-01 2.664053738117218018e-01 -1.478957533836364746e-01
1.365000000000000000e+03 2.420082092285156250e+01 -2.813507318496704102e+00 7.764291763305664062e-01 4.809249043464660645e-01 3.772062063217163086e-01 -3.315318524837493896e-01
1.366000000000000000e+03 2.553204917907714844e+01 -9.613845825195312500e+00 4.117246866226196289e-01 3.649915456771850586e-01 2.330148667097091675e-01 3.325041234493255615e-01
1.367000000000000000e+03 1.994845199584960938e+01 -1.372101783752441406e+00 1.160184144973754883e-01 -2.462167292833328247e-01 -3.905949369072914124e-02 7.780572772026062012e-02
1.368000000000000000e+03 2.480752182006835938e+01 -3.025707721710205078e+00 9.023749828338623047e-01 5.370940566062927246e-01 4.318407177925109863e-01 -4.382935762405395508e-01
1.369000000000000000e+03 2.782390022277832031e+01 -3.857155799865722656e+00 2.005847930908203125e+00 1.252857565879821777e+00 9.776116609573364258e-01 -1.601587057113647461e+00
1.370000000000000000e+03 2.651834297180175781e+01 -3.269275188446044922e+00 1.480247378349304199e+00 9.316726922988891602e-01 7.235760092735290527e-01 -1.061599850654602051e+00
1.371000000000000000e+03 8.543963432312011719e+00 4.201539993286132812e+00 5.094528314657509327e-04 -8.346730610355734825e-04 -9.756606596056371927e-05 -2.374028117628768086e-04
1.372000000000000000e+03 9.599938392639160156e+00 -3.136510848999023438e+00 -3.461134474491700530e-05 -1.150143216364085674e-04 -4.488769991439767182e-05 7.028258405625820160e-04
1.373000000000000000e+03 8.965142250061035156e+00 -3.292835474014282227e+00 1.484512904426082969e-04 8.546030585421249270e-05 7.017348252702504396e-05 -3.940280003007501364e-04
1.374000000000000000e+03 7.845481872558593750e+00 4.170088291168212891e+00 -1.427944371243938804e-04 5.968243349343538284e-04 1.362089678877964616e-04 4.382917250040918589e-04
1.375000000000000000e+03 7.658946037292480469e+00 5.026031017303466797e+00 7.965747499838471413e-04 -1.194711658172309399e-03 -1.194410797324962914e-04 6.424396269721910357e-05
1.376000000000000000e+03 3.743599653244018555e+00 6.313923835754394531e+00 1.808562810765579343e-04 -3.708856820594519377e-05 4.313031240599229932e-05 -3.121541230939328671e-04
1.377000000000000000e+03 2.446506977081298828e+00 4.890303134918212891e+00 -9.145645890384912491e-06 1.671789650572463870e-04 4.740999429486691952e-05 -7.177239604061469436e-05
1.378000000000000000e+03 1.405096173286437988e+00 4.998402595520019531e+00 2.447737497277557850e-04 3.388363111298531294e-04 1.750830269884318113e-04 -4.279690911062061787e-04
1.379000000000000000e+03 1.706571340560913086e+00 3.398169994354248047e+00 -2.777469926513731480e-04 1.862564240582287312e-04 -2.744717312452849001e-05 -2.478085807524621487e-04
1.380000000000000000e+03 2.350120162963867188e+01 -2.731211185455322266e+00 5.989354252815246582e-01 3.622397184371948242e-01 2.883525490760803223e-01 -1.525279283523559570e-01
1.381000000000000000e+03 2.464249992370605469e+01 -3.618791818618774414e+00 6.240765452384948730e-01 3.376940488815307617e-01 2.885311841964721680e-01 -2.004961669445037842e-01
1.382000000000000000e+03 7.475958824157714844e+00 -3.364125251770019531e+00 2.850249875336885452e-04 2.542025758884847164e-04 1.617682719370350242e-04 -6.085953209549188614e-04
1.383000000000000000e+03 1.075530529022216797e+01 -5.260258674621582031e+00 4.525139229372143745e-04 9.211913566105067730e-04 4.121115780435502529e-04 -6.573843420483171940e-04
1.384000000000000000e+03 2.712832450866699219e+01 -3.290332555770874023e+00 1.766148686408996582e+00 1.214760780334472656e+00 8.942728638648986816e-01 -1.416566610336303711e+00
1.385000000000000000e+03 1.096425151824951172e+01 3.394032001495361328e+00 -3.648743950179778039e-05 -1.340672606602311134e-04 -5.116641114000231028e-05 -3.647918056230992079e-04
1.386000000000000000e+03 1.164171981811523438e+01 5.024828433990478516e+00 1.457536272937431931e-04 6.637323531322181225e-04 2.428457955829799175e-04 1.091340091079473495e-03
1.387000000000000000e+03 1.078259468078613281e+01 4.991547584533691406e+00 1.684700255282223225e-04 -6.781191914342343807e-04 -1.528947468614205718e-04 -7.209954201243817806e-04
1.388000000000000000e+03 9.827155113220214844e+00 -4.790875911712646484e+00 1.107308198697865009e-04 -1.193431904539465904e-03 -3.248103312216699123e-04 4.553875478450208902e-04
1.389000000000000000e+03 4.665082931518554688e+00 -3.644494056701660156e+00 -9.400765520695131272e-06 1.853671565186232328e-04 5.278991739032790065e-05 -2.083178405882790685e-04
1.390000000000000000e+03 6.039246082305908203e+00 -5.031683921813964844e+00 2.677967713680118322e-04 3.056222340092062950e-04 1.720256987027823925e-04 4.343101463746279478e-04
1.391000000000000000e+03 4.169620037078857422e+00 -4.647366523742675781e+00 9.715666965348646045e-05 1.755449775373563170e-04 8.181049634004011750e-05 -1.042098738253116608e-04
1.392000000000000000e+03 6.573019504547119141e+00 -4.546098232269287109e+00 2.893299679271876812e-04 -8.033612393774092197e-04 -1.542093814350664616e-04 -2.674777351785451174e-04
1.393000000000000000e+03 8.234189987182617188e+00 -3.381884813308715820e+00 -3.082630864810198545e-04 -5.013065674575045705e-05 -1.075181280612014234e-04 4.724000173155218363e-04
1.394000000000000000e+03 3.713773012161254883e+00 -7.715222358703613281e+00 1.077975146472454071e-03 -2.737067115958780050e-04 2.412805188214406371e-04 1.641483977437019348e-04
1.395000000000000000e+03 3.211864471435546875e+00 -3.987354040145874023e+00 -4.654951408156193793e-05 -1.162873959401622415e-04 -4.885107409791089594e-05 3.819083576672710478e-05
1.396000000000000000e+03 3.453309059143066406e+00 -5.602939605712890625e+00 2.321680221939459443e-04 2.628001384437084198e-04 1.484904496464878321e-04 -1.300534786423668265e-04
1.397000000000000000e+03 2.550503969192504883e+00 -5.511491775512695312e+00 1.422746754542458802e-05 -2.040719118667766452e-04 -5.695333311450667679e-05 3.362427814863622189e-04
1.398000000000000000e+03 2.253954887390136719e+01 -1.045563983917236328e+01 7.562233507633209229e-02 3.446145057678222656e-01 1.260710507631301880e-01 -1.320720165967941284e-01
1.399000000000000000e+03 1.173076820373535156e+01 4.177545547485351562e+00 -2.117410622304305434e-04 -8.563517621951177716e-05 -8.921286644181236625e-05 -5.820224760100245476e-04
1.400000000000000000e+03 1.904546928405761719e+01 -1.297592067718505859e+01 -1.038318648934364319e-01 1.600149273872375488e-01 1.685492135584354401e-02 -1.520153284072875977e-01
1.401000000000000000e+03 2.618957710266113281e+01 -1.015756034851074219e+01 9.585959315299987793e-01 6.915207505226135254e-01 4.950349926948547363e-01 7.889433503150939941e-01
1.402000000000000000e+03 2.412383842468261719e+01 -1.030358409881591797e+01 3.565252721309661865e-01 4.138973355293273926e-01 2.311267852783203125e-01 1.398328393697738647e-01
1.403000000000000000e+03 2.485392570495605469e+01 -1.023937511444091797e+01 5.246667861938476562e-01 4.733959734439849854e-01 2.994188368320465088e-01 3.191287815570831299e-01
1.404000000000000000e+03 1.978340530395507812e+01 -1.415816879272460938e+01 9.592324495315551758e-02 4.766914546489715576e-01 1.717844158411026001e-01 1.221610009670257568e-01
1.405000000000000000e+03 1.872110939025878906e+01 -8.310334205627441406e+00 -3.908918797969818115e-01 -1.058771982789039612e-01 -1.490307301282882690e-01 -3.932296037673950195e-01
1.406000000000000000e+03 2.421279525756835938e+01 -1.093664455413818359e+01 5.865052938461303711e-01 5.892989635467529297e-01 3.527412712574005127e-01 3.274661302566528320e-01
1.407000000000000000e+03 2.168951034545898438e+01 -1.052691936492919922e+01 -4.978234320878982544e-02 3.053923845291137695e-01 7.668301463127136230e-02 -2.326860576868057251e-01
1.408000000000000000e+03 1.895075035095214844e+01 -1.041456508636474609e+01 -3.534679114818572998e-01 -5.758854001760482788e-02 -1.233169361948966980e-01 -4.401351809501647949e-01
1.409000000000000000e+03 1.918886566162109375e+01 -9.419747352600097656e+00 -4.109594821929931641e-01 -2.337243966758251190e-02 -1.302995830774307251e-01 -4.500255882740020752e-01
1.410000000000000000e+03 1.015238666534423828e+01 1.006245040893554688e+01 -1.367727527394890785e-03 4.674055613577365875e-03 9.918983560055494308e-04 7.313884561881422997e-04
1.411000000000000000e+03 9.995836257934570312e+00 8.567254066467285156e+00 -1.186144887469708920e-03 3.147731767967343330e-03 5.884760757908225060e-04 2.949096087832003832e-04
1.412000000000000000e+03 2.937906503677368164e+00 1.152230453491210938e+01 6.750831962563097477e-04 -1.950314384885132313e-03 -3.825693856924772263e-04 -1.550642889924347401e-03
1.413000000000000000e+03 6.537482261657714844e+00 1.823109626770019531e+01 -1.228037104010581970e-01 5.498057976365089417e-02 -2.034693956375122070e-02 9.343877434730529785e-03
1.414000000000000000e+03 3.017961025238037109e+00 1.711689949035644531e+01 -2.510129846632480621e-02 -4.794163687620311975e-04 -7.674214430153369904e-03 2.797682397067546844e-02
1.415000000000000000e+03 9.963418960571289062e+00 5.012475490570068359e+00 -2.802425879053771496e-04 9.022584417834877968e-04 1.866047532530501485e-04 1.039126655086874962e-03
1.416000000000000000e+03 4.120537757873535156e+00 1.105499744415283203e+01 5.623448523692786694e-04 -1.773302676156163216e-03 -3.632873413152992725e-04 -7.013832801021635532e-04
1.417000000000000000e+03 7.607793331146240234e+00 -2.447209358215332031e+01 9.498304128646850586e-02 -2.027354985475540161e-01 -3.232573717832565308e-02 -3.078386187553405762e-01
1.418000000000000000e+03 7.759690761566162109e+00 -2.271141624450683594e+01 -4.524343833327293396e-02 -2.366978973150253296e-01 -8.458240330219268799e-02 -3.794581592082977295e-01
1.419000000000000000e+03 2.853248357772827148e+00 -1.900627899169921875e+01 -6.576968729496002197e-02 -4.581573978066444397e-02 -3.347562626004219055e-02 -9.094480425119400024e-02
1.420000000000000000e+03 6.097918033599853516e+00 -1.853788948059082031e+01 -3.311312496662139893e-01 9.348005056381225586e-03 -9.653497487306594849e-02 -1.360769271850585938e-01
1.421000000000000000e+03 9.212456703186035156e+00 -4.099672317504882812e+00 -3.754029748961329460e-04 6.669374997727572918e-04 8.746035746298730373e-05 4.854900471400469542e-04
1.422000000000000000e+03 7.584861278533935547e+00 -2.100117874145507812e+01 -2.447014749050140381e-01 -1.822385042905807495e-01 -1.280819922685623169e-01 -3.988030254840850830e-01
1.423000000000000000e+03 2.177294731140136719e+01 7.561645984649658203e+00 3.851179480552673340e-01 2.110681533813476562e+00 7.487398386001586914e-01 -1.222351908683776855e+00
1.424000000000000000e+03 2.085140800476074219e+01 -9.937712550163269043e-02 2.621879279613494873e-01 1.703306585550308228e-01 1.297555714845657349e-01 -1.903271526098251343e-01
1.425000000000000000e+03 9.288633346557617188e+00 9.465723037719726562e+00 8.707653032615780830e-04 -2.267361851409077644e-03 -4.189789760857820511e-04 1.768035464920103550e-03
1.426000000000000000e+03 1.256328678131103516e+01 5.046874523162841797e+00 -3.391707432456314564e-04 -8.810289000393822789e-05 -1.281820877920836210e-04 -6.495923735201358795e-04
1.427000000000000000e+03 2.203971481323242188e+01 3.344778776168823242e+00 3.608534336090087891e-01 1.368288755416870117e+00 5.187426209449768066e-01 -9.933597445487976074e-01
1.428000000000000000e+03 2.093465995788574219e+01 9.908670186996459961e-01 2.392165511846542358e-01 4.141900241374969482e-01 1.960219740867614746e-01 -3.909679651260375977e-01
1.429000000000000000e+03 7.632849216461181641e+00 -6.149155139923095703e+00 -1.793566298147197813e-05 1.401995308697223663e-03 4.152178880758583546e-04 -4.926594556309282780e-05
1.430000000000000000e+03 8.455203056335449219e+00 1.203832244873046875e+01 -3.827760927379131317e-03 5.891848355531692505e-03 6.192262517288327217e-04 -1.009232713840901852e-03
1.431000000000000000e+03 5.820940017700195312e+00 1.137154102325439453e+01 -2.587836643215268850e-04 -1.941874506883323193e-03 -6.601974600926041603e-04 1.707383315078914165e-03
1.432000000000000000e+03 1.343768405914306641e+01 2.101449775695800781e+01 5.685273557901382446e-02 1.034572958946228027e+00 3.274277150630950928e-01 -5.146432518959045410e-01
1.433000000000000000e+03 7.522708129882812500e+01 1.393381977081298828e+01 -1.766268280334770679e-03 7.826266765594482422e+00 2.347350120544433594e+00 3.200500011444091797e-01
1.434000000000000000e+03 7.549863433837890625e+01 -6.066888570785522461e-03 4.693657532334327698e-02 7.170657634735107422e+00 2.165278196334838867e+00 1.726436167955398560e-01
1.435000000000000000e+03 7.424469757080078125e+01 -8.332898139953613281e+00 8.447169512510299683e-02 7.110778808593750000e+00 2.158575057983398438e+00 -7.958524860441684723e-03
1.436000000000000000e+03 7.544860839843750000e+01 -1.110249328613281250e+01 5.148272961378097534e-02 7.060580730438232422e+00 2.133619070053100586e+00 -6.655491143465042114e-02
1.437000000000000000e+03 7.673708343505859375e+01 -1.250044059753417969e+01 2.583587169647216797e-02 7.001719474792480469e+00 2.108266592025756836e+00 -7.229460775852203369e-02
1.438000000000000000e+03 7.402664947509765625e+01 -1.245806980133056641e+01 7.869263738393783569e-02 7.153036117553710938e+00 2.169518709182739258e+00 -1.148732677102088928e-01
1.439000000000000000e+03 7.681984710693359375e+01 -6.929829597473144531e+00 2.951792813837528229e-02 6.957022190093994141e+00 2.095962047576904297e+00 1.785253547132015228e-02
1.440000000000000000e+03 7.554386138916015625e+01 -6.941827774047851562e+00 5.423285067081451416e-02 7.040798664093017578e+00 2.128509521484375000e+00 2.367248386144638062e-02
1.441000000000000000e+03 7.425415802001953125e+01 -4.230910301208496094e+00 8.535039424896240234e-02 7.138350963592529297e+00 2.167110443115234375e+00 1.033829748630523682e-01
1.442000000000000000e+03 7.678295898437500000e+01 1.421445012092590332e+00 2.341153472661972046e-02 7.152054309844970703e+00 2.152639865875244141e+00 1.501681953668594360e-01
1.443000000000000000e+03 7.548498535156250000e+01 1.387590527534484863e+00 4.293295741081237793e-02 7.217844963073730469e+00 2.178233385086059570e+00 1.983718723058700562e-01
1.444000000000000000e+03 7.543746948242187500e+01 6.985714435577392578e+00 2.471884526312351227e-02 7.460077285766601562e+00 2.245438814163208008e+00 2.776284813880920410e-01
1.445000000000000000e+03 7.552838897705078125e+01 -2.792683839797973633e+00 5.226176232099533081e-02 7.095649242401123047e+00 2.144373178482055664e+00 1.156226173043251038e-01
1.446000000000000000e+03 7.554008483886718750e+01 -4.179768562316894531e+00 5.351692438125610352e-02 7.069342136383056641e+00 2.136857748031616211e+00 8.520955592393875122e-02
1.447000000000000000e+03 7.303112792968750000e+01 3.342649841308593750e+01 -6.252901256084442139e-02 8.493040084838867188e+00 2.529153347015380859e+00 1.736332774162292480e-01
1.448000000000000000e+03 7.494035339355468750e+01 3.069480705261230469e+01 -3.935691341757774353e-02 8.542115211486816406e+00 2.550827503204345703e+00 1.765383332967758179e-01
1.449000000000000000e+03 7.392864227294921875e+01 -1.662819099426269531e+01 5.554625019431114197e-02 7.239121437072753906e+00 2.188400268554687500e+00 -2.005088776350021362e-01
1.450000000000000000e+03 7.675500488281250000e+01 8.412568092346191406e+00 1.043603569269180298e-02 7.499732017517089844e+00 2.253050327301025391e+00 2.187352031469345093e-01
1.451000000000000000e+03 7.415818023681640625e+01 2.715119600296020508e+00 6.228258833289146423e-02 7.320998191833496094e+00 2.214984178543090820e+00 2.699704468250274658e-01
1.452000000000000000e+03 7.547337341308593750e+01 2.783378124237060547e+00 3.934507444500923157e-02 7.270856380462646484e+00 2.193060398101806641e+00 2.218955457210540771e-01
1.453000000000000000e+03 7.539532470703125000e+01 9.766986846923828125e+00 1.418322324752807617e-02 7.602646350860595703e+00 2.285048961639404297e+00 3.008681535720825195e-01
1.454000000000000000e+03 7.532800292968750000e+01 -1.803058815002441406e+01 2.782910317182540894e-02 7.216769695281982422e+00 2.173379659652709961e+00 -1.809896379709243774e-01
1.455000000000000000e+03 7.670453643798828125e+01 -1.942360496520996094e+01 1.104944758117198944e-02 7.202772140502929688e+00 2.164146423339843750e+00 -1.461588889360427856e-01
1.456000000000000000e+03 7.533613586425781250e+01 -1.942122268676757812e+01 2.038163319230079651e-02 7.260121822357177734e+00 2.184150934219360352e+00 -1.932847350835800171e-01
1.457000000000000000e+03 7.409377288818359375e+01 -2.348361206054687500e+01 3.998496569693088531e-03 7.430890560150146484e+00 2.230466604232788086e+00 -2.536569237709045410e-01
1.458000000000000000e+03 7.527128601074218750e+01 -2.884939002990722656e+01 -1.900614053010940552e-02 7.580872058868408203e+00 2.268559694290161133e+00 -1.936566382646560669e-01
1.459000000000000000e+03 7.535304260253906250e+01 1.114577770233154297e+01 9.314754046499729156e-03 7.675891876220703125e+00 2.305562019348144531e+00 3.090971708297729492e-01
1.460000000000000000e+03 7.400885009765625000e+01 9.690020561218261719e+00 2.323558926582336426e-02 7.619846820831298828e+00 2.292924642562866211e+00 3.688623905181884766e-01
1.461000000000000000e+03 7.653276062011718750e+01 1.681387710571289062e+01 -6.454508285969495773e-03 8.002303123474121094e+00 2.398754596710205078e+00 2.379153370857238770e-01
1.462000000000000000e+03 7.499339294433593750e+01 1.826490592956542969e+01 -1.673438027501106262e-02 8.052169799804687500e+00 2.410630702972412109e+00 3.120045661926269531e-01
1.463000000000000000e+03 7.517062377929687500e+01 2.105840301513671875e+01 -2.324237115681171417e-02 8.185181617736816406e+00 2.448581695556640625e+00 2.887804508209228516e-01
1.464000000000000000e+03 7.505512237548828125e+01 1.968403816223144531e+01 -1.794462464749813080e-02 8.116305351257324219e+00 2.429508209228515625e+00 3.009645640850067139e-01
1.465000000000000000e+03 7.350209808349609375e+01 1.674609375000000000e+01 -2.067042142152786255e-02 7.948960304260253906e+00 2.378487110137939453e+00 3.980984389781951904e-01
1.466000000000000000e+03 7.398759460449218750e+01 -2.612551879882812500e+01 -1.531039364635944366e-02 7.514632225036621094e+00 2.249796628952026367e+00 -2.492652088403701782e-01
1.467000000000000000e+03 7.670297241210937500e+01 -2.626930999755859375e+01 -4.941234365105628967e-03 7.473833560943603516e+00 2.240667581558227539e+00 -1.560898870229721069e-01
1.468000000000000000e+03 7.541361999511718750e+01 -2.349278259277343750e+01 2.240539761260151863e-03 7.396828651428222656e+00 2.219720840454101562e+00 -2.083505243062973022e-01
1.469000000000000000e+03 7.321995544433593750e+01 2.779524421691894531e+01 -6.416259706020355225e-02 8.370882987976074219e+00 2.492016077041625977e+00 2.706951200962066650e-01
1.470000000000000000e+03 7.362675476074218750e+01 2.487694931030273438e+01 -5.367188900709152222e-02 8.296638488769531250e+00 2.472889900207519531e+00 3.031542003154754639e-01
1.471000000000000000e+03 7.645497131347656250e+01 2.643715476989746094e+01 -1.614553481340408325e-02 8.494020462036132812e+00 2.543362379074096680e+00 1.733927875757217407e-01
1.472000000000000000e+03 7.494776153564453125e+01 2.638215065002441406e+01 -3.452184423804283142e-02 8.413133621215820312e+00 2.513583421707153320e+00 2.343078702688217163e-01
1.473000000000000000e+03 7.638208007812500000e+01 2.925062942504882812e+01 -1.732765883207321167e-02 8.596030235290527344e+00 2.573610782623291016e+00 1.508050113916397095e-01
1.474000000000000000e+03 7.489214324951171875e+01 2.924914932250976562e+01 -3.382642194628715515e-02 8.498405456542968750e+00 2.539373636245727539e+00 1.998108625411987305e-01
1.475000000000000000e+03 7.487372589111328125e+01 2.780640602111816406e+01 -3.250202536582946777e-02 8.455480575561523438e+00 2.526893615722656250e+00 2.156275212764739990e-01
1.476000000000000000e+03 7.385004425048828125e+01 -2.991945838928222656e+01 -3.688662126660346985e-02 7.623408794403076172e+00 2.275956630706787109e+00 -2.248539328575134277e-01
1.477000000000000000e+03 7.225457763671875000e+01 -3.372639846801757812e+01 -8.866251260042190552e-02 7.723484039306640625e+00 2.290446519851684570e+00 -1.945533305406570435e-01
1.478000000000000000e+03 7.639566802978515625e+01 -3.175499534606933594e+01 -2.278590388596057892e-02 7.672055244445800781e+00 2.294780969619750977e+00 -1.314620673656463623e-01
1.479000000000000000e+03 7.515834045410156250e+01 -3.016012573242187500e+01 -2.859953418374061584e-02 7.624410152435302734e+00 2.278743267059326172e+00 -1.874061226844787598e-01
1.480000000000000000e+03 7.456606292724609375e+01 -3.287892532348632812e+01 -4.820971935987472534e-02 7.702035427093505859e+00 2.296147823333740234e+00 -1.636153012514114380e-01
1.481000000000000000e+03 4.579803943634033203e+00 2.198499298095703125e+01 1.629965845495462418e-04 3.165704011917114258e-02 9.546010755002498627e-03 9.952403604984283447e-02
1.482000000000000000e+03 3.061408758163452148e+00 1.576070404052734375e+01 -1.811013370752334595e-02 4.486417310545220971e-05 -5.419580731540918350e-03 9.075131267309188843e-03
1.483000000000000000e+03 2.909990787506103516e+00 -1.693299674987792969e+01 -2.900059893727302551e-02 -2.389639429748058319e-02 -1.586909778416156769e-02 -1.174851879477500916e-02
1.484000000000000000e+03 3.702927589416503906e+00 -1.383107089996337891e+01 3.911900334060192108e-03 -1.814423501491546631e-02 -4.269700497388839722e-03 2.480208640918135643e-03
1.485000000000000000e+03 5.205313205718994141e+00 1.952666282653808594e+01 -7.479004561901092529e-02 5.262037366628646851e-02 -6.650900933891534805e-03 6.697551161050796509e-02
1.486000000000000000e+03 4.539827823638916016e+00 -1.674308967590332031e+01 -4.099259898066520691e-02 -2.649359591305255890e-02 -2.024585753679275513e-02 -4.957394674420356750e-03
1.487000000000000000e+03 3.801278591156005859e+00 2.050900459289550781e+01 -3.174824640154838562e-02 7.000643759965896606e-03 -7.424280513077974319e-03 8.404815196990966797e-02
1.488000000000000000e+03 4.895725727081298828e+00 2.076894569396972656e+01 -4.248197749257087708e-02 4.192408174276351929e-02 -1.673686492722481489e-04 9.465083479881286621e-02
1.489000000000000000e+03 4.213921546936035156e+00 1.822814178466796875e+01 -5.224210768938064575e-02 2.225840091705322266e-02 -8.995112031698226929e-03 4.418552666902542114e-02
1.490000000000000000e+03 4.662294387817382812e+00 2.467260169982910156e+01 4.986654594540596008e-02 7.285922765731811523e-02 3.681773319840431213e-02 5.774291977286338806e-02
1.491000000000000000e+03 5.134577274322509766e+00 2.876332283020019531e+01 4.722357913851737976e-02 2.151161730289459229e-01 7.870192825794219971e-02 -1.080069597810506821e-02
1.492000000000000000e+03 7.059901237487792969e+00 -2.321831893920898438e+01 -2.345409803092479706e-02 -2.144052535295486450e-01 -7.135780155658721924e-02 -3.587859869003295898e-01
1.493000000000000000e+03 3.222111701965332031e+00 1.288606357574462891e+01 -1.863589859567582607e-03 -1.750161522068083286e-03 -1.084125367924571037e-03 -1.268565421923995018e-03
1.494000000000000000e+03 5.354871273040771484e+00 -1.372414875030517578e+01 4.221553914248943329e-03 -1.501669269055128098e-02 -3.238541772589087486e-03 -5.819587968289852142e-03
1.495000000000000000e+03 2.803469181060791016e+00 -9.123231887817382812e+00 1.766257337294518948e-03 -3.874606627505272627e-04 4.136390052735805511e-04 5.420368979685008526e-04
1.496000000000000000e+03 2.952484846115112305e+00 -1.045331764221191406e+01 2.216899069026112556e-03 -1.830246648751199245e-03 1.159957100753672421e-04 2.394007518887519836e-03
1.497000000000000000e+03 5.139637947082519531e+00 -1.950244522094726562e+01 -1.851718872785568237e-01 -5.866550281643867493e-02 -7.315121591091156006e-02 -2.012492716312408447e-01
1.498000000000000000e+03 3.150663852691650391e+00 -2.299907684326171875e+01 -2.397283911705017090e-02 -2.336035519838333130e-01 -7.727291435003280640e-02 -2.226979881525039673e-01
1.499000000000000000e+03 4.804506301879882812e+00 -2.113169670104980469e+01 -1.199125498533248901e-01 -1.274799555540084839e-01 -7.421775162220001221e-02 -2.717570066452026367e-01
1.500000000000000000e+03 5.457330703735351562e+00 2.326469802856445312e+01 4.512410610914230347e-02 8.859870582818984985e-02 4.011684283614158630e-02 7.441373169422149658e-02
1.501000000000000000e+03 4.895246028900146484e+00 2.614178848266601562e+01 4.485248774290084839e-02 1.100905463099479675e-01 4.648290947079658508e-02 3.224322944879531860e-02
1.502000000000000000e+03 4.457751750946044922e+00 2.328518295288085938e+01 2.840814180672168732e-02 3.140335530042648315e-02 1.794344931840896606e-02 8.150765299797058105e-02
1.503000000000000000e+03 3.364039182662963867e+00 -2.453508567810058594e+01 4.298134590499103069e-04 -2.999498546123504639e-01 -8.985601365566253662e-02 -2.443541437387466431e-01
1.504000000000000000e+03 5.056639671325683594e+00 -2.218125724792480469e+01 -8.485440164804458618e-02 -1.642914116382598877e-01 -7.474374771118164062e-02 -2.976792156696319580e-01
1.505000000000000000e+03 4.796781539916992188e+00 -2.457431030273437500e+01 2.161683700978755951e-02 -2.661972045898437500e-01 -7.337410748004913330e-02 -2.915867865085601807e-01
1.506000000000000000e+03 3.911006212234497070e+00 -3.175887870788574219e+01 5.974204093217849731e-02 -4.553381800651550293e-01 -1.186788380146026611e-01 -1.342394202947616577e-01
1.507000000000000000e+03 4.932028770446777344e+00 -2.878077507019042969e+01 6.954396516084671021e-02 -3.162373006343841553e-01 -7.400800287723541260e-02 -2.147949934005737305e-01
1.508000000000000000e+03 4.579323291778564453e+00 9.368728637695312500e+00 7.963186944834887981e-04 -1.144338049925863743e-03 -1.044058080879040062e-04 -8.017920481506735086e-05
1.509000000000000000e+03 5.488407611846923828e+00 3.172304153442382812e+01 8.485352620482444763e-03 2.784004211425781250e-01 8.606573194265365601e-02 -2.419770509004592896e-02
1.510000000000000000e+03 5.412839412689208984e+00 3.664501571655273438e+01 1.131458766758441925e-02 3.589164912700653076e-01 1.110693290829658508e-01 -1.588752306997776031e-02
1.511000000000000000e+03 3.777054309844970703e+00 3.606834793090820312e+01 3.561628982424736023e-02 6.280084699392318726e-02 2.952514030039310455e-02 1.723389490507543087e-03
1.512000000000000000e+03 3.013885259628295898e+00 -1.188077068328857422e+01 4.815674386918544769e-03 -3.762642154470086098e-03 3.159096231684088707e-04 3.401535330340266228e-03
1.513000000000000000e+03 6.137060165405273438e+00 9.616254806518554688e+00 3.138554748147726059e-04 -1.057443325407803059e-03 -2.230763639090582728e-04 1.487122615799307823e-03
1.514000000000000000e+03 3.535580396652221680e+00 -6.607905864715576172e+00 2.528600743971765041e-04 -9.942206816049292684e-05 4.603140405379235744e-05 3.801935527008026838e-04
1.515000000000000000e+03 7.114299774169921875e+00 -3.128922271728515625e+01 1.166685745120048523e-01 -4.915060847997665405e-02 2.025539055466651917e-02 -1.232027783989906311e-01
1.516000000000000000e+03 5.156128883361816406e+00 -3.017034339904785156e+01 8.736201375722885132e-02 -2.855437695980072021e-01 -5.945452302694320679e-02 -1.713515818119049072e-01
1.517000000000000000e+03 5.522633075714111328e+00 -3.165581703186035156e+01 8.091174066066741943e-02 -2.280189692974090576e-01 -4.413216933608055115e-02 -1.450957506895065308e-01
1.518000000000000000e+03 4.028049945831298828e+00 -3.319425964355468750e+01 4.908118024468421936e-02 -4.722425043582916260e-01 -1.269484013319015503e-01 -1.126394346356391907e-01
1.519000000000000000e+03 5.860050678253173828e+00 3.313100051879882812e+01 3.085225634276866913e-02 3.982462584972381592e-01 1.287295520305633545e-01 -2.926054596900939941e-02
1.520000000000000000e+03 5.472867965698242188e+00 3.018938636779785156e+01 2.787691913545131683e-02 2.693163454532623291e-01 8.915797621011734009e-02 -1.612284593284130096e-02
1.521000000000000000e+03 3.719569206237792969e+00 8.882240295410156250e+00 7.057286566123366356e-04 -7.612771587446331978e-04 -1.666455318627413362e-05 -9.622194338589906693e-04
1.522000000000000000e+03 5.555653572082519531e+00 5.377776145935058594e+00 6.720154779031872749e-04 -6.685544503852725029e-04 1.038305640577164013e-06 -1.907279656734317541e-04
1.523000000000000000e+03 6.343370437622070312e+00 -3.608262252807617188e+01 6.651505082845687866e-02 -1.351945102214813232e-01 -2.060383930802345276e-02 -8.851528912782669067e-02
1.524000000000000000e+03 7.764966011047363281e+00 -7.616007328033447266e+00 -2.923388674389570951e-04 2.055749064311385155e-03 5.290230619721114635e-04 -1.562773686600849032e-04
1.525000000000000000e+03 1.443585872650146484e+01 -1.777379989624023438e+01 -3.172629773616790771e-01 -2.084004580974578857e-01 -1.576990336179733276e-01 -1.230128034949302673e-01
1.526000000000000000e+03 1.808919143676757812e+01 -1.577507591247558594e+01 -1.833194633945822716e-03 3.046393394470214844e-01 9.084184467792510986e-02 1.191011741757392883e-01
1.527000000000000000e+03 5.138040065765380859e+00 -8.479282379150390625e+00 1.456380472518503666e-03 -9.112849365919828415e-04 1.635286607779562473e-04 -2.560796856414526701e-04
1.528000000000000000e+03 2.087907600402832031e+01 -1.146252346038818359e+01 7.657151203602552414e-03 3.323006033897399902e-01 1.019873246550559998e-01 -1.768324375152587891e-01
1.529000000000000000e+03 6.302389144897460938e+00 1.968648529052734375e+01 -1.089093685150146484e-01 6.504538655281066895e-02 -1.315919402986764908e-02 6.708831340074539185e-02
1.530000000000000000e+03 4.156712055206298828e+00 1.944049453735351562e+01 -5.212439596652984619e-02 2.501250803470611572e-02 -8.133566007018089294e-03 6.546516716480255127e-02
1.531000000000000000e+03 1.103771781921386719e+01 -2.120582771301269531e+01 -3.908720239996910095e-02 -2.870361506938934326e-01 -9.783700853586196899e-02 -2.250569462776184082e-01
1.532000000000000000e+03 2.115869522094726562e+01 1.016096591949462891e+01 4.308356344699859619e-01 2.295649528503417969e+00 8.179455995559692383e-01 -1.115252017974853516e+00
1.533000000000000000e+03 7.214591979980468750e+00 -1.236016082763671875e+01 -2.992052584886550903e-03 2.172119449824094772e-03 -2.459799288772046566e-04 2.421073615550994873e-03
1.534000000000000000e+03 6.550454616546630859e+00 -1.052459907531738281e+01 1.313931541517376900e-03 -1.638481975533068180e-03 -9.736514039104804397e-05 -2.646148204803466797e-03
1.535000000000000000e+03 8.369890213012695312e+00 2.176481819152832031e+01 7.190646976232528687e-02 1.874360889196395874e-01 7.780276983976364136e-02 -5.095837265253067017e-02
1.536000000000000000e+03 2.254537200927734375e+01 5.137119770050048828e+00 3.967299163341522217e-01 2.000858783721923828e+00 7.192766070365905762e-01 -1.283893108367919922e+00
1.537000000000000000e+03 2.211876678466796875e+01 6.304495811462402344e+00 3.667961657047271729e-01 2.025996923446655273e+00 7.178379297256469727e-01 -1.257968664169311523e+00
1.538000000000000000e+03 1.892543983459472656e+01 -1.485488319396972656e+01 4.015714302659034729e-02 3.834307789802551270e-01 1.270763874053955078e-01 1.078370884060859680e-01
1.539000000000000000e+03 4.313457012176513672e+00 -1.021235370635986328e+01 3.487569512799382210e-03 -2.144458005204796791e-03 4.029335104860365391e-04 -3.566226223483681679e-04
1.540000000000000000e+03 1.724544525146484375e+01 -1.688160896301269531e+01 -4.074322432279586792e-02 2.400335222482681274e-01 5.978709086775779724e-02 1.399782896041870117e-01
1.541000000000000000e+03 7.703808593750000000e+01 3.928128814697265625e+01 -2.149161696434020996e-02 8.952569007873535156e+00 2.679323196411132812e+00 1.336355414241552353e-02
1.542000000000000000e+03 7.644783782958984375e+01 3.790050888061523438e+01 -4.398868232965469360e-02 8.880184173583984375e+00 2.650858640670776367e+00 6.202325597405433655e-02
1.543000000000000000e+03 1.988882637023925781e+01 -1.158368682861328125e+01 -1.103250756859779358e-01 2.155227363109588623e-01 3.155929967761039734e-02 -2.485325932502746582e-01
1.544000000000000000e+03 1.876996421813964844e+01 -1.163918018341064453e+01 -2.598151564598083496e-01 1.603503711521625519e-03 -7.746349275112152100e-02 -3.411408364772796631e-01
1.545000000000000000e+03 1.829202842712402344e+01 2.042787742614746094e+01 -2.005084045231342316e-02 2.270803928375244141e+00 6.752259731292724609e-01 -6.559947729110717773e-01
1.546000000000000000e+03 1.745613479614257812e+01 1.850097084045410156e+01 1.012480184435844421e-01 2.013982295989990234e+00 6.345691084861755371e-01 -6.554570198059082031e-01
1.547000000000000000e+03 2.041672325134277344e+01 1.588753604888916016e+01 2.047890871763229370e-01 2.603144884109497070e+00 8.423802256584167480e-01 -8.299722075462341309e-01
1.548000000000000000e+03 2.218573951721191406e+01 1.747156262397766113e+00 4.648851454257965088e-01 1.091929912567138672e+00 4.670445322990417480e-01 -8.177093863487243652e-01
1.549000000000000000e+03 1.465791416168212891e+01 2.021890068054199219e+01 3.586721047759056091e-02 1.340562462806701660e+00 4.129288792610168457e-01 -5.800846815109252930e-01
1.550000000000000000e+03 1.374239253997802734e+01 -1.874929428100585938e+01 -2.506257295608520508e-01 -2.120444625616073608e-01 -1.388010531663894653e-01 -8.219649642705917358e-02
1.551000000000000000e+03 1.463212490081787109e+01 -1.959236717224121094e+01 -7.431329041719436646e-02 4.475398734211921692e-02 -8.867790922522544861e-03 8.438930660486221313e-02
1.552000000000000000e+03 2.398369789123535156e+01 8.423465728759765625e+00 3.423018455505371094e-01 3.029294252395629883e+00 1.011478781700134277e+00 -1.477219581604003906e+00
1.553000000000000000e+03 3.080964469909667969e+01 -4.550986766815185547e+00 3.815834760665893555e+00 6.737776279449462891e+00 3.166083335876464844e+00 -5.381799221038818359e+00
1.554000000000000000e+03 3.012587928771972656e+01 -4.884451866149902344e+00 3.805474996566772461e+00 3.165407896041870117e+00 2.091264724731445312e+00 -3.732747554779052734e+00
1.555000000000000000e+03 3.100678825378417969e+01 -4.625123977661132812e+00 3.833338737487792969e+00 7.754202365875244141e+00 3.476262331008911133e+00 -5.754389762878417969e+00
1.556000000000000000e+03 3.100245475769042969e+01 -5.130383014678955078e+00 4.690359115600585938e+00 6.456923007965087891e+00 3.344184637069702148e+00 -5.905990123748779297e+00
1.557000000000000000e+03 3.167357254028320312e+01 -4.682291030883789062e+00 2.976798295974731445e+00 1.230273437500000000e+01 4.583859920501708984e+00 -5.877519130706787109e+00
1.558000000000000000e+03 3.133325767517089844e+01 -8.831645965576171875e+00 3.169050455093383789e+00 9.691287994384765625e+00 3.858101606369018555e+00 6.009812831878662109e+00
1.559000000000000000e+03 3.113336181640625000e+01 -8.803208351135253906e+00 3.424513101577758789e+00 8.269788742065429688e+00 3.508290529251098633e+00 5.870456218719482422e+00
1.560000000000000000e+03 3.126442718505859375e+01 -9.086559295654296875e+00 2.670660257339477539e+00 9.074134826660156250e+00 3.523438453674316406e+00 5.456047534942626953e+00
1.561000000000000000e+03 3.039998626708984375e+01 -9.160284042358398438e+00 3.184391498565673828e+00 4.993573188781738281e+00 2.453389406204223633e+00 4.635747909545898438e+00
1.562000000000000000e+03 2.987884521484375000e+01 -9.183566093444824219e+00 2.934476852416992188e+00 3.267021656036376953e+00 1.860449552536010742e+00 3.662094354629516602e+00
1.563000000000000000e+03 3.184459877014160156e+01 -4.573122978210449219e+00 2.487262010574340820e+00 1.327682495117187500e+01 4.729226112365722656e+00 -5.277748107910156250e+00
1.564000000000000000e+03 3.239371871948242188e+01 -8.839181900024414062e+00 1.693972468376159668e+00 1.676350212097167969e+01 5.537242412567138672e+00 3.626270055770874023e+00
1.565000000000000000e+03 3.263182449340820312e+01 -9.457783699035644531e+00 1.191465854644775391e+00 1.535170650482177734e+01 4.962951660156250000e+00 2.624664545059204102e+00
1.566000000000000000e+03 3.497081375122070312e+01 -6.717281818389892578e+00 8.740345954895019531e+00 1.287357234954833984e+01 6.484175682067871094e+00 3.033381141722202301e-02
1.567000000000000000e+03 3.392583465576171875e+01 -8.044589996337890625e+00 6.769075393676757812e+00 1.655735969543457031e+01 6.997930526733398438e+00 -2.391016006469726562e+00
1.568000000000000000e+03 3.303354263305664062e+01 -9.126855850219726562e+00 1.734474301338195801e+00 1.666065406799316406e+01 5.518538951873779297e+00 1.216611981391906738e+00
1.569000000000000000e+03 3.386787033081054688e+01 -5.552622795104980469e+00 7.179160118103027344e+00 1.679046249389648438e+01 7.190886974334716797e+00 2.190871000289916992e+00
1.570000000000000000e+03 3.405542755126953125e+01 -5.111311912536621094e+00 5.387029170989990234e+00 1.599747371673583984e+01 6.415350914001464844e+00 1.873120903968811035e+00
1.571000000000000000e+03 3.328842926025390625e+01 -4.664706230163574219e+00 2.876584053039550781e+00 1.715344238281250000e+01 6.009007930755615234e+00 -1.414891928434371948e-01
1.572000000000000000e+03 2.941566085815429688e+01 -9.509548187255859375e+00 2.564003229141235352e+00 2.719012975692749023e+00 1.584904909133911133e+00 3.127969503402709961e+00
1.573000000000000000e+03 2.794074249267578125e+01 -9.658937454223632812e+00 1.641459584236145020e+00 1.159773707389831543e+00 8.403699994087219238e-01 1.610430717468261719e+00
1.574000000000000000e+03 2.842085838317871094e+01 -3.813711881637573242e+00 2.403176069259643555e+00 1.792574167251586914e+00 1.258725047111511230e+00 -2.177878141403198242e+00
1.575000000000000000e+03 2.980225753784179688e+01 -4.691014289855957031e+00 3.432641506195068359e+00 2.511868476867675781e+00 1.783352971076965332e+00 -3.221353292465209961e+00
1.576000000000000000e+03 2.734419059753417969e+01 -1.015016746520996094e+01 1.494581937789916992e+00 1.151618957519531250e+00 7.938602566719055176e-01 1.444133639335632324e+00
1.577000000000000000e+03 2.718890190124511719e+01 -3.869328260421752930e+00 1.606375217437744141e+00 8.629528880119323730e-01 7.407984137535095215e-01 -1.141716122627258301e+00
1.578000000000000000e+03 2.352978515625000000e+01 -2.115729093551635742e+00 6.845985651016235352e-01 5.191448330879211426e-01 3.611230254173278809e-01 -3.081409335136413574e-01
1.579000000000000000e+03 2.554361915588378906e+01 -1.019043540954589844e+01 7.234816551208496094e-01 5.624119639396667480e-01 3.857680857181549072e-01 5.310291647911071777e-01
1.580000000000000000e+03 2.621040344238281250e+01 -1.071570873260498047e+01 1.157816767692565918e+00 9.720813632011413574e-01 6.389694213867187500e-01 1.019281864166259766e+00
1.581000000000000000e+03 2.273808288574218750e+01 -1.517988801002502441e+00 5.678470730781555176e-01 4.674740433692932129e-01 3.105963468551635742e-01 -2.589962482452392578e-01
1.582000000000000000e+03 2.235919761657714844e+01 -2.458845853805541992e+00 4.058267772197723389e-01 2.022955864667892456e-01 1.824367195367813110e-01 6.201592274010181427e-03
1.583000000000000000e+03 2.532699012756347656e+01 -3.200398921966552734e+00 1.038675189018249512e+00 5.675294995307922363e-01 4.818614125251770020e-01 -5.612760782241821289e-01
1.584000000000000000e+03 2.422237586975097656e+01 -5.245870351791381836e-01 9.517693519592285156e-01 1.184817194938659668e+00 6.409759521484375000e-01 -9.163097739219665527e-01
1.585000000000000000e+03 4.042630195617675781e+00 4.355406284332275391e+00 1.193651551147922873e-04 2.806984230119269341e-05 4.423049904289655387e-05 -3.494520206004381180e-05
1.586000000000000000e+03 4.689807891845703125e+00 4.150687694549560547e+00 3.070447128266096115e-04 -2.220471069449558854e-04 2.549928285588975996e-05 -3.962544142268598080e-04
1.587000000000000000e+03 6.702884197235107422e+00 5.694906234741210938e+00 7.666876190342009068e-04 -1.025050412863492966e-03 -7.750884105917066336e-05 4.328954091761261225e-04
1.588000000000000000e+03 2.522968101501464844e+01 -2.686395883560180664e+00 1.103312492370605469e+00 7.495661377906799316e-01 5.558636188507080078e-01 -6.950821280479431152e-01
1.589000000000000000e+03 6.515132427215576172e+00 4.061582088470458984e+00 -1.728690222080331296e-05 2.771957369986921549e-04 7.797264697728678584e-05 1.094421677407808602e-04
1.590000000000000000e+03 5.078617572784423828e+00 4.598303794860839844e+00 6.902219029143452644e-04 -4.967811983078718185e-04 5.803220119560137391e-05 -1.305117912124842405e-04
1.591000000000000000e+03 5.263902664184570312e+00 3.992130994796752930e+00 6.041746019036509097e-05 1.079413705156184733e-04 5.050764957559294999e-05 -7.652033673366531730e-06
1.592000000000000000e+03 2.706842613220214844e+01 -2.720241069793701172e+00 1.806310653686523438e+00 1.560009479522705078e+00 1.009896039962768555e+00 -1.630585193634033203e+00
1.593000000000000000e+03 8.384747505187988281e+00 5.077272415161132812e+00 -2.317825274076312780e-04 7.689885678701102734e-04 1.611618063179776073e-04 6.526799406856298447e-04
1.594000000000000000e+03 7.174202442169189453e+00 4.116739273071289062e+00 6.587689858861267567e-04 -8.535556844435632229e-04 -5.843602048116736114e-05 -6.376577948685735464e-05
1.595000000000000000e+03 2.647768020629882812e+01 -2.686262369155883789e+00 1.586810350418090820e+00 1.234085083007812500e+00 8.462686538696289062e-01 -1.297891139984130859e+00
1.596000000000000000e+03 2.428351211547851562e+01 -2.108044385910034180e+00 9.155460000038146973e-01 7.162764072418212891e-01 4.895467162132263184e-01 -5.530813932418823242e-01
1.597000000000000000e+03 9.228606224060058594e+00 8.048818588256835938e+00 7.792653632350265980e-04 -1.797186676412820816e-03 -3.053763939533382654e-04 1.452587195672094822e-03
1.598000000000000000e+03 8.338376045227050781e+00 -4.275574207305908203e+00 4.561711684800684452e-04 3.284325939603149891e-04 2.353811287321150303e-04 -7.336504640989005566e-04
1.599000000000000000e+03 5.627907752990722656e+00 -7.058564662933349609e+00 6.309523596428334713e-04 -4.046789254061877728e-04 6.788203609175980091e-05 -2.076896344078704715e-04
1.600000000000000000e+03 6.745546340942382812e+00 -5.656332015991210938e+00 2.077632525470107794e-04 -7.618677918799221516e-04 -1.662313588894903660e-04 -3.752593474928289652e-04
1.601000000000000000e+03 4.927506923675537109e+00 -4.494796276092529297e+00 2.136624098056927323e-04 -1.280540745938196778e-04 2.568250056356191635e-05 1.983793627005070448e-04
1.602000000000000000e+03 6.780491828918457031e+00 -3.996578454971313477e+00 -1.287176132791501004e-06 7.187055889517068863e-04 2.152255183318629861e-04 -6.346731097437441349e-04
1.603000000000000000e+03 6.209713935852050781e+00 -4.037098407745361328e+00 1.927792036440223455e-04 -1.008928302326239645e-04 2.756591129582375288e-05 6.059191655367612839e-04
1.604000000000000000e+03 1.087882232666015625e+01 4.190389156341552734e+00 7.233973883558064699e-05 4.691389622166752815e-04 1.624436117708683014e-04 8.769928244873881340e-04
1.605000000000000000e+03 1.144659709930419922e+01 5.910775661468505859e+00 -8.006177267816383392e-06 -8.421525708399713039e-04 -2.550476056057959795e-04 -7.558846846222877502e-04
1.606000000000000000e+03 2.335155677795410156e+01 -1.037787151336669922e+01 2.037987411022186279e-01 3.748467266559600830e-01 1.735936403274536133e-01 -1.147715188562870026e-02
1.607000000000000000e+03 2.264946365356445312e+01 -1.117813205718994141e+01 2.754660546779632568e-01 4.717791676521301270e-01 2.241735607385635376e-01 2.377977222204208374e-02
1.608000000000000000e+03 2.013454246520996094e+01 -1.263885593414306641e+01 3.793815523386001587e-02 3.487579226493835449e-01 1.160088181495666504e-01 -8.307836204767227173e-02
1.609000000000000000e+03 2.492239379882812500e+01 -1.084315013885498047e+01 7.614617347717285156e-01 6.807415485382080078e-01 4.326609969139099121e-01 5.214884281158447266e-01
1.610000000000000000e+03 2.179334640502929688e+01 -1.131971836090087891e+01 1.425524950027465820e-01 4.137145876884460449e-01 1.668801307678222656e-01 -8.486185222864151001e-02
1.611000000000000000e+03 2.095046424865722656e+01 -1.069568991661071777e+00 2.451567351818084717e-01 6.727986782789230347e-02 9.373097866773605347e-02 -3.587656840682029724e-02
1.612000000000000000e+03 2.146581459045410156e+01 8.851113319396972656e+00 4.132188558578491211e-01 2.211319684982299805e+00 7.873615026473999023e-01 -1.180318474769592285e+00
1.613000000000000000e+03 7.595820426940917969e+00 1.130093193054199219e+01 1.149783929577097297e-05 -4.684623127104714513e-05 -1.060451722878497094e-05 5.125558469444513321e-03
1.614000000000000000e+03 6.580357551574707031e+00 1.228759956359863281e+01 1.681670837569981813e-04 -5.778072867542505264e-03 -1.682971720583736897e-03 -1.618426031200215220e-04
1.615000000000000000e+03 8.526395797729492188e+00 8.847692489624023438e+00 -6.462814053520560265e-04 1.211951719596982002e-03 1.697011030046269298e-04 -6.922552711330354214e-04
1.616000000000000000e+03 8.585273742675781250e+00 7.548346996307373047e+00 -1.967122370842844248e-04 7.099572103470563889e-04 1.539734948892146349e-04 -4.762511525768786669e-04
1.617000000000000000e+03 4.377927303314208984e+00 -1.164846134185791016e+01 4.059343598783016205e-03 -7.178918924182653427e-03 -9.358726092614233494e-04 -8.027345757000148296e-04
1.618000000000000000e+03 9.166321754455566406e+00 5.061923980712890625e+00 5.228854133747518063e-04 -9.432384977117180824e-04 -1.261059369426220655e-04 -2.815551415551453829e-04
1.619000000000000000e+03 1.059885501861572266e+01 7.665947437286376953e+00 5.567582556977868080e-04 -1.980003435164690018e-03 -4.269735654816031456e-04 -6.897444836795330048e-05
1.620000000000000000e+03 6.234380722045898438e+00 -1.272406387329101562e+01 2.799427369609475136e-03 2.008701907470822334e-03 1.442438806407153606e-03 -1.246314588934183121e-02
1.621000000000000000e+03 1.235027885437011719e+01 6.055658340454101562e+00 2.180812298320233822e-04 8.828855352476239204e-04 3.302900295238941908e-04 9.761697729118168354e-04
1.622000000000000000e+03 2.038921356201171875e+01 1.433860683441162109e+01 3.115040957927703857e-01 2.489798069000244141e+00 8.403906822204589844e-01 -8.833101987838745117e-01
1.623000000000000000e+03 2.056068229675292969e+01 1.287724399566650391e+01 4.016771018505096436e-01 2.422149658203125000e+00 8.471480011940002441e-01 -9.638530611991882324e-01
1.624000000000000000e+03 7.040919303894042969e+00 8.888183593750000000e+00 7.381468312814831734e-04 -1.537535106763243675e-03 -2.398164797341451049e-04 -1.023582080961205065e-04
1.625000000000000000e+03 2.602037429809570312e+00 6.278206348419189453e+00 4.955930053256452084e-04 6.169481639517471194e-05 1.671863574301823974e-04 -6.880427245050668716e-04
1.626000000000000000e+03 9.158200263977050781e+00 -5.662051200866699219e+00 -3.050903069379273802e-05 1.532621332444250584e-03 4.506336990743875504e-04 -5.176247796043753624e-04
1.627000000000000000e+03 2.347472000122070312e+01 -1.512714862823486328e+00 7.689984440803527832e-01 6.609694957733154297e-01 4.289903640747070312e-01 -4.587449133396148682e-01
1.628000000000000000e+03 2.241169357299804688e+01 4.780197143554687500e-01 5.410659909248352051e-01 8.821135759353637695e-01 4.269538521766662598e-01 -6.389390826225280762e-01
1.629000000000000000e+03 6.396894931793212891e+00 1.431984519958496094e+01 -6.058231461793184280e-03 -1.137743238359689713e-02 -5.230699200183153152e-03 -5.355138331651687622e-03
1.630000000000000000e+03 5.187897205352783203e+00 1.037011051177978516e+01 1.139911124482750893e-03 -3.879448631778359413e-03 -8.218612638302147388e-04 -1.882771030068397522e-04
1.631000000000000000e+03 7.487371063232421875e+01 3.217731857299804688e+01 -3.878385946154594421e-02 8.574128150939941406e+00 2.560603141784667969e+00 1.567796468734741211e-01
1.632000000000000000e+03 7.532646179199218750e+01 -2.753000259399414062e+01 -1.521999016404151917e-02 7.539124488830566406e+00 2.257171392440795898e+00 -1.995498389005661011e-01
1.633000000000000000e+03 7.390896606445312500e+01 -2.872942733764648438e+01 -3.221682459115982056e-02 7.596381187438964844e+00 2.269249439239501953e+00 -2.335935682058334351e-01
1.634000000000000000e+03 7.373768615722656250e+01 2.242055702209472656e+01 -3.754909336566925049e-02 8.194771766662597656e+00 2.447166919708251953e+00 3.347076177597045898e-01
1.635000000000000000e+03 7.516266632080078125e+01 2.368475723266601562e+01 -3.043985553085803986e-02 8.309643745422363281e+00 2.483761072158813477e+00 2.589757144451141357e-01
1.636000000000000000e+03 7.535903930664062500e+01 -2.078779983520507812e+01 1.391976978629827499e-02 7.303510665893554688e+00 2.195229291915893555e+00 -2.015112787485122681e-01
1.637000000000000000e+03 7.402170562744140625e+01 -2.215266418457031250e+01 1.258090510964393616e-02 7.389828681945800781e+00 2.220722913742065430e+00 -2.512414157390594482e-01
1.638000000000000000e+03 7.529767608642578125e+01 1.253179359436035156e+01 3.860062453895807266e-03 7.750489711761474609e+00 2.326304912567138672e+00 3.155466914176940918e-01
1.639000000000000000e+03 7.366449737548828125e+01 1.525822830200195312e+01 -1.098332740366458893e-02 7.883538246154785156e+00 2.361766338348388672e+00 3.954852819442749023e-01
1.640000000000000000e+03 7.504090881347656250e+01 1.681066894531250000e+01 -1.485105231404304504e-02 7.979110240936279297e+00 2.389277696609497070e+00 3.223250806331634521e-01
1.641000000000000000e+03 7.405345916748046875e+01 8.311180114746093750e+00 3.149354085326194763e-02 7.555335044860839844e+00 2.276048660278320312e+00 3.558407127857208252e-01
1.642000000000000000e+03 7.332875061035156250e+01 2.624390983581542969e+01 -5.693098157644271851e-02 8.325366020202636719e+00 2.480530500411987305e+00 2.933734357357025146e-01
1.643000000000000000e+03 7.507948303222656250e+01 2.500633239746093750e+01 -3.543605282902717590e-02 8.359975814819335938e+00 2.497361898422241211e+00 2.486929595470428467e-01
1.644000000000000000e+03 7.535221862792968750e+01 -1.386442184448242188e+01 4.429683089256286621e-02 7.109259128570556641e+00 2.146066904067993164e+00 -1.209554597735404968e-01
1.645000000000000000e+03 7.391056060791015625e+01 -1.522240829467773438e+01 6.400199234485626221e-02 7.206018447875976562e+00 2.181006193161010742e+00 -1.749141514301300049e-01
1.646000000000000000e+03 7.419318389892578125e+01 -7.019859552383422852e-02 7.422409206628799438e-02 7.230570316314697266e+00 2.191438198089599609e+00 2.098708152770996094e-01
1.647000000000000000e+03 7.546340179443359375e+01 4.186442852020263672e+00 3.450013697147369385e-02 7.329463958740234375e+00 2.209189176559448242e+00 2.431337982416152954e-01
1.648000000000000000e+03 7.417476654052734375e+01 1.321774005889892578e+00 6.869327276945114136e-02 7.273337841033935547e+00 2.202609300613403320e+00 2.412316799163818359e-01
1.649000000000000000e+03 7.554631805419921875e+01 -5.563166618347167969e+00 5.451643839478492737e-02 7.050976276397705078e+00 2.131647825241088867e+00 5.454468354582786560e-02
1.650000000000000000e+03 7.426557922363281250e+01 -6.967944622039794922e+00 8.588239550590515137e-02 7.112299919128417969e+00 2.159454584121704102e+00 2.889829128980636597e-02
1.651000000000000000e+03 7.394704437255859375e+01 1.105624008178710938e+01 1.482331659644842148e-02 7.685096740722656250e+00 2.309976100921630859e+00 3.792272210121154785e-01
1.652000000000000000e+03 7.419710540771484375e+01 -9.704123497009277344e+00 8.323608338832855225e-02 7.117490291595458984e+00 2.160217761993408203e+00 -4.408352822065353394e-02
1.653000000000000000e+03 7.412232208251953125e+01 -1.107832813262939453e+01 8.131509274244308472e-02 7.131459712982177734e+00 2.163832426071166992e+00 -7.956852018833160400e-02
1.654000000000000000e+03 7.393833160400390625e+01 -1.383703708648681641e+01 7.113567739725112915e-02 7.178468704223632812e+00 2.174881219863891602e+00 -1.471304446458816528e-01
1.655000000000000000e+03 7.539565277099609375e+01 -1.248857879638671875e+01 4.827144742012023926e-02 7.081878662109375000e+00 2.139045000076293945e+00 -9.501777589321136475e-02
1.656000000000000000e+03 7.423540496826171875e+01 -2.850986719131469727e+00 8.266609907150268555e-02 7.162587642669677734e+00 2.173576116561889648e+00 1.402540504932403564e-01
1.657000000000000000e+03 7.426576995849609375e+01 -5.604038238525390625e+00 8.578976988792419434e-02 7.121564865112304688e+00 2.162206411361694336e+00 6.581336259841918945e-02
1.658000000000000000e+03 7.414013671875000000e+01 4.113613605499267578e+00 5.572066828608512878e-02 7.373799324035644531e+00 2.228855848312377930e+00 2.961048781871795654e-01
1.659000000000000000e+03 7.393323516845703125e+01 -1.804238700866699219e+01 4.346951842308044434e-02 7.275883674621582031e+00 2.195806026458740234e+00 -2.204883396625518799e-01
1.660000000000000000e+03 7.392683410644531250e+01 -1.944433212280273438e+01 3.266529366374015808e-02 7.313615322113037109e+00 2.203884124755859375e+00 -2.359177023172378540e-01
1.661000000000000000e+03 7.333325958251953125e+01 1.831885719299316406e+01 -3.312699496746063232e-02 8.021641731262207031e+00 2.396554470062255859e+00 3.937881588935852051e-01
1.662000000000000000e+03 7.406388854980468750e+01 -2.480283737182617188e+01 -6.249826401472091675e-03 7.476410865783691406e+00 2.241048336029052734e+00 -2.530305385589599609e-01
1.663000000000000000e+03 7.396547698974609375e+01 -2.745449066162109375e+01 -2.267313376069068909e-02 7.555193424224853516e+00 2.259756088256835938e+00 -2.451352328062057495e-01
1.664000000000000000e+03 7.536280059814453125e+01 -2.619265556335449219e+01 -9.682208299636840820e-03 7.493700504302978516e+00 2.245205402374267578e+00 -2.063823193311691284e-01
1.665000000000000000e+03 7.331540679931640625e+01 2.934433937072753906e+01 -5.818012729287147522e-02 8.416326522827148438e+00 2.507443904876708984e+00 2.349222302436828613e-01
1.666000000000000000e+03 7.408724212646484375e+01 6.917182922363281250e+00 4.011461138725280762e-02 7.492129325866699219e+00 2.259673118591308594e+00 3.395219445228576660e-01
1.667000000000000000e+03 7.394998931884765625e+01 -2.081359100341796875e+01 2.230381965637207031e-02 7.352549076080322266e+00 2.212455987930297852e+00 -2.463689446449279785e-01
1.668000000000000000e+03 7.241677856445312500e+01 3.523708724975585938e+01 -8.864551782608032227e-02 8.455879211425781250e+00 2.510169982910156250e+00 1.476028263568878174e-01
1.669000000000000000e+03 7.378659820556640625e+01 1.382752799987792969e+01 -1.734699821099638939e-03 7.816484928131103516e+00 2.344424962997436523e+00 3.925392329692840576e-01
1.670000000000000000e+03 7.380098724365234375e+01 2.120670890808105469e+01 -3.379546105861663818e-02 8.151291847229003906e+00 2.435248851776123047e+00 3.411307334899902344e-01
1.671000000000000000e+03 7.345588684082031250e+01 1.987065315246582031e+01 -3.611490502953529358e-02 8.089879989624023438e+00 2.416129589080810547e+00 3.708496689796447754e-01
1.672000000000000000e+03 7.355449676513671875e+01 3.072806358337402344e+01 -5.829176679253578186e-02 8.455180168151855469e+00 2.519066572189331055e+00 2.123091369867324829e-01
1.673000000000000000e+03 6.229945182800292969e+00 -2.875484085083007812e+01 1.214610561728477478e-01 -2.104520797729492188e-01 -2.669730782508850098e-02 -1.990680545568466187e-01
1.674000000000000000e+03 1.031629180908203125e+01 6.445173263549804688e+00 6.051735254004597664e-04 -1.595578389242291451e-03 -2.971214416902512312e-04 4.834544088225811720e-04
1.675000000000000000e+03 4.877083301544189453e+00 2.752607536315917969e+01 4.233607277274131775e-02 1.238412335515022278e-01 4.985319077968597412e-02 1.536076329648494720e-02
1.676000000000000000e+03 6.225259780883789062e+00 2.789237022399902344e+01 5.673381686210632324e-02 3.088152110576629639e-01 1.096647158265113831e-01 -2.661967277526855469e-02
1.677000000000000000e+03 4.846390247344970703e+00 -2.605130577087402344e+01 4.084917530417442322e-02 -2.935511767864227295e-01 -7.581059634685516357e-02 -2.688195109367370605e-01
1.678000000000000000e+03 6.844301700592041016e+00 -8.593256950378417969e+00 7.141653331927955151e-04 -7.902574143372476101e-04 -2.282762761751655489e-05 -1.417242921888828278e-03
1.679000000000000000e+03 1.094751739501953125e+01 2.243786430358886719e+01 1.102904006838798523e-01 5.719665884971618652e-01 2.046771049499511719e-01 -2.785233855247497559e-01
1.680000000000000000e+03 1.183560085296630859e+01 2.431114959716796875e+01 9.287950396537780762e-02 8.841590285301208496e-01 2.931115627288818359e-01 -3.301982581615447998e-01
1.681000000000000000e+03 5.767796516418457031e+00 -2.060795974731445312e+01 -1.918053776025772095e-01 -1.099455580115318298e-01 -9.052528440952301025e-02 -2.800997197628021240e-01
1.682000000000000000e+03 3.924404621124267578e+00 -2.137358665466308594e+01 -7.248141616582870483e-02 -1.522413790225982666e-01 -6.741683930158615112e-02 -2.205342650413513184e-01
1.683000000000000000e+03 6.081923484802246094e+00 -2.333386230468750000e+01 -3.410333069041371346e-03 -2.229776978492736816e-01 -6.791640818119049072e-02 -3.410718739032745361e-01
1.684000000000000000e+03 6.046138286590576172e+00 -2.197077941894531250e+01 -1.264832913875579834e-01 -1.631254851818084717e-01 -8.688263595104217529e-02 -3.461282253265380859e-01
1.685000000000000000e+03 4.616085052490234375e+00 1.227359962463378906e+01 -5.940633709542453289e-04 -5.812827963382005692e-03 -1.922067371197044849e-03 -3.029741637874394655e-04
1.686000000000000000e+03 4.273001670837402344e+00 -2.035409545898437500e+01 -1.312604248523712158e-01 -9.210136532783508301e-02 -6.700854003429412842e-02 -2.047423720359802246e-01
1.687000000000000000e+03 6.532155990600585938e+00 2.494428253173828125e+01 7.407730817794799805e-02 2.318912297487258911e-01 9.179055690765380859e-02 4.862735513597726822e-03
1.688000000000000000e+03 8.516771316528320312e+00 -6.646424770355224609e+00 3.342418640386313200e-04 -1.583779579959809780e-03 -3.748613235075026751e-04 2.934140502475202084e-04
1.689000000000000000e+03 6.382013797760009766e+00 -2.753902435302734375e+01 9.379485994577407837e-02 -2.196844071149826050e-01 -3.776686266064643860e-02 -2.464495152235031128e-01
1.690000000000000000e+03 7.148375511169433594e+00 3.032896995544433594e+01 2.760734222829341888e-02 4.905087947845458984e-01 1.554348468780517578e-01 -5.326386541128158569e-02
1.691000000000000000e+03 5.676196575164794922e+00 2.217020416259765625e+01 1.805349253118038177e-02 7.844070345163345337e-02 2.894825860857963562e-02 8.548687398433685303e-02
1.692000000000000000e+03 5.791190624237060547e+00 -3.335637283325195312e+01 8.859279006719589233e-02 -1.876987069845199585e-01 -2.973177470266819000e-02 -1.154579743742942810e-01
1.693000000000000000e+03 1.142346191406250000e+01 -3.078229331970214844e+01 1.860832422971725464e-01 4.776143729686737061e-01 1.991092860698699951e-01 3.887351974844932556e-02
1.694000000000000000e+03 7.142507076263427734e+00 2.130160713195800781e+01 1.421510335057973862e-02 8.987321704626083374e-02 3.122649528086185455e-02 6.052338331937789917e-02
1.695000000000000000e+03 3.739486694335937500e+00 9.952135086059570312e+00 9.940902236849069595e-04 -1.960600959137082100e-03 -2.899532555602490902e-04 -1.026139245368540287e-03
1.696000000000000000e+03 5.464937210083007812e+00 8.637304306030273438e+00 1.118926214985549450e-03 -2.181695774197578430e-03 -3.188309201505035162e-04 -3.367406316101551056e-04
1.697000000000000000e+03 3.808545112609863281e+00 7.650292873382568359e+00 8.969149203039705753e-04 -8.245976059697568417e-04 2.169518484151922166e-05 -6.499595474451780319e-04
1.698000000000000000e+03 4.485378742218017578e+00 -6.467122077941894531e+00 4.269301134627312422e-04 1.456670288462191820e-04 1.717791456030681729e-04 -5.186680209590122104e-05
1.699000000000000000e+03 4.336341381072998047e+00 -5.536748409271240234e+00 3.395132953301072121e-04 -2.438994415570050478e-04 2.868415685952641070e-05 2.530496858526021242e-04
1.700000000000000000e+03 1.301537227630615234e+01 2.287835884094238281e+01 6.590294092893600464e-02 1.043283700942993164e+00 3.327559828758239746e-01 -4.510486721992492676e-01
1.701000000000000000e+03 9.617845535278320312e+00 2.358727264404296875e+01 9.887664765119552612e-02 4.719414114952087402e-01 1.712454110383987427e-01 -1.691151410341262817e-01
1.702000000000000000e+03 6.168288707733154297e+00 -7.819026470184326172e+00 7.206462323665618896e-04 1.280809083255007863e-04 2.546181494835764170e-04 -2.923053689301013947e-04
1.703000000000000000e+03 1.917710876464843750e+01 -1.672129821777343750e+01 1.515718698501586914e-01 6.988783478736877441e-01 2.551350593566894531e-01 3.699676394462585449e-01
1.704000000000000000e+03 1.628072547912597656e+01 -1.780759429931640625e+01 -7.458433508872985840e-02 1.763255894184112549e-01 3.052237816154956818e-02 1.322121322154998779e-01
1.705000000000000000e+03 1.981796836853027344e+01 1.969337272644042969e+01 -1.305492781102657318e-02 2.616147994995117188e+00 7.809279561042785645e-01 -6.967172622680664062e-01
1.706000000000000000e+03 1.678612709045410156e+01 2.112246322631835938e+01 -1.307680271565914154e-02 1.929367780685424805e+00 5.748872756958007812e-01 -6.206038594245910645e-01
1.707000000000000000e+03 1.850327491760253906e+01 -1.781292343139648438e+01 1.213733032345771790e-01 6.660255789756774902e-01 2.362196594476699829e-01 3.837728202342987061e-01
1.708000000000000000e+03 2.360327529907226562e+01 5.752704620361328125e+00 4.139049947261810303e-01 2.538063764572143555e+00 8.855906724929809570e-01 -1.487026572227478027e+00
1.709000000000000000e+03 2.408206558227539062e+01 4.804772377014160156e+00 4.727968275547027588e-01 2.573607921600341797e+00 9.139214158058166504e-01 -1.551172614097595215e+00
1.710000000000000000e+03 2.284374237060546875e+01 2.605516910552978516e+00 5.115035772323608398e-01 1.535145521163940430e+00 6.139947175979614258e-01 -1.095031499862670898e+00
1.711000000000000000e+03 1.989023780822753906e+01 -1.584245204925537109e+01 2.248723357915878296e-01 7.528278827667236328e-01 2.933100461959838867e-01 3.774632513523101807e-01
1.712000000000000000e+03 1.513778972625732422e+01 -2.098941612243652344e+01 8.992149680852890015e-02 2.781879901885986328e-01 1.104328483343124390e-01 2.209989428520202637e-01
1.713000000000000000e+03 1.811289787292480469e+01 -1.919984436035156250e+01 1.725824028253555298e-01 7.470231056213378906e-01 2.758816480636596680e-01 4.606841504573822021e-01
1.714000000000000000e+03 2.230658531188964844e+01 1.052379703521728516e+01 3.832817077636718750e-01 2.635446071624755859e+00 9.056183695793151855e-01 -1.224412322044372559e+00
1.715000000000000000e+03 7.180858612060546875e+01 4.063836669921875000e+01 -9.590643644332885742e-02 8.478781700134277344e+00 2.514862537384033203e+00 4.789125919342041016e-02
1.716000000000000000e+03 7.454426574707031250e+01 3.567350769042968750e+01 -6.390287727117538452e-02 8.625594139099121094e+00 2.568507432937622070e+00 1.220541372895240784e-01
1.717000000000000000e+03 2.287449455261230469e+01 8.019501686096191406e+00 3.859331905841827393e-01 2.556193113327026367e+00 8.826379179954528809e-01 -1.379498124122619629e+00
1.718000000000000000e+03 2.380023002624511719e+01 9.641229629516601562e+00 3.212775588035583496e-01 3.043064832687377930e+00 1.009302735328674316e+00 -1.399596095085144043e+00
1.719000000000000000e+03 3.109518051147460938e+01 -4.378045082092285156e+00 3.270151376724243164e+00 8.384072303771972656e+00 3.496267080307006836e+00 -5.456240177154541016e+00
1.720000000000000000e+03 3.111429405212402344e+01 -4.014730930328369141e+00 2.802333593368530273e+00 8.642980575561523438e+00 3.433594226837158203e+00 -5.128140449523925781e+00
1.721000000000000000e+03 3.229046630859375000e+01 -4.513300895690917969e+00 1.923759341239929199e+00 1.552714347839355469e+01 5.235270977020263672e+00 -3.974600315093994141e+00
1.722000000000000000e+03 3.097215843200683594e+01 -9.238771438598632812e+00 2.746342658996582031e+00 7.660761833190917969e+00 3.122131347656250000e+00 5.186491489410400391e+00
1.723000000000000000e+03 3.118944358825683594e+01 -9.386535644531250000e+00 2.510403633117675781e+00 8.903817176818847656e+00 3.424266338348388672e+00 5.307855129241943359e+00
1.724000000000000000e+03 3.176698684692382812e+01 -4.302690029144287109e+00 2.297133684158325195e+00 1.237485122680664062e+01 4.401595592498779297e+00 -5.093596935272216797e+00
1.725000000000000000e+03 3.278808975219726562e+01 -4.581316947937011719e+00 2.095021486282348633e+00 1.716081428527832031e+01 5.776750564575195312e+00 -2.008646011352539062e+00
1.726000000000000000e+03 3.143088722229003906e+01 -4.014127254486083984e+00 2.442472219467163086e+00 1.033747196197509766e+01 3.833983182907104492e+00 -5.112162113189697266e+00
1.727000000000000000e+03 3.275443267822265625e+01 -9.124157905578613281e+00 1.464636683464050293e+00 1.661684799194335938e+01 5.424445629119873047e+00 2.190847158432006836e+00
1.728000000000000000e+03 3.371007537841796875e+01 -8.462476730346679688e+00 4.521451473236083984e+00 1.714839363098144531e+01 6.500953197479248047e+00 -1.641229867935180664e+00
1.729000000000000000e+03 3.338508605957031250e+01 -9.180349349975585938e+00 2.112439632415771484e+00 1.636152458190917969e+01 5.542189121246337891e+00 1.908137500286102295e-01
1.730000000000000000e+03 3.464318466186523438e+01 -8.230180740356445312e+00 6.173699855804443359e+00 1.430834865570068359e+01 6.144614219665527344e+00 -2.108554363250732422e+00
1.731000000000000000e+03 3.439435958862304688e+01 -5.046624183654785156e+00 5.518254756927490234e+00 1.502479839324951172e+01 6.162915706634521484e+00 1.831399917602539062e+00
1.732000000000000000e+03 3.482400894165039062e+01 -5.995419502258300781e+00 8.197398185729980469e+00 1.343966484069824219e+01 6.491118907928466797e+00 1.325645327568054199e+00
1.733000000000000000e+03 3.468797683715820312e+01 -7.464317321777343750e+00 8.489496231079101562e+00 1.370184516906738281e+01 6.657402038574218750e+00 -1.545553565025329590e+00
1.734000000000000000e+03 3.468643188476562500e+01 -7.977803707122802734e+00 7.024405002593994141e+00 1.407602310180664062e+01 6.330128192901611328e+00 -2.063894033432006836e+00
1.735000000000000000e+03 3.378010940551757812e+01 -4.563597202301025391e+00 3.419081449508666992e+00 1.615660476684570312e+01 5.872705459594726562e+00 8.152087330818176270e-01
1.736000000000000000e+03 3.394341278076171875e+01 -4.831056594848632812e+00 4.416920185089111328e+00 1.614640617370605469e+01 6.168997764587402344e+00 1.442040920257568359e+00
1.737000000000000000e+03 3.024327850341796875e+01 -4.528557300567626953e+00 3.722187519073486328e+00 4.283853054046630859e+00 2.401812076568603516e+00 -4.260113716125488281e+00
1.738000000000000000e+03 2.731401824951171875e+01 -1.067667961120605469e+01 1.571500182151794434e+00 1.506694912910461426e+00 9.234585165977478027e-01 1.664756655693054199e+00
1.739000000000000000e+03 2.354598236083984375e+01 7.433443069458007812e-01 7.614593505859375000e-01 1.361378312110900879e+00 6.368513107299804688e-01 -9.981414079666137695e-01
1.740000000000000000e+03 2.772900199890136719e+01 -3.274179220199584961e+00 2.040957927703857422e+00 1.623011469841003418e+00 1.099190831184387207e+00 -1.847237348556518555e+00
1.741000000000000000e+03 2.763030052185058594e+01 -2.724375486373901367e+00 2.032572984695434570e+00 1.958047270774841309e+00 1.197186112403869629e+00 -2.015361070632934570e+00
1.742000000000000000e+03 2.174312019348144531e+01 3.209196031093597412e-02 4.083407819271087646e-01 5.248140692710876465e-01 2.799464464187622070e-01 -3.676072955131530762e-01
1.743000000000000000e+03 2.878064537048339844e+01 -1.037602615356445312e+01 2.136220216751098633e+00 2.691147565841674805e+00 1.448210358619689941e+00 2.756884813308715820e+00
1.744000000000000000e+03 2.678464126586914062e+01 -1.068283557891845703e+01 1.380412340164184570e+00 1.197547793388366699e+00 7.733880281448364258e-01 1.324558615684509277e+00
1.745000000000000000e+03 2.275974655151367188e+01 -7.542433142662048340e-01 6.097224354743957520e-01 6.716740131378173828e-01 3.844189345836639404e-01 -4.525085985660552979e-01
1.746000000000000000e+03 5.716741561889648438e+00 4.705044269561767578e+00 9.334387141279876232e-05 5.382414019550196826e-05 4.415040166350081563e-05 -5.090003833174705505e-05
1.747000000000000000e+03 4.822630405426025391e+00 5.349961757659912109e+00 1.552043831907212734e-04 -7.551568705821409822e-05 2.390660847595427185e-05 -1.176670557470060885e-04
1.748000000000000000e+03 8.210186958312988281e+00 6.032273769378662109e+00 9.154278086498379707e-04 -1.481099869124591351e-03 -1.697016123216599226e-04 4.063156302436254919e-05
1.749000000000000000e+03 9.938981056213378906e+00 5.837166786193847656e+00 3.418566193431615829e-04 -5.584065802395343781e-04 -6.496498099295422435e-05 -9.488728828728199005e-04
1.750000000000000000e+03 6.126708984375000000e+00 5.465263843536376953e+00 1.496519253123551607e-04 -1.273335783480433747e-05 4.107557106181047857e-05 -1.802138576749712229e-04
1.751000000000000000e+03 6.352268695831298828e+00 4.788404941558837891e+00 7.201082189567387104e-04 -8.336369064636528492e-04 -3.405861934879794717e-05 7.468345575034618378e-05
1.752000000000000000e+03 2.586207199096679688e+01 -2.653331995010375977e+00 1.342004179954528809e+00 1.005648374557495117e+00 7.042957544326782227e-01 -9.992541670799255371e-01
1.753000000000000000e+03 2.414722824096679688e+01 -1.496192336082458496e+00 9.716212153434753418e-01 8.955813646316528320e-01 5.601607561111450195e-01 -6.988604068756103516e-01
1.754000000000000000e+03 2.644286918640136719e+01 -1.518517494201660156e+00 1.548601269721984863e+00 1.867238521575927734e+00 1.024751901626586914e+00 -1.630214810371398926e+00
1.755000000000000000e+03 2.508060264587402344e+01 -2.066461801528930664e+00 1.165235400199890137e+00 9.604200720787048340e-01 6.376966238021850586e-01 -8.544127345085144043e-01
1.756000000000000000e+03 2.580625152587890625e+01 -2.058925390243530273e+00 1.417491078376770020e+00 1.246108293533325195e+00 7.990798354148864746e-01 -1.180801510810852051e+00
1.757000000000000000e+03 5.241365909576416016e+00 -5.377057075500488281e+00 2.046158770099282265e-04 1.753366232151165605e-04 1.139857486123219132e-04 -2.765249519143253565e-04
1.758000000000000000e+03 2.558890151977539062e+01 -1.076934814453125000e+01 9.546130299568176270e-01 8.020027279853820801e-01 5.269847512245178223e-01 7.540326714515686035e-01
1.759000000000000000e+03 2.566785240173339844e+01 -1.135081863403320312e+01 1.104438900947570801e+00 1.085675358772277832e+00 6.570342779159545898e-01 9.770044088363647461e-01
1.760000000000000000e+03 5.405251979827880859e+00 -6.260146141052246094e+00 5.793497548438608646e-04 -6.621392676606774330e-04 -2.483684693288523704e-05 3.855312024825252593e-05
1.761000000000000000e+03 1.066436767578125000e+01 5.764240264892578125e+00 -3.072303661610931158e-04 1.305216224864125252e-03 2.993957314174622297e-04 1.254667178727686405e-03
1.762000000000000000e+03 2.282504463195800781e+01 -1.188792896270751953e+01 4.496644735336303711e-01 6.367075443267822266e-01 3.259116113185882568e-01 2.155118286609649658e-01
1.763000000000000000e+03 2.434111785888671875e+01 -1.156611442565917969e+01 7.634486556053161621e-01 8.028302788734436035e-01 4.698836803436279297e-01 5.336033701896667480e-01
1.764000000000000000e+03 2.345482635498046875e+01 -1.104890441894531250e+01 4.270218610763549805e-01 5.260769128799438477e-01 2.859296202659606934e-01 1.633970886468887329e-01
1.765000000000000000e+03 2.064145851135253906e+01 -1.363327503204345703e+01 1.943539530038833618e-01 5.589201450347900391e-01 2.259822338819503784e-01 1.542335599660873413e-01
1.766000000000000000e+03 2.502557563781738281e+01 -1.144691944122314453e+01 9.310325384140014648e-01 9.235001802444458008e-01 5.563598275184631348e-01 7.397357225418090820e-01
1.767000000000000000e+03 2.626626396179199219e+01 -1.127618980407714844e+01 1.286579132080078125e+00 1.285197257995605469e+00 7.715328931808471680e-01 1.249441504478454590e+00
1.768000000000000000e+03 2.109955024719238281e+01 -1.234992980957031250e+01 1.748951226472854614e-01 4.661545157432556152e-01 1.923148930072784424e-01 -2.019563456997275352e-03
1.769000000000000000e+03 2.147505950927734375e+01 -1.320100212097167969e+01 3.171174228191375732e-01 6.642664670944213867e-01 2.944151759147644043e-01 1.968002766370773315e-01
1.770000000000000000e+03 1.109267711639404297e+01 6.787895679473876953e+00 -4.021740751340985298e-04 2.000164706259965897e-03 4.793971602339297533e-04 9.149673860520124435e-04
1.771000000000000000e+03 7.722239971160888672e+00 9.659571647644042969e+00 -4.257174441590905190e-05 -3.338844981044530869e-04 -1.129368756664916873e-04 3.138805739581584930e-03
1.772000000000000000e+03 8.209413528442382812e+00 6.919624805450439453e+00 -5.423349211923778057e-04 8.814349421299993992e-04 1.017300019157119095e-04 1.415548729710280895e-03
1.773000000000000000e+03 6.828054904937744141e+00 1.049891757965087891e+01 7.762660970911383629e-04 -2.939017023891210556e-03 -6.488253129646182060e-04 1.782521867426112294e-04
1.774000000000000000e+03 2.188895034790039062e+01 -7.847560048103332520e-01 4.481314420700073242e-01 4.244003891944885254e-01 2.617595493793487549e-01 -2.621483206748962402e-01
1.775000000000000000e+03 2.160937690734863281e+01 1.433204555511474609e+01 2.540919184684753418e-01 2.785060882568359375e+00 9.117458462715148926e-01 -9.637820124626159668e-01
1.776000000000000000e+03 2.295181465148925781e+01 1.853740119934082031e+01 -3.827467933297157288e-02 3.269743204116821289e+00 9.694405794143676758e-01 -8.283762335777282715e-01
1.777000000000000000e+03 2.319666290283203125e+01 6.836522102355957031e+00 3.882725536823272705e-01 2.534040927886962891e+00 8.766940236091613770e-01 -1.432943463325500488e+00
1.778000000000000000e+03 2.160562705993652344e+01 -1.600981521606445312e+01 4.295453429222106934e-01 1.216183185577392578e+00 4.937185645103454590e-01 6.705582141876220703e-01
1.779000000000000000e+03 2.063745498657226562e+01 -1.513127422332763672e+01 2.929512262344360352e-01 7.843250036239624023e-01 3.231828808784484863e-01 3.929759562015533447e-01
1.780000000000000000e+03 6.001737117767333984e+00 2.099043464660644531e+01 -3.444302827119827271e-02 7.341425120830535889e-02 1.169136818498373032e-02 9.363224357366561890e-02
1.781000000000000000e+03 2.368582344055175781e+01 3.332222223281860352e+00 5.251671671867370605e-01 2.075347900390625000e+00 7.801545262336730957e-01 -1.364124059677124023e+00
1.782000000000000000e+03 9.792444229125976562e+00 7.201286315917968750e+00 -9.967111982405185699e-04 2.355548785999417305e-03 4.076512996107339859e-04 2.004613197641447186e-04
1.783000000000000000e+03 7.098809051513671875e+01 -2.627799987792968750e+01 -3.572954982519149780e-02 7.582797527313232422e+00 2.264120340347290039e+00 -3.294831812381744385e-01
1.784000000000000000e+03 7.107466125488281250e+01 -3.088722610473632812e+01 -9.008743613958358765e-02 7.684293746948242188e+00 2.278261899948120117e+00 -2.805144786834716797e-01
1.785000000000000000e+03 7.282164001464843750e+01 -3.214572906494140625e+01 -7.854454219341278076e-02 7.700377464294433594e+00 2.286549806594848633e+00 -2.141942977905273438e-01
1.786000000000000000e+03 8.793951034545898438e+00 3.029763984680175781e+01 4.592114686965942383e-02 7.312388420104980469e-01 2.331479936838150024e-01 -1.327806115150451660e-01
1.787000000000000000e+03 8.905840873718261719e+00 3.244083404541015625e+01 5.715664941817522049e-03 7.919794917106628418e-01 2.393085509538650513e-01 -1.236665993928909302e-01
1.788000000000000000e+03 7.283348846435546875e+01 -2.353183937072753906e+01 6.496017798781394958e-03 7.463164806365966797e+00 2.240898132324218750e+00 -2.922648787498474121e-01
1.789000000000000000e+03 7.218646240234375000e+01 1.508047580718994141e+01 -1.402385160326957703e-02 7.864866733551025391e+00 2.355252981185913086e+00 4.613047838211059570e-01
1.790000000000000000e+03 7.107090759277343750e+01 9.410536766052246094e+00 4.871923476457595825e-02 7.646317958831787109e+00 2.308511018753051758e+00 4.897280931472778320e-01
1.791000000000000000e+03 7.264380645751953125e+01 8.194673538208007812e+00 4.694774001836776733e-02 7.576242446899414062e+00 2.286957025527954102e+00 4.158670604228973389e-01
1.792000000000000000e+03 7.254254150390625000e+01 -1.665575790405273438e+01 7.717555761337280273e-02 7.294577121734619141e+00 2.211525678634643555e+00 -2.320607304573059082e-01
1.793000000000000000e+03 7.253656768798828125e+01 -1.806078338623046875e+01 6.399548053741455078e-02 7.326180458068847656e+00 2.217052936553955078e+00 -2.560259997844696045e-01
1.794000000000000000e+03 7.171788787841796875e+01 -7.050281047821044922e+00 1.652848422527313232e-01 7.224343776702880859e+00 2.216888666152954102e+00 3.570163249969482422e-02
1.795000000000000000e+03 7.290340423583984375e+01 -9.677002906799316406e+00 1.190200373530387878e-01 7.177866458892822266e+00 2.189065933227539062e+00 -4.964846372604370117e-02
1.796000000000000000e+03 7.143407440185546875e+01 3.855688810348510742e+00 1.123475730419158936e-01 7.440871238708496094e+00 2.265965700149536133e+00 3.853704631328582764e-01
1.797000000000000000e+03 7.280051422119140625e+01 -1.101647186279296875e+01 1.167025789618492126e-01 7.191731929779052734e+00 2.192530393600463867e+00 -8.991106599569320679e-02
1.798000000000000000e+03 7.293953704833984375e+01 -2.933071851730346680e+00 1.198532953858375549e-01 7.218786239624023438e+00 2.201591730117797852e+00 1.616871207952499390e-01
1.799000000000000000e+03 7.296733856201171875e+01 -4.305341720581054688e+00 1.225948929786682129e-01 7.196741580963134766e+00 2.195800781250000000e+00 1.186315044760704041e-01
1.800000000000000000e+03 7.411755371093750000e+01 5.517322540283203125e+00 4.783767461776733398e-02 7.431247234344482422e+00 2.243725538253784180e+00 3.195359110832214355e-01
1.801000000000000000e+03 7.421405792236328125e+01 -1.462620615959167480e+00 7.932704687118530273e-02 7.193507194519042969e+00 2.181850194931030273e+00 1.760479956865310669e-01
1.802000000000000000e+03 7.290667724609375000e+01 -1.548543930053710938e+00 1.143920421600341797e-01 7.247362136840820312e+00 2.208526372909545898e+00 2.035504728555679321e-01
1.803000000000000000e+03 7.387570190429687500e+01 1.243134880065917969e+01 6.835626438260078430e-03 7.750362396240234375e+00 2.327159404754638672e+00 3.869832158088684082e-01
1.804000000000000000e+03 7.144125366210937500e+01 2.782438278198242188e+01 -1.026780381798744202e-01 8.272942543029785156e+00 2.451079368591308594e+00 3.242779076099395752e-01
1.805000000000000000e+03 7.262873077392578125e+01 -2.744352340698242188e+01 -3.102677129209041595e-02 7.574983596801757812e+00 2.263186931610107422e+00 -2.822931706905364990e-01
1.806000000000000000e+03 6.137660980224609375e+00 3.496250915527343750e+01 1.748249400407075882e-03 4.204724729061126709e-01 1.266662180423736572e-01 -2.352513931691646576e-02
1.807000000000000000e+03 6.458315372467041016e+00 2.631735992431640625e+01 7.016208767890930176e-02 2.812209427356719971e-01 1.054149121046066284e-01 -9.332651272416114807e-03
1.808000000000000000e+03 1.011297988891601562e+01 2.047443580627441406e+01 4.762053117156028748e-02 2.075703591108322144e-01 7.655727118253707886e-02 -1.990863680839538574e-01
1.809000000000000000e+03 6.404712677001953125e+00 -2.612846565246582031e+01 8.142583072185516357e-02 -2.199686169624328613e-01 -4.156283661723136902e-02 -2.780131101608276367e-01
1.810000000000000000e+03 8.575456619262695312e+00 -2.365031242370605469e+01 7.919894903898239136e-02 -2.136044949293136597e-01 -4.032166302204132080e-02 -3.137034773826599121e-01
1.811000000000000000e+03 6.236193656921386719e+00 -6.430941581726074219e+00 3.391699283383786678e-04 7.963828393258154392e-04 3.406658361200243235e-04 -3.247949643991887569e-05
1.812000000000000000e+03 4.730120182037353516e+00 -7.450081825256347656e+00 7.135996129363775253e-04 -3.121047047898173332e-04 1.204484724439680576e-04 1.167030568467453122e-04
1.813000000000000000e+03 8.824851036071777344e+00 2.750788116455078125e+01 7.361447066068649292e-02 6.201581358909606934e-01 2.081317752599716187e-01 -1.321574598550796509e-01
1.814000000000000000e+03 7.875107765197753906e+00 8.180911064147949219e+00 3.819539051619358361e-05 -3.499120939522981644e-04 -9.351500921184197068e-05 2.027744892984628677e-03
1.815000000000000000e+03 4.836006164550781250e+00 6.334334373474121094e+00 7.099899812601506710e-04 -7.360523450188338757e-04 -7.818710400897543877e-06 -4.595058562699705362e-04
1.816000000000000000e+03 7.368713855743408203e+00 7.424536228179931641e+00 6.738590309396386147e-04 -9.536441066302359104e-04 -8.393552707275375724e-05 -4.063433152623474598e-04
1.817000000000000000e+03 2.517716026306152344e+01 7.685586929321289062e+00 3.114177286624908447e-01 3.418519020080566406e+00 1.118981003761291504e+00 -1.649267435073852539e+00
1.818000000000000000e+03 8.979241371154785156e+00 -2.145987319946289062e+01 -5.045443400740623474e-02 -3.559277951717376709e-01 -1.219146624207496643e-01 -3.846402764320373535e-01
1.819000000000000000e+03 2.306671333312988281e+01 -1.258171367645263672e+01 5.903083682060241699e-01 8.310573697090148926e-01 4.264097213745117188e-01 4.233658015727996826e-01
1.820000000000000000e+03 1.245855331420898438e+01 -2.272749328613281250e+01 1.206777617335319519e-01 1.623410359025001526e-02 4.107356071472167969e-02 -2.903373353183269501e-02
1.821000000000000000e+03 1.370303440093994141e+01 -2.118982124328613281e+01 9.049643762409687042e-03 2.565504796802997589e-02 1.041140779852867126e-02 7.744012027978897095e-02
1.822000000000000000e+03 6.741826629638671875e+01 3.028021621704101562e+01 -2.088021337985992432e-01 8.137300491333007812e+00 2.378549575805664062e+00 3.409804701805114746e-01
1.823000000000000000e+03 1.665224266052246094e+01 -1.913463783264160156e+01 5.364774540066719055e-02 3.860339820384979248e-01 1.319045126438140869e-01 2.785488963127136230e-01
1.824000000000000000e+03 1.954018974304199219e+01 -1.948532676696777344e+01 2.452423125505447388e-01 1.196396470069885254e+00 4.324916303157806396e-01 6.442900896072387695e-01
1.825000000000000000e+03 8.547764778137207031e+00 2.412011146545410156e+01 9.350331872701644897e-02 3.809778988361358643e-01 1.423443555831909180e-01 -8.752375096082687378e-02
1.826000000000000000e+03 1.202223968505859375e+01 2.288256454467773438e+01 8.783791214227676392e-02 8.181627392768859863e-01 2.718001902103424072e-01 -4.004825353622436523e-01
1.827000000000000000e+03 2.198003578186035156e+01 1.178422546386718750e+01 3.756209015846252441e-01 2.658718347549438477e+00 9.103017449378967285e-01 -1.130162835121154785e+00
1.828000000000000000e+03 2.412804412841796875e+01 1.456966018676757812e+01 1.024471893906593323e-01 3.431191205978393555e+00 1.060091495513916016e+00 -1.088755607604980469e+00
1.829000000000000000e+03 2.132952308654785156e+01 -1.451161670684814453e+01 3.564526438713073730e-01 8.531219363212585449e-01 3.628723621368408203e-01 4.003765583038330078e-01
1.830000000000000000e+03 2.033950805664062500e+01 -1.747896766662597656e+01 2.827873229980468750e-01 1.115309596061706543e+00 4.194290935993194580e-01 6.326586604118347168e-01
1.831000000000000000e+03 8.547198295593261719e+00 -3.043170166015625000e+01 1.440558880567550659e-01 7.192151993513107300e-02 6.479322165250778198e-02 -1.091367602348327637e-01
1.832000000000000000e+03 6.452986717224121094e+00 -2.990528488159179688e+01 1.021907329559326172e-01 -1.509610563516616821e-01 -1.463109720498323441e-02 -1.670692265033721924e-01
1.833000000000000000e+03 1.577958202362060547e+01 2.308043861389160156e+01 -6.831855978816747665e-03 1.705294370651245117e+00 5.095387697219848633e-01 -5.617396831512451172e-01
1.834000000000000000e+03 1.409388828277587891e+01 2.233774375915527344e+01 3.530044108629226685e-02 1.273264288902282715e+00 3.925694227218627930e-01 -5.122280120849609375e-01
1.835000000000000000e+03 2.422908020019531250e+01 7.305367469787597656e+00 3.594469428062438965e-01 3.018045663833618164e+00 1.013247728347778320e+00 -1.563136458396911621e+00
1.836000000000000000e+03 1.662891960144042969e+01 -2.078678703308105469e+01 1.565896868705749512e-01 5.759570002555847168e-01 2.197639942169189453e-01 3.835771381855010986e-01
1.837000000000000000e+03 7.259677124023437500e+01 -2.226802062988281250e+01 1.784823276102542877e-02 7.433581829071044922e+00 2.235429048538208008e+00 -2.915318906307220459e-01
1.838000000000000000e+03 6.727027416229248047e+00 2.250400733947753906e+01 5.362034216523170471e-02 1.345278769731521606e-01 5.644446611404418945e-02 3.503636270761489868e-02
1.839000000000000000e+03 7.242844390869140625e+01 -1.522446060180664062e+01 9.437282383441925049e-02 7.269105911254882812e+00 2.209043741226196289e+00 -2.056374996900558472e-01
1.840000000000000000e+03 7.203713226318359375e+01 2.050524902343750000e+01 -5.740953981876373291e-02 8.080656051635742188e+00 2.406973838806152344e+00 4.213815033435821533e-01
1.841000000000000000e+03 7.132377624511718750e+01 6.640456676483154297e+00 8.228228241205215454e-02 7.538976669311523438e+00 2.286377668380737305e+00 4.453281164169311523e-01
1.842000000000000000e+03 7.232287597656250000e+01 1.367282390594482422e+01 -1.045287586748600006e-03 7.806782245635986328e+00 2.341721057891845703e+00 4.569314122200012207e-01
1.843000000000000000e+03 7.400105953216552734e+00 -2.921293640136718750e+01 1.347604840993881226e-01 -6.922952830791473389e-02 1.965928450226783752e-02 -1.593885570764541626e-01
1.844000000000000000e+03 1.112938404083251953e+01 -2.418570899963378906e+01 1.742224097251892090e-01 2.439593430608510971e-03 5.299860239028930664e-02 -1.327243447303771973e-01
1.845000000000000000e+03 7.159980773925781250e+01 2.971402168273925781e+01 -9.983859956264495850e-02 8.338392257690429688e+00 2.471565961837768555e+00 2.783918678760528564e-01
1.846000000000000000e+03 3.100298881530761719e+01 -9.701711654663085938e+00 2.317207098007202148e+00 8.118183135986328125e+00 3.130616903305053711e+00 4.950487136840820312e+00
1.847000000000000000e+03 3.144274520874023438e+01 -9.424296379089355469e+00 2.167262792587280273e+00 1.032972526550292969e+01 3.749096393585205078e+00 5.243813991546630859e+00
1.848000000000000000e+03 3.148136520385742188e+01 -9.738320350646972656e+00 1.786875963211059570e+00 1.017485046386718750e+01 3.588517904281616211e+00 4.805635929107666016e+00
1.849000000000000000e+03 3.367451477050781250e+01 -4.238427639007568359e+00 2.605925798416137695e+00 1.585044288635253906e+01 5.536910533905029297e+00 1.735633015632629395e-01
1.850000000000000000e+03 3.216383743286132812e+01 -9.923366546630859375e+00 1.118989825248718262e+00 1.259267520904541016e+01 4.113499164581298828e+00 3.725410223007202148e+00
1.851000000000000000e+03 3.246622085571289062e+01 -9.567226409912109375e+00 1.161361098289489746e+00 1.430027389526367188e+01 4.638490200042724609e+00 3.143055200576782227e+00
1.852000000000000000e+03 2.887790107727050781e+01 -9.863116264343261719e+00 2.193803071975708008e+00 2.281676292419433594e+00 1.342643737792968750e+00 2.636612415313720703e+00
1.853000000000000000e+03 2.843346023559570312e+01 -9.741007804870605469e+00 1.968148112297058105e+00 1.657447099685668945e+00 1.087678551673889160e+00 2.126585006713867188e+00
1.854000000000000000e+03 3.205407333374023438e+01 -4.540148735046386719e+00 2.189121723175048828e+00 1.437860298156738281e+01 4.970317363739013672e+00 -4.770375728607177734e+00
1.855000000000000000e+03 3.517133712768554688e+01 -6.972444057464599609e+00 8.340549468994140625e+00 1.251226329803466797e+01 6.255844116210937500e+00 -4.752877354621887207e-01
1.856000000000000000e+03 3.476041412353515625e+01 -6.487992286682128906e+00 9.059792518615722656e+00 1.333778667449951172e+01 6.719273567199707031e+00 4.536796510219573975e-01
1.857000000000000000e+03 3.388874053955078125e+01 -8.729593276977539062e+00 3.870927095413208008e+00 1.628094482421875000e+01 6.045561313629150391e+00 -1.411624312400817871e+00
1.858000000000000000e+03 3.337833786010742188e+01 -4.300671100616455078e+00 2.329249858856201172e+00 1.626450729370117188e+01 5.578127384185791016e+00 -3.596077263355255127e-01
1.859000000000000000e+03 3.340896606445312500e+01 -9.603709220886230469e+00 1.535866618156433105e+00 1.537061405181884766e+01 5.071944236755371094e+00 5.983542203903198242e-01
1.860000000000000000e+03 3.448068237304687500e+01 -8.466614723205566406e+00 5.451882839202880859e+00 1.478641033172607422e+01 6.071487903594970703e+00 -2.114584207534790039e+00
1.861000000000000000e+03 3.469094467163085938e+01 -5.681317806243896484e+00 7.439503192901611328e+00 1.395606899261474609e+01 6.418671607971191406e+00 1.734711050987243652e+00
1.862000000000000000e+03 3.418722915649414062e+01 -8.621684074401855469e+00 4.678359031677246094e+00 1.551402568817138672e+01 6.057715415954589844e+00 -1.849001288414001465e+00
1.863000000000000000e+03 3.486122512817382812e+01 -7.639160156250000000e+00 7.811254978179931641e+00 1.346055698394775391e+01 6.381543636322021484e+00 -1.649524927139282227e+00
1.864000000000000000e+03 3.426528167724609375e+01 -4.517845153808593750e+00 3.898208618164062500e+00 1.512878608703613281e+01 5.708098411560058594e+00 1.365906238555908203e+00
1.865000000000000000e+03 2.804776954650878906e+01 -2.201635122299194336e+00 1.994287371635437012e+00 2.752877235412597656e+00 1.424149394035339355e+00 -2.420201063156127930e+00
1.866000000000000000e+03 2.896935081481933594e+01 -3.773715019226074219e+00 2.677374601364135742e+00 2.463904857635498047e+00 1.542383790016174316e+00 -2.742487907409667969e+00
1.867000000000000000e+03 2.832598876953125000e+01 -3.193030595779418945e+00 2.300285339355468750e+00 2.277506828308105469e+00 1.373337626457214355e+00 -2.390039443969726562e+00
1.868000000000000000e+03 3.028362846374511719e+01 -9.435245513916015625e+00 2.838216304779052734e+00 4.927075862884521484e+00 2.329587459564208984e+00 4.349076747894287109e+00
1.869000000000000000e+03 2.785826110839843750e+01 -1.019199752807617188e+01 1.734500169754028320e+00 1.549152255058288574e+00 9.850957393646240234e-01 1.858720541000366211e+00
1.870000000000000000e+03 2.731504821777343750e+01 -1.119725418090820312e+01 1.610283970832824707e+00 1.857011437416076660e+00 1.040188670158386230e+00 1.837896704673767090e+00
1.871000000000000000e+03 2.870651054382324219e+01 -1.086555862426757812e+01 1.976397514343261719e+00 3.058859109878540039e+00 1.510576963424682617e+00 2.812890768051147461e+00
1.872000000000000000e+03 2.410359954833984375e+01 2.852370738983154297e-01 9.002366662025451660e-01 1.415271997451782227e+00 6.946526169776916504e-01 -1.070651054382324219e+00
1.873000000000000000e+03 2.456767654418945312e+01 -1.182743549346923828e+00 1.063898682594299316e+00 1.133104801177978516e+00 6.591010689735412598e-01 -9.133372902870178223e-01
1.874000000000000000e+03 2.756722640991210938e+01 -2.190229892730712891e+00 1.925176620483398438e+00 2.328323841094970703e+00 1.276050090789794922e+00 -2.156631946563720703e+00
1.875000000000000000e+03 9.116580009460449219e+00 5.978506565093994141e+00 -5.049689207226037979e-04 1.208397210575640202e-03 2.110284840455278754e-04 1.090092468075454235e-03
1.876000000000000000e+03 6.234092712402343750e+00 6.433702468872070312e+00 3.592066059354692698e-04 -3.086477809119969606e-04 1.516764496045652777e-05 -2.180821611545979977e-04
1.877000000000000000e+03 2.303521919250488281e+01 3.498505055904388428e-02 6.809183359146118164e-01 9.671372175216674805e-01 4.944166541099548340e-01 -6.980457901954650879e-01
1.878000000000000000e+03 2.349277305603027344e+01 -8.911628127098083496e-01 7.943571805953979492e-01 8.822082877159118652e-01 5.029696226119995117e-01 -6.508266329765319824e-01
1.879000000000000000e+03 2.780386543273925781e+01 -1.070385646820068359e+01 1.765949606895446777e+00 1.895613074302673340e+00 1.098468780517578125e+00 2.014164686203002930e+00
1.880000000000000000e+03 2.681397628784179688e+01 -1.122412490844726562e+01 1.448844552040100098e+00 1.542736053466796875e+00 8.974741697311401367e-01 1.535967826843261719e+00
1.881000000000000000e+03 6.987819194793701172e+00 -7.014763832092285156e+00 4.141178505960851908e-04 -8.705124491825699806e-04 -1.369183737551793456e-04 -6.555892759934067726e-04
1.882000000000000000e+03 2.644193267822265625e+01 -2.104946136474609375e+00 1.594578742980957031e+00 1.542063951492309570e+00 9.409928321838378906e-01 -1.477723240852355957e+00
1.883000000000000000e+03 2.514185714721679688e+01 -1.350023269653320312e+00 1.213650822639465332e+00 1.265237927436828613e+00 7.436666488647460938e-01 -1.079518914222717285e+00
1.884000000000000000e+03 2.702811622619628906e+01 -2.156947135925292969e+00 1.775577187538146973e+00 1.891428470611572266e+00 1.100101709365844727e+00 -1.805872440338134766e+00
1.885000000000000000e+03 2.581921386718750000e+01 -1.422573924064636230e+00 1.387269735336303711e+00 1.516323328018188477e+00 8.710778951644897461e-01 -1.347661495208740234e+00
1.886000000000000000e+03 2.516534996032714844e+01 -1.204997253417968750e+01 1.038501977920532227e+00 1.208158016204833984e+00 6.739979982376098633e-01 9.571828842163085938e-01
1.887000000000000000e+03 6.884188175201416016e+00 6.770822525024414062e+00 4.620727268047630787e-04 -7.956675835885107517e-04 -1.000784614006988704e-04 1.153093529865145683e-03
1.888000000000000000e+03 2.450764465332031250e+01 -1.219369697570800781e+01 8.871728777885437012e-01 1.049652099609375000e+00 5.810474753379821777e-01 7.494743466377258301e-01
1.889000000000000000e+03 2.360728073120117188e+01 -1.171201419830322266e+01 6.029918789863586426e-01 7.068241238594055176e-01 3.929448127746582031e-01 3.601454496383666992e-01
1.890000000000000000e+03 2.199116897583007812e+01 -1.209938907623291016e+01 3.032406866550445557e-01 5.602171421051025391e-01 2.590373456478118896e-01 8.871737122535705566e-02
1.891000000000000000e+03 8.159921646118164062e+00 -5.232911586761474609e+00 9.902012243401259184e-05 -1.108332071453332901e-03 -3.027935745194554329e-04 3.455174446571618319e-04
1.892000000000000000e+03 2.578239250183105469e+01 -1.193343353271484375e+01 1.190987110137939453e+00 1.400258898735046387e+00 7.773737907409667969e-01 1.197901606559753418e+00
1.893000000000000000e+03 2.228652572631835938e+01 -1.285153198242187500e+01 4.464800655841827393e-01 7.597306966781616211e-01 3.618632256984710693e-01 3.027498126029968262e-01
1.894000000000000000e+03 2.314267539978027344e+01 1.214177036285400391e+01 2.868582606315612793e-01 3.026717901229858398e+00 9.940728545188903809e-01 -1.204626083374023438e+00
1.895000000000000000e+03 2.259911346435546875e+01 9.257276535034179688e+00 3.878916203975677490e-01 2.595448255538940430e+00 8.950020074844360352e-01 -1.306456446647644043e+00
1.896000000000000000e+03 2.292208862304687500e+01 1.239121913909912109e+00 6.281406283378601074e-01 1.249065995216369629e+00 5.631619691848754883e-01 -9.232637286186218262e-01
1.897000000000000000e+03 5.676528453826904297e+00 6.032123565673828125e+00 5.227678921073675156e-04 -5.481811240315437317e-04 -7.623975307069486007e-06 2.979838463943451643e-04
1.898000000000000000e+03 7.256661987304687500e+01 9.569675445556640625e+00 3.450346738100051880e-02 7.633956909179687500e+00 2.300538063049316406e+00 4.315893650054931641e-01
1.899000000000000000e+03 7.276409149169921875e+01 5.403076171875000000e+00 7.086161524057388306e-02 7.462483406066894531e+00 2.260003566741943359e+00 3.710702061653137207e-01
1.900000000000000000e+03 2.470970344543457031e+01 -1.282127094268798828e+01 9.538518190383911133e-01 1.337998270988464355e+00 6.875550746917724609e-01 9.596131443977355957e-01
1.901000000000000000e+03 2.510268402099609375e+01 8.660998344421386719e+00 2.693364322185516357e-01 3.507322072982788086e+00 1.132997512817382812e+00 -1.573311209678649902e+00
1.902000000000000000e+03 7.296391296386718750e+01 -8.340313911437988281e+00 1.210618242621421814e-01 7.172126770019531250e+00 2.187956571578979492e+00 -8.638212457299232483e-03
1.903000000000000000e+03 2.460555267333984375e+01 3.954744815826416016e+00 5.566298961639404297e-01 2.661182403564453125e+00 9.653437137603759766e-01 -1.623598694801330566e+00
1.904000000000000000e+03 7.282128143310546875e+01 2.609593152999877930e+00 9.106141328811645508e-02 7.363156795501708984e+00 2.236265420913696289e+00 3.128558099269866943e-01
1.905000000000000000e+03 7.148718261718750000e+01 1.090174674987792969e+00 1.367222964763641357e-01 7.359782695770263672e+00 2.248951673507690430e+00 3.133833706378936768e-01
1.906000000000000000e+03 7.044280242919921875e+01 -4.509736061096191406e+00 2.135601937770843506e-01 7.285088539123535156e+00 2.249594688415527344e+00 1.415318846702575684e-01
1.907000000000000000e+03 7.245342254638671875e+01 -2.089261817932128906e+01 2.975611574947834015e-02 7.403205394744873047e+00 2.229888439178466797e+00 -2.885253131389617920e-01
1.908000000000000000e+03 1.987227249145507812e+01 -1.843236732482910156e+01 2.963629961013793945e-01 1.156169414520263672e+00 4.357597231864929199e-01 6.484466791152954102e-01
1.909000000000000000e+03 2.505067634582519531e+01 5.380617141723632812e+00 4.403422772884368896e-01 3.116819143295288086e+00 1.067148447036743164e+00 -1.704091072082519531e+00
1.910000000000000000e+03 6.863203430175781250e+01 3.586152315139770508e+00 1.889413595199584961e-01 7.488987922668457031e+00 2.303378820419311523e+00 4.586765170097351074e-01
1.911000000000000000e+03 7.171485137939453125e+01 -5.738435745239257812e+00 1.665913462638854980e-01 7.231627464294433594e+00 2.219465732574462891e+00 8.260439336299896240e-02
1.912000000000000000e+03 7.552019596099853516e+00 2.483386421203613281e+01 8.157435059547424316e-02 3.183134496212005615e-01 1.199663355946540833e-01 -3.409744054079055786e-02
1.913000000000000000e+03 6.279690265655517578e+00 2.350215339660644531e+01 7.115790992975234985e-02 1.749962568283081055e-01 7.384625077247619629e-02 2.699854224920272827e-02
1.914000000000000000e+03 7.367314910888671875e+01 2.365139579772949219e+01 -5.419970676302909851e-02 8.238319396972656250e+00 2.455235958099365234e+00 3.269010484218597412e-01
1.915000000000000000e+03 7.175113677978515625e+01 -2.398282432556152344e+01 -6.515553686767816544e-03 7.513088226318359375e+00 2.251971721649169922e+00 -3.199850320816040039e-01
1.916000000000000000e+03 7.251578521728515625e+01 -2.605442619323730469e+01 -2.108626067638397217e-02 7.541384696960449219e+00 2.256089687347412109e+00 -2.903537452220916748e-01
1.917000000000000000e+03 7.123470306396484375e+01 -1.672172355651855469e+01 1.018106713891029358e-01 7.336101055145263672e+00 2.231373548507690430e+00 -2.595532536506652832e-01
1.918000000000000000e+03 7.095224761962890625e+01 1.077762126922607422e+01 3.239328786730766296e-02 7.696874618530273438e+00 2.318780422210693359e+00 5.024182200431823730e-01
1.919000000000000000e+03 7.150413513183593750e+01 -1.090143489837646484e+01 1.574126929044723511e-01 7.241060256958007812e+00 2.219541788101196289e+00 -9.678978472948074341e-02
1.920000000000000000e+03 7.159487152099609375e+01 -1.664573311805725098e+00 1.557704508304595947e-01 7.292492866516113281e+00 2.234478950500488281e+00 2.272868454456329346e-01
1.921000000000000000e+03 7.084015655517578125e+01 1.349518203735351562e+01 -3.455781552474945784e-04 7.800013065338134766e+00 2.339900255203247070e+00 5.168828964233398438e-01
1.922000000000000000e+03 7.090177154541015625e+01 1.213974475860595703e+01 1.732332818210124969e-02 7.745851993560791016e+00 2.328952550888061523e+00 5.117424726486206055e-01
1.923000000000000000e+03 7.244720458984375000e+01 -1.377562236785888672e+01 1.085667312145233154e-01 7.242381572723388672e+00 2.205284595489501953e+00 -1.726738214492797852e-01
1.924000000000000000e+03 1.282855796813964844e+01 2.898125839233398438e+01 4.375358577817678452e-03 1.327118992805480957e+00 3.994483053684234619e-01 -2.866138219833374023e-01
1.925000000000000000e+03 6.952094268798828125e+01 2.790902137756347656e+01 -1.370350122451782227e-01 8.194635391235351562e+00 2.417280197143554688e+00 3.638148009777069092e-01
1.926000000000000000e+03 7.263561248779296875e+01 2.181783866882324219e+01 -4.625102505087852478e-02 8.145301818847656250e+00 2.429715156555175781e+00 3.754134476184844971e-01
1.927000000000000000e+03 2.460410118103027344e+01 6.292000770568847656e+00 3.947402536869049072e-01 3.033168077468872070e+00 1.028372526168823242e+00 -1.639458417892456055e+00
1.928000000000000000e+03 2.556043052673339844e+01 6.801032066345214844e+00 3.350124061107635498e-01 3.509975433349609375e+00 1.153496384620666504e+00 -1.709121465682983398e+00
1.929000000000000000e+03 7.140615844726562500e+01 -2.791880416870117188e+01 -4.840907081961631775e-02 7.611073017120361328e+00 2.268799304962158203e+00 -3.031893074512481689e-01
1.930000000000000000e+03 2.353210067749023438e+01 1.367870140075683594e+01 1.768086999654769897e-01 3.253048419952392578e+00 1.028957128524780273e+00 -1.111459732055664062e+00
1.931000000000000000e+03 2.273217391967773438e+01 1.320956993103027344e+01 2.621203660964965820e-01 2.995796918869018555e+00 9.773752093315124512e-01 -1.103907704353332520e+00
1.932000000000000000e+03 7.287340545654296875e+01 -1.636646836996078491e-01 1.078695058822631836e-01 7.281438827514648438e+00 2.216792583465576172e+00 2.429079413414001465e-01
1.933000000000000000e+03 7.145517730712890625e+01 2.471169948577880859e+00 1.245448216795921326e-01 7.398651599884033203e+00 2.256958961486816406e+00 3.509293198585510254e-01
1.934000000000000000e+03 9.689829826354980469e+00 2.211795043945312500e+01 9.953876584768295288e-02 3.669812679290771484e-01 1.399560123682022095e-01 -1.585795879364013672e-01
1.935000000000000000e+03 1.068042755126953125e+01 2.374526977539062500e+01 1.066608875989913940e-01 6.184250116348266602e-01 2.175257802009582520e-01 -2.499005049467086792e-01
1.936000000000000000e+03 9.895334243774414062e+00 2.654272270202636719e+01 1.011071652173995972e-01 7.209432125091552734e-01 2.466151118278503418e-01 -1.920518726110458374e-01
1.937000000000000000e+03 7.298851013183593750e+01 -7.005348682403564453e+00 1.226797103881835938e-01 7.172980785369873047e+00 2.188698053359985352e+00 3.257973492145538330e-02
1.938000000000000000e+03 1.927520942687988281e+01 2.200526809692382812e+01 -8.277516067028045654e-02 2.495051383972167969e+00 7.236828804016113281e-01 -6.355658769607543945e-01
1.939000000000000000e+03 6.978422546386718750e+01 7.805597782135009766e+00 8.737896382808685303e-02 7.604285717010498047e+00 2.307499408721923828e+00 5.159233212471008301e-01
1.940000000000000000e+03 7.121070861816406250e+01 8.031624794006347656e+00 6.575386226177215576e-02 7.592023849487304688e+00 2.297333240509033203e+00 4.702634513378143311e-01
1.941000000000000000e+03 1.525842380523681641e+01 -2.637279510498046875e+01 2.540847361087799072e-01 8.762176632881164551e-01 3.390907347202301025e-01 3.112345635890960693e-01
1.942000000000000000e+03 7.110139465332031250e+01 -1.546376895904541016e+01 1.203755140304565430e-01 7.317539215087890625e+00 2.231374263763427734e+00 -2.353188097476959229e-01
1.943000000000000000e+03 7.071990203857421875e+01 1.484449768066406250e+01 -1.726501993834972382e-02 7.847943305969238281e+00 2.349203348159790039e+00 5.162743926048278809e-01
1.944000000000000000e+03 1.810511779785156250e+01 -2.074724578857421875e+01 1.906166225671768188e-01 9.324789047241210938e-01 3.369286656379699707e-01 5.292750000953674316e-01
1.945000000000000000e+03 6.900607299804687500e+01 -2.079802513122558594e+01 6.572291254997253418e-02 7.497853755950927734e+00 2.269073009490966797e+00 -3.753673732280731201e-01
1.946000000000000000e+03 2.052780723571777344e+01 2.129726600646972656e+01 -9.634728729724884033e-02 2.783061742782592773e+00 8.060142993927001953e-01 -6.821045279502868652e-01
1.947000000000000000e+03 2.224573516845703125e+01 1.705223083496093750e+01 7.178268581628799438e-02 3.068261384963989258e+00 9.420132040977478027e-01 -8.791642189025878906e-01
1.948000000000000000e+03 7.002899169921875000e+01 1.764264869689941406e+01 -5.589446797966957092e-02 7.936650276184082031e+00 2.364226818084716797e+00 5.222176313400268555e-01
1.949000000000000000e+03 9.774835586547851562e+00 -2.417997360229492188e+01 1.331926733255386353e-01 -1.338682919740676880e-01 -2.026830916292965412e-04 -2.146518975496292114e-01
1.950000000000000000e+03 8.849784851074218750e+00 3.506388854980468750e+01 -1.321094948798418045e-02 8.595273494720458984e-01 2.538949251174926758e-01 -8.254240453243255615e-02
1.951000000000000000e+03 7.917520999908447266e+00 2.613803482055664062e+01 8.701201528310775757e-02 4.396449625492095947e-01 1.579971015453338623e-01 -6.986109912395477295e-02
1.952000000000000000e+03 6.762328338623046875e+01 -2.665256309509277344e+01 -6.245386227965354919e-02 7.660192012786865234e+00 2.279321432113647461e+00 -4.074613153934478760e-01
1.953000000000000000e+03 1.955054473876953125e+01 -2.076103210449218750e+01 2.432601004838943481e-01 1.283382892608642578e+00 4.579928815364837646e-01 6.789389252662658691e-01
1.954000000000000000e+03 2.367627525329589844e+01 -1.392181682586669922e+01 7.503238320350646973e-01 1.331197023391723633e+00 6.244562268257141113e-01 8.415114879608154297e-01
1.955000000000000000e+03 7.247285461425781250e+01 -2.868458366394042969e+01 -4.607871547341346741e-02 7.614297389984130859e+00 2.270465612411499023e+00 -2.754173576831817627e-01
1.956000000000000000e+03 9.135383605957031250e+00 2.539843750000000000e+01 1.000091359019279480e-01 5.834783315658569336e-01 2.050462514162063599e-01 -1.576671153306961060e-01
1.957000000000000000e+03 2.303818702697753906e+01 1.523799896240234375e+01 1.319089829921722412e-01 3.179594755172729492e+00 9.934511780738830566e-01 -9.963232874870300293e-01
1.958000000000000000e+03 9.799610137939453125e+00 -3.221584701538085938e+01 1.447636187076568604e-01 3.311718404293060303e-01 1.427806466817855835e-01 -2.949729561805725098e-02
1.959000000000000000e+03 1.240960788726806641e+01 -2.557124519348144531e+01 2.493358999490737915e-01 2.950751185417175293e-01 1.633232980966567993e-01 1.931360177695751190e-02
1.960000000000000000e+03 8.028220176696777344e+00 -2.794336700439453125e+01 1.668306887149810791e-01 -6.738588213920593262e-02 2.983344346284866333e-02 -1.785314381122589111e-01
1.961000000000000000e+03 3.108099365234375000e+01 -3.598011970520019531e+00 2.358176231384277344e+00 8.626025199890136719e+00 3.295260429382324219e+00 -4.754836559295654297e+00
1.962000000000000000e+03 3.168272018432617188e+01 -9.517076492309570312e+00 1.776606917381286621e+00 1.147236061096191406e+01 3.974690437316894531e+00 4.847909927368164062e+00
1.963000000000000000e+03 3.192072486877441406e+01 -9.746459007263183594e+00 1.390847086906433105e+00 1.208109855651855469e+01 4.041583538055419922e+00 4.307088851928710938e+00
1.964000000000000000e+03 3.179621505737304688e+01 -3.744613647460937500e+00 1.835893988609313965e+00 1.167548274993896484e+01 4.053412914276123047e+00 -4.489526748657226562e+00
1.965000000000000000e+03 3.272472381591796875e+01 -3.956543445587158203e+00 1.549784779548645020e+00 1.483286571502685547e+01 4.914795398712158203e+00 -2.388165473937988281e+00
1.966000000000000000e+03 3.224467468261718750e+01 -4.193344116210937500e+00 1.800632119178771973e+00 1.439855480194091797e+01 4.859755992889404297e+00 -3.912012100219726562e+00
1.967000000000000000e+03 3.270520782470703125e+01 -9.730148315429687500e+00 1.046535730361938477e+00 1.452746486663818359e+01 4.672200202941894531e+00 2.432314395904541016e+00
1.968000000000000000e+03 3.548562240600585938e+01 -6.826261520385742188e+00 7.892283916473388672e+00 1.206902503967285156e+01 5.988392829895019531e+00 -1.721751689910888672e-01
1.969000000000000000e+03 3.407719802856445312e+01 -4.293788909912109375e+00 3.247865438461303711e+00 1.516913604736328125e+01 5.525100231170654297e+00 9.380472302436828613e-01
1.970000000000000000e+03 3.295338439941406250e+01 -9.673518180847167969e+00 1.154659628868103027e+00 1.498397064208984375e+01 4.841588973999023438e+00 1.848343014717102051e+00
1.971000000000000000e+03 2.833437919616699219e+01 -1.026818370819091797e+01 1.952505707740783691e+00 2.050855159759521484e+00 1.201008319854736328e+00 2.283008098602294922e+00
1.972000000000000000e+03 3.439916992187500000e+01 -8.950263977050781250e+00 3.949210405349731445e+00 1.481979846954345703e+01 5.630702972412109375e+00 -1.654163241386413574e+00
1.973000000000000000e+03 3.310124206542968750e+01 -4.308933734893798828e+00 2.024131298065185547e+00 1.633837127685546875e+01 5.508750915527343750e+00 -1.145757675170898438e+00
1.974000000000000000e+03 3.534138488769531250e+01 -6.120770931243896484e+00 7.709243297576904297e+00 1.238813400268554688e+01 6.029213428497314453e+00 8.996275067329406738e-01
1.975000000000000000e+03 3.473362731933593750e+01 -5.124742031097412109e+00 5.894002437591552734e+00 1.408688735961914062e+01 5.994266986846923828e+00 1.876739025115966797e+00
1.976000000000000000e+03 3.376236343383789062e+01 -3.875819921493530273e+00 2.078322887420654297e+00 1.512912940979003906e+01 5.162235736846923828e+00 -6.777659058570861816e-02
1.977000000000000000e+03 3.027523422241210938e+01 -4.250599861145019531e+00 3.478072166442871094e+00 4.935528278350830078e+00 2.524080038070678711e+00 -4.458104133605957031e+00
1.978000000000000000e+03 2.815677642822265625e+01 -2.657489299774169922e+00 2.190064191818237305e+00 2.548276185989379883e+00 1.421502113342285156e+00 -2.444396972656250000e+00
1.979000000000000000e+03 3.079924583435058594e+01 -1.002717304229736328e+01 2.189759492874145508e+00 7.293119907379150391e+00 2.844863891601562500e+00 4.601356983184814453e+00
1.980000000000000000e+03 2.929674530029296875e+01 -1.000453948974609375e+01 2.385321378707885742e+00 3.139549970626831055e+00 1.657461404800415039e+00 3.196424722671508789e+00
1.981000000000000000e+03 2.408403778076171875e+01 -1.000981211662292480e+00 9.031336903572082520e-01 1.036020636558532715e+00 5.817462801933288574e-01 -7.818192243576049805e-01
1.982000000000000000e+03 2.508451271057128906e+01 1.046539098024368286e-01 1.088591098785400391e+00 1.814345598220825195e+00 8.708810210227966309e-01 -1.379814624786376953e+00
1.983000000000000000e+03 2.688376235961914062e+01 -1.176549243927001953e+01 1.474026799201965332e+00 1.905457496643066406e+00 1.013845324516296387e+00 1.733776450157165527e+00
1.984000000000000000e+03 2.525236701965332031e+01 -6.178615093231201172e-01 1.203754425048828125e+00 1.644943714141845703e+00 8.546094894409179688e-01 -1.313711166381835938e+00
1.985000000000000000e+03 3.138095855712890625e+01 -3.620526552200317383e+00 2.109838247299194336e+00 9.941356658935546875e+00 3.615358352661132812e+00 -4.714224815368652344e+00
1.986000000000000000e+03 2.847641372680664062e+01 -2.334586381912231445e+00 2.166291236877441406e+00 3.109530210494995117e+00 1.582746505737304688e+00 -2.746834993362426758e+00
1.987000000000000000e+03 2.705268096923828125e+01 -1.075832366943359375e+00 1.605645298957824707e+00 2.524430990219116211e+00 1.239022850990295410e+00 -2.040957450866699219e+00
1.988000000000000000e+03 2.702128601074218750e+01 -1.601996898651123047e+00 1.696310281753540039e+00 2.227560758590698242e+00 1.177161335945129395e+00 -1.954796552658081055e+00
1.989000000000000000e+03 2.651017951965332031e+01 -9.471170902252197266e-01 1.488580107688903809e+00 2.203447580337524414e+00 1.107608318328857422e+00 -1.804357171058654785e+00
1.990000000000000000e+03 2.777930641174316406e+01 -1.119864273071289062e+01 1.726863384246826172e+00 2.232609987258911133e+00 1.187842011451721191e+00 2.158835411071777344e+00
1.991000000000000000e+03 2.635868453979492188e+01 -1.183899402618408203e+01 1.334681987762451172e+00 1.635060667991638184e+00 8.909227848052978516e-01 1.460028886795043945e+00
1.992000000000000000e+03 7.391807079315185547e+00 5.946445941925048828e+00 -2.179609728045761585e-04 6.228596321307122707e-04 1.214696021634154022e-04 -1.220204012497561052e-05
1.993000000000000000e+03 9.010586738586425781e+00 6.858942031860351562e+00 1.023827469907701015e-03 -1.997458050027489662e-03 -2.920891565736383200e-04 2.838440705090761185e-04
1.994000000000000000e+03 2.380687713623046875e+01 -1.236896896362304688e+01 7.357662320137023926e-01 9.276647567749023438e-01 4.990292787551879883e-01 5.704957842826843262e-01
1.995000000000000000e+03 2.533622741699218750e+01 -1.265079498291015625e+01 1.089918494224548340e+00 1.522472977638244629e+00 7.837174534797668457e-01 1.170753717422485352e+00
1.996000000000000000e+03 2.404912567138671875e+01 -1.302316474914550781e+01 8.249121308326721191e-01 1.183793544769287109e+00 6.026116609573364258e-01 7.835625410079956055e-01
1.997000000000000000e+03 2.554291152954101562e+01 4.524536609649658203e+00 5.029866695404052734e-01 3.244044542312622070e+00 1.124109387397766113e+00 -1.784985423088073730e+00
1.998000000000000000e+03 2.197837829589843750e+01 -1.396715259552001953e+01 4.460955262184143066e-01 9.407443404197692871e-01 4.160519540309906006e-01 4.461874365806579590e-01
1.999000000000000000e+03 2.220407485961914062e+01 -1.525755214691162109e+01 5.110254883766174316e-01 1.261590719223022461e+00 5.317848920822143555e-01 6.984918713569641113e-01
2.000000000000000000e+03 6.925006103515625000e+01 -4.636386871337890625e+00 2.635218799114227295e-01 7.317438125610351562e+00 2.274287939071655273e+00 1.489170044660568237e-01
2.001000000000000000e+03 6.466637134552001953e+00 8.058878898620605469e+00 2.625155320856720209e-04 -4.594227939378470182e-04 -5.907217928324826062e-05 1.196482684463262558e-03
2.002000000000000000e+03 2.432246208190917969e+01 -1.368275833129882812e+01 8.586503863334655762e-01 1.489115715026855469e+00 7.043298482894897461e-01 9.897831678390502930e-01
2.003000000000000000e+03 7.046193695068359375e+01 -7.095878124237060547e+00 2.105691730976104736e-01 7.268460750579833984e+00 2.243709087371826172e+00 3.683055564761161804e-02
2.004000000000000000e+03 2.353544425964355469e+01 1.954090476036071777e+00 6.568760871887207031e-01 1.673259854316711426e+00 6.990407705307006836e-01 -1.178713560104370117e+00
2.005000000000000000e+03 7.139734649658203125e+01 5.245411396026611328e+00 9.782008826732635498e-02 7.488083362579345703e+00 2.275771141052246094e+00 4.173391461372375488e-01
2.006000000000000000e+03 7.004940795898437500e+01 3.699652910232543945e+00 1.474957317113876343e-01 7.467283725738525391e+00 2.284433841705322266e+00 4.233892858028411865e-01
2.007000000000000000e+03 2.511065101623535156e+01 9.912734985351562500e+00 2.238150984048843384e-01 3.584949970245361328e+00 1.142629504203796387e+00 -1.482382178306579590e+00
2.008000000000000000e+03 2.427667617797851562e+01 2.588906526565551758e+00 6.696841716766357422e-01 2.170577526092529297e+00 8.520785570144653320e-01 -1.438729286193847656e+00
2.009000000000000000e+03 2.369857406616210938e+01 -2.679605782032012939e-01 8.219157457351684570e-01 1.097808837890625000e+00 5.759173631668090820e-01 -8.194420337677001953e-01
2.010000000000000000e+03 7.036052703857421875e+01 -9.560803413391113281e+00 2.035330682992935181e-01 7.272607326507568359e+00 2.242842197418212891e+00 -5.730408802628517151e-02
2.011000000000000000e+03 7.024754333496093750e+01 -1.074740886688232422e+01 2.005903720855712891e-01 7.283873081207275391e+00 2.245338916778564453e+00 -9.996467083692550659e-02
2.012000000000000000e+03 6.987243652343750000e+01 -2.344607925415039062e+01 1.065782736986875534e-02 7.534975051879882812e+00 2.263689994812011719e+00 -3.691785037517547607e-01
2.013000000000000000e+03 6.983611297607421875e+01 -2.886386680603027344e+01 -8.176849782466888428e-02 7.663015365600585938e+00 2.274374008178710938e+00 -3.320597708225250244e-01
2.014000000000000000e+03 7.000330352783203125e+01 -1.676256370544433594e+01 1.311225593090057373e-01 7.380706310272216797e+00 2.253548622131347656e+00 -2.866359949111938477e-01
2.015000000000000000e+03 6.998720550537109375e+01 -1.787838172912597656e+01 1.068273112177848816e-01 7.401914119720458984e+00 2.252622365951538086e+00 -3.103968799114227295e-01
2.016000000000000000e+03 7.130394744873046875e+01 -1.218072319030761719e+01 1.537620872259140015e-01 7.260530948638916016e+00 2.224287986755371094e+00 -1.396079957485198975e-01
2.017000000000000000e+03 7.009442138671875000e+01 9.317670464515686035e-01 1.792720258235931396e-01 7.393092155456542969e+00 2.271709203720092773e+00 3.437082469463348389e-01
2.018000000000000000e+03 6.932329559326171875e+01 1.205616569519042969e+01 2.456197142601013184e-02 7.746692657470703125e+00 2.331376314163208008e+00 5.688880681991577148e-01
2.019000000000000000e+03 6.927291107177734375e+01 1.063363456726074219e+01 4.549577832221984863e-02 7.703501701354980469e+00 2.324699401855468750e+00 5.616797208786010742e-01
2.020000000000000000e+03 7.168947601318359375e+01 -8.342732429504394531e+00 1.621292978525161743e-01 7.223724365234375000e+00 2.215756177902221680e+00 -1.008926983922719955e-02
2.021000000000000000e+03 6.916715240478515625e+01 -8.334834098815917969e+00 2.539559900760650635e-01 7.307866096496582031e+00 2.268546581268310547e+00 -1.111184898763895035e-02
2.022000000000000000e+03 7.769982337951660156e+00 2.309149551391601562e+01 8.872403204441070557e-02 2.476694434881210327e-01 1.009180396795272827e-01 -3.301393613219261169e-02
2.023000000000000000e+03 1.013687038421630859e+01 2.469097709655761719e+01 1.076123416423797607e-01 6.194650530815124512e-01 2.181232124567031860e-01 -2.148061096668243408e-01
2.024000000000000000e+03 2.595722389221191406e+01 8.256319999694824219e+00 2.245375812053680420e-01 3.828166961669921875e+00 1.215811371803283691e+00 -1.645019292831420898e+00
2.025000000000000000e+03 6.932651519775390625e+01 1.335946941375732422e+01 -2.675583586096763611e-03 7.797304630279541016e+00 2.338388681411743164e+00 5.680125355720520020e-01
2.026000000000000000e+03 6.846826934814453125e+01 -2.265340232849121094e+01 2.892553620040416718e-02 7.552730083465576172e+00 2.274496793746948242e+00 -3.992862999439239502e-01
2.027000000000000000e+03 7.097826385498046875e+01 -1.944716835021972656e+01 6.654610484838485718e-02 7.412396907806396484e+00 2.243682861328125000e+00 -3.147883415222167969e-01
2.028000000000000000e+03 7.153555297851562500e+01 -2.888228297233581543e-01 1.466997414827346802e-01 7.323980331420898438e+00 2.241204023361206055e+00 2.718545198440551758e-01
2.029000000000000000e+03 6.995788574218750000e+01 6.440126419067382812e+00 1.083303913474082947e-01 7.555962085723876953e+00 2.299287796020507812e+00 4.899549186229705811e-01
2.030000000000000000e+03 1.457201671600341797e+01 2.377317810058593750e+01 1.785650290548801422e-02 1.460583806037902832e+00 4.435321092605590820e-01 -4.887660443782806396e-01
2.031000000000000000e+03 1.371667289733886719e+01 3.109110260009765625e+01 -4.193289205431938171e-02 1.551106810569763184e+00 4.527521729469299316e-01 -2.585369348526000977e-01
2.032000000000000000e+03 7.118862152099609375e+01 2.284297561645507812e+01 -7.811445742845535278e-02 8.123437881469726562e+00 2.413597106933593750e+00 4.184535741806030273e-01
2.033000000000000000e+03 6.945545196533203125e+01 1.913505554199218750e+01 -7.148040831089019775e-02 7.969204425811767578e+00 2.369317293167114258e+00 5.209298729896545410e-01
2.034000000000000000e+03 2.084789657592773438e+01 -1.941257858276367188e+01 3.192691802978515625e-01 1.586548328399658203e+00 5.717452168464660645e-01 8.339610099792480469e-01
2.035000000000000000e+03 2.143976211547851562e+01 -1.756864166259765625e+01 3.515961170196533203e-01 1.443653583526611328e+00 5.385749340057373047e-01 7.855756282806396484e-01
2.036000000000000000e+03 7.110408782958984375e+01 -2.260194587707519531e+01 1.925639808177947998e-02 7.489143371582031250e+00 2.252519845962524414e+00 -3.396371304988861084e-01
2.037000000000000000e+03 7.080068206787109375e+01 -2.102562332153320312e+01 4.284676164388656616e-02 7.455784797668457031e+00 2.249589443206787109e+00 -3.347305357456207275e-01
2.038000000000000000e+03 2.268431091308593750e+01 1.418849945068359375e+01 2.022373825311660767e-01 3.032020568847656250e+00 9.702773690223693848e-01 -1.033667087554931641e+00
2.039000000000000000e+03 2.472215843200683594e+01 1.563912391662597656e+01 1.111299730837345123e-02 3.665552139282226562e+00 1.102999567985534668e+00 -1.051562428474426270e+00
2.040000000000000000e+03 9.706941604614257812e+00 -2.908189964294433594e+01 1.845086961984634399e-01 1.516612619161605835e-01 1.008509844541549683e-01 -9.239201992750167847e-02
2.041000000000000000e+03 1.122389984130859375e+01 -2.558413505554199219e+01 2.327809780836105347e-01 1.179965585470199585e-01 1.052332594990730286e-01 -6.022609770298004150e-02
2.042000000000000000e+03 2.142081832885742188e+01 1.918063163757324219e+01 -1.844193227589130402e-02 2.955587625503540039e+00 8.811436891555786133e-01 -7.735708951950073242e-01
2.043000000000000000e+03 2.064110374450683594e+01 2.281306266784667969e+01 -1.501180976629257202e-01 2.833439350128173828e+00 8.049963712692260742e-01 -6.372307538986206055e-01
2.044000000000000000e+03 6.961988067626953125e+01 2.576672172546386719e+01 -1.220541670918464661e-01 8.144317626953125000e+00 2.406679153442382812e+00 4.085892736911773682e-01
2.045000000000000000e+03 6.939142608642578125e+01 2.374629020690917969e+01 -1.134300231933593750e-01 8.096035957336425781e+00 2.394781827926635742e+00 4.495444893836975098e-01
2.046000000000000000e+03 9.983112335205078125e+00 -2.269296264648437500e+01 7.763201743364334106e-02 -2.320322096347808838e-01 -4.632005840539932251e-02 -2.715793251991271973e-01
2.047000000000000000e+03 8.296022415161132812e+00 -2.192173576354980469e+01 -7.222633063793182373e-02 -2.824044823646545410e-01 -1.063892468810081482e-01 -4.199082255363464355e-01
2.048000000000000000e+03 7.001006317138671875e+01 -3.287812423706054688e+01 -1.316399872303009033e-01 7.735323905944824219e+00 2.281105279922485352e+00 -2.599388062953948975e-01
2.049000000000000000e+03 7.004433441162109375e+01 -1.189992618560791016e+01 1.994190365076065063e-01 7.301344871520996094e+00 2.250229120254516602e+00 -1.446509063243865967e-01
2.050000000000000000e+03 6.925188446044921875e+01 1.462515258789062500e+01 -1.858454383909702301e-02 7.832690715789794922e+00 2.344231843948364258e+00 5.687525272369384766e-01
2.051000000000000000e+03 7.047187805175781250e+01 1.622354316711425781e+01 -3.462657704949378967e-02 7.896269321441650391e+00 2.358492851257324219e+00 5.213162899017333984e-01
2.052000000000000000e+03 6.936296081542968750e+01 -2.485964012145996094e+01 -1.702233590185642242e-02 7.586774826049804688e+00 2.270925760269165039e+00 -3.825286328792572021e-01
2.053000000000000000e+03 2.109966278076171875e+01 -2.433773612976074219e+01 1.815352588891983032e-01 2.199611663818359375e+00 7.143440842628479004e-01 8.812202215194702148e-01
2.054000000000000000e+03 1.844347000122070312e+01 2.347898864746093750e+01 -9.308765083551406860e-02 2.330871343612670898e+00 6.713351011276245117e-01 -5.984271764755249023e-01
2.055000000000000000e+03 1.629116058349609375e+01 2.666776466369628906e+01 -6.896736472845077515e-02 1.930889248847961426e+00 5.585765838623046875e-01 -4.542144238948822021e-01
2.056000000000000000e+03 2.353553390502929688e+01 1.092286777496337891e+01 3.088890612125396729e-01 3.043318271636962891e+00 1.005662202835083008e+00 -1.305338382720947266e+00
2.057000000000000000e+03 1.111717033386230469e+01 2.565849494934082031e+01 9.092375636100769043e-02 8.375840187072753906e-01 2.785523235797882080e-01 -2.711525261402130127e-01
2.058000000000000000e+03 6.758975219726562500e+01 -2.915687751770019531e+01 -1.184654757380485535e-01 7.712014198303222656e+00 2.278064489364624023e+00 -3.706845343112945557e-01
2.059000000000000000e+03 2.105756759643554688e+01 -2.084389686584472656e+01 3.088773787021636963e-01 1.835528969764709473e+00 6.433218717575073242e-01 9.132753610610961914e-01
2.060000000000000000e+03 2.206393241882324219e+01 -1.880894470214843750e+01 4.107632637023925781e-01 1.862196564674377441e+00 6.818879842758178711e-01 9.861208796501159668e-01
2.061000000000000000e+03 9.017638206481933594e+00 -2.250584793090820312e+01 1.593131944537162781e-02 -2.627761960029602051e-01 -7.405345886945724487e-02 -3.115655481815338135e-01
2.062000000000000000e+03 6.635819244384765625e+01 2.178954315185546875e+01 -1.567600667476654053e-01 7.975094795227050781e+00 2.345500469207763672e+00 5.481836795806884766e-01
2.063000000000000000e+03 3.180517959594726562e+01 -9.985537528991699219e+00 1.361836791038513184e+00 1.123721313476562500e+01 3.779714822769165039e+00 4.223078250885009766e+00
2.064000000000000000e+03 3.211027145385742188e+01 -1.023339366912841797e+01 1.027468204498291016e+00 1.199080657958984375e+01 3.905482530593872070e+00 3.670623064041137695e+00
2.065000000000000000e+03 3.254832458496093750e+01 -3.893299102783203125e+00 1.450665473937988281e+00 1.447818470001220703e+01 4.778655052185058594e+00 -2.919564247131347656e+00
2.066000000000000000e+03 2.826614952087402344e+01 -1.076655483245849609e+01 1.912322759628295898e+00 2.410304546356201172e+00 1.296788215637207031e+00 2.411867141723632812e+00
2.067000000000000000e+03 2.952359008789062500e+01 -3.205946922302246094e+00 2.652341842651367188e+00 4.129395008087158203e+00 2.034521102905273438e+00 -3.563467979431152344e+00
2.068000000000000000e+03 3.237540817260742188e+01 -3.861641883850097656e+00 1.469374418258666992e+00 1.384933376312255859e+01 4.595612525939941406e+00 -3.465032100677490234e+00
2.069000000000000000e+03 3.190937232971191406e+01 -3.497003555297851562e+00 1.556832909584045410e+00 1.167164421081542969e+01 3.968543291091918945e+00 -4.045496463775634766e+00
2.070000000000000000e+03 3.520816421508789062e+01 -5.830493450164794922e+00 7.362095832824707031e+00 1.275633907318115234e+01 6.035530567169189453e+00 1.309159040451049805e+00
2.071000000000000000e+03 3.070271873474121094e+01 -3.566879749298095703e+00 2.621786355972290039e+00 7.184497356414794922e+00 2.941885232925415039e+00 -4.667571067810058594e+00
2.072000000000000000e+03 3.306619644165039062e+01 -9.446270942687988281e+00 1.391311287879943848e+00 1.573867607116699219e+01 5.138996124267578125e+00 1.386935472488403320e+00
2.073000000000000000e+03 3.393993377685546875e+01 -4.058764934539794922e+00 2.637110948562622070e+00 1.508853816986083984e+01 5.317694664001464844e+00 4.709831774234771729e-01
2.074000000000000000e+03 3.493175506591796875e+01 -7.804910182952880859e+00 7.276492118835449219e+00 1.343251895904541016e+01 6.212703227996826172e+00 -1.771025896072387695e+00
2.075000000000000000e+03 3.554067993164062500e+01 -6.385235309600830078e+00 7.764718532562255859e+00 1.203430461883544922e+01 5.939706802368164062e+00 4.646991491317749023e-01
2.076000000000000000e+03 2.969553947448730469e+01 -1.013092994689941406e+01 2.404378175735473633e+00 4.143652915954589844e+00 1.964409351348876953e+00 3.682865858078002930e+00
2.077000000000000000e+03 3.323047256469726562e+01 -9.959038734436035156e+00 1.115609049797058105e+00 1.444973087310791016e+01 4.669601917266845703e+00 1.303557395935058594e+00
2.078000000000000000e+03 3.405467605590820312e+01 -9.514018058776855469e+00 2.342095613479614258e+00 1.491140937805175781e+01 5.176051616668701172e+00 -6.318149566650390625e-01
2.079000000000000000e+03 3.609904479980468750e+01 -5.972034931182861328e+00 6.682113170623779297e+00 1.143526172637939453e+01 5.435212135314941406e+00 8.265120387077331543e-01
2.080000000000000000e+03 3.562474060058593750e+01 -8.385303497314453125e+00 5.645927429199218750e+00 1.240728569030761719e+01 5.415963649749755859e+00 -1.709674596786499023e+00
2.081000000000000000e+03 3.481771469116210938e+01 -9.547451019287109375e+00 3.061146259307861328e+00 1.381925582885742188e+01 5.064120769500732422e+00 -1.376817464828491211e+00
2.082000000000000000e+03 2.981286239624023438e+01 -4.365447521209716797e+00 3.369226694107055664e+00 3.201181173324584961e+00 1.971122384071350098e+00 -3.585540533065795898e+00
2.083000000000000000e+03 3.123380279541015625e+01 -3.303421020507812500e+00 2.002525091171264648e+00 9.054726600646972656e+00 3.317175388336181641e+00 -4.479109287261962891e+00
2.084000000000000000e+03 2.735789299011230469e+01 -1.171229171752929688e+01 1.579692363739013672e+00 2.215484857559204102e+00 1.138553142547607422e+00 1.996498942375183105e+00
2.085000000000000000e+03 2.921365356445312500e+01 -1.050573921203613281e+01 2.177028179168701172e+00 3.528278827667236328e+00 1.711592197418212891e+00 3.213455200195312500e+00
2.086000000000000000e+03 2.453532028198242188e+01 -1.568021774291992188e-01 1.011193037033081055e+00 1.446920156478881836e+00 7.374339699745178223e-01 -1.128526091575622559e+00
2.087000000000000000e+03 2.634506034851074219e+01 9.009825587272644043e-01 1.114071488380432129e+00 2.854328393936157227e+00 1.190519928932189941e+00 -1.940832972526550293e+00
2.088000000000000000e+03 2.648870849609375000e+01 -1.240144348144531250e+01 1.339445710182189941e+00 2.006449699401855469e+00 1.003768682479858398e+00 1.653723716735839844e+00
2.089000000000000000e+03 2.787420845031738281e+01 -1.213457870483398438e+01 1.566804766654968262e+00 2.950677871704101562e+00 1.355244874954223633e+00 2.361050844192504883e+00
2.090000000000000000e+03 2.892620849609375000e+01 -3.153945207595825195e+00 2.513904333114624023e+00 3.036391973495483398e+00 1.665088891983032227e+00 -2.940688133239746094e+00
2.091000000000000000e+03 2.856917953491210938e+01 -1.787256598472595215e+00 1.988012313842773438e+00 3.660213470458984375e+00 1.694467782974243164e+00 -2.888843059539794922e+00
2.092000000000000000e+03 2.590742683410644531e+01 -7.265914082527160645e-01 1.332223415374755859e+00 1.899383544921875000e+00 9.694821238517761230e-01 -1.545964241027832031e+00
2.093000000000000000e+03 2.571539306640625000e+01 4.741593301296234131e-01 1.129469990730285645e+00 2.280527353286743164e+00 1.022999167442321777e+00 -1.652052640914916992e+00
2.094000000000000000e+03 2.755851936340332031e+01 -1.656621932983398438e+00 1.790745019912719727e+00 2.624355792999267578e+00 1.324530243873596191e+00 -2.221935033798217773e+00
2.095000000000000000e+03 2.619993972778320312e+01 -1.069231480360031128e-01 1.281252980232238770e+00 2.335477590560913086e+00 1.085019111633300781e+00 -1.769279122352600098e+00
2.096000000000000000e+03 2.413031005859375000e+01 1.348597526550292969e+00 8.042093515396118164e-01 1.766862630844116211e+00 7.713215947151184082e-01 -1.261373281478881836e+00
2.097000000000000000e+03 2.868962097167968750e+01 6.240010261535644531e-01 1.062146544456481934e+00 4.749814510345458984e+00 1.743588328361511230e+00 -2.656116247177124023e+00
2.098000000000000000e+03 2.664887046813964844e+01 -1.295950317382812500e+01 1.296143412590026855e+00 2.394670486450195312e+00 1.107244253158569336e+00 1.818920969963073730e+00
2.099000000000000000e+03 2.553521537780761719e+01 -1.323828506469726562e+01 1.092018246650695801e+00 1.857429385185241699e+00 8.848342895507812500e-01 1.363016009330749512e+00
2.100000000000000000e+03 2.494473838806152344e+01 -1.344709300994873047e+01 9.793492555618286133e-01 1.665391445159912109e+00 7.934221625328063965e-01 1.168257594108581543e+00
2.101000000000000000e+03 2.265799903869628906e+01 -1.355118751525878906e+01 5.692105293273925781e-01 9.830821156501770020e-01 4.656877815723419189e-01 5.257566571235656738e-01
2.102000000000000000e+03 2.323660278320312500e+01 -1.476865196228027344e+01 6.627151370048522949e-01 1.433582544326782227e+00 6.288893222808837891e-01 8.652756214141845703e-01
2.103000000000000000e+03 2.527818489074707031e+01 1.190409898757934570e+00 9.595502018928527832e-01 2.272729396820068359e+00 9.696838855743408203e-01 -1.579461455345153809e+00
2.104000000000000000e+03 6.802729034423828125e+01 -7.119297504425048828e+00 3.187249898910522461e-01 7.332727432250976562e+00 2.295435667037963867e+00 3.776188939809799194e-02
2.105000000000000000e+03 6.777743530273437500e+01 -1.052598094940185547e+01 3.167875409126281738e-01 7.350316524505615234e+00 2.300131320953369141e+00 -1.155467033386230469e-01
2.106000000000000000e+03 2.646702575683593750e+01 7.340537071228027344e+00 2.373455017805099487e-01 4.030299663543701172e+00 1.280293464660644531e+00 -1.746457695960998535e+00
2.107000000000000000e+03 6.804457092285156250e+01 1.269713592529296875e+01 1.265113428235054016e-02 7.771989345550537109e+00 2.335392236709594727e+00 6.072581410408020020e-01
2.108000000000000000e+03 6.954182434082031250e+01 9.182852745056152344e+00 6.818238645792007446e-02 7.651944160461425781e+00 2.316037893295288086e+00 5.415494441986083984e-01
2.109000000000000000e+03 6.908333587646484375e+01 -1.727994346618652344e+01 1.389054954051971436e-01 7.415511608123779297e+00 2.266324996948242188e+00 -3.139411509037017822e-01
2.110000000000000000e+03 6.839850616455078125e+01 -1.835219001770019531e+01 1.304199695587158203e-01 7.462610244750976562e+00 2.277909040451049805e+00 -3.562726974487304688e-01
2.111000000000000000e+03 2.349342155456542969e+01 -1.655367469787597656e+01 6.056612133979797363e-01 2.003707408905029297e+00 7.828105688095092773e-01 1.139843225479125977e+00
2.112000000000000000e+03 2.522694969177246094e+01 -1.406176853179931641e+01 9.750674962997436523e-01 2.005465745925903320e+00 8.941599726676940918e-01 1.366603255271911621e+00
2.113000000000000000e+03 2.357486534118652344e+01 1.641982269287109375e+01 4.597260430455207825e-02 3.362075567245483398e+00 1.022414445877075195e+00 -9.562062621116638184e-01
2.114000000000000000e+03 2.433010673522949219e+01 1.767354965209960938e+01 -7.257854938507080078e-02 3.620568752288818359e+00 1.064397096633911133e+00 -9.062982201576232910e-01
2.115000000000000000e+03 6.789081573486328125e+01 -2.453915405273437500e+01 -1.583676412701606750e-02 7.613535404205322266e+00 2.279309511184692383e+00 -4.136709272861480713e-01
2.116000000000000000e+03 7.098255920410156250e+01 -1.347798442840576172e+01 1.521835327148437500e-01 7.290330410003662109e+00 2.232754230499267578e+00 -1.870588213205337524e-01
2.117000000000000000e+03 7.047086334228515625e+01 -5.821567535400390625e+00 2.144293785095214844e-01 7.272486209869384766e+00 2.246074676513671875e+00 8.732383698225021362e-02
2.118000000000000000e+03 7.038467407226562500e+01 -1.458458042144775391e+01 1.503232866525650024e-01 7.326659679412841797e+00 2.243094921112060547e+00 -2.254509180784225464e-01
2.119000000000000000e+03 6.782511901855468750e+01 1.850596618652343750e+01 -8.850429952144622803e-02 7.932021617889404297e+00 2.353055238723754883e+00 5.714849829673767090e-01
2.120000000000000000e+03 6.850683593750000000e+01 1.707164192199707031e+01 -6.007670238614082336e-02 7.900792598724365234e+00 2.352214813232421875e+00 5.704826116561889648e-01
2.121000000000000000e+03 2.004928207397460938e+01 2.451386451721191406e+01 -1.502137780189514160e-01 2.731807231903076172e+00 7.744780182838439941e-01 -5.840827226638793945e-01
2.122000000000000000e+03 7.004157257080078125e+01 5.071326732635498047e+00 1.297674626111984253e-01 7.508297443389892578e+00 2.291419506072998047e+00 4.575522541999816895e-01
2.123000000000000000e+03 2.256781578063964844e+01 -1.456443595886230469e+01 5.758490562438964844e-01 1.202003479003906250e+00 5.333557128906250000e-01 6.865722537040710449e-01
2.124000000000000000e+03 1.074812507629394531e+01 2.974333572387695312e+01 3.538121283054351807e-02 9.837767481803894043e-01 3.057473897933959961e-01 -1.913931965827941895e-01
2.125000000000000000e+03 1.037443542480468750e+01 2.786429023742675781e+01 5.386540666222572327e-02 8.374670743942260742e-01 2.673997282981872559e-01 -1.902098953723907471e-01
2.126000000000000000e+03 1.395016384124755859e+01 -2.437017250061035156e+01 2.312395274639129639e-01 4.082076251506805420e-01 1.918341368436813354e-01 1.741420179605484009e-01
2.127000000000000000e+03 1.373758125305175781e+01 -2.593824195861816406e+01 2.741915285587310791e-01 5.341576933860778809e-01 2.425047755241394043e-01 1.671705693006515503e-01
2.128000000000000000e+03 1.372060298919677734e+01 2.612954711914062500e+01 2.258552610874176025e-02 1.357903361320495605e+00 4.141466915607452393e-01 -3.923972845077514648e-01
2.129000000000000000e+03 1.321114253997802734e+01 2.438139152526855469e+01 5.378624796867370605e-02 1.172331809997558594e+00 3.678354024887084961e-01 -4.247724115848541260e-01
2.130000000000000000e+03 6.891664886474609375e+01 2.083397102355957031e+01 -1.021553650498390198e-01 8.011118888854980469e+00 2.372689008712768555e+00 5.078301429748535156e-01
2.131000000000000000e+03 7.102718353271484375e+01 1.960335350036621094e+01 -6.467848271131515503e-02 8.017996788024902344e+00 2.385995626449584961e+00 4.701927006244659424e-01
2.132000000000000000e+03 6.939668273925781250e+01 -2.666669654846191406e+01 -5.273179337382316589e-02 7.626028060913085938e+00 2.271988868713378906e+00 -3.732521533966064453e-01
2.133000000000000000e+03 1.880812644958496094e+01 -2.393784523010253906e+01 2.347970902919769287e-01 1.494499087333679199e+00 5.187888145446777344e-01 6.571012735366821289e-01
2.134000000000000000e+03 1.558296203613281250e+01 -2.463222503662109375e+01 2.545754313468933105e-01 7.777326107025146484e-01 3.096924126148223877e-01 3.464967310428619385e-01
2.135000000000000000e+03 7.005124664306640625e+01 2.318284988403320312e+00 1.645747572183609009e-01 7.429007053375244141e+00 2.278074502944946289e+00 3.858940303325653076e-01
2.136000000000000000e+03 6.742206573486328125e+01 2.796658897399902344e+01 -1.894448399543762207e-01 8.097483634948730469e+00 2.372411489486694336e+00 4.028513729572296143e-01
2.137000000000000000e+03 6.752359008789062500e+01 2.585143661499023438e+01 -1.653907150030136108e-01 8.069316864013671875e+00 2.371177911758422852e+00 4.518147110939025879e-01
2.138000000000000000e+03 6.962669372558593750e+01 3.009674453735351562e+01 -1.510090380907058716e-01 8.237799644470214844e+00 2.426037311553955078e+00 3.099378645420074463e-01
2.139000000000000000e+03 3.105527305603027344e+01 -1.022127246856689453e+01 1.817037343978881836e+00 8.374698638916015625e+00 3.057520866394042969e+00 4.513825416564941406e+00
2.140000000000000000e+03 3.240669631958007812e+01 -3.606270313262939453e+00 1.313449859619140625e+00 1.344099903106689453e+01 4.426334857940673828e+00 -3.250894308090209961e+00
2.141000000000000000e+03 3.225329208374023438e+01 -3.237090110778808594e+00 1.230787396430969238e+00 1.226717376708984375e+01 4.049388408660888672e+00 -3.346248388290405273e+00
2.142000000000000000e+03 3.006447982788085938e+01 -1.023071956634521484e+01 2.318454027175903320e+00 5.149788379669189453e+00 2.240472555160522461e+00 4.042484283447265625e+00
2.143000000000000000e+03 3.584869766235351562e+01 -5.784760475158691406e+00 6.679765701293945312e+00 1.176654815673828125e+01 5.533894062042236328e+00 1.071313023567199707e+00
2.144000000000000000e+03 3.557467269897460938e+01 -5.424117088317871094e+00 6.296813964843750000e+00 1.233279228210449219e+01 5.588881969451904297e+00 1.457492351531982422e+00
2.145000000000000000e+03 3.297346878051757812e+01 -3.682755470275878906e+00 1.405398964881896973e+00 1.451028347015380859e+01 4.774704933166503906e+00 -1.830832600593566895e+00
2.146000000000000000e+03 3.048747444152832031e+01 -9.897801399230957031e+00 2.463045835494995117e+00 6.185614585876464844e+00 2.594598054885864258e+00 4.513609409332275391e+00
2.147000000000000000e+03 3.524678421020507812e+01 -8.608728408813476562e+00 5.281955242156982422e+00 1.312210655212402344e+01 5.521218776702880859e+00 -1.892049670219421387e+00
2.148000000000000000e+03 3.582433700561523438e+01 -6.203990459442138672e+00 7.196336746215820312e+00 1.170855522155761719e+01 5.671467304229736328e+00 6.547591090202331543e-01
2.149000000000000000e+03 3.423005676269531250e+01 -9.872938156127929688e+00 2.034653186798095703e+00 1.417895412445068359e+01 4.864082336425781250e+00 -5.883591771125793457e-01
2.150000000000000000e+03 3.542243194580078125e+01 -7.544070720672607422e+00 7.296902179718017578e+00 1.232392501831054688e+01 5.886248111724853516e+00 -1.190985083580017090e+00
2.151000000000000000e+03 3.026800346374511719e+01 -3.682861804962158203e+00 2.918864965438842773e+00 5.510986804962158203e+00 2.528955698013305664e+00 -4.306174278259277344e+00
2.152000000000000000e+03 3.058987998962402344e+01 -3.080529689788818359e+00 2.283936262130737305e+00 7.093069076538085938e+00 2.813101530075073242e+00 -4.338733196258544922e+00
2.153000000000000000e+03 3.511474227905273438e+01 -9.204613685607910156e+00 3.936002492904663086e+00 1.347821617126464844e+01 5.224265575408935547e+00 -1.714650034904479980e+00
2.154000000000000000e+03 2.822015190124511719e+01 -1.123818492889404297e+01 1.813528299331665039e+00 2.728897333145141602e+00 1.362727761268615723e+00 2.473767280578613281e+00
2.155000000000000000e+03 2.913889312744140625e+01 -1.099703502655029297e+01 1.988990187644958496e+00 3.799635648727416992e+00 1.736587762832641602e+00 3.177474737167358398e+00
2.156000000000000000e+03 3.502843475341796875e+01 -8.273077964782714844e+00 6.056794166564941406e+00 1.344957447052001953e+01 5.851910591125488281e+00 -1.992320775985717773e+00
2.157000000000000000e+03 3.468122863769531250e+01 -1.000692844390869141e+01 2.220943689346313477e+00 1.364193344116210938e+01 4.758863449096679688e+00 -9.005550146102905273e-01
2.158000000000000000e+03 2.896359825134277344e+01 -2.516620874404907227e+00 2.283887863159179688e+00 3.684597492218017578e+00 1.790545582771301270e+00 -3.095574617385864258e+00
2.159000000000000000e+03 3.198706626892089844e+01 -1.074486255645751953e+01 8.967031240463256836e-01 1.093495464324951172e+01 3.549497365951538086e+00 3.497701168060302734e+00
2.160000000000000000e+03 2.745262718200683594e+01 -1.221921730041503906e+01 1.515086650848388672e+00 2.599568128585815430e+00 1.234396338462829590e+00 2.146212100982666016e+00
2.161000000000000000e+03 2.464925193786621094e+01 7.513740062713623047e-01 9.444026947021484375e-01 1.839916229248046875e+00 8.352956771850585938e-01 -1.342472910881042480e+00
2.162000000000000000e+03 2.671551513671875000e+01 3.071275949478149414e-01 1.242672681808471680e+00 2.876479387283325195e+00 1.235745549201965332e+00 -2.026749849319458008e+00
2.163000000000000000e+03 2.808004188537597656e+01 -1.173411846160888672e+00 1.733205318450927734e+00 3.375361442565917969e+00 1.532570123672485352e+00 -2.574833154678344727e+00
2.164000000000000000e+03 2.699715423583984375e+01 -1.230762672424316406e+01 1.429000496864318848e+00 2.291878223419189453e+00 1.116263628005981445e+00 1.902305364608764648e+00
2.165000000000000000e+03 2.799725723266601562e+01 -1.257194137573242188e+01 1.438711166381835938e+00 3.290426731109619141e+00 1.418741345405578613e+00 2.419291496276855469e+00
2.166000000000000000e+03 2.667460632324218750e+01 -4.616368710994720459e-01 1.423386931419372559e+00 2.491647481918334961e+00 1.174510359764099121e+00 -1.930657863616943359e+00
2.167000000000000000e+03 2.756939888000488281e+01 -1.132692575454711914e+00 1.695142388343811035e+00 2.897291183471679688e+00 1.377730131149291992e+00 -2.310902833938598633e+00
2.168000000000000000e+03 2.861323547363281250e+01 -1.206898689270019531e+00 1.711511969566345215e+00 4.042342185974121094e+00 1.726156234741210938e+00 -2.856668472290039062e+00
2.169000000000000000e+03 2.512524604797363281e+01 3.156292676925659180e+00 6.502205133438110352e-01 2.732931852340698242e+00 1.014945745468139648e+00 -1.683681845664978027e+00
2.170000000000000000e+03 2.480664634704589844e+01 1.887900352478027344e+00 8.079872727394104004e-01 2.246539592742919922e+00 9.163580536842346191e-01 -1.516290426254272461e+00
2.171000000000000000e+03 2.627695274353027344e+01 -1.361320018768310547e+01 1.142432928085327148e+00 2.433513402938842773e+00 1.072783946990966797e+00 1.729941725730895996e+00
2.172000000000000000e+03 2.610211372375488281e+01 -1.307678318023681641e+01 1.201390147209167480e+00 2.094521999359130859e+00 9.887736439704895020e-01 1.582731127738952637e+00
2.173000000000000000e+03 2.576168060302734375e+01 -1.379804611206054688e+01 1.070182561874389648e+00 2.201333284378051758e+00 9.814547300338745117e-01 1.523437738418579102e+00
2.174000000000000000e+03 2.304534530639648438e+01 -1.416277694702148438e+01 6.451455950736999512e-01 1.222229599952697754e+00 5.602125525474548340e-01 7.286316156387329102e-01
2.175000000000000000e+03 2.462697982788085938e+01 -1.435292148590087891e+01 8.617740869522094727e-01 1.851859927177429199e+00 8.140901923179626465e-01 1.209410429000854492e+00
2.176000000000000000e+03 2.777735328674316406e+01 4.949779987335205078e+00 3.350630998611450195e-01 4.593692302703857422e+00 1.478626608848571777e+00 -2.028598785400390625e+00
2.177000000000000000e+03 2.222235870361328125e+01 2.099082183837890625e+01 -1.382733285427093506e-01 3.185092449188232422e+00 9.140457510948181152e-01 -7.193377614021301270e-01
2.178000000000000000e+03 6.858570098876953125e+01 2.177537918090820312e+00 2.084971666336059570e-01 7.456822395324707031e+00 2.299595832824707031e+00 4.191993474960327148e-01
2.179000000000000000e+03 6.866001129150390625e+01 7.442269325256347656e-01 2.314439862966537476e-01 7.421651840209960938e+00 2.295928716659545898e+00 3.718701899051666260e-01
2.180000000000000000e+03 6.872200012207031250e+01 4.924420356750488281e+00 1.644372791051864624e-01 7.527407169342041016e+00 2.307553291320800781e+00 4.964773952960968018e-01
2.181000000000000000e+03 6.712573242187500000e+01 3.634432554244995117e+00 2.332140505313873291e-01 7.517420768737792969e+00 2.325190544128417969e+00 5.029084682464599609e-01
2.182000000000000000e+03 2.498115539550781250e+01 -1.504474925994873047e+01 8.597837090492248535e-01 2.219323873519897461e+00 9.237322807312011719e-01 1.411535739898681641e+00
2.183000000000000000e+03 6.927712249755859375e+01 -5.899346828460693359e+00 2.656038105487823486e-01 7.306124687194824219e+00 2.271518468856811523e+00 9.132627397775650024e-02
2.184000000000000000e+03 6.923055267333984375e+01 -7.129625797271728516e+00 2.609848678112030029e-01 7.303539752960205078e+00 2.269357442855834961e+00 3.575477004051208496e-02
2.185000000000000000e+03 7.042475891113281250e+01 -8.339072227478027344e+00 2.087375521659851074e-01 7.268074989318847656e+00 2.243043899536132812e+00 -9.843057021498680115e-03
2.186000000000000000e+03 2.323191261291503906e+01 -1.555510139465332031e+01 6.163844466209411621e-01 1.664448022842407227e+00 6.842496991157531738e-01 9.720038771629333496e-01
2.187000000000000000e+03 6.948464202880859375e+01 -1.914187049865722656e+01 9.516366571187973022e-02 7.444799900054931641e+00 2.261989116668701172e+00 -3.440167903900146484e-01
2.188000000000000000e+03 6.991259002685546875e+01 -1.562266540527343750e+01 1.503829658031463623e-01 7.364702701568603516e+00 2.254525661468505859e+00 -2.636254131793975830e-01
2.189000000000000000e+03 2.780133819580078125e+01 6.966023445129394531e+00 1.506206095218658447e-01 4.664002418518066406e+00 1.444386839866638184e+00 -1.839044451713562012e+00
2.190000000000000000e+03 2.689567565917968750e+01 6.467567920684814453e+00 2.673461139202117920e-01 4.167053222656250000e+00 1.330319762229919434e+00 -1.847557187080383301e+00
2.191000000000000000e+03 2.687410163879394531e+01 8.886852264404296875e+00 1.313932836055755615e-01 4.240094661712646484e+00 1.311446428298950195e+00 -1.646292567253112793e+00
2.192000000000000000e+03 2.486862373352050781e+01 1.139203548431396484e+01 1.837914586067199707e-01 3.570398569107055664e+00 1.126256942749023438e+00 -1.347518086433410645e+00
2.193000000000000000e+03 2.430515480041503906e+01 1.271516132354736328e+01 1.702582687139511108e-01 3.448234558105468750e+00 1.085547804832458496e+00 -1.225831627845764160e+00
2.194000000000000000e+03 6.369422149658203125e+01 -2.531938552856445312e+01 -6.292778253555297852e-02 7.731117725372314453e+00 2.300457000732421875e+00 -4.904129803180694580e-01
2.195000000000000000e+03 6.695747375488281250e+01 1.397260570526123047e+01 -1.505632977932691574e-02 7.808368206024169922e+00 2.337993383407592773e+00 6.388477683067321777e-01
2.196000000000000000e+03 1.085616493225097656e+01 -2.774992752075195312e+01 2.278257906436920166e-01 2.163503915071487427e-01 1.332528591156005859e-01 -4.411418363451957703e-02
2.197000000000000000e+03 2.738735771179199219e+01 7.857832431793212891e+00 1.379194110631942749e-01 4.462419509887695312e+00 1.380101680755615234e+00 -1.753891110420227051e+00
2.198000000000000000e+03 2.874034500122070312e+01 7.390916824340820312e+00 3.532423824071884155e-02 5.113943576812744141e+00 1.544780254364013672e+00 -1.782151460647583008e+00
2.199000000000000000e+03 2.190879631042480469e+01 2.536711692810058594e+01 -2.381014376878738403e-01 3.169173479080200195e+00 8.793215751647949219e-01 -5.658659934997558594e-01
2.200000000000000000e+03 6.710224914550781250e+01 2.009531974792480469e+01 -1.212941110134124756e-01 7.955818653106689453e+00 2.350357294082641602e+00 5.684384107589721680e-01
2.201000000000000000e+03 1.326566410064697266e+01 -2.748980522155761719e+01 2.587592899799346924e-01 6.141660809516906738e-01 2.618776261806488037e-01 1.117530316114425659e-01
2.202000000000000000e+03 1.249199581146240234e+01 -2.421156120300292969e+01 2.225138098001480103e-01 1.751403659582138062e-01 1.192962527275085449e-01 2.662128023803234100e-02
2.203000000000000000e+03 3.103944206237792969e+01 -2.943010568618774414e+00 1.910598635673522949e+00 8.380451202392578125e+00 3.087315082550048828e+00 -4.285024166107177734e+00
2.204000000000000000e+03 3.452343368530273438e+01 -4.251283645629882812e+00 3.496072769165039062e+00 1.432407283782958984e+01 5.346043586730957031e+00 1.245190501213073730e+00
2.205000000000000000e+03 3.239333724975585938e+01 -9.989430427551269531e+00 9.394144415855407715e-01 1.335778427124023438e+01 4.289159774780273438e+00 3.148120880126953125e+00
2.206000000000000000e+03 3.267894363403320312e+01 -1.005391311645507812e+01 9.136063456535339355e-01 1.372680091857910156e+01 4.392122268676757812e+00 2.531055688858032227e+00
2.207000000000000000e+03 3.157998657226562500e+01 -3.157441377639770508e+00 1.608537793159484863e+00 1.015067291259765625e+01 3.527763128280639648e+00 -4.158089160919189453e+00
2.208000000000000000e+03 3.561301803588867188e+01 -5.023173332214355469e+00 5.588278293609619141e+00 1.242735767364501953e+01 5.404690742492675781e+00 1.601126909255981445e+00
2.209000000000000000e+03 3.513535308837890625e+01 -5.099393844604492188e+00 5.812431335449218750e+00 1.323352622985839844e+01 5.713787078857421875e+00 1.744408488273620605e+00
2.210000000000000000e+03 2.863827514648437500e+01 -1.133641147613525391e+01 1.849945545196533203e+00 3.363321781158447266e+00 1.563980221748352051e+00 2.814909696578979492e+00
2.211000000000000000e+03 3.128602790832519531e+01 -1.042158222198486328e+01 1.529897809028625488e+00 9.185715675354003906e+00 3.214684009552001953e+00 4.293254375457763672e+00
2.212000000000000000e+03 3.283715057373046875e+01 -1.055044746398925781e+01 7.185767292976379395e-01 1.288046741485595703e+01 4.079713344573974609e+00 2.293800354003906250e+00
2.213000000000000000e+03 3.604745864868164062e+01 -6.919996261596679688e+00 7.068531513214111328e+00 1.136626529693603516e+01 5.530439376831054688e+00 -2.948537766933441162e-01
2.214000000000000000e+03 3.001868629455566406e+01 -2.069132566452026367e+00 1.856566786766052246e+00 5.946834087371826172e+00 2.341020345687866211e+00 -3.647603034973144531e+00
2.215000000000000000e+03 3.496091461181640625e+01 -8.007547378540039062e+00 6.786406040191650391e+00 1.347698020935058594e+01 6.079015731811523438e+00 -1.910268783569335938e+00
2.216000000000000000e+03 3.014632797241210938e+01 -9.773699760437011719e+00 2.657592058181762695e+00 4.864225864410400391e+00 2.256545305252075195e+00 4.181768894195556641e+00
2.217000000000000000e+03 3.384046554565429688e+01 -1.018198013305664062e+01 1.339628815650939941e+00 1.416784095764160156e+01 4.652240753173828125e+00 3.162379264831542969e-01
2.218000000000000000e+03 2.904449272155761719e+01 -1.147251987457275391e+01 1.824583888053894043e+00 4.013703346252441406e+00 1.751486182212829590e+00 3.126863002777099609e+00
2.219000000000000000e+03 3.549306869506835938e+01 -9.509610176086425781e+00 3.488529682159423828e+00 1.270734024047851562e+01 4.858760833740234375e+00 -1.590084552764892578e+00
2.220000000000000000e+03 2.951178550720214844e+01 -2.595786809921264648e+00 2.303597450256347656e+00 4.622712135314941406e+00 2.077892780303955078e+00 -3.522835493087768555e+00
2.221000000000000000e+03 2.669966888427734375e+01 1.937810420989990234e+00 8.989848494529724121e-01 3.409611940383911133e+00 1.292579054832458496e+00 -2.064673185348510742e+00
2.222000000000000000e+03 3.226064682006835938e+01 -1.104547309875488281e+01 6.544827818870544434e-01 1.118487644195556641e+01 3.551807641983032227e+00 2.974642038345336914e+00
2.223000000000000000e+03 2.819150733947753906e+01 -1.166726493835449219e+01 1.722713828086853027e+00 2.960539340972900391e+00 1.404975891113281250e+00 2.515540838241577148e+00
2.224000000000000000e+03 2.760753059387207031e+01 -1.273538398742675781e+01 1.411019563674926758e+00 2.980064153671264648e+00 1.317325115203857422e+00 2.248096227645874023e+00
2.225000000000000000e+03 2.680253982543945312e+01 -1.351049137115478516e+01 1.212155103683471680e+00 2.715608596801757812e+00 1.178329110145568848e+00 1.931346654891967773e+00
2.226000000000000000e+03 3.048452186584472656e+01 -2.580341100692749023e+00 1.975653767585754395e+00 6.853943824768066406e+00 2.648879289627075195e+00 -4.022238254547119141e+00
2.227000000000000000e+03 2.807078361511230469e+01 -1.704470992088317871e+00 1.909978508949279785e+00 3.048413515090942383e+00 1.487517595291137695e+00 -2.524443149566650391e+00
2.228000000000000000e+03 2.710071372985839844e+01 -6.003422737121582031e-01 1.510941982269287109e+00 2.786436080932617188e+00 1.289213418960571289e+00 -2.124040842056274414e+00
2.229000000000000000e+03 2.715736389160156250e+01 -1.286166572570800781e+01 1.374182581901550293e+00 2.708603382110595703e+00 1.224835753440856934e+00 2.058894872665405273e+00
2.230000000000000000e+03 2.735610771179199219e+01 -1.409526824951171875e+01 1.093264341354370117e+00 3.420888423919677734e+00 1.354245901107788086e+00 2.154508590698242188e+00
2.231000000000000000e+03 2.596973800659179688e+01 1.609409570693969727e+00 9.407911896705627441e-01 2.834264516830444336e+00 1.132516741752624512e+00 -1.839106321334838867e+00
2.232000000000000000e+03 2.697658538818359375e+01 4.300726890563964844e+00 4.849304556846618652e-01 4.017895221710205078e+00 1.350847721099853516e+00 -2.005664587020874023e+00
2.233000000000000000e+03 2.701065826416015625e+01 -1.666408926248550415e-01 1.364156961441040039e+00 2.898526191711425781e+00 1.278804898262023926e+00 -2.106249332427978516e+00
2.234000000000000000e+03 2.559363174438476562e+01 -1.466091346740722656e+01 9.439650177955627441e-01 2.399401903152465820e+00 1.003010034561157227e+00 1.552609086036682129e+00
2.235000000000000000e+03 2.603366279602050781e+01 -1.430341339111328125e+01 1.022892355918884277e+00 2.551581621170043945e+00 1.072342157363891602e+00 1.671030044555664062e+00
2.236000000000000000e+03 2.607188606262207031e+01 3.682790517807006836e+00 6.022900938987731934e-01 3.399694681167602539e+00 1.200595498085021973e+00 -1.900407195091247559e+00
2.237000000000000000e+03 2.557923889160156250e+01 2.376954793930053711e+00 7.875109314918518066e-01 2.788674354553222656e+00 1.072855591773986816e+00 -1.751697540283203125e+00
2.238000000000000000e+03 2.395026588439941406e+01 -1.461444282531738281e+01 7.463535070419311523e-01 1.657663583755493164e+00 7.212051153182983398e-01 1.027147054672241211e+00
2.239000000000000000e+03 2.773812484741210938e+01 1.038822841644287109e+01 -2.042835205793380737e-02 4.640906810760498047e+00 1.386143445968627930e+00 -1.509770989418029785e+00
2.240000000000000000e+03 2.568716812133789062e+01 1.486205101013183594e+01 -3.019855730235576630e-02 3.946129798889160156e+00 1.174779415130615234e+00 -1.118900537490844727e+00
2.241000000000000000e+03 2.517494392395019531e+01 1.370991897583007812e+01 6.614553183317184448e-02 3.744610786437988281e+00 1.143226861953735352e+00 -1.192199707031250000e+00
2.242000000000000000e+03 2.886588668823242188e+01 1.051884841918945312e+01 -1.261568516492843628e-01 5.095705032348632812e+00 1.490864515304565430e+00 -1.477456212043762207e+00
2.243000000000000000e+03 2.732399749755859375e+01 5.663618564605712891e+00 3.024778962135314941e-01 4.355975627899169922e+00 1.397536158561706543e+00 -1.939822673797607422e+00
2.244000000000000000e+03 6.880378723144531250e+01 -6.593523621559143066e-01 2.447296679019927979e-01 7.388482093811035156e+00 2.289963483810424805e+00 3.163480460643768311e-01
2.245000000000000000e+03 6.913858795166015625e+01 -3.341856479644775391e+00 2.588590383529663086e-01 7.336045742034912109e+00 2.278471469879150391e+00 2.059778869152069092e-01
2.246000000000000000e+03 7.028257751464843750e+01 -1.814769506454467773e+00 2.016647756099700928e-01 7.329887866973876953e+00 2.259465694427490234e+00 2.466522455215454102e-01
2.247000000000000000e+03 7.017822265625000000e+01 -4.480614662170410156e-01 1.926948726177215576e-01 7.359886169433593750e+00 2.265774250030517578e+00 2.970905601978302002e-01
2.248000000000000000e+03 2.819038009643554688e+01 6.169899940490722656e+00 1.729206293821334839e-01 4.865729808807373047e+00 1.511595129966735840e+00 -1.920714735984802246e+00
2.249000000000000000e+03 2.204790878295898438e+01 -2.289005470275878906e+01 2.020438462495803833e-01 2.393554210662841797e+00 7.786794304847717285e-01 9.889892339706420898e-01
2.250000000000000000e+03 2.326331520080566406e+01 -1.991387176513671875e+01 3.484830260276794434e-01 2.509636402130126953e+00 8.574358224868774414e-01 1.200914621353149414e+00
2.251000000000000000e+03 6.747460174560546875e+01 5.949861049652099609e+00 1.605826467275619507e-01 7.580586433410644531e+00 2.322350740432739258e+00 5.542479157447814941e-01
2.252000000000000000e+03 6.865350341796875000e+01 6.212220668792724609e+00 1.349364072084426880e-01 7.570557594299316406e+00 2.311648130416870117e+00 5.265974998474121094e-01
2.253000000000000000e+03 6.802872467041015625e+01 1.507051467895507812e+01 -3.151983767747879028e-02 7.838772296905517578e+00 2.342175722122192383e+00 6.009953022003173828e-01
2.254000000000000000e+03 6.565062713623046875e+01 1.289880752563476562e+01 6.235870998352766037e-03 7.782218933105468750e+00 2.336536407470703125e+00 6.749655008316040039e-01
2.255000000000000000e+03 6.758621978759765625e+01 1.020383739471435547e+01 6.481666862964630127e-02 7.702036380767822266e+00 2.330055952072143555e+00 6.100214123725891113e-01
2.256000000000000000e+03 6.720007324218750000e+01 -2.029749679565429688e+01 9.994722902774810791e-02 7.533232212066650391e+00 2.289953947067260742e+00 -4.100750982761383057e-01
2.257000000000000000e+03 2.548963546752929688e+01 1.668678665161132812e+01 -9.815031290054321289e-02 3.934031009674072266e+00 1.150764226913452148e+00 -9.963496327400207520e-01
2.258000000000000000e+03 6.404019927978515625e+01 -1.895287132263183594e+01 1.943143606185913086e-01 7.584332942962646484e+00 2.333594322204589844e+00 -4.602103233337402344e-01
2.259000000000000000e+03 6.261510086059570312e+01 -2.234572601318359375e+01 5.822068825364112854e-02 7.697684764862060547e+00 2.326771736145019531e+00 -5.266622900962829590e-01
2.260000000000000000e+03 6.818520355224609375e+01 2.245754432678222656e+01 -1.199617981910705566e-01 8.032680511474609375e+00 2.373815536499023438e+00 4.977484345436096191e-01
2.261000000000000000e+03 6.578893280029296875e+01 1.528122425079345703e+01 -5.569194629788398743e-02 7.840229511260986328e+00 2.335361242294311523e+00 6.584808230400085449e-01
2.262000000000000000e+03 6.672656250000000000e+01 -2.208987808227539062e+01 5.125436931848526001e-02 7.584635257720947266e+00 2.290766954421997070e+00 -4.362851977348327637e-01
2.263000000000000000e+03 2.532448768615722656e+01 2.147429084777832031e+01 -2.732184231281280518e-01 3.856689691543579102e+00 1.075041413307189941e+00 -7.320075631141662598e-01
2.264000000000000000e+03 6.839791870117187500e+01 7.486603736877441406e+00 1.115977540612220764e-01 7.612538337707519531e+00 2.317240715026855469e+00 5.546154379844665527e-01
2.265000000000000000e+03 2.920115089416503906e+01 9.549694061279296875e+00 -1.201626583933830261e-01 5.232025623321533203e+00 1.533558964729309082e+00 -1.556195259094238281e+00
2.266000000000000000e+03 2.629624366760253906e+01 1.166335391998291016e+01 6.441836059093475342e-02 4.069967746734619141e+00 1.240315794944763184e+00 -1.372897267341613770e+00
2.267000000000000000e+03 2.462424659729003906e+01 2.357119750976562500e+01 -2.930227220058441162e-01 3.729856491088867188e+00 1.031050086021423340e+00 -6.530292034149169922e-01
2.268000000000000000e+03 2.242227363586425781e+01 -1.699753570556640625e+01 4.773019254207611084e-01 1.714214086532592773e+00 6.574547886848449707e-01 9.335494041442871094e-01
2.269000000000000000e+03 2.262173652648925781e+01 -2.131937789916992188e+01 2.708281576633453369e-01 2.440676927566528320e+00 8.134515285491943359e-01 1.097991824150085449e+00
2.270000000000000000e+03 1.765632438659667969e+01 2.820521354675292969e+01 -1.366628557443618774e-01 2.268311262130737305e+00 6.394945383071899414e-01 -4.296360015869140625e-01
2.271000000000000000e+03 1.906814575195312500e+01 2.639027404785156250e+01 -1.554237455129623413e-01 2.525050401687622070e+00 7.108879685401916504e-01 -5.278486609458923340e-01
2.272000000000000000e+03 3.160931396484375000e+01 -1.032357883453369141e+01 1.336833596229553223e+00 1.031909847259521484e+01 3.496779680252075195e+00 4.229561805725097656e+00
2.273000000000000000e+03 3.390748977661132812e+01 -3.473965883255004883e+00 1.794620752334594727e+00 1.426413154602050781e+01 4.817625522613525391e+00 -1.222908049821853638e-01
2.274000000000000000e+03 3.361693572998046875e+01 -3.443520545959472656e+00 1.517444252967834473e+00 1.427472496032714844e+01 4.737650871276855469e+00 -6.842790246009826660e-01
2.275000000000000000e+03 3.479301452636718750e+01 -4.814405918121337891e+00 5.112717628479003906e+00 1.399274253845214844e+01 5.731637954711914062e+00 1.724040508270263672e+00
2.276000000000000000e+03 3.002052116394042969e+01 -2.615612030029296875e+00 2.182592153549194336e+00 5.694684982299804688e+00 2.363183259963989258e+00 -3.833701133728027344e+00
2.277000000000000000e+03 3.490971374511718750e+01 -4.578733921051025391e+00 4.471893310546875000e+00 1.368462657928466797e+01 5.446955680847167969e+00 1.638641834259033203e+00
2.278000000000000000e+03 3.069875335693359375e+01 -1.068001842498779297e+01 1.753451347351074219e+00 7.139384746551513672e+00 2.667850732803344727e+00 4.189820766448974609e+00
2.279000000000000000e+03 2.959334182739257812e+01 -1.116111946105957031e+01 1.864770531654357910e+00 4.773412704467773438e+00 1.991454958915710449e+00 3.494486331939697266e+00
2.280000000000000000e+03 3.631705093383789062e+01 -6.692959308624267578e+00 6.779946804046630859e+00 1.108497238159179688e+01 5.359475612640380859e+00 -3.494458273053169250e-02
2.281000000000000000e+03 3.577157211303710938e+01 -7.677282333374023438e+00 6.765193462371826172e+00 1.182559776306152344e+01 5.577237606048583984e+00 -1.197589874267578125e+00
2.282000000000000000e+03 3.258372497558593750e+01 -1.040292072296142578e+01 7.788230180740356445e-01 1.284743881225585938e+01 4.087878704071044922e+00 2.658532142639160156e+00
2.283000000000000000e+03 3.068226432800292969e+01 -1.036080265045166016e+01 1.985725522041320801e+00 7.007610321044921875e+00 2.698000669479370117e+00 4.359278202056884766e+00
2.284000000000000000e+03 3.327179336547851562e+01 -1.058151340484619141e+01 7.611138820648193359e-01 1.331070137023925781e+01 4.221544265747070312e+00 1.462480068206787109e+00
2.285000000000000000e+03 2.906058692932128906e+01 -1.903122782707214355e+00 1.975900292396545410e+00 4.307127952575683594e+00 1.884908556938171387e+00 -3.145037889480590820e+00
2.286000000000000000e+03 2.807024765014648438e+01 -8.879049867391586304e-02 1.343333721160888672e+00 3.916476726531982422e+00 1.577943086624145508e+00 -2.544783115386962891e+00
2.287000000000000000e+03 3.604889297485351562e+01 -7.432286739349365234e+00 6.777901649475097656e+00 1.145850563049316406e+01 5.470921993255615234e+00 -8.778759241104125977e-01
2.288000000000000000e+03 2.854463577270507812e+01 -1.179142761230468750e+01 1.688146591186523438e+00 3.562341451644897461e+00 1.575146436691284180e+00 2.765955686569213867e+00
2.289000000000000000e+03 2.838780403137207031e+01 -1.249541091918945312e+01 1.463485836982727051e+00 3.733065128326416016e+00 1.558965325355529785e+00 2.662774085998535156e+00
2.290000000000000000e+03 3.003933525085449219e+01 -1.071438884735107422e+01 2.019328594207763672e+00 5.458174705505371094e+00 2.243251085281372070e+00 3.880205392837524414e+00
2.291000000000000000e+03 3.550508117675781250e+01 -8.961204528808593750e+00 4.597709655761718750e+00 1.276842880249023438e+01 5.209841728210449219e+00 -1.782012939453125000e+00
2.292000000000000000e+03 2.955104255676269531e+01 -2.007293224334716797e+00 1.939643263816833496e+00 5.053946018218994141e+00 2.098076820373535156e+00 -3.411640882492065430e+00
2.293000000000000000e+03 2.731061172485351562e+01 5.679386854171752930e-01 1.203007578849792480e+00 3.445649862289428711e+00 1.394597291946411133e+00 -2.260941505432128906e+00
2.294000000000000000e+03 2.806324195861816406e+01 -6.389538049697875977e-01 1.562070250511169434e+00 3.614255428314208984e+00 1.552897691726684570e+00 -2.565870046615600586e+00
2.295000000000000000e+03 2.809790420532226562e+01 2.765960931777954102e+00 6.330235004425048828e-01 4.642138004302978516e+00 1.582548499107360840e+00 -2.277302026748657227e+00
2.296000000000000000e+03 2.828311157226562500e+01 -1.205455970764160156e+01 1.617841601371765137e+00 3.412456274032592773e+00 1.509089350700378418e+00 2.616590023040771484e+00
2.297000000000000000e+03 2.856152725219726562e+01 -6.742573380470275879e-01 1.519669532775878906e+00 4.244403362274169922e+00 1.729221940040588379e+00 -2.788993358612060547e+00
2.298000000000000000e+03 2.734727478027343750e+01 2.912882566452026367e+00 6.661684513092041016e-01 4.062986850738525391e+00 1.418746590614318848e+00 -2.143226861953735352e+00
2.299000000000000000e+03 2.857009887695312500e+01 5.463700294494628906e+00 1.988628059625625610e-01 5.063033103942871094e+00 1.578568816184997559e+00 -1.987768888473510742e+00
2.300000000000000000e+03 2.419813728332519531e+01 -1.537417602539062500e+01 7.494891285896301270e-01 2.010214328765869141e+00 8.279110789299011230e-01 1.222727298736572266e+00
2.301000000000000000e+03 2.645529556274414062e+01 2.795449972152709961e+00 7.242061495780944824e-01 3.457435369491577148e+00 1.254492402076721191e+00 -1.985230565071105957e+00
2.302000000000000000e+03 2.601649856567382812e+01 -1.652876472473144531e+01 6.986395120620727539e-01 3.203919410705566406e+00 1.170767664909362793e+00 1.739410996437072754e+00
2.303000000000000000e+03 2.403297424316406250e+01 -1.763538360595703125e+01 5.408546328544616699e-01 2.480750083923339844e+00 9.064814448356628418e-01 1.316630005836486816e+00
2.304000000000000000e+03 2.543089485168457031e+01 -1.576511096954345703e+01 7.977268695831298828e-01 2.679947853088378906e+00 1.043302416801452637e+00 1.576994657516479492e+00
2.305000000000000000e+03 2.828110885620117188e+01 4.357813358306884766e+00 3.495940566062927246e-01 4.856763839721679688e+00 1.561907410621643066e+00 -2.099830389022827148e+00
2.306000000000000000e+03 2.677139091491699219e+01 -1.581665706634521484e+01 7.925463914871215820e-01 3.470956802368164062e+00 1.279050946235656738e+00 1.935025691986083984e+00
2.307000000000000000e+03 6.789641571044921875e+01 -8.339848518371582031e+00 3.043142557144165039e-01 7.339117527008056641e+00 2.293029546737670898e+00 -1.813292130827903748e-02
2.308000000000000000e+03 2.929932785034179688e+01 1.262746429443359375e+01 -2.327517867088317871e-01 5.123484611511230469e+00 1.467219829559326172e+00 -1.256730198860168457e+00
2.309000000000000000e+03 6.901912689208984375e+01 -1.060649776458740234e+01 2.457283288240432739e-01 7.318694114685058594e+00 2.269326686859130859e+00 -1.078055575489997864e-01
2.310000000000000000e+03 2.948639106750488281e+01 8.608385086059570312e+00 -1.028435602784156799e-01 5.395066738128662109e+00 1.587666988372802734e+00 -1.606463670730590820e+00
2.311000000000000000e+03 2.803394126892089844e+01 9.261142730712890625e+00 -1.846942817792296410e-03 4.754254817962646484e+00 1.425722360610961914e+00 -1.606669068336486816e+00
2.312000000000000000e+03 6.677871704101562500e+01 -1.593936920166015625e+01 2.375831454992294312e-01 7.448604106903076172e+00 2.305856227874755859e+00 -3.290755748748779297e-01
2.313000000000000000e+03 6.795950317382812500e+01 -3.578258037567138672e+00 3.111283481121063232e-01 7.360388278961181641e+00 2.301455020904541016e+00 2.101229280233383179e-01
2.314000000000000000e+03 7.165098571777343750e+01 -3.037658929824829102e+00 1.617574989795684814e-01 7.265815258026123047e+00 2.228271961212158203e+00 1.799487471580505371e-01
2.315000000000000000e+03 6.598820495605468750e+01 -1.830473136901855469e+01 1.750746071338653564e-01 7.519984245300292969e+00 2.308517694473266602e+00 -4.024423062801361084e-01
2.316000000000000000e+03 6.733676147460937500e+01 -1.877295494079589844e+01 1.346379071474075317e-01 7.498712062835693359e+00 2.290004968643188477e+00 -3.833567202091217041e-01
2.317000000000000000e+03 6.720042419433593750e+01 4.978619217872619629e-01 2.917446196079254150e-01 7.442199230194091797e+00 2.320183038711547852e+00 3.916233479976654053e-01
2.318000000000000000e+03 6.750081634521484375e+01 4.900414943695068359e+00 1.912124902009963989e-01 7.548215866088867188e+00 2.321828603744506836e+00 5.317087173461914062e-01
2.319000000000000000e+03 6.653614807128906250e+01 5.366839885711669922e+00 1.972055435180664062e-01 7.575842857360839844e+00 2.331914663314819336e+00 5.679309368133544922e-01
2.320000000000000000e+03 2.767454528808593750e+01 1.166309833526611328e+01 -6.649934500455856323e-02 4.622502803802490234e+00 1.366801142692565918e+00 -1.392589688301086426e+00
2.321000000000000000e+03 6.581215667724609375e+01 6.374764919281005859e+00 1.861696094274520874e-01 7.609601974487304688e+00 2.338731527328491211e+00 6.054801344871520996e-01
2.322000000000000000e+03 6.816441345214843750e+01 -5.944503307342529297e+00 3.165408968925476074e-01 7.333641052246093750e+00 2.295054435729980469e+00 9.621201455593109131e-02
2.323000000000000000e+03 6.538334655761718750e+01 1.070254039764404297e+01 7.158119976520538330e-02 7.724421024322509766e+00 2.338800668716430664e+00 6.762102842330932617e-01
2.324000000000000000e+03 1.484622097015380859e+01 -2.799057388305664062e+01 2.427784800529479980e-01 9.581482410430908203e-01 3.602780103683471680e-01 2.400761097669601440e-01
2.325000000000000000e+03 1.467763710021972656e+01 2.791855812072753906e+01 -3.108775801956653595e-02 1.642559766769409180e+00 4.834416210651397705e-01 -3.732846975326538086e-01
2.326000000000000000e+03 1.934148979187011719e+01 2.988609695434570312e+01 -2.117829024791717529e-01 2.627619743347167969e+00 7.247510552406311035e-01 -4.199731647968292236e-01
2.327000000000000000e+03 2.470234107971191406e+01 -2.063628768920898438e+01 2.456814199686050415e-01 3.188296318054199219e+00 1.030193328857421875e+00 1.350502133369445801e+00
2.328000000000000000e+03 6.710655975341796875e+01 1.627506446838378906e+01 -5.936661362648010254e-02 7.866466522216796875e+00 2.342129945755004883e+00 6.184350252151489258e-01
2.329000000000000000e+03 2.303861808776855469e+01 2.885828971862792969e+01 -3.253697454929351807e-01 3.422642230987548828e+00 9.291817545890808105e-01 -4.481026232242584229e-01
2.330000000000000000e+03 2.402681732177734375e+01 2.613417625427246094e+01 -3.262651562690734863e-01 3.599369525909423828e+00 9.819313287734985352e-01 -5.607410073280334473e-01
2.331000000000000000e+03 2.533968544006347656e+01 1.892030525207519531e+01 -1.759413480758666992e-01 3.928745269775390625e+00 1.125841140747070312e+00 -8.659061789512634277e-01
2.332000000000000000e+03 3.449837875366210938e+01 -3.943349361419677734e+00 3.065241336822509766e+00 1.416577529907226562e+01 5.169304847717285156e+00 1.025354862213134766e+00
2.333000000000000000e+03 3.145491600036621094e+01 -2.761940717697143555e+00 1.485574483871459961e+00 9.611710548400878906e+00 3.329185485839843750e+00 -3.957722425460815430e+00
2.334000000000000000e+03 3.526389312744140625e+01 -9.810503005981445312e+00 2.924940347671508789e+00 1.294653511047363281e+01 4.761442661285400391e+00 -1.379655003547668457e+00
2.335000000000000000e+03 3.525156784057617188e+01 -1.056705665588378906e+01 1.971696615219116211e+00 1.273467636108398438e+01 4.411911964416503906e+00 -9.675700068473815918e-01
2.336000000000000000e+03 3.270283508300781250e+01 -3.498214960098266602e+00 1.196073055267333984e+00 1.377907085418701172e+01 4.492543220520019531e+00 -2.570023059844970703e+00
2.337000000000000000e+03 3.178047561645507812e+01 -1.103429603576660156e+01 9.026979804039001465e-01 1.013751506805419922e+01 3.312063694000244141e+00 3.516342639923095703e+00
2.338000000000000000e+03 3.113406372070312500e+01 -1.073188304901123047e+01 1.450754284858703613e+00 8.548870086669921875e+00 2.999887228012084961e+00 4.171520233154296875e+00
2.339000000000000000e+03 3.048070335388183594e+01 -1.602741599082946777e+00 1.434997677803039551e+00 6.963212966918945312e+00 2.519463300704956055e+00 -3.544267892837524414e+00
2.340000000000000000e+03 3.039885139465332031e+01 -1.073222637176513672e+01 1.862492203712463379e+00 6.385248661041259766e+00 2.474322319030761719e+00 4.059985637664794922e+00
2.341000000000000000e+03 2.935244369506835938e+01 -1.206336593627929688e+01 1.503314137458801270e+00 4.772007465362548828e+00 1.882596492767333984e+00 3.134881734848022461e+00
2.342000000000000000e+03 3.377413940429687500e+01 -1.073147392272949219e+01 9.010983705520629883e-01 1.319942283630371094e+01 4.230156421661376953e+00 6.969944238662719727e-01
2.343000000000000000e+03 3.245883560180664062e+01 -1.075337028503417969e+01 6.570594906806945801e-01 1.191900539398193359e+01 3.772819519042968750e+00 2.842562675476074219e+00
2.344000000000000000e+03 3.090361976623535156e+01 -2.502774953842163086e+00 1.706550359725952148e+00 7.980421543121337891e+00 2.906091690063476562e+00 -4.021567821502685547e+00
2.345000000000000000e+03 2.893108367919921875e+01 -1.197798919677734375e+01 1.621253967285156250e+00 4.184009075164794922e+00 1.741578936576843262e+00 3.005136251449584961e+00
2.346000000000000000e+03 3.137069320678710938e+01 -1.124135303497314453e+01 1.012286901473999023e+00 8.882795333862304688e+00 2.968524694442749023e+00 3.728257417678833008e+00
2.347000000000000000e+03 3.302429580688476562e+01 -1.079651165008544922e+01 6.110996007919311523e-01 1.272015380859375000e+01 3.999375820159912109e+00 1.944910764694213867e+00
2.348000000000000000e+03 3.640363311767578125e+01 -7.749296188354492188e+00 6.104357242584228516e+00 1.116027832031250000e+01 5.179390907287597656e+00 -1.080539226531982422e+00
2.349000000000000000e+03 3.005917549133300781e+01 -1.124839878082275391e+01 1.696279525756835938e+00 5.765727519989013672e+00 2.238602161407470703e+00 3.692690849304199219e+00
2.350000000000000000e+03 2.885056304931640625e+01 -1.259080410003662109e+01 1.402030706405639648e+00 4.339981555938720703e+00 1.722603678703308105e+00 2.856721878051757812e+00
2.351000000000000000e+03 3.044752311706542969e+01 -2.085078239440917969e+00 1.700200796127319336e+00 6.853910446166992188e+00 2.566233396530151367e+00 -3.764995813369750977e+00
2.352000000000000000e+03 2.698917770385742188e+01 1.210525274276733398e+00 1.044753789901733398e+00 3.404932975769042969e+00 1.334905982017517090e+00 -2.141672372817993164e+00
2.353000000000000000e+03 2.751681518554687500e+01 -3.794207051396369934e-02 1.348609447479248047e+00 3.386601686477661133e+00 1.420563340187072754e+00 -2.328732252120971680e+00
2.354000000000000000e+03 2.688302230834960938e+01 -1.404149913787841797e+01 1.135562658309936523e+00 2.901521921157836914e+00 1.211125373840332031e+00 1.982680559158325195e+00
2.355000000000000000e+03 2.612011718750000000e+01 -1.520858955383300781e+01 8.939565420150756836e-01 2.927816152572631836e+00 1.146531820297241211e+00 1.782568097114562988e+00
2.356000000000000000e+03 2.914512062072753906e+01 -1.300990223884582520e+00 1.692649126052856445e+00 4.733378410339355469e+00 1.927808284759521484e+00 -3.099357366561889648e+00
2.357000000000000000e+03 2.789472770690917969e+01 8.297964930534362793e-01 1.108802318572998047e+00 4.011647701263427734e+00 1.536134958267211914e+00 -2.420389175415039062e+00
2.358000000000000000e+03 2.826486206054687500e+01 3.824383616447448730e-01 1.193749904632568359e+00 4.180317401885986328e+00 1.612220168113708496e+00 -2.534434556961059570e+00
2.359000000000000000e+03 2.939627265930175781e+01 5.853873252868652344e+00 5.668780952692031860e-02 5.557605743408203125e+00 1.684288144111633301e+00 -1.930220603942871094e+00
2.360000000000000000e+03 2.765330886840820312e+01 3.713278293609619141e+00 5.206211209297180176e-01 4.364191055297851562e+00 1.465443730354309082e+00 -2.125086784362792969e+00
2.361000000000000000e+03 2.734803009033203125e+01 -1.346966361999511719e+01 1.238716483116149902e+00 3.172659873962402344e+00 1.323412895202636719e+00 2.160711050033569336e+00
2.362000000000000000e+03 2.855893325805664062e+01 -2.343499213457107544e-01 1.353108763694763184e+00 4.399394989013671875e+00 1.725751042366027832e+00 -2.721283435821533203e+00
2.363000000000000000e+03 2.751891136169433594e+01 -1.654027557373046875e+01 6.022123694419860840e-01 4.180869102478027344e+00 1.434924364089965820e+00 2.037610292434692383e+00
2.364000000000000000e+03 2.906686592102050781e+01 6.587326526641845703e+00 4.639981314539909363e-02 5.326328277587890625e+00 1.611818432807922363e+00 -1.843836784362792969e+00
2.365000000000000000e+03 2.894529914855957031e+01 4.851216793060302734e+00 2.204510271549224854e-01 5.297416687011718750e+00 1.655360341072082520e+00 -2.061088085174560547e+00
2.366000000000000000e+03 2.456010055541992188e+01 -1.622871589660644531e+01 7.149673700332641602e-01 2.344995498657226562e+00 9.179888963699340820e-01 1.380881905555725098e+00
2.367000000000000000e+03 6.700144958496093750e+01 2.081459999084472656e+00 2.666666209697723389e-01 7.483020305633544922e+00 2.324906110763549805e+00 4.572170972824096680e-01
2.368000000000000000e+03 2.509973716735839844e+01 -1.722668647766113281e+01 5.972289443016052246e-01 2.845716238021850586e+00 1.032883524894714355e+00 1.524349212646484375e+00
2.369000000000000000e+03 2.995560646057128906e+01 6.919994831085205078e+00 -9.118569642305374146e-02 5.779242038726806641e+00 1.706416964530944824e+00 -1.786074161529541016e+00
2.370000000000000000e+03 3.045244598388671875e+01 9.881872177124023438e+00 -2.662126421928405762e-01 5.783752441406250000e+00 1.655261874198913574e+00 -1.404845833778381348e+00
2.371000000000000000e+03 6.791820526123046875e+01 -9.492597579956054688e+00 3.004168272018432617e-01 7.342324256896972656e+00 2.292822360992431641e+00 -5.612350627779960632e-02
2.372000000000000000e+03 6.911480712890625000e+01 -9.507002830505371094e+00 2.578617334365844727e-01 7.310220241546630859e+00 2.270424604415893555e+00 -5.759818106889724731e-02
2.373000000000000000e+03 7.037822723388671875e+01 -3.169612407684326172e+00 2.085150629281997681e-01 7.304785251617431641e+00 2.253990173339843750e+00 1.950339823961257935e-01
2.374000000000000000e+03 6.719268035888671875e+01 -4.971480846405029297e+00 3.547426462173461914e-01 7.362499713897705078e+00 2.315172672271728516e+00 1.533143371343612671e-01
2.375000000000000000e+03 6.361673736572265625e+01 2.332358360290527344e+00 3.825992941856384277e-01 7.535921573638916016e+00 2.375556230545043945e+00 5.450304150581359863e-01
2.376000000000000000e+03 6.859984588623046875e+01 -1.524397182464599609e+01 1.832925528287887573e-01 7.392487525939941406e+00 2.272733926773071289e+00 -2.741026282310485840e-01
2.377000000000000000e+03 6.769273376464843750e+01 -2.307187318801879883e+00 3.086156845092773438e-01 7.383196353912353516e+00 2.307543516159057617e+00 2.703063786029815674e-01
2.378000000000000000e+03 6.707241058349609375e+01 7.029439449310302734e+00 1.440707147121429443e-01 7.613153934478759766e+00 2.327167510986328125e+00 5.837107896804809570e-01
2.379000000000000000e+03 6.440355682373046875e+01 1.186410522460937500e+01 3.545723110437393188e-02 7.761039733886718750e+00 2.338949203491210938e+00 7.037265896797180176e-01
2.380000000000000000e+03 6.560073089599609375e+01 -1.627006340026855469e+01 2.518137693405151367e-01 7.485566616058349609e+00 2.321214199066162109e+00 -3.571499884128570557e-01
2.381000000000000000e+03 6.897684478759765625e+01 -2.018712997436523438e+00 2.520277500152587891e-01 7.360722541809082031e+00 2.283825159072875977e+00 2.616445422172546387e-01
2.382000000000000000e+03 2.692643737792968750e+01 -1.891239356994628906e+01 2.938398122787475586e-01 4.110622882843017578e+00 1.321338891983032227e+00 1.734157800674438477e+00
2.383000000000000000e+03 2.666580963134765625e+01 1.452396678924560547e+01 -8.322241902351379395e-02 4.225511074066162109e+00 1.242686510086059570e+00 -1.144608855247497559e+00
2.384000000000000000e+03 2.788924980163574219e+01 1.307670211791992188e+01 -1.339583843946456909e-01 4.657699584960937500e+00 1.357122302055358887e+00 -1.261183142662048340e+00
2.385000000000000000e+03 2.418033790588378906e+01 -2.212787437438964844e+01 1.765570044517517090e-01 3.129128456115722656e+00 9.917055964469909668e-01 1.245885372161865234e+00
2.386000000000000000e+03 2.643760681152343750e+01 1.317880725860595703e+01 -9.983909316360950470e-03 4.133139610290527344e+00 1.236946702003479004e+00 -1.248231172561645508e+00
2.387000000000000000e+03 2.783861351013183594e+01 1.864556694030761719e+01 -3.033601641654968262e-01 4.511347293853759766e+00 1.262396097183227539e+00 -8.631044626235961914e-01
2.388000000000000000e+03 2.652104949951171875e+01 1.765297698974609375e+01 -1.963987350463867188e-01 4.181211471557617188e+00 1.195443868637084961e+00 -9.414937496185302734e-01
2.389000000000000000e+03 6.685057067871093750e+01 -3.948540449142456055e+00 3.638448715209960938e-01 7.378421783447265625e+00 2.322679996490478516e+00 2.028330862522125244e-01
2.390000000000000000e+03 3.402748489379882812e+01 -1.051007747650146484e+01 1.137403726577758789e+00 1.348576927185058594e+01 4.386951923370361328e+00 2.830627262592315674e-01
2.391000000000000000e+03 3.181772994995117188e+01 -2.589646339416503906e+00 1.207139253616333008e+00 1.033577919006347656e+01 3.462875604629516602e+00 -3.589555501937866211e+00
2.392000000000000000e+03 3.153688621520996094e+01 -2.198328256607055664e+00 1.203650832176208496e+00 9.419254302978515625e+00 3.186871528625488281e+00 -3.622031450271606445e+00
2.393000000000000000e+03 3.418086624145507812e+01 -1.024017810821533203e+01 1.609790682792663574e+00 1.392456531524658203e+01 4.660306930541992188e+00 -2.716602385044097900e-01
2.394000000000000000e+03 3.509094238281250000e+01 -4.757579326629638672e+00 5.054192066192626953e+00 1.331267261505126953e+01 5.510059356689453125e+00 1.715405464172363281e+00
2.395000000000000000e+03 3.145102691650390625e+01 -1.089344882965087891e+01 1.170693039894104004e+00 9.371995925903320312e+00 3.162806749343872070e+00 3.888221979141235352e+00
2.396000000000000000e+03 3.510203170776367188e+01 -4.053940773010253906e+00 3.614231109619140625e+00 1.323938846588134766e+01 5.056085586547851562e+00 1.393793463706970215e+00
2.397000000000000000e+03 3.323268890380859375e+01 -3.178504705429077148e+00 1.176175236701965332e+00 1.366378021240234375e+01 4.451986312866210938e+00 -1.535190582275390625e+00
2.398000000000000000e+03 3.632988357543945312e+01 -6.210649967193603516e+00 6.589370727539062500e+00 1.111861991882324219e+01 5.312397003173828125e+00 5.203492641448974609e-01
2.399000000000000000e+03 3.425470352172851562e+01 -3.497647762298583984e+00 2.045952796936035156e+00 1.399568748474121094e+01 4.812492370605468750e+00 3.044570684432983398e-01
2.400000000000000000e+03 3.215461349487304688e+01 -1.153700828552246094e+01 5.481387972831726074e-01 1.048896503448486328e+01 3.311131000518798828e+00 2.924586296081542969e+00
2.401000000000000000e+03 3.281879043579101562e+01 -2.787786245346069336e+00 9.233117699623107910e-01 1.261682701110839844e+01 4.062041759490966797e+00 -2.282380580902099609e+00
2.402000000000000000e+03 3.007867240905761719e+01 -1.542644619941711426e+00 1.562120318412780762e+00 6.199758529663085938e+00 2.328563690185546875e+00 -3.476845741271972656e+00
2.403000000000000000e+03 3.615660858154296875e+01 -8.217219352722167969e+00 5.746010303497314453e+00 1.161097526550292969e+01 5.207095623016357422e+00 -1.477500677108764648e+00
2.404000000000000000e+03 3.245455169677734375e+01 -1.144319343566894531e+01 5.104323029518127441e-01 1.103901004791259766e+01 3.464832544326782227e+00 2.680105924606323242e+00
2.405000000000000000e+03 3.275133514404296875e+01 -1.087889862060546875e+01 6.006911396980285645e-01 1.215074253082275391e+01 3.825429916381835938e+00 2.406126976013183594e+00
2.406000000000000000e+03 2.936764907836914062e+01 -1.262835407257080078e+01 1.339223146438598633e+00 5.026328563690185547e+00 1.909665465354919434e+00 3.080468177795410156e+00
2.407000000000000000e+03 2.974118041992187500e+01 -1.197398471832275391e+01 1.465505003929138184e+00 5.431345939636230469e+00 2.069055318832397461e+00 3.361922264099121094e+00
2.408000000000000000e+03 3.281370162963867188e+01 -1.131576251983642578e+01 4.747347831726074219e-01 1.168675804138183594e+01 3.648447990417480469e+00 2.277899265289306641e+00
2.409000000000000000e+03 3.465646743774414062e+01 -3.498207092285156250e+00 2.415895700454711914e+00 1.348870944976806641e+01 4.771381378173828125e+00 7.739626169204711914e-01
2.410000000000000000e+03 3.683528518676757812e+01 -6.679616451263427734e+00 6.222367763519287109e+00 1.060365676879882812e+01 5.047807216644287109e+00 -3.518941113725304604e-03
2.411000000000000000e+03 3.675496673583984375e+01 -7.470921039581298828e+00 6.064468383789062500e+00 1.077739715576171875e+01 5.052559852600097656e+00 -7.543811202049255371e-01
2.412000000000000000e+03 3.637100219726562500e+01 -7.194360733032226562e+00 6.629476547241210938e+00 1.107159328460693359e+01 5.310320854187011719e+00 -5.752089619636535645e-01
2.413000000000000000e+03 3.639120864868164062e+01 -5.669497013092041016e+00 6.043883800506591797e+00 1.117591190338134766e+01 5.165938854217529297e+00 9.902428388595581055e-01
2.414000000000000000e+03 2.866443061828613281e+01 -1.322911071777343750e+01 1.235367536544799805e+00 4.347398281097412109e+00 1.674829721450805664e+00 2.711512565612792969e+00
2.415000000000000000e+03 2.785575866699218750e+01 -1.329354953765869141e+01 1.277502417564392090e+00 3.539330482482910156e+00 1.445049881935119629e+00 2.384986400604248047e+00
2.416000000000000000e+03 2.986809539794921875e+01 -1.251330661773681641e+01 1.242427945137023926e+00 5.835277080535888672e+00 2.123311519622802734e+00 3.258894443511962891e+00
2.417000000000000000e+03 3.084686660766601562e+01 -1.634377837181091309e+00 1.302705407142639160e+00 7.675165653228759766e+00 2.693361282348632812e+00 -3.543887853622436523e+00
2.418000000000000000e+03 3.190331268310546875e+01 -1.148145484924316406e+01 6.857492923736572266e-01 9.928960800170898438e+00 3.184413194656372070e+00 3.193436861038208008e+00
2.419000000000000000e+03 3.049705886840820312e+01 -1.121131992340087891e+01 1.530578732490539551e+00 6.824193477630615234e+00 2.506431579589843750e+00 3.848818302154541016e+00
2.420000000000000000e+03 2.741170120239257812e+01 -1.512478542327880859e+01 8.697325587272644043e-01 3.743942499160766602e+00 1.384102463722229004e+00 2.111385583877563477e+00
2.421000000000000000e+03 2.932070159912109375e+01 -7.466084361076354980e-01 1.427263140678405762e+00 5.175653934478759766e+00 1.980875134468078613e+00 -3.043225288391113281e+00
2.422000000000000000e+03 2.788640022277832031e+01 -1.443595981597900391e+01 1.001962304115295410e+00 3.986938476562500000e+00 1.496670246124267578e+00 2.329252481460571289e+00
2.423000000000000000e+03 2.836247825622558594e+01 3.349588871002197266e+00 5.090398192405700684e-01 4.868881225585937500e+00 1.613376259803771973e+00 -2.242011785507202148e+00
2.424000000000000000e+03 3.016831016540527344e+01 6.206623077392578125e+00 -4.759088158607482910e-02 5.923383712768554688e+00 1.762737870216369629e+00 -1.843471407890319824e+00
2.425000000000000000e+03 2.761473274230957031e+01 1.433321833610534668e+00 9.765520095825195312e-01 3.933165788650512695e+00 1.472915410995483398e+00 -2.305198431015014648e+00
2.426000000000000000e+03 2.972281265258789062e+01 7.729049205780029297e+00 -9.439346939325332642e-02 5.615166664123535156e+00 1.656231999397277832e+00 -1.675185203552246094e+00
2.427000000000000000e+03 6.742591857910156250e+01 -9.520850181579589844e-01 3.006647229194641113e-01 7.412031173706054688e+00 2.313808679580688477e+00 3.302945494651794434e-01
2.428000000000000000e+03 2.977473449707031250e+01 1.090318584442138672e+01 -2.328963130712509155e-01 5.422573089599609375e+00 1.556903004646301270e+00 -1.360428571701049805e+00
2.429000000000000000e+03 6.712488555908203125e+01 -1.459955596923828125e+01 2.490396052598953247e-01 7.421349525451660156e+00 2.301116704940795898e+00 -2.799817919731140137e-01
2.430000000000000000e+03 6.570670318603515625e+01 4.303115367889404297e+00 2.564594447612762451e-01 7.555091857910156250e+00 2.343465328216552734e+00 5.587658286094665527e-01
2.431000000000000000e+03 2.787864494323730469e+01 1.464945030212402344e+01 -1.838639825582504272e-01 4.616264343261718750e+00 1.329720020294189453e+00 -1.133880019187927246e+00
2.432000000000000000e+03 2.674495697021484375e+01 -1.730853271484375000e+01 5.328199267387390137e-01 3.742002725601196289e+00 1.282446742057800293e+00 1.820734381675720215e+00
2.433000000000000000e+03 2.962615203857421875e+01 5.208375453948974609e+00 9.679753333330154419e-02 5.723114490509033203e+00 1.745973706245422363e+00 -1.988777279853820801e+00
2.434000000000000000e+03 2.591888236999511719e+01 -1.816374206542968750e+01 4.620451927185058594e-01 3.403825998306274414e+00 1.159761309623718262e+00 1.640488147735595703e+00
2.435000000000000000e+03 6.463523101806640625e+01 -1.873842239379882812e+00 4.476226866245269775e-01 7.443409442901611328e+00 2.367309570312500000e+00 3.364472389221191406e-01
2.436000000000000000e+03 6.645985412597656250e+01 -5.479827880859375000e+00 3.954595029354095459e-01 7.373462677001953125e+00 2.330676794052124023e+00 1.323276311159133911e-01
2.437000000000000000e+03 6.643889617919921875e+01 -2.725050687789916992e+00 3.738228380680084229e-01 7.400177478790283203e+00 2.332200050354003906e+00 2.680338323116302490e-01
2.438000000000000000e+03 6.688994598388671875e+01 -6.968475818634033203e+00 3.763098120689392090e-01 7.357565402984619141e+00 2.320162534713745117e+00 5.067488551139831543e-02
2.439000000000000000e+03 2.614236640930175781e+01 -2.116447067260742188e+01 1.422708630561828613e-01 3.874101400375366211e+00 1.204911708831787109e+00 1.477554321289062500e+00
2.440000000000000000e+03 6.604799652099609375e+01 -1.354997158050537109e+00 3.663703203201293945e-01 7.428825378417968750e+00 2.338558673858642578e+00 3.391501307487487793e-01
2.441000000000000000e+03 6.553190612792968750e+01 -1.975171279907226562e+01 1.408549547195434570e-01 7.564324378967285156e+00 2.311553716659545898e+00 -4.414718151092529297e-01
2.442000000000000000e+03 6.289101409912109375e+01 9.560525894165039062e+00 1.226574331521987915e-01 7.716339111328125000e+00 2.351699113845825195e+00 7.263691425323486328e-01
2.443000000000000000e+03 6.445839691162109375e+01 1.419592571258544922e+01 -3.633691370487213135e-02 7.813347816467285156e+00 2.333103418350219727e+00 6.961233019828796387e-01
2.444000000000000000e+03 1.829956054687500000e+01 -2.231664466857910156e+01 2.385582029819488525e-01 1.131983399391174316e+00 4.111624956130981445e-01 5.899346470832824707e-01
2.445000000000000000e+03 2.414054298400878906e+01 -2.683766555786132812e+01 -6.867735087871551514e-02 3.451381683349609375e+00 1.014811277389526367e+00 9.760619997978210449e-01
2.446000000000000000e+03 6.608270263671875000e+01 9.475193023681640625e+00 9.764739871025085449e-02 7.690476417541503906e+00 2.336436986923217773e+00 6.476856470108032227e-01
2.447000000000000000e+03 6.384972000122070312e+01 6.964112758636474609e+00 2.162642329931259155e-01 7.644376754760742188e+00 2.358192205429077148e+00 6.705684661865234375e-01
2.448000000000000000e+03 3.205755615234375000e+01 -2.802314758300781250e+00 1.127092480659484863e+00 1.113475418090820312e+01 3.678553819656372070e+00 -3.435038089752197266e+00
2.449000000000000000e+03 3.116264152526855469e+01 -2.018014430999755859e+00 1.317275524139404297e+00 8.435962677001953125e+00 2.925971508026123047e+00 -3.684482812881469727e+00
2.450000000000000000e+03 3.314287185668945312e+01 -2.752752780914306641e+00 9.198874235153198242e-01 1.287878417968750000e+01 4.139601707458496094e+00 -1.795311212539672852e+00
2.451000000000000000e+03 3.268926239013671875e+01 -3.088788509368896484e+00 1.060307621955871582e+00 1.291195297241210938e+01 4.191678047180175781e+00 -2.505500793457031250e+00
2.452000000000000000e+03 3.261186218261718750e+01 -2.215039253234863281e+00 7.510423660278320312e-01 1.149785709381103516e+01 3.674669742584228516e+00 -2.488442420959472656e+00
2.453000000000000000e+03 3.598551559448242188e+01 -8.954012870788574219e+00 4.653920650482177734e+00 1.204401874542236328e+01 5.009381771087646484e+00 -1.719339251518249512e+00
2.454000000000000000e+03 3.609844207763671875e+01 -8.578516006469726562e+00 5.194649219512939453e+00 1.182583236694335938e+01 5.106144428253173828e+00 -1.635683298110961914e+00
2.455000000000000000e+03 3.667794036865234375e+01 -8.580018997192382812e+00 4.976044654846191406e+00 1.113880729675292969e+01 4.834455490112304688e+00 -1.443810224533081055e+00
2.456000000000000000e+03 3.016517257690429688e+01 -1.182446193695068359e+01 1.401302337646484375e+00 6.162001609802246094e+00 2.268990993499755859e+00 3.531149387359619141e+00
2.457000000000000000e+03 3.087486839294433594e+01 -1.103941249847412109e+01 1.425783276557922363e+00 7.738888740539550781e+00 2.749401569366455078e+00 4.017983913421630859e+00
2.458000000000000000e+03 3.348992538452148438e+01 -1.096399211883544922e+01 6.453576683998107910e-01 1.285695552825927734e+01 4.050693988800048828e+00 1.227638959884643555e+00
2.459000000000000000e+03 3.455952453613281250e+01 -1.045196819305419922e+01 1.638628602027893066e+00 1.326959228515625000e+01 4.472465991973876953e+00 -4.663671255111694336e-01
2.460000000000000000e+03 2.914464187622070312e+01 -1.357907390594482422e+01 1.065746188163757324e+00 4.993909358978271484e+00 1.817896723747253418e+00 2.810461997985839844e+00
2.461000000000000000e+03 3.660804367065429688e+01 -8.138794898986816406e+00 5.596132755279541016e+00 1.110463333129882812e+01 5.010229587554931641e+00 -1.258361220359802246e+00
2.462000000000000000e+03 3.506932830810546875e+01 -4.342404842376708984e+00 4.111716747283935547e+00 1.342069721221923828e+01 5.259724140167236328e+00 1.602000832557678223e+00
2.463000000000000000e+03 2.963542938232421875e+01 -1.443965315818786621e+00 1.651973247528076172e+00 5.483340263366699219e+00 2.140594005584716797e+00 -3.321877956390380859e+00
2.464000000000000000e+03 2.892984390258789062e+01 -4.627879261970520020e-01 1.415642619132995605e+00 4.717003345489501953e+00 1.839793801307678223e+00 -2.910550355911254883e+00
2.465000000000000000e+03 3.049435615539550781e+01 -8.750874549150466919e-02 8.772294521331787109e-01 6.940152645111083984e+00 2.345214605331420898e+00 -2.999314546585083008e+00
2.466000000000000000e+03 2.828087615966796875e+01 -1.380162429809570312e+01 1.110960125923156738e+00 4.148321628570556641e+00 1.577784538269042969e+00 2.512835264205932617e+00
2.467000000000000000e+03 2.939028358459472656e+01 2.650013923645019531e+00 4.786331355571746826e-01 5.668418407440185547e+00 1.844115376472473145e+00 -2.393131971359252930e+00
2.468000000000000000e+03 2.820680236816406250e+01 1.599628925323486328e+00 8.694791793823242188e-01 4.492698192596435547e+00 1.608653187751770020e+00 -2.418746948242187500e+00
2.469000000000000000e+03 2.893432426452636719e+01 3.018057107925415039e+00 4.891511201858520508e-01 5.284346103668212891e+00 1.732049226760864258e+00 -2.317499160766601562e+00
2.470000000000000000e+03 2.926814460754394531e+01 1.944412350654602051e+00 6.356340646743774414e-01 5.534378528594970703e+00 1.851003766059875488e+00 -2.507110595703125000e+00
2.471000000000000000e+03 3.072877120971679688e+01 7.966661930084228516e+00 -2.270193248987197876e-01 6.079051971435546875e+00 1.755609750747680664e+00 -1.611405611038208008e+00
2.472000000000000000e+03 2.936334800720214844e+01 4.327401638031005859e+00 2.202643752098083496e-01 5.610156536102294922e+00 1.749126195907592773e+00 -2.122632980346679688e+00
2.473000000000000000e+03 2.989771461486816406e+01 4.718261241912841797e+00 1.106205284595489502e-01 5.928726673126220703e+00 1.811804175376892090e+00 -2.056645393371582031e+00
2.474000000000000000e+03 2.810925483703613281e+01 -1.571610641479492188e+01 6.869006752967834473e-01 4.441739082336425781e+00 1.538591861724853516e+00 2.230841398239135742e+00
2.475000000000000000e+03 2.399233055114746094e+01 -1.874500465393066406e+01 4.552903473377227783e-01 2.616577863693237305e+00 9.215604662895202637e-01 1.323392868041992188e+00
2.476000000000000000e+03 3.034495544433593750e+01 4.309770584106445312e+00 9.333720803260803223e-02 6.250317096710205078e+00 1.903096318244934082e+00 -2.057918548583984375e+00
2.477000000000000000e+03 3.061666870117187500e+01 5.737576484680175781e+00 -6.369737535715103149e-02 6.250711917877197266e+00 1.856104373931884766e+00 -1.831054806709289551e+00
2.478000000000000000e+03 3.163893699645996094e+01 1.057032203674316406e+01 -3.705362975597381592e-01 6.095129966735839844e+00 1.717378139495849609e+00 -1.248543858528137207e+00
2.479000000000000000e+03 6.335797119140625000e+01 1.081906032562255859e+01 7.422599941492080688e-02 7.742664813995361328e+00 2.345067262649536133e+00 7.276299595832824707e-01
2.480000000000000000e+03 6.416909790039062500e+01 9.921696662902832031e+00 1.011005565524101257e-01 7.714836597442626953e+00 2.344781160354614258e+00 6.967779397964477539e-01
2.481000000000000000e+03 6.680615234375000000e+01 -9.830968856811523438e+00 3.518859744071960449e-01 7.369640827178955078e+00 2.316458225250244141e+00 -8.598075807094573975e-02
2.482000000000000000e+03 6.584453582763671875e+01 -6.463887214660644531e+00 4.291426539421081543e-01 7.379124164581298828e+00 2.342479944229125977e+00 8.219960331916809082e-02
2.483000000000000000e+03 6.317399215698242188e+01 1.302032089233398438e+01 -5.770013667643070221e-03 7.789631843566894531e+00 2.335158586502075195e+00 7.281163930892944336e-01
2.484000000000000000e+03 3.053849792480468750e+01 1.170289134979248047e+01 -3.147429227828979492e-01 5.634630203247070312e+00 1.595966219902038574e+00 -1.253847479820251465e+00
2.485000000000000000e+03 2.886844444274902344e+01 1.149530601501464844e+01 -1.658644676208496094e-01 5.031185150146484375e+00 1.459596276283264160e+00 -1.375894546508789062e+00
2.486000000000000000e+03 2.821102523803710938e+01 -1.737409210205078125e+01 3.957614004611968994e-01 4.728765487670898438e+00 1.537358045578002930e+00 2.043221235275268555e+00
2.487000000000000000e+03 6.545930480957031250e+01 1.734269261360168457e+00 3.321709930896759033e-01 7.497553825378417969e+00 2.348917484283447266e+00 4.792422056198120117e-01
2.488000000000000000e+03 6.495812988281250000e+01 -5.413357257843017578e+00 4.719362854957580566e-01 7.398914813995361328e+00 2.361255407333374023e+00 1.396111398935317993e-01
2.489000000000000000e+03 3.025921440124511719e+01 1.566567420959472656e+01 -3.768961131572723389e-01 5.281277179718017578e+00 1.471314311027526855e+00 -9.876366257667541504e-01
2.490000000000000000e+03 6.352784347534179688e+01 -1.648862457275390625e+01 3.100910782814025879e-01 7.542402744293212891e+00 2.355748176574707031e+00 -4.111556708812713623e-01
2.491000000000000000e+03 6.264835739135742188e+01 -1.798470687866210938e+01 2.678588628768920898e-01 7.596378326416015625e+00 2.359271287918090820e+00 -4.711824953556060791e-01
2.492000000000000000e+03 6.854143524169921875e+01 -1.248275089263916016e+01 2.494048476219177246e-01 7.351912975311279297e+00 2.280395269393920898e+00 -1.876197159290313721e-01
2.493000000000000000e+03 6.470084381103515625e+01 8.789338111877441406e+00 1.290855854749679565e-01 7.686680793762207031e+00 2.344729900360107422e+00 6.785688400268554688e-01
2.494000000000000000e+03 2.517133903503417969e+01 -2.470524978637695312e+01 -4.166499152779579163e-02 3.690835714340209961e+00 1.094751238822937012e+00 1.170941710472106934e+00
2.495000000000000000e+03 2.579659080505371094e+01 -2.280862426757812500e+01 2.769333496689796448e-02 3.827564716339111328e+00 1.156577467918395996e+00 1.331032872200012207e+00
2.496000000000000000e+03 6.458951568603515625e+01 -1.506806564331054688e+01 3.285246789455413818e-01 7.485544681549072266e+00 2.344220638275146484e+00 -3.398452401161193848e-01
2.497000000000000000e+03 2.247965049743652344e+01 -2.558994483947753906e+01 7.748967409133911133e-02 2.768414020538330078e+00 8.537710905075073242e-01 9.205450415611267090e-01
2.498000000000000000e+03 3.005908012390136719e+01 1.372610282897949219e+01 -3.183909356594085693e-01 5.305953979492187500e+00 1.496268868446350098e+00 -1.135348916053771973e+00
2.499000000000000000e+03 1.727562904357910156e+01 -2.453480339050292969e+01 2.545944452285766602e-01 1.120774149894714355e+00 4.126105904579162598e-01 5.031567811965942383e-01
2.500000000000000000e+03 1.973244667053222656e+01 -2.559335517883300781e+01 1.738823354244232178e-01 1.938086509704589844e+00 6.335906386375427246e-01 7.229125499725341797e-01
2.501000000000000000e+03 6.402775573730468750e+01 -6.123517513275146484e+00 5.233030915260314941e-01 7.410480976104736328e+00 2.380135297775268555e+00 1.033202707767486572e-01
2.502000000000000000e+03 6.532299804687500000e+01 -7.938875675201416016e+00 4.450142681598663330e-01 7.389879226684570312e+00 2.350467920303344727e+00 -1.230262336321175098e-03
2.503000000000000000e+03 3.303960800170898438e+01 -2.359559059143066406e+00 7.804610133171081543e-01 1.216457748413085938e+01 3.883511304855346680e+00 -1.969013094902038574e+00
2.504000000000000000e+03 3.109202384948730469e+01 -1.133773708343505859e+01 1.173877835273742676e+00 8.181933403015136719e+00 2.806743383407592773e+00 3.778296709060668945e+00
2.505000000000000000e+03 3.394351577758789062e+01 -2.995191097259521484e+00 1.374538183212280273e+00 1.349456024169921875e+01 4.460729598999023438e+00 -4.240244626998901367e-01
2.506000000000000000e+03 3.512668228149414062e+01 -1.017284393310546875e+01 2.350680351257324219e+00 1.298130893707275391e+01 4.599596977233886719e+00 -1.122064471244812012e+00
2.507000000000000000e+03 3.495156097412109375e+01 -1.080245876312255859e+01 1.552479743957519531e+00 1.273350906372070312e+01 4.285796642303466797e+00 -5.753964781761169434e-01
2.508000000000000000e+03 3.682596206665039062e+01 -6.232846260070800781e+00 6.112409114837646484e+00 1.064406681060791016e+01 5.026942729949951172e+00 4.290780127048492432e-01
2.509000000000000000e+03 3.430892562866210938e+01 -3.021901845932006836e+00 1.636196732521057129e+00 1.337168312072753906e+01 4.502364158630371094e+00 4.723601788282394409e-02
2.510000000000000000e+03 2.896943283081054688e+01 1.287216186523437500e+00 8.330624103546142578e-01 5.151289939880371094e+00 1.795305728912353516e+00 -2.580179214477539062e+00
2.511000000000000000e+03 3.585626602172851562e+01 -9.781450271606445312e+00 3.244522094726562500e+00 1.221990013122558594e+01 4.639326572418212891e+00 -1.510630488395690918e+00
2.512000000000000000e+03 3.612572097778320312e+01 -5.040209770202636719e+00 5.426042079925537109e+00 1.166611480712890625e+01 5.127646923065185547e+00 1.398099064826965332e+00
2.513000000000000000e+03 3.602056121826171875e+01 -5.463661193847656250e+00 6.084525585174560547e+00 1.164975166320800781e+01 5.320282936096191406e+00 1.254774808883666992e+00
2.514000000000000000e+03 3.317323684692382812e+01 -1.117331886291503906e+01 5.086092352867126465e-01 1.232688522338867188e+01 3.850648403167724609e+00 1.734420895576477051e+00
2.515000000000000000e+03 3.236182022094726562e+01 -2.076888561248779297e+00 8.029434084892272949e-01 1.088930702209472656e+01 3.507675170898437500e+00 -2.782105445861816406e+00
2.516000000000000000e+03 3.358060836791992188e+01 -3.056947946548461914e+00 1.245491623878479004e+00 1.363348197937011719e+01 4.463691711425781250e+00 -9.182429909706115723e-01
2.517000000000000000e+03 3.074199485778808594e+01 -7.066795229911804199e-01 9.795662760734558105e-01 7.311826229095458984e+00 2.487417697906494141e+00 -3.148967266082763672e+00
2.518000000000000000e+03 2.977915954589843750e+01 -9.234522581100463867e-01 1.382580518722534180e+00 5.840676784515380859e+00 2.166977167129516602e+00 -3.214870929718017578e+00
2.519000000000000000e+03 3.020114326477050781e+01 -1.044883847236633301e+00 1.306712150573730469e+00 6.491990566253662109e+00 2.339610815048217773e+00 -3.316521644592285156e+00
2.520000000000000000e+03 3.496860885620117188e+01 -3.699887752532958984e+00 2.913493633270263672e+00 1.327918338775634766e+01 4.857803344726562500e+00 1.117568612098693848e+00
2.521000000000000000e+03 3.000095939636230469e+01 -1.304821777343750000e+01 9.942328929901123047e-01 6.054518222808837891e+00 2.114625215530395508e+00 3.073382377624511719e+00
2.522000000000000000e+03 3.103575897216796875e+01 -1.168773841857910156e+01 1.043257474899291992e+00 8.072298049926757812e+00 2.734666585922241211e+00 3.645172357559204102e+00
2.523000000000000000e+03 3.577561569213867188e+01 -9.250495910644531250e+00 4.006375789642333984e+00 1.236347866058349609e+01 4.910956382751464844e+00 -1.700266242027282715e+00
2.524000000000000000e+03 3.763811492919921875e+01 -7.750952720642089844e+00 5.254103660583496094e+00 1.015378284454345703e+01 4.622365951538085938e+00 -7.904990315437316895e-01
2.525000000000000000e+03 3.129312705993652344e+01 -1.153994274139404297e+01 9.522644877433776855e-01 8.647230148315429688e+00 2.879848480224609375e+00 3.508270025253295898e+00
2.526000000000000000e+03 3.720725631713867188e+01 -7.657795429229736328e+00 5.609518527984619141e+00 1.045374679565429688e+01 4.818979740142822266e+00 -8.119383454322814941e-01
2.527000000000000000e+03 3.063001441955566406e+01 -1.173978710174560547e+01 1.245726346969604492e+00 7.127287864685058594e+00 2.511904239654541016e+00 3.633045196533203125e+00
2.528000000000000000e+03 3.057932090759277344e+01 -1.144729495048522949e+00 1.211597561836242676e+00 7.098350048065185547e+00 2.492984294891357422e+00 -3.348959445953369141e+00
2.529000000000000000e+03 2.982825088500976562e+01 3.866902112960815430e+00 2.152469754219055176e-01 5.941956520080566406e+00 1.847161054611206055e+00 -2.182264804840087891e+00
2.530000000000000000e+03 2.872032356262207031e+01 1.869472563266754150e-01 1.213525414466857910e+00 4.656532764434814453e+00 1.761017441749572754e+00 -2.726126670837402344e+00
2.531000000000000000e+03 3.038327980041503906e+01 -5.608596205711364746e-01 1.044485092163085938e+00 6.796956539154052734e+00 2.352432489395141602e+00 -3.148832082748413086e+00
2.532000000000000000e+03 2.995561790466308594e+01 -4.595027565956115723e-01 1.146124005317687988e+00 6.154517650604248047e+00 2.190192461013793945e+00 -3.086513757705688477e+00
2.533000000000000000e+03 2.843533897399902344e+01 1.087300896644592285e+00 9.805268645286560059e-01 4.624009132385253906e+00 1.681360840797424316e+00 -2.532308578491210938e+00
2.534000000000000000e+03 2.883461380004882812e+01 -1.420554351806640625e+01 9.379444122314453125e-01 4.817255973815917969e+00 1.726560115814208984e+00 2.625248193740844727e+00
2.535000000000000000e+03 2.962361145019531250e+01 -1.370396423339843750e+01 8.887760043144226074e-01 5.607502460479736328e+00 1.948883533477783203e+00 2.820033073425292969e+00
2.536000000000000000e+03 2.865630912780761719e+01 2.604031801223754883e+00 5.968401432037353516e-01 5.050331115722656250e+00 1.694151282310485840e+00 -2.367214679718017578e+00
2.537000000000000000e+03 2.882025337219238281e+01 3.873910665512084961e+00 3.587646186351776123e-01 5.200532436370849609e+00 1.667789101600646973e+00 -2.185659646987915039e+00
2.538000000000000000e+03 2.935210800170898438e+01 -1.462718963623046875e+01 7.401728630065917969e-01 5.412740230560302734e+00 1.845873832702636719e+00 2.621464490890502930e+00
2.539000000000000000e+03 2.961291122436523438e+01 -1.520603466033935547e+01 5.342174768447875977e-01 5.760613441467285156e+00 1.888449311256408691e+00 2.504648923873901367e+00
2.540000000000000000e+03 3.128320121765136719e+01 5.436076641082763672e+00 -1.363450288772583008e-01 6.684492111206054688e+00 1.964444160461425781e+00 -1.778432250022888184e+00
2.541000000000000000e+03 2.893758583068847656e+01 -1.601953506469726562e+01 5.209466814994812012e-01 5.139024734497070312e+00 1.697991371154785156e+00 2.302618026733398438e+00
2.542000000000000000e+03 6.191945266723632812e+01 -1.281244659423828125e+01 5.193275809288024902e-01 7.499075412750244141e+00 2.405520915985107422e+00 -2.956667244434356689e-01
2.543000000000000000e+03 3.026522064208984375e+01 5.181713104248046875e+00 7.543587125837802887e-03 6.121936798095703125e+00 1.838844180107116699e+00 -1.938595771789550781e+00
2.544000000000000000e+03 3.089234542846679688e+01 6.365360260009765625e+00 -1.441626995801925659e-01 6.318232536315917969e+00 1.852220892906188965e+00 -1.707068085670471191e+00
2.545000000000000000e+03 2.521654129028320312e+01 -1.927816772460937500e+01 3.601784110069274902e-01 3.253313541412353516e+00 1.084047555923461914e+00 1.474261045455932617e+00
2.546000000000000000e+03 6.235617446899414062e+01 -5.941968441009521484e+00 6.308485269546508789e-01 7.432316780090332031e+00 2.418949604034423828e+00 1.178382709622383118e-01
2.547000000000000000e+03 3.068198204040527344e+01 8.834636688232421875e+00 -2.349606901407241821e-01 5.991693019866943359e+00 1.727019667625427246e+00 -1.477337837219238281e+00
2.548000000000000000e+03 3.168882369995117188e+01 8.379291534423828125e+00 -3.266805410385131836e-01 6.430312156677246094e+00 1.831089496612548828e+00 -1.419492602348327637e+00
2.549000000000000000e+03 6.669004058837890625e+01 -1.229883575439453125e+01 3.138550221920013428e-01 7.394647598266601562e+00 2.312550783157348633e+00 -1.979243159294128418e-01
2.550000000000000000e+03 6.280344390869140625e+01 -1.763252019882202148e-01 4.978581964969635010e-01 7.494619369506835938e+00 2.397743225097656250e+00 4.479872286319732666e-01
2.551000000000000000e+03 6.784798431396484375e+01 -1.338464260101318359e+01 2.515129745006561279e-01 7.381999492645263672e+00 2.290053844451904297e+00 -2.263008058071136475e-01
2.552000000000000000e+03 6.335341262817382812e+01 -2.057542228698730469e+01 1.356877535581588745e-01 7.638543605804443359e+00 2.332269430160522461e+00 -4.995227158069610596e-01
2.553000000000000000e+03 6.330914306640625000e+01 8.250641822814941406e+00 1.646208912134170532e-01 7.688020229339599609e+00 2.355792284011840820e+00 7.098411917686462402e-01
2.554000000000000000e+03 6.130313110351562500e+01 -1.691616249084472656e+01 3.567693829536437988e-01 7.603672504425048828e+00 2.388132572174072266e+00 -4.754706919193267822e-01
2.555000000000000000e+03 6.535336303710937500e+01 1.928787040710449219e+01 -1.358627676963806152e-01 7.912623405456542969e+00 2.333028316497802734e+00 6.120706796646118164e-01
2.556000000000000000e+03 6.585511779785156250e+01 -4.551175117492675781e+00 4.163143634796142578e-01 7.390634536743164062e+00 2.342084646224975586e+00 1.805071681737899780e-01
2.557000000000000000e+03 6.337400817871093750e+01 -2.746632099151611328e+00 5.258328318595886230e-01 7.449193477630615234e+00 2.392507791519165039e+00 3.110126256942749023e-01
2.558000000000000000e+03 3.176890754699707031e+01 -2.374667930603027344e+01 -5.407538414001464844e-01 6.295063495635986328e+00 1.726292967796325684e+00 1.153233647346496582e+00
2.559000000000000000e+03 3.105636596679687500e+01 -8.312158584594726562e-01 9.045091867446899414e-01 7.945814132690429688e+00 2.655097007751464844e+00 -3.168658018112182617e+00
2.560000000000000000e+03 3.277419662475585938e+01 -2.486658811569213867e+00 8.218368887901306152e-01 1.202896595001220703e+01 3.855240821838378906e+00 -2.280692577362060547e+00
2.561000000000000000e+03 3.699688339233398438e+01 -7.138907432556152344e+00 6.016290664672851562e+00 1.050100612640380859e+01 4.955189228057861328e+00 -4.029991626739501953e-01
2.562000000000000000e+03 3.532582855224609375e+01 -4.459729671478271484e+00 4.501317024230957031e+00 1.301106739044189453e+01 5.253715515136718750e+00 1.659526944160461426e+00
2.563000000000000000e+03 3.569504928588867188e+01 -4.549192905426025391e+00 4.744295120239257812e+00 1.244705867767333984e+01 5.157405853271484375e+00 1.638199210166931152e+00
2.564000000000000000e+03 3.176834869384765625e+01 -2.272246122360229492e+00 1.083601593971252441e+00 9.978818893432617188e+00 3.318726301193237305e+00 -3.485474586486816406e+00
2.565000000000000000e+03 3.153819465637207031e+01 -1.166333293914794922e+01 8.211173415184020996e-01 8.991075515747070312e+00 2.943657875061035156e+00 3.429709434509277344e+00
2.566000000000000000e+03 3.012649726867675781e+01 -1.356779670715332031e+01 7.722871303558349609e-01 6.298664093017578125e+00 2.121285200119018555e+00 2.908918857574462891e+00
2.567000000000000000e+03 3.613491821289062500e+01 -9.526092529296875000e+00 3.702452421188354492e+00 1.200883769989013672e+01 4.713387012481689453e+00 -1.642948150634765625e+00
2.568000000000000000e+03 3.579177856445312500e+01 -4.041900634765625000e+00 3.830237388610839844e+00 1.229737472534179688e+01 4.838283538818359375e+00 1.512297987937927246e+00
2.569000000000000000e+03 3.598359680175781250e+01 -1.029531574249267578e+01 2.655509710311889648e+00 1.202245712280273438e+01 4.403389930725097656e+00 -1.333481550216674805e+00
2.570000000000000000e+03 3.663297653198242188e+01 -5.965039253234863281e+00 6.132956981658935547e+00 1.084431838989257812e+01 5.093182563781738281e+00 6.880919933319091797e-01
2.571000000000000000e+03 3.033203125000000000e+01 -1.238881778717041016e+01 1.101857066154479980e+00 6.589681625366210938e+00 2.307461738586425781e+00 3.327023744583129883e+00
2.572000000000000000e+03 3.350357055664062500e+01 -2.609298467636108398e+00 9.459826350212097168e-01 1.293791866302490234e+01 4.165170192718505859e+00 -1.214412093162536621e+00
2.573000000000000000e+03 3.404510498046875000e+01 -1.110244464874267578e+01 7.997043728828430176e-01 1.269408130645751953e+01 4.048135757446289062e+00 5.501893758773803711e-01
2.574000000000000000e+03 3.372398376464843750e+01 -1.137787818908691406e+01 5.538659095764160156e-01 1.233881759643554688e+01 3.867805242538452148e+00 1.028816223144531250e+00
2.575000000000000000e+03 3.633354187011718750e+01 -1.038554668426513672e+01 2.690995454788208008e+00 1.170735740661621094e+01 4.319506168365478516e+00 -1.401486515998840332e+00
2.576000000000000000e+03 3.756815719604492188e+01 -8.077136993408203125e+00 5.069705486297607422e+00 1.025974559783935547e+01 4.598834991455078125e+00 -9.682941436767578125e-01
2.577000000000000000e+03 2.955371093750000000e+01 -2.826435863971710205e-01 1.195477128028869629e+00 5.633240699768066406e+00 2.048615217208862305e+00 -2.989406108856201172e+00
2.578000000000000000e+03 2.950541877746582031e+01 -1.318434333801269531e+01 1.101891040802001953e+00 5.331988334655761719e+00 1.930163860321044922e+00 2.974280118942260742e+00
2.579000000000000000e+03 3.107896804809570312e+01 -4.306398928165435791e-01 7.591786980628967285e-01 7.787708282470703125e+00 2.564065933227539062e+00 -3.002729177474975586e+00
2.580000000000000000e+03 3.023752593994140625e+01 2.562345266342163086e+00 3.421409726142883301e-01 6.378349304199218750e+00 2.016147136688232422e+00 -2.359923601150512695e+00
2.581000000000000000e+03 2.981338310241699219e+01 3.018118858337402344e+00 3.441877067089080811e-01 5.992529392242431641e+00 1.901015162467956543e+00 -2.322399616241455078e+00
2.582000000000000000e+03 2.901859855651855469e+01 2.337974548339843750e+00 5.988720059394836426e-01 5.357163906097412109e+00 1.786810874938964844e+00 -2.427866458892822266e+00
2.583000000000000000e+03 2.975325775146484375e+01 2.225841283798217773e+00 4.940677583217620850e-01 6.004169464111328125e+00 1.949471235275268555e+00 -2.471808433532714844e+00
2.584000000000000000e+03 2.947730445861816406e+01 3.927062749862670898e-01 9.968384504318237305e-01 5.577079296112060547e+00 1.972175359725952148e+00 -2.832186698913574219e+00
2.585000000000000000e+03 2.950349426269531250e+01 1.513005375862121582e+00 6.784657239913940430e-01 5.738296985626220703e+00 1.925028800964355469e+00 -2.602552413940429688e+00
2.586000000000000000e+03 2.919852638244628906e+01 8.165912032127380371e-01 9.248267412185668945e-01 5.326322555541992188e+00 1.875344753265380859e+00 -2.708714962005615234e+00
2.587000000000000000e+03 2.756898880004882812e+01 -1.808467674255371094e+01 3.486274182796478271e-01 4.334529399871826172e+00 1.404947161674499512e+00 1.873418927192687988e+00
2.588000000000000000e+03 3.037349128723144531e+01 -1.570718383789062500e+01 2.658036947250366211e-01 6.469230651855468750e+00 2.020510435104370117e+00 2.337156057357788086e+00
2.589000000000000000e+03 2.867996788024902344e+01 -1.968288040161132812e+01 3.405270352959632874e-02 5.112896442413330078e+00 1.544084668159484863e+00 1.745099425315856934e+00
2.590000000000000000e+03 2.849890327453613281e+01 -1.839306449890136719e+01 1.706140935420989990e-01 4.988101959228515625e+00 1.547614932060241699e+00 1.899435877799987793e+00
2.591000000000000000e+03 3.080721282958984375e+01 3.879871129989624023e+00 6.586752831935882568e-02 6.635921955108642578e+00 2.010536909103393555e+00 -2.061889886856079102e+00
2.592000000000000000e+03 3.135649299621582031e+01 4.415397167205810547e+00 -6.286827474832534790e-02 6.921546459197998047e+00 2.057603597640991211e+00 -1.886537671089172363e+00
2.593000000000000000e+03 3.167585754394531250e+01 6.220657348632812500e+00 -2.208376526832580566e-01 6.745787143707275391e+00 1.957484841346740723e+00 -1.608334422111511230e+00
2.594000000000000000e+03 2.759344482421875000e+01 -2.327153968811035156e+01 -1.553997546434402466e-01 4.620945453643798828e+00 1.339663743972778320e+00 1.365550637245178223e+00
2.595000000000000000e+03 3.204278182983398438e+01 1.384117698669433594e+01 -4.594228863716125488e-01 5.885499000549316406e+00 1.627822756767272949e+00 -9.986250400543212891e-01
2.596000000000000000e+03 6.419918060302734375e+01 -4.084548473358154297e+00 5.050397515296936035e-01 7.419875144958496094e+00 2.377474308013916016e+00 2.228693515062332153e-01
2.597000000000000000e+03 6.428525543212890625e+01 -2.729932367801666260e-01 4.285730123519897461e-01 7.475167751312255859e+00 2.371122121810913086e+00 4.167385399341583252e-01
2.598000000000000000e+03 6.236244964599609375e+01 -3.884949207305908203e+00 6.162963509559631348e-01 7.445007801055908203e+00 2.418391227722167969e+00 2.560621500015258789e-01
2.599000000000000000e+03 6.566917419433593750e+01 -1.361575317382812500e+01 3.261504173278808594e-01 7.436877727508544922e+00 2.328908443450927734e+00 -2.667712271213531494e-01
2.600000000000000000e+03 6.225979614257812500e+01 -1.539883518218994141e+01 3.973393142223358154e-01 7.545646190643310547e+00 2.382895708084106445e+00 -4.011416733264923096e-01
2.601000000000000000e+03 6.181249618530273438e+01 -1.957433319091796875e+01 2.035967707633972168e-01 7.655714988708496094e+00 2.357793569564819336e+00 -5.224909782409667969e-01
2.602000000000000000e+03 6.500136566162109375e+01 -2.142588043212890625e+01 8.608201146125793457e-02 7.613824844360351562e+00 2.309972047805786133e+00 -4.694824516773223877e-01
2.603000000000000000e+03 6.247484588623046875e+01 3.233768463134765625e+00 3.873161375522613525e-01 7.572757720947265625e+00 2.388022184371948242e+00 6.059500575065612793e-01
2.604000000000000000e+03 6.367225265502929688e+01 1.834215164184570312e+01 -1.490936130285263062e-01 7.878533840179443359e+00 2.318832159042358398e+00 6.564710140228271484e-01
2.605000000000000000e+03 6.323986816406250000e+01 1.561287689208984375e+01 -9.146180748939514160e-02 7.836759090423583984e+00 2.323589086532592773e+00 7.018162012100219727e-01
2.606000000000000000e+03 3.046024513244628906e+01 -1.779090309143066406e+01 -2.846085466444492340e-02 6.286968231201171875e+00 1.877552270889282227e+00 1.935141682624816895e+00
2.607000000000000000e+03 2.708053970336914062e+01 -2.545767021179199219e+01 -2.255572974681854248e-01 4.461878776550292969e+00 1.270896434783935547e+00 1.186214566230773926e+00
2.608000000000000000e+03 3.285649108886718750e+01 -2.018633842468261719e+00 6.701570749282836914e-01 1.151793670654296875e+01 3.656428337097167969e+00 -2.176145315170288086e+00
2.609000000000000000e+03 3.158721351623535156e+01 -1.415471315383911133e+00 8.676852583885192871e-01 9.044427871704101562e+00 2.973634004592895508e+00 -3.212828874588012695e+00
2.610000000000000000e+03 3.466042327880859375e+01 -1.113420867919921875e+01 1.096033692359924316e+00 1.258272743225097656e+01 4.103628158569335938e+00 -1.137309223413467407e-01
2.611000000000000000e+03 3.336057281494140625e+01 -1.161559963226318359e+01 3.880341947078704834e-01 1.189837646484375000e+01 3.685923337936401367e+00 1.541556477546691895e+00
2.612000000000000000e+03 3.434743499755859375e+01 -1.146935558319091797e+01 7.450410723686218262e-01 1.231243228912353516e+01 3.917241811752319336e+00 3.499280512332916260e-01
2.613000000000000000e+03 3.469630432128906250e+01 -3.010803461074829102e+00 1.910520553588867188e+00 1.310813713073730469e+01 4.505597114562988281e+00 5.035921931266784668e-01
2.614000000000000000e+03 3.715527725219726562e+01 -6.846854209899902344e+00 5.946407794952392578e+00 1.037595272064208984e+01 4.896708011627197266e+00 -1.574631780385971069e-01
2.615000000000000000e+03 3.665983200073242188e+01 -4.997239589691162109e+00 5.202013492584228516e+00 1.108335971832275391e+01 4.885612010955810547e+00 1.278410196304321289e+00
2.616000000000000000e+03 3.432765197753906250e+01 -1.080008697509765625e+01 1.133304715156555176e+00 1.304555416107177734e+01 4.253657817840576172e+00 3.125229477882385254e-02
2.617000000000000000e+03 3.663362121582031250e+01 -4.536479949951171875e+00 4.603754520416259766e+00 1.122020149230957031e+01 4.747186660766601562e+00 1.413865685462951660e+00
2.618000000000000000e+03 3.615915679931640625e+01 -4.567706108093261719e+00 4.720544338226318359e+00 1.175545310974121094e+01 4.942799091339111328e+00 1.510673522949218750e+00
2.619000000000000000e+03 3.645090484619140625e+01 -9.254402160644531250e+00 4.195245265960693359e+00 1.157752132415771484e+01 4.731830120086669922e+00 -1.656110286712646484e+00
2.620000000000000000e+03 2.971950340270996094e+01 1.075949072837829590e+00 7.338125705718994141e-01 5.953464031219482422e+00 2.006183147430419922e+00 -2.699112892150878906e+00
2.621000000000000000e+03 3.388415908813476562e+01 -2.521739721298217773e+00 1.051689147949218750e+00 1.286177730560302734e+01 4.174039840698242188e+00 -7.220025062561035156e-01
2.622000000000000000e+03 3.545115280151367188e+01 -3.012919187545776367e+00 2.323496580123901367e+00 1.243495559692382812e+01 4.427535533905029297e+00 9.633024334907531738e-01
2.623000000000000000e+03 3.194533348083496094e+01 -1.881088018417358398e+00 8.844905495643615723e-01 1.003962039947509766e+01 3.277233362197875977e+00 -3.119666099548339844e+00
2.624000000000000000e+03 3.117045402526855469e+01 -1.655756235122680664e+00 1.139543056488037109e+00 8.367753028869628906e+00 2.852188825607299805e+00 -3.490546941757202148e+00
2.625000000000000000e+03 3.096276092529296875e+01 -1.705077290534973145e-02 7.026369571685791016e-01 7.557192325592041016e+00 2.477948665618896484e+00 -2.881245136260986328e+00
2.626000000000000000e+03 3.021409416198730469e+01 -1.454326629638671875e+01 5.295635461807250977e-01 6.288871288299560547e+00 2.045530557632446289e+00 2.602534770965576172e+00
2.627000000000000000e+03 3.063419914245605469e+01 2.062766313552856445e+00 3.419559299945831299e-01 6.817917823791503906e+00 2.147962093353271484e+00 -2.416359663009643555e+00
2.628000000000000000e+03 3.719849014282226562e+01 -8.479316711425781250e+00 4.923254966735839844e+00 1.063850402832031250e+01 4.668527603149414062e+00 -1.267858505249023438e+00
2.629000000000000000e+03 3.078074836730957031e+01 -1.227235412597656250e+01 9.540560841560363770e-01 7.381768703460693359e+00 2.500747442245483398e+00 3.361628532409667969e+00
2.630000000000000000e+03 3.115906143188476562e+01 2.487193822860717773e+00 1.815870255231857300e-01 7.178373813629150391e+00 2.207988262176513672e+00 -2.242153644561767578e+00
2.631000000000000000e+03 3.072488212585449219e+01 2.965437173843383789e+00 1.949774473905563354e-01 6.709515571594238281e+00 2.071347951889038086e+00 -2.237423896789550781e+00
2.632000000000000000e+03 2.972742271423339844e+01 -1.594331073760986328e+01 3.621641993522644043e-01 5.882700920104980469e+00 1.873459577560424805e+00 2.321067094802856445e+00
2.633000000000000000e+03 3.015871047973632812e+01 -1.510986614227294922e+01 4.324721395969390869e-01 6.242176532745361328e+00 2.002394676208496094e+00 2.491343498229980469e+00
2.634000000000000000e+03 2.977495193481445312e+01 8.450820297002792358e-02 1.030924916267395020e+00 5.932451725006103516e+00 2.089013099670410156e+00 -2.933493375778198242e+00
2.635000000000000000e+03 3.009180068969726562e+01 -6.241622567176818848e-02 9.997932314872741699e-01 6.358590126037597656e+00 2.207515001296997070e+00 -2.991164207458496094e+00
2.636000000000000000e+03 3.245975494384765625e+01 5.873201370239257812e+00 -2.765739560127258301e-01 7.153857707977294922e+00 2.063185214996337891e+00 -1.505822777748107910e+00
2.637000000000000000e+03 3.251435089111328125e+01 4.558525085449218750e+00 -2.006069123744964600e-01 7.535501480102539062e+00 2.200468301773071289e+00 -1.590608239173889160e+00
2.638000000000000000e+03 3.182710266113281250e+01 3.962802410125732422e+00 -8.552376180887222290e-02 7.293292045593261719e+00 2.162330627441406250e+00 -1.842046856880187988e+00
2.639000000000000000e+03 3.195309257507324219e+01 7.257481098175048828e+00 -2.955555319786071777e-01 6.672561168670654297e+00 1.913101673126220703e+00 -1.449332118034362793e+00
2.640000000000000000e+03 3.284682464599609375e+01 9.287820816040039062e+00 -4.239379763603210449e-01 6.719058036804199219e+00 1.888535976409912109e+00 -1.165895342826843262e+00
2.641000000000000000e+03 3.144301414489746094e+01 -1.604807662963867188e+01 1.562132686376571655e-02 7.272700786590576172e+00 2.186496496200561523e+00 2.070634841918945312e+00
2.642000000000000000e+03 3.257914352416992188e+01 1.168218135833740234e+01 -4.546881616115570068e-01 6.289690017700195312e+00 1.750500559806823730e+00 -1.080751180648803711e+00
2.643000000000000000e+03 6.967372894287109375e+01 -1.299724483489990234e+01 2.033954560756683350e-01 7.325682163238525391e+00 2.258723258972167969e+00 -1.897403001785278320e-01
2.644000000000000000e+03 6.890155792236328125e+01 -1.161688899993896484e+01 2.442826330661773682e-01 7.329326152801513672e+00 2.272082567214965820e+00 -1.429857164621353149e-01
2.645000000000000000e+03 6.555577850341796875e+01 -1.082475852966308594e+01 3.979295194149017334e-01 7.402425765991210938e+00 2.340106487274169922e+00 -1.428337246179580688e-01
2.646000000000000000e+03 6.326832580566406250e+01 -1.388535594940185547e+01 4.228176176548004150e-01 7.492519855499267578e+00 2.374601364135742188e+00 -3.192765414714813232e-01
2.647000000000000000e+03 6.418156433105468750e+01 1.224540829658508301e+00 3.959999680519104004e-01 7.506006717681884766e+00 2.370602130889892578e+00 4.896174967288970947e-01
2.648000000000000000e+03 6.466209411621093750e+01 3.219074249267578125e+00 3.144536316394805908e-01 7.543113708496093750e+00 2.357270240783691406e+00 5.505542755126953125e-01
2.649000000000000000e+03 6.238875579833984375e+01 7.221335887908935547e+00 2.201701104640960693e-01 7.668829441070556641e+00 2.366699934005737305e+00 7.083935737609863281e-01
2.650000000000000000e+03 6.106212615966796875e+01 4.080308437347412109e+00 3.987140655517578125e-01 7.611620903015136719e+00 2.403100490570068359e+00 6.683577895164489746e-01
2.651000000000000000e+03 5.940666198730468750e+01 -2.007962226867675781e+01 2.049368768930435181e-01 7.734488010406494141e+00 2.381827354431152344e+00 -5.879316329956054688e-01
2.652000000000000000e+03 6.438445281982421875e+01 -2.329036521911621094e+01 1.652899943292140961e-02 7.671844959259033203e+00 2.306512117385864258e+00 -4.892853796482086182e-01
2.653000000000000000e+03 6.525860595703125000e+01 -3.310400724411010742e+00 4.402257800102233887e-01 7.411972999572753906e+00 2.355659723281860352e+00 2.509973943233489990e-01
2.654000000000000000e+03 6.095073699951171875e+01 -2.125248336791992188e+01 1.203399002552032471e-01 7.718639850616455078e+00 2.351693868637084961e+00 -5.600215792655944824e-01
2.655000000000000000e+03 6.048444747924804688e+01 1.282556343078613281e+01 -1.271577551960945129e-02 7.794042110443115234e+00 2.334397792816162109e+00 7.738506793975830078e-01
2.656000000000000000e+03 3.394362258911132812e+01 -2.487063789367675781e+01 -7.404803633689880371e-01 6.864887714385986328e+00 1.837322235107421875e+00 7.641568779945373535e-01
2.657000000000000000e+03 2.102106285095214844e+01 -2.729825592041015625e+01 8.838961273431777954e-02 2.404425621032714844e+00 7.478445768356323242e-01 7.704057693481445312e-01
2.658000000000000000e+03 3.334862136840820312e+01 -2.182602643966674805e+00 7.294909358024597168e-01 1.217838573455810547e+01 3.872362852096557617e+00 -1.546682596206665039e+00
2.659000000000000000e+03 3.264296340942382812e+01 -1.249239444732666016e+01 2.472826093435287476e-01 1.021405792236328125e+01 3.138402223587036133e+00 2.272692203521728516e+00
2.660000000000000000e+03 3.049168205261230469e+01 -1.292669773101806641e+01 8.632943034172058105e-01 6.849495410919189453e+00 2.313836812973022461e+00 3.111192703247070312e+00
2.661000000000000000e+03 3.311988830566406250e+01 -1.229062080383300781e+01 2.230629771947860718e-01 1.092500877380371094e+01 3.344421625137329102e+00 1.829933047294616699e+00
2.662000000000000000e+03 3.358437347412109375e+01 -1.209735393524169922e+01 2.848914563655853271e-01 1.144898319244384766e+01 3.520162343978881836e+00 1.330527186393737793e+00
2.663000000000000000e+03 3.743390655517578125e+01 -7.267870426177978516e+00 5.646859169006347656e+00 1.020401382446289062e+01 4.755261898040771484e+00 -4.504697322845458984e-01
2.664000000000000000e+03 3.723243331909179688e+01 -6.284172058105468750e+00 5.848114013671875000e+00 1.032178592681884766e+01 4.850970268249511719e+00 3.461416661739349365e-01
2.665000000000000000e+03 3.329148101806640625e+01 -1.276758289337158203e+01 1.147397607564926147e-01 1.065247821807861328e+01 3.230165481567382812e+00 1.653096318244934082e+00
2.666000000000000000e+03 3.026978302001953125e+01 1.300722122192382812e+00 5.629267692565917969e-01 6.504450321197509766e+00 2.120213031768798828e+00 -2.617709875106811523e+00
2.667000000000000000e+03 3.140853500366210938e+01 -9.022712111473083496e-01 8.073576688766479492e-01 8.429487228393554688e+00 2.771053552627563477e+00 -3.100779533386230469e+00
2.668000000000000000e+03 3.680170822143554688e+01 -5.408641338348388672e+00 5.549509525299072266e+00 1.086071681976318359e+01 4.923067569732666016e+00 1.047122955322265625e+00
2.669000000000000000e+03 3.005069351196289062e+01 1.770417451858520508e+00 5.192379355430603027e-01 6.280930519104003906e+00 2.040050506591796875e+00 -2.548683404922485352e+00
2.670000000000000000e+03 3.200054168701171875e+01 2.591133356094360352e+00 3.092558681964874268e-02 7.709034442901611328e+00 2.321987867355346680e+00 -1.970438480377197266e+00
2.671000000000000000e+03 3.499466323852539062e+01 -1.149739074707031250e+01 1.032709240913391113e+00 1.214029979705810547e+01 3.951902627944946289e+00 -2.215477079153060913e-01
2.672000000000000000e+03 3.239599227905273438e+01 -1.701925158500671387e+00 6.643733978271484375e-01 1.059206390380859375e+01 3.376931190490722656e+00 -2.620867729187011719e+00
2.673000000000000000e+03 3.542894744873046875e+01 -2.215047359466552734e+00 1.583473682403564453e+00 1.194755554199218750e+01 4.059308528900146484e+00 5.749958157539367676e-01
2.674000000000000000e+03 3.422603607177734375e+01 -2.323308944702148438e+00 1.081537842750549316e+00 1.261625099182128906e+01 4.109336376190185547e+00 -3.935320973396301270e-01
2.675000000000000000e+03 3.563511657714843750e+01 -1.095291996002197266e+01 1.778971433639526367e+00 1.210995101928710938e+01 4.166676521301269531e+00 -9.338194131851196289e-01
2.676000000000000000e+03 2.978467559814453125e+01 -1.425075912475585938e+01 7.372360825538635254e-01 5.824455261230468750e+00 1.968507289886474609e+00 2.733259916305541992e+00
2.677000000000000000e+03 3.023428344726562500e+01 -1.406392955780029297e+01 6.676888465881347656e-01 6.423834800720214844e+00 2.127457141876220703e+00 2.784669637680053711e+00
2.678000000000000000e+03 3.132022094726562500e+01 3.123501837253570557e-01 5.039637684822082520e-01 7.939081668853759766e+00 2.532913684844970703e+00 -2.710508108139038086e+00
2.679000000000000000e+03 3.180473899841308594e+01 -1.177804756164550781e+01 6.416414976119995117e-01 9.492811203002929688e+00 3.040335655212402344e+00 3.174643754959106445e+00
2.680000000000000000e+03 3.509055328369140625e+01 -2.700957298278808594e+00 1.850858569145202637e+00 1.257262706756591797e+01 4.327045440673828125e+00 6.092935800552368164e-01
2.681000000000000000e+03 3.762912368774414062e+01 -8.395766258239746094e+00 4.843833446502685547e+00 1.029378700256347656e+01 4.541285991668701172e+00 -1.134791135787963867e+00
2.682000000000000000e+03 3.097012901306152344e+01 -1.279750537872314453e+01 7.194159626960754395e-01 7.636598110198974609e+00 2.506804227828979492e+00 3.113639831542968750e+00
2.683000000000000000e+03 2.991790008544921875e+01 6.601204276084899902e-01 7.924233078956604004e-01 6.168894767761230469e+00 2.088395357131958008e+00 -2.789931058883666992e+00
2.684000000000000000e+03 3.166252708435058594e+01 2.148685455322265625e+00 1.328008621931076050e-01 7.645907878875732422e+00 2.333612680435180664e+00 -2.161786794662475586e+00
2.685000000000000000e+03 3.163978958129882812e+01 2.994706392288208008e+00 2.800385095179080963e-02 7.417497634887695312e+00 2.233650445938110352e+00 -2.004052400588989258e+00
2.686000000000000000e+03 3.073678016662597656e+01 -1.459271049499511719e+01 3.667593598365783691e-01 6.997320175170898438e+00 2.209223747253417969e+00 2.537880897521972656e+00
2.687000000000000000e+03 3.320903778076171875e+01 5.318664073944091797e+00 -2.937967479228973389e-01 7.619481086730957031e+00 2.197705268859863281e+00 -1.336361885070800781e+00
2.688000000000000000e+03 3.220952224731445312e+01 3.463047504425048828e+00 -7.427692413330078125e-02 7.595416545867919922e+00 2.256341934204101562e+00 -1.801891446113586426e+00
2.689000000000000000e+03 3.364130401611328125e+01 4.061890602111816406e+00 -2.562423348426818848e-01 8.151788711547851562e+00 2.368663787841796875e+00 -1.293948531150817871e+00
2.690000000000000000e+03 3.465804672241210938e+01 5.480339050292968750e+00 -3.771795332431793213e-01 8.159864425659179688e+00 2.334805488586425781e+00 -9.247157573699951172e-01
2.691000000000000000e+03 2.989962577819824219e+01 -1.938980674743652344e+01 -1.003348529338836670e-01 5.821886539459228516e+00 1.716465473175048828e+00 1.750664949417114258e+00
2.692000000000000000e+03 2.950193405151367188e+01 -1.815170097351074219e+01 6.418049335479736328e-02 5.616216659545898438e+00 1.704119086265563965e+00 1.917364001274108887e+00
2.693000000000000000e+03 3.290237045288085938e+01 3.902494668960571289e+00 -2.001473009586334229e-01 7.928879261016845703e+00 2.318619489669799805e+00 -1.545627117156982422e+00
2.694000000000000000e+03 3.389760971069335938e+01 7.998197078704833984e+00 -4.510726928710937500e-01 7.282145977020263672e+00 2.049321889877319336e+00 -1.058629989624023438e+00
2.695000000000000000e+03 3.475747680664062500e+01 1.219362449645996094e+01 -5.659803152084350586e-01 6.811604022979736328e+00 1.873687148094177246e+00 -7.341740131378173828e-01
2.696000000000000000e+03 3.069176673889160156e+01 -1.522288608551025391e+01 2.728144526481628418e-01 6.827623844146728516e+00 2.130131483078002930e+00 2.392887592315673828e+00
2.697000000000000000e+03 2.749929046630859375e+01 -1.992520141601562500e+01 1.322188824415206909e-01 4.480422496795654297e+00 1.383792400360107422e+00 1.694818139076232910e+00
2.698000000000000000e+03 2.901441383361816406e+01 -2.124229049682617188e+01 -1.449504941701889038e-01 5.237874507904052734e+00 1.527877092361450195e+00 1.552233576774597168e+00
2.699000000000000000e+03 6.141114807128906250e+01 -2.938807487487792969e+00 6.452653408050537109e-01 7.469869136810302734e+00 2.434540271759033203e+00 3.213039636611938477e-01
2.700000000000000000e+03 6.334945678710937500e+01 4.525103569030761719e+00 3.067547380924224854e-01 7.595301628112792969e+00 2.370616912841796875e+00 6.290414929389953613e-01
2.701000000000000000e+03 3.520777893066406250e+01 6.292456150054931641e+00 -4.124625921249389648e-01 8.108325004577636719e+00 2.308758735656738281e+00 -7.899787425994873047e-01
2.702000000000000000e+03 6.082329559326171875e+01 -8.180983543395996094e+00 7.155159711837768555e-01 7.457620143890380859e+00 2.451940774917602539e+00 -3.015720285475254059e-02
2.703000000000000000e+03 6.455520629882812500e+01 -9.416382789611816406e+00 4.741604626178741455e-01 7.409166336059570312e+00 2.364997863769531250e+00 -8.734460175037384033e-02
2.704000000000000000e+03 6.282647705078125000e+01 -1.125117301940917969e+01 5.255043506622314453e-01 7.455703735351562500e+00 2.394362449645996094e+00 -2.001751512289047241e-01
2.705000000000000000e+03 6.305264282226562500e+01 1.272959709167480469e+00 4.409739971160888672e-01 7.519820213317871094e+00 2.388238191604614258e+00 5.154888629913330078e-01
2.706000000000000000e+03 6.093091964721679688e+01 -9.887847900390625000e-01 6.213265061378479004e-01 7.504846096038818359e+00 2.437851667404174805e+00 4.419082999229431152e-01
2.707000000000000000e+03 6.179040908813476562e+01 5.632319927215576172e+00 3.039697110652923584e-01 7.639137268066406250e+00 2.382932186126708984e+00 6.948107481002807617e-01
2.708000000000000000e+03 5.769966506958007812e+01 -1.613404846191406250e+01 5.223324298858642578e-01 7.677019596099853516e+00 2.459805488586425781e+00 -5.447146296501159668e-01
2.709000000000000000e+03 5.797242736816406250e+01 -1.886483001708984375e+01 3.106155991554260254e-01 7.745512962341308594e+00 2.416838645935058594e+00 -6.076620221138000488e-01
2.710000000000000000e+03 6.004178619384765625e+01 6.494118690490722656e+00 2.973200380802154541e-01 7.682462692260742188e+00 2.393934965133666992e+00 7.528062462806701660e-01
2.711000000000000000e+03 6.068028259277343750e+01 8.220131874084472656e+00 2.005178481340408325e-01 7.710251331329345703e+00 2.373230695724487305e+00 7.628246545791625977e-01
2.712000000000000000e+03 5.900078582763671875e+01 -1.731690216064453125e+01 3.982113599777221680e-01 7.673492908477783203e+00 2.421511411666870117e+00 -5.456994175910949707e-01
2.713000000000000000e+03 6.003097152709960938e+01 -2.300407218933105469e+01 1.988985948264598846e-02 7.782686710357666016e+00 2.340772867202758789e+00 -5.822018384933471680e-01
2.714000000000000000e+03 6.179275131225585938e+01 -2.423232650756835938e+01 -3.646723926067352295e-02 7.760747432708740234e+00 2.317284107208251953e+00 -5.379809737205505371e-01
2.715000000000000000e+03 3.099964523315429688e+01 -1.892551040649414062e+01 -2.174848467111587524e-01 6.479511260986328125e+00 1.878607869148254395e+00 1.689016222953796387e+00
2.716000000000000000e+03 2.939575958251953125e+01 -2.304975891113281250e+01 -3.091239631175994873e-01 5.348474025726318359e+00 1.511805057525634766e+00 1.330884456634521484e+00
2.717000000000000000e+03 2.607725334167480469e+01 -2.783962249755859375e+01 -2.454359084367752075e-01 4.109367370605468750e+00 1.159179449081420898e+00 9.550119638442993164e-01
2.718000000000000000e+03 6.538181304931640625e+01 2.568017387390136719e+01 -2.096526324748992920e-01 8.000338554382324219e+00 2.337205648422241211e+00 4.755356609821319580e-01
2.719000000000000000e+03 6.368651580810546875e+01 2.310615539550781250e+01 -2.359536886215209961e-01 7.934950351715087891e+00 2.309699058532714844e+00 5.530423521995544434e-01
2.720000000000000000e+03 3.153197479248046875e+01 -4.393835663795471191e-01 6.148315072059631348e-01 8.419363975524902344e+00 2.710258722305297852e+00 -2.829694509506225586e+00
2.721000000000000000e+03 3.314215469360351562e+01 -1.828415393829345703e+00 6.046147346496582031e-01 1.150922298431396484e+01 3.634151220321655273e+00 -1.837849855422973633e+00
2.722000000000000000e+03 3.791175079345703125e+01 -8.082766532897949219e+00 4.920477390289306641e+00 1.003507423400878906e+01 4.486665248870849609e+00 -8.859926462173461914e-01
2.723000000000000000e+03 3.287192916870117188e+01 -1.298661994934082031e+01 1.362563669681549072e-01 1.000520038604736328e+01 3.042437076568603516e+00 1.984282970428466797e+00
2.724000000000000000e+03 3.400168228149414062e+01 -1.182026481628417969e+01 4.535104334354400635e-01 1.190021038055419922e+01 3.706116199493408203e+00 8.603106141090393066e-01
2.725000000000000000e+03 3.467692184448242188e+01 -1.182016277313232422e+01 6.922836303710937500e-01 1.196532917022705078e+01 3.797283887863159180e+00 1.961496174335479736e-01
2.726000000000000000e+03 3.701250839233398438e+01 -5.761917114257812500e+00 5.719268321990966797e+00 1.057863140106201172e+01 4.889369964599609375e+00 7.620164752006530762e-01
2.727000000000000000e+03 3.715891647338867188e+01 -4.874766349792480469e+00 4.841421127319335938e+00 1.065355491638183594e+01 4.648492813110351562e+00 1.185499310493469238e+00
2.728000000000000000e+03 3.206290817260742188e+01 -1.603884935379028320e+00 7.489575147628784180e-01 9.960093498229980469e+00 3.212715387344360352e+00 -2.940968275070190430e+00
2.729000000000000000e+03 3.142820167541503906e+01 -1.261645984649658203e+01 5.961104035377502441e-01 8.370248794555664062e+00 2.689907789230346680e+00 3.027129411697387695e+00
2.730000000000000000e+03 3.063801574707031250e+01 -1.346535015106201172e+01 6.583938002586364746e-01 6.984115123748779297e+00 2.292752742767333984e+00 2.930830240249633789e+00
2.731000000000000000e+03 3.540361022949218750e+01 -4.024741649627685547e+00 3.705667018890380859e+00 1.286460971832275391e+01 4.971083164215087891e+00 1.484077692031860352e+00
2.732000000000000000e+03 3.384865188598632812e+01 -1.631931781768798828e+00 6.399182081222534180e-01 1.182927513122558594e+01 3.740758180618286133e+00 -1.021267533302307129e+00
2.733000000000000000e+03 3.621095275878906250e+01 -4.096528053283691406e+00 4.012911796569824219e+00 1.179953384399414062e+01 4.743733882904052734e+00 1.516113400459289551e+00
2.734000000000000000e+03 3.616698455810546875e+01 -1.005815219879150391e+01 2.979229450225830078e+00 1.191585350036621094e+01 4.468524932861328125e+00 -1.462533116340637207e+00
2.735000000000000000e+03 3.768326187133789062e+01 -9.263057708740234375e+00 4.010044097900390625e+00 1.044833564758300781e+01 4.337513923645019531e+00 -1.371020913124084473e+00
2.736000000000000000e+03 3.548224639892578125e+01 -1.035005569458007812e+01 2.378599643707275391e+00 1.249078750610351562e+01 4.460816383361816406e+00 -1.176733374595642090e+00
2.737000000000000000e+03 3.634224700927734375e+01 -1.079211330413818359e+01 2.241627454757690430e+00 1.161677837371826172e+01 4.157521724700927734e+00 -1.237962841987609863e+00
2.738000000000000000e+03 3.234402847290039062e+01 1.596453070640563965e+00 8.118331432342529297e-02 8.425520896911621094e+00 2.552011251449584961e+00 -2.000525236129760742e+00
2.739000000000000000e+03 3.007717514038085938e+01 2.895599901676177979e-01 8.723035454750061035e-01 6.343701839447021484e+00 2.164801597595214844e+00 -2.888995885848999023e+00
2.740000000000000000e+03 3.176806831359863281e+01 -1.047685027122497559e+00 7.006379961967468262e-01 9.099787712097167969e+00 2.940127611160278320e+00 -2.932692050933837891e+00
2.741000000000000000e+03 3.796407699584960938e+01 -7.845570564270019531e+00 4.995664596557617188e+00 9.973646163940429688e+00 4.490793228149414062e+00 -7.822486758232116699e-01
2.742000000000000000e+03 3.120673561096191406e+01 -1.213980484008789062e+01 8.081696033477783203e-01 8.232649803161621094e+00 2.712245702743530273e+00 3.320868015289306641e+00
2.743000000000000000e+03 3.738915252685546875e+01 -8.873303413391113281e+00 4.477139949798583984e+00 1.058529949188232422e+01 4.518731594085693359e+00 -1.341969251632690430e+00
2.744000000000000000e+03 3.722066879272460938e+01 -9.465366363525390625e+00 3.820482015609741211e+00 1.086680030822753906e+01 4.406184673309326172e+00 -1.485814809799194336e+00
2.745000000000000000e+03 3.047888946533203125e+01 3.708669841289520264e-01 7.162281870841979980e-01 6.880103588104248047e+00 2.278899431228637695e+00 -2.817065954208374023e+00
2.746000000000000000e+03 3.078068542480468750e+01 -1.642016792297363281e+01 8.593120425939559937e-02 6.700275421142578125e+00 2.035861968994140625e+00 2.146596193313598633e+00
2.747000000000000000e+03 3.251114273071289062e+01 2.934581279754638672e+00 -7.294498383998870850e-02 7.975953578948974609e+00 2.370902538299560547e+00 -1.763676166534423828e+00
2.748000000000000000e+03 3.001209068298339844e+01 -1.679516601562500000e+01 1.797920316457748413e-01 6.065763950347900391e+00 1.873666763305664062e+00 2.145053386688232422e+00
2.749000000000000000e+03 3.198507881164550781e+01 -1.835724067687988281e+01 -3.019953668117523193e-01 7.183116912841796875e+00 2.064336299896240234e+00 1.598672509193420410e+00
2.750000000000000000e+03 3.560282516479492188e+01 9.908187866210937500e+00 -5.409150719642639160e-01 7.352272033691406250e+00 2.043407201766967773e+00 -6.730565428733825684e-01
2.751000000000000000e+03 6.043440246582031250e+01 -2.202378749847412109e+00 6.810082197189331055e-01 7.492840290069580078e+00 2.452154636383056641e+00 3.781681656837463379e-01
2.752000000000000000e+03 3.039974594116210938e+01 -2.079010772705078125e+01 -2.793880403041839600e-01 5.975867748260498047e+00 1.708943843841552734e+00 1.507005691528320312e+00
2.753000000000000000e+03 3.092317008972167969e+01 1.461382389068603516e+01 -4.018457531929016113e-01 5.514332771301269531e+00 1.533746123313903809e+00 -1.021963953971862793e+00
2.754000000000000000e+03 6.156600952148437500e+01 -7.024329662322998047e+00 6.852467060089111328e-01 7.440436840057373047e+00 2.437705039978027344e+00 4.984221234917640686e-02
2.755000000000000000e+03 6.323488235473632812e+01 -4.969049453735351562e+00 5.651224255561828613e-01 7.427793025970458984e+00 2.397874593734741211e+00 1.807408928871154785e-01
2.756000000000000000e+03 6.329429626464843750e+01 -9.751497268676757812e+00 5.226811170578002930e-01 7.433685302734375000e+00 2.386909961700439453e+00 -1.118335425853729248e-01
2.757000000000000000e+03 6.096399688720703125e+01 -1.431037425994873047e+01 5.015943050384521484e-01 7.548774719238281250e+00 2.415110588073730469e+00 -3.851847052574157715e-01
2.758000000000000000e+03 6.138336563110351562e+01 4.084884226322174072e-01 5.603913068771362305e-01 7.520821571350097656e+00 2.424363851547241211e+00 5.066429972648620605e-01
2.759000000000000000e+03 5.688911437988281250e+01 -2.047426795959472656e+01 1.946298331022262573e-01 7.823025703430175781e+00 2.405296802520751953e+00 -6.517744064331054688e-01
2.760000000000000000e+03 6.046701049804687500e+01 2.522069215774536133e+00 5.001485943794250488e-01 7.583235263824462891e+00 2.425015211105346680e+00 6.251454353332519531e-01
2.761000000000000000e+03 6.288780975341796875e+01 -2.748918151855468750e+01 -1.469163596630096436e-01 7.787423610687255859e+00 2.292152166366577148e+00 -4.774013161659240723e-01
2.762000000000000000e+03 3.316007995605468750e+01 -1.262004733085632324e+00 4.491245150566101074e-01 1.100566864013671875e+01 3.436437845230102539e+00 -1.823335647583007812e+00
2.763000000000000000e+03 3.712651824951171875e+01 -6.064387321472167969e+00 5.774117469787597656e+00 1.042959499359130859e+01 4.861114025115966797e+00 5.143669843673706055e-01
2.764000000000000000e+03 3.117329406738281250e+01 -1.336375617980957031e+01 5.063578486442565918e-01 7.759884834289550781e+00 2.479872703552246094e+00 2.820708274841308594e+00
2.765000000000000000e+03 3.203320312500000000e+01 6.322435736656188965e-01 2.774683833122253418e-01 8.500477790832519531e+00 2.633383989334106445e+00 -2.293767690658569336e+00
2.766000000000000000e+03 3.436619949340820312e+01 -1.219285774230957031e+01 4.297605752944946289e-01 1.158709430694580078e+01 3.605056524276733398e+00 6.156100630760192871e-01
2.767000000000000000e+03 3.796760940551757812e+01 -8.306331634521484375e+00 4.658061027526855469e+00 1.004850196838378906e+01 4.411969184875488281e+00 -1.007596492767333984e+00
2.768000000000000000e+03 3.796177673339843750e+01 -6.767008304595947266e+00 5.341904640197753906e+00 9.845439910888671875e+00 4.556203365325927734e+00 -6.771102547645568848e-02
2.769000000000000000e+03 3.754328155517578125e+01 -6.910609245300292969e+00 5.608717918395996094e+00 1.011175918579101562e+01 4.716143131256103516e+00 -1.989796608686447144e-01
2.770000000000000000e+03 3.644541549682617188e+01 -3.707429885864257812e+00 3.519092082977294922e+00 1.155784130096435547e+01 4.523079872131347656e+00 1.439651131629943848e+00
2.771000000000000000e+03 3.448157119750976562e+01 -2.637866020202636719e+00 1.371837615966796875e+00 1.280808830261230469e+01 4.253977775573730469e+00 -1.658521592617034912e-02
2.772000000000000000e+03 3.212680816650390625e+01 -1.206464648246765137e+00 6.072543263435363770e-01 9.758968353271484375e+00 3.109866857528686523e+00 -2.742652893066406250e+00
2.773000000000000000e+03 3.643729782104492188e+01 -3.039016485214233398e+00 2.795605421066284180e+00 1.151605796813964844e+01 4.293498992919921875e+00 1.284504652023315430e+00
2.774000000000000000e+03 3.729223251342773438e+01 -5.237322807312011719e+00 5.122647285461425781e+00 1.048101139068603516e+01 4.681097507476806641e+00 1.025812029838562012e+00
2.775000000000000000e+03 3.614439773559570312e+01 -3.414292097091674805e+00 3.103375673294067383e+00 1.181188011169433594e+01 4.474576473236083984e+00 1.327305674552917480e+00
2.776000000000000000e+03 3.531317901611328125e+01 -1.121344184875488281e+01 1.400493621826171875e+00 1.216087722778320312e+01 4.068411350250244141e+00 -6.129320859909057617e-01
2.777000000000000000e+03 3.599884414672851562e+01 -1.140056896209716797e+01 1.603790879249572754e+00 1.168997573852539062e+01 3.988130092620849609e+00 -9.129178524017333984e-01
2.778000000000000000e+03 3.813018798828125000e+01 -9.032505989074707031e+00 4.134658336639404297e+00 1.009179973602294922e+01 4.267937183380126953e+00 -1.220669269561767578e+00
2.779000000000000000e+03 3.159253501892089844e+01 1.535884022712707520e+00 2.285074144601821899e-01 7.786658287048339844e+00 2.404549837112426758e+00 -2.304951667785644531e+00
2.780000000000000000e+03 3.674232101440429688e+01 -1.031902122497558594e+01 2.852018356323242188e+00 1.131230354309082031e+01 4.249296665191650391e+00 -1.443929433822631836e+00
2.781000000000000000e+03 3.681509017944335938e+01 -9.672805786132812500e+00 3.606240749359130859e+00 1.124654579162597656e+01 4.455835819244384766e+00 -1.540206909179687500e+00
2.782000000000000000e+03 3.229264831542968750e+01 -8.100333809852600098e-01 4.787732660770416260e-01 9.644509315490722656e+00 3.036984682083129883e+00 -2.483502626419067383e+00
2.783000000000000000e+03 3.216565322875976562e+01 -1.277761363983154297e+01 2.984209954738616943e-01 9.446315765380859375e+00 2.923421144485473633e+00 2.574312210083007812e+00
2.784000000000000000e+03 3.185478973388671875e+01 -1.234610080718994141e+01 4.733686447143554688e-01 9.266953468322753906e+00 2.922096490859985352e+00 2.904093980789184570e+00
2.785000000000000000e+03 3.221805572509765625e+01 2.156007289886474609e+00 4.472187533974647522e-02 8.074872016906738281e+00 2.435878276824951172e+00 -1.965108036994934082e+00
2.786000000000000000e+03 3.275936126708984375e+01 2.407358169555664062e+00 -6.022597476840019226e-02 8.361740112304687500e+00 2.490454196929931641e+00 -1.751644611358642578e+00
2.787000000000000000e+03 3.094404792785644531e+01 9.202492237091064453e-01 4.883250892162322998e-01 7.279272556304931641e+00 2.330279350280761719e+00 -2.613210916519165039e+00
2.788000000000000000e+03 3.088756370544433594e+01 1.495582580566406250e+00 3.857100307941436768e-01 7.117291450500488281e+00 2.250900506973266602e+00 -2.497855663299560547e+00
2.789000000000000000e+03 3.125138854980468750e+01 -1.461911487579345703e+01 2.408982962369918823e-01 7.511244297027587891e+00 2.325642824172973633e+00 2.456470727920532227e+00
2.790000000000000000e+03 3.072909736633300781e+01 -1.401987361907958984e+01 5.039270520210266113e-01 7.002015113830566406e+00 2.251782655715942383e+00 2.732996940612792969e+00
2.791000000000000000e+03 3.127224731445312500e+01 -1.398872947692871094e+01 3.365269899368286133e-01 7.704874038696289062e+00 2.412420272827148438e+00 2.613774061203002930e+00
2.792000000000000000e+03 3.715543746948242188e+01 -1.014105129241943359e+01 3.099406242370605469e+00 1.098976325988769531e+01 4.226750850677490234e+00 -1.467484474182128906e+00
2.793000000000000000e+03 3.814630508422851562e+01 -8.540469169616699219e+00 4.546938419342041016e+00 9.998074531555175781e+00 4.363503932952880859e+00 -1.088230848312377930e+00
2.794000000000000000e+03 3.040641784667968750e+01 8.308132290840148926e-01 6.275796294212341309e-01 6.698882102966308594e+00 2.197938680648803711e+00 -2.700940608978271484e+00
2.795000000000000000e+03 3.152829933166503906e+01 8.807555437088012695e-01 3.348334431648254395e-01 7.960132122039794922e+00 2.488489627838134766e+00 -2.472074985504150391e+00
2.796000000000000000e+03 3.133175659179687500e+01 -1.732366752624511719e+01 -1.212460398674011230e-01 6.977452278137207031e+00 2.056861877441406250e+00 1.863226294517517090e+00
2.797000000000000000e+03 3.192800331115722656e+01 -1.676879882812500000e+01 -1.710889190435409546e-01 7.505649566650390625e+00 2.200368165969848633e+00 1.820178270339965820e+00
2.798000000000000000e+03 3.326726150512695312e+01 2.685479164123535156e+00 -1.244918182492256165e-01 8.553472518920898438e+00 2.528694152832031250e+00 -1.521301031112670898e+00
2.799000000000000000e+03 3.397752761840820312e+01 4.748451709747314453e+00 -3.142150044441223145e-01 8.159782409667968750e+00 2.353670120239257812e+00 -1.139912247657775879e+00
2.800000000000000000e+03 3.576025390625000000e+01 3.608914852142333984e+00 -1.911973953247070312e-01 8.979432106018066406e+00 2.636470317840576172e+00 -5.351160764694213867e-01
2.801000000000000000e+03 3.165572929382324219e+01 -2.016324424743652344e+01 -3.917821049690246582e-01 6.717948913574218750e+00 1.897850155830383301e+00 1.458750128746032715e+00
2.802000000000000000e+03 3.614419555664062500e+01 5.866352081298828125e+00 -3.633800446987152100e-01 8.397138595581054688e+00 2.410127639770507812e+00 -5.333808660507202148e-01
2.803000000000000000e+03 5.999524307250976562e+01 9.700431823730468750e-01 6.053793430328369141e-01 7.553227901458740234e+00 2.447582244873046875e+00 5.679048299789428711e-01
2.804000000000000000e+03 5.809644699096679688e+01 -2.100604534149169922e+00 8.471952080726623535e-01 7.524499893188476562e+00 2.511508464813232422e+00 4.158265888690948486e-01
2.805000000000000000e+03 5.654787445068359375e+01 -2.075168371200561523e+00 9.551292657852172852e-01 7.550371646881103516e+00 2.551650285720825195e+00 4.447195529937744141e-01
2.806000000000000000e+03 3.541845321655273438e+01 1.377116775512695312e+01 -6.125648021697998047e-01 6.733752250671386719e+00 1.836356282234191895e+00 -6.013143658638000488e-01
2.807000000000000000e+03 3.397341537475585938e+01 1.452343273162841797e+01 -5.753196477890014648e-01 6.333619117736816406e+00 1.727489829063415527e+00 -7.502203583717346191e-01
2.808000000000000000e+03 6.779689025878906250e+01 -1.161215591430664062e+01 2.893895208835601807e-01 7.362715244293212891e+00 2.295631408691406250e+00 -1.591385751962661743e-01
2.809000000000000000e+03 3.693721389770507812e+01 1.308027267456054688e+01 -6.260709166526794434e-01 7.117948055267333984e+00 1.947563171386718750e+00 -4.230431616306304932e-01
2.810000000000000000e+03 6.134908294677734375e+01 -1.039681339263916016e+01 6.373770833015441895e-01 7.471015930175781250e+00 2.432517766952514648e+00 -1.697432100772857666e-01
2.811000000000000000e+03 5.948974227905273438e+01 4.807356834411621094e+00 4.042459428310394287e-01 7.652627468109130859e+00 2.417062044143676758e+00 7.269546389579772949e-01
2.812000000000000000e+03 5.692639160156250000e+01 -4.450190067291259766e-02 8.164329528808593750e-01 7.585609912872314453e+00 2.520612955093383789e+00 5.847275853157043457e-01
2.813000000000000000e+03 5.821337127685546875e+01 7.235483646392822266e+00 2.818711996078491211e-01 7.724489688873291016e+00 2.401908159255981445e+00 8.002963662147521973e-01
2.814000000000000000e+03 5.870653533935546875e+01 -1.467178821563720703e+01 5.824874639511108398e-01 7.609025955200195312e+00 2.457453966140747070e+00 -4.562365412712097168e-01
2.815000000000000000e+03 5.663462829589843750e+01 -1.761578559875488281e+01 4.354844391345977783e-01 7.753592014312744141e+00 2.456722974777221680e+00 -6.194597482681274414e-01
2.816000000000000000e+03 6.515747833251953125e+01 -2.852770614624023438e+01 -1.447479724884033203e-01 7.754396915435791016e+00 2.282894849777221680e+00 -4.246456623077392578e-01
2.817000000000000000e+03 5.840195083618164062e+01 -2.174819183349609375e+01 9.799888730049133301e-02 7.802992820739746094e+00 2.370297431945800781e+00 -6.192474961280822754e-01
2.818000000000000000e+03 3.609511184692382812e+01 -2.773261308670043945e+00 2.380747795104980469e+00 1.178962898254394531e+01 4.251112937927246094e+00 1.117264389991760254e+00
2.819000000000000000e+03 3.340654373168945312e+01 -1.570506572723388672e+00 5.469520092010498047e-01 1.147051429748535156e+01 3.605239868164062500e+00 -1.566545009613037109e+00
2.820000000000000000e+03 3.862181091308593750e+01 -7.794003963470458984e+00 4.660915374755859375e+00 9.615005493164062500e+00 4.282776355743408203e+00 -6.548905372619628906e-01
2.821000000000000000e+03 3.855409622192382812e+01 -6.997659683227539062e+00 4.955917835235595703e+00 9.556788444519042969e+00 4.353811740875244141e+00 -1.859009712934494019e-01
2.822000000000000000e+03 3.405761718750000000e+01 -1.791704058647155762e+00 7.319170832633972168e-01 1.203380203247070312e+01 3.829715967178344727e+00 -7.951131463050842285e-01
2.823000000000000000e+03 3.820878601074218750e+01 -8.148945808410644531e+00 4.662519931793212891e+00 9.838986396789550781e+00 4.350451946258544922e+00 -8.523868322372436523e-01
2.824000000000000000e+03 3.531208801269531250e+01 -1.186004543304443359e+01 9.368499517440795898e-01 1.173009967803955078e+01 3.800084829330444336e+00 -2.970449328422546387e-01
2.825000000000000000e+03 3.511314392089843750e+01 -1.875980854034423828e+00 1.190061688423156738e+00 1.194447135925292969e+01 3.940359830856323242e+00 2.078540623188018799e-01
2.826000000000000000e+03 3.750727844238281250e+01 -6.638383865356445312e+00 5.609930515289306641e+00 1.011067867279052734e+01 4.716182708740234375e+00 2.825886569917201996e-02
2.827000000000000000e+03 3.173081970214843750e+01 7.991302758455276489e-02 4.521732628345489502e-01 8.443343162536621094e+00 2.668654918670654297e+00 -2.599238634109497070e+00
2.828000000000000000e+03 3.663038253784179688e+01 -4.068936824798583984e+00 4.021613597869873047e+00 1.129902362823486328e+01 4.596191406250000000e+00 1.459856748580932617e+00
2.829000000000000000e+03 3.373653411865234375e+01 -1.262000083923339844e+01 1.854553371667861938e-01 1.106621360778808594e+01 3.375500440597534180e+00 1.259332060813903809e+00
2.830000000000000000e+03 3.475944519042968750e+01 -1.247940921783447266e+01 4.485763311386108398e-01 1.137384796142578125e+01 3.546727180480957031e+00 3.442039489746093750e-01
2.831000000000000000e+03 3.295654296875000000e+01 -1.550279140472412109e+00 5.229386687278747559e-01 1.117097187042236328e+01 3.508173227310180664e+00 -2.017965793609619141e+00
2.832000000000000000e+03 3.765106582641601562e+01 -5.911190032958984375e+00 5.347401142120361328e+00 1.011423110961914062e+01 4.638489723205566406e+00 5.474639534950256348e-01
2.833000000000000000e+03 3.782014846801757812e+01 -8.716897964477539062e+00 4.502971649169921875e+00 1.022319412231445312e+01 4.417850017547607422e+00 -1.203406214714050293e+00
2.834000000000000000e+03 3.314497756958007812e+01 -1.343056488037109375e+01 2.787567116320133209e-02 9.983879089355468750e+00 3.003526210784912109e+00 1.718658328056335449e+00
2.835000000000000000e+03 3.575277328491210938e+01 -2.515197277069091797e+00 1.942660927772521973e+00 1.190605354309082031e+01 4.154614448547363281e+00 8.480145931243896484e-01
2.836000000000000000e+03 3.584935379028320312e+01 -3.172430038452148438e+00 2.708409309387207031e+00 1.208453845977783203e+01 4.437884330749511719e+00 1.208457231521606445e+00
2.837000000000000000e+03 3.124456596374511719e+01 -1.529639053344726562e+01 1.426738500595092773e-01 7.322522640228271484e+00 2.239558935165405273e+00 2.271909236907958984e+00
2.838000000000000000e+03 3.640720367431640625e+01 -1.125485324859619141e+01 1.861738324165344238e+00 1.146747684478759766e+01 3.998764753341674805e+00 -1.084604620933532715e+00
2.839000000000000000e+03 3.802975845336914062e+01 -9.657041549682617188e+00 3.573190689086914062e+00 1.028612136840820312e+01 4.157793521881103516e+00 -1.367372870445251465e+00
2.840000000000000000e+03 3.756180191040039062e+01 -9.893096923828125000e+00 3.374882698059082031e+00 1.064962482452392578e+01 4.207352161407470703e+00 -1.436535239219665527e+00
2.841000000000000000e+03 3.169248962402343750e+01 -1.313311958312988281e+01 3.746426999568939209e-01 8.551956176757812500e+00 2.677979707717895508e+00 2.728564500808715820e+00
2.842000000000000000e+03 3.564191436767578125e+01 -1.161905193328857422e+01 1.263043284416198730e+00 1.173977661132812500e+01 3.900846004486083984e+00 -6.050018668174743652e-01
2.843000000000000000e+03 3.183630752563476562e+01 -1.408346080780029297e+01 1.764706373214721680e-01 8.293853759765625000e+00 2.541097164154052734e+00 2.404999971389770508e+00
2.844000000000000000e+03 3.777629852294921875e+01 -5.068043708801269531e+00 4.752553939819335938e+00 1.017589187622070312e+01 4.478533744812011719e+00 9.882163405418395996e-01
2.845000000000000000e+03 3.301860809326171875e+01 1.900874853134155273e+00 -3.389969840645790100e-02 8.795320510864257812e+00 2.628426313400268555e+00 -1.673830628395080566e+00
2.846000000000000000e+03 3.856151199340820312e+01 -9.379962921142578125e+00 3.746946811676025391e+00 9.888398170471191406e+00 4.090603351593017578e+00 -1.233507275581359863e+00
2.847000000000000000e+03 3.355797576904296875e+01 2.296099424362182617e+00 -1.112915724515914917e-01 8.915913581848144531e+00 2.641386508941650391e+00 -1.387523889541625977e+00
2.848000000000000000e+03 3.370494842529296875e+01 3.375460386276245117e+00 -2.035065144300460815e-01 8.492596626281738281e+00 2.486726999282836914e+00 -1.282749891281127930e+00
2.849000000000000000e+03 3.452809524536132812e+01 2.204620838165283203e+00 -1.161607280373573303e-01 9.317472457885742188e+00 2.760393619537353516e+00 -9.593251347541809082e-01
2.850000000000000000e+03 3.435752487182617188e+01 4.114004135131835938e+00 -2.784940302371978760e-01 8.513615608215332031e+00 2.470536231994628906e+00 -1.004080653190612793e+00
2.851000000000000000e+03 3.256567764282226562e+01 -2.146892929077148438e+01 -5.383750796318054199e-01 6.910167694091796875e+00 1.911537766456604004e+00 1.199625015258789062e+00
2.852000000000000000e+03 3.295745086669921875e+01 -1.600647544860839844e+01 -2.073974460363388062e-01 8.411422729492187500e+00 2.461207389831542969e+00 1.590521454811096191e+00
2.853000000000000000e+03 3.202915954589843750e+01 -1.575903320312500000e+01 -8.059387654066085815e-02 7.939434051513671875e+00 2.357651948928833008e+00 1.967940807342529297e+00
2.854000000000000000e+03 5.620730972290039062e+01 -3.996150016784667969e+00 1.064633727073669434e+00 7.524013519287109375e+00 2.576594114303588867e+00 3.084907531738281250e-01
2.855000000000000000e+03 3.510856246948242188e+01 4.030177116394042969e+00 -2.696287631988525391e-01 8.769332885742187500e+00 2.549911260604858398e+00 -7.744962573051452637e-01
2.856000000000000000e+03 3.542187118530273438e+01 7.197867870330810547e+00 -4.515775442123413086e-01 7.906205654144287109e+00 2.236388444900512695e+00 -7.409091591835021973e-01
2.857000000000000000e+03 3.103577613830566406e+01 -2.227516746520996094e+01 -4.454773664474487305e-01 6.187283039093017578e+00 1.722541689872741699e+00 1.296491503715515137e+00
2.858000000000000000e+03 3.627548980712890625e+01 1.148284530639648438e+01 -5.811872482299804688e-01 7.210302829742431641e+00 1.988734602928161621e+00 -5.340034961700439453e-01
2.859000000000000000e+03 3.533603286743164062e+01 8.411388397216796875e+00 -5.058916211128234863e-01 7.562352180480957031e+00 2.116938114166259766e+00 -7.441113591194152832e-01
2.860000000000000000e+03 3.239736938476562500e+01 -1.633238220214843750e+01 -2.013285011053085327e-01 8.012726783752441406e+00 2.343419313430786133e+00 1.789754509925842285e+00
2.861000000000000000e+03 3.260523605346679688e+01 1.521647930145263672e+01 -5.172841548919677734e-01 5.927088737487792969e+00 1.622941374778747559e+00 -8.557469248771667480e-01
2.862000000000000000e+03 6.418132019042968750e+01 -7.372879505157470703e+00 5.210834145545959473e-01 7.407903671264648438e+00 2.378696203231811523e+00 2.904257178306579590e-02
2.863000000000000000e+03 5.926841354370117188e+01 -1.076691627502441406e+01 7.546525597572326660e-01 7.509818553924560547e+00 2.479341268539428711e+00 -2.223201692104339600e-01
2.864000000000000000e+03 5.488544464111328125e+01 -8.957570075988769531e+00 1.165119528770446777e+00 7.559248447418212891e+00 2.617310523986816406e+00 -1.572984904050827026e-01
2.865000000000000000e+03 5.966599655151367188e+01 -1.322916984558105469e+01 6.169384121894836426e-01 7.552034854888916016e+00 2.450691938400268555e+00 -3.621835410594940186e-01
2.866000000000000000e+03 5.724057388305664062e+01 1.799330949783325195e+00 6.858429312705993652e-01 7.621680259704589844e+00 2.492256879806518555e+00 6.702803969383239746e-01
2.867000000000000000e+03 5.673781967163085938e+01 9.947078704833984375e+00 1.155473068356513977e-01 7.791100502014160156e+00 2.371994256973266602e+00 8.377305865287780762e-01
2.868000000000000000e+03 5.297741699218750000e+01 -1.909742736816406250e+01 3.366465866565704346e-01 7.941576480865478516e+00 2.483466863632202148e+00 -7.427985072135925293e-01
2.869000000000000000e+03 5.422813796997070312e+01 -1.773736190795898438e+01 4.722341597080230713e-01 7.846788883209228516e+00 2.495707035064697266e+00 -6.940823793411254883e-01
2.870000000000000000e+03 3.204475784301757812e+01 -1.360223293304443359e+01 2.056796997785568237e-01 8.780225753784179688e+00 2.695771694183349609e+00 2.431224822998046875e+00
2.871000000000000000e+03 3.281932449340820312e+01 -1.378556919097900391e+01 1.390763092786073685e-02 9.417336463928222656e+00 2.829373359680175781e+00 1.900445580482482910e+00
2.872000000000000000e+03 3.246495056152343750e+01 -1.327488040924072266e+01 1.549668014049530029e-01 9.419592857360839844e+00 2.872367858886718750e+00 2.258725166320800781e+00
2.873000000000000000e+03 3.817533111572265625e+01 -7.135034084320068359e+00 5.158737659454345703e+00 9.756201744079589844e+00 4.474482059478759766e+00 -2.949103713035583496e-01
2.874000000000000000e+03 3.429431915283203125e+01 -1.673555016517639160e+00 7.344641089439392090e-01 1.192676162719726562e+01 3.798367977142333984e+00 -6.421705484390258789e-01
2.875000000000000000e+03 3.381952667236328125e+01 -1.312650203704833984e+01 6.661951541900634766e-02 1.062826538085937500e+01 3.208465576171875000e+00 1.243018031120300293e+00
2.876000000000000000e+03 3.542656326293945312e+01 -1.307340145111083984e+01 4.262795448303222656e-01 1.086646747589111328e+01 3.387824058532714844e+00 5.287399888038635254e-02
2.877000000000000000e+03 3.846519088745117188e+01 -8.728895187377929688e+00 4.265453815460205078e+00 9.830623626708984375e+00 4.228823184967041016e+00 -1.064911007881164551e+00
2.878000000000000000e+03 3.217210388183593750e+01 -1.607565581798553467e-01 3.744738101959228516e-01 9.109556198120117188e+00 2.845208883285522461e+00 -2.404080867767333984e+00
2.879000000000000000e+03 3.258329772949218750e+01 -1.003204107284545898e+00 4.503739476203918457e-01 1.014470481872558594e+01 3.178523540496826172e+00 -2.321848154067993164e+00
2.880000000000000000e+03 3.273871231079101562e+01 -1.405420541763305664e+00 5.156405568122863770e-01 1.072879314422607422e+01 3.373330116271972656e+00 -2.237839221954345703e+00
2.881000000000000000e+03 3.755424499511718750e+01 -1.058442687988281250e+01 2.732189655303955078e+00 1.073814868927001953e+01 4.041101455688476562e+00 -1.399394631385803223e+00
2.882000000000000000e+03 3.176890563964843750e+01 -1.465780639648437500e+01 1.026821285486221313e-01 7.998980045318603516e+00 2.430498600006103516e+00 2.275200605392456055e+00
2.883000000000000000e+03 3.393740463256835938e+01 1.925412178039550781e+00 -8.794854581356048584e-02 9.180056571960449219e+00 2.727632522583007812e+00 -1.251156449317932129e+00
2.884000000000000000e+03 3.501449966430664062e+01 -1.215149497985839844e+01 6.584506034851074219e-01 1.160696315765380859e+01 3.679624080657958984e+00 4.880018532276153564e-02
2.885000000000000000e+03 3.679209518432617188e+01 -3.315407037734985352e+00 3.166662931442260742e+00 1.121142673492431641e+01 4.313426971435546875e+00 1.361971378326416016e+00
2.886000000000000000e+03 3.898682022094726562e+01 -8.953684806823730469e+00 3.929718255996704102e+00 9.606501579284667969e+00 4.060865879058837891e+00 -1.042040228843688965e+00
2.887000000000000000e+03 3.629542160034179688e+01 -1.191584396362304688e+01 1.293470382690429688e+00 1.123428058624267578e+01 3.758325099945068359e+00 -7.872232198715209961e-01
2.888000000000000000e+03 3.733483505249023438e+01 -1.094148540496826172e+01 2.431634187698364258e+00 1.087884140014648438e+01 3.993142843246459961e+00 -1.343110561370849609e+00
2.889000000000000000e+03 3.407736587524414062e+01 -1.543801903724670410e+00 6.661146879196166992e-01 1.169652462005615234e+01 3.708791732788085938e+00 -8.410370349884033203e-01
2.890000000000000000e+03 3.479410934448242188e+01 -1.556071639060974121e+00 8.773812055587768555e-01 1.173912620544433594e+01 3.784952163696289062e+00 -2.018017619848251343e-01
2.891000000000000000e+03 3.250128173828125000e+01 1.049069046974182129e+00 1.307960897684097290e-01 8.789412498474121094e+00 2.676062583923339844e+00 -2.013756275177001953e+00
2.892000000000000000e+03 3.343664550781250000e+01 1.458062291145324707e+00 -1.627244986593723297e-02 9.194841384887695312e+00 2.753570795059204102e+00 -1.518565058708190918e+00
2.893000000000000000e+03 3.273809051513671875e+01 6.759067773818969727e-01 1.397078186273574829e-01 9.202959060668945312e+00 2.802800178527832031e+00 -2.009218215942382812e+00
2.894000000000000000e+03 3.177896881103515625e+01 -1.519056224822998047e+01 5.002047121524810791e-02 7.813694477081298828e+00 2.359114408493041992e+00 2.130979776382446289e+00
2.895000000000000000e+03 3.510778808593750000e+01 -1.277140522003173828e+01 4.376401305198669434e-01 1.114138126373291016e+01 3.473706483840942383e+00 1.968618929386138916e-01
2.896000000000000000e+03 3.637762832641601562e+01 -2.361054420471191406e+00 2.071543693542480469e+00 1.142467594146728516e+01 4.048866271972656250e+00 1.035448193550109863e+00
2.897000000000000000e+03 3.262514877319335938e+01 -1.698067474365234375e+01 -2.976939082145690918e-01 7.857912540435791016e+00 2.268065690994262695e+00 1.600382089614868164e+00
2.898000000000000000e+03 3.484001922607421875e+01 3.254603147506713867e+00 -2.241320759057998657e-01 9.040161132812500000e+00 2.644808769226074219e+00 -8.413262367248535156e-01
2.899000000000000000e+03 3.718366622924804688e+01 5.679460048675537109e+00 -3.009857535362243652e-01 8.555818557739257812e+00 2.476449966430664062e+00 -2.563074231147766113e-01
2.900000000000000000e+03 3.561669921875000000e+01 4.890238285064697266e+00 -3.211220502853393555e-01 8.579520225524902344e+00 2.477519512176513672e+00 -6.393522620201110840e-01
2.901000000000000000e+03 3.483868026733398438e+01 -2.076608657836914062e+01 -6.257435083389282227e-01 7.784976482391357422e+00 2.147769927978515625e+00 7.941953539848327637e-01
2.902000000000000000e+03 3.513851547241210938e+01 1.796517372131347656e+01 -6.554417610168457031e-01 6.273170471191406250e+00 1.685318589210510254e+00 -5.232171416282653809e-01
2.903000000000000000e+03 6.056415557861328125e+01 -6.055426120758056641e+00 7.514781355857849121e-01 7.454231739044189453e+00 2.461712837219238281e+00 1.132075339555740356e-01
2.904000000000000000e+03 6.007249450683593750e+01 -9.431761741638183594e+00 7.415912151336669922e-01 7.478665828704833984e+00 2.466077089309692383e+00 -1.241829395294189453e-01
2.905000000000000000e+03 3.680365371704101562e+01 8.132935523986816406e+00 -4.735596477985382080e-01 7.910724639892578125e+00 2.231149435043334961e+00 -4.095745980739593506e-01
2.906000000000000000e+03 3.749341201782226562e+01 1.474028682708740234e+01 -6.642217636108398438e-01 7.016892433166503906e+00 1.905801177024841309e+00 -3.300218880176544189e-01
2.907000000000000000e+03 5.972833633422851562e+01 -7.175661087036132812e+00 8.072419762611389160e-01 7.465150833129882812e+00 2.481717824935913086e+00 3.400278091430664062e-02
2.908000000000000000e+03 5.564989852905273438e+01 3.052322268486022949e-01 8.663976192474365234e-01 7.619459152221679688e+00 2.545757055282592773e+00 6.279560923576354980e-01
2.909000000000000000e+03 5.605894851684570312e+01 5.798084735870361328e+00 4.093197286128997803e-01 7.741890430450439453e+00 2.445363044738769531e+00 8.231559991836547852e-01
2.910000000000000000e+03 5.599903488159179688e+01 3.894881725311279297e+00 5.712895393371582031e-01 7.704010963439941406e+00 2.482590198516845703e+00 7.828459143638610840e-01
2.911000000000000000e+03 5.573607635498046875e+01 -2.217813873291015625e+01 5.741597339510917664e-02 7.897274494171142578e+00 2.386407136917114258e+00 -6.722574234008789062e-01
2.912000000000000000e+03 5.549473190307617188e+01 -1.912951469421386719e+01 3.200847506523132324e-01 7.837039470672607422e+00 2.447137355804443359e+00 -6.781640648841857910e-01
2.913000000000000000e+03 5.745911407470703125e+01 -1.354275608062744141e+01 7.168898582458496094e-01 7.609892368316650391e+00 2.498034715652465820e+00 -4.338931143283843994e-01
2.914000000000000000e+03 5.538544082641601562e+01 -1.634817123413085938e+01 5.832136869430541992e-01 7.757764339447021484e+00 2.502293348312377930e+00 -6.230689287185668945e-01
2.915000000000000000e+03 3.253841400146484375e+01 -4.645468592643737793e-01 3.449625968933105469e-01 9.716103553771972656e+00 3.018319606781005859e+00 -2.233673095703125000e+00
2.916000000000000000e+03 3.370710372924804688e+01 -1.297391653060913086e+00 4.960097074508666992e-01 1.138723564147949219e+01 3.564973592758178711e+00 -1.233100652694702148e+00
2.917000000000000000e+03 3.558893203735351562e+01 -1.220105266571044922e+01 8.576278090476989746e-01 1.143426609039306641e+01 3.687568187713623047e+00 -3.279421925544738770e-01
2.918000000000000000e+03 3.281081771850585938e+01 -7.915089130401611328e-01 3.656204938888549805e-01 1.028596019744873047e+01 3.195474147796630859e+00 -2.088818550109863281e+00
2.919000000000000000e+03 3.243882369995117188e+01 2.937627732753753662e-01 2.328597009181976318e-01 9.180006027221679688e+00 2.823859691619873047e+00 -2.154709339141845703e+00
2.920000000000000000e+03 3.709004592895507812e+01 -4.000991344451904297e+00 3.943497180938720703e+00 1.092700481414794922e+01 4.461150646209716797e+00 1.403282046318054199e+00
2.921000000000000000e+03 3.750366973876953125e+01 -4.418490886688232422e+00 4.310595512390136719e+00 1.049994754791259766e+01 4.443162918090820312e+00 1.258421301841735840e+00
2.922000000000000000e+03 3.491336822509765625e+01 -1.307537555694580078e+01 2.802187800407409668e-01 1.099458122253417969e+01 3.382440090179443359e+00 3.854553401470184326e-01
2.923000000000000000e+03 3.605645370483398438e+01 -2.069996356964111328e+00 1.725592494010925293e+00 1.153224658966064453e+01 3.977351665496826172e+00 8.082877397537231445e-01
2.924000000000000000e+03 3.686556625366210938e+01 3.350687265396118164e+00 -5.189941823482513428e-02 9.240640640258789062e+00 2.756622552871704102e+00 -1.245928928256034851e-01
2.925000000000000000e+03 3.803117752075195312e+01 -5.767663955688476562e+00 5.075215339660644531e+00 9.901314735412597656e+00 4.492959022521972656e+00 6.019392013549804688e-01
2.926000000000000000e+03 3.745293426513671875e+01 -5.587681770324707031e+00 5.315126419067382812e+00 1.029360771179199219e+01 4.682620525360107422e+00 7.854583859443664551e-01
2.927000000000000000e+03 3.754512786865234375e+01 -4.032589912414550781e+00 3.947317123413085938e+00 1.052747726440429688e+01 4.342438220977783203e+00 1.315603733062744141e+00
2.928000000000000000e+03 3.669205474853515625e+01 -1.168922615051269531e+01 1.591866374015808105e+00 1.111914348602294922e+01 3.813302993774414062e+00 -1.012740254402160645e+00
2.929000000000000000e+03 3.686628723144531250e+01 -1.131823158264160156e+01 1.958911657333374023e+00 1.108045101165771484e+01 3.911808967590332031e+00 -1.181993842124938965e+00
2.930000000000000000e+03 3.790974807739257812e+01 -1.030508327484130859e+01 3.019154071807861328e+00 1.046130466461181641e+01 4.044137477874755859e+00 -1.394014358520507812e+00
2.931000000000000000e+03 3.447238540649414062e+01 -1.308820843696594238e+00 6.654935479164123535e-01 1.156991672515869141e+01 3.670623064041137695e+00 -5.289064645767211914e-01
2.932000000000000000e+03 3.874003982543945312e+01 -7.297232151031494141e+00 4.808455467224121094e+00 9.502907752990722656e+00 4.293408870697021484e+00 -3.722949922084808350e-01
2.933000000000000000e+03 3.236863708496093750e+01 -1.408224678039550781e+01 3.840952739119529724e-02 8.879666328430175781e+00 2.675422668457031250e+00 2.093583106994628906e+00
2.934000000000000000e+03 3.772134780883789062e+01 -1.125998020172119141e+01 2.236762762069702148e+00 1.057489871978759766e+01 3.843498706817626953e+00 -1.292925119400024414e+00
2.935000000000000000e+03 3.303850936889648438e+01 1.026449918746948242e+00 5.658992007374763489e-02 9.158083915710449219e+00 2.764401912689208984e+00 -1.733242034912109375e+00
2.936000000000000000e+03 3.402870178222656250e+01 -1.403040409088134766e+01 -6.346288323402404785e-02 1.012598133087158203e+01 3.018755435943603516e+00 1.132903814315795898e+00
2.937000000000000000e+03 3.533985519409179688e+01 -1.247081661224365234e+01 6.593214273452758789e-01 1.130984687805175781e+01 3.590750455856323242e+00 -8.548964560031890869e-02
2.938000000000000000e+03 3.706019973754882812e+01 -2.864443778991699219e+00 2.755802631378173828e+00 1.097626304626464844e+01 4.119619846343994141e+00 1.286175251007080078e+00
2.939000000000000000e+03 3.358985519409179688e+01 -1.876489257812500000e+01 -4.765546917915344238e-01 7.885584354400634766e+00 2.222708940505981445e+00 1.141273736953735352e+00
2.940000000000000000e+03 3.338204956054687500e+01 -1.666032218933105469e+01 -3.304604887962341309e-01 8.373545646667480469e+00 2.412925481796264648e+00 1.368150830268859863e+00
2.941000000000000000e+03 3.373730087280273438e+01 -5.585566163063049316e-01 3.131757378578186035e-01 1.072403812408447266e+01 3.311164140701293945e+00 -1.298391342163085938e+00
2.942000000000000000e+03 3.440600967407226562e+01 1.579315900802612305e+00 -3.061717003583908081e-02 9.573811531066894531e+00 2.862958431243896484e+00 -9.924664497375488281e-01
2.943000000000000000e+03 3.480243301391601562e+01 6.294102668762207031e-01 1.660208702087402344e-01 1.025090122222900391e+01 3.125076532363891602e+00 -6.953864097595214844e-01
2.944000000000000000e+03 3.742988967895507812e+01 4.701054096221923828e+00 -1.893486976623535156e-01 8.828317642211914062e+00 2.591690540313720703e+00 -1.261724829673767090e-01
2.945000000000000000e+03 3.534341049194335938e+01 -2.241160011291503906e+01 -7.070310115814208984e-01 7.607999801635742188e+00 2.070290565490722656e+00 6.427836418151855469e-01
2.946000000000000000e+03 3.268328094482421875e+01 -1.945599937438964844e+01 -4.401957690715789795e-01 7.275784015655517578e+00 2.050676345825195312e+00 1.338724255561828613e+00
2.947000000000000000e+03 3.885279464721679688e+01 8.804559707641601562e+00 -4.475386738777160645e-01 8.054178237915039062e+00 2.281991958618164062e+00 -5.493559688329696655e-02
2.948000000000000000e+03 5.839753341674804688e+01 -1.214862823486328125e+01 7.452051639556884766e-01 7.553256511688232422e+00 2.489538431167602539e+00 -3.275864720344543457e-01
2.949000000000000000e+03 5.777552413940429688e+01 -7.342886924743652344e+00 9.550129771232604980e-01 7.492033958435058594e+00 2.534114122390747070e+00 1.363336946815252304e-02
2.950000000000000000e+03 5.508662033081054688e+01 -1.515629291534423828e+00 1.036731839179992676e+00 7.589218616485595703e+00 2.587785005569458008e+00 5.119093656539916992e-01
2.951000000000000000e+03 5.751401901245117188e+01 3.592144727706909180e+00 5.434633493423461914e-01 7.660574913024902344e+00 2.461211442947387695e+00 7.388122677803039551e-01
2.952000000000000000e+03 3.784004974365234375e+01 1.085350894927978516e+01 -5.727312564849853516e-01 7.621800422668457031e+00 2.114720821380615234e+00 -2.969079017639160156e-01
2.953000000000000000e+03 5.865514373779296875e+01 -6.076550006866455078e+00 8.874943852424621582e-01 7.476667404174804688e+00 2.509248495101928711e+00 1.153596788644790649e-01
2.954000000000000000e+03 5.858010101318359375e+01 -3.737371683120727539e+00 8.639511466026306152e-01 7.494143962860107422e+00 2.507428407669067383e+00 2.992384731769561768e-01
2.955000000000000000e+03 3.835979080200195312e+01 -2.041160774230957031e+01 -5.260474681854248047e-01 8.511704444885253906e+00 2.395696878433227539e+00 -7.170849945396184921e-03
2.956000000000000000e+03 3.656204223632812500e+01 1.701329231262207031e+01 -6.714392304420471191e-01 6.572807788848876953e+00 1.770410537719726562e+00 -4.091266691684722900e-01
2.957000000000000000e+03 3.598957443237304688e+01 1.539513969421386719e+01 -6.420753598213195801e-01 6.658847332000732422e+00 1.805031657218933105e+00 -4.985135197639465332e-01
2.958000000000000000e+03 5.451617431640625000e+01 3.955296993255615234e+00 6.151511669158935547e-01 7.748632431030273438e+00 2.509135246276855469e+00 8.169833421707153320e-01
2.959000000000000000e+03 5.419731140136718750e+01 5.930141448974609375e+00 4.283726513385772705e-01 7.798655033111572266e+00 2.468108415603637695e+00 8.592233061790466309e-01
2.960000000000000000e+03 6.129425048828125000e+01 1.002030086517333984e+01 1.120142862200737000e-01 7.738781452178955078e+00 2.355238676071166992e+00 7.609463930130004883e-01
2.961000000000000000e+03 3.341622924804687500e+01 1.873815727233886719e+01 -5.929359197616577148e-01 5.875230789184570312e+00 1.584688544273376465e+00 -6.130251288414001465e-01
2.962000000000000000e+03 5.421337890625000000e+01 8.184644699096679688e+00 2.371253520250320435e-01 7.827272891998291016e+00 2.419319629669189453e+00 8.687025904655456543e-01
2.963000000000000000e+03 5.627936553955078125e+01 7.812158107757568359e+00 2.624151706695556641e-01 7.772546768188476562e+00 2.410488605499267578e+00 8.366385102272033691e-01
2.964000000000000000e+03 5.425665664672851562e+01 -2.066428565979003906e+01 1.735252737998962402e-01 7.920980930328369141e+00 2.428351879119873047e+00 -7.098209261894226074e-01
2.965000000000000000e+03 5.307714843750000000e+01 -1.635254096984863281e+01 6.543203592300415039e-01 7.853054523468017578e+00 2.552212476730346680e+00 -7.005811333656311035e-01
2.966000000000000000e+03 5.413319015502929688e+01 -1.259981060028076172e+01 9.940304160118103027e-01 7.675139427185058594e+00 2.600750923156738281e+00 -4.738975167274475098e-01
2.967000000000000000e+03 5.645744323730468750e+01 -1.494582462310791016e+01 6.643283367156982422e-01 7.677429199218750000e+00 2.502527236938476562e+00 -5.323185920715332031e-01
2.968000000000000000e+03 3.344862747192382812e+01 -9.345421195030212402e-01 3.787305057048797607e-01 1.088498497009277344e+01 3.379114866256713867e+00 -1.537156462669372559e+00
2.969000000000000000e+03 3.815815734863281250e+01 -6.131729125976562500e+00 5.140944957733154297e+00 9.787325859069824219e+00 4.478481292724609375e+00 3.357667028903961182e-01
2.970000000000000000e+03 3.429320144653320312e+01 -1.348455715179443359e+01 3.308586403727531433e-02 1.049949836730957031e+01 3.159775257110595703e+00 9.597611427307128906e-01
2.971000000000000000e+03 3.904231262207031250e+01 -7.106592655181884766e+00 4.634195327758789062e+00 9.341463088989257812e+00 4.192697525024414062e+00 -2.175825834274291992e-01
2.972000000000000000e+03 3.658024597167968750e+01 4.075772687792778015e-02 7.304777503013610840e-01 1.044203567504882812e+01 3.351753950119018555e+00 3.407784998416900635e-01
2.973000000000000000e+03 3.446266555786132812e+01 -1.321400070190429688e+01 1.245259717106819153e-01 1.077113914489746094e+01 3.268699645996093750e+00 7.697337269783020020e-01
2.974000000000000000e+03 3.829166412353515625e+01 -4.949389934539794922e+00 4.467619419097900391e+00 9.882979393005371094e+00 4.305179595947265625e+00 9.398221373558044434e-01
2.975000000000000000e+03 3.923474502563476562e+01 -7.862953662872314453e+00 4.330746173858642578e+00 9.328001976013183594e+00 4.097624301910400391e+00 -6.060695648193359375e-01
2.976000000000000000e+03 3.590335083007812500e+01 -1.204988098144531250e+01 1.066402077674865723e+00 1.139508056640625000e+01 3.738444805145263672e+00 -5.860137343406677246e-01
2.977000000000000000e+03 3.733673095703125000e+01 -1.140287208557128906e+01 2.013800621032714844e+00 1.083065032958984375e+01 3.853335142135620117e+00 -1.225135326385498047e+00
2.978000000000000000e+03 3.566043090820312500e+01 -1.275942802429199219e+01 6.312826871871948242e-01 1.103423500061035156e+01 3.499655485153198242e+00 -1.937519311904907227e-01
2.979000000000000000e+03 3.985698699951171875e+01 -8.613874435424804688e+00 3.850621461868286133e+00 9.193503379821777344e+00 3.913237571716308594e+00 -8.057107329368591309e-01
2.980000000000000000e+03 3.744532012939453125e+01 -3.034550428390502930e+00 2.951097249984741211e+00 1.071422863006591797e+01 4.099597930908203125e+00 1.322768568992614746e+00
2.981000000000000000e+03 3.786457443237304688e+01 -4.480114459991455078e+00 4.270654678344726562e+00 1.021651649475097656e+01 4.346151351928710938e+00 1.170255541801452637e+00
2.982000000000000000e+03 3.835473632812500000e+01 -1.006751632690429688e+01 3.234987497329711914e+00 1.013654518127441406e+01 4.011459827423095703e+00 -1.342722058296203613e+00
2.983000000000000000e+03 3.967569732666015625e+01 -9.145872116088867188e+00 3.617366075515747070e+00 9.346768379211425781e+00 3.889240264892578125e+00 -9.935342073440551758e-01
2.984000000000000000e+03 3.824570465087890625e+01 -1.067579269409179688e+01 2.699729681015014648e+00 1.027462959289550781e+01 3.892307758331298828e+00 -1.334861159324645996e+00
2.985000000000000000e+03 3.961471557617187500e+01 -9.726648330688476562e+00 3.340009927749633789e+00 9.460405349731445312e+00 3.840124845504760742e+00 -1.130180120468139648e+00
2.986000000000000000e+03 3.346713256835937500e+01 -1.558167552947998047e+01 -2.206513732671737671e-01 8.940189361572265625e+00 2.615861177444458008e+00 1.399090528488159180e+00
2.987000000000000000e+03 3.290377807617187500e+01 -1.513386917114257812e+01 -1.375662833452224731e-01 8.765201568603515625e+00 2.588290452957153320e+00 1.726326227188110352e+00
2.988000000000000000e+03 3.706759262084960938e+01 -1.217866897583007812e+01 1.405570149421691895e+00 1.082311058044433594e+01 3.668604135513305664e+00 -9.730298519134521484e-01
2.989000000000000000e+03 3.397924423217773438e+01 1.092056751251220703e+00 3.026588633656501770e-02 9.700263977050781250e+00 2.919158935546875000e+00 -1.199229598045349121e+00
2.990000000000000000e+03 3.217763137817382812e+01 -1.494343948364257812e+01 -3.393139690160751343e-02 8.365916252136230469e+00 2.499595642089843750e+00 2.078890800476074219e+00
2.991000000000000000e+03 3.252283859252929688e+01 -1.545448780059814453e+01 -1.298928856849670410e-01 8.474842071533203125e+00 2.503484725952148438e+00 1.841819167137145996e+00
2.992000000000000000e+03 3.293524169921875000e+01 -1.784637260437011719e+01 -3.531299531459808350e-01 7.816542148590087891e+00 2.239023685455322266e+00 1.427829623222351074e+00
2.993000000000000000e+03 3.607607269287109375e+01 3.019159317016601562e+00 -9.488621354103088379e-02 9.259235382080078125e+00 2.749304771423339844e+00 -3.780970871448516846e-01
2.994000000000000000e+03 3.540654754638671875e+01 -1.420682907104492188e+00 1.048334240913391113e+00 1.148560047149658203e+01 3.760180473327636719e+00 2.162499427795410156e-01
2.995000000000000000e+03 3.540541839599609375e+01 2.970827579498291016e+00 -1.384140700101852417e-01 9.164475440979003906e+00 2.707818508148193359e+00 -6.341776847839355469e-01
2.996000000000000000e+03 3.858447265625000000e+01 5.164414882659912109e+00 -1.312322765588760376e-01 8.736969947814941406e+00 2.581721305847167969e+00 1.365380734205245972e-01
2.997000000000000000e+03 3.590021133422851562e+01 -1.244069480895996094e+01 8.566145300865173340e-01 1.118914222717285156e+01 3.613726854324340820e+00 -4.515993595123291016e-01
2.998000000000000000e+03 3.435287475585937500e+01 -1.963293647766113281e+01 -5.648092031478881836e-01 7.975444316864013672e+00 2.223190546035766602e+00 9.578855633735656738e-01
2.999000000000000000e+03 3.643105316162109375e+01 4.206974983215332031e+00 -2.123485654592514038e-01 8.909392356872558594e+00 2.609112977981567383e+00 -3.616706728935241699e-01
3.000000000000000000e+03 3.806504440307617188e+01 7.601730346679687500e+00 -4.119497835636138916e-01 8.220560073852539062e+00 2.342583179473876953e+00 -1.543598771095275879e-01
3.001000000000000000e+03 3.377208328247070312e+01 -1.741504096984863281e+01 -4.201994240283966064e-01 8.377211570739746094e+00 2.387103557586669922e+00 1.205119848251342773e+00
3.002000000000000000e+03 6.180139923095703125e+01 1.433352184295654297e+01 -6.622045487165451050e-02 7.814854145050048828e+00 2.324589967727661133e+00 7.409622073173522949e-01
3.003000000000000000e+03 3.575815963745117188e+01 -2.429673767089843750e+01 -7.745432853698730469e-01 7.388646125793457031e+00 1.984230756759643555e+00 5.229544639587402344e-01
3.004000000000000000e+03 5.394716262817382812e+01 -3.103432178497314453e+00 1.218636751174926758e+00 7.586113929748535156e+00 2.641425132751464844e+00 4.165576100349426270e-01
3.005000000000000000e+03 5.889990997314453125e+01 -8.406271934509277344e+00 8.491863608360290527e-01 7.484538078308105469e+00 2.500117301940917969e+00 -6.077625602483749390e-02
3.006000000000000000e+03 5.526904296875000000e+01 -1.376244926452636719e+01 8.217933177947998047e-01 7.677165985107421875e+00 2.549687862396240234e+00 -5.112716555595397949e-01
3.007000000000000000e+03 5.667458343505859375e+01 -6.302498817443847656e+00 1.066442370414733887e+00 7.507415294647216797e+00 2.572157144546508789e+00 9.663815051317214966e-02
3.008000000000000000e+03 5.753545379638671875e+01 -4.859719753265380859e+00 9.678612947463989258e-01 7.497476577758789062e+00 2.539601325988769531e+00 2.272015064954757690e-01
3.009000000000000000e+03 3.726817321777343750e+01 9.420454025268554688e+00 -5.301199555397033691e-01 7.762616157531738281e+00 2.169749021530151367e+00 -3.645288050174713135e-01
3.010000000000000000e+03 3.854100799560546875e+01 1.244032764434814453e+01 -6.104929447174072266e-01 7.461880207061767578e+00 2.055416107177734375e+00 -1.971966624259948730e-01
3.011000000000000000e+03 5.421421813964843750e+01 -1.507969379425048828e+01 7.516553997993469238e-01 7.758598804473876953e+00 2.553076267242431641e+00 -6.121210455894470215e-01
3.012000000000000000e+03 5.465353012084960938e+01 2.254137039184570312e+00 7.578658461570739746e-01 7.701094627380371094e+00 2.537688016891479492e+00 7.580895423889160156e-01
3.013000000000000000e+03 5.591117477416992188e+01 2.086658954620361328e+00 7.252030372619628906e-01 7.660023212432861328e+00 2.515567779541015625e+00 7.184317708015441895e-01
3.014000000000000000e+03 5.743628311157226562e+01 1.225882148742675781e+01 -2.606130950152873993e-02 7.805402278900146484e+00 2.333802223205566406e+00 8.080351948738098145e-01
3.015000000000000000e+03 5.516238021850585938e+01 1.304601764678955078e+01 -1.003614738583564758e-01 7.817035675048828125e+00 2.315002202987670898e+00 7.968211174011230469e-01
3.016000000000000000e+03 3.311553192138671875e+01 -6.017989516258239746e-01 3.181591928005218506e-01 1.031672477722167969e+01 3.190465211868286133e+00 -1.836409926414489746e+00
3.017000000000000000e+03 3.419958114624023438e+01 -6.797416806221008301e-01 3.954892456531524658e-01 1.100128746032714844e+01 3.419033050537109375e+00 -9.025952816009521484e-01
3.018000000000000000e+03 3.426689529418945312e+01 -2.016267329454421997e-01 2.962070405483245850e-01 1.064553260803222656e+01 3.282521963119506836e+00 -9.021949768066406250e-01
3.019000000000000000e+03 3.929885101318359375e+01 -7.339186191558837891e+00 4.459543228149414062e+00 9.248262405395507812e+00 4.112341880798339844e+00 -3.429746329784393311e-01
3.020000000000000000e+03 3.886527252197265625e+01 -8.164232254028320312e+00 4.382040023803710938e+00 9.541635513305664062e+00 4.177102565765380859e+00 -7.859701514244079590e-01
3.021000000000000000e+03 3.258008956909179688e+01 -1.465365028381347656e+01 -4.943068698048591614e-02 8.798868179321289062e+00 2.624831199645996094e+00 1.943314552307128906e+00
3.022000000000000000e+03 3.345503234863281250e+01 -1.320906066894531250e+01 4.897334426641464233e-02 1.041402149200439453e+01 3.138898611068725586e+00 1.516856789588928223e+00
3.023000000000000000e+03 3.395116424560546875e+01 -1.359435749053955078e+01 -1.247961167246103287e-02 1.032467174530029297e+01 3.093657732009887695e+00 1.170201659202575684e+00
3.024000000000000000e+03 3.836054992675781250e+01 -4.171039581298828125e+00 3.889400243759155273e+00 9.969830513000488281e+00 4.157769203186035156e+00 1.157203078269958496e+00
3.025000000000000000e+03 3.284515380859375000e+01 -2.551594376564025879e-01 2.742316424846649170e-01 9.813613891601562500e+00 3.026353836059570312e+00 -2.019925832748413086e+00
3.026000000000000000e+03 3.329169082641601562e+01 2.048682123422622681e-01 1.585725396871566772e-01 9.928903579711914062e+00 3.026242733001708984e+00 -1.649705767631530762e+00
3.027000000000000000e+03 3.730254364013671875e+01 -2.449691772460937500e+00 2.430542230606079102e+00 1.078257465362548828e+01 3.963935136795043945e+00 1.232296705245971680e+00
3.028000000000000000e+03 3.766773605346679688e+01 -3.601709604263305664e+00 3.534185647964477539e+00 1.049849987030029297e+01 4.209805488586425781e+00 1.339464783668518066e+00
3.029000000000000000e+03 3.885670852661132812e+01 -5.886392593383789062e+00 4.623333454132080078e+00 9.459523200988769531e+00 4.224856853485107422e+00 4.099960625171661377e-01
3.030000000000000000e+03 3.843783187866210938e+01 -5.654382705688476562e+00 4.785686492919921875e+00 9.694973945617675781e+00 4.344198226928710938e+00 6.023055911064147949e-01
3.031000000000000000e+03 3.852088546752929688e+01 -5.980875968933105469e+00 4.854329586029052734e+00 9.595328330993652344e+00 4.334897518157958984e+00 3.962097465991973877e-01
3.032000000000000000e+03 3.505351257324218750e+01 -1.093433976173400879e+00 7.589738368988037109e-01 1.137243843078613281e+01 3.639423608779907227e+00 -1.392097771167755127e-01
3.033000000000000000e+03 3.697499847412109375e+01 -2.238150596618652344e+00 2.162411928176879883e+00 1.097597122192382812e+01 3.941514968872070312e+00 1.131982326507568359e+00
3.034000000000000000e+03 3.667545700073242188e+01 -1.960749149322509766e+00 1.865666866302490234e+00 1.111598968505859375e+01 3.894496917724609375e+00 9.836946129798889160e-01
3.035000000000000000e+03 3.389085006713867188e+01 -1.542553752660751343e-01 2.642197310924530029e-01 1.049246692657470703e+01 3.227005958557128906e+00 -1.188455939292907715e+00
3.036000000000000000e+03 3.517618179321289062e+01 -1.338674831390380859e+01 2.303454577922821045e-01 1.072197628021240234e+01 3.285696268081665039e+00 3.101323544979095459e-01
3.037000000000000000e+03 3.859848022460937500e+01 -6.712324619293212891e+00 4.959352016448974609e+00 9.530793190002441406e+00 4.347043514251708984e+00 -2.924690023064613342e-02
3.038000000000000000e+03 3.662372207641601562e+01 -1.243867778778076172e+01 1.096117854118347168e+00 1.091119480133056641e+01 3.602193593978881836e+00 -7.374339103698730469e-01
3.039000000000000000e+03 3.482540130615234375e+01 -1.343259239196777344e+01 1.393724828958511353e-01 1.070775985717773438e+01 3.254139661788940430e+00 5.270398855209350586e-01
3.040000000000000000e+03 3.436868667602539062e+01 -1.504489898681640625e+01 -1.902839839458465576e-01 9.595903396606445312e+00 2.821685791015625000e+00 9.771853685379028320e-01
3.041000000000000000e+03 3.968584823608398438e+01 -1.032044792175292969e+01 2.955058813095092773e+00 9.509846687316894531e+00 3.739471673965454102e+00 -1.205345511436462402e+00
3.042000000000000000e+03 3.670978164672851562e+01 -2.631869077682495117e+00 2.459072113037109375e+00 1.123771286010742188e+01 4.109035491943359375e+00 1.209638953208923340e+00
3.043000000000000000e+03 3.332229614257812500e+01 7.146257758140563965e-01 9.325381368398666382e-02 9.561292648315429688e+00 2.896363973617553711e+00 -1.576337218284606934e+00
3.044000000000000000e+03 3.799519348144531250e+01 -1.097357654571533203e+01 2.455189704895019531e+00 1.043605422973632812e+01 3.867373228073120117e+00 -1.324886322021484375e+00
3.045000000000000000e+03 3.811223983764648438e+01 -1.174461269378662109e+01 1.945839285850524902e+00 1.033164310455322266e+01 3.683244705200195312e+00 -1.227918505668640137e+00
3.046000000000000000e+03 3.408733367919921875e+01 -1.624873161315917969e+01 -3.111295104026794434e-01 8.949842453002929688e+00 2.591613769531250000e+00 1.085344195365905762e+00
3.047000000000000000e+03 3.756955337524414062e+01 -1.195824050903320312e+01 1.668685555458068848e+00 1.063046264648437500e+01 3.689744472503662109e+00 -1.123518824577331543e+00
3.048000000000000000e+03 3.441124343872070312e+01 -1.805126380920410156e+01 -4.806807339191436768e-01 8.477783203125000000e+00 2.399130821228027344e+00 9.674173593521118164e-01
3.049000000000000000e+03 3.572510910034179688e+01 9.857364296913146973e-01 2.371362000703811646e-01 1.007203865051269531e+01 3.092752456665039062e+00 -2.499099075794219971e-01
3.050000000000000000e+03 3.530369186401367188e+01 2.176513195037841797e+00 -5.455910414457321167e-02 9.480015754699707031e+00 2.827636957168579102e+00 -6.048200726509094238e-01
3.051000000000000000e+03 3.674470901489257812e+01 -1.237742781639099121e+00 1.413096189498901367e+00 1.084954261779785156e+01 3.678791522979736328e+00 7.763321995735168457e-01
3.052000000000000000e+03 3.813233566284179688e+01 6.039282798767089844e+00 -2.782970666885375977e-01 8.573523521423339844e+00 2.488567829132080078e+00 -3.195857256650924683e-02
3.053000000000000000e+03 5.106938171386718750e+01 -1.153934383392333984e+01 1.323737382888793945e+00 7.766242027282714844e+00 2.726993799209594727e+00 -4.981112182140350342e-01
3.054000000000000000e+03 3.530127334594726562e+01 -1.884677314758300781e+01 -5.147182345390319824e-01 8.394060134887695312e+00 2.363802671432495117e+00 7.150414586067199707e-01
3.055000000000000000e+03 3.785443878173828125e+01 3.720785140991210938e+00 8.457552641630172729e-03 9.111686706542968750e+00 2.736043453216552734e+00 1.101403757929801941e-01
3.056000000000000000e+03 3.905482482910156250e+01 6.815982818603515625e+00 -2.857466340065002441e-01 8.434700965881347656e+00 2.444686412811279297e+00 9.149738401174545288e-02
3.057000000000000000e+03 3.615368652343750000e+01 -2.008256721496582031e+01 -5.937933921813964844e-01 8.262082099914550781e+00 2.300486564636230469e+00 4.793207049369812012e-01
3.058000000000000000e+03 5.447949981689453125e+01 6.945584416389465332e-01 9.199828505516052246e-01 7.662989139556884766e+00 2.574891567230224609e+00 6.791575551033020020e-01
3.059000000000000000e+03 5.466249847412109375e+01 1.054818916320800781e+01 4.973451420664787292e-02 7.833723545074462891e+00 2.365037441253662109e+00 8.416336774826049805e-01
3.060000000000000000e+03 6.198958969116210938e+01 -9.077617645263671875e+00 6.208166480064392090e-01 7.450409412384033203e+00 2.421367883682250977e+00 -8.398696780204772949e-02
3.061000000000000000e+03 3.453729248046875000e+01 -2.691629409790039062e+01 -8.121973276138305664e-01 6.792904853820800781e+00 1.794212222099304199e+00 5.971871018409729004e-01
3.062000000000000000e+03 5.561842727661132812e+01 -5.423328876495361328e+00 1.136478543281555176e+00 7.524941921234130859e+00 2.598426103591918945e+00 1.624041646718978882e-01
3.063000000000000000e+03 5.394322204589843750e+01 -7.557678222656250000e-01 1.072567105293273926e+00 7.638254165649414062e+00 2.613246440887451172e+00 5.986359119415283203e-01
3.064000000000000000e+03 5.625460815429687500e+01 -1.241825485229492188e+01 8.652256727218627930e-01 7.608117580413818359e+00 2.542002916336059570e+00 -3.974822461605072021e-01
3.065000000000000000e+03 5.805699539184570312e+01 -9.722439765930175781e+00 8.761793971061706543e-01 7.512785911560058594e+00 2.516689538955688477e+00 -1.708122342824935913e-01
3.066000000000000000e+03 4.089502334594726562e+01 1.031969738006591797e+01 -4.389652609825134277e-01 7.983098983764648438e+00 2.263240098953247070e+00 1.857200115919113159e-01
3.067000000000000000e+03 5.201868057250976562e+01 -1.502429199218750000e+01 8.525767922401428223e-01 7.856997489929199219e+00 2.612872362136840820e+00 -6.911666393280029297e-01
3.068000000000000000e+03 5.085284042358398438e+01 -1.613249969482421875e+01 7.408643960952758789e-01 7.966906547546386719e+00 2.612331151962280273e+00 -7.754687070846557617e-01
3.069000000000000000e+03 5.509668731689453125e+01 -1.131303310394287109e+01 1.019603848457336426e+00 7.608950614929199219e+00 2.588566541671752930e+00 -3.514366149902343750e-01
3.070000000000000000e+03 5.247219467163085938e+01 5.383585453033447266e+00 4.998489320278167725e-01 7.848256111145019531e+00 2.504431486129760742e+00 8.818071484565734863e-01
3.071000000000000000e+03 5.119850540161132812e+01 6.907328605651855469e+00 3.435811996459960938e-01 7.919605731964111328e+00 2.478956222534179688e+00 9.002533555030822754e-01
3.072000000000000000e+03 3.309895706176757812e+01 -6.818727403879165649e-02 2.394412159919738770e-01 9.912132263183593750e+00 3.045472145080566406e+00 -1.810494542121887207e+00
3.073000000000000000e+03 3.886071395874023438e+01 -5.252175331115722656e+00 4.408130168914794922e+00 9.533109664916992188e+00 4.182372093200683594e+00 7.315948009490966797e-01
3.074000000000000000e+03 3.597948455810546875e+01 -1.304898357391357422e+01 6.054654717445373535e-01 1.086684894561767578e+01 3.441694498062133789e+00 -2.933710217475891113e-01
3.075000000000000000e+03 3.322436523437500000e+01 -1.424734020233154297e+01 -5.683181434869766235e-02 9.490199089050292969e+00 2.830010175704956055e+00 1.602751612663269043e+00
3.076000000000000000e+03 3.358578872680664062e+01 -1.404450130462646484e+01 -7.247618585824966431e-02 9.884223937988281250e+00 2.943524360656738281e+00 1.425784945487976074e+00
3.077000000000000000e+03 3.611484527587890625e+01 -4.510708749294281006e-01 8.139414787292480469e-01 1.075548934936523438e+01 3.470829248428344727e+00 2.942325174808502197e-01
3.078000000000000000e+03 3.606616973876953125e+01 -1.302589416503906250e+00 1.222272753715515137e+00 1.117735099792480469e+01 3.719887018203735352e+00 5.326007008552551270e-01
3.079000000000000000e+03 3.508841323852539062e+01 1.352294445037841797e+00 5.719229578971862793e-02 9.858164787292480469e+00 2.974607229232788086e+00 -6.336359381675720215e-01
3.080000000000000000e+03 3.428767776489257812e+01 6.581466197967529297e-01 1.142394319176673889e-01 1.003675174713134766e+01 3.045297384262084961e+00 -9.949095845222473145e-01
3.081000000000000000e+03 3.711912536621093750e+01 1.688496947288513184e+00 2.964107096195220947e-01 9.720684051513671875e+00 3.005128383636474609e+00 1.928186863660812378e-01
3.082000000000000000e+03 3.577063751220703125e+01 -1.335626697540283203e+01 4.222605526447296143e-01 1.067253589630126953e+01 3.328438997268676758e+00 -6.490483134984970093e-02
3.083000000000000000e+03 3.786845397949218750e+01 -2.169066429138183594e+00 2.310954332351684570e+00 1.044772434234619141e+01 3.827603578567504883e+00 1.219750881195068359e+00
3.084000000000000000e+03 3.808613967895507812e+01 -3.696734905242919922e+00 3.591809034347534180e+00 1.019462585449218750e+01 4.135930538177490234e+00 1.269535303115844727e+00
3.085000000000000000e+03 4.040151977539062500e+01 -9.181610107421875000e+00 3.415752410888671875e+00 9.064965248107910156e+00 3.744215250015258789e+00 -8.927698135375976562e-01
3.086000000000000000e+03 4.050222778320312500e+01 -8.620777130126953125e+00 3.620264530181884766e+00 8.981326103210449219e+00 3.780477285385131836e+00 -7.398712038993835449e-01
3.087000000000000000e+03 3.459881210327148438e+01 5.127984657883644104e-02 2.652932703495025635e-01 1.058982563018798828e+01 3.256535530090332031e+00 -7.428271770477294922e-01
3.088000000000000000e+03 3.397226715087890625e+01 1.918529719114303589e-01 1.972933262586593628e-01 1.018709278106689453e+01 3.115315914154052734e+00 -1.133999586105346680e+00
3.089000000000000000e+03 3.882113647460937500e+01 -4.890941619873046875e+00 4.225604534149169922e+00 9.604292869567871094e+00 4.148969173431396484e+00 8.705265522003173828e-01
3.090000000000000000e+03 3.958341217041015625e+01 -7.049886226654052734e+00 4.365597248077392578e+00 9.131809234619140625e+00 4.049221992492675781e+00 -1.809903681278228760e-01
3.091000000000000000e+03 3.884375762939453125e+01 -6.486732482910156250e+00 4.841507434844970703e+00 9.427578926086425781e+00 4.280725955963134766e+00 1.142030358314514160e-01
3.092000000000000000e+03 3.954316711425781250e+01 -8.098783493041992188e+00 4.167365550994873047e+00 9.241540908813476562e+00 4.022672176361083984e+00 -6.684197783470153809e-01
3.093000000000000000e+03 3.985463714599609375e+01 -7.834043979644775391e+00 4.097945690155029297e+00 9.109427452087402344e+00 3.962211847305297852e+00 -5.265244245529174805e-01
3.094000000000000000e+03 3.737689971923828125e+01 -1.278494167327880859e+01 1.131360411643981934e+00 1.053710937500000000e+01 3.500540971755981445e+00 -8.642981648445129395e-01
3.095000000000000000e+03 3.864563751220703125e+01 -1.091104507446289062e+01 2.541445970535278320e+00 1.001908493041992188e+01 3.768159151077270508e+00 -1.299388647079467773e+00
3.096000000000000000e+03 3.909433746337890625e+01 -1.038786792755126953e+01 2.951456546783447266e+00 9.763822555541992188e+00 3.814583778381347656e+00 -1.269231915473937988e+00
3.097000000000000000e+03 3.308023071289062500e+01 -1.471112728118896484e+01 -1.192697212100028992e-01 9.120793342590332031e+00 2.700457096099853516e+00 1.707158207893371582e+00
3.098000000000000000e+03 3.616140747070312500e+01 2.250516653060913086e+00 4.355009645223617554e-02 9.564103126525878906e+00 2.882295846939086914e+00 -2.481094747781753540e-01
3.099000000000000000e+03 3.692964553833007812e+01 -1.295910263061523438e+01 9.314087629318237305e-01 1.063147354125976562e+01 3.468864679336547852e+00 -7.000207901000976562e-01
3.100000000000000000e+03 3.707572555541992188e+01 2.504221439361572266e+00 1.296452432870864868e-01 9.510926246643066406e+00 2.892171382904052734e+00 6.038626283407211304e-02
3.101000000000000000e+03 3.658822631835937500e+01 -1.323177623748779297e+01 6.868041753768920898e-01 1.060195827484130859e+01 3.386628627777099609e+00 -4.785473048686981201e-01
3.102000000000000000e+03 5.198263168334960938e+01 -1.040536117553710938e+01 1.354622006416320801e+00 7.684352874755859375e+00 2.711692571640014648e+00 -3.704224228858947754e-01
3.103000000000000000e+03 3.900837707519531250e+01 4.167531967163085938e+00 5.738092958927154541e-02 8.936810493469238281e+00 2.698257207870483398e+00 3.145987987518310547e-01
3.104000000000000000e+03 3.974471282958984375e+01 5.823955059051513672e+00 -1.108367368578910828e-01 8.608333587646484375e+00 2.549248933792114258e+00 2.954313755035400391e-01
3.105000000000000000e+03 3.709004211425781250e+01 -2.159781265258789062e+01 -6.685853600502014160e-01 8.110129356384277344e+00 2.232463359832763672e+00 3.016472160816192627e-01
3.106000000000000000e+03 3.727894592285156250e+01 -1.915544128417968750e+01 -4.763148427009582520e-01 8.651980400085449219e+00 2.452699661254882812e+00 1.658921688795089722e-01
3.107000000000000000e+03 3.735192489624023438e+01 -1.706194686889648438e+01 -1.925487369298934937e-01 9.241804122924804688e+00 2.714776515960693359e+00 -3.337079659104347229e-02
3.108000000000000000e+03 3.457281494140625000e+01 -1.716596794128417969e+01 -4.076253473758697510e-01 8.762732505798339844e+00 2.506532192230224609e+00 9.170503616333007812e-01
3.109000000000000000e+03 5.051947021484375000e+01 1.144920825958251953e+01 -8.399975299835205078e-02 7.896975040435791016e+00 2.343892574310302734e+00 7.904703021049499512e-01
3.110000000000000000e+03 3.851250076293945312e+01 -2.310620307922363281e+01 -7.136932015419006348e-01 8.055334091186523438e+00 2.202492475509643555e+00 1.003347486257553101e-01
3.111000000000000000e+03 4.101890945434570312e+01 6.608937740325927734e+00 -1.022936925292015076e-01 8.472864151000976562e+00 2.511171102523803711e+00 4.404776692390441895e-01
3.112000000000000000e+03 4.514296340942382812e+01 1.099779701232910156e+01 -2.802704870700836182e-01 7.969569206237792969e+00 2.306789636611938477e+00 5.789944529533386230e-01
3.113000000000000000e+03 5.011341857910156250e+01 -1.257326030731201172e+01 1.301650404930114746e+00 7.855747699737548828e+00 2.747219562530517578e+00 -6.240290999412536621e-01
3.114000000000000000e+03 5.304299163818359375e+01 -1.147623348236083984e+01 1.167568325996398926e+00 7.678958892822265625e+00 2.653958082199096680e+00 -4.249033629894256592e-01
3.115000000000000000e+03 6.143888854980468750e+01 -4.979128837585449219e+00 6.874299049377441406e-01 7.447704315185546875e+00 2.440540313720703125e+00 1.872029155492782593e-01
3.116000000000000000e+03 5.343597793579101562e+01 1.070790529251098633e+00 9.385861158370971680e-01 7.706667423248291016e+00 2.593575954437255859e+00 7.251217365264892578e-01
3.117000000000000000e+03 5.469951629638671875e+01 -6.653159618377685547e+00 1.227768898010253906e+00 7.538820743560791016e+00 2.629976987838745117e+00 6.322546303272247314e-02
3.118000000000000000e+03 5.224042510986328125e+01 -1.114143252372741699e+00 1.214598894119262695e+00 7.685611724853515625e+00 2.670063257217407227e+00 6.353532075881958008e-01
3.119000000000000000e+03 5.718140792846679688e+01 -1.106974506378173828e+01 8.818203806877136230e-01 7.555354595184326172e+00 2.531152486801147461e+00 -2.834175825119018555e-01
3.120000000000000000e+03 5.690005874633789062e+01 -8.674565315246582031e+00 1.001514673233032227e+00 7.520061016082763672e+00 2.556472778320312500e+00 -1.037971302866935730e-01
3.121000000000000000e+03 5.578208160400390625e+01 -7.652987480163574219e+00 1.118958115577697754e+00 7.526266098022460938e+00 2.593567371368408203e+00 -2.893276698887348175e-02
3.122000000000000000e+03 3.627755737304687500e+01 -2.603204917907714844e+01 -8.357749581336975098e-01 7.231715202331542969e+00 1.918781995773315430e+00 4.292390644550323486e-01
3.123000000000000000e+03 3.208213424682617188e+01 -2.540482711791992188e+01 -6.395546197891235352e-01 6.161571502685546875e+00 1.656605124473571777e+00 9.356545209884643555e-01
3.124000000000000000e+03 4.160721588134765625e+01 5.375069141387939453e+00 1.269237101078033447e-01 8.592117309570312500e+00 2.615712165832519531e+00 6.156154870986938477e-01
3.125000000000000000e+03 4.940509796142578125e+01 7.962003707885742188e+00 1.690974533557891846e-01 7.996402263641357422e+00 2.449649810791015625e+00 8.682343363761901855e-01
3.126000000000000000e+03 3.466664505004882812e+01 -8.121319413185119629e-01 5.341356992721557617e-01 1.118805313110351562e+01 3.516656637191772461e+00 -5.207375288009643555e-01
3.127000000000000000e+03 3.930548095703125000e+01 -5.647477626800537109e+00 4.334175586700439453e+00 9.279294967651367188e+00 4.084041118621826172e+00 4.937289953231811523e-01
3.128000000000000000e+03 3.948181915283203125e+01 -6.366925716400146484e+00 4.454174518585205078e+00 9.170943260192871094e+00 4.087535381317138672e+00 1.507743895053863525e-01
3.129000000000000000e+03 3.573049926757812500e+01 -9.428654313087463379e-01 9.227145910263061523e-01 1.110665893554687500e+01 3.608812093734741211e+00 2.308019697666168213e-01
3.130000000000000000e+03 3.893550491333007812e+01 -6.109456539154052734e+00 4.703100681304931641e+00 9.400377273559570312e+00 4.231043338775634766e+00 2.944727540016174316e-01
3.131000000000000000e+03 3.993280792236328125e+01 -7.250670909881591797e+00 4.180184364318847656e+00 9.026185035705566406e+00 3.961910724639892578e+00 -2.639183700084686279e-01
3.132000000000000000e+03 3.637792968750000000e+01 -1.644555449485778809e+00 1.542350888252258301e+00 1.117684268951416016e+01 3.815757989883422852e+00 7.830173373222351074e-01
3.133000000000000000e+03 3.723928833007812500e+01 -1.895216703414916992e+00 1.970638632774353027e+00 1.075920391082763672e+01 3.818952798843383789e+00 1.076603651046752930e+00
3.134000000000000000e+03 3.767250061035156250e+01 -2.599971055984497070e+00 2.618675231933593750e+00 1.056164264678955078e+01 3.954095363616943359e+00 1.270631670951843262e+00
3.135000000000000000e+03 3.785927963256835938e+01 -3.163453102111816406e+00 3.131508350372314453e+00 1.042484283447265625e+01 4.066905498504638672e+00 1.325523018836975098e+00
3.136000000000000000e+03 3.701041412353515625e+01 -1.591658234596252441e+00 1.708861827850341797e+00 1.083424091339111328e+01 3.762930631637573242e+00 9.689172506332397461e-01
3.137000000000000000e+03 3.555889892578125000e+01 -1.376977539062500000e+01 2.018879503011703491e-01 1.050793266296386719e+01 3.212946176528930664e+00 1.779297888278961182e-01
3.138000000000000000e+03 3.938699722290039062e+01 -5.248158454895019531e+00 4.166779041290283203e+00 9.288777351379394531e+00 4.036666870117187500e+00 6.514707207679748535e-01
3.139000000000000000e+03 4.035345077514648438e+01 -9.756064414978027344e+00 3.155034542083740234e+00 9.147568702697753906e+00 3.690780878067016602e+00 -1.029934406280517578e+00
3.140000000000000000e+03 3.799934387207031250e+01 -1.704524517059326172e+00 1.998734712600708008e+00 1.033656120300292969e+01 3.700588703155517578e+00 1.141445994377136230e+00
3.141000000000000000e+03 3.626554870605468750e+01 -1.274577999114990234e+01 8.194217681884765625e-01 1.092362022399902344e+01 3.522912502288818359e+00 -4.837584495544433594e-01
3.142000000000000000e+03 3.788293075561523438e+01 -1.256936550140380859e+01 1.374457836151123047e+00 1.037608051300048828e+01 3.525161504745483398e+00 -1.022295355796813965e+00
3.143000000000000000e+03 4.033644866943359375e+01 -1.083921909332275391e+01 2.599870681762695312e+00 9.306267738342285156e+00 3.571841478347778320e+00 -1.176292896270751953e+00
3.144000000000000000e+03 3.413029479980468750e+01 -1.446293258666992188e+01 -1.276305317878723145e-01 9.842164039611816406e+00 2.914360046386718750e+00 1.104017376899719238e+00
3.145000000000000000e+03 3.483785247802734375e+01 -1.583798122406005859e+01 -2.547882199287414551e-01 9.401871681213378906e+00 2.744125127792358398e+00 7.921600341796875000e-01
3.146000000000000000e+03 3.842419052124023438e+01 -1.232169055938720703e+01 1.651062726974487305e+00 1.016639995574951172e+01 3.545238971710205078e+00 -1.146203637123107910e+00
3.147000000000000000e+03 3.550421905517578125e+01 -1.683335685729980469e+01 -3.463404774665832520e-01 9.095788955688476562e+00 2.624834537506103516e+00 5.763558745384216309e-01
3.148000000000000000e+03 3.631240081787109375e+01 -1.796137237548828125e+01 -4.154897332191467285e-01 8.870553970336914062e+00 2.536519289016723633e+00 3.865097761154174805e-01
3.149000000000000000e+03 3.634770584106445312e+01 1.526341438293457031e+00 1.857037991285324097e-01 9.838694572448730469e+00 3.007319450378417969e+00 -9.021852910518646240e-02
3.150000000000000000e+03 3.495972824096679688e+01 -2.495072931051254272e-01 4.139614403247833252e-01 1.080012798309326172e+01 3.364226818084716797e+00 -4.517694711685180664e-01
3.151000000000000000e+03 3.573767852783203125e+01 -4.720798507332801819e-02 5.493267178535461426e-01 1.059728050231933594e+01 3.343982219696044922e+00 -1.907533779740333557e-02
3.152000000000000000e+03 3.677433013916015625e+01 1.030332803726196289e+00 4.486713111400604248e-01 1.000636005401611328e+01 3.136509418487548828e+00 2.004657983779907227e-01
3.153000000000000000e+03 3.813729858398437500e+01 2.706997632980346680e+00 2.450322210788726807e-01 9.348822593688964844e+00 2.878156423568725586e+00 3.210732638835906982e-01
3.154000000000000000e+03 3.597184753417968750e+01 -1.473114681243896484e+01 4.081108048558235168e-02 1.002605628967285156e+01 3.020060300827026367e+00 1.505470871925354004e-01
3.155000000000000000e+03 3.701795578002929688e+01 -1.350533962249755859e+01 6.805745959281921387e-01 1.042650508880615234e+01 3.332123756408691406e+00 -5.722005367279052734e-01
3.156000000000000000e+03 3.937472534179687500e+01 3.088798046112060547e+00 3.320218622684478760e-01 9.143837928771972656e+00 2.842757940292358398e+00 5.331004261970520020e-01
3.157000000000000000e+03 4.067549133300781250e+01 3.646677017211914062e+00 3.648580908775329590e-01 8.883395195007324219e+00 2.774476051330566406e+00 6.753008365631103516e-01
3.158000000000000000e+03 3.970983886718750000e+01 -2.160828781127929688e+01 -5.576131343841552734e-01 8.411137580871582031e+00 2.356057405471801758e+00 -1.488647907972335815e-01
3.159000000000000000e+03 4.165842056274414062e+01 8.867942810058593750e+00 -3.009821474552154541e-01 8.173077583312988281e+00 2.361628532409667969e+00 3.492405116558074951e-01
3.160000000000000000e+03 5.397717285156250000e+01 -1.023713302612304688e+01 1.182287216186523438e+00 7.610657215118408203e+00 2.637883424758911133e+00 -2.953334748744964600e-01
3.161000000000000000e+03 5.601447296142578125e+01 -1.000215244293212891e+01 1.022585988044738770e+00 7.555555343627929688e+00 2.573442459106445312e+00 -2.274977117776870728e-01
3.162000000000000000e+03 5.288283920288085938e+01 -9.192214012145996094e+00 1.349650263786315918e+00 7.616980552673339844e+00 2.689989328384399414e+00 -2.198098003864288330e-01
3.163000000000000000e+03 4.135842132568359375e+01 -2.269042778015136719e+01 -5.550073981285095215e-01 8.322496414184570312e+00 2.330246686935424805e+00 -3.020026385784149170e-01
3.164000000000000000e+03 4.340353012084960938e+01 9.837371826171875000e+00 -2.661632895469665527e-01 8.063142776489257812e+00 2.339093923568725586e+00 4.888847768306732178e-01
3.165000000000000000e+03 4.118961334228515625e+01 1.259137058258056641e+01 -5.582349300384521484e-01 7.687547206878662109e+00 2.138793706893920898e+00 1.049562767148017883e-01
3.166000000000000000e+03 5.482558822631835938e+01 -4.356804370880126953e+00 1.182342886924743652e+00 7.550238132476806641e+00 2.619774341583251953e+00 2.904434502124786377e-01
3.167000000000000000e+03 5.367612838745117188e+01 -5.602572441101074219e+00 1.329107165336608887e+00 7.565606594085693359e+00 2.668414115905761719e+00 1.710294038057327271e-01
3.168000000000000000e+03 5.289453506469726562e+01 -3.891701996326446533e-02 1.078496098518371582e+00 7.696949958801269531e+00 2.632633924484252930e+00 6.812377572059631348e-01
3.169000000000000000e+03 4.252124786376953125e+01 7.415824890136718750e+00 -8.913576602935791016e-02 8.333924293518066406e+00 2.473436594009399414e+00 5.518178939819335938e-01
3.170000000000000000e+03 5.969707489013671875e+01 -3.057750463485717773e+00 7.604649662971496582e-01 7.489377021789550781e+00 2.474952459335327148e+00 3.339377045631408691e-01
3.171000000000000000e+03 5.378287887573242188e+01 -7.930341243743896484e+00 1.306681156158447266e+00 7.569894790649414062e+00 2.662972688674926758e+00 -7.591487467288970947e-02
3.172000000000000000e+03 5.289687728881835938e+01 1.335369873046875000e+01 -1.652580052614212036e-01 7.831047058105468750e+00 2.299736738204956055e+00 7.748243212699890137e-01
3.173000000000000000e+03 3.536376190185546875e+01 -5.821151733398437500e-01 6.517230868339538574e-01 1.098436260223388672e+01 3.490825891494750977e+00 -9.514130651950836182e-02
3.174000000000000000e+03 3.357302474975585938e+01 -5.679393187165260315e-03 2.062845528125762939e-01 1.021202373504638672e+01 3.125492572784423828e+00 -1.475846886634826660e+00
3.175000000000000000e+03 3.351686477661132812e+01 -1.362186717987060547e+01 -3.356944397091865540e-02 1.007958698272705078e+01 3.013805150985717773e+00 1.451030373573303223e+00
3.176000000000000000e+03 3.445098495483398438e+01 -1.422580623626708984e+01 -5.738906562328338623e-02 1.008106327056884766e+01 3.007102251052856445e+00 9.031887650489807129e-01
3.177000000000000000e+03 3.644670486450195312e+01 -8.537356853485107422e-01 1.095671057701110840e+00 1.083821582794189453e+01 3.580166101455688477e+00 5.439689159393310547e-01
3.178000000000000000e+03 3.925680923461914062e+01 -6.493407726287841797e+00 4.606819152832031250e+00 9.263093948364257812e+00 4.160974025726318359e+00 9.635631740093231201e-02
3.179000000000000000e+03 4.031718444824218750e+01 -7.553519725799560547e+00 3.991369009017944336e+00 8.926540374755859375e+00 3.875372886657714844e+00 -3.713293373584747314e-01
3.180000000000000000e+03 3.766725921630859375e+01 -5.306292176246643066e-01 1.260709643363952637e+00 1.032438468933105469e+01 3.475528240203857422e+00 8.421114683151245117e-01
3.181000000000000000e+03 3.979954910278320312e+01 -6.300238609313964844e+00 4.289770126342773438e+00 9.057668685913085938e+00 4.004231452941894531e+00 1.569446921348571777e-01
3.182000000000000000e+03 3.742599105834960938e+01 -3.348149359226226807e-02 9.888670444488525391e-01 1.025736522674560547e+01 3.373869657516479492e+00 6.737318634986877441e-01
3.183000000000000000e+03 3.469246673583984375e+01 -1.383977985382080078e+01 1.448635105043649673e-02 1.041059684753417969e+01 3.127524852752685547e+00 7.101346254348754883e-01
3.184000000000000000e+03 3.866078567504882812e+01 -3.423082351684570312e+00 3.329050540924072266e+00 9.892200469970703125e+00 3.966375350952148438e+00 1.213028311729431152e+00
3.185000000000000000e+03 3.827602767944335938e+01 -3.285300016403198242e+00 3.232269287109375000e+00 1.013081741333007812e+01 4.008925914764404297e+00 1.272603869438171387e+00
3.186000000000000000e+03 3.934857559204101562e+01 -4.799776077270507812e+00 3.976350307464599609e+00 9.364710807800292969e+00 4.002318382263183594e+00 8.291686177253723145e-01
3.187000000000000000e+03 3.851179885864257812e+01 -2.867641925811767578e+00 2.907745122909545898e+00 1.003623962402343750e+01 3.883195400238037109e+00 1.256256341934204102e+00
3.188000000000000000e+03 3.876210021972656250e+01 -2.410882472991943359e+00 2.557504653930664062e+00 9.925883293151855469e+00 3.745016336441040039e+00 1.217898249626159668e+00
3.189000000000000000e+03 4.020463562011718750e+01 -6.794283866882324219e+00 4.123357295989990234e+00 8.931020736694335938e+00 3.916313409805297852e+00 -6.034999340772628784e-02
3.190000000000000000e+03 3.978178024291992188e+01 -1.094309329986572266e+01 2.563283681869506836e+00 9.523608207702636719e+00 3.626067638397216797e+00 -1.218377828598022461e+00
3.191000000000000000e+03 4.102515029907226562e+01 -9.730350494384765625e+00 3.050876379013061523e+00 8.945940017700195312e+00 3.599044799804687500e+00 -9.600256085395812988e-01
3.192000000000000000e+03 3.964549636840820312e+01 -5.901260375976562500e+00 4.260022163391113281e+00 9.136476516723632812e+00 4.018949508666992188e+00 3.562459349632263184e-01
3.193000000000000000e+03 3.872583770751953125e+01 -1.286358356475830078e+01 1.349386215209960938e+00 9.937026023864746094e+00 3.385923624038696289e+00 -1.048519492149353027e+00
3.194000000000000000e+03 3.620706558227539062e+01 -1.345789241790771484e+01 5.096945762634277344e-01 1.061277103424072266e+01 3.336739540100097656e+00 -2.775128483772277832e-01
3.195000000000000000e+03 3.842656326293945312e+01 -1.623441886901855469e+01 9.931344538927078247e-02 9.419679641723632812e+00 2.855697870254516602e+00 -4.112236499786376953e-01
3.196000000000000000e+03 3.530794525146484375e+01 3.356466591358184814e-01 3.357799947261810303e-01 1.040490913391113281e+01 3.222206830978393555e+00 -3.601976633071899414e-01
3.197000000000000000e+03 3.918014144897460938e+01 -1.165289688110351562e+01 2.097293853759765625e+00 9.816987037658691406e+00 3.574284315109252930e+00 -1.237659931182861328e+00
3.198000000000000000e+03 3.918432617187500000e+01 -1.097983169555664062e+01 2.543240070343017578e+00 9.785083770751953125e+00 3.698497056961059570e+00 -1.273941159248352051e+00
3.199000000000000000e+03 3.993186569213867188e+01 -1.162808036804199219e+01 2.135297536849975586e+00 9.506646156311035156e+00 3.492583036422729492e+00 -1.203181385993957520e+00
3.200000000000000000e+03 3.619459152221679688e+01 4.977793097496032715e-01 4.889600574970245361e-01 1.031559371948242188e+01 3.241366386413574219e+00 8.974885940551757812e-02
3.201000000000000000e+03 3.527000045776367188e+01 -1.425198078155517578e+01 3.165179863572120667e-02 1.025302982330322266e+01 3.085404634475708008e+00 4.137155413627624512e-01
3.202000000000000000e+03 3.639974975585937500e+01 -1.610379791259765625e+01 -1.531560271978378296e-01 9.508690834045410156e+00 2.806660413742065430e+00 1.496086865663528442e-01
3.203000000000000000e+03 3.805896759033203125e+01 1.670922040939331055e+00 4.838770329952239990e-01 9.620384216308593750e+00 3.031278371810913086e+00 4.675530493259429932e-01
3.204000000000000000e+03 3.985563278198242188e+01 2.059881925582885742e+00 6.520139575004577637e-01 9.238060951232910156e+00 2.967022418975830078e+00 7.433419227600097656e-01
3.205000000000000000e+03 4.021717071533203125e+01 -1.813121795654296875e+01 -6.148684397339820862e-02 8.925906181335449219e+00 2.659325838088989258e+00 -5.105362534523010254e-01
3.206000000000000000e+03 3.829595565795898438e+01 -1.817447662353515625e+01 -2.690686583518981934e-01 8.964434623718261719e+00 2.608609914779663086e+00 -1.606619805097579956e-01
3.207000000000000000e+03 5.259529495239257812e+01 1.752781152725219727e+00 9.122185707092285156e-01 7.761028766632080078e+00 2.601974248886108398e+00 7.910728454589843750e-01
3.208000000000000000e+03 5.138510894775390625e+01 -3.671629428863525391e+00 1.500498056411743164e+00 7.655232429504394531e+00 2.746719121932983398e+00 4.095662832260131836e-01
3.209000000000000000e+03 3.620155334472656250e+01 -1.405110931396484375e+01 2.913821041584014893e-01 1.031528568267822266e+01 3.182000398635864258e+00 -1.151407957077026367e-01
3.210000000000000000e+03 3.688502883911132812e+01 -1.516691017150878906e+01 1.054960042238235474e-01 9.826497077941894531e+00 2.979597806930541992e+00 -1.531653702259063721e-01
3.211000000000000000e+03 4.904014968872070312e+01 -9.642002105712890625e+00 1.769953131675720215e+00 7.800413608551025391e+00 2.871109962463378906e+00 -3.913576304912567139e-01
3.212000000000000000e+03 4.927520751953125000e+01 -1.152347183227539062e+01 1.481963992118835449e+00 7.864103794097900391e+00 2.803820371627807617e+00 -5.668849945068359375e-01
3.213000000000000000e+03 5.179972457885742188e+01 -8.191043853759765625e+00 1.521115422248840332e+00 7.632112979888916016e+00 2.745968580245971680e+00 -1.329668909311294556e-01
3.214000000000000000e+03 5.263921737670898438e+01 -4.523693084716796875e+00 1.418200254440307617e+00 7.600527763366699219e+00 2.705618381500244141e+00 2.961809039115905762e-01
3.215000000000000000e+03 3.909451675415039062e+01 1.425006961822509766e+01 -6.538242697715759277e-01 7.309749603271484375e+00 1.996777534484863281e+00 -1.474108844995498657e-01
3.216000000000000000e+03 5.018376541137695312e+01 9.482816696166992188e+00 3.896233066916465759e-02 7.926970958709716797e+00 2.389780044555664062e+00 8.257511258125305176e-01
3.217000000000000000e+03 5.083653259277343750e+01 1.364587593078613281e+01 -2.551783621311187744e-01 7.847724437713623047e+00 2.277763843536376953e+00 7.253316640853881836e-01
3.218000000000000000e+03 4.844712829589843750e+01 1.177391338348388672e+01 -2.035499215126037598e-01 7.930766105651855469e+00 2.318164825439453125e+00 7.179667353630065918e-01
3.219000000000000000e+03 4.234378814697265625e+01 1.130069732666015625e+01 -4.428600370883941650e-01 7.924364089965820312e+00 2.244451284408569336e+00 3.018648624420166016e-01
3.220000000000000000e+03 3.559159851074218750e+01 -2.919522476196289062e+01 -8.785735368728637695e-01 6.787153244018554688e+00 1.772573947906494141e+00 4.283001422882080078e-01
3.221000000000000000e+03 4.072351837158203125e+01 -2.773432922363281250e+01 -8.782321214675903320e-01 7.774643898010253906e+00 2.068923711776733398e+00 -4.265447333455085754e-02
3.222000000000000000e+03 5.914983367919921875e+01 1.778331375122070312e+01 -2.135415226221084595e-01 7.832626819610595703e+00 2.285725593566894531e+00 7.046346664428710938e-01
3.223000000000000000e+03 2.905367088317871094e+01 -2.644565391540527344e+01 -4.207942187786102295e-01 5.126963138580322266e+00 1.411850690841674805e+00 1.062290787696838379e+00
3.224000000000000000e+03 2.690854263305664062e+01 2.407505798339843750e+01 -3.987363874912261963e-01 4.259762763977050781e+00 1.158307909965515137e+00 -6.278634071350097656e-01
3.225000000000000000e+03 4.133938980102539062e+01 -7.302513599395751953e+00 3.642944097518920898e+00 8.662001609802246094e+00 3.691483736038208008e+00 -2.289216667413711548e-01
3.226000000000000000e+03 4.052951049804687500e+01 -8.040719032287597656e+00 3.809218645095825195e+00 8.903971672058105469e+00 3.813957214355468750e+00 -5.280990004539489746e-01
3.227000000000000000e+03 3.876278686523437500e+01 -4.194139003753662109e+00 3.814097166061401367e+00 9.752175331115722656e+00 4.069881439208984375e+00 1.103318810462951660e+00
3.228000000000000000e+03 3.993387603759765625e+01 -4.222116470336914062e+00 3.564737081527709961e+00 9.220832824707031250e+00 3.835670948028564453e+00 9.243626594543457031e-01
3.229000000000000000e+03 3.935052108764648438e+01 -6.120071887969970703e+00 4.497358322143554688e+00 9.237308502197265625e+00 4.120399951934814453e+00 2.698910236358642578e-01
3.230000000000000000e+03 4.023658370971679688e+01 -6.241194725036621094e+00 4.071373462677001953e+00 8.931366920471191406e+00 3.900822162628173828e+00 1.681431531906127930e-01
3.231000000000000000e+03 3.894376754760742188e+01 -3.042920589447021484e+00 3.015384912490844727e+00 9.786498069763183594e+00 3.840564727783203125e+00 1.211916565895080566e+00
3.232000000000000000e+03 3.992423248291015625e+01 -5.213768482208251953e+00 3.966832876205444336e+00 9.098760604858398438e+00 3.919677972793579102e+00 5.961570143699645996e-01
3.233000000000000000e+03 3.757428741455078125e+01 -1.690842390060424805e+00 1.909921288490295410e+00 1.053188514709472656e+01 3.732542037963867188e+00 1.095883488655090332e+00
3.234000000000000000e+03 3.717556762695312500e+01 -8.620095252990722656e-01 1.304809451103210449e+00 1.055537223815917969e+01 3.558054447174072266e+00 8.037144541740417480e-01
3.235000000000000000e+03 3.696990203857421875e+01 -1.422423934936523438e+01 4.221567213535308838e-01 1.018255233764648438e+01 3.181412696838378906e+00 -3.948004245758056641e-01
3.236000000000000000e+03 3.896663284301757812e+01 -1.906006932258605957e+00 2.251255750656127930e+00 9.851227760314941406e+00 3.630745172500610352e+00 1.191844463348388672e+00
3.237000000000000000e+03 4.108217239379882812e+01 -9.212841033935546875e+00 3.228680133819580078e+00 8.869144439697265625e+00 3.629347324371337891e+00 -8.224328756332397461e-01
3.238000000000000000e+03 3.845899963378906250e+01 -1.820184230804443359e+00 2.144972801208496094e+00 1.010332870483398438e+01 3.674490451812744141e+00 1.181704640388488770e+00
3.239000000000000000e+03 3.818673324584960938e+01 -1.320495128631591797e+01 1.096559166908264160e+00 1.012610816955566406e+01 3.366800308227539062e+00 -9.277710914611816406e-01
3.240000000000000000e+03 3.760041427612304688e+01 -1.343588256835937500e+01 8.537412285804748535e-01 1.026339149475097656e+01 3.335139751434326172e+00 -7.433109879493713379e-01
3.241000000000000000e+03 3.906461715698242188e+01 -1.234095382690429688e+01 1.737742900848388672e+00 9.845256805419921875e+00 3.474900007247924805e+00 -1.179703593254089355e+00
3.242000000000000000e+03 4.076386642456054688e+01 -1.057749366760253906e+01 2.724951267242431641e+00 9.109575271606445312e+00 3.550358057022094727e+00 -1.105935692787170410e+00
3.243000000000000000e+03 3.817340850830078125e+01 -1.248374819755554199e+00 1.804980039596557617e+00 1.019683170318603516e+01 3.600543498992919922e+00 1.087482690811157227e+00
3.244000000000000000e+03 3.717106246948242188e+01 5.376269817352294922e-01 6.836022734642028809e-01 1.010950660705566406e+01 3.237932682037353516e+00 4.440696835517883301e-01
3.245000000000000000e+03 4.061718750000000000e+01 -1.141875648498535156e+01 2.283449172973632812e+00 9.237684249877929688e+00 3.456340074539184570e+00 -1.166328072547912598e+00
3.246000000000000000e+03 3.896930694580078125e+01 1.339657306671142578e+00 7.390996813774108887e-01 9.506061553955078125e+00 3.073548316955566406e+00 7.109518647193908691e-01
3.247000000000000000e+03 4.232815933227539062e+01 2.969077348709106445e+00 6.760869622230529785e-01 8.725768089294433594e+00 2.820556402206420898e+00 8.877725005149841309e-01
3.248000000000000000e+03 4.202421188354492188e+01 4.152455329895019531e+00 3.869929313659667969e-01 8.675468444824218750e+00 2.718738317489624023e+00 7.628241181373596191e-01
3.249000000000000000e+03 5.270206451416015625e+01 -6.918364524841308594e+00 1.442200779914855957e+00 7.591294288635253906e+00 2.710048675537109375e+00 3.030337765812873840e-02
3.250000000000000000e+03 5.092774963378906250e+01 -9.395754814147949219e+00 1.551665663719177246e+00 7.693928241729736328e+00 2.773678302764892578e+00 -2.946556210517883301e-01
3.251000000000000000e+03 4.992718505859375000e+01 -1.476044750213623047e+01 9.744762182235717773e-01 7.974340438842773438e+00 2.684644937515258789e+00 -7.671030163764953613e-01
3.252000000000000000e+03 5.178893280029296875e+01 2.917341709136962891e+00 7.903608679771423340e-01 7.828081607818603516e+00 2.585532665252685547e+00 8.494355678558349609e-01
3.253000000000000000e+03 5.118957901000976562e+01 -4.326629638671875000e-01 1.209851264953613281e+00 7.752502918243408203e+00 2.688706398010253906e+00 7.106807827949523926e-01
3.254000000000000000e+03 5.162809753417968750e+01 -5.957163810729980469e+00 1.571221232414245605e+00 7.623496055603027344e+00 2.758415222167968750e+00 1.342479735612869263e-01
3.255000000000000000e+03 4.346430587768554688e+01 4.560696601867675781e+00 4.211906194686889648e-01 8.490602493286132812e+00 2.673537969589233398e+00 8.334309458732604980e-01
3.256000000000000000e+03 4.222835159301757812e+01 1.377753448486328125e+01 -5.690907835960388184e-01 7.634057521820068359e+00 2.119490146636962891e+00 2.019316256046295166e-01
3.257000000000000000e+03 5.007955551147460938e+01 -2.988738536834716797e+00 1.596281647682189941e+00 7.734910964965820312e+00 2.799357652664184570e+00 5.125684142112731934e-01
3.258000000000000000e+03 5.012487792968750000e+01 5.555253505706787109e+00 4.845914244651794434e-01 7.958409786224365234e+00 2.532900333404541016e+00 9.095978736877441406e-01
3.259000000000000000e+03 4.427256393432617188e+01 8.185880661010742188e+00 -7.291072607040405273e-02 8.196738243103027344e+00 2.437148332595825195e+00 6.565871834754943848e-01
3.260000000000000000e+03 4.006015014648437500e+01 -5.710517883300781250e+00 4.054559707641601562e+00 9.016455650329589844e+00 3.921304464340209961e+00 4.194525182247161865e-01
3.261000000000000000e+03 3.932572937011718750e+01 -3.309828281402587891e+00 3.179813146591186523e+00 9.575878143310546875e+00 3.826707363128662109e+00 1.155349850654602051e+00
3.262000000000000000e+03 4.041084671020507812e+01 -4.705954551696777344e+00 3.572768688201904297e+00 8.990312576293945312e+00 3.768924474716186523e+00 7.287076711654663086e-01
3.263000000000000000e+03 4.022255706787109375e+01 -3.270050048828125000e+00 3.032966136932373047e+00 9.213351249694824219e+00 3.673895120620727539e+00 1.046360492706298828e+00
3.264000000000000000e+03 4.055845642089843750e+01 -5.545422554016113281e+00 3.848942995071411133e+00 8.884668350219726562e+00 3.820083379745483398e+00 4.501995742321014404e-01
3.265000000000000000e+03 3.948881149291992188e+01 -4.159741401672363281e+00 3.647981882095336914e+00 9.394469261169433594e+00 3.912735462188720703e+00 9.928620457649230957e-01
3.266000000000000000e+03 3.922790908813476562e+01 -4.442424774169921875e+00 3.833176136016845703e+00 9.460923194885253906e+00 3.988229751586914062e+00 9.479088187217712402e-01
3.267000000000000000e+03 3.689640045166015625e+01 -4.206296503543853760e-01 1.023492097854614258e+00 1.050381755828857422e+01 3.458192825317382812e+00 5.977268815040588379e-01
3.268000000000000000e+03 3.742781448364257812e+01 -1.281633138656616211e+00 1.625149250030517578e+00 1.053926849365234375e+01 3.649325370788574219e+00 9.639304280281066895e-01
3.269000000000000000e+03 3.847422027587890625e+01 6.408487558364868164e-01 8.964603543281555176e-01 9.762540817260742188e+00 3.197700262069702148e+00 7.426835894584655762e-01
3.270000000000000000e+03 4.071702194213867188e+01 -6.058831691741943359e+00 3.857723236083984375e+00 8.801086425781250000e+00 3.797642946243286133e+00 2.227649241685867310e-01
3.271000000000000000e+03 3.912165832519531250e+01 -3.835242748260498047e+00 3.547788858413696289e+00 9.625568389892578125e+00 3.952007293701171875e+00 1.116151094436645508e+00
3.272000000000000000e+03 4.121468353271484375e+01 -8.631876945495605469e+00 3.410142898559570312e+00 8.770913124084472656e+00 3.654316663742065430e+00 -6.696392297744750977e-01
3.273000000000000000e+03 3.926962280273437500e+01 -2.588073492050170898e+00 2.720288038253784180e+00 9.672202110290527344e+00 3.717747211456298828e+00 1.203400015830993652e+00
3.274000000000000000e+03 4.022496032714843750e+01 -2.327148914337158203e+00 2.495592594146728516e+00 9.296425819396972656e+00 3.537605524063110352e+00 1.142452239990234375e+00
3.275000000000000000e+03 3.777250289916992188e+01 -1.420475578308105469e+01 5.801852345466613770e-01 1.003445911407470703e+01 3.184393167495727539e+00 -6.136021018028259277e-01
3.276000000000000000e+03 4.152646636962890625e+01 -6.733912944793701172e+00 3.633689403533935547e+00 8.602567672729492188e+00 3.670876979827880859e+00 -1.853120885789394379e-02
3.277000000000000000e+03 4.071911239624023438e+01 -7.048306941986083984e+00 3.896531105041503906e+00 8.796764373779296875e+00 3.807988405227661133e+00 -1.521975547075271606e-01
3.278000000000000000e+03 4.597272491455078125e+01 -8.381217956542968750e+00 2.326410055160522461e+00 7.978008747100830078e+00 3.091325521469116211e+00 -3.104288876056671143e-01
3.279000000000000000e+03 4.024447631835937500e+01 -1.229841041564941406e+01 1.843491911888122559e+00 9.447810173034667969e+00 3.387390613555908203e+00 -1.180581212043762207e+00
3.280000000000000000e+03 3.973959350585937500e+01 -1.281399345397949219e+01 1.570012927055358887e+00 9.605993270874023438e+00 3.352802038192749023e+00 -1.146667599678039551e+00
3.281000000000000000e+03 3.925241851806640625e+01 -1.723116493225097656e+01 -9.361218661069869995e-03 9.131204605102539062e+00 2.736552953720092773e+00 -4.474925696849822998e-01
3.282000000000000000e+03 3.895034027099609375e+01 -1.469844150543212891e+01 6.200888752937316895e-01 9.614957809448242188e+00 3.070513963699340820e+00 -7.679606676101684570e-01
3.283000000000000000e+03 3.786792755126953125e+01 8.279607295989990234e-01 7.240703701972961426e-01 9.895910263061523438e+00 3.185994148254394531e+00 5.860545039176940918e-01
3.284000000000000000e+03 3.891216278076171875e+01 9.252227842807769775e-02 1.201702833175659180e+00 9.704720497131347656e+00 3.271927118301391602e+00 9.065864682197570801e-01
3.285000000000000000e+03 4.040030288696289062e+01 1.142317175865173340e+00 1.027229309082031250e+00 9.230429649353027344e+00 3.077297687530517578e+00 9.305943846702575684e-01
3.286000000000000000e+03 4.105794906616210938e+01 2.579951524734497070e+00 6.528950333595275879e-01 8.944053649902343750e+00 2.879084587097167969e+00 8.229778409004211426e-01
3.287000000000000000e+03 5.007697677612304688e+01 -1.051741313934326172e+01 1.532056927680969238e+00 7.779563903808593750e+00 2.793486118316650391e+00 -4.531169831752777100e-01
3.288000000000000000e+03 4.134917449951171875e+01 -1.890208053588867188e+01 -9.732010960578918457e-02 8.756636619567871094e+00 2.597795009613037109e+00 -5.727371573448181152e-01
3.289000000000000000e+03 5.050185012817382812e+01 -5.086768627166748047e+00 1.694015979766845703e+00 7.668469905853271484e+00 2.808745861053466797e+00 2.470045685768127441e-01
3.290000000000000000e+03 5.103276062011718750e+01 -1.375831604003906250e+01 1.068748831748962402e+00 7.858121871948242188e+00 2.678061246871948242e+00 -6.725158095359802246e-01
3.291000000000000000e+03 4.834179306030273438e+01 -1.216260242462158203e+01 1.509707212448120117e+00 7.971027851104736328e+00 2.844220399856567383e+00 -6.868743300437927246e-01
3.292000000000000000e+03 4.397643280029296875e+01 -2.162063598632812500e+01 -2.818779051303863525e-01 8.397914886474609375e+00 2.434811115264892578e+00 -5.958812236785888672e-01
3.293000000000000000e+03 5.064519500732421875e+01 -1.697844743728637695e+00 1.412933707237243652e+00 7.744513511657714844e+00 2.747234106063842773e+00 6.194369792938232422e-01
3.294000000000000000e+03 4.310530853271484375e+01 5.972468852996826172e+00 1.482317596673965454e-01 8.430478096008300781e+00 2.573613166809082031e+00 7.075723409652709961e-01
3.295000000000000000e+03 4.663962554931640625e+01 6.747490406036376953e+00 2.413934469223022461e-01 8.145732879638671875e+00 2.516137838363647461e+00 8.510927557945251465e-01
3.296000000000000000e+03 3.786650848388671875e+01 -9.788275957107543945e-01 1.534024715423583984e+00 1.029602241516113281e+01 3.549014091491699219e+00 9.566760659217834473e-01
3.297000000000000000e+03 4.050199890136718750e+01 -3.706567287445068359e+00 3.228734016418457031e+00 9.050047874450683594e+00 3.683634519577026367e+00 9.533677697181701660e-01
3.298000000000000000e+03 3.959422302246093750e+01 -1.994414210319519043e+00 2.342268466949462891e+00 9.555431365966796875e+00 3.569309949874877930e+00 1.184700131416320801e+00
3.299000000000000000e+03 4.114015197753906250e+01 -5.802866458892822266e+00 3.639306068420410156e+00 8.690105438232421875e+00 3.698823451995849609e+00 3.055925965309143066e-01
3.300000000000000000e+03 4.158161926269531250e+01 -9.491653442382812500e+00 3.023705244064331055e+00 8.752567291259765625e+00 3.532881736755371094e+00 -8.439815044403076172e-01
3.301000000000000000e+03 3.825947570800781250e+01 -2.646046578884124756e-01 1.259703755378723145e+00 1.002328014373779297e+01 3.384895086288452148e+00 8.830687999725341797e-01
3.302000000000000000e+03 3.958445739746093750e+01 6.190133094787597656e-01 1.102441310882568359e+00 9.441708564758300781e+00 3.163244962692260742e+00 9.222238659858703613e-01
3.303000000000000000e+03 3.881584167480468750e+01 -9.492919445037841797e-01 1.691534996032714844e+00 9.886136054992675781e+00 3.473301410675048828e+00 1.063685894012451172e+00
3.304000000000000000e+03 4.123550033569335938e+01 -7.965410709381103516e+00 3.595995664596557617e+00 8.714249610900878906e+00 3.693073511123657227e+00 -4.533145725727081299e-01
3.305000000000000000e+03 4.204255294799804688e+01 -7.360938072204589844e+00 3.396868705749511719e+00 8.504972457885742188e+00 3.570552349090576172e+00 -2.213875949382781982e-01
3.306000000000000000e+03 3.853572463989257812e+01 -1.390860748291015625e+01 8.484633564949035645e-01 9.845470428466796875e+00 3.208179950714111328e+00 -8.240452408790588379e-01
3.307000000000000000e+03 4.163842010498046875e+01 -1.134027385711669922e+01 2.284670591354370117e+00 8.939996719360351562e+00 3.367400169372558594e+00 -1.087562561035156250e+00
3.308000000000000000e+03 4.042278289794921875e+01 -5.110887527465820312e+00 3.772461175918579102e+00 8.940795898437500000e+00 3.813977003097534180e+00 5.766171813011169434e-01
3.309000000000000000e+03 3.799655914306640625e+01 2.556173205375671387e-01 9.717454314231872559e-01 1.002078342437744141e+01 3.297758817672729492e+00 7.315188646316528320e-01
3.310000000000000000e+03 3.948971557617187500e+01 -1.552992630004882812e+01 4.555084407329559326e-01 9.411769866943359375e+00 2.960183382034301758e+00 -7.434313893318176270e-01
3.311000000000000000e+03 4.016990280151367188e+01 -1.635422515869140625e+01 3.214140534400939941e-01 9.190450668334960938e+00 2.853559494018554688e+00 -7.185121774673461914e-01
3.312000000000000000e+03 3.977948760986328125e+01 -1.408513355255126953e+01 9.952571392059326172e-01 9.510348320007324219e+00 3.151681423187255859e+00 -9.765315651893615723e-01
3.313000000000000000e+03 3.795097351074218750e+01 -1.517227554321289062e+01 2.884000539779663086e-01 9.713651657104492188e+00 3.000615596771240234e+00 -4.670817255973815918e-01
3.314000000000000000e+03 4.097134017944335938e+01 -1.711987876892089844e+01 2.240638434886932373e-01 8.993854522705078125e+00 2.765375375747680664e+00 -7.149701118469238281e-01
3.315000000000000000e+03 4.141349792480468750e+01 1.558638572692871094e+00 9.859497547149658203e-01 8.973851203918457031e+00 2.987940311431884766e+00 9.582582712173461914e-01
3.316000000000000000e+03 4.366857147216796875e+01 3.225714683532714844e+00 7.148230671882629395e-01 8.525406837463378906e+00 2.772068977355957031e+00 9.309608340263366699e-01
3.317000000000000000e+03 4.434304809570312500e+01 -1.719476127624511719e+01 5.033409595489501953e-01 8.582572937011718750e+00 2.725774049758911133e+00 -8.972296714782714844e-01
3.318000000000000000e+03 5.055976486206054688e+01 -1.870125579833984375e+01 3.804249167442321777e-01 8.060902595520019531e+00 2.532398462295532227e+00 -8.010116219520568848e-01
3.319000000000000000e+03 4.876515579223632812e+01 -1.566716289520263672e+01 8.583047389984130859e-01 8.098683357238769531e+00 2.687096357345581055e+00 -8.422825932502746582e-01
3.320000000000000000e+03 4.907800292968750000e+01 -1.345392513275146484e+01 1.230267763137817383e+00 7.978672981262207031e+00 2.762682199478149414e+00 -7.512933611869812012e-01
3.321000000000000000e+03 4.111474227905273438e+01 -1.109366893768310547e+01 2.410619735717773438e+00 9.055853843688964844e+00 3.439942121505737305e+00 -1.104371905326843262e+00
3.322000000000000000e+03 4.230336380004882812e+01 -1.121804237365722656e+01 2.261854410171508789e+00 8.764194488525390625e+00 3.307814836502075195e+00 -1.016506552696228027e+00
3.323000000000000000e+03 4.950532150268554688e+01 -1.014120459556579590e+00 1.420191407203674316e+00 7.836813926696777344e+00 2.777101516723632812e+00 7.207292318344116211e-01
3.324000000000000000e+03 4.165715026855468750e+01 -5.289728641510009766e+00 3.420953989028930664e+00 8.610916137695312500e+00 3.609560966491699219e+00 4.621437191963195801e-01
3.325000000000000000e+03 5.006919479370117188e+01 3.189302980899810791e-01 1.206485986709594727e+00 7.847239017486572266e+00 2.716117620468139648e+00 7.967551946640014648e-01
3.326000000000000000e+03 4.792445373535156250e+01 2.953056812286376953e+00 8.621258139610290527e-01 8.085796356201171875e+00 2.684376716613769531e+00 9.479690194129943848e-01
3.327000000000000000e+03 4.774983215332031250e+01 -6.750896930694580078e+00 2.110176086425781250e+00 7.806741237640380859e+00 2.975075006484985352e+00 2.306505106389522552e-02
3.328000000000000000e+03 4.478400802612304688e+01 6.462364673614501953e+00 1.826296895742416382e-01 8.272239685058593750e+00 2.536460876464843750e+00 7.833159565925598145e-01
3.329000000000000000e+03 4.627424621582031250e+01 8.954452514648437500e+00 -4.900899529457092285e-02 8.078158378601074219e+00 2.408744573593139648e+00 7.410268783569335938e-01
3.330000000000000000e+03 4.202856445312500000e+01 -2.572348213195800781e+01 -7.408036589622497559e-01 8.042977333068847656e+00 2.190652132034301758e+00 -2.156108915805816650e-01
3.331000000000000000e+03 4.852534484863281250e+01 6.390179157257080078e+00 3.427179455757141113e-01 8.053303718566894531e+00 2.518806457519531250e+00 8.942718505859375000e-01
3.332000000000000000e+03 5.107253265380859375e+01 4.370160579681396484e+00 6.419923901557922363e-01 7.897074699401855469e+00 2.561720132827758789e+00 9.018598794937133789e-01
3.333000000000000000e+03 5.072362518310546875e+01 -7.251720428466796875e+00 1.678049325942993164e+00 7.662214756011962891e+00 2.802079200744628906e+00 -2.421293780207633972e-02
3.334000000000000000e+03 4.760475540161132812e+01 1.481833100318908691e+00 1.128759741783142090e+00 8.073519706726074219e+00 2.760684013366699219e+00 9.289420247077941895e-01
3.335000000000000000e+03 4.658964538574218750e+01 4.855349063873291016e+00 5.384293794631958008e-01 8.198086738586425781e+00 2.620954990386962891e+00 9.249264001846313477e-01
3.336000000000000000e+03 4.654943084716796875e+01 1.259680461883544922e+01 -3.339724540710449219e-01 7.886674880981445312e+00 2.265810728073120117e+00 5.958459377288818359e-01
3.337000000000000000e+03 3.998545074462890625e+01 -3.712381839752197266e+00 3.316934585571289062e+00 9.262995719909667969e+00 3.773978948593139648e+00 1.024338006973266602e+00
3.338000000000000000e+03 4.164381408691406250e+01 -1.773899435997009277e+00 2.223034620285034180e+00 8.891788482666015625e+00 3.334447145462036133e+00 1.078178048133850098e+00
3.339000000000000000e+03 3.859032440185546875e+01 -1.371999740600585938e+00 1.913245201110839844e+00 1.006614112854003906e+01 3.593816041946411133e+00 1.136721730232238770e+00
3.340000000000000000e+03 3.932736968994140625e+01 -5.561190843582153320e-01 1.552799582481384277e+00 9.640369415283203125e+00 3.357950687408447266e+00 1.046711444854736328e+00
3.341000000000000000e+03 4.193944931030273438e+01 -8.609611511230468750e+00 3.235061407089233398e+00 8.605023384094238281e+00 3.552025556564331055e+00 -6.033620834350585938e-01
3.342000000000000000e+03 3.921063613891601562e+01 -1.342462635040283203e+01 1.186817526817321777e+00 9.737646102905273438e+00 3.277339220046997070e+00 -1.026495933532714844e+00
3.343000000000000000e+03 4.042553329467773438e+01 -1.340713787078857422e+01 1.361612796783447266e+00 9.361558914184570312e+00 3.216951608657836914e+00 -1.101702213287353516e+00
3.344000000000000000e+03 4.133430480957031250e+01 -6.119794845581054688e+00 3.650407552719116211e+00 8.639971733093261719e+00 3.687113761901855469e+00 1.968908160924911499e-01
3.345000000000000000e+03 4.275680541992187500e+01 -7.339666843414306641e+00 3.184717416763305664e+00 8.365094184875488281e+00 3.464943647384643555e+00 -1.840602457523345947e-01
3.346000000000000000e+03 4.086215591430664062e+01 -4.869537353515625000e+00 3.519677877426147461e+00 8.820908546447753906e+00 3.702175855636596680e+00 6.223628520965576172e-01
3.347000000000000000e+03 4.186939620971679688e+01 -1.002061653137207031e+01 2.812747716903686523e+00 8.746183395385742188e+00 3.467679262161254883e+00 -9.102858304977416992e-01
3.348000000000000000e+03 4.103240966796875000e+01 -6.497097015380859375e+00 3.787723541259765625e+00 8.707633972167968750e+00 3.748607397079467773e+00 6.270242482423782349e-02
3.349000000000000000e+03 4.004243850708007812e+01 -1.532795727252960205e-01 1.448985457420349121e+00 9.393692970275878906e+00 3.252803564071655273e+00 1.052762508392333984e+00
3.350000000000000000e+03 4.045372390747070312e+01 -9.967446327209472656e-01 1.901290059089660645e+00 9.274464607238769531e+00 3.352726221084594727e+00 1.130062341690063477e+00
3.351000000000000000e+03 4.169509506225585938e+01 5.971026420593261719e-01 1.340286135673522949e+00 8.934128761291503906e+00 3.082324504852294922e+00 1.039137125015258789e+00
3.352000000000000000e+03 4.198083877563476562e+01 -7.986204147338867188e+00 3.332168817520141602e+00 8.550206184387207031e+00 3.564712524414062500e+00 -4.117898344993591309e-01
3.353000000000000000e+03 4.042554092407226562e+01 -1.478073692321777344e+01 7.992799878120422363e-01 9.288635253906250000e+00 3.026374578475952148e+00 -9.335670471191406250e-01
3.354000000000000000e+03 4.083535003662109375e+01 -1.274813842773437500e+01 1.628395438194274902e+00 9.260452270507812500e+00 3.266654253005981445e+00 -1.142277002334594727e+00
3.355000000000000000e+03 4.837666702270507812e+01 -3.723003864288330078e-01 1.419721603393554688e+00 7.940876007080078125e+00 2.808179140090942383e+00 8.149914145469665527e-01
3.356000000000000000e+03 5.075374984741210938e+01 1.733935594558715820e+00 9.683098196983337402e-01 7.849323749542236328e+00 2.645289897918701172e+00 8.460340499877929688e-01
3.357000000000000000e+03 4.969812393188476562e+01 4.119316577911376953e+00 6.745631098747253418e-01 7.966517925262451172e+00 2.592324256896972656e+00 9.166819453239440918e-01
3.358000000000000000e+03 4.255400848388671875e+01 1.837170839309692383e+00 9.938983917236328125e-01 8.733741760253906250e+00 2.918292045593261719e+00 9.823758602142333984e-01
3.359000000000000000e+03 4.817312622070312500e+01 4.577028274536132812e+00 6.156284809112548828e-01 8.084844589233398438e+00 2.610141992568969727e+00 9.373844265937805176e-01
3.360000000000000000e+03 4.648856353759765625e+01 3.241768598556518555e+00 8.118766546249389648e-01 8.216356277465820312e+00 2.708469867706298828e+00 9.667263627052307129e-01
3.361000000000000000e+03 4.216115951538085938e+01 -2.102286338806152344e+01 -3.340387940406799316e-01 8.498449325561523438e+00 2.449322938919067383e+00 -4.854895174503326416e-01
3.362000000000000000e+03 4.209751510620117188e+01 -1.474176502227783203e+01 9.997616410255432129e-01 8.948834419250488281e+00 2.984578847885131836e+00 -1.019639849662780762e+00
3.363000000000000000e+03 4.881604385375976562e+01 -7.597046375274658203e+00 1.932432770729064941e+00 7.755993843078613281e+00 2.906527996063232422e+00 -9.037315845489501953e-02
3.364000000000000000e+03 4.933823394775390625e+01 -4.272622585296630859e+00 1.779338359832763672e+00 7.741967678070068359e+00 2.856391668319702148e+00 3.843676745891571045e-01
3.365000000000000000e+03 4.963322067260742188e+01 -6.368937015533447266e+00 1.822826743125915527e+00 7.703320026397705078e+00 2.857843875885009766e+00 7.949173450469970703e-02
3.366000000000000000e+03 4.893417358398437500e+01 -2.270768880844116211e+00 1.652364611625671387e+00 7.818939685821533203e+00 2.841391324996948242e+00 6.254445910453796387e-01
3.367000000000000000e+03 4.825435256958007812e+01 -3.455079078674316406e+00 1.850693345069885254e+00 7.828055381774902344e+00 2.903624534606933594e+00 5.068552494049072266e-01
3.368000000000000000e+03 4.797492980957031250e+01 -1.423477077484130859e+01 1.134263396263122559e+00 8.105221748352050781e+00 2.771845340728759766e+00 -8.317368030548095703e-01
3.369000000000000000e+03 4.270701599121093750e+01 7.662612199783325195e-01 1.307784676551818848e+00 8.725363731384277344e+00 3.009944677352905273e+00 1.029483914375305176e+00
3.370000000000000000e+03 4.786410903930664062e+01 -1.599222183227539062e+00 1.656219482421875000e+00 7.934491157531738281e+00 2.877213239669799805e+00 7.401762008666992188e-01
3.371000000000000000e+03 4.369047164916992188e+01 1.263388919830322266e+01 -4.736879765987396240e-01 7.795843601226806641e+00 2.196646690368652344e+00 3.723635375499725342e-01
3.372000000000000000e+03 4.500239181518554688e+01 4.819453239440917969e+00 4.718868136405944824e-01 8.327619552612304688e+00 2.639851808547973633e+00 8.883877992630004883e-01
3.373000000000000000e+03 4.986825942993164062e+01 -8.466518402099609375e+00 1.757085680961608887e+00 7.715487480163574219e+00 2.841771841049194336e+00 -2.035012692213058472e-01
3.374000000000000000e+03 4.508347702026367188e+01 -2.501083946228027344e+01 -5.380185246467590332e-01 8.185491561889648438e+00 2.294241905212402344e+00 -4.766418337821960449e-01
3.375000000000000000e+03 4.265388870239257812e+01 -1.947903251647949219e+01 -7.282873988151550293e-02 8.608854293823242188e+00 2.560807704925537109e+00 -6.524050235748291016e-01
3.376000000000000000e+03 4.119944000244140625e+01 -4.310328006744384766e+00 3.267898082733154297e+00 8.785897254943847656e+00 3.616138696670532227e+00 7.616227865219116211e-01
3.377000000000000000e+03 4.108174133300781250e+01 -5.312106609344482422e+00 3.585680961608886719e+00 8.735415458679199219e+00 3.696329116821289062e+00 4.841946363449096680e-01
3.378000000000000000e+03 4.218501281738281250e+01 -9.165101051330566406e+00 2.993187665939331055e+00 8.597510337829589844e+00 3.477209329605102539e+00 -7.195494174957275391e-01
3.379000000000000000e+03 4.196049499511718750e+01 -4.634067058563232422e+00 3.161906242370605469e+00 8.592384338378906250e+00 3.526287317276000977e+00 6.183255314826965332e-01
3.380000000000000000e+03 4.051152420043945312e+01 -4.231422424316406250e+00 3.428177356719970703e+00 9.010966300964355469e+00 3.731743097305297852e+00 8.696159720420837402e-01
3.381000000000000000e+03 4.167318344116210938e+01 -6.300699234008789062e+00 3.575835227966308594e+00 8.577096939086914062e+00 3.645879745483398438e+00 1.334978938102722168e-01
3.382000000000000000e+03 4.209427261352539062e+01 -6.789329528808593750e+00 3.435518980026245117e+00 8.478716850280761719e+00 3.574270725250244141e+00 -4.125338420271873474e-02
3.383000000000000000e+03 4.075469207763671875e+01 -2.885915279388427734e+00 2.756418704986572266e+00 9.045815467834472656e+00 3.540670394897460938e+00 1.048866510391235352e+00
3.384000000000000000e+03 4.276506042480468750e+01 -2.541060447692871094e-01 1.647805571556091309e+00 8.710779190063476562e+00 3.107575416564941406e+00 1.061642765998840332e+00
3.385000000000000000e+03 4.261057662963867188e+01 -8.692353248596191406e+00 2.996632575988769531e+00 8.457022666931152344e+00 3.436096668243408203e+00 -5.590278506278991699e-01
3.386000000000000000e+03 4.440064239501953125e+01 -1.331567096710205078e+01 1.490779876708984375e+00 8.493231773376464844e+00 2.995203495025634766e+00 -9.856165647506713867e-01
3.387000000000000000e+03 4.723669433593750000e+01 -1.279042625427246094e+01 1.473599076271057129e+00 8.099427223205566406e+00 2.871907949447631836e+00 -7.894071936607360840e-01
3.388000000000000000e+03 4.107761383056640625e+01 -1.552181529998779297e+01 6.564837098121643066e-01 9.124876976013183594e+00 2.934408187866210938e+00 -9.109295010566711426e-01
3.389000000000000000e+03 4.127592086791992188e+01 -1.395984268188476562e+01 1.208714485168457031e+00 9.125792503356933594e+00 3.100352048873901367e+00 -1.060833573341369629e+00
3.390000000000000000e+03 4.171249771118164062e+01 -1.301404094696044922e+01 1.566216468811035156e+00 9.019552230834960938e+00 3.175730466842651367e+00 -1.110101819038391113e+00
3.391000000000000000e+03 4.088566970825195312e+01 -1.208178138732910156e+01 1.977443099021911621e+00 9.198650360107421875e+00 3.352828025817871094e+00 -1.148365139961242676e+00
3.392000000000000000e+03 4.081056213378906250e+01 2.697472870349884033e-01 1.381587028503417969e+00 9.181306838989257812e+00 3.168868303298950195e+00 1.053433299064636230e+00
3.393000000000000000e+03 4.117066192626953125e+01 -3.552499532699584961e+00 3.031898021697998047e+00 8.868240356445312500e+00 3.570041656494140625e+00 9.179334640502929688e-01
3.394000000000000000e+03 3.834339904785156250e+01 -7.903345823287963867e-01 1.525219440460205078e+00 1.003716087341308594e+01 3.468714237213134766e+00 9.804477095603942871e-01
3.395000000000000000e+03 3.965011215209960938e+01 -1.269271373748779297e+00 1.989069938659667969e+00 9.556490898132324219e+00 3.463668107986450195e+00 1.157528758049011230e+00
3.396000000000000000e+03 4.253742599487304688e+01 -1.196037960052490234e+01 1.986725449562072754e+00 8.773485183715820312e+00 3.228063106536865234e+00 -1.054083824157714844e+00
3.397000000000000000e+03 4.795127868652343750e+01 -8.819551467895507812e+00 2.005816698074340820e+00 7.844092845916748047e+00 2.954972982406616211e+00 -3.093212544918060303e-01
3.398000000000000000e+03 4.682701873779296875e+01 -1.038524627685546875e+00 1.651103019714355469e+00 8.056838989257812500e+00 2.912382602691650391e+00 8.337522745132446289e-01
3.399000000000000000e+03 4.887116241455078125e+01 9.858550429344177246e-01 1.169307112693786621e+00 7.953226089477539062e+00 2.736759901046752930e+00 8.703871369361877441e-01
3.400000000000000000e+03 4.191984176635742188e+01 -1.773012733459472656e+01 1.999577730894088745e-01 8.818044662475585938e+00 2.705400705337524414e+00 -7.468751072883605957e-01
3.401000000000000000e+03 4.467471313476562500e+01 -1.026719188690185547e+01 2.272286415100097656e+00 8.249079704284667969e+00 3.156409740447998047e+00 -6.949423551559448242e-01
3.402000000000000000e+03 4.506727600097656250e+01 3.326267719268798828e+00 7.605436444282531738e-01 8.361659049987792969e+00 2.736660957336425781e+00 9.585145711898803711e-01
3.403000000000000000e+03 4.376966857910156250e+01 1.979757666587829590e+00 1.013594865798950195e+00 8.543677330017089844e+00 2.867181777954101562e+00 9.930211901664733887e-01
3.404000000000000000e+03 4.832164764404296875e+01 -1.086648368835449219e+01 1.688992857933044434e+00 7.909123897552490234e+00 2.879435062408447266e+00 -5.608537197113037109e-01
3.405000000000000000e+03 5.311334228515625000e+01 3.644762039184570312e+00 6.701844930648803711e-01 7.785431861877441406e+00 2.536684751510620117e+00 8.361059427261352539e-01
3.406000000000000000e+03 4.259628295898437500e+01 -1.112957835197448730e+00 1.936923503875732422e+00 8.712938308715820312e+00 3.194958686828613281e+00 1.062404870986938477e+00
3.407000000000000000e+03 4.379658508300781250e+01 8.219372630119323730e-01 1.320204854011535645e+00 8.541624069213867188e+00 2.958548545837402344e+00 1.029986858367919922e+00
3.408000000000000000e+03 4.700467300415039062e+01 -7.787128925323486328e+00 2.208551406860351562e+00 7.888126850128173828e+00 3.029003381729125977e+00 -1.905756145715713501e-01
3.409000000000000000e+03 4.409256362915039062e+01 -1.974286079406738281e+01 7.689754944294691086e-03 8.515637397766113281e+00 2.556998252868652344e+00 -7.302191853523254395e-01
3.410000000000000000e+03 4.627743148803710938e+01 -1.726183128356933594e+01 5.475780367851257324e-01 8.371291160583496094e+00 2.675660848617553711e+00 -8.898960351943969727e-01
3.411000000000000000e+03 4.270579528808593750e+01 -8.015347480773925781e+00 3.096754074096679688e+00 8.400156974792480469e+00 3.449073314666748047e+00 -3.797071278095245361e-01
3.412000000000000000e+03 4.346963119506835938e+01 -6.524621486663818359e+00 3.020404338836669922e+00 8.229935646057128906e+00 3.375101804733276367e+00 4.582217335700988770e-02
3.413000000000000000e+03 4.536293411254882812e+01 -7.490964889526367188e+00 2.478185892105102539e+00 8.027003288269042969e+00 3.151556730270385742e+00 -1.475162804126739502e-01
3.414000000000000000e+03 4.254868698120117188e+01 -6.115396976470947266e+00 3.259821891784667969e+00 8.384844779968261719e+00 3.493400096893310547e+00 1.716452538967132568e-01
3.415000000000000000e+03 4.083551788330078125e+01 -1.817654013633728027e+00 2.254843711853027344e+00 9.141038894653320312e+00 3.418764829635620117e+00 1.124365210533142090e+00
3.416000000000000000e+03 4.542787551879882812e+01 -1.254863929748535156e+01 1.626679420471191406e+00 8.306737899780273438e+00 2.980025291442871094e+00 -8.868946433067321777e-01
3.417000000000000000e+03 4.151924514770507812e+01 -5.771507263183593750e+00 3.520298719406127930e+00 8.618484497070312500e+00 3.641634941101074219e+00 3.058240711688995361e-01
3.418000000000000000e+03 4.379261016845703125e+01 -5.409440994262695312e+00 2.854686021804809570e+00 8.215755462646484375e+00 3.321132421493530273e+00 3.062901794910430908e-01
3.419000000000000000e+03 4.582798767089843750e+01 -3.007850408554077148e+00 2.149233341217041016e+00 8.070104598999023438e+00 3.065801382064819336e+00 6.865246295928955078e-01
3.420000000000000000e+03 4.718015289306640625e+01 -1.024192428588867188e+01 1.922678828239440918e+00 7.964736461639404297e+00 2.966224670410156250e+00 -5.417560338973999023e-01
3.421000000000000000e+03 4.255485534667968750e+01 -9.761547088623046875e+00 2.768453598022460938e+00 8.574506759643554688e+00 3.402888298034667969e+00 -7.973142266273498535e-01
3.422000000000000000e+03 4.117965698242187500e+01 -5.342156887054443359e-01 1.727018952369689941e+00 9.068193435668945312e+00 3.238563776016235352e+00 1.100205898284912109e+00
3.423000000000000000e+03 4.424742889404296875e+01 -7.457065105438232422e+00 2.770655155181884766e+00 8.159105300903320312e+00 3.278928041458129883e+00 -1.369104832410812378e-01
3.424000000000000000e+03 4.187906646728515625e+01 -2.496894896030426025e-01 1.610116362571716309e+00 8.892735481262207031e+00 3.150855541229248047e+00 1.072373628616333008e+00
3.425000000000000000e+03 4.493912124633789062e+01 7.572500705718994141e-01 1.346525907516479492e+00 8.358523368835449219e+00 2.911514759063720703e+00 1.000146150588989258e+00
3.426000000000000000e+03 4.342529678344726562e+01 -8.063149452209472656e+00 2.903856754302978516e+00 8.292771339416503906e+00 3.358988285064697266e+00 -3.602883815765380859e-01
3.427000000000000000e+03 4.337716674804687500e+01 -3.526770114898681641e+00 2.633501529693603516e+00 8.378605842590332031e+00 3.303632259368896484e+00 7.330503463745117188e-01
3.428000000000000000e+03 4.845830917358398438e+01 -5.506130695343017578e+00 1.992675542831420898e+00 7.770765781402587891e+00 2.929032325744628906e+00 2.094922810792922974e-01
3.429000000000000000e+03 4.278930664062500000e+01 -1.291941452026367188e+01 1.619687914848327637e+00 8.783474922180175781e+00 3.120949029922485352e+00 -1.068600535392761230e+00
3.430000000000000000e+03 4.635251998901367188e+01 -2.084457874298095703e+00 1.894581913948059082e+00 8.064583778381347656e+00 2.987749814987182617e+00 7.696532607078552246e-01
3.431000000000000000e+03 4.262841033935546875e+01 -5.179050922393798828e+00 3.094318389892578125e+00 8.409836769104003906e+00 3.451246500015258789e+00 4.266913235187530518e-01
3.432000000000000000e+03 4.555270385742187500e+01 -1.952850723266601562e+01 1.183175146579742432e-01 8.419809341430664062e+00 2.561438083648681641e+00 -7.941756248474121094e-01
3.433000000000000000e+03 4.504898834228515625e+01 -1.436980819702148438e+01 1.209502458572387695e+00 8.462566375732421875e+00 2.901620626449584961e+00 -9.808454513549804688e-01
3.434000000000000000e+03 4.479821014404296875e+01 -3.250329792499542236e-01 1.620689034461975098e+00 8.331480979919433594e+00 2.985651016235351562e+00 9.683163166046142578e-01
3.435000000000000000e+03 4.639944839477539062e+01 -1.159306240081787109e+01 1.769552469253540039e+00 8.119848251342773438e+00 2.966820240020751953e+00 -7.454265952110290527e-01
3.436000000000000000e+03 4.166921615600585938e+01 -1.625401496887207031e+01 5.390769839286804199e-01 8.987658500671386719e+00 2.858020782470703125e+00 -8.831636905670166016e-01
3.437000000000000000e+03 4.299357604980468750e+01 -1.812758255004882812e+01 1.967653632164001465e-01 8.683254241943359375e+00 2.664005994796752930e+00 -7.807660102844238281e-01
3.438000000000000000e+03 4.632035064697265625e+01 1.813125729560852051e+00 1.088554978370666504e+00 8.215147018432617188e+00 2.791110515594482422e+00 9.729834198951721191e-01
3.439000000000000000e+03 4.502585220336914062e+01 1.411283206939697266e+01 -4.859998524188995361e-01 7.739089012145996094e+00 2.175926685333251953e+00 4.288306236267089844e-01
3.440000000000000000e+03 4.678198623657226562e+01 -2.353680610656738281e+01 -3.314125239849090576e-01 8.232760429382324219e+00 2.370404481887817383e+00 -6.190298795700073242e-01
3.441000000000000000e+03 4.591097259521484375e+01 -2.146595764160156250e+01 -1.545705497264862061e-01 8.328652381896972656e+00 2.452224493026733398e+00 -6.963484883308410645e-01
3.442000000000000000e+03 4.136305999755859375e+01 -2.451804637908935547e+00 2.546443223953247070e+00 8.924489974975585938e+00 3.441279888153076172e+00 1.052837491035461426e+00
3.443000000000000000e+03 4.728265380859375000e+01 -2.690417051315307617e+00 1.910820841789245605e+00 7.930134296417236328e+00 2.952286481857299805e+00 6.452071666717529297e-01
3.444000000000000000e+03 4.272798156738281250e+01 -6.701245784759521484e+00 3.236715316772460938e+00 8.353495597839355469e+00 3.477063179016113281e+00 -7.492500357329845428e-03
3.445000000000000000e+03 4.517436981201171875e+01 -5.632365703582763672e+00 2.580550670623779297e+00 8.036581039428710938e+00 3.185139417648315430e+00 2.396044582128524780e-01
3.446000000000000000e+03 4.339862060546875000e+01 -9.674592971801757812e+00 2.637164592742919922e+00 8.397637367248535156e+00 3.310440778732299805e+00 -7.034583091735839844e-01
3.447000000000000000e+03 4.723811721801757812e+01 1.494955122470855713e-01 1.393086671829223633e+00 8.065436363220214844e+00 2.837557077407836914e+00 8.908498883247375488e-01
3.448000000000000000e+03 4.548513793945312500e+01 -1.083276844024658203e+01 2.018159627914428711e+00 8.179238319396972656e+00 3.059219360351562500e+00 -7.240863442420959473e-01
3.449000000000000000e+03 4.626943969726562500e+01 -5.193108081817626953e+00 2.349920272827148438e+00 7.937855720520019531e+00 3.086332798004150391e+00 3.040432631969451904e-01
3.450000000000000000e+03 4.739378356933593750e+01 -4.527766227722167969e+00 2.086937665939331055e+00 7.859865665435791016e+00 2.984040975570678711e+00 3.846696913242340088e-01
3.451000000000000000e+03 4.363293838500976562e+01 -2.319738864898681641e+00 2.214708805084228516e+00 8.410661697387695312e+00 3.187611103057861328e+00 8.875135779380798340e-01
3.452000000000000000e+03 4.250843811035156250e+01 -1.574708461761474609e+01 7.461576461791992188e-01 8.854167938232421875e+00 2.880097627639770508e+00 -9.586954116821289062e-01
3.453000000000000000e+03 4.376933288574218750e+01 -2.591043710708618164e-01 1.649315595626831055e+00 8.514520645141601562e+00 3.049150943756103516e+00 1.026001334190368652e+00
3.454000000000000000e+03 4.404133987426757812e+01 -1.094306850433349609e+01 2.186464548110961914e+00 8.388584136962890625e+00 3.172514677047729492e+00 -8.344305157661437988e-01
3.455000000000000000e+03 4.603411865234375000e+01 -9.689694404602050781e+00 2.174199104309082031e+00 8.036704063415527344e+00 3.063270807266235352e+00 -5.173184275627136230e-01
3.456000000000000000e+03 4.248858642578125000e+01 -1.876517176628112793e+00 2.237937927246093750e+00 8.685945510864257812e+00 3.277165174484252930e+00 1.021108269691467285e+00
3.457000000000000000e+03 4.424094390869140625e+01 -3.115041017532348633e+00 2.346891641616821289e+00 8.266586303710937500e+00 3.184043169021606445e+00 7.526686787605285645e-01
3.458000000000000000e+03 4.613625717163085938e+01 -1.364824104309082031e+01 1.353979825973510742e+00 8.274265289306640625e+00 2.888473510742187500e+00 -9.035244584083557129e-01
3.459000000000000000e+03 4.661963653564453125e+01 -3.578027963638305664e+00 2.108207702636718750e+00 7.956699848175048828e+00 3.019472360610961914e+00 5.529742240905761719e-01
3.460000000000000000e+03 4.557631683349609375e+01 -6.674115657806396484e+00 2.535665512084960938e+00 7.978750228881835938e+00 3.154324531555175781e+00 2.934346348047256470e-02
3.461000000000000000e+03 4.476396560668945312e+01 -6.909083843231201172e+00 2.735171079635620117e+00 8.081909179687500000e+00 3.245124101638793945e+00 -1.987819001078605652e-02
3.462000000000000000e+03 4.503686904907226562e+01 1.978036761283874512e+00 1.048317432403564453e+00 8.369845390319824219e+00 2.825448751449584961e+00 9.957739710807800293e-01
3.463000000000000000e+03 4.326165390014648438e+01 -1.401594638824462891e+01 1.269018292427062988e+00 8.735804557800292969e+00 3.001446723937988281e+00 -1.036199927330017090e+00
3.464000000000000000e+03 4.237602615356445312e+01 -1.671623611450195312e+01 4.556920528411865234e-01 8.827671051025390625e+00 2.785008907318115234e+00 -8.711391687393188477e-01
3.465000000000000000e+03 4.696011352539062500e+01 -1.889340972900390625e+01 2.698302567005157471e-01 8.302600860595703125e+00 2.571729421615600586e+00 -8.365576863288879395e-01
3.466000000000000000e+03 4.754643249511718750e+01 -1.650400924682617188e+01 7.119938731193542480e-01 8.230888366699218750e+00 2.682864665985107422e+00 -8.853296637535095215e-01
3.467000000000000000e+03 4.335488510131835938e+01 -1.044574451446533203e+01 2.409521579742431641e+00 8.470449447631835938e+00 3.263991117477416992e+00 -8.189864754676818848e-01
3.468000000000000000e+03 4.334950256347656250e+01 -1.157081508636474609e+01 2.051890611648559570e+00 8.575707435607910156e+00 3.188279390335083008e+00 -9.610724449157714844e-01
3.469000000000000000e+03 4.335557174682617188e+01 -8.838109016418457031e+00 2.834031343460083008e+00 8.348359107971191406e+00 3.354717016220092773e+00 -5.479958653450012207e-01
3.470000000000000000e+03 4.270093917846679688e+01 -1.039939212799072266e+01 2.544377088546752930e+00 8.598819732666015625e+00 3.342959165573120117e+00 -8.736499547958374023e-01
3.471000000000000000e+03 4.196668243408203125e+01 -3.177434921264648438e+00 2.745142221450805664e+00 8.707717895507812500e+00 3.435858011245727539e+00 9.072750210762023926e-01
3.472000000000000000e+03 4.177811431884765625e+01 -9.848206639289855957e-01 1.887292861938476562e+00 8.901527404785156250e+00 3.236645936965942383e+00 1.082815408706665039e+00
3.473000000000000000e+03 4.352726364135742188e+01 -7.295236587524414062e+00 2.970890522003173828e+00 8.236912727355957031e+00 3.362340927124023438e+00 -1.404231637716293335e-01
3.474000000000000000e+03 4.256700897216796875e+01 -4.003218173980712891e+00 2.905343294143676758e+00 8.499957084655761719e+00 3.421590089797973633e+00 7.127144336700439453e-01
3.475000000000000000e+03 4.383406829833984375e+01 -1.238603782653808594e+01 1.754741549491882324e+00 8.532146453857421875e+00 3.086066246032714844e+00 -9.758458733558654785e-01
3.476000000000000000e+03 4.282067871093750000e+01 -2.710839271545410156e+00 2.436167001724243164e+00 8.556081771850585938e+00 3.297674655914306641e+00 9.004099369049072266e-01
3.477000000000000000e+03 4.425627136230468750e+01 -9.590558052062988281e+00 2.509526014328002930e+00 8.253064155578613281e+00 3.228776931762695312e+00 -6.281039118766784668e-01
3.478000000000000000e+03 4.417769241333007812e+01 -8.805936813354492188e+00 2.658819675445556641e+00 8.219905853271484375e+00 3.263617753982543945e+00 -4.929067194461822510e-01
3.479000000000000000e+03 4.320895767211914062e+01 -4.715406894683837891e+00 2.894219160079956055e+00 8.338342666625976562e+00 3.369768381118774414e+00 5.142851471900939941e-01
3.480000000000000000e+03 4.312790679931640625e+01 -5.811126708984375000e+00 3.064727306365966797e+00 8.293979644775390625e+00 3.407612085342407227e+00 2.457818239927291870e-01
3.481000000000000000e+03 4.573279190063476562e+01 -4.003522396087646484e+00 2.297579526901245117e+00 8.034625053405761719e+00 3.099661350250244141e+00 5.371672511100769043e-01
3.482000000000000000e+03 4.662164306640625000e+01 -6.504388809204101562e+00 2.330263614654541016e+00 7.897294521331787109e+00 3.068267345428466797e+00 5.205954983830451965e-02
3.483000000000000000e+03 4.386020660400390625e+01 -1.183260202407836914e+00 1.907889127731323242e+00 8.455422401428222656e+00 3.108993530273437500e+00 9.810241460800170898e-01
3.484000000000000000e+03 4.463595199584960938e+01 -1.224609613418579102e+00 1.857665538787841797e+00 8.315319061279296875e+00 3.051895380020141602e+00 9.325545430183410645e-01
3.485000000000000000e+03 4.505895996093750000e+01 -9.525519371032714844e+00 2.374025583267211914e+00 8.135665893554687500e+00 3.152907609939575195e+00 -5.440438389778137207e-01
3.486000000000000000e+03 4.472454452514648438e+01 -1.169105339050292969e+01 1.890133738517761230e+00 8.341054916381835938e+00 3.069356679916381836e+00 -8.677011728286743164e-01
3.487000000000000000e+03 4.329780578613281250e+01 -1.696060752868652344e+01 4.852137863636016846e-01 8.723885536193847656e+00 2.762729883193969727e+00 -8.895282149314880371e-01
3.488000000000000000e+03 4.348617553710937500e+01 -1.584643745422363281e+01 7.628211379051208496e-01 8.730970382690429688e+00 2.848137378692626953e+00 -9.759587049484252930e-01
3.489000000000000000e+03 4.450968170166015625e+01 -1.604257774353027344e+01 7.543515563011169434e-01 8.555126190185546875e+00 2.792843341827392578e+00 -9.503202438354492188e-01
3.490000000000000000e+03 4.471168899536132812e+01 -4.057215690612792969e+00 2.481566429138183594e+00 8.140014648437500000e+00 3.186474323272705078e+00 5.676301717758178711e-01
3.491000000000000000e+03 4.545586013793945312e+01 -1.601509690284729004e+00 1.876049518585205078e+00 8.180826187133789062e+00 3.017062902450561523e+00 8.515328168869018555e-01
3.492000000000000000e+03 4.318425750732421875e+01 -1.555584788322448730e+00 2.057238817214965820e+00 8.544137954711914062e+00 3.180413007736206055e+00 9.924824833869934082e-01
3.493000000000000000e+03 4.581133270263671875e+01 -6.061276793479919434e-01 1.627570509910583496e+00 8.189838409423828125e+00 2.945222854614257812e+00 9.083727598190307617e-01
3.494000000000000000e+03 4.411271667480468750e+01 -8.099669456481933594e+00 2.767102956771850586e+00 8.209787368774414062e+00 3.293067216873168945e+00 -3.531419038772583008e-01
3.495000000000000000e+03 4.449392700195312500e+01 -4.882465362548828125e+00 2.627716779708862305e+00 8.135114669799804688e+00 3.228849411010742188e+00 4.005838632583618164e-01
3.496000000000000000e+03 4.682757186889648438e+01 -1.501023960113525391e+01 1.017893314361572266e+00 8.255370140075683594e+00 2.781978845596313477e+00 -9.042313098907470703e-01
3.497000000000000000e+03 4.401462173461914062e+01 -1.498545169830322266e+01 1.007802486419677734e+00 8.625354766845703125e+00 2.889947175979614258e+00 -9.908387064933776855e-01
3.498000000000000000e+03 4.514129638671875000e+01 -1.798588180541992188e+01 3.766444623470306396e-01 8.482744216918945312e+00 2.657816648483276367e+00 -8.730201721191406250e-01
3.499000000000000000e+03 4.496699523925781250e+01 -2.491638898849487305e+00 2.130805492401123047e+00 8.198594093322753906e+00 3.098819732666015625e+00 7.864243984222412109e-01
3.500000000000000000e+03 4.429741287231445312e+01 -6.164248943328857422e+00 2.827594280242919922e+00 8.124443054199218750e+00 3.285611152648925781e+00 1.247539669275283813e-01
3.501000000000000000e+03 4.388058090209960938e+01 -4.276847839355468750e+00 2.716540098190307617e+00 8.264283180236816406e+00 3.294247150421142578e+00 5.853931903839111328e-01
3.502000000000000000e+03 4.427143096923828125e+01 -1.863090038299560547e+00 2.078974246978759766e+00 8.341200828552246094e+00 3.126052618026733398e+00 8.970680236816406250e-01
3.503000000000000000e+03 4.564821624755859375e+01 -1.570640563964843750e+01 8.479055166244506836e-01 8.423944473266601562e+00 2.781555175781250000e+00 -9.408735632896423340e-01
3.504000000000000000e+03 4.765824508666992188e+01 -2.064853668212890625e+01 4.662625119090080261e-02 8.246302604675292969e+00 2.487878561019897461e+00 -7.717581987380981445e-01
3.505000000000000000e+03 4.832115554809570312e+01 -1.806803512573242188e+01 4.459498524665832520e-01 8.199485778808593750e+00 2.593630552291870117e+00 -8.514899611473083496e-01
3.506000000000000000e+03 4.609268188476562500e+01 5.301650166511535645e-01 1.367753744125366211e+00 8.198947906494140625e+00 2.870010375976562500e+00 9.493429660797119141e-01
3.507000000000000000e+03 4.473545837402343750e+01 -7.945337295532226562e+00 2.571978569030761719e+00 8.105090141296386719e+00 3.203120708465576172e+00 -2.711044847965240479e-01
3.508000000000000000e+03 5.185913848876953125e+01 -1.757615661621093750e+01 5.256476402282714844e-01 7.957252979278564453e+00 2.544870138168334961e+00 -7.642646431922912598e-01
3.509000000000000000e+03 5.162921524047851562e+01 -2.035965728759765625e+01 1.848515868186950684e-01 8.034934043884277344e+00 2.465935707092285156e+00 -7.630575299263000488e-01
3.510000000000000000e+03 5.018266677856445312e+01 -2.149841690063476562e+01 2.696396782994270325e-02 8.115310668945312500e+00 2.442682266235351562e+00 -7.518556118011474609e-01
3.511000000000000000e+03 7.058287048339843750e+01 3.407491302490234375e+01 -1.180646121501922607e-01 8.364963531494140625e+00 2.474069595336914062e+00 1.900512427091598511e-01
3.512000000000000000e+03 7.452736663818359375e+01 3.785742187500000000e+01 -7.131575047969818115e-02 8.647033691406250000e+00 2.572715520858764648e+00 8.727113902568817139e-02
3.513000000000000000e+03 7.146215820312500000e+01 3.257286071777343750e+01 -9.584751725196838379e-02 8.371654510498046875e+00 2.482742309570312500e+00 2.121496349573135376e-01
3.514000000000000000e+03 6.890681457519531250e+01 3.558385467529296875e+01 -1.620638072490692139e-01 8.277648925781250000e+00 2.434675693511962891e+00 1.800618618726730347e-01
3.515000000000000000e+03 3.902596282958984375e+01 -2.617181396484375000e+01 -8.498885631561279297e-01 7.744202136993408203e+00 2.068294048309326172e+00 8.836092054843902588e-02
3.516000000000000000e+03 4.379743957519531250e+01 -2.701207351684570312e+01 -7.440434694290161133e-01 8.032366752624511719e+00 2.186496973037719727e+00 -2.976812422275543213e-01
3.517000000000000000e+03 6.444754791259765625e+01 -3.110493278503417969e+01 -2.228679060935974121e-01 7.806267738342285156e+00 2.275019884109497070e+00 -3.811496496200561523e-01
3.518000000000000000e+03 6.981459808349609375e+01 -3.548223114013671875e+01 -1.580421775579452515e-01 7.775771141052246094e+00 2.285318613052368164e+00 -1.950048208236694336e-01
3.519000000000000000e+03 6.909332275390625000e+01 1.582824039459228516e+01 -4.061306640505790710e-02 7.873289108276367188e+00 2.349802732467651367e+00 5.644686818122863770e-01
3.520000000000000000e+03 6.204297637939453125e+01 1.722888565063476562e+01 -1.453512012958526611e-01 7.850733757019042969e+00 2.311614751815795898e+00 6.937272548675537109e-01
3.521000000000000000e+03 7.030992126464843750e+01 -3.816199493408203125e+01 -1.531250029802322388e-01 7.797114849090576172e+00 2.293196916580200195e+00 -1.192188337445259094e-01
3.522000000000000000e+03 5.946328353881835938e+01 1.105388832092285156e+01 6.387906521558761597e-02 7.773617744445800781e+00 2.351248979568481445e+00 7.955318689346313477e-01
3.523000000000000000e+03 5.872237396240234375e+01 1.432081699371337891e+01 -1.048556491732597351e-01 7.813274860382080078e+00 2.312525749206542969e+00 7.717026472091674805e-01
3.524000000000000000e+03 2.263446426391601562e+01 -2.917683029174804688e+01 -6.176613643765449524e-02 3.029750585556030273e+00 8.903953433036804199e-01 7.524716258049011230e-01
3.525000000000000000e+03 3.151969528198242188e+01 1.918987274169921875e+01 -5.151298046112060547e-01 5.409200668334960938e+00 1.468221187591552734e+00 -7.129908800125122070e-01
3.526000000000000000e+03 2.914882850646972656e+01 1.510156822204589844e+01 -2.865296602249145508e-01 4.973351955413818359e+00 1.406046628952026367e+00 -1.080438613891601562e+00
3.527000000000000000e+03 6.448141479492187500e+01 2.107205963134765625e+01 -1.825265735387802124e-01 7.926336765289306641e+00 2.323143005371093750e+00 5.965090394020080566e-01
3.528000000000000000e+03 5.290922164916992188e+01 -2.215853309631347656e+01 1.263417955487966537e-02 8.002994537353515625e+00 2.404688596725463867e+00 -7.179197072982788086e-01
3.529000000000000000e+03 1.805685997009277344e+01 -2.663104629516601562e+01 1.968634128570556641e-01 1.538098812103271484e+00 5.204886794090270996e-01 5.237242579460144043e-01
3.530000000000000000e+03 1.702320861816406250e+01 -2.995127296447753906e+01 1.537730693817138672e-01 1.575055241584777832e+00 5.186485052108764648e-01 3.546019494533538818e-01
3.531000000000000000e+03 1.466456985473632812e+01 -3.014731788635253906e+01 2.000031471252441406e-01 1.036322236061096191e+00 3.708976209163665771e-01 1.929984092712402344e-01
3.532000000000000000e+03 2.935397529602050781e+01 2.160130500793457031e+01 -4.518737494945526123e-01 4.807658195495605469e+00 1.306735396385192871e+00 -6.853104233741760254e-01
3.533000000000000000e+03 4.980393981933593750e+01 -2.458750724792480469e+01 -3.036337792873382568e-01 8.115689277648925781e+00 2.343616724014282227e+00 -6.451656222343444824e-01
3.534000000000000000e+03 4.069777679443359375e+01 1.408860015869140625e+01 -6.297163367271423340e-01 7.470988750457763672e+00 2.052381753921508789e+00 -8.256069268099963665e-04
3.535000000000000000e+03 4.094004821777343750e+01 1.596831607818603516e+01 -6.711615324020385742e-01 7.305938243865966797e+00 1.990432977676391602e+00 1.636473461985588074e-04
3.536000000000000000e+03 6.021265029907226562e+00 3.814849472045898438e+01 -1.318810740485787392e-03 4.602110087871551514e-01 1.376676559448242188e-01 -1.294970046728849411e-02
3.537000000000000000e+03 1.584910392761230469e+01 2.978983306884765625e+01 -9.128701686859130859e-02 1.924499630928039551e+00 5.499637722969055176e-01 -3.380073904991149902e-01
3.538000000000000000e+03 3.750503540039062500e+01 -2.779783058166503906e+01 -8.951360583305358887e-01 7.286329746246337891e+00 1.917358160018920898e+00 2.871762216091156006e-01
3.539000000000000000e+03 1.116627883911132812e+01 -3.443479537963867188e+01 1.300156414508819580e-01 6.418129801750183105e-01 2.315485924482345581e-01 4.646445810794830322e-02
3.540000000000000000e+03 2.736268806457519531e+01 1.622535896301269531e+01 -1.955243796110153198e-01 4.430895805358886719e+00 1.270611405372619629e+00 -1.004481673240661621e+00
3.541000000000000000e+03 1.640574073791503906e+01 -2.762580871582031250e+01 2.289858758449554443e-01 1.194943308830261230e+00 4.271787703037261963e-01 3.852451145648956299e-01
3.542000000000000000e+03 7.601985931396484375e+01 -3.663206481933593750e+01 -2.941658161580562592e-02 7.791013717651367188e+00 2.328479051589965820e+00 -7.984738796949386597e-02
3.543000000000000000e+03 1.205882644653320312e+01 2.707707786560058594e+01 4.766726866364479065e-02 1.098000526428222656e+00 3.437003493309020996e-01 -2.897170484066009521e-01
3.544000000000000000e+03 6.979205322265625000e+01 3.226000213623046875e+01 -1.476175338029861450e-01 8.300987243652343750e+00 2.446010828018188477e+00 2.556486129760742188e-01
3.545000000000000000e+03 3.934283828735351562e+01 1.629521369934082031e+01 -6.855328083038330078e-01 7.113838672637939453e+00 1.928491830825805664e+00 -1.503609567880630493e-01
3.546000000000000000e+03 3.615613937377929688e+01 1.992166709899902344e+01 -6.844899058341979980e-01 6.318394184112548828e+00 1.690171360969543457e+00 -3.727788925170898438e-01
3.547000000000000000e+03 5.143441009521484375e+01 -2.348748970031738281e+01 -1.373658031225204468e-01 8.064625740051269531e+00 2.378178119659423828e+00 -6.973762512207031250e-01
3.548000000000000000e+03 5.798041152954101562e+01 -2.647156524658203125e+01 -2.040898501873016357e-01 7.892365455627441406e+00 2.306482791900634766e+00 -5.595440268516540527e-01
3.549000000000000000e+03 5.518722152709960938e+01 1.565382289886474609e+01 -2.291058748960494995e-01 7.802067279815673828e+00 2.271888494491577148e+00 7.436354160308837891e-01
3.550000000000000000e+03 4.757621765136718750e+01 1.606243133544921875e+01 -4.771095514297485352e-01 7.711389541625976562e+00 2.170284032821655273e+00 5.198015570640563965e-01
3.551000000000000000e+03 2.391779708862304688e+01 2.016473770141601562e+01 -1.655042171478271484e-01 3.563341856002807617e+00 1.019351243972778320e+00 -7.785109281539916992e-01
3.552000000000000000e+03 4.652967834472656250e+01 -2.659015274047851562e+01 -5.838873386383056641e-01 8.104825019836425781e+00 2.256281375885009766e+00 -4.702528417110443115e-01
3.553000000000000000e+03 2.955972480773925781e+01 1.924569320678710938e+01 -4.118800461292266846e-01 4.915748119354248047e+00 1.351160407066345215e+00 -7.969198822975158691e-01
3.554000000000000000e+03 2.659513282775878906e+01 2.011224365234375000e+01 -2.794443666934967041e-01 4.217781066894531250e+00 1.181500911712646484e+00 -8.010107278823852539e-01
3.555000000000000000e+03 6.264196777343750000e+01 2.020253562927246094e+01 -1.995187103748321533e-01 7.885780334472656250e+00 2.305878639221191406e+00 6.322522759437561035e-01
3.556000000000000000e+03 6.350840759277343750e+01 -3.387790298461914062e+01 -3.096680343151092529e-01 7.854238986968994141e+00 2.263371229171752930e+00 -3.173636496067047119e-01
3.557000000000000000e+03 5.639514923095703125e+01 1.851310348510742188e+01 -3.148581385612487793e-01 7.790259361267089844e+00 2.242620468139648438e+00 6.789475083351135254e-01
3.558000000000000000e+03 8.167272567749023438e+00 -4.094062042236328125e+01 3.991530835628509521e-02 1.576710045337677002e-01 5.927589163184165955e-02 -2.584904059767723083e-02
3.559000000000000000e+03 1.350443172454833984e+01 -3.256861495971679688e+01 1.492877453565597534e-01 9.184055924415588379e-01 3.203079998493194580e-01 1.319405734539031982e-01
3.560000000000000000e+03 1.254509067535400391e+01 -2.912108993530273438e+01 2.221821993589401245e-01 5.527170896530151367e-01 2.324697822332382202e-01 6.546839326620101929e-02
3.561000000000000000e+03 1.134399414062500000e+01 3.202331924438476562e+01 -1.032517012208700180e-02 1.167129635810852051e+00 3.470413386821746826e-01 -1.777880191802978516e-01
3.562000000000000000e+03 1.276759910583496094e+01 3.746742630004882812e+01 -1.080457642674446106e-01 1.526222348213195801e+00 4.254530072212219238e-01 -1.112430840730667114e-01
3.563000000000000000e+03 2.088452148437500000e+01 2.765312767028808594e+01 -2.304619550704956055e-01 2.929198741912841797e+00 8.096210360527038574e-01 -4.817270040512084961e-01
3.564000000000000000e+03 8.128355979919433594e+00 4.098242568969726562e+01 -4.019731655716896057e-02 7.375602126121520996e-01 2.092088758945465088e-01 -6.273102946579456329e-03
3.565000000000000000e+03 2.565858268737792969e+01 2.975860023498535156e+01 -4.213992059230804443e-01 3.907751321792602539e+00 1.045905590057373047e+00 -4.299233853816986084e-01
3.566000000000000000e+03 1.253213024139404297e+01 -3.719711303710937500e+01 6.458951532840728760e-02 9.672812819480895996e-01 3.095612227916717529e-01 5.258664488792419434e-02
3.567000000000000000e+03 2.326841545104980469e+01 -3.739528656005859375e+01 -3.011113703250885010e-01 3.389785528182983398e+00 9.266022443771362305e-01 2.621203064918518066e-01
3.568000000000000000e+03 3.613507080078125000e+01 -3.650375366210937500e+01 -9.735773801803588867e-01 6.545668125152587891e+00 1.671627163887023926e+00 1.768809407949447632e-01
3.569000000000000000e+03 4.334373092651367188e+01 3.699033355712890625e+01 -7.722762227058410645e-01 6.541744232177734375e+00 1.730840325355529785e+00 1.519192568957805634e-02
3.570000000000000000e+03 4.753644561767578125e+01 3.710974121093750000e+01 -7.388425469398498535e-01 6.971529960632324219e+00 1.869806170463562012e+00 7.980539649724960327e-02
3.571000000000000000e+03 3.698238372802734375e+01 3.650885391235351562e+01 -7.494199275970458984e-01 5.790925025939941406e+00 1.512451648712158203e+00 -8.103524148464202881e-02
3.572000000000000000e+03 5.874505233764648438e+01 -3.465341567993164062e+01 -4.924285411834716797e-01 7.938114166259765625e+00 2.233705759048461914e+00 -3.008399903774261475e-01
3.573000000000000000e+03 5.649029541015625000e+01 3.619434356689453125e+01 -5.275833606719970703e-01 7.629533290863037109e+00 2.130584955215454102e+00 1.776840984821319580e-01
3.574000000000000000e+03 6.664831542968750000e+01 -3.786979293823242188e+01 -2.609228491783142090e-01 7.834684848785400391e+00 2.272128582000732422e+00 -1.495265960693359375e-01
3.575000000000000000e+03 6.573719024658203125e+01 3.649374389648437500e+01 -2.442413717508316040e-01 8.116202354431152344e+00 2.361588239669799805e+00 1.753710210323333740e-01
3.576000000000000000e+03 7.161708831787109375e+01 -4.100933074951171875e+01 -1.140160709619522095e-01 7.800076961517333984e+00 2.305818319320678711e+00 -3.637187182903289795e-02
3.577000000000000000e+03 1.887393951416015625e+01 3.399931335449218750e+01 -2.291158735752105713e-01 2.650173187255859375e+00 7.263171672821044922e-01 -2.712787389755249023e-01
3.578000000000000000e+03 2.338453865051269531e+01 3.698938751220703125e+01 -3.948925137519836426e-01 3.431753635406494141e+00 9.110583662986755371e-01 -1.695654839277267456e-01
3.579000000000000000e+03 1.611535835266113281e+01 3.583128356933593750e+01 -1.618641763925552368e-01 2.058819770812988281e+00 5.690866708755493164e-01 -1.441048532724380493e-01
3.580000000000000000e+03 6.770771789550781250e+01 3.279326248168945312e+01 -2.114967256784439087e-01 8.167240142822265625e+00 2.386723041534423828e+00 2.684534192085266113e-01
3.581000000000000000e+03 1.918522644042968750e+01 -2.871411132812500000e+01 1.106595322489738464e-01 2.093778133392333984e+00 6.613313555717468262e-01 5.798259377479553223e-01
3.582000000000000000e+03 6.573960876464843750e+01 2.364177894592285156e+01 -1.815657764673233032e-01 7.992298603057861328e+00 2.343219757080078125e+00 5.132645368576049805e-01
3.583000000000000000e+03 6.088257598876953125e+01 1.911044502258300781e+01 -2.165088802576065063e-01 7.853333473205566406e+00 2.291047334671020508e+00 6.681336164474487305e-01
3.584000000000000000e+03 3.396417236328125000e+01 2.089167404174804688e+01 -6.273221373558044434e-01 5.829524517059326172e+00 1.560660839080810547e+00 -5.025981068611145020e-01
3.585000000000000000e+03 6.084820938110351562e+01 -2.618804168701171875e+01 -1.347631514072418213e-01 7.818483829498291016e+00 2.305116176605224609e+00 -5.260010957717895508e-01
3.586000000000000000e+03 3.713067245483398438e+01 -3.169858360290527344e+01 -9.548478126525878906e-01 6.884355068206787109e+00 1.778852224349975586e+00 2.520303428173065186e-01
3.587000000000000000e+03 3.914713287353515625e+01 -2.977245903015136719e+01 -9.509266614913940430e-01 7.388424873352050781e+00 1.931249380111694336e+00 1.043497025966644287e-01
3.588000000000000000e+03 4.629344177246093750e+01 1.538759899139404297e+01 -4.909540116786956787e-01 7.717932701110839844e+00 2.168093681335449219e+00 4.769383370876312256e-01
3.589000000000000000e+03 6.161307907104492188e+01 2.239170837402343750e+01 -2.741052806377410889e-01 7.882412910461425781e+00 2.282492160797119141e+00 5.931476354598999023e-01
3.590000000000000000e+03 4.898204803466796875e+01 1.392709732055664062e+01 -3.345000445842742920e-01 7.831823348999023438e+00 2.249197006225585938e+00 6.479160785675048828e-01
3.591000000000000000e+03 4.416352462768554688e+01 1.888034057617187500e+01 -6.745314002037048340e-01 7.346861362457275391e+00 2.001698970794677734e+00 2.134925872087478638e-01
3.592000000000000000e+03 5.093614959716796875e+01 1.853998565673828125e+01 -4.725237786769866943e-01 7.680744647979736328e+00 2.162466287612915039e+00 5.674191117286682129e-01
3.593000000000000000e+03 5.731167602539062500e+01 1.636038017272949219e+01 -2.075663506984710693e-01 7.811310291290283203e+00 2.281123161315917969e+00 7.401094436645507812e-01
3.594000000000000000e+03 4.265884017944335938e+01 -2.922669410705566406e+01 -8.836151361465454102e-01 7.816868305206298828e+00 2.079976081848144531e+00 -1.455620527267456055e-01
3.595000000000000000e+03 4.730059432983398438e+01 -2.839133644104003906e+01 -6.722050309181213379e-01 8.028300285339355469e+00 2.206828594207763672e+00 -4.242202937602996826e-01
3.596000000000000000e+03 4.919648361206054688e+01 -2.783134460449218750e+01 -5.662164688110351562e-01 8.050676345825195312e+00 2.245337963104248047e+00 -4.980129301548004150e-01
3.597000000000000000e+03 1.194796848297119141e+01 3.456894683837890625e+01 -5.443879961967468262e-02 1.320997476577758789e+00 3.799676001071929932e-01 -1.664527058601379395e-01
3.598000000000000000e+03 5.633643722534179688e+01 -2.537637901306152344e+01 -1.855291277170181274e-01 7.927180290222167969e+00 2.322495460510253906e+00 -6.143593788146972656e-01
3.599000000000000000e+03 2.857461738586425781e+01 1.681698417663574219e+01 -2.908978760242462158e-01 4.752782344818115234e+00 1.338565349578857422e+00 -9.642105698585510254e-01
3.600000000000000000e+03 4.136864089965820312e+01 1.807304382324218750e+01 -7.016529440879821777e-01 7.164554595947265625e+00 1.938870549201965332e+00 3.381290659308433533e-02
3.601000000000000000e+03 3.761539459228515625e+01 1.832946777343750000e+01 -7.043148279190063477e-01 6.669269084930419922e+00 1.789486289024353027e+00 -2.791527211666107178e-01
3.602000000000000000e+03 5.298805236816406250e+01 -2.577601242065429688e+01 -2.938639819622039795e-01 8.018034934997558594e+00 2.317251205444335938e+00 -6.260436773300170898e-01
3.603000000000000000e+03 5.451844787597656250e+01 -2.408930778503417969e+01 -1.264071464538574219e-01 7.967556476593017578e+00 2.352344751358032227e+00 -6.593937277793884277e-01
3.604000000000000000e+03 4.129721069335937500e+01 -3.170527458190917969e+01 -9.717528223991394043e-01 7.550368309020996094e+00 1.973584651947021484e+00 -1.830965466797351837e-02
3.605000000000000000e+03 4.745287322998046875e+01 -3.081773185729980469e+01 -7.722518444061279297e-01 7.946462631225585938e+00 2.152263164520263672e+00 -3.384078145027160645e-01
3.606000000000000000e+03 2.762992477416992188e+01 -3.426032638549804688e+01 -5.197519659996032715e-01 4.570358753204345703e+00 1.215181946754455566e+00 4.990446865558624268e-01
3.607000000000000000e+03 3.123277854919433594e+01 -3.402114105224609375e+01 -7.399923801422119141e-01 5.549859046936035156e+00 1.442960023880004883e+00 4.413914382457733154e-01
3.608000000000000000e+03 2.062238121032714844e+01 -3.344985961914062500e+01 -8.373748511075973511e-02 2.628218173980712891e+00 7.633441686630249023e-01 4.487970769405364990e-01
3.609000000000000000e+03 1.584807300567626953e+01 -3.491750335693359375e+01 6.199543178081512451e-02 1.529875516891479492e+00 4.775612652301788330e-01 1.790593862533569336e-01
3.610000000000000000e+03 6.052873229980468750e+01 -3.214768600463867188e+01 -3.562971651554107666e-01 7.894094467163085938e+00 2.261339187622070312e+00 -3.854279816150665283e-01
3.611000000000000000e+03 5.629562759399414062e+01 -3.153213310241699219e+01 -5.029907822608947754e-01 7.964144229888916016e+00 2.238346099853515625e+00 -4.277269244194030762e-01
3.612000000000000000e+03 1.899236488342285156e+01 3.695085144042968750e+01 -2.510148286819458008e-01 2.604893684387207031e+00 7.061636447906494141e-01 -1.787825822830200195e-01
3.613000000000000000e+03 2.049250793457031250e+01 -3.083795738220214844e+01 3.706893185153603554e-03 2.542700529098510742e+00 7.639222145080566406e-01 5.693016648292541504e-01
3.614000000000000000e+03 3.188242149353027344e+01 2.396901512145996094e+01 -5.885077714920043945e-01 5.261838912963867188e+00 1.401999235153198242e+00 -5.069914460182189941e-01
3.615000000000000000e+03 6.678506469726562500e+01 -3.491572952270507812e+01 -2.404936850070953369e-01 7.813780784606933594e+00 2.271986246109008789e+00 -2.464065104722976685e-01
3.616000000000000000e+03 6.495319366455078125e+01 3.304674530029296875e+01 -2.848237752914428711e-01 8.050458908081054688e+00 2.329690456390380859e+00 2.765282094478607178e-01
3.617000000000000000e+03 5.968908691406250000e+01 -2.813510131835937500e+01 -2.361857593059539795e-01 7.873582363128662109e+00 2.291218996047973633e+00 -5.101630687713623047e-01
3.618000000000000000e+03 3.988977813720703125e+01 2.140109252929687500e+01 -7.319966554641723633e-01 6.752473831176757812e+00 1.806143045425415039e+00 -9.278264641761779785e-02
3.619000000000000000e+03 5.112662887573242188e+01 -2.694692611694335938e+01 -4.424846470355987549e-01 8.044901847839355469e+00 2.280725240707397461e+00 -5.700896978378295898e-01
3.620000000000000000e+03 3.331707382202148438e+01 -3.026610946655273438e+01 -8.160547614097595215e-01 6.204795360565185547e+00 1.616622209548950195e+00 5.454600453376770020e-01
3.621000000000000000e+03 4.891487503051757812e+01 1.860571479797363281e+01 -5.272279977798461914e-01 7.634551048278808594e+00 2.132196903228759766e+00 4.949171245098114014e-01
3.622000000000000000e+03 4.914370727539062500e+01 1.612782669067382812e+01 -4.296043217182159424e-01 7.740660667419433594e+00 2.193316936492919922e+00 5.788965821266174316e-01
3.623000000000000000e+03 4.229413986206054688e+01 2.038298797607421875e+01 -7.212277650833129883e-01 7.106958389282226562e+00 1.915719270706176758e+00 7.576185464859008789e-02
3.624000000000000000e+03 5.457538223266601562e+01 -2.852176094055175781e+01 -4.137324392795562744e-01 7.984003067016601562e+00 2.271081209182739258e+00 -5.349954962730407715e-01
3.625000000000000000e+03 2.642496299743652344e+01 2.673993873596191406e+01 -4.215906560420989990e-01 4.104896545410156250e+00 1.104991793632507324e+00 -5.273908972740173340e-01
3.626000000000000000e+03 5.330049896240234375e+01 2.075676918029785156e+01 -4.680252671241760254e-01 7.691420078277587891e+00 2.167018413543701172e+00 5.649482011795043945e-01
3.627000000000000000e+03 5.514496612548828125e+01 1.992486572265625000e+01 -3.900310993194580078e-01 7.748755931854248047e+00 2.207617521286010742e+00 6.194263100624084473e-01
3.628000000000000000e+03 3.941576385498046875e+01 1.865941810607910156e+01 -7.185429334640502930e-01 6.880085468292236328e+00 1.848462700843811035e+00 -1.429524272680282593e-01
3.629000000000000000e+03 3.722569656372070312e+01 2.242046928405761719e+01 -7.176461219787597656e-01 6.311799049377441406e+00 1.678245782852172852e+00 -2.583097219467163086e-01
3.630000000000000000e+03 6.501800537109375000e+01 3.027543067932128906e+01 -2.833538055419921875e-01 8.022803306579589844e+00 2.321834802627563477e+00 3.621790409088134766e-01
3.631000000000000000e+03 5.160810089111328125e+01 -3.712267303466796875e+01 -8.174743056297302246e-01 7.935272216796875000e+00 2.135339260101318359e+00 -1.877272874116897583e-01
3.632000000000000000e+03 4.490835189819335938e+01 -3.037098503112792969e+01 -8.519665598869323730e-01 7.883865356445312500e+00 2.109569549560546875e+00 -2.394798398017883301e-01
3.633000000000000000e+03 3.069630432128906250e+01 -3.099234199523925781e+01 -6.790897250175476074e-01 5.513793945312500000e+00 1.450411200523376465e+00 6.574130654335021973e-01
3.634000000000000000e+03 2.877345657348632812e+01 3.013922882080078125e+01 -5.372919440269470215e-01 4.496588230133056641e+00 1.187788844108581543e+00 -3.655582666397094727e-01
3.635000000000000000e+03 5.243745803833007812e+01 -2.970055198669433594e+01 -5.546417236328125000e-01 8.007662773132324219e+00 2.235906362533569336e+00 -4.870676696300506592e-01
3.636000000000000000e+03 5.387121200561523438e+01 -3.285102462768554688e+01 -6.231447458267211914e-01 7.978116512298583984e+00 2.206491708755493164e+00 -3.812859058380126953e-01
3.637000000000000000e+03 2.782999610900878906e+01 -3.115934944152832031e+01 -4.693205952644348145e-01 4.624686717987060547e+00 1.246609807014465332e+00 7.008966803550720215e-01
3.638000000000000000e+03 3.203278350830078125e+01 2.682491302490234375e+01 -6.163022518157958984e-01 5.181477069854736328e+00 1.369552493095397949e+00 -4.018959403038024902e-01
3.639000000000000000e+03 2.931425857543945312e+01 2.417894363403320312e+01 -4.960220754146575928e-01 4.734096050262451172e+00 1.271422147750854492e+00 -5.744645595550537109e-01
3.640000000000000000e+03 3.167617988586425781e+01 2.143158531188964844e+01 -5.544241666793823242e-01 5.338511466979980469e+00 1.435226202011108398e+00 -6.121026277542114258e-01
3.641000000000000000e+03 6.140148162841796875e+01 3.235757064819335938e+01 -3.797045648097991943e-01 7.882902145385742188e+00 2.250959157943725586e+00 3.062530755996704102e-01
3.642000000000000000e+03 6.297330474853515625e+01 2.760649108886718750e+01 -2.799467742443084717e-01 7.941912174224853516e+00 2.298589468002319336e+00 4.487396180629730225e-01
3.643000000000000000e+03 6.251911926269531250e+01 2.971936988830566406e+01 -3.467189669609069824e-01 7.931778430938720703e+00 2.275517702102661133e+00 3.881923854351043701e-01
3.644000000000000000e+03 5.818555068969726562e+01 -2.993202018737792969e+01 -3.725000619888305664e-01 7.929544448852539062e+00 2.267113447189331055e+00 -4.714822769165039062e-01
3.645000000000000000e+03 3.187916755676269531e+01 -3.732809448242187500e+01 -7.991235256195068359e-01 5.610130310058593750e+00 1.443302154541015625e+00 2.447209656238555908e-01
3.646000000000000000e+03 5.004850387573242188e+01 -3.052860069274902344e+01 -6.762294769287109375e-01 7.985010623931884766e+00 2.192634344100952148e+00 -4.232538938522338867e-01
3.647000000000000000e+03 4.702618789672851562e+01 1.811872482299804688e+01 -5.613896250724792480e-01 7.606176376342773438e+00 2.113435983657836914e+00 4.339937567710876465e-01
3.648000000000000000e+03 5.822738647460937500e+01 2.391413307189941406e+01 -3.879844844341278076e-01 7.796189785003662109e+00 2.222461700439453125e+00 5.425564646720886230e-01
3.649000000000000000e+03 5.637532424926757812e+01 2.185182189941406250e+01 -4.066379070281982422e-01 7.752796649932861328e+00 2.203847646713256836e+00 5.855180621147155762e-01
3.650000000000000000e+03 5.295786666870117188e+01 1.822970008850097656e+01 -3.974704742431640625e-01 7.736846923828125000e+00 2.201812982559204102e+00 6.325476169586181641e-01
3.651000000000000000e+03 3.454581069946289062e+01 2.340614128112792969e+01 -6.705134510993957520e-01 5.787528038024902344e+00 1.535104393959045410e+00 -3.983751833438873291e-01
3.652000000000000000e+03 3.214095687866210938e+01 3.000007057189941406e+01 -6.452071666717529297e-01 5.135707855224609375e+00 1.347150206565856934e+00 -3.054051995277404785e-01
3.653000000000000000e+03 3.245050048828125000e+01 3.704925155639648438e+01 -6.594157218933105469e-01 5.067334651947021484e+00 1.322375655174255371e+00 -1.138234138488769531e-01
3.654000000000000000e+03 5.504631042480468750e+01 3.180422973632812500e+01 -5.591521263122558594e-01 7.586348056793212891e+00 2.108158826828002930e+00 2.858418524265289307e-01
3.655000000000000000e+03 3.802895736694335938e+01 2.541306304931640625e+01 -7.443522810935974121e-01 6.257910728454589844e+00 1.654067516326904297e+00 -1.718577146530151367e-01
3.656000000000000000e+03 5.431962585449218750e+01 2.342837715148925781e+01 -4.900223910808563232e-01 7.669291019439697266e+00 2.153780698776245117e+00 5.083581805229187012e-01
3.657000000000000000e+03 6.312443923950195312e+01 2.535547637939453125e+01 -2.571977078914642334e-01 7.941765308380126953e+00 2.305370330810546875e+00 4.954690933227539062e-01
3.658000000000000000e+03 6.072365570068359375e+01 2.789387512207031250e+01 -3.557626008987426758e-01 7.874408245086669922e+00 2.255593538284301758e+00 4.420553743839263916e-01
3.659000000000000000e+03 3.550901031494140625e+01 2.942461585998535156e+01 -7.174614667892456055e-01 5.702905178070068359e+00 1.495633125305175781e+00 -2.254253774881362915e-01
3.660000000000000000e+03 3.877996826171875000e+01 2.853306770324707031e+01 -7.554481029510498047e-01 6.221104621887207031e+00 1.639696955680847168e+00 -1.092101037502288818e-01
3.661000000000000000e+03 5.317748260498046875e+01 2.792697525024414062e+01 -5.812890529632568359e-01 7.542044162750244141e+00 2.088226556777954102e+00 3.669723570346832275e-01
3.662000000000000000e+03 4.386379623413085938e+01 2.296052360534667969e+01 -7.262470722198486328e-01 7.100301742553710938e+00 1.912216424942016602e+00 1.423472464084625244e-01
3.663000000000000000e+03 4.536715316772460938e+01 2.619442558288574219e+01 -7.348122000694274902e-01 7.087894439697265625e+00 1.905924677848815918e+00 1.737846136093139648e-01
3.664000000000000000e+03 4.203778839111328125e+01 2.745661735534667969e+01 -7.675276398658752441e-01 6.676290988922119141e+00 1.772628903388977051e+00 1.852693594992160797e-02
3.665000000000000000e+03 4.872169494628906250e+01 2.523711395263671875e+01 -6.633632779121398926e-01 7.362305641174316406e+00 2.009682655334472656e+00 3.073681294918060303e-01
3.666000000000000000e+03 4.063187789916992188e+01 3.511465072631835938e+01 -7.678382396697998047e-01 6.282070636749267578e+00 1.654269695281982422e+00 -1.520906575024127960e-02
3.667000000000000000e+03 5.108853149414062500e+01 3.282663345336914062e+01 -6.605356931686401367e-01 7.319502353668212891e+00 1.997689962387084961e+00 2.049556821584701538e-01
3.668000000000000000e+03 4.641346740722656250e+01 2.985891151428222656e+01 -7.226575016975402832e-01 7.040496349334716797e+00 1.895351648330688477e+00 1.432655155658721924e-01
3.669000000000000000e+03 5.178881835937500000e+01 2.453104209899902344e+01 -5.722889304161071777e-01 7.553849697113037109e+00 2.094468116760253906e+00 4.299165606498718262e-01
3.670000000000000000e+03 4.292831039428710938e+01 3.074396514892578125e+01 -7.710628509521484375e-01 6.690399646759033203e+00 1.775800943374633789e+00 4.063925892114639282e-02
3.671000000000000000e+03 4.722221755981445312e+01 3.349151992797851562e+01 -7.325171232223510742e-01 6.995331764221191406e+00 1.878844380378723145e+00 1.179545149207115173e-01
3.672000000000000000e+03 1.761424827575683594e+01 -7.532238483428955078e+00 -1.321745514869689941e-01 -3.887519836425781250e-01 -1.562779694795608521e-01 -2.306430935859680176e-01
3.673000000000000000e+03 3.990074992179870605e-01 -2.190538883209228516e+00 -2.405831764917820692e-04 -1.093264363589696586e-04 -1.049728816724382341e-04 9.457236956222914159e-06
3.674000000000000000e+03 2.939107704162597656e+01 -5.129401206970214844e+00 2.886208772659301758e+00 1.252905130386352539e+00 1.241734147071838379e+00 -2.064961910247802734e+00
3.675000000000000000e+03 2.982117462158203125e+01 -5.152739524841308594e+00 3.403739690780639648e+00 1.785910367965698242e+00 1.556895017623901367e+00 -2.675800561904907227e+00
3.676000000000000000e+03 3.115428733825683594e+01 -4.796333312988281250e+00 4.018410682678222656e+00 8.408626556396484375e+00 3.728111267089843750e+00 -6.131955623626708984e+00
3.677000000000000000e+03 3.097629928588867188e+01 -4.845699787139892578e+00 4.296269893646240234e+00 7.102238655090332031e+00 3.419552564620971680e+00 -5.903772830963134766e+00
3.678000000000000000e+03 3.202037811279296875e+01 -5.125686168670654297e+00 3.059992074966430664e+00 1.652389144897460938e+01 5.875164985656738281e+00 -5.782894611358642578e+00
3.679000000000000000e+03 3.226705932617187500e+01 -4.834020137786865234e+00 2.350600957870483398e+00 1.675866508483886719e+01 5.732779979705810547e+00 -4.251192092895507812e+00
3.680000000000000000e+03 3.271680831909179688e+01 -4.893416881561279297e+00 2.495310783386230469e+00 1.842633438110351562e+01 6.276493549346923828e+00 -2.027617216110229492e+00
3.681000000000000000e+03 3.353634262084960938e+01 -5.804613113403320312e+00 8.234496116638183594e+00 1.835600662231445312e+01 7.977150917053222656e+00 2.418197870254516602e+00
3.682000000000000000e+03 3.372647094726562500e+01 -5.337505817413330078e+00 5.957747459411621094e+00 1.744647216796875000e+01 7.021265506744384766e+00 1.926865220069885254e+00
3.683000000000000000e+03 3.427965927124023438e+01 -5.505242347717285156e+00 7.103366374969482422e+00 1.525687217712402344e+01 6.708071708679199219e+00 2.022789478302001953e+00
3.684000000000000000e+03 3.424730300903320312e+01 -5.950551509857177734e+00 8.770089149475097656e+00 1.509426212310791016e+01 7.159305572509765625e+00 1.827850222587585449e+00
3.685000000000000000e+03 3.405982208251953125e+01 -5.739129543304443359e+00 8.148613929748535156e+00 1.588903999328613281e+01 7.211296081542968750e+00 2.188037633895874023e+00
3.686000000000000000e+03 3.379212951660156250e+01 -6.881445884704589844e+00 1.208782672882080078e+01 1.615978622436523438e+01 8.474284172058105469e+00 -6.012259721755981445e-01
3.687000000000000000e+03 3.407380676269531250e+01 -7.168280601501464844e+00 1.052848529815673828e+01 1.527706050872802734e+01 7.741663932800292969e+00 -1.397622585296630859e+00
3.688000000000000000e+03 3.426623153686523438e+01 -7.505439281463623047e+00 8.969651222229003906e+00 1.491938877105712891e+01 7.166711807250976562e+00 -1.919521093368530273e+00
3.689000000000000000e+03 3.340465927124023438e+01 -7.841659069061279297e+00 7.135725498199462891e+00 1.932310867309570312e+01 7.937650203704833984e+00 -2.577039957046508789e+00
3.690000000000000000e+03 3.264695739746093750e+01 -8.792528152465820312e+00 1.764354348182678223e+00 1.779144096374511719e+01 5.866738319396972656e+00 2.454541206359863281e+00
3.691000000000000000e+03 3.185489082336425781e+01 -8.500249862670898438e+00 2.754141807556152344e+00 1.451386737823486328e+01 5.180402755737304688e+00 6.202412605285644531e+00
3.692000000000000000e+03 3.083071136474609375e+01 -8.426061630249023438e+00 4.054913043975830078e+00 5.353587627410888672e+00 2.822550296783447266e+00 5.285970211029052734e+00
3.693000000000000000e+03 3.107612991333007812e+01 -8.601014137268066406e+00 3.781475782394409180e+00 7.508352756500244141e+00 3.386948585510253906e+00 5.915286540985107422e+00
3.694000000000000000e+03 3.062648200988769531e+01 -8.451983451843261719e+00 3.917321681976318359e+00 4.183219909667968750e+00 2.430162429809570312e+00 4.693030357360839844e+00
3.695000000000000000e+03 3.042497634887695312e+01 -8.821444511413574219e+00 3.407606601715087891e+00 4.381906986236572266e+00 2.336853981018066406e+00 4.517152309417724609e+00
3.696000000000000000e+03 2.940034484863281250e+01 -8.506960868835449219e+00 2.241283178329467773e+00 1.303313970565795898e+00 1.063379168510437012e+00 2.096549034118652344e+00
3.697000000000000000e+03 7.810466766357421875e+01 3.728952789306640625e+01 -1.512735430151224136e-02 8.979564666748046875e+00 2.689331054687500000e+00 7.971894927322864532e-03
3.698000000000000000e+03 7.804817962646484375e+01 4.165417098999023438e+01 2.838570438325405121e-02 8.996068954467773438e+00 2.707336425781250000e+00 -7.949958555400371552e-03
3.699000000000000000e+03 1.297885656356811523e+00 2.756897687911987305e+00 8.133748633554205298e-05 4.099157013115473092e-05 3.669871512101963162e-05 -4.806394281331449747e-05
3.700000000000000000e+03 2.505897998809814453e+00 2.744303226470947266e+00 -1.861376222223043442e-04 1.556644856464117765e-04 -9.141937880485784262e-06 -2.032743577728979290e-05
3.701000000000000000e+03 1.385844516754150391e+01 2.570883512496948242e+00 3.273045294918119907e-04 3.059791633859276772e-04 1.899851049529388547e-04 4.328335635364055634e-04
3.702000000000000000e+03 3.095698547363281250e+01 -8.887418746948242188e+00 3.396142721176147461e+00 6.970378875732421875e+00 3.109956502914428711e+00 5.482660293579101562e+00
3.703000000000000000e+03 7.531838226318359375e+01 4.026086044311523438e+01 -2.124813385307788849e-02 8.777357101440429688e+00 2.626832723617553711e+00 5.418806895613670349e-02
3.704000000000000000e+03 9.908885955810546875e+00 -2.130543136596679688e+01 -7.780198752880096436e-02 -3.373776674270629883e-01 -1.245538964867591858e-01 -2.870270013809204102e-01
3.705000000000000000e+03 3.002444458007812500e+01 -4.589532375335693359e+00 3.628246307373046875e+00 3.513323307037353516e+00 2.142470836639404297e+00 -3.803444862365722656e+00
3.706000000000000000e+03 3.132238197326660156e+01 -4.597555637359619141e+00 3.362571001052856445e+00 9.774243354797363281e+00 3.941044092178344727e+00 -5.875633716583251953e+00
3.707000000000000000e+03 3.033401298522949219e+01 -4.840441226959228516e+00 4.002505302429199219e+00 3.873896598815917969e+00 2.362920522689819336e+00 -4.244539260864257812e+00
3.708000000000000000e+03 2.971868705749511719e+01 -8.720656394958496094e+00 2.666202783584594727e+00 1.988972663879394531e+00 1.396552681922912598e+00 2.848053216934204102e+00
3.709000000000000000e+03 3.184472465515136719e+01 -4.816759586334228516e+00 2.829611301422119141e+00 1.378682804107666016e+01 4.984931945800781250e+00 -5.791063308715820312e+00
3.710000000000000000e+03 3.152559661865234375e+01 -4.393957614898681641e+00 2.769747257232666016e+00 1.096678066253662109e+01 4.120958328247070312e+00 -5.561993122100830078e+00
3.711000000000000000e+03 3.254088973999023438e+01 -4.529384136199951172e+00 1.933705925941467285e+00 1.643582153320312500e+01 5.510858058929443359e+00 -3.024727344512939453e+00
3.712000000000000000e+03 3.294801712036132812e+01 -4.939322948455810547e+00 3.027224302291870117e+00 1.877306938171386719e+01 6.540088176727294922e+00 -8.451068997383117676e-01
3.713000000000000000e+03 3.303497314453125000e+01 -4.622831344604492188e+00 2.374142885208129883e+00 1.734513473510742188e+01 5.915783405303955078e+00 -1.014639019966125488e+00
3.714000000000000000e+03 3.184559631347656250e+01 -9.230198860168457031e+00 1.790758728981018066e+00 1.269653701782226562e+01 4.346188545227050781e+00 4.913941860198974609e+00
3.715000000000000000e+03 3.228189849853515625e+01 -9.267304420471191406e+00 1.396897077560424805e+00 1.465839862823486328e+01 4.816588878631591797e+00 3.883056879043579102e+00
3.716000000000000000e+03 3.332336425781250000e+01 -8.340660095214843750e+00 4.280509471893310547e+00 1.900443267822265625e+01 6.985482215881347656e+00 -1.260149240493774414e+00
3.717000000000000000e+03 3.351507568359375000e+01 -8.225728988647460938e+00 5.285244941711425781e+00 1.831741905212402344e+01 7.080799102783203125e+00 -1.867223024368286133e+00
3.718000000000000000e+03 3.374536895751953125e+01 -8.142576217651367188e+00 6.074222087860107422e+00 1.746528434753417969e+01 7.061851978302001953e+00 -2.236437320709228516e+00
3.719000000000000000e+03 3.358712387084960938e+01 -8.799893379211425781e+00 3.251136302947998047e+00 1.704247474670410156e+01 6.088083744049072266e+00 -9.336089491844177246e-01
3.720000000000000000e+03 3.434668731689453125e+01 -5.308514118194580078e+00 6.209087371826171875e+00 1.498629856109619141e+01 6.358615875244140625e+00 1.978648543357849121e+00
3.721000000000000000e+03 7.808325195312500000e+01 -3.587404632568359375e+01 -1.005715318024158478e-02 7.803318500518798828e+00 2.337978363037109375e+00 -4.488551244139671326e-02
3.722000000000000000e+03 3.346205520629882812e+01 -4.841618537902832031e+00 3.675659179687500000e+00 1.750602912902832031e+01 6.354506015777587891e+00 6.769098043441772461e-01
3.723000000000000000e+03 3.146351051330566406e+01 -9.060459136962890625e+00 2.555133342742919922e+00 1.049715614318847656e+01 3.915686845779418945e+00 5.707467555999755859e+00
3.724000000000000000e+03 3.420262145996093750e+01 -6.415765762329101562e+00 1.029110050201416016e+01 1.481513977050781250e+01 7.531872272491455078e+00 9.212869405746459961e-01
3.725000000000000000e+03 3.452103424072265625e+01 -6.648814201354980469e+00 9.726703643798828125e+00 1.371348285675048828e+01 7.032056331634521484e+00 1.827849596738815308e-01
3.726000000000000000e+03 3.440780639648437500e+01 -7.291353225708007812e+00 9.428912162780761719e+00 1.432736968994140625e+01 7.126884460449218750e+00 -1.440928220748901367e+00
3.727000000000000000e+03 2.146390438079833984e+00 3.715186309814453125e+01 9.590208530426025391e-03 -1.483367532491683960e-01 -4.162396490573883057e-02 -3.020769543945789337e-02
3.728000000000000000e+03 4.631881713867187500e+00 -1.285314273834228516e+01 7.350061088800430298e-03 -1.029439829289913177e-02 -8.833012543618679047e-04 -3.627111669629812241e-03
3.729000000000000000e+03 1.533945941925048828e+01 2.167510604858398438e+01 6.257656496018171310e-03 1.551445603370666504e+00 4.673109650611877441e-01 -5.623864531517028809e-01
3.730000000000000000e+03 7.224686431884765625e+01 -3.571113586425781250e+01 -9.655622392892837524e-02 7.757226467132568359e+00 2.298201084136962891e+00 -1.574494987726211548e-01
3.731000000000000000e+03 3.395420074462890625e+01 -8.362093925476074219e+00 5.326671123504638672e+00 1.643358802795410156e+01 6.528077602386474609e+00 -2.046258926391601562e+00
3.732000000000000000e+03 3.200653839111328125e+01 -4.246179103851318359e+00 1.982013106346130371e+00 1.355729389190673828e+01 4.661792278289794922e+00 -4.544642925262451172e+00
3.733000000000000000e+03 3.170848464965820312e+01 -3.991106033325195312e+00 2.111320734024047852e+00 1.171170520782470703e+01 4.146907806396484375e+00 -4.879672050476074219e+00
3.734000000000000000e+03 3.046123886108398438e+01 -4.494504928588867188e+00 3.816238641738891602e+00 5.286048412322998047e+00 2.730686187744140625e+00 -4.798856258392333984e+00
3.735000000000000000e+03 2.979100227355957031e+01 -9.640425682067871094e+00 2.683230161666870117e+00 3.763768434524536133e+00 1.934099555015563965e+00 3.719646692276000977e+00
3.736000000000000000e+03 3.062382316589355469e+01 -9.264980316162109375e+00 3.021374464035034180e+00 5.830282688140869141e+00 2.655497074127197266e+00 4.880776882171630859e+00
3.737000000000000000e+03 3.416628265380859375e+01 -8.226464271545410156e+00 6.196249961853027344e+00 1.577502918243408203e+01 6.591383934020996094e+00 -2.264746189117431641e+00
3.738000000000000000e+03 3.479409408569335938e+01 -8.818957328796386719e+00 4.615208625793457031e+00 1.407104492187500000e+01 5.605875968933105469e+00 -1.896665692329406738e+00
3.739000000000000000e+03 3.285847473144531250e+01 -4.281188964843750000e+00 1.797521829605102539e+00 1.617980575561523438e+01 5.393198490142822266e+00 -1.908866882324218750e+00
3.740000000000000000e+03 3.501725387573242188e+01 -6.285478591918945312e+00 8.453332901000976562e+00 1.291506195068359375e+01 6.410518169403076172e+00 7.648239135742187500e-01
3.741000000000000000e+03 3.208354187011718750e+01 -9.455853462219238281e+00 1.449129104614257812e+00 1.340059471130371094e+01 4.454916954040527344e+00 4.242606163024902344e+00
3.742000000000000000e+03 3.084503746032714844e+01 -4.310825347900390625e+00 3.405608177185058594e+00 7.201528549194335938e+00 3.182141065597534180e+00 -5.211172103881835938e+00
3.743000000000000000e+03 3.330252170562744141e+00 4.627124309539794922e+00 1.793995616026222706e-04 -1.709705429675523192e-05 4.869075200986117125e-05 -4.652100906241685152e-04
3.744000000000000000e+03 7.014002323150634766e+00 -2.205803871154785156e+01 -1.028883531689643860e-01 -1.955452412366867065e-01 -8.953008055686950684e-02 -3.793787062168121338e-01
3.745000000000000000e+03 3.250901794433593750e+01 -9.173967361450195312e+00 1.334446668624877930e+00 1.588078975677490234e+01 5.164570808410644531e+00 3.102327108383178711e+00
3.746000000000000000e+03 3.064402008056640625e+01 -4.374630928039550781e+00 3.675773143768310547e+00 6.109239578247070312e+00 2.935503959655761719e+00 -5.066981315612792969e+00
3.747000000000000000e+03 2.995957565307617188e+01 -3.988373041152954102e+00 3.188860893249511719e+00 4.274273395538330078e+00 2.238940238952636719e+00 -3.969990253448486328e+00
3.748000000000000000e+03 3.412544631958007812e+01 -5.359726428985595703e+00 6.492491245269775391e+00 1.593525123596191406e+01 6.728322505950927734e+00 2.125674724578857422e+00
3.749000000000000000e+03 3.333063507080078125e+01 -3.965414762496948242e+00 1.886375784873962402e+00 1.534510231018066406e+01 5.169443607330322266e+00 -7.831736207008361816e-01
3.750000000000000000e+03 4.185481548309326172e+00 -2.257516288757324219e+01 -4.130635410547256470e-02 -1.981978714466094971e-01 -7.185126841068267822e-02 -2.725926637649536133e-01
3.751000000000000000e+03 4.963328361511230469e+00 -2.327122879028320312e+01 -3.411249443888664246e-02 -2.122531086206436157e-01 -7.390967756509780884e-02 -3.128913640975952148e-01
3.752000000000000000e+03 3.078901481628417969e+01 -3.988202810287475586e+00 3.022469758987426758e+00 7.121719360351562500e+00 3.043256759643554688e+00 -4.964424133300781250e+00
3.753000000000000000e+03 2.197305679321289062e+01 -1.546409487724304199e+00 4.174719750881195068e-01 2.825087010860443115e-01 2.099941968917846680e-01 -1.204308196902275085e-01
3.754000000000000000e+03 2.169465637207031250e+01 1.304321384429931641e+01 3.303976953029632568e-01 2.701924800872802734e+00 9.096967577934265137e-01 -1.041179895401000977e+00
3.755000000000000000e+03 3.376236724853515625e+01 -9.158634185791015625e+00 2.744829654693603516e+00 1.604706192016601562e+01 5.637567520141601562e+00 -7.096606492996215820e-01
3.756000000000000000e+03 3.407131576538085938e+01 -9.029337882995605469e+00 3.381814002990722656e+00 1.559035491943359375e+01 5.691650867462158203e+00 -1.278815031051635742e+00
3.757000000000000000e+03 3.382622909545898438e+01 -9.784811019897460938e+00 1.723886609077453613e+00 1.479257965087890625e+01 4.954939842224121094e+00 3.712478792294859886e-03
3.758000000000000000e+03 3.008345794677734375e+01 -3.177973747253417969e+00 2.598191738128662109e+00 5.431246757507324219e+00 2.408831596374511719e+00 -4.069195270538330078e+00
3.759000000000000000e+03 3.513518905639648438e+01 -5.498211860656738281e+00 6.724979400634765625e+00 1.306542491912841797e+01 5.937121391296386719e+00 1.626241326332092285e+00
3.760000000000000000e+03 3.230495452880859375e+01 -9.719767570495605469e+00 1.129770398139953613e+00 1.358783817291259766e+01 4.415282726287841797e+00 3.467846632003784180e+00
3.761000000000000000e+03 3.216738128662109375e+01 -3.882448673248291016e+00 1.616191864013671875e+00 1.318076610565185547e+01 4.439087390899658203e+00 -3.904775619506835938e+00
3.762000000000000000e+03 3.049425888061523438e+01 -4.066289424896240234e+00 3.251904487609863281e+00 5.873767375946044922e+00 2.737701654434204102e+00 -4.711716175079345703e+00
3.763000000000000000e+03 9.854071617126464844e+00 -3.664381265640258789e+00 4.520301299635320902e-04 -1.148437731899321079e-03 -2.089222980430349708e-04 6.946632493054494262e-05
3.764000000000000000e+03 3.436878204345703125e+01 -9.291369438171386719e+00 3.199663162231445312e+00 1.469987010955810547e+01 5.369859695434570312e+00 -1.329132795333862305e+00
3.765000000000000000e+03 3.291946029663085938e+01 -3.991994380950927734e+00 1.605928301811218262e+00 1.532617473602294922e+01 5.079630851745605469e+00 -1.898757576942443848e+00
3.766000000000000000e+03 3.262840270996093750e+01 -4.223135948181152344e+00 1.678405404090881348e+00 1.553832244873046875e+01 5.165018081665039062e+00 -2.760257720947265625e+00
3.767000000000000000e+03 6.990968227386474609e+00 4.910679340362548828e+00 -1.175798024632968009e-04 4.370732640381902456e-04 9.584803774487227201e-05 8.733932190807536244e-05
3.768000000000000000e+03 2.963853836059570312e+01 -1.063209724426269531e+01 2.141543149948120117e+00 4.500141143798828125e+00 1.992505192756652832e+00 3.617674112319946289e+00
3.769000000000000000e+03 3.194211196899414062e+01 -3.949445724487304688e+00 1.838353395462036133e+00 1.269401645660400391e+01 4.359711170196533203e+00 -4.415630340576171875e+00
3.770000000000000000e+03 3.484220886230468750e+01 -7.087310791015625000e+00 8.781250953674316406e+00 1.318020343780517578e+01 6.588436603546142578e+00 -8.355234861373901367e-01
3.771000000000000000e+03 3.468573379516601562e+01 -6.863690376281738281e+00 9.452526092529296875e+00 1.348590278625488281e+01 6.881528854370117188e+00 -3.121332824230194092e-01
3.772000000000000000e+03 3.055454063415527344e+01 -9.550268173217773438e+00 2.729273796081542969e+00 6.022251129150390625e+00 2.625457525253295898e+00 4.668768405914306641e+00
3.773000000000000000e+03 3.123981857299804688e+01 -9.935131072998046875e+00 1.874435186386108398e+00 9.143120765686035156e+00 3.305266857147216797e+00 4.692905902862548828e+00
3.774000000000000000e+03 3.160440635681152344e+01 -9.977830886840820312e+00 1.515036702156066895e+00 1.058155536651611328e+01 3.628977537155151367e+00 4.529633998870849609e+00
3.775000000000000000e+03 3.283345031738281250e+01 -9.411497116088867188e+00 1.237661719322204590e+00 1.571386432647705078e+01 5.085457801818847656e+00 2.152762413024902344e+00
3.776000000000000000e+03 3.525253677368164062e+01 -6.552606582641601562e+00 8.197440147399902344e+00 1.241475677490234375e+01 6.183659076690673828e+00 2.271730899810791016e-01
3.777000000000000000e+03 1.688706398010253906e+01 -2.257441520690917969e+01 2.114759534597396851e-01 8.315244913101196289e-01 3.129001557826995850e-01 4.517154097557067871e-01
3.778000000000000000e+03 3.420846939086914062e+01 -3.942148447036743164e+00 2.753991842269897461e+00 1.459838485717773438e+01 5.205712795257568359e+00 7.416631579399108887e-01
3.779000000000000000e+03 3.450534820556640625e+01 -4.721326828002929688e+00 4.646428585052490234e+00 1.468717002868652344e+01 5.800079822540283203e+00 1.627675652503967285e+00
3.780000000000000000e+03 3.353001403808593750e+01 -3.758048057556152344e+00 1.805231332778930664e+00 1.490332984924316406e+01 5.012568473815917969e+00 -6.147931218147277832e-01
3.781000000000000000e+03 3.318524169921875000e+01 -3.752907276153564453e+00 1.471530914306640625e+00 1.474742221832275391e+01 4.865685939788818359e+00 -1.383778810501098633e+00
3.782000000000000000e+03 3.312174987792968750e+01 -4.018231391906738281e+00 1.786926865577697754e+00 1.557350730895996094e+01 5.208130359649658203e+00 -1.373344302177429199e+00
3.783000000000000000e+03 3.039866638183593750e+01 -1.030252361297607422e+01 2.166266679763793945e+00 6.151986598968505859e+00 2.495476007461547852e+00 4.270065784454345703e+00
3.784000000000000000e+03 3.555406570434570312e+01 -5.738865375518798828e+00 6.853125572204589844e+00 1.221633625030517578e+01 5.720838546752929688e+00 1.218265295028686523e+00
3.785000000000000000e+03 3.430981063842773438e+01 -8.050758361816406250e+00 6.827695369720458984e+00 1.527498626708984375e+01 6.630804538726806641e+00 -2.258118629455566406e+00
3.786000000000000000e+03 1.191885375976562500e+01 -2.670928573608398438e+01 2.641060054302215576e-01 2.800928056240081787e-01 1.632596403360366821e-01 -2.659076591953635216e-03
3.787000000000000000e+03 3.454561996459960938e+01 -5.426493644714355469e+00 6.791047096252441406e+00 1.449805927276611328e+01 6.386732101440429688e+00 1.953043818473815918e+00
3.788000000000000000e+03 1.642649841308593750e+01 2.418230628967285156e+01 -4.221474379301071167e-02 1.913018226623535156e+00 5.612410306930541992e-01 -5.368767380714416504e-01
3.789000000000000000e+03 1.524497985839843750e+01 2.522296714782714844e+01 -1.591302454471588135e-02 1.680721402168273926e+00 4.994424879550933838e-01 -4.824726879596710205e-01
3.790000000000000000e+03 3.079799270629882812e+01 -9.472799301147460938e+00 2.695987224578857422e+00 7.003619670867919922e+00 2.909882068634033203e+00 4.984662055969238281e+00
3.791000000000000000e+03 3.577778244018554688e+01 -6.647701263427734375e+00 7.462061882019042969e+00 1.168748474121093750e+01 5.744863986968994141e+00 4.383926093578338623e-02
3.792000000000000000e+03 3.276717376708984375e+01 -3.706577062606811523e+00 1.366687417030334473e+00 1.428030872344970703e+01 4.694098949432373047e+00 -2.359704494476318359e+00
3.793000000000000000e+03 3.244523620605468750e+01 -4.085514068603515625e+00 1.651310205459594727e+00 1.463649272918701172e+01 4.886341094970703125e+00 -3.291879653930664062e+00
3.794000000000000000e+03 2.287403297424316406e+01 -2.669713020324707031e+00 4.809641838073730469e-01 2.499658316373825073e-01 2.192790061235427856e-01 -4.484142363071441650e-02
3.795000000000000000e+03 3.441374588012695312e+01 -7.853639602661132812e+00 7.501891136169433594e+00 1.474355697631835938e+01 6.673634529113769531e+00 -2.109206438064575195e+00
3.796000000000000000e+03 3.496884918212890625e+01 -7.332999229431152344e+00 8.295619964599609375e+00 1.310297012329101562e+01 6.419577121734619141e+00 -1.166399836540222168e+00
3.797000000000000000e+03 3.535686492919921875e+01 -7.256595611572265625e+00 7.742179870605468750e+00 1.230197906494140625e+01 6.013247489929199219e+00 -8.454971909523010254e-01
3.798000000000000000e+03 3.164905357360839844e+01 -3.518762826919555664e+00 1.827369093894958496e+00 1.079684257507324219e+01 3.787263631820678711e+00 -4.464731693267822266e+00
3.799000000000000000e+03 3.193802642822265625e+01 -3.144106149673461914e+00 1.349103808403015137e+00 1.134873199462890625e+01 3.809350728988647461e+00 -3.785809993743896484e+00
3.800000000000000000e+03 3.217076492309570312e+01 -3.557910442352294922e+00 1.432710528373718262e+00 1.260004711151123047e+01 4.209827423095703125e+00 -3.693956851959228516e+00
3.801000000000000000e+03 3.251182937622070312e+01 -3.348523139953613281e+00 1.169682383537292480e+00 1.316333293914794922e+01 4.299904346466064453e+00 -2.908244371414184570e+00
3.802000000000000000e+03 4.552825164794921875e+01 -2.811924934387207031e+01 -7.285534143447875977e-01 8.027302742004394531e+00 2.189625024795532227e+00 -3.586825430393218994e-01
3.803000000000000000e+03 3.470029449462890625e+01 -4.441171646118164062e+00 4.010424613952636719e+00 1.411971187591552734e+01 5.439041137695312500e+00 1.493044495582580566e+00
3.804000000000000000e+03 3.472553253173828125e+01 -4.023209095001220703e+00 3.290936231613159180e+00 1.382458877563476562e+01 5.134657382965087891e+00 1.181736469268798828e+00
3.805000000000000000e+03 3.259595870971679688e+01 -3.676669836044311523e+00 1.298791289329528809e+00 1.400972652435302734e+01 4.592555522918701172e+00 -2.803887367248535156e+00
3.806000000000000000e+03 3.535448455810546875e+01 -8.137426376342773438e+00 6.208989143371582031e+00 1.273848915100097656e+01 5.684243202209472656e+00 -1.721291065216064453e+00
3.807000000000000000e+03 3.336595153808593750e+01 -3.530473232269287109e+00 1.431328892707824707e+00 1.444835948944091797e+01 4.763906478881835938e+00 -1.137976050376892090e+00
3.808000000000000000e+03 3.171860694885253906e+01 -1.014600181579589844e+01 1.325580954551696777e+00 1.045799446105957031e+01 3.535072803497314453e+00 4.150477886199951172e+00
3.809000000000000000e+03 3.220907211303710938e+01 -1.052085781097412109e+01 8.063641190528869629e-01 1.176308345794677734e+01 3.770834207534790039e+00 3.357386827468872070e+00
3.810000000000000000e+03 3.234154510498046875e+01 -1.028298568725585938e+01 8.860888481140136719e-01 1.266009807586669922e+01 4.063856124877929688e+00 3.137315034866333008e+00
3.811000000000000000e+03 3.300493240356445312e+01 -1.025747776031494141e+01 8.602892160415649414e-01 1.368479156494140625e+01 4.363523960113525391e+00 1.904316544532775879e+00
3.812000000000000000e+03 3.090542030334472656e+01 -1.050057983398437500e+01 1.748879075050354004e+00 7.787353992462158203e+00 2.860869884490966797e+00 4.309165000915527344e+00
3.813000000000000000e+03 3.142689132690429688e+01 -1.016466045379638672e+01 1.527892470359802246e+00 9.810461997985839844e+00 3.401506185531616211e+00 4.431809902191162109e+00
3.814000000000000000e+03 9.850852012634277344e+00 -2.597334671020507812e+01 1.961354464292526245e-01 -1.165619865059852600e-02 5.534377694129943848e-02 -1.710646748542785645e-01
3.815000000000000000e+03 3.083286285400390625e+01 -2.065305709838867188e+00 1.489792346954345703e+00 7.731137752532958984e+00 2.766278982162475586e+00 -3.763591527938842773e+00
3.816000000000000000e+03 3.127822113037109375e+01 -2.378810167312622070e+00 1.407570123672485352e+00 8.885799407958984375e+00 3.088011026382446289e+00 -3.818165779113769531e+00
3.817000000000000000e+03 3.353310394287109375e+01 -1.032857799530029297e+01 1.034766793251037598e+00 1.388786220550537109e+01 4.476788520812988281e+00 8.958215713500976562e-01
3.818000000000000000e+03 2.078222274780273438e+01 -2.220772743225097656e+01 2.531607151031494141e-01 1.917521595954895020e+00 6.512047052383422852e-01 8.946475386619567871e-01
3.819000000000000000e+03 7.522878265380859375e+01 -3.520584487915039062e+01 -4.055390879511833191e-02 7.749265670776367188e+00 2.312613487243652344e+00 -1.186849698424339294e-01
3.820000000000000000e+03 7.408069610595703125e+01 -3.425124359130859375e+01 -5.900555104017257690e-02 7.733311653137207031e+00 2.302291870117187500e+00 -1.513069421052932739e-01
3.821000000000000000e+03 4.298540115356445312e+01 1.719317054748535156e+01 -6.659908294677734375e-01 7.379679679870605469e+00 2.014106750488281250e+00 1.652232557535171509e-01
3.822000000000000000e+03 4.541162109375000000e+01 1.706214141845703125e+01 -5.819266438484191895e-01 7.575070858001708984e+00 2.097943305969238281e+00 3.725724816322326660e-01
3.823000000000000000e+03 3.036757469177246094e+01 -2.481627082824707031e+01 -4.668296277523040771e-01 5.626054286956787109e+00 1.547767400741577148e+00 1.144191265106201172e+00
3.824000000000000000e+03 6.763224792480468750e+01 2.400385093688964844e+01 -1.534103006124496460e-01 8.047448158264160156e+00 2.368211507797241211e+00 4.800618886947631836e-01
3.825000000000000000e+03 7.400661468505859375e+01 -3.567723464965820312e+01 -6.503783166408538818e-02 7.753679275512695312e+00 2.306592464447021484e+00 -1.304594427347183228e-01
3.826000000000000000e+03 3.563487625122070312e+01 -5.982310295104980469e+00 7.212776184082031250e+00 1.200993442535400391e+01 5.766813278198242188e+00 9.566203355789184570e-01
3.827000000000000000e+03 3.473903656005859375e+01 -7.776688575744628906e+00 7.571318626403808594e+00 1.381138324737548828e+01 6.414810657501220703e+00 -1.892309427261352539e+00
3.828000000000000000e+03 3.153918647766113281e+01 -1.056109523773193359e+01 1.268283963203430176e+00 9.906449317932128906e+00 3.352420091629028320e+00 4.050791740417480469e+00
3.829000000000000000e+03 3.605395507812500000e+01 -6.443318843841552734e+00 7.065328121185302734e+00 1.138195610046386719e+01 5.534185409545898438e+00 2.961023151874542236e-01
3.830000000000000000e+03 5.025007247924804688e+00 7.490754127502441406e+00 4.952658782713115215e-04 -4.577282525133341551e-04 1.126128063333453611e-05 -8.238074951805174351e-05
3.831000000000000000e+03 3.189391708374023438e+01 -1.022193527221679688e+01 1.146355390548706055e+00 1.128785419464111328e+01 3.730262756347656250e+00 4.009360313415527344e+00
3.832000000000000000e+03 8.141035079956054688e+00 -2.617681503295898438e+01 1.393911987543106079e-01 -1.196538433432579041e-01 5.921207368373870850e-03 -2.340011149644851685e-01
3.833000000000000000e+03 1.959432983398437500e+01 -2.206175422668457031e+01 2.650490999221801758e-01 1.481414794921875000e+00 5.239391922950744629e-01 7.402378916740417480e-01
3.834000000000000000e+03 3.488440704345703125e+01 -4.209618091583251953e+00 3.652810573577880859e+00 1.357971286773681641e+01 5.169756889343261719e+00 1.352373361587524414e+00
3.835000000000000000e+03 3.292199707031250000e+01 -3.342687606811523438e+00 1.142520308494567871e+00 1.373351955413818359e+01 4.462811946868896484e+00 -2.054477214813232422e+00
3.836000000000000000e+03 3.238392257690429688e+01 -2.925611495971679688e+00 1.026305437088012695e+00 1.206193637847900391e+01 3.926472425460815430e+00 -3.046979665756225586e+00
3.837000000000000000e+03 5.481679534912109375e+01 1.799147224426269531e+01 -3.472032845020294189e-01 7.771468639373779297e+00 2.227279663085937500e+00 6.712096929550170898e-01
3.838000000000000000e+03 5.298117828369140625e+01 1.577353191375732422e+01 -3.015846610069274902e-01 7.792350292205810547e+00 2.247229576110839844e+00 7.079266309738159180e-01
3.839000000000000000e+03 6.078178882598876953e+00 7.209938049316406250e+00 9.971264516934752464e-04 -1.514018047600984573e-03 -1.550674787722527981e-04 -1.801987236831337214e-04
3.840000000000000000e+03 3.573385238647460938e+01 -7.125901699066162109e+00 7.399199008941650391e+00 1.174390983581542969e+01 5.742932796478271484e+00 -6.138283610343933105e-01
3.841000000000000000e+03 3.557977294921875000e+01 -7.929139137268066406e+00 6.490449428558349609e+00 1.227515602111816406e+01 5.629681587219238281e+00 -1.521149992942810059e+00
3.842000000000000000e+03 3.520035934448242188e+01 -7.938028812408447266e+00 6.694408893585205078e+00 1.295166301727294922e+01 5.893821716308593750e+00 -1.726298809051513672e+00
3.843000000000000000e+03 2.946046447753906250e+01 -1.162599754333496094e+01 1.699504733085632324e+00 4.809533596038818359e+00 1.952711582183837891e+00 3.328216552734375000e+00
3.844000000000000000e+03 3.177875900268554688e+01 -1.049344635009765625e+01 1.128901481628417969e+00 1.065170192718505859e+01 3.534180879592895508e+00 3.872706890106201172e+00
3.845000000000000000e+03 3.141439247131347656e+01 -1.952586531639099121e+00 1.157021880149841309e+00 8.999221801757812500e+00 3.046873092651367188e+00 -3.581606626510620117e+00
3.846000000000000000e+03 3.142984199523925781e+01 -1.696998119354248047e+00 1.027156472206115723e+00 8.895057678222656250e+00 2.976664066314697266e+00 -3.439593076705932617e+00
3.847000000000000000e+03 3.093350601196289062e+01 -1.223847627639770508e+00 1.070842146873474121e+00 7.791261672973632812e+00 2.658631324768066406e+00 -3.333671569824218750e+00
3.848000000000000000e+03 2.468535232543945312e+01 -6.390430927276611328e-01 1.087056636810302734e+00 1.346389532089233398e+00 7.300338745117187500e-01 -1.083543539047241211e+00
3.849000000000000000e+03 2.305811691284179688e+01 -1.805017089843750000e+01 4.808026552200317383e-01 2.132709264755249023e+00 7.840535640716552734e-01 1.143275022506713867e+00
3.850000000000000000e+03 3.586460113525390625e+01 -1.063447093963623047e+01 2.235448598861694336e+00 1.208108234405517578e+01 4.294959545135498047e+00 -1.199866890907287598e+00
3.851000000000000000e+03 2.741618537902832031e+01 2.112907648086547852e+00 8.275628089904785156e-01 3.931426763534545898e+00 1.427696943283081055e+00 -2.203121423721313477e+00
3.852000000000000000e+03 4.255743789672851562e+01 1.549050426483154297e+01 -6.200980544090270996e-01 7.505437374114990234e+00 2.065601825714111328e+00 1.861830949783325195e-01
3.853000000000000000e+03 7.064614868164062500e+01 2.110124206542968750e+01 -8.254986256361007690e-02 8.057331085205078125e+00 2.392434358596801758e+00 4.639717638492584229e-01
3.854000000000000000e+03 4.741634750366210938e+01 1.435569095611572266e+01 -4.001991748809814453e-01 7.792417526245117188e+00 2.217665433883666992e+00 5.700861215591430664e-01
3.855000000000000000e+03 3.165186691284179688e+01 -1.134631538391113281e+01 8.441877961158752441e-01 9.489629745483398438e+00 3.100145339965820312e+00 3.511435985565185547e+00
3.856000000000000000e+03 3.203440093994140625e+01 -1.124707794189453125e+01 6.959844231605529785e-01 1.051789474487304688e+01 3.364163875579833984e+00 3.164484739303588867e+00
3.857000000000000000e+03 3.509238815307617188e+01 -7.561213016510009766e+00 7.691885948181152344e+00 1.300252437591552734e+01 6.208323001861572266e+00 -1.414124727249145508e+00
3.858000000000000000e+03 3.513470840454101562e+01 -7.759663105010986328e+00 7.168812751770019531e+00 1.301450920104980469e+01 6.054996490478515625e+00 -1.586656570434570312e+00
3.859000000000000000e+03 3.127206039428710938e+01 -1.295187234878540039e+00 9.673753380775451660e-01 8.420509338378906250e+00 2.816365480422973633e+00 -3.293427228927612305e+00
3.860000000000000000e+03 3.535152053833007812e+01 -7.783666133880615234e+00 6.870289325714111328e+00 1.254635238647460938e+01 5.824992656707763672e+00 -1.485315442085266113e+00
3.861000000000000000e+03 3.662685012817382812e+01 -6.935311794281005859e+00 6.415390014648437500e+00 1.080173206329345703e+01 5.165136814117431641e+00 -2.665154337882995605e-01
3.862000000000000000e+03 3.656687927246093750e+01 -6.455971717834472656e+00 6.449429988861083984e+00 1.084323787689208984e+01 5.187800407409667969e+00 2.326647341251373291e-01
3.863000000000000000e+03 2.756645393371582031e+01 -6.045594811439514160e-01 1.549031615257263184e+00 3.165872335433959961e+00 1.414471149444580078e+00 -2.344311952590942383e+00
3.864000000000000000e+03 3.480672454833984375e+01 -2.292911052703857422e+00 1.303592205047607422e+00 1.237460803985595703e+01 4.103459835052490234e+00 1.088085621595382690e-01
3.865000000000000000e+03 3.211908721923828125e+01 -2.484628677368164062e+00 9.938890337944030762e-01 1.106006336212158203e+01 3.616185665130615234e+00 -3.141346693038940430e+00
3.866000000000000000e+03 3.160015869140625000e+01 -1.827907562255859375e+00 9.922777414321899414e-01 9.371008872985839844e+00 3.108985900878906250e+00 -3.372007369995117188e+00
3.867000000000000000e+03 2.593068504333496094e+01 -1.251238250732421875e+01 1.221242904663085938e+00 1.746253490447998047e+00 8.902489542961120605e-01 1.402520179748535156e+00
3.868000000000000000e+03 2.779511451721191406e+01 -1.167794322967529297e+01 1.676256895065307617e+00 2.597506284713745117e+00 1.282128930091857910e+00 2.270507574081420898e+00
3.869000000000000000e+03 3.564167404174804688e+01 -1.005617713928222656e+01 2.752582073211669922e+00 1.239669513702392578e+01 4.544783115386962891e+00 -1.357019186019897461e+00
3.870000000000000000e+03 3.688335037231445312e+01 -9.027924537658691406e+00 4.411887168884277344e+00 1.107079124450683594e+01 4.644803524017333984e+00 -1.490007758140563965e+00
3.871000000000000000e+03 3.711832046508789062e+01 -8.070947647094726562e+00 5.362940311431884766e+00 1.060343265533447266e+01 4.789911746978759766e+00 -1.081632256507873535e+00
3.872000000000000000e+03 3.144799423217773438e+01 1.725335121154785156e+01 -4.822949171066284180e-01 5.501042366027832031e+00 1.505624175071716309e+00 -8.166356086730957031e-01
3.873000000000000000e+03 3.300259780883789062e+01 1.685083580017089844e+01 -5.646494030952453613e-01 5.907355308532714844e+00 1.602811694145202637e+00 -7.322958111763000488e-01
3.874000000000000000e+03 3.646630477905273438e+01 -9.874444961547851562e+00 3.343680381774902344e+00 1.162960815429687500e+01 4.491986274719238281e+00 -1.557587504386901855e+00
3.875000000000000000e+03 3.578376770019531250e+01 -3.575156450271606445e+00 3.165432214736938477e+00 1.218868923187255859e+01 4.606236457824707031e+00 1.321179389953613281e+00
3.876000000000000000e+03 3.535294723510742188e+01 -3.541055679321289062e+00 2.914771318435668945e+00 1.275948238372802734e+01 4.702276229858398438e+00 1.187215447425842285e+00
3.877000000000000000e+03 3.604862594604492188e+01 -7.927714824676513672e+00 6.173731327056884766e+00 1.161459541320800781e+01 5.336498260498046875e+00 -1.338048696517944336e+00
3.878000000000000000e+03 3.582771682739257812e+01 -8.125123023986816406e+00 6.024560928344726562e+00 1.196301174163818359e+01 5.396271705627441406e+00 -1.522606849670410156e+00
3.879000000000000000e+03 3.359151077270507812e+01 -2.049726295471191406e+01 -5.432954430580139160e-01 7.429440021514892578e+00 2.065843343734741211e+00 1.050651669502258301e+00
3.880000000000000000e+03 3.157622528076171875e+01 -1.199812698364257812e+01 7.057420015335083008e-01 8.936321258544921875e+00 2.892619132995605469e+00 3.254392147064208984e+00
3.881000000000000000e+03 3.172226905822753906e+01 -2.029080152511596680e+00 1.019812583923339844e+00 9.737153053283691406e+00 3.227089643478393555e+00 -3.306618690490722656e+00
3.882000000000000000e+03 3.179503631591796875e+01 -1.638514518737792969e+00 8.581289052963256836e-01 9.499080657958984375e+00 3.107162952423095703e+00 -3.108715534210205078e+00
3.883000000000000000e+03 3.702725982666015625e+01 -6.455739498138427734e+00 6.001195907592773438e+00 1.045105457305908203e+01 4.935675144195556641e+00 1.994576156139373779e-01
3.884000000000000000e+03 3.239269638061523438e+01 -2.401289939880371094e+00 8.828457593917846680e-01 1.135903930664062500e+01 3.672565460205078125e+00 -2.895115375518798828e+00
3.885000000000000000e+03 3.205992126464843750e+01 -2.150735378265380859e+00 8.906672596931457520e-01 1.052209663391113281e+01 3.423829078674316406e+00 -3.120403289794921875e+00
3.886000000000000000e+03 3.295763015747070312e+01 -1.180569553375244141e+01 3.374511897563934326e-01 1.123210906982421875e+01 3.470867872238159180e+00 2.014440536499023438e+00
3.887000000000000000e+03 3.211198043823242188e+01 -1.195078277587890625e+01 4.805679917335510254e-01 9.985831260681152344e+00 3.139919757843017578e+00 2.850660085678100586e+00
3.888000000000000000e+03 3.452255630493164062e+01 -1.952459812164306641e+00 9.922098517417907715e-01 1.214214038848876953e+01 3.940304994583129883e+00 -2.650421261787414551e-01
3.889000000000000000e+03 2.875836181640625000e+01 1.743965625762939453e+00 7.547508478164672852e-01 5.042810440063476562e+00 1.739268422126770020e+00 -2.483343601226806641e+00
3.890000000000000000e+03 3.255841064453125000e+01 -2.655656814575195312e+00 9.170302748680114746e-01 1.192944622039794922e+01 3.853942871093750000e+00 -2.746853351593017578e+00
3.891000000000000000e+03 3.725596237182617188e+01 -6.613518238067626953e+00 5.818686008453369141e+00 1.032219505310058594e+01 4.842264652252197266e+00 6.774421036243438721e-02
3.892000000000000000e+03 3.709162139892578125e+01 -4.468353271484375000e+00 4.472664833068847656e+00 1.081854534149169922e+01 4.587363243103027344e+00 1.344573855400085449e+00
3.893000000000000000e+03 3.760559463500976562e+01 -4.740569114685058594e+00 4.569115638732910156e+00 1.034292602539062500e+01 4.473612308502197266e+00 1.134778380393981934e+00
3.894000000000000000e+03 3.721431732177734375e+01 -3.504784107208251953e+00 3.421681404113769531e+00 1.088631820678710938e+01 4.292399883270263672e+00 1.384142875671386719e+00
3.895000000000000000e+03 2.916173362731933594e+01 -8.684784173965454102e-03 1.191057205200195312e+00 5.156508922576904297e+00 1.904269933700561523e+00 -2.872905731201171875e+00
3.896000000000000000e+03 3.193774604797363281e+01 -6.067066192626953125e-01 5.198804736137390137e-01 9.096822738647460938e+00 2.885010957717895508e+00 -2.671810865402221680e+00
3.897000000000000000e+03 7.241320037841796875e+01 1.229195785522460938e+01 1.082176994532346725e-02 7.749057769775390625e+00 2.327963829040527344e+00 4.517030417919158936e-01
3.898000000000000000e+03 3.136033439636230469e+01 1.570536136627197266e+01 -4.488968253135681152e-01 5.575533866882324219e+00 1.537991166114807129e+00 -9.256168007850646973e-01
3.899000000000000000e+03 3.573814010620117188e+01 -1.754039406776428223e+00 1.381971240043640137e+00 1.154224205017089844e+01 3.877264022827148438e+00 5.308412909507751465e-01
3.900000000000000000e+03 3.685364913940429688e+01 -1.081888961791992188e+01 2.415004014968872070e+00 1.115405464172363281e+01 4.070717334747314453e+00 -1.328302741050720215e+00
3.901000000000000000e+03 2.823757171630859375e+01 -1.293589115142822266e+01 1.359300851821899414e+00 3.791954755783081055e+00 1.545376658439636230e+00 2.586989879608154297e+00
3.902000000000000000e+03 2.806740188598632812e+01 2.166022300720214844e+00 7.475189566612243652e-01 4.495759487152099609e+00 1.572983622550964355e+00 -2.327570676803588867e+00
3.903000000000000000e+03 6.205939102172851562e+01 1.166890144348144531e+01 3.846779093146324158e-02 7.767494201660156250e+00 2.341788530349731445e+00 7.503346204757690430e-01
3.904000000000000000e+03 2.639850616455078125e+01 -1.984303283691406250e+01 2.289977222681045532e-01 3.898644208908081055e+00 1.238292574882507324e+00 1.596719622611999512e+00
3.905000000000000000e+03 2.860729408264160156e+01 2.188636541366577148e+00 6.859844923019409180e-01 4.970012187957763672e+00 1.696798920631408691e+00 -2.417988777160644531e+00
3.906000000000000000e+03 3.739823532104492188e+01 -6.451789379119873047e+00 5.725441455841064453e+00 1.021290111541748047e+01 4.781502723693847656e+00 2.186590135097503662e-01
3.907000000000000000e+03 3.252196502685546875e+01 -1.196063232421875000e+01 3.589086830615997314e-01 1.056427383422851562e+01 3.276954889297485352e+00 2.476778984069824219e+00
3.908000000000000000e+03 3.418018722534179688e+01 -1.264633560180664062e+01 2.479555010795593262e-01 1.117028236389160156e+01 3.425471544265747070e+00 8.939957618713378906e-01
3.909000000000000000e+03 3.758692550659179688e+01 -6.311240673065185547e+00 5.596539020538330078e+00 1.008405303955078125e+01 4.704177379608154297e+00 2.896715700626373291e-01
3.910000000000000000e+03 3.790234756469726562e+01 -5.423871994018554688e+00 4.923699855804443359e+00 1.001794719696044922e+01 4.482494354248046875e+00 7.984678745269775391e-01
3.911000000000000000e+03 2.643474578857421875e+01 -1.411177444458007812e+01 1.104488492012023926e+00 2.747119426727294922e+00 1.155482411384582520e+00 1.850964546203613281e+00
3.912000000000000000e+03 3.812228393554687500e+01 -7.635394096374511719e+00 4.966672897338867188e+00 9.817317008972167969e+00 4.435196876525878906e+00 -6.139727234840393066e-01
3.913000000000000000e+03 3.783610916137695312e+01 -7.418612003326416016e+00 5.300399303436279297e+00 9.975759506225585938e+00 4.582847595214843750e+00 -5.174689888954162598e-01
3.914000000000000000e+03 3.827281570434570312e+01 -7.891079425811767578e+00 4.769105911254882812e+00 9.769734382629394531e+00 4.361651897430419922e+00 -7.352787852287292480e-01
3.915000000000000000e+03 3.363039398193359375e+01 -1.905040383338928223e+00 6.865260601043701172e-01 1.198898792266845703e+01 3.802654266357421875e+00 -1.220176577568054199e+00
3.916000000000000000e+03 3.393478775024414062e+01 -2.106153488159179688e+00 8.044424057006835938e-01 1.235377788543701172e+01 3.947465896606445312e+00 -8.427366614341735840e-01
3.917000000000000000e+03 3.271553802490234375e+01 -1.700357913970947266e+00 5.945541858673095703e-01 1.103468704223632812e+01 3.488772392272949219e+00 -2.298315048217773438e+00
3.918000000000000000e+03 2.934063148498535156e+01 3.445355176925659180e+00 3.552913367748260498e-01 5.606972694396972656e+00 1.788679122924804688e+00 -2.256921768188476562e+00
3.919000000000000000e+03 3.028791999816894531e+01 3.422439813613891602e+00 2.105501890182495117e-01 6.313047409057617188e+00 1.957079291343688965e+00 -2.204595327377319336e+00
3.920000000000000000e+03 3.807818603515625000e+01 -2.730651378631591797e+00 2.756495237350463867e+00 1.031342601776123047e+01 3.920976400375366211e+00 1.271539092063903809e+00
3.921000000000000000e+03 3.130778503417968750e+01 1.269546127319335938e+01 -3.855762183666229248e-01 5.776237010955810547e+00 1.617198228836059570e+00 -1.140309095382690430e+00
3.922000000000000000e+03 5.311243820190429688e+01 -1.384148788452148438e+01 9.375451207160949707e-01 7.758661270141601562e+00 2.608861923217773438e+00 -5.912235975265502930e-01
3.923000000000000000e+03 2.910654830932617188e+01 -1.703938674926757812e+01 3.167322874069213867e-01 5.299508094787597656e+00 1.684872150421142578e+00 2.127010583877563477e+00
3.924000000000000000e+03 3.939034271240234375e+01 1.021357154846191406e+01 -4.933769106864929199e-01 7.881479263305664062e+00 2.216430664062500000e+00 -2.600886486470699310e-02
3.925000000000000000e+03 3.776220321655273438e+01 -6.496709346771240234e+00 5.467821598052978516e+00 9.970151901245117188e+00 4.631392002105712891e+00 1.367046833038330078e-01
3.926000000000000000e+03 3.782543945312500000e+01 -6.224403381347656250e+00 5.368246078491210938e+00 9.962069511413574219e+00 4.599094390869140625e+00 3.119863569736480713e-01
3.927000000000000000e+03 3.457494735717773438e+01 -1.284636592864990234e+01 2.827689945697784424e-01 1.109460067749023438e+01 3.413210868835449219e+00 5.583607554435729980e-01
3.928000000000000000e+03 3.415541076660156250e+01 -1.309780883789062500e+01 1.037395223975181580e-01 1.075331115722656250e+01 3.257115125656127930e+00 1.020935416221618652e+00
3.929000000000000000e+03 3.083135414123535156e+01 4.821650028228759766e+00 -3.029858693480491638e-02 6.521370410919189453e+00 1.947321534156799316e+00 -1.913800120353698730e+00
3.930000000000000000e+03 3.286380386352539062e+01 -1.107077121734619141e+00 4.464421272277832031e-01 1.057817840576171875e+01 3.307386159896850586e+00 -2.073307991027832031e+00
3.931000000000000000e+03 3.245652389526367188e+01 -1.324735283851623535e+00 5.627371072769165039e-01 1.025897979736328125e+01 3.246515274047851562e+00 -2.457461595535278320e+00
3.932000000000000000e+03 3.795860671997070312e+01 -4.099426269531250000e+00 3.923094987869262695e+00 1.021535587310791016e+01 4.241535186767578125e+00 1.234425663948059082e+00
3.933000000000000000e+03 3.828697967529296875e+01 -4.561755180358886719e+00 4.200415611267089844e+00 9.956070899963378906e+00 4.246946334838867188e+00 1.063612580299377441e+00
3.934000000000000000e+03 4.830974197387695312e+01 9.563039779663085938e+00 -1.964287273585796356e-02 7.991760730743408203e+00 2.391635417938232422e+00 7.874788045883178711e-01
3.935000000000000000e+03 3.841268920898437500e+01 -7.463091373443603516e+00 4.901242733001708984e+00 9.670002937316894531e+00 4.371373653411865234e+00 -5.017998814582824707e-01
3.936000000000000000e+03 3.740467071533203125e+01 -6.102146148681640625e+00 5.642550468444824219e+00 1.023394680023193359e+01 4.762948989868164062e+00 4.493501782417297363e-01
3.937000000000000000e+03 4.410014724731445312e+01 -1.831436538696289062e+01 2.212102115154266357e-01 8.583971023559570312e+00 2.641554355621337891e+00 -8.212792873382568359e-01
3.938000000000000000e+03 3.836805343627929688e+01 -5.311103820800781250e+00 4.662554740905761719e+00 9.788368225097656250e+00 4.335277080535888672e+00 7.795448899269104004e-01
3.939000000000000000e+03 6.183473587036132812e+01 1.857292294502258301e+00 4.750265181064605713e-01 7.547198295593261719e+00 2.406667470932006836e+00 5.649169683456420898e-01
3.940000000000000000e+03 3.124183082580566406e+01 3.437892436981201172e+00 4.275137186050415039e-02 7.030577659606933594e+00 2.121998786926269531e+00 -2.054230690002441406e+00
3.941000000000000000e+03 3.859184265136718750e+01 -1.048272991180419922e+01 2.913913488388061523e+00 1.002919101715087891e+01 3.882931232452392578e+00 -1.330321311950683594e+00
3.942000000000000000e+03 6.912467956542968750e+01 -1.405867481231689453e+01 1.965165585279464722e-01 7.357246398925781250e+00 2.266128778457641602e+00 -2.313825786113739014e-01
3.943000000000000000e+03 6.523149871826171875e+01 7.578775405883789062e+00 1.670735329389572144e-01 7.645710945129394531e+00 2.343835353851318359e+00 6.469191312789916992e-01
3.944000000000000000e+03 6.660796356201171875e+01 8.230124473571777344e+00 1.206961721181869507e-01 7.653228282928466797e+00 2.332177400588989258e+00 6.167719960212707520e-01
3.945000000000000000e+03 3.833501815795898438e+01 -6.488276481628417969e+00 5.085629463195800781e+00 9.660820960998535156e+00 4.423934936523437500e+00 1.076110005378723145e-01
3.946000000000000000e+03 2.847378158569335938e+01 -1.488307857513427734e+01 8.233836293220520020e-01 4.638535499572753906e+00 1.638575673103332520e+00 2.428817510604858398e+00
3.947000000000000000e+03 3.829014968872070312e+01 -2.282455921173095703e+00 2.438497781753540039e+00 1.019823074340820312e+01 3.791018724441528320e+00 1.233148217201232910e+00
3.948000000000000000e+03 3.409402847290039062e+01 -1.190665125846862793e+00 5.357607603073120117e-01 1.139517688751220703e+01 3.579281330108642578e+00 -9.182825088500976562e-01
3.949000000000000000e+03 3.877357864379882812e+01 -4.538679599761962891e+00 4.030963420867919922e+00 9.676410675048828125e+00 4.112212181091308594e+00 9.809952378273010254e-01
3.950000000000000000e+03 3.091590690612792969e+01 4.187867939472198486e-01 5.990012884140014648e-01 7.333486080169677734e+00 2.379746198654174805e+00 -2.730770111083984375e+00
3.951000000000000000e+03 2.700111579895019531e+01 -1.456125545501708984e+01 1.013055324554443359e+00 3.286960124969482422e+00 1.290004611015319824e+00 2.040927171707153320e+00
3.952000000000000000e+03 3.846732711791992188e+01 -3.793045759201049805e+00 3.616247653961181641e+00 9.954239845275878906e+00 4.071146011352539062e+00 1.208656430244445801e+00
3.953000000000000000e+03 3.880239868164062500e+01 -3.868779420852661133e+00 3.620059728622436523e+00 9.772999763488769531e+00 4.017917633056640625e+00 1.154729366302490234e+00
3.954000000000000000e+03 3.191883850097656250e+01 5.058844566345214844e+00 -1.740932911634445190e-01 7.086948394775390625e+00 2.073856592178344727e+00 -1.684558272361755371e+00
3.955000000000000000e+03 3.847228240966796875e+01 -8.383114814758300781e+00 4.432116508483886719e+00 9.750787734985351562e+00 4.254871368408203125e+00 -9.220992922782897949e-01
3.956000000000000000e+03 3.897304534912109375e+01 -7.584511280059814453e+00 4.545384407043457031e+00 9.417653083801269531e+00 4.188910961151123047e+00 -5.110847353935241699e-01
3.957000000000000000e+03 3.883445358276367188e+01 -6.881747245788574219e+00 4.762533187866210938e+00 9.432353019714355469e+00 4.258465766906738281e+00 -1.136007979512214661e-01
3.958000000000000000e+03 3.886352920532226562e+01 -5.595690250396728516e+00 4.537216186523437500e+00 9.488295555114746094e+00 4.207653522491455078e+00 5.685930252075195312e-01
3.959000000000000000e+03 3.976409530639648438e+01 -2.895246744155883789e+00 2.885381937026977539e+00 9.436978340148925781e+00 3.696707963943481445e+00 1.144682288169860840e+00
3.960000000000000000e+03 5.351702117919921875e+01 2.237739086151123047e+00 8.144435286521911621e-01 7.740073204040527344e+00 2.566354990005493164e+00 7.891779541969299316e-01
3.961000000000000000e+03 3.909496688842773438e+01 -6.301945209503173828e+00 4.657732009887695312e+00 9.325910568237304688e+00 4.195092678070068359e+00 1.938122510910034180e-01
3.962000000000000000e+03 3.865511703491210938e+01 -6.263764381408691406e+00 4.854490280151367188e+00 9.508852958679199219e+00 4.309002876281738281e+00 2.274091988801956177e-01
3.963000000000000000e+03 6.649114227294921875e+01 -1.711562156677246094e+01 1.992640793323516846e-01 7.481473922729492188e+00 2.304221391677856445e+00 -3.663275241851806641e-01
3.964000000000000000e+03 3.367762374877929688e+01 -1.447625541687011719e+01 -1.179706901311874390e-01 9.635041236877441406e+00 2.855121135711669922e+00 1.305028676986694336e+00
3.965000000000000000e+03 3.369025421142578125e+01 -1.501661491394042969e+01 -1.799865961074829102e-01 9.338707923889160156e+00 2.747616291046142578e+00 1.283722639083862305e+00
3.966000000000000000e+03 2.905914688110351562e+01 -1.519058513641357422e+01 6.781219244003295898e-01 5.113294601440429688e+00 1.737424969673156738e+00 2.460186958312988281e+00
3.967000000000000000e+03 3.750842666625976562e+01 -2.071963787078857422e+00 2.184388637542724609e+00 1.062074375152587891e+01 3.841539859771728516e+00 1.171920418739318848e+00
3.968000000000000000e+03 5.960823822021484375e+01 -5.374393463134765625e-01 6.957660913467407227e-01 7.525684356689453125e+00 2.466435194015502930e+00 4.910356700420379639e-01
3.969000000000000000e+03 3.338052749633789062e+01 -3.182089328765869141e-01 2.495021075010299683e-01 1.031937694549560547e+01 3.170663833618164062e+00 -1.611468076705932617e+00
3.970000000000000000e+03 4.029864501953125000e+01 -1.031276130676269531e+01 2.905737161636352539e+00 9.250222206115722656e+00 3.646787881851196289e+00 -1.125075340270996094e+00
3.971000000000000000e+03 3.849296569824218750e+01 -1.137226390838623047e+01 2.207062959671020508e+00 1.013687038421630859e+01 3.703179836273193359e+00 -1.265134930610656738e+00
3.972000000000000000e+03 3.744627380371093750e+01 6.613493442535400391e+00 -3.792192339897155762e-01 8.338200569152832031e+00 2.387694358825683594e+00 -2.463143169879913330e-01
3.973000000000000000e+03 3.427953720092773438e+01 1.930275410413742065e-01 2.198919802904129028e-01 1.032921314239501953e+01 3.164731740951538086e+00 -9.330973625183105469e-01
3.974000000000000000e+03 3.372649002075195312e+01 2.816676795482635498e-01 1.407610028982162476e-01 1.007180404663085938e+01 3.063769340515136719e+00 -1.373228311538696289e+00
3.975000000000000000e+03 3.913914489746093750e+01 -4.146971225738525391e+00 3.703989505767822266e+00 9.549757957458496094e+00 3.976124286651611328e+00 1.045013546943664551e+00
3.976000000000000000e+03 3.897016525268554688e+01 -3.589767932891845703e+00 3.420436143875122070e+00 9.726291656494140625e+00 3.944018125534057617e+00 1.166767477989196777e+00
3.977000000000000000e+03 6.809540557861328125e+01 -1.648222160339355469e+01 1.834606379270553589e-01 7.427881240844726562e+00 2.283402681350708008e+00 -3.171921372413635254e-01
3.978000000000000000e+03 3.951453399658203125e+01 -3.711067438125610352e+00 3.390235900878906250e+00 9.438247680664062500e+00 3.848545074462890625e+00 1.081374883651733398e+00
3.979000000000000000e+03 3.929288482666015625e+01 -6.874404430389404297e+00 4.531137466430664062e+00 9.241858482360839844e+00 4.131898880004882812e+00 -1.050298810005187988e-01
3.980000000000000000e+03 3.905543899536132812e+01 -6.685937881469726562e+00 4.698937892913818359e+00 9.329504013061523438e+00 4.208532333374023438e+00 -1.758097298443317413e-02
3.981000000000000000e+03 6.225331115722656250e+01 -1.674379110336303711e+00 5.631877779960632324e-01 7.477173805236816406e+00 2.412108421325683594e+00 3.826016187667846680e-01
3.982000000000000000e+03 3.302665710449218750e+01 4.304148554801940918e-01 1.641528606414794922e-01 9.449686050415039062e+00 2.884151697158813477e+00 -1.848775506019592285e+00
3.983000000000000000e+03 3.349825668334960938e+01 4.636056423187255859e-01 9.091344475746154785e-02 9.889653205871582031e+00 2.994169950485229492e+00 -1.519973278045654297e+00
3.984000000000000000e+03 3.913877105712890625e+01 -5.931092262268066406e+00 4.521372318267822266e+00 9.322432518005371094e+00 4.153141498565673828e+00 3.623952865600585938e-01
3.985000000000000000e+03 3.958440780639648438e+01 -7.576751232147216797e+00 4.255452632904052734e+00 9.164359092712402344e+00 4.025943756103515625e+00 -4.433061778545379639e-01
3.986000000000000000e+03 3.392448806762695312e+01 4.948286712169647217e-01 1.103635206818580627e-01 9.932339668273925781e+00 3.012810945510864258e+00 -1.210188865661621094e+00
3.987000000000000000e+03 4.167857742309570312e+01 -1.207222652435302734e+01 1.985474228858947754e+00 8.975240707397460938e+00 3.288214445114135742e+00 -1.111986994743347168e+00
3.988000000000000000e+03 3.309430313110351562e+01 3.230823755264282227e+00 -1.606108248233795166e-01 8.261029243469238281e+00 2.430125474929809570e+00 -1.563064694404602051e+00
3.989000000000000000e+03 5.938134384155273438e+01 -1.926085710525512695e+00 7.439767718315124512e-01 7.510168075561523438e+00 2.476243495941162109e+00 4.092783927917480469e-01
3.990000000000000000e+03 3.280809783935546875e+01 9.730750322341918945e-02 2.208749204874038696e-01 9.580442428588867188e+00 2.940395355224609375e+00 -2.039150476455688477e+00
3.991000000000000000e+03 3.366558456420898438e+01 7.409778833389282227e-01 5.718644335865974426e-02 9.750710487365722656e+00 2.942368984222412109e+00 -1.385086178779602051e+00
3.992000000000000000e+03 3.646015548706054688e+01 6.964583396911621094e+00 -4.174561798572540283e-01 8.099154472351074219e+00 2.304509401321411133e+00 -4.664965569972991943e-01
3.993000000000000000e+03 3.089790725708007812e+01 7.141542911529541016e+00 -1.973464041948318481e-01 6.179814338684082031e+00 1.794740438461303711e+00 -1.657509684562683105e+00
3.994000000000000000e+03 3.903052139282226562e+01 -1.386647343635559082e+00 1.982974886894226074e+00 9.792519569396972656e+00 3.532648324966430664e+00 1.141520261764526367e+00
3.995000000000000000e+03 3.977447509765625000e+01 -6.699278354644775391e+00 4.328056335449218750e+00 9.062961578369140625e+00 4.017305374145507812e+00 -1.827532052993774414e-02
3.996000000000000000e+03 6.364139938354492188e+01 -8.542308807373046875e+00 5.359964370727539062e-01 7.417402744293212891e+00 2.386019706726074219e+00 -3.289227932691574097e-02
3.997000000000000000e+03 6.259354782104492188e+01 -7.886309146881103516e+00 6.033474206924438477e-01 7.428819179534912109e+00 2.409649848937988281e+00 4.686500411480665207e-03
3.998000000000000000e+03 3.995732116699218750e+01 -8.168399810791015625e+00 4.001284122467041016e+00 9.116227149963378906e+00 3.935253381729125977e+00 -6.480073928833007812e-01
3.999000000000000000e+03 3.377052307128906250e+01 2.777994394302368164e+00 -1.573885530233383179e-01 8.829009056091308594e+00 2.601486206054687500e+00 -1.281958818435668945e+00
4.000000000000000000e+03 3.437264251708984375e+01 2.823475122451782227e+00 -1.603449881076812744e-01 8.999990463256835938e+00 2.651893615722656250e+00 -1.018402338027954102e+00
4.001000000000000000e+03 3.430354690551757812e+01 3.419603347778320312e+00 -2.165884971618652344e-01 8.682236671447753906e+00 2.539694547653198242e+00 -1.031242251396179199e+00
4.002000000000000000e+03 3.453345108032226562e+01 6.931848049163818359e+00 -4.336389005184173584e-01 7.771023273468017578e+00 2.201215267181396484e+00 -9.490920305252075195e-01
4.003000000000000000e+03 6.052042770385742188e+01 -4.015751838684082031e+00 7.413547039031982422e-01 7.464298725128173828e+00 2.461695909500122070e+00 2.624675929546356201e-01
4.004000000000000000e+03 4.124632644653320312e+01 -1.026095962524414062e+01 2.797725439071655273e+00 8.931380271911621094e+00 3.518731594085693359e+00 -1.003362655639648438e+00
4.005000000000000000e+03 4.153730392456054688e+01 -1.078353500366210938e+01 2.536514759063720703e+00 8.905337333679199219e+00 3.432555437088012695e+00 -1.037938833236694336e+00
4.006000000000000000e+03 6.322624206542968750e+01 -6.833688735961914062e+00 5.890361070632934570e-01 7.417769432067871094e+00 2.402041673660278320e+00 6.121338531374931335e-02
4.007000000000000000e+03 3.946332550048828125e+01 -6.624200344085693359e+00 4.480247497558593750e+00 9.164045333862304688e+00 4.093287944793701172e+00 9.217856451869010925e-03
4.008000000000000000e+03 4.209550857543945312e+01 -1.059292221069335938e+01 2.569303512573242188e+00 8.758031845092773438e+00 3.398200750350952148e+00 -9.620227217674255371e-01
4.009000000000000000e+03 4.292977523803710938e+01 -1.094690132141113281e+01 2.295305490493774414e+00 8.605116844177246094e+00 3.270126819610595703e+00 -9.354631900787353516e-01
4.010000000000000000e+03 4.218756484985351562e+01 -5.618597507476806641e+00 3.293107271194458008e+00 8.480634689331054688e+00 3.532122611999511719e+00 3.432832360267639160e-01
4.011000000000000000e+03 4.501126480102539062e+01 -8.670287132263183594e+00 2.503138065338134766e+00 8.099356651306152344e+00 3.180748462677001953e+00 -4.313237369060516357e-01
4.012000000000000000e+03 4.206975173950195312e+01 -6.309440612792968750e+00 3.439181566238403320e+00 8.485527038574218750e+00 3.577412605285644531e+00 1.186023950576782227e-01
4.013000000000000000e+03 4.186775970458984375e+01 -5.967926979064941406e+00 3.464262008666992188e+00 8.544646263122558594e+00 3.602672338485717773e+00 2.458171099424362183e-01
4.014000000000000000e+03 1.488040065765380859e+01 1.046121835708618164e+00 -4.377146542537957430e-04 -4.806465585716068745e-04 -2.755083842203021049e-04 1.355517724732635543e-05
4.015000000000000000e+03 1.433596038818359375e+01 8.109902739524841309e-01 -2.891577605623751879e-04 1.912022125907242298e-04 -2.938667057605925947e-05 -2.654092677403241396e-04
4.016000000000000000e+03 1.339948463439941406e+01 9.943951964378356934e-01 -5.953422805760055780e-05 -2.684464925550855696e-05 -2.591366319393273443e-05 3.868648855132050812e-05
4.017000000000000000e+03 1.399857616424560547e+01 1.078236818313598633e+00 6.271398160606622696e-05 2.653367992024868727e-04 9.841523569775745273e-05 1.766413515724707395e-05
4.018000000000000000e+03 1.342517852783203125e+01 2.516243755817413330e-01 -1.524400795460678637e-05 1.960282679647207260e-05 1.307645447923277970e-06 -3.649466407296131365e-06
4.019000000000000000e+03 1.503903388977050781e+01 3.840551078319549561e-01 1.700054963293951005e-05 4.714589522336609662e-05 1.924393473018426448e-05 3.886120975948870182e-05
4.020000000000000000e+03 1.424006271362304688e+01 2.423980534076690674e-01 4.220825576339848340e-05 -4.857587919104844332e-05 -1.910287437567603774e-06 -3.721968823811039329e-05
4.021000000000000000e+03 1.447602939605712891e+01 1.142013788223266602e+00 -9.297123324358835816e-05 3.647613266366533935e-05 -1.694853199296630919e-05 5.150706783751957119e-06
4.022000000000000000e+03 1.113503360748291016e+01 3.384475409984588623e-01 8.156572584994137287e-05 8.807583799352869391e-05 5.089246769784949720e-05 -1.018476450553862378e-05
4.023000000000000000e+03 1.115649890899658203e+01 1.078244447708129883e+00 9.489565127296373248e-05 -3.165367525070905685e-05 1.897259426186792552e-05 1.398384047206491232e-04
4.024000000000000000e+03 1.038435840606689453e+01 3.729175329208374023e-01 1.237817778019234538e-04 -8.363301458302885294e-05 1.204462932946626097e-05 5.795639663119800389e-05
4.025000000000000000e+03 1.188578510284423828e+01 3.038018345832824707e-01 3.068476507905870676e-05 -7.780538726365193725e-05 -1.413618701917584985e-05 3.880376243614591658e-05
4.026000000000000000e+03 1.263660717010498047e+01 2.689834535121917725e-01 4.368638201412977651e-06 5.083418000140227377e-05 1.656084532442037016e-05 3.009911097251460887e-06
4.027000000000000000e+03 1.266393947601318359e+01 1.008509635925292969e+00 2.733325709414202720e-05 3.159655898343771696e-05 1.767894536897074431e-05 9.281621169066056609e-05
4.028000000000000000e+03 1.040289020538330078e+01 1.112849831581115723e+00 9.160636545857414603e-05 1.765260640240740031e-05 3.277769064879976213e-05 -8.334617450600489974e-05
4.029000000000000000e+03 1.191018390655517578e+01 1.043463349342346191e+00 7.705413008807227015e-05 5.678531124431174248e-06 2.481979936419520527e-05 -1.416137547494145110e-05
4.030000000000000000e+03 9.630480766296386719e+00 3.871794641017913818e-01 1.593105116626247764e-04 4.232252467772923410e-05 6.048991053830832243e-05 -4.269557757652364671e-05
4.031000000000000000e+03 8.873666763305664062e+00 3.829238712787628174e-01 1.985794806387275457e-04 2.113443770213052630e-05 6.591418059542775154e-05 8.980542770586907864e-05
4.032000000000000000e+03 9.660673141479492188e+00 1.127179503440856934e+00 1.564796257298439741e-04 2.742452670645434409e-05 5.517124373000115156e-05 2.314176672371104360e-04
4.033000000000000000e+03 8.116720199584960938e+00 3.805542886257171631e-01 2.238317247247323394e-04 -9.833217336563393474e-05 3.764986831811256707e-05 -7.075902976794168353e-05
4.034000000000000000e+03 7.360193252563476562e+00 3.795430362224578857e-01 2.477797970641404390e-04 1.578056835569441319e-04 1.216756500070914626e-04 9.306237188866361976e-05
4.035000000000000000e+03 5.847065925598144531e+00 3.768712580204010010e-01 2.393261966062709689e-04 2.295141603099182248e-04 1.406521041644737124e-04 8.203243487514555454e-05
4.036000000000000000e+03 5.091114044189453125e+00 3.758820295333862305e-01 1.850699627539142966e-04 -2.446010475978255272e-04 -1.785932545317336917e-05 -1.143588888226076961e-04
4.037000000000000000e+03 3.579006433486938477e+00 3.681437373161315918e-01 8.469379099551588297e-05 -2.363497333135455847e-04 -4.549678487819619477e-05 -1.329043298028409481e-04
4.038000000000000000e+03 2.823871612548828125e+00 3.614119887351989746e-01 7.470958371413871646e-05 2.203862823080271482e-04 8.852875907905399799e-05 8.425128180533647537e-05
4.039000000000000000e+03 2.070111274719238281e+00 3.578882515430450439e-01 4.679716312239179388e-06 -1.806020154617726803e-04 -5.277668606140650809e-05 -1.089461657102219760e-04
4.040000000000000000e+03 2.362852334976196289e+00 1.097888231277465820e+00 1.525097104604355991e-05 1.478997146477922797e-04 4.894520679954439402e-05 3.433080564718693495e-05
4.041000000000000000e+03 1.328713655471801758e+00 3.659794926643371582e-01 2.639444028318393975e-05 1.518702629255130887e-04 5.347941259969957173e-05 8.477114170091226697e-05
4.042000000000000000e+03 1.647709608078002930e+00 1.105979442596435547e+00 7.253928924910724163e-05 -6.118655437603592873e-05 3.405820734769804403e-06 -9.380099072586745024e-05
4.043000000000000000e+03 6.516475677490234375e-01 3.939257264137268066e-01 -1.215000229422003031e-04 -1.453661243431270123e-04 -8.005984273040667176e-05 -1.423601934220641851e-04
4.044000000000000000e+03 3.489431142807006836e-01 9.570703506469726562e-01 1.491306757088750601e-04 8.094598888419568539e-05 6.902300083311274648e-05 4.310422082198783755e-05
4.045000000000000000e+03 3.090358018875122070e+00 1.101411938667297363e+00 1.260302233276888728e-04 -1.539849909022450447e-04 -8.386431545659434050e-06 -1.811278052628040314e-04
4.046000000000000000e+03 3.819237709045410156e+00 1.108143687248229980e+00 1.308341306867077947e-04 1.640380069147795439e-04 8.846163837006315589e-05 6.744776328559964895e-05
4.047000000000000000e+03 4.335169315338134766e+00 3.733847737312316895e-01 1.764419284882023931e-04 2.402249083388596773e-04 1.250000495929270983e-04 8.239226008299738169e-05
4.048000000000000000e+03 6.008533000946044922e+00 1.116871237754821777e+00 2.229375822935253382e-04 -2.149084029952064157e-04 2.408754653515643440e-06 -1.795787247829139233e-04
4.049000000000000000e+03 6.603851795196533203e+00 3.786112964153289795e-01 2.403711114311590791e-04 -2.117911062669008970e-04 8.574001185479573905e-06 -9.298331860918551683e-05
4.050000000000000000e+03 8.930113792419433594e+00 1.122923851013183594e+00 1.678911939961835742e-04 -8.156814874382689595e-05 2.589691393950488418e-05 -1.552523463033139706e-04
4.051000000000000000e+03 8.199422836303710938e+00 1.120554327964782715e+00 1.950545411091297865e-04 1.091629746952094138e-04 9.126525401370599866e-05 2.401838282821699977e-04
4.052000000000000000e+03 7.469150543212890625e+00 1.119543075561523438e+00 2.200941089540719986e-04 -1.759792648954316974e-04 1.323445303569315001e-05 -1.755629054969176650e-04
4.053000000000000000e+03 6.739063739776611328e+00 1.118611335754394531e+00 2.094228257192298770e-04 1.658121473155915737e-04 1.125704875448718667e-04 1.719747378956526518e-04
4.054000000000000000e+03 5.278835773468017578e+00 1.115882039070129395e+00 1.945136464200913906e-04 1.765717606758698821e-04 1.113256221287883818e-04 9.614352165954187512e-05
4.055000000000000000e+03 4.549146175384521484e+00 1.113384723663330078e+00 1.634958025533705950e-04 -1.898113405331969261e-04 -7.894662303442601115e-06 -1.952540333149954677e-04
4.056000000000000000e+03 9.968983530998229980e-01 1.133925795555114746e+00 3.752893462660722435e-05 2.812986622302560136e-06 1.210257687489502132e-05 4.898649785900488496e-05
4.057000000000000000e+03 7.947246074676513672e+00 -3.790149092674255371e-01 -1.433990400983020663e-04 -2.423069818178191781e-04 -1.157118022092618048e-04 1.171849726233631372e-04
4.058000000000000000e+03 8.798082351684570312e+00 -1.121163964271545410e+00 -1.381606271024793386e-04 -1.360369060421362519e-04 -8.225925557781010866e-05 2.665959473233669996e-04
4.059000000000000000e+03 9.582462310791015625e+00 -3.862577378749847412e-01 -9.456634870730340481e-05 -7.770259981043636799e-05 -5.168068310013040900e-05 9.887915075523778796e-05
4.060000000000000000e+03 7.128131389617919922e+00 -3.778152763843536377e-01 -6.949689850443974137e-05 3.211368457414209843e-04 7.549198198830708861e-05 -1.238452969118952751e-04
4.061000000000000000e+03 6.302709579467773438e+00 -3.771458566188812256e-01 -1.502552186138927937e-04 -3.739361418411135674e-04 -1.572574110468849540e-04 1.271728397114202380e-04
4.062000000000000000e+03 5.439445972442626953e+00 -3.834656774997711182e-01 -1.442066131858155131e-04 3.673335886560380459e-04 6.693808973068371415e-05 -7.040184573270380497e-05
4.063000000000000000e+03 4.549984931945800781e+00 -3.402172923088073730e-01 -8.022791735129430890e-05 -3.507194342091679573e-04 -1.292842061957344413e-04 -2.068983121716883034e-05
4.064000000000000000e+03 4.365737915039062500e+00 -8.721476197242736816e-01 4.523240932030603290e-05 2.069403271889314055e-04 7.565182022517547011e-05 8.926908776629716158e-05
4.065000000000000000e+03 2.784216165542602539e+00 -7.810403704643249512e-01 2.773273081402294338e-05 9.861336366157047451e-06 1.127821997215505689e-05 8.119904669001698494e-05
4.066000000000000000e+03 1.180924773216247559e+00 -3.613742887973785400e-01 -1.413859135936945677e-04 1.540115135867381468e-06 -4.195373912807554007e-05 -2.863051349777379073e-06
4.067000000000000000e+03 4.100910127162933350e-01 -5.529776215553283691e-01 -1.861866985564120114e-05 -5.844722545589320362e-05 -2.311976822966244072e-05 -4.618895036401227117e-05
4.068000000000000000e+03 7.475960254669189453e-01 -1.101374268531799316e+00 4.216847883071750402e-04 1.578853552928194404e-04 1.738710416248068213e-04 9.921040327753871679e-05
4.069000000000000000e+03 9.582078933715820312e+00 -1.126257777214050293e+00 3.103122799075208604e-05 1.030527564580552280e-04 4.022519351565279067e-05 -2.164865727536380291e-04
4.070000000000000000e+03 8.013586997985839844e+00 -1.119014978408813477e+00 2.792336999846156687e-05 1.768750807968899608e-04 6.143953214632347226e-05 -2.269664255436509848e-04
4.071000000000000000e+03 7.227835178375244141e+00 -1.117815256118774414e+00 -1.740716688800603151e-04 -1.807564403861761093e-04 -1.064484386006370187e-04 2.426704159006476402e-04
4.072000000000000000e+03 6.435775756835937500e+00 -1.117145895957946777e+00 2.628622496558818966e-06 1.952306338353082538e-04 5.935777880949899554e-05 -2.142857993021607399e-04
4.073000000000000000e+03 5.605874538421630859e+00 -1.123465657234191895e+00 -1.062060910044237971e-04 -1.776538847479969263e-04 -8.515799709130078554e-05 1.919978385558351874e-04
4.074000000000000000e+03 4.870606899261474609e+00 -1.221678614616394043e+00 -9.644941746955737472e-05 8.731146226637065411e-05 -2.741386424531810917e-06 -3.677689237520098686e-04
4.075000000000000000e+03 4.215381145477294922e+00 -1.291930317878723145e+00 -1.060284484992735088e-04 -8.924147550715133548e-05 -5.858097938471473753e-05 1.987873256439343095e-04
4.076000000000000000e+03 3.483533143997192383e+00 -1.264367222785949707e+00 3.141729757771827281e-05 1.171083422377705574e-04 4.455769158084876835e-05 -5.783098094980232418e-05
4.077000000000000000e+03 2.720056772232055664e+00 -1.259521603584289551e+00 -6.019996362738311291e-05 -1.493936579208821058e-04 -6.287809083005413413e-05 -7.559805817436426878e-05
4.078000000000000000e+03 1.356012225151062012e+00 -1.203287243843078613e+00 -3.027524217031896114e-04 -3.788252070080488920e-04 -2.044732827926054597e-04 -6.134825525805354118e-05
4.079000000000000000e+03 1.973117947578430176e+00 -8.476541042327880859e-01 1.301801967201754451e-04 9.573368151905015111e-05 6.777416274417191744e-05 -2.142157609341666102e-04
4.080000000000000000e+03 8.765102386474609375e+00 -3.811639845371246338e-01 -5.851749301655218005e-05 1.617015659576281905e-04 3.095521969953551888e-05 -9.091233368963003159e-05
4.081000000000000000e+03 3.694828748703002930e+00 -2.827752828598022461e-01 -6.143506470834836364e-05 3.046232741326093674e-04 7.295646355487406254e-05 6.016382758389227092e-05
4.082000000000000000e+03 2.863922595977783203e+00 -2.815187871456146240e-01 -1.429364638170227408e-04 -2.092880458803847432e-04 -1.056673499988391995e-04 -6.617148756049573421e-05
4.083000000000000000e+03 1.994147539138793945e+00 -3.323310017585754395e-01 -2.707928251766134053e-05 8.504008292220532894e-05 1.738823993946425617e-05 5.024993879487738013e-05
4.084000000000000000e+03 1.978801369667053223e+00 -1.275323033332824707e+00 -4.642139538191258907e-05 2.942833234556019306e-04 7.435858424287289381e-05 -2.464843419147655368e-05
4.085000000000000000e+03 3.578665971755981445e+00 -7.871425151824951172e-01 -1.711311197141185403e-04 -1.305277110077440739e-04 -9.049764776136726141e-05 -6.813886284362524748e-05
4.086000000000000000e+03 1.511178874969482422e+01 -1.151870131492614746e+00 3.451528755249455571e-05 -1.224972675117896870e-05 6.679667876596795395e-06 -5.498501923284493387e-05
4.087000000000000000e+03 1.328532791137695312e+01 -1.267471551895141602e+00 -1.014595363812986761e-05 -4.577335130306892097e-05 -1.677579166425857693e-05 7.617459050379693508e-05
4.088000000000000000e+03 1.480503654479980469e+01 -5.744030475616455078e-01 4.701942816609516740e-05 2.560840039222966880e-05 2.178834802180062979e-05 -1.468394020776031539e-05
4.089000000000000000e+03 1.453040313720703125e+01 -1.313965797424316406e+00 -1.299280265811830759e-04 -4.725128019344992936e-05 -5.315379166859202087e-05 1.604624121682718396e-04
4.090000000000000000e+03 1.393833351135253906e+01 -1.278923630714416504e+00 2.836641033354680985e-05 7.980543159646913409e-05 3.245155312470160425e-05 -1.267855841433629394e-04
4.091000000000000000e+03 1.336329460144042969e+01 -5.279909372329711914e-01 1.229899771715281531e-05 1.031953706842614338e-05 6.785560344724217430e-06 -3.368985926499590278e-05
4.092000000000000000e+03 1.411463356018066406e+01 -5.394020080566406250e-01 -5.973149200144689530e-06 -1.582219738338608295e-05 -6.538603884109761566e-06 4.267429176252335310e-05
4.093000000000000000e+03 1.111242771148681641e+01 -4.403275847434997559e-01 -5.698081440641544759e-05 4.091081063961610198e-05 -4.821002221433445811e-06 6.911661330377683043e-05
4.094000000000000000e+03 1.260764503479003906e+01 -5.095726251602172852e-01 -1.518679709988646209e-05 1.107159005186986178e-05 -1.234562205354450271e-06 2.624117769300937653e-05
4.095000000000000000e+03 1.185993289947509766e+01 -4.741277396678924561e-01 2.515876440156716853e-05 -4.774902845383621752e-05 -6.777078851882833987e-06 -2.599859908514190465e-05
4.096000000000000000e+03 1.109096240997314453e+01 -1.180124521255493164e+00 1.059943169821053743e-04 -2.041719380940776318e-05 2.567313640611246228e-05 -1.566008868394419551e-04
4.097000000000000000e+03 1.036482620239257812e+01 -4.067706167697906494e-01 -1.586360122018959373e-05 7.557072876807069406e-06 -2.491958412065287121e-06 -6.834013765910640359e-05
4.098000000000000000e+03 1.034629440307617188e+01 -1.146702885627746582e+00 -1.268082123715430498e-04 -5.130779027240350842e-05 -5.343480006558820605e-05 2.694932627491652966e-04
4.099000000000000000e+03 1.258031177520751953e+01 -1.249099493026733398e+00 6.977504381211474538e-05 -3.234744508517906070e-05 1.122827870858600363e-05 -5.326155587681569159e-05
4.100000000000000000e+03 1.183553314208984375e+01 -1.213789224624633789e+00 -1.246439351234585047e-04 3.525543434079736471e-05 -2.681654950720258057e-05 1.295774418395012617e-04
4.101000000000000000e+03 3.202027511596679688e+01 -6.790966510772705078e+00 3.301439666748046875e+01 6.534104824066162109e+00 1.186455059051513672e+01 1.232439899444580078e+01
4.102000000000000000e+03 3.202437591552734375e+01 -6.809998035430908203e+00 3.004340362548828125e+01 1.886765670776367188e+01 1.467331790924072266e+01 2.317714881896972656e+01
4.103000000000000000e+03 3.203210067749023438e+01 -6.827867507934570312e+00 2.769711685180664062e+01 3.084265518188476562e+01 1.756193161010742188e+01 2.678610229492187500e+01
4.104000000000000000e+03 3.204315948486328125e+01 -6.843891143798828125e+00 2.388478279113769531e+01 4.315105056762695312e+01 2.011075019836425781e+01 2.767751121520996094e+01
4.105000000000000000e+03 3.205712509155273438e+01 -6.857455253601074219e+00 2.061571311950683594e+01 5.427516937255859375e+01 2.246726417541503906e+01 2.562545967102050781e+01
4.106000000000000000e+03 3.207346343994140625e+01 -6.868041515350341797e+00 1.763077354431152344e+01 6.377791976928710938e+01 2.442260742187500000e+01 2.113430404663085938e+01
4.107000000000000000e+03 3.209154891967773438e+01 -6.875244140625000000e+00 1.626098060607910156e+01 7.064058685302734375e+01 2.607046890258789062e+01 1.489654254913330078e+01
4.108000000000000000e+03 3.211069107055664062e+01 -6.878787517547607422e+00 1.651780319213867188e+01 7.439659118652343750e+01 2.727431869506835938e+01 7.636645317077636719e+00
4.109000000000000000e+03 3.213015747070312500e+01 -6.878536701202392578e+00 1.889229202270507812e+01 7.498353576660156250e+01 2.816274833679199219e+01 5.911608338356018066e-01
4.110000000000000000e+03 3.214920425415039062e+01 -6.874500751495361328e+00 2.294737243652343750e+01 7.269724273681640625e+01 2.869338417053222656e+01 -5.474231719970703125e+00
4.111000000000000000e+03 3.216709899902343750e+01 -6.866834640502929688e+00 2.818993377685546875e+01 6.843146514892578125e+01 2.898641967773437500e+01 -9.661464691162109375e+00
4.112000000000000000e+03 3.218315887451171875e+01 -6.855830669403076172e+00 3.385280227661132812e+01 6.299837875366210938e+01 2.905535507202148438e+01 -1.172748088836669922e+01
4.113000000000000000e+03 3.219676971435546875e+01 -6.841910839080810547e+00 3.914122772216796875e+01 5.753719711303710938e+01 2.900352859497070312e+01 -1.162617301940917969e+01
4.114000000000000000e+03 3.220740890502929688e+01 -6.825607776641845703e+00 4.354459762573242188e+01 5.277915191650390625e+01 2.889712524414062500e+01 -9.682532310485839844e+00
4.115000000000000000e+03 3.221467208862304688e+01 -6.807545185089111328e+00 4.656583023071289062e+01 4.935453796386718750e+01 2.877610969543457031e+01 -6.437089443206787109e+00
4.116000000000000000e+03 3.221828079223632812e+01 -6.788414001464843750e+00 4.810389328002929688e+01 4.763428115844726562e+01 2.872145271301269531e+01 -2.371391296386718750e+00
4.117000000000000000e+03 3.221809387207031250e+01 -6.768947124481201172e+00 4.800322723388671875e+01 4.766717147827148438e+01 2.870111846923828125e+01 1.866444110870361328e+00
4.118000000000000000e+03 3.221412277221679688e+01 -6.749888420104980469e+00 4.636387252807617188e+01 4.961781692504882812e+01 2.879450798034667969e+01 5.832285881042480469e+00
4.119000000000000000e+03 3.220651626586914062e+01 -6.731967926025390625e+00 4.323159408569335938e+01 5.306880187988281250e+01 2.889011955261230469e+01 8.926112174987792969e+00
4.120000000000000000e+03 3.219556427001953125e+01 -6.715870857238769531e+00 3.889132308959960938e+01 5.794862747192382812e+01 2.905198478698730469e+01 1.063801193237304688e+01
4.121000000000000000e+03 3.218169021606445312e+01 -6.702213764190673828e+00 3.366408157348632812e+01 6.333553695678710938e+01 2.909988594055175781e+01 1.053763484954833984e+01
4.122000000000000000e+03 3.216542434692382812e+01 -6.691519260406494141e+00 2.830076026916503906e+01 6.868578338623046875e+01 2.909596252441406250e+01 8.259850502014160156e+00
4.123000000000000000e+03 3.214738464355468750e+01 -6.684196472167968750e+00 2.337228202819824219e+01 7.284051513671875000e+01 2.886384010314941406e+01 3.884515047073364258e+00
4.124000000000000000e+03 3.212826538085937500e+01 -6.680525302886962891e+00 1.972701263427734375e+01 7.494042205810546875e+01 2.840023040771484375e+01 -2.264007568359375000e+00
4.125000000000000000e+03 3.210879898071289062e+01 -6.680646419525146484e+00 1.778431892395019531e+01 7.414971923828125000e+01 2.758020973205566406e+01 -9.352852821350097656e+00
4.126000000000000000e+03 3.208972549438476562e+01 -6.684555530548095703e+00 1.804298782348632812e+01 7.022155761718750000e+01 2.647936248779296875e+01 -1.651679992675781250e+01
4.127000000000000000e+03 3.207178115844726562e+01 -6.692102432250976562e+00 1.986036872863769531e+01 6.313600921630859375e+01 2.489891242980957031e+01 -2.262708282470703125e+01
4.128000000000000000e+03 3.205564880371093750e+01 -6.702998638153076172e+00 2.329471397399902344e+01 5.352020263671875000e+01 2.304447555541992188e+01 -2.685021972656250000e+01
4.129000000000000000e+03 3.204194259643554688e+01 -6.716827392578125000e+00 2.685171890258789062e+01 4.222549438476562500e+01 2.072316360473632812e+01 -2.860435485839843750e+01
4.130000000000000000e+03 3.203119659423828125e+01 -6.733059406280517578e+00 3.087553024291992188e+01 2.999416542053222656e+01 1.826090812683105469e+01 -2.730220031738281250e+01
4.131000000000000000e+03 3.202381134033203125e+01 -6.751073360443115234e+00 3.327237701416015625e+01 1.806268501281738281e+01 1.540051841735839844e+01 -2.326048469543457031e+01
4.132000000000000000e+03 3.202007675170898438e+01 -6.770179748535156250e+00 3.585814666748046875e+01 6.037523746490478516e+00 1.256870079040527344e+01 -1.200663089752197266e+01
