# el_label, x, y, sXX, sYY, sZZ, sXY
1.000000000000000000e+00 7.081793212890625000e+01 -6.425084114074707031e+00 -6.425579547882080078e+00 -2.617288112640380859e+00 -2.712860345840454102e+00 -2.798467636108398438e+00
2.000000000000000000e+00 7.061996459960937500e+01 -6.445775032043457031e+00 -2.238724470138549805e+00 9.883815050125122070e-01 -3.751029074192047119e-01 7.399997115135192871e-01
3.000000000000000000e+00 7.042200469970703125e+01 -6.466466426849365234e+00 -3.571384906768798828e+00 -4.175944626331329346e-01 -1.196693778038024902e+00 -3.126656636595726013e-02
4.000000000000000000e+00 7.022404479980468750e+01 -6.487157821655273438e+00 -3.855863094329833984e+00 2.574360966682434082e-01 -1.079528093338012695e+00 9.156220406293869019e-02
5.000000000000000000e+00 7.082965850830078125e+01 -6.482299804687500000e+00 8.950411796569824219e+00 -2.402519941329956055e+00 1.964367389678955078e+00 1.999758243560791016e+00
6.000000000000000000e+00 7.063951110839843750e+01 -6.541134834289550781e+00 1.705048561096191406e+00 3.337269127368927002e-01 6.116326451301574707e-01 1.363434314727783203e+00
7.000000000000000000e+00 7.044936370849609375e+01 -6.599969387054443359e+00 1.531171679496765137e+00 8.640750646591186523e-01 7.185740470886230469e-01 2.148283720016479492e+00
8.000000000000000000e+00 7.025921630859375000e+01 -6.658804416656494141e+00 1.646854877471923828e-01 3.106426894664764404e-01 1.425984501838684082e-01 1.371126413345336914e+00
9.000000000000000000e+00 7.085229492187500000e+01 -6.536138057708740234e+00 1.396229553222656250e+01 2.667623996734619141e+00 4.988975524902343750e+00 9.114709854125976562e+00
1.000000000000000000e+01 7.067723846435546875e+01 -6.630865573883056641e+00 7.595244407653808594e+00 1.696766257286071777e+00 2.787603139877319336e+00 5.275091648101806641e+00
1.100000000000000000e+01 7.050218200683593750e+01 -6.725593090057373047e+00 4.351578712463378906e+00 2.040843725204467773e+00 1.917726755142211914e+00 4.177642345428466797e+00
1.200000000000000000e+01 7.032713317871093750e+01 -6.820320129394531250e+00 3.494996547698974609e+00 2.056117296218872070e+00 1.665334224700927734e+00 4.034675598144531250e+00
1.300000000000000000e+01 7.088497924804687500e+01 -6.584539413452148438e+00 1.551340293884277344e+01 9.855381011962890625e+00 7.610635280609130859e+00 1.447504234313964844e+01
1.400000000000000000e+01 7.073171234130859375e+01 -6.711534500122070312e+00 9.150007247924804688e+00 6.037992000579833984e+00 4.556399822235107422e+00 9.467805862426757812e+00
1.500000000000000000e+01 7.057845306396484375e+01 -6.838529109954833984e+00 6.738292694091796875e+00 5.025866031646728516e+00 3.529247522354125977e+00 7.393326759338378906e+00
1.600000000000000000e+01 7.042518615722656250e+01 -6.965523719787597656e+00 4.782808780670166016e+00 4.258389949798583984e+00 2.712359666824340820e+00 6.261653900146484375e+00
1.700000000000000000e+01 7.092646789550781250e+01 -6.625650882720947266e+00 1.348431396484375000e+01 1.858126449584960938e+01 9.619673728942871094e+00 1.773021507263183594e+01
1.800000000000000000e+01 7.080085754394531250e+01 -6.780053615570068359e+00 9.143895149230957031e+00 1.204903316497802734e+01 6.357878684997558594e+00 1.243347263336181641e+01
1.900000000000000000e+01 7.067524719238281250e+01 -6.934455871582031250e+00 6.554931163787841797e+00 9.547896385192871094e+00 4.830848217010498047e+00 9.910099029541015625e+00
2.000000000000000000e+01 7.054964447021484375e+01 -7.088858604431152344e+00 5.085377216339111328e+00 8.283518791198730469e+00 4.010668754577636719e+00 8.557785034179687500e+00
2.100000000000000000e+01 7.097515869140625000e+01 -6.657899856567382812e+00 1.059881496429443359e+01 2.755558013916015625e+01 1.144631862640380859e+01 1.829090881347656250e+01
2.200000000000000000e+01 7.088201141357421875e+01 -6.833801269531250000e+00 7.316727161407470703e+00 1.880723762512207031e+01 7.837189197540283203e+00 1.351507854461669922e+01
2.300000000000000000e+01 7.078886413574218750e+01 -7.009703159332275391e+00 5.499519824981689453e+00 1.503863239288330078e+01 6.161445617675781250e+00 1.124723720550537109e+01
2.400000000000000000e+01 7.069572448730468750e+01 -7.185604572296142578e+00 4.181682586669921875e+00 1.295743846893310547e+01 5.141736507415771484e+00 9.759753227233886719e+00
2.500000000000000000e+01 7.102919769287109375e+01 -6.680051803588867188e+00 7.470951080322265625e+00 3.572301101684570312e+01 1.295818901062011719e+01 1.615567970275878906e+01
2.600000000000000000e+01 7.097208404541015625e+01 -6.870721340179443359e+00 5.362932205200195312e+00 2.532707977294921875e+01 9.207003593444824219e+00 1.278680324554443359e+01
2.700000000000000000e+01 7.091496276855468750e+01 -7.061390876770019531e+00 3.802526235580444336e+00 2.058613014221191406e+01 7.316596984863281250e+00 1.085026931762695312e+01
2.800000000000000000e+01 7.085784149169921875e+01 -7.252060890197753906e+00 2.848231554031372070e+00 1.775153350830078125e+01 6.179929733276367188e+00 9.614382743835449219e+00
2.900000000000000000e+01 7.108651733398437500e+01 -6.691259384155273438e+00 5.619273662567138672e+00 4.201786804199218750e+01 1.429114246368408203e+01 1.211129665374755859e+01
3.000000000000000000e+01 7.106761169433593750e+01 -6.889400482177734375e+00 3.757248401641845703e+00 3.083079528808593750e+01 1.037641334533691406e+01 1.029803562164306641e+01
3.100000000000000000e+01 7.104870605468750000e+01 -7.087541580200195312e+00 2.474289178848266602e+00 2.546752738952636719e+01 8.382544517517089844e+00 9.059894561767578125e+00
3.200000000000000000e+01 7.102980041503906250e+01 -7.285682678222656250e+00 1.522100687026977539e+00 2.211370086669921875e+01 7.090740203857421875e+00 8.021129608154296875e+00
3.300000000000000000e+01 7.114492034912109375e+01 -6.691093444824218750e+00 5.510725498199462891e+00 4.587495803833007812e+01 1.541570472717285156e+01 6.909862518310546875e+00
3.400000000000000000e+01 7.116495513916015625e+01 -6.889123916625976562e+00 3.276239156723022461e+00 3.476193237304687500e+01 1.141145133972167969e+01 6.804752826690673828e+00
3.500000000000000000e+01 7.118498229980468750e+01 -7.087153911590576172e+00 1.923285365104675293e+00 2.908028984069824219e+01 9.301072120666503906e+00 6.093432426452636719e+00
3.600000000000000000e+01 7.120500946044921875e+01 -7.285184860229492188e+00 9.712321758270263672e-01 2.557109260559082031e+01 7.962697505950927734e+00 5.612507820129394531e+00
3.700000000000000000e+01 7.120217132568359375e+01 -6.679560184478759766e+00 7.327549457550048828e+00 4.724731063842773438e+01 1.637245941162109375e+01 1.798947811126708984e+00
3.800000000000000000e+01 7.126037597656250000e+01 -6.869901657104492188e+00 4.178828239440917969e+00 3.679734802246093750e+01 1.229285335540771484e+01 2.812849044799804688e+00
3.900000000000000000e+01 7.131857299804687500e+01 -7.060243606567382812e+00 2.488125562667846680e+00 3.119443893432617188e+01 1.010476970672607422e+01 2.773112297058105469e+00
4.000000000000000000e+01 7.137677764892578125e+01 -7.250585556030273438e+00 1.546288609504699707e+00 2.756765556335449219e+01 8.734183311462402344e+00 2.661390542984008789e+00
4.100000000000000000e+01 7.125608825683593750e+01 -6.657101154327392578e+00 1.078535842895507812e+01 4.645249557495117188e+01 1.717135620117187500e+01 -2.450416564941406250e+00
4.200000000000000000e+01 7.135023498535156250e+01 -6.832470417022705078e+00 6.357778072357177734e+00 3.708572387695312500e+01 1.303305053710937500e+01 -8.070324659347534180e-01
4.300000000000000000e+01 7.144437408447265625e+01 -7.007839679718017578e+00 4.314583778381347656e+00 3.164600181579589844e+01 1.078817558288574219e+01 -4.055568575859069824e-01
4.400000000000000000e+01 7.153852081298828125e+01 -7.183208942413330078e+00 3.073973655700683594e+00 2.812721443176269531e+01 9.360356330871582031e+00 -1.602015197277069092e-01
4.500000000000000000e+01 7.130459594726562500e+01 -6.624576091766357422e+00 1.511615848541259766e+01 4.427819442749023438e+01 1.781830596923828125e+01 -5.171905040740966797e+00
4.600000000000000000e+01 7.143108367919921875e+01 -6.778262138366699219e+00 9.619080543518066406e+00 3.584598159790039062e+01 1.363951873779296875e+01 -3.509744882583618164e+00
4.700000000000000000e+01 7.155756378173828125e+01 -6.931948184967041016e+00 6.996510982513427734e+00 3.082305717468261719e+01 1.134587097167968750e+01 -2.814156055450439453e+00
4.800000000000000000e+01 7.168405151367187500e+01 -7.085633754730224609e+00 5.487834930419921875e+00 2.736441802978515625e+01 9.855676651000976562e+00 -2.413115024566650391e+00
4.900000000000000000e+01 7.134584808349609375e+01 -6.583229541778564453e+00 1.958950996398925781e+01 4.141369628906250000e+01 1.830096244812011719e+01 -6.202733516693115234e+00
5.000000000000000000e+01 7.149983215332031250e+01 -6.709351062774658203e+00 1.335710334777832031e+01 3.377419662475585938e+01 1.413938999176025391e+01 -4.876420021057128906e+00
5.100000000000000000e+01 7.165380859375000000e+01 -6.835472106933593750e+00 1.019981670379638672e+01 2.903158378601074219e+01 1.176942062377929688e+01 -4.093227863311767578e+00
5.200000000000000000e+01 7.180779266357421875e+01 -6.961593627929687500e+00 8.223548889160156250e+00 2.588564491271972656e+01 1.023275756835937500e+01 -3.637346267700195312e+00
5.300000000000000000e+01 7.137825775146484375e+01 -6.534643173217773438e+00 2.356578254699707031e+01 3.876385498046875000e+01 1.869889068603515625e+01 -5.633400917053222656e+00
5.400000000000000000e+01 7.155384826660156250e+01 -6.628374099731445312e+00 1.689294242858886719e+01 3.133370971679687500e+01 1.446799564361572266e+01 -4.831212997436523438e+00
5.500000000000000000e+01 7.172943878173828125e+01 -6.722104549407958984e+00 1.337322902679443359e+01 2.706446456909179688e+01 1.213130760192871094e+01 -4.097466945648193359e+00
5.600000000000000000e+01 7.190502929687500000e+01 -6.815834999084472656e+00 1.096142864227294922e+01 2.397484207153320312e+01 1.048088169097900391e+01 -3.666455507278442383e+00
5.700000000000000000e+01 7.140058898925781250e+01 -6.480677127838134766e+00 2.643958473205566406e+01 3.660087585449218750e+01 1.891213798522949219e+01 -3.876051664352416992e+00
5.800000000000000000e+01 7.159107208251953125e+01 -6.538429737091064453e+00 1.968740653991699219e+01 2.942139053344726562e+01 1.473263931274414062e+01 -3.482639789581298828e+00
5.900000000000000000e+01 7.178154754638671875e+01 -6.596182823181152344e+00 1.584194850921630859e+01 2.522666931152343750e+01 1.232058525085449219e+01 -2.995802879333496094e+00
6.000000000000000000e+01 7.197202301025390625e+01 -6.653935909271240234e+00 1.335460472106933594e+01 2.253380584716796875e+01 1.076652336120605469e+01 -2.712334871292114258e+00
6.100000000000000000e+01 7.141198730468750000e+01 -6.423395633697509766e+00 2.795814514160156250e+01 3.550997161865234375e+01 1.904043579101562500e+01 -1.396904110908508301e+00
6.200000000000000000e+01 7.161006927490234375e+01 -6.442960739135742188e+00 2.121505928039550781e+01 2.826232147216796875e+01 1.484321403503417969e+01 -1.247080087661743164e+00
6.300000000000000000e+01 7.180814361572265625e+01 -6.462526321411132812e+00 1.721886634826660156e+01 2.426078796386718750e+01 1.244389629364013672e+01 -1.123824954032897949e+00
6.400000000000000000e+01 7.200621795654296875e+01 -6.482091426849365234e+00 1.459142017364501953e+01 2.168820953369140625e+01 1.088388919830322266e+01 -1.036348700523376465e+00
6.500000000000000000e+01 7.141201782226562500e+01 -6.364991188049316406e+00 2.797226333618164062e+01 3.552881240844726562e+01 1.905032348632812500e+01 1.369034528732299805e+00
6.600000000000000000e+01 7.161011505126953125e+01 -6.345620155334472656e+00 2.123059272766113281e+01 2.822093772888183594e+01 1.483545875549316406e+01 1.262665152549743652e+00
6.700000000000000000e+01 7.180821228027343750e+01 -6.326249122619628906e+00 1.722418403625488281e+01 2.432877731323242188e+01 1.246588802337646484e+01 1.072176218032836914e+00
6.800000000000000000e+01 7.200630187988281250e+01 -6.306878089904785156e+00 1.450669765472412109e+01 2.164344596862792969e+01 1.084504318237304688e+01 9.578857421875000000e-01
6.900000000000000000e+01 7.140067291259765625e+01 -6.307698249816894531e+00 2.646104812622070312e+01 3.659177017211914062e+01 1.891584587097167969e+01 3.864574670791625977e+00
7.000000000000000000e+01 7.159120941162109375e+01 -6.250132560729980469e+00 1.973910331726074219e+01 2.937802696228027344e+01 1.473513889312744141e+01 3.479789972305297852e+00
7.100000000000000000e+01 7.178174591064453125e+01 -6.192566394805908203e+00 1.584391212463378906e+01 2.529779052734375000e+01 1.234251022338867188e+01 3.008701324462890625e+00
7.200000000000000000e+01 7.197228240966796875e+01 -6.135000228881835938e+00 1.333936977386474609e+01 2.256783866882324219e+01 1.077216243743896484e+01 2.683066844940185547e+00
7.300000000000000000e+01 7.137839508056640625e+01 -6.253710269927978516e+00 2.359998321533203125e+01 3.871393966674804688e+01 1.869417762756347656e+01 5.632493019104003906e+00
7.400000000000000000e+01 7.155407714843750000e+01 -6.160151958465576172e+00 1.695773887634277344e+01 3.131571197509765625e+01 1.448203468322753906e+01 4.815257072448730469e+00
7.500000000000000000e+01 7.172975921630859375e+01 -6.066593647003173828e+00 1.341053676605224609e+01 2.703905296325683594e+01 1.213487720489501953e+01 4.168341636657714844e+00
7.600000000000000000e+01 7.190544891357421875e+01 -5.973035812377929688e+00 1.113103961944580078e+01 2.415510177612304688e+01 1.058584213256835938e+01 3.640047788619995117e+00
7.700000000000000000e+01 7.134603118896484375e+01 -6.205091953277587891e+00 1.965721702575683594e+01 4.137503814697265625e+01 1.830967712402343750e+01 6.193616390228271484e+00
7.800000000000000000e+01 7.150013732910156250e+01 -6.079122066497802734e+00 1.340244293212890625e+01 3.373542022705078125e+01 1.414135932922363281e+01 4.885298728942871094e+00
7.900000000000000000e+01 7.165425109863281250e+01 -5.953151702880859375e+00 1.031829547882080078e+01 2.895780563354492188e+01 1.178283023834228516e+01 4.128871917724609375e+00
8.000000000000000000e+01 7.180835723876953125e+01 -5.827181339263916016e+00 8.292644500732421875e+00 2.600317001342773438e+01 1.028874492645263672e+01 3.634695768356323242e+00
8.100000000000000000e+01 7.130482482910156250e+01 -6.163704872131347656e+00 1.517914009094238281e+01 4.424914169311523438e+01 1.782848548889160156e+01 5.167694568634033203e+00
8.200000000000000000e+01 7.143145751953125000e+01 -6.010143280029296875e+00 9.672545433044433594e+00 3.579651260375976562e+01 1.364071655273437500e+01 3.532599449157714844e+00
8.300000000000000000e+01 7.155809783935546875e+01 -5.856581687927246094e+00 7.094713211059570312e+00 3.074721717834472656e+01 1.135257911682128906e+01 2.787493467330932617e+00
8.400000000000000000e+01 7.168473052978515625e+01 -5.703020095825195312e+00 5.421551704406738281e+00 2.730136871337890625e+01 9.816876411437988281e+00 2.457952976226806641e+00
8.500000000000000000e+01 7.125634765625000000e+01 -6.131132125854492188e+00 1.081626415252685547e+01 4.642781829833984375e+01 1.717322540283203125e+01 2.465770959854125977e+00
8.600000000000000000e+01 7.135066223144531250e+01 -5.955855369567871094e+00 6.432554244995117188e+00 3.703858947753906250e+01 1.304134273529052734e+01 8.071758151054382324e-01
8.700000000000000000e+01 7.144497680664062500e+01 -5.780578613281250000e+00 4.323641300201416016e+00 3.160238456726074219e+01 1.077780723571777344e+01 3.861658573150634766e-01
8.800000000000000000e+01 7.153929138183593750e+01 -5.605301856994628906e+00 2.987194538116455078e+00 2.799423980712890625e+01 9.294429779052734375e+00 1.636934280395507812e-01
8.900000000000000000e+01 7.120245361328125000e+01 -6.108620643615722656e+00 7.386672019958496094e+00 4.723209381103515625e+01 1.638562965393066406e+01 -1.770746350288391113e+00
9.000000000000000000e+01 7.126084136962890625e+01 -5.918335914611816406e+00 4.191533088684082031e+00 3.678741836547851562e+01 1.229368591308593750e+01 -2.821414232254028320e+00
9.100000000000000000e+01 7.131922912597656250e+01 -5.728051185607910156e+00 2.500918626785278320e+00 3.115256690979003906e+01 1.009604549407958984e+01 -2.794693946838378906e+00
9.200000000000000000e+01 7.137761688232421875e+01 -5.537766456604003906e+00 1.442118287086486816e+00 2.755129051208496094e+01 8.698022842407226562e+00 -2.631128072738647461e+00
9.300000000000000000e+01 7.114521026611328125e+01 -6.097031116485595703e+00 5.524689197540283203e+00 4.588428497314453125e+01 1.542269229888916016e+01 -6.904907226562500000e+00
9.400000000000000000e+01 7.116543579101562500e+01 -5.899020671844482422e+00 3.301504850387573242e+00 3.476566696166992188e+01 1.142015171051025391e+01 -6.791883945465087891e+00
9.500000000000000000e+01 7.118566131591796875e+01 -5.701009750366210938e+00 1.868282556533813477e+00 2.911233711242675781e+01 9.294185638427734375e+00 -6.131167888641357422e+00
9.600000000000000000e+01 7.120588684082031250e+01 -5.502998828887939453e+00 1.016763806343078613e+00 2.554961395263671875e+01 7.969913482666015625e+00 -5.558870792388916016e+00
9.700000000000000000e+01 7.108680725097656250e+01 -6.096807956695556641e+00 5.642747879028320312e+00 4.206841278076171875e+01 1.431334781646728516e+01 -1.209237670898437500e+01
9.800000000000000000e+01 7.106809997558593750e+01 -5.898648262023925781e+00 3.744944334030151367e+00 3.083905029296875000e+01 1.037519836425781250e+01 -1.032512283325195312e+01
9.900000000000000000e+01 7.104938507080078125e+01 -5.700488567352294922e+00 2.447549104690551758e+00 2.552903556823730469e+01 8.392974853515625000e+00 -9.025352478027343750e+00
1.000000000000000000e+02 7.103067779541015625e+01 -5.502328872680664062e+00 1.534710288047790527e+00 2.217037391662597656e+01 7.111525058746337891e+00 -8.078770637512207031e+00
1.010000000000000000e+02 7.102947998046875000e+01 -6.107959270477294922e+00 7.419115066528320312e+00 3.575794982910156250e+01 1.295311927795410156e+01 -1.616673088073730469e+01
1.020000000000000000e+02 7.097254943847656250e+01 -5.917233467102050781e+00 5.390149593353271484e+00 2.539924812316894531e+01 9.236819267272949219e+00 -1.280628395080566406e+01
1.030000000000000000e+02 7.091561126708984375e+01 -5.726508140563964844e+00 3.786746740341186523e+00 2.058656501770019531e+01 7.311993598937988281e+00 -1.085193443298339844e+01
1.040000000000000000e+02 7.085868835449218750e+01 -5.535782337188720703e+00 2.797489643096923828e+00 1.786002349853515625e+01 6.197253704071044922e+00 -9.570290565490722656e+00
1.050000000000000000e+02 7.097541809082031250e+01 -6.130057811737060547e+00 1.063010215759277344e+01 2.765631103515625000e+01 1.148592376708984375e+01 -1.829319572448730469e+01
1.060000000000000000e+02 7.088244628906250000e+01 -5.954064846038818359e+00 7.249689102172851562e+00 1.883902931213378906e+01 7.826615333557128906e+00 -1.357184791564941406e+01
1.070000000000000000e+02 7.078946685791015625e+01 -5.778071880340576172e+00 5.588687896728515625e+00 1.511225891113281250e+01 6.210283756256103516e+00 -1.127178764343261719e+01
1.080000000000000000e+02 7.069650268554687500e+01 -5.602078914642333984e+00 4.163622856140136719e+00 1.286114501953125000e+01 5.107430458068847656e+00 -9.726675987243652344e+00
1.090000000000000000e+02 7.092668914794921875e+01 -6.162259101867675781e+00 1.345551967620849609e+01 1.862103843688964844e+01 9.622967720031738281e+00 -1.778324699401855469e+01
1.100000000000000000e+02 7.080123138427734375e+01 -6.007733345031738281e+00 9.147862434387207031e+00 1.214021015167236328e+01 6.386421680450439453e+00 -1.246594905853271484e+01
1.110000000000000000e+02 7.067577362060546875e+01 -5.853207588195800781e+00 6.543359279632568359e+00 9.561371803283691406e+00 4.831418991088867188e+00 -9.985588073730468750e+00
1.120000000000000000e+02 7.055032348632812500e+01 -5.698681831359863281e+00 5.257437705993652344e+00 8.406847953796386719e+00 4.099285602569580078e+00 -8.661007881164550781e+00
1.130000000000000000e+02 7.088516235351562500e+01 -6.203329563140869141e+00 1.550098133087158203e+01 9.911787986755371094e+00 7.623830795288085938e+00 -1.453891944885253906e+01
1.140000000000000000e+02 7.073202514648437500e+01 -6.076184749603271484e+00 9.154990196228027344e+00 6.097851276397705078e+00 4.575852394104003906e+00 -9.500638961791992188e+00
1.150000000000000000e+02 7.057888793945312500e+01 -5.949039459228515625e+00 6.716211795806884766e+00 5.071861267089843750e+00 3.536422014236450195e+00 -7.488296985626220703e+00
1.160000000000000000e+02 7.042575073242187500e+01 -5.821894645690917969e+00 4.792871475219726562e+00 4.473467826843261719e+00 2.779901742935180664e+00 -6.299286842346191406e+00
1.170000000000000000e+02 7.085243225097656250e+01 -6.251698970794677734e+00 1.400115203857421875e+01 2.752054929733276367e+00 5.025962352752685547e+00 -9.159246444702148438e+00
1.180000000000000000e+02 7.067747497558593750e+01 -6.156799793243408203e+00 7.598470211029052734e+00 1.681134939193725586e+00 2.783881664276123047e+00 -5.334006786346435547e+00
1.190000000000000000e+02 7.050251007080078125e+01 -6.061900615692138672e+00 4.318755626678466797e+00 2.180877208709716797e+00 1.949889779090881348e+00 -4.206487655639648438e+00
1.200000000000000000e+02 7.032755279541015625e+01 -5.967001914978027344e+00 3.427703142166137695e+00 1.959274530410766602e+00 1.616093277931213379e+00 -3.994648218154907227e+00
1.210000000000000000e+02 7.082974243164062500e+01 -6.305515289306640625e+00 8.993896484375000000e+00 -2.438609600067138672e+00 1.966585993766784668e+00 -2.044288635253906250e+00
1.220000000000000000e+02 7.063965606689453125e+01 -6.246493816375732422e+00 1.732667088508605957e+00 4.017339944839477539e-01 6.403203010559082031e-01 -1.394923806190490723e+00
1.230000000000000000e+02 7.044956207275390625e+01 -6.187472343444824219e+00 1.500424742698669434e+00 8.603984117507934570e-01 7.082469463348388672e-01 -2.125141143798828125e+00
1.240000000000000000e+02 7.025947570800781250e+01 -6.128450393676757812e+00 1.764092445373535156e-01 2.295357137918472290e-01 1.217834874987602234e-01 -1.400981187820434570e+00
1.250000000000000000e+02 7.081796264648437500e+01 -6.362719535827636719e+00 -6.346664428710937500e+00 -2.613510847091674805e+00 -2.688052415847778320e+00 2.773215770721435547e+00
1.260000000000000000e+02 7.062001800537109375e+01 -6.341834068298339844e+00 -2.228145837783813477e+00 9.933472275733947754e-01 -3.704395592212677002e-01 -7.313029766082763672e-01
1.270000000000000000e+02 7.042207336425781250e+01 -6.320948600769042969e+00 -3.534101724624633789e+00 -4.178474247455596924e-01 -1.185584664344787598e+00 4.457260668277740479e-02
1.280000000000000000e+02 7.022413635253906250e+01 -6.300063133239746094e+00 -3.861637115478515625e+00 2.249357700347900391e-01 -1.091010451316833496e+00 -1.237872838973999023e-01
1.290000000000000000e+02 2.196186065673828125e+01 -6.700578212738037109e+00 -1.731601506471633911e-01 3.139854874461889267e-03 -5.100608989596366882e-02 -3.302094293758273125e-03
1.300000000000000000e+02 2.033289909362792969e+01 -7.179516792297363281e+00 -1.223619133234024048e-01 6.183136720210313797e-03 -3.485363349318504333e-02 -4.248268157243728638e-02
1.310000000000000000e+02 2.261169624328613281e+01 -7.556783676147460938e+00 -2.783603668212890625e-01 7.398235145956277847e-03 -8.128863573074340820e-02 -6.082232296466827393e-02
1.320000000000000000e+02 2.185197448730468750e+01 -7.432458400726318359e+00 -2.239934802055358887e-01 1.065557170659303665e-02 -6.400137394666671753e-02 -5.448077991604804993e-02
1.330000000000000000e+02 2.270871162414550781e+01 -6.822772979736328125e+00 -2.470093220472335815e-01 1.510355359641835093e-04 -7.405748218297958374e-02 -1.147890463471412659e-03
1.340000000000000000e+02 2.121509361267089844e+01 -6.576943874359130859e+00 -1.149026304483413696e-01 2.957708202302455902e-03 -3.358347713947296143e-02 -7.623749319463968277e-03
1.350000000000000000e+02 2.046852302551269531e+01 -6.451897144317626953e+00 -6.644475460052490234e-02 3.628436243161559105e-03 -1.884489692747592926e-02 -1.104561518877744675e-02
1.360000000000000000e+02 2.109233665466308594e+01 -7.306693553924560547e+00 -1.689565181732177734e-01 9.401621297001838684e-03 -4.786647111177444458e-02 -4.895916581153869629e-02
1.370000000000000000e+02 2.421343040466308594e+01 -6.977969646453857422e+00 -3.806717395782470703e-01 1.090564997866749763e-03 -1.138743534684181213e-01 -2.468244638293981552e-03
1.380000000000000000e+02 2.414235687255859375e+01 -7.714632511138916016e+00 -4.006934165954589844e-01 5.870725959539413452e-03 -1.184468120336532593e-01 -6.167586147785186768e-02
1.390000000000000000e+02 2.337517356872558594e+01 -7.650850772857666016e+00 -3.368411660194396973e-01 4.481216426938772202e-03 -9.970798343420028687e-02 -6.208553537726402283e-02
1.400000000000000000e+02 2.490980529785156250e+01 -7.777047634124755859e+00 -4.638777375221252441e-01 3.903981531038880348e-03 -1.379921287298202515e-01 -6.748679280281066895e-02
1.410000000000000000e+02 2.496787261962890625e+01 -7.039327144622802734e+00 -4.511131942272186279e-01 1.511897542513906956e-03 -1.348803937435150146e-01 -3.426199691602960229e-05
1.420000000000000000e+02 2.567740631103515625e+01 -7.838097095489501953e+00 -5.224800109863281250e-01 -2.029311144724488258e-03 -1.573528051376342773e-01 -7.252348214387893677e-02
1.430000000000000000e+02 2.572246742248535156e+01 -7.099318504333496094e+00 -5.346362590789794922e-01 -3.609353676438331604e-03 -1.614736765623092651e-01 -2.709225285798311234e-03
1.440000000000000000e+02 2.345925331115722656e+01 -6.915245532989501953e+00 -3.183793723583221436e-01 -9.142152266576886177e-04 -9.578807651996612549e-02 -2.469185274094343185e-03
1.450000000000000000e+02 2.796761512756347656e+01 -7.914083957672119141e+00 -7.085365056991577148e-01 -3.846786916255950928e-03 -2.137149870395660400e-01 -8.172392845153808594e-02
1.460000000000000000e+02 2.720497512817382812e+01 -7.896495819091796875e+00 -6.483101248741149902e-01 -2.959999488666653633e-03 -1.953810304403305054e-01 -7.395693659782409668e-02
1.470000000000000000e+02 2.644245719909667969e+01 -7.877746582031250000e+00 -5.831359028816223145e-01 -5.401820875704288483e-03 -1.765613108873367310e-01 -7.163818180561065674e-02
1.480000000000000000e+02 2.873032188415527344e+01 -7.930514812469482422e+00 -7.648394107818603516e-01 -8.683211170136928558e-03 -2.320567816495895386e-01 -8.739914745092391968e-02
1.490000000000000000e+02 2.798519706726074219e+01 -7.174292564392089844e+00 -7.285044193267822266e-01 -2.199411974288523197e-04 -2.186173051595687866e-01 -1.704465039074420929e-02
1.500000000000000000e+02 2.723094940185546875e+01 -7.156898498535156250e+00 -6.632606387138366699e-01 -4.425789520610123873e-04 -1.991109699010848999e-01 -1.560488715767860413e-02
1.510000000000000000e+02 2.873951339721679688e+01 -7.190530300140380859e+00 -8.040228486061096191e-01 -4.230645950883626938e-03 -2.424760460853576660e-01 -2.250243164598941803e-02
1.520000000000000000e+02 2.647681999206542969e+01 -7.138342857360839844e+00 -6.069261431694030762e-01 -3.874470246955752373e-03 -1.832401901483535767e-01 -1.079637650400400162e-02
1.530000000000000000e+02 2.949276733398437500e+01 -7.195246696472167969e+00 -8.694898486137390137e-01 -4.802798852324485779e-03 -2.622877955436706543e-01 -3.189247474074363708e-02
1.540000000000000000e+02 2.948995018005371094e+01 -7.935307502746582031e+00 -8.234781622886657715e-01 -1.015464495867490768e-02 -2.500898540019989014e-01 -8.881845325231552124e-02
1.550000000000000000e+02 3.024649810791015625e+01 -7.928795814514160156e+00 -8.854941725730895996e-01 -7.594083435833454132e-03 -2.679264843463897705e-01 -9.326077252626419067e-02
1.560000000000000000e+02 3.099722290039062500e+01 -7.181584835052490234e+00 -9.835193753242492676e-01 -1.790198381058871746e-03 -2.955928742885589600e-01 -4.083827883005142212e-02
1.570000000000000000e+02 3.175983238220214844e+01 -7.913609027862548828e+00 -9.984113574028015137e-01 -1.012629549950361252e-02 -3.025613129138946533e-01 -1.061186939477920532e-01
1.580000000000000000e+02 3.174956512451171875e+01 -7.173673152923583984e+00 -1.051257252693176270e+00 -4.113531671464443207e-03 -3.166112303733825684e-01 -4.591056704521179199e-02
1.590000000000000000e+02 3.024495315551757812e+01 -7.188776493072509766e+00 -9.225775003433227539e-01 -1.848357846029102802e-03 -2.773277461528778076e-01 -3.790919855237007141e-02
1.600000000000000000e+02 3.100312805175781250e+01 -7.921562194824218750e+00 -9.426839351654052734e-01 -7.414741907268762589e-03 -2.850296199321746826e-01 -1.007552295923233032e-01
1.610000000000000000e+02 3.325168609619140625e+01 -7.142140388488769531e+00 -1.169928908348083496e+00 -2.842722693458199501e-03 -3.518314957618713379e-01 -5.782679468393325806e-02
1.620000000000000000e+02 3.401905441284179688e+01 -7.863194465637207031e+00 -1.173684358596801758e+00 -8.456632494926452637e-03 -3.546422719955444336e-01 -1.194821596145629883e-01
1.630000000000000000e+02 3.251437759399414062e+01 -7.900443077087402344e+00 -1.055980563163757324e+00 -1.051316410303115845e-02 -3.199481070041656494e-01 -1.089871972799301147e-01
1.640000000000000000e+02 3.477159881591796875e+01 -7.845397949218750000e+00 -1.231544852256774902e+00 -9.660923853516578674e-03 -3.723617494106292725e-01 -1.243638470768928528e-01
1.650000000000000000e+02 3.475299453735351562e+01 -7.105631351470947266e+00 -1.296388864517211914e+00 -3.844792721793055534e-03 -3.900700807571411133e-01 -6.460833549499511719e-02
1.660000000000000000e+02 3.400221252441406250e+01 -7.123385429382324219e+00 -1.231256842613220215e+00 -2.962140832096338272e-03 -3.702656924724578857e-01 -6.082082912325859070e-02
1.670000000000000000e+02 3.250104904174804688e+01 -7.160549640655517578e+00 -1.113771080970764160e+00 -4.595309961587190628e-03 -3.355099260807037354e-01 -5.299852415919303894e-02
1.680000000000000000e+02 3.326676940917968750e+01 -7.881991863250732422e+00 -1.116047024726867676e+00 -9.019573219120502472e-03 -3.375199735164642334e-01 -1.136943995952606201e-01
1.690000000000000000e+02 3.550323104858398438e+01 -7.085636138916015625e+00 -1.360322237014770508e+00 -4.214873071759939194e-03 -4.093611240386962891e-01 -6.918136030435562134e-02
1.700000000000000000e+02 3.627172470092773438e+01 -7.801253795623779297e+00 -1.352055191993713379e+00 -8.693088777363300323e-03 -4.082244932651519775e-01 -1.312714219093322754e-01
1.710000000000000000e+02 3.552280426025390625e+01 -7.825378894805908203e+00 -1.290746092796325684e+00 -9.086910635232925415e-03 -3.899499177932739258e-01 -1.273642182350158691e-01
1.720000000000000000e+02 3.700176620483398438e+01 -7.040159225463867188e+00 -1.487008213996887207e+00 -3.908325918018817902e-03 -4.472749531269073486e-01 -7.450426369905471802e-02
1.730000000000000000e+02 3.775260925292968750e+01 -7.021411418914794922e+00 -1.551410436630249023e+00 -2.287965966388583183e-03 -4.661095142364501953e-01 -7.640992105007171631e-02
1.740000000000000000e+02 3.777272796630859375e+01 -7.761138439178466797e+00 -1.474683642387390137e+00 -7.025608792901039124e-03 -4.445127546787261963e-01 -1.379251331090927124e-01
1.750000000000000000e+02 3.702170562744140625e+01 -7.779891967773437500e+00 -1.412415146827697754e+00 -6.943491753190755844e-03 -4.258075952529907227e-01 -1.345390975475311279e-01
1.760000000000000000e+02 3.625196838378906250e+01 -7.061516284942626953e+00 -1.422516822814941406e+00 -2.678994089365005493e-03 -4.275587499141693115e-01 -7.207970321178436279e-02
1.770000000000000000e+02 3.925203704833984375e+01 -6.983466625213623047e+00 -1.689117074012756348e+00 -2.397883916273713112e-03 -5.074545145034790039e-01 -7.911285758018493652e-02
1.780000000000000000e+02 3.850259399414062500e+01 -7.002532482147216797e+00 -1.618940353393554688e+00 -3.182119224220514297e-03 -4.866367280483245850e-01 -7.763995975255966187e-02
1.790000000000000000e+02 3.852244567871093750e+01 -7.742266178131103516e+00 -1.537329435348510742e+00 -5.612398497760295868e-03 -4.628825485706329346e-01 -1.410022974014282227e-01
1.800000000000000000e+02 4.076818847656250000e+01 -7.683057308197021484e+00 -1.733196020126342773e+00 -4.426947329193353653e-03 -5.212869048118591309e-01 -1.459877341985702515e-01
1.810000000000000000e+02 4.001962661743164062e+01 -7.703031063079833984e+00 -1.665301203727722168e+00 -5.075205117464065552e-03 -5.011129379272460938e-01 -1.443424373865127563e-01
1.820000000000000000e+02 4.075049972534179688e+01 -6.943266868591308594e+00 -1.826307177543640137e+00 -9.400836424902081490e-04 -5.481741428375244141e-01 -8.077301830053329468e-02
1.830000000000000000e+02 3.927116775512695312e+01 -7.723219394683837891e+00 -1.600453615188598633e+00 -6.874108221381902695e-03 -4.821982979774475098e-01 -1.432965099811553955e-01
1.840000000000000000e+02 4.000121688842773438e+01 -6.963259696960449219e+00 -1.758668184280395508e+00 -3.370755352079868317e-03 -5.286117196083068848e-01 -8.067070692777633667e-02
1.850000000000000000e+02 4.226616287231445312e+01 -7.653321743011474609e+00 -1.867790341377258301e+00 -5.373199004679918289e-03 -5.619490742683410645e-01 -1.512792855501174927e-01
1.860000000000000000e+02 4.225036239624023438e+01 -6.913490295410156250e+00 -1.977744460105895996e+00 -2.303335117176175117e-03 -5.940143465995788574e-01 -8.031135052442550659e-02
1.870000000000000000e+02 4.151683807373046875e+01 -7.666196823120117188e+00 -1.800872564315795898e+00 -3.346543526276946068e-03 -5.412657260894775391e-01 -1.492598354816436768e-01
1.880000000000000000e+02 4.299967193603515625e+01 -6.897992610931396484e+00 -2.054223060607910156e+00 -2.677201759070158005e-03 -6.170700788497924805e-01 -8.184539526700973511e-02
1.890000000000000000e+02 4.301445007324218750e+01 -7.637845039367675781e+00 -1.937929868698120117e+00 -3.974787425249814987e-03 -5.825713872909545898e-01 -1.511888653039932251e-01
1.900000000000000000e+02 4.376168441772460938e+01 -7.619610786437988281e+00 -2.012219905853271484e+00 -2.759014256298542023e-03 -6.044936180114746094e-01 -1.524929553270339966e-01
1.910000000000000000e+02 4.374792480468750000e+01 -6.879736900329589844e+00 -2.128723144531250000e+00 2.092627400998026133e-04 -6.385541558265686035e-01 -8.090592175722122192e-02
1.920000000000000000e+02 4.150001907348632812e+01 -6.926386356353759766e+00 -1.899255871772766113e+00 -1.768482965417206287e-03 -5.703073143959045410e-01 -7.963842153549194336e-02
1.930000000000000000e+02 4.524763870239257812e+01 -6.857576370239257812e+00 -2.297376394271850586e+00 -1.593266380950808525e-03 -6.896908879280090332e-01 -7.852650433778762817e-02
1.940000000000000000e+02 4.600764846801757812e+01 -7.586318016052246094e+00 -2.235213756561279297e+00 -2.190185245126485825e-03 -6.712211966514587402e-01 -1.562785208225250244e-01
1.950000000000000000e+02 4.450997543334960938e+01 -7.606111049652099609e+00 -2.086150884628295898e+00 -1.481203944422304630e-03 -6.262896060943603516e-01 -1.557312905788421631e-01
1.960000000000000000e+02 4.675494384765625000e+01 -7.572458744049072266e+00 -2.316218852996826172e+00 -5.779514904133975506e-04 -6.950390338897705078e-01 -1.564234793186187744e-01
1.970000000000000000e+02 4.525932312011718750e+01 -7.597484111785888672e+00 -2.158635377883911133e+00 -3.746763104572892189e-03 -6.487146019935607910e-01 -1.572053283452987671e-01
1.980000000000000000e+02 4.674534988403320312e+01 -6.832519531250000000e+00 -2.464646100997924805e+00 1.094482955522835255e-03 -7.390654683113098145e-01 -7.790505886077880859e-02
1.990000000000000000e+02 4.449724578857421875e+01 -6.866219043731689453e+00 -2.209664344787597656e+00 -8.385127875953912735e-04 -6.631509065628051758e-01 -7.854928076267242432e-02
2.000000000000000000e+02 4.599700927734375000e+01 -6.846394062042236328e+00 -2.382327318191528320e+00 -1.889232080429792404e-03 -7.152649760246276855e-01 -7.953503727912902832e-02
2.010000000000000000e+02 4.824522781372070312e+01 -6.818868637084960938e+00 -2.649787187576293945e+00 -1.214529620483517647e-03 -7.953005433082580566e-01 -7.393529266119003296e-02
2.020000000000000000e+02 4.825285720825195312e+01 -7.558829784393310547e+00 -2.474420785903930664e+00 -2.063562627881765366e-03 -7.429453134536743164e-01 -1.601147800683975220e-01
2.030000000000000000e+02 4.750334548950195312e+01 -7.563237667083740234e+00 -2.396298885345458984e+00 3.472680400591343641e-04 -7.187854647636413574e-01 -1.593208611011505127e-01
2.040000000000000000e+02 4.899468994140625000e+01 -6.811831474304199219e+00 -2.742995738983154297e+00 -1.143586705438792706e-03 -8.232418298721313477e-01 -7.476157695055007935e-02
2.050000000000000000e+02 4.900135803222656250e+01 -7.551801681518554688e+00 -2.556535482406616211e+00 -1.134771620854735374e-03 -7.673010826110839844e-01 -1.584320515394210815e-01
2.060000000000000000e+02 4.974884033203125000e+01 -7.541996002197265625e+00 -2.643450021743774414e+00 3.784980217460542917e-04 -7.929214239120483398e-01 -1.587027311325073242e-01
2.070000000000000000e+02 4.974313354492187500e+01 -6.802017211914062500e+00 -2.833746433258056641e+00 1.626199227757751942e-03 -8.496360778808593750e-01 -7.278046756982803345e-02
2.080000000000000000e+02 4.749475479125976562e+01 -6.823286056518554688e+00 -2.553643465042114258e+00 2.629576483741402626e-04 -7.660141587257385254e-01 -7.451331615447998047e-02
2.090000000000000000e+02 5.124328231811523438e+01 -6.795847415924072266e+00 -3.037144899368286133e+00 -8.264660136774182320e-04 -9.113914370536804199e-01 -6.867370754480361938e-02
2.100000000000000000e+02 5.199635314941406250e+01 -7.532447814941406250e+00 -2.899437665939331055e+00 -8.262864430435001850e-04 -8.700791597366333008e-01 -1.616895049810409546e-01
2.110000000000000000e+02 5.049753570556640625e+01 -7.536636352539062500e+00 -2.729033470153808594e+00 1.064250129275023937e-03 -8.183907866477966309e-01 -1.616518050432205200e-01
2.120000000000000000e+02 5.274426269531250000e+01 -7.526317596435546875e+00 -2.990580797195434570e+00 -3.917913709301501513e-04 -8.972917795181274414e-01 -1.623507589101791382e-01
2.130000000000000000e+02 5.124744033813476562e+01 -7.535836219787597656e+00 -2.812004089355468750e+00 -1.750639174133539200e-03 -8.441264033317565918e-01 -1.630679666996002197e-01
2.140000000000000000e+02 5.274152374267578125e+01 -6.786322593688964844e+00 -3.243162631988525391e+00 1.585783320479094982e-03 -9.724730849266052246e-01 -6.846091896295547485e-02
2.150000000000000000e+02 5.049266433715820312e+01 -6.796650886535644531e+00 -2.931549072265625000e+00 6.709560402669012547e-04 -8.792634010314941406e-01 -6.928952038288116455e-02
2.160000000000000000e+02 5.199290466308593750e+01 -6.792455673217773438e+00 -3.140583992004394531e+00 -1.054133055731654167e-03 -9.424914121627807617e-01 -6.975851953029632568e-02
2.170000000000000000e+02 5.349121475219726562e+01 -6.783879280090332031e+00 -3.350615978240966797e+00 -1.504028623457998037e-04 -1.005229830741882324e+00 -6.638450920581817627e-02
2.180000000000000000e+02 5.424106216430664062e+01 -6.783032417297363281e+00 -3.462995052337646484e+00 1.859849289758130908e-04 -1.038842678070068359e+00 -6.596416980028152466e-02
2.190000000000000000e+02 5.349338912963867188e+01 -7.523876190185546875e+00 -3.079315423965454102e+00 1.171169686131179333e-03 -9.234432578086853027e-01 -1.642835140228271484e-01
2.200000000000000000e+02 5.424282073974609375e+01 -7.523030757904052734e+00 -3.166683435440063477e+00 -1.381596783176064491e-03 -9.504195451736450195e-01 -1.645755171775817871e-01
2.210000000000000000e+02 5.499200439453125000e+01 -7.520969867706298828e+00 -3.255971670150756836e+00 4.021887725684791803e-04 -9.766708612442016602e-01 -1.632296890020370483e-01
2.220000000000000000e+02 5.574129104614257812e+01 -7.519091606140136719e+00 -3.345406293869018555e+00 1.616584777366369963e-04 -1.003573417663574219e+00 -1.628680080175399780e-01
2.230000000000000000e+02 5.574037551879882812e+01 -6.779091835021972656e+00 -3.684075593948364258e+00 1.469668583013117313e-03 -1.104781746864318848e+00 -6.565865129232406616e-02
2.240000000000000000e+02 5.499066925048828125e+01 -6.780971050262451172e+00 -3.574293375015258789e+00 -1.096072606742382050e-03 -1.072616815567016602e+00 -6.643600016832351685e-02
2.250000000000000000e+02 5.724125289916992188e+01 -6.781723022460937500e+00 -3.912227392196655273e+00 -1.922809169627726078e-04 -1.173725843429565430e+00 -6.419671326875686646e-02
2.260000000000000000e+02 5.799132537841796875e+01 -7.521727561950683594e+00 -3.594387292861938477e+00 1.652984647080302238e-03 -1.077820301055908203e+00 -1.589085757732391357e-01
2.270000000000000000e+02 5.649098205566406250e+01 -7.519072055816650391e+00 -3.432407379150390625e+00 1.961719943210482597e-03 -1.029133677482604980e+00 -1.636091619729995728e-01
2.280000000000000000e+02 5.874002075195312500e+01 -7.518932342529296875e+00 -3.674740791320800781e+00 7.427128148265182972e-04 -1.102199435234069824e+00 -1.559779644012451172e-01
2.290000000000000000e+02 5.724164199829101562e+01 -7.521722793579101562e+00 -3.513220548629760742e+00 -6.541659822687506676e-04 -1.054162383079528809e+00 -1.627461612224578857e-01
2.300000000000000000e+02 5.874005126953125000e+01 -6.778932571411132812e+00 -4.141048908233642578e+00 1.758263329975306988e-03 -1.241787195205688477e+00 -6.456983834505081177e-02
2.310000000000000000e+02 5.649037933349609375e+01 -6.779072284698486328e+00 -3.796582698822021484e+00 -1.899199269246309996e-04 -1.139031767845153809e+00 -6.400518864393234253e-02
2.320000000000000000e+02 5.799114608764648438e+01 -6.781727790832519531e+00 -4.026649475097656250e+00 -1.220106147229671478e-03 -1.208360791206359863e+00 -6.532543152570724487e-02
2.330000000000000000e+02 5.948999786376953125e+01 -6.779025554656982422e+00 -4.254774093627929688e+00 -9.133528219535946846e-04 -1.276706337928771973e+00 -6.342723220586776733e-02
2.340000000000000000e+02 6.024008560180664062e+01 -6.779928684234619141e+00 -4.367084980010986328e+00 1.092285732738673687e-03 -1.309797763824462891e+00 -6.307754665613174438e-02
2.350000000000000000e+02 6.098959350585937500e+01 -7.519578456878662109e+00 -3.864169120788574219e+00 7.197899743914604187e-03 -1.157091379165649414e+00 -1.375055462121963501e-01
2.360000000000000000e+02 5.948982238769531250e+01 -7.519025802612304688e+00 -3.745732307434082031e+00 4.008799791336059570e-03 -1.122516989707946777e+00 -1.528810113668441772e-01
2.370000000000000000e+02 6.023982620239257812e+01 -7.519928932189941406e+00 -3.809022426605224609e+00 2.185842255130410194e-03 -1.142050981521606445e+00 -1.469994783401489258e-01
2.380000000000000000e+02 6.173945999145507812e+01 -7.519367694854736328e+00 -3.907737493515014648e+00 6.783293560147285461e-03 -1.170286297798156738e+00 -1.275961697101593018e-01
2.390000000000000000e+02 6.173988723754882812e+01 -6.779367923736572266e+00 -4.581709384918212891e+00 3.291117260232567787e-03 -1.373525381088256836e+00 -6.014068424701690674e-02
2.400000000000000000e+02 6.098993682861328125e+01 -6.779578208923339844e+00 -4.476833343505859375e+00 -9.831377537921071053e-04 -1.343344926834106445e+00 -6.267055869102478027e-02
2.410000000000000000e+02 6.398949432373046875e+01 -6.780055046081542969e+00 -4.860834121704101562e+00 -4.484760574996471405e-03 -1.459595561027526855e+00 -5.072838440537452698e-02
2.420000000000000000e+02 6.473910522460937500e+01 -7.521468162536621094e+00 -3.833973407745361328e+00 3.779095038771629333e-02 -1.138854742050170898e+00 -2.123387716710567474e-02
2.430000000000000000e+02 6.248938369750976562e+01 -7.519622325897216797e+00 -3.932190656661987305e+00 1.416133064776659012e-02 -1.175408840179443359e+00 -1.102105006575584412e-01
2.440000000000000000e+02 6.473950958251953125e+01 -6.781468391418457031e+00 -4.924898147583007812e+00 1.848986186087131500e-02 -1.471922516822814941e+00 -3.644693270325660706e-02
2.450000000000000000e+02 6.398907470703125000e+01 -7.520054817199707031e+00 -3.905090570449829102e+00 2.542287483811378479e-02 -1.163900256156921387e+00 -5.679418519139289856e-02
2.460000000000000000e+02 6.323971939086914062e+01 -6.779904842376708984e+00 -4.776823997497558594e+00 6.319179199635982513e-03 -1.431151509284973145e+00 -5.293258652091026306e-02
2.470000000000000000e+02 6.248984146118164062e+01 -6.779622554779052734e+00 -4.682589530944824219e+00 -1.456983503885567188e-03 -1.405213952064514160e+00 -5.797465518116950989e-02
2.480000000000000000e+02 6.323927688598632812e+01 -7.519904613494873047e+00 -3.935723304748535156e+00 1.339029334485530853e-02 -1.176699876785278320e+00 -9.188155829906463623e-02
2.490000000000000000e+02 6.607318878173828125e+01 -6.796744346618652344e+00 -4.971874237060546875e+00 3.204655367881059647e-03 -1.490600943565368652e+00 -3.824874013662338257e-02
2.500000000000000000e+02 6.547156524658203125e+01 -7.529820919036865234e+00 -3.680822849273681641e+00 3.730194270610809326e-02 -1.093056321144104004e+00 3.923817723989486694e-02
2.510000000000000000e+02 6.727510070800781250e+01 -6.713419914245605469e+00 -5.081164836883544922e+00 4.105331841856241226e-03 -1.523117899894714355e+00 -1.020589470863342285e-01
2.520000000000000000e+02 6.789090728759765625e+01 -6.521554470062255859e+00 -5.440832138061523438e+00 5.338201671838760376e-02 -1.616235017776489258e+00 -9.849146753549575806e-02
2.530000000000000000e+02 6.789429473876953125e+01 -7.532802104949951172e+00 -2.226254224777221680e+00 9.728111326694488525e-02 -6.386919021606445312e-01 6.022450327873229980e-01
2.540000000000000000e+02 6.797812652587890625e+01 -7.116341114044189453e+00 -3.272758960723876953e+00 1.098503246903419495e-01 -9.488725662231445312e-01 4.344331324100494385e-01
2.550000000000000000e+02 6.776073455810546875e+01 -6.969909191131591797e+00 -4.222696781158447266e+00 -2.127475570887327194e-03 -1.267447352409362793e+00 1.848022341728210449e-01
2.560000000000000000e+02 6.798734283447265625e+01 -6.932477951049804688e+00 -4.161928176879882812e+00 1.059683114290237427e-01 -1.216787934303283691e+00 8.638368546962738037e-02
2.570000000000000000e+02 6.767344665527343750e+01 -6.692265510559082031e+00 -5.073631763458251953e+00 -4.392414540052413940e-02 -1.535266757011413574e+00 -7.861350476741790771e-02
2.580000000000000000e+02 6.753247070312500000e+01 -7.132711410522460938e+00 -3.591126441955566406e+00 1.346426457166671753e-01 -1.036945104598999023e+00 3.102448880672454834e-01
2.590000000000000000e+02 6.618538665771484375e+01 -7.536737442016601562e+00 -3.402949094772338867e+00 4.485096782445907593e-02 -1.007429480552673340e+00 1.371800750494003296e-01
2.600000000000000000e+02 6.543443298339843750e+01 -6.789823055267333984e+00 -4.954848766326904297e+00 -1.373312901705503464e-02 -1.490574598312377930e+00 -2.837213687598705292e-02
2.610000000000000000e+02 6.792214202880859375e+01 -7.307609558105468750e+00 -2.511720895767211914e+00 8.735839277505874634e-02 -7.273087501525878906e-01 5.085790157318115234e-01
2.620000000000000000e+02 6.781750488281250000e+01 -7.772881507873535156e+00 -1.886234760284423828e+00 3.693464100360870361e-01 -4.550665020942687988e-01 9.738309383392333984e-01
2.630000000000000000e+02 6.796829223632812500e+01 -6.732783794403076172e+00 -4.675210952758789062e+00 1.370737850666046143e-01 -1.361441135406494141e+00 -8.946529775857925415e-02
2.640000000000000000e+02 6.670863342285156250e+01 -6.787382602691650391e+00 -5.005988597869873047e+00 -4.122385010123252869e-02 -1.514163732528686523e+00 -5.808553099632263184e-02
2.650000000000000000e+02 6.689588928222656250e+01 -7.527370452880859375e+00 -3.006953954696655273e+00 1.074771136045455933e-01 -8.698430061340332031e-01 3.117276728153228760e-01
2.660000000000000000e+02 6.746192169189453125e+01 -7.504157543182373047e+00 -2.696849107742309570e+00 2.221922576427459717e-01 -7.423970699310302734e-01 4.433117806911468506e-01
2.670000000000000000e+02 6.821412658691406250e+01 -6.516441345214843750e+00 -5.576515197753906250e+00 -7.844524085521697998e-02 -1.696488142013549805e+00 -1.964054442942142487e-02
2.680000000000000000e+02 7.041456604003906250e+01 -7.275475502014160156e+00 3.880222558975219727e+00 7.337062835693359375e+00 3.365185499191284180e+00 7.540447235107421875e+00
2.690000000000000000e+02 7.121390533447265625e+01 -5.029724597930908203e+00 -1.379102617502212524e-01 2.022773551940917969e+01 6.026947498321533203e+00 -5.030699253082275391e+00
2.700000000000000000e+02 7.139730834960937500e+01 -7.737781524658203125e+00 4.049345850944519043e-02 2.163672065734863281e+01 6.503163814544677734e+00 3.382009744644165039e+00
2.710000000000000000e+02 6.821736145019531250e+01 -7.789514541625976562e+00 -1.111195683479309082e+00 9.977512955665588379e-01 -3.403331339359283447e-02 1.516730070114135742e+00
2.720000000000000000e+02 6.859209442138671875e+01 -7.780696392059326172e+00 -4.924522936344146729e-01 1.023816466331481934e+00 1.594092547893524170e-01 1.883482217788696289e+00
2.730000000000000000e+02 6.825582122802734375e+01 -7.366633892059326172e+00 -2.201566934585571289e+00 2.869385182857513428e-01 -5.743885636329650879e-01 6.582387089729309082e-01
2.740000000000000000e+02 6.963846588134765625e+01 -7.754357814788818359e+00 1.624338626861572266e+00 3.486282587051391602e+00 1.533186316490173340e+00 4.401798725128173828e+00
2.750000000000000000e+02 7.080529022216796875e+01 -7.477810382843017578e+00 1.957335233688354492e+00 1.583655261993408203e+01 5.338166236877441406e+00 8.460306167602539062e+00
2.760000000000000000e+02 7.001348114013671875e+01 -7.776593685150146484e+00 2.140680551528930664e+00 5.736383914947509766e+00 2.363119363784790039e+00 5.847770690917968750e+00
2.770000000000000000e+02 7.002442169189453125e+01 -6.508315086364746094e+00 -4.147854328155517578e+00 -1.657989621162414551e-01 -1.294095873832702637e+00 5.194029584527015686e-02
2.780000000000000000e+02 6.845997619628906250e+01 -7.630463600158691406e+00 -1.068925976753234863e+00 7.340710163116455078e-01 -1.004564985632896423e-01 1.436068296432495117e+00
2.790000000000000000e+02 7.121515655517578125e+01 -5.281465530395507812e+00 4.390895068645477295e-01 2.277654838562011719e+01 6.964691638946533203e+00 -5.266642570495605469e+00
2.800000000000000000e+02 7.180513000488281250e+01 -5.559960842132568359e+00 4.528260707855224609e+00 2.504520225524902344e+01 8.872038841247558594e+00 2.188416719436645508e+00
2.810000000000000000e+02 7.205818176269531250e+01 -6.883528709411621094e+00 9.841293334960937500e+00 2.223977088928222656e+01 9.624319076538085938e+00 -3.470356941223144531e+00
2.820000000000000000e+02 7.215399169921875000e+01 -6.700950622558593750e+00 1.159160327911376953e+01 2.060897445678710938e+01 9.660173416137695312e+00 -2.396960020065307617e+00
2.830000000000000000e+02 7.213641357421875000e+01 -7.094966411590576172e+00 7.137032508850097656e+00 2.176735877990722656e+01 8.671317100524902344e+00 -3.221606016159057617e+00
2.840000000000000000e+02 7.168609619140625000e+01 -7.356845378875732422e+00 2.342030286788940430e+00 2.531776046752929688e+01 8.297937393188476562e+00 -3.614032566547393799e-01
2.850000000000000000e+02 7.172400665283203125e+01 -7.649596691131591797e+00 1.119016408920288086e+00 2.276478385925292969e+01 7.165140151977539062e+00 2.915449738502502441e-01
2.860000000000000000e+02 6.821775817871093750e+01 -5.000387191772460938e+00 -1.093669176101684570e+00 8.077288866043090820e-01 -8.578211069107055664e-02 -1.431014060974121094e+00
2.870000000000000000e+02 6.844898223876953125e+01 -5.452616691589355469e+00 -2.012979745864868164e+00 3.519198000431060791e-01 -4.983179569244384766e-01 -8.784764409065246582e-01
2.880000000000000000e+02 6.821375274658203125e+01 -6.267992496490478516e+00 -5.558145999908447266e+00 -1.165760830044746399e-01 -1.702416539192199707e+00 -1.028543524444103241e-02
2.890000000000000000e+02 6.941664123535156250e+01 -5.011389732360839844e+00 1.137804865837097168e+00 2.602989673614501953e+00 1.122238397598266602e+00 -3.682458162307739258e+00
2.900000000000000000e+02 7.066182708740234375e+01 -5.194584846496582031e+00 1.998917698860168457e+00 1.301752758026123047e+01 4.504933834075927734e+00 -8.144933700561523438e+00
2.910000000000000000e+02 6.861051177978515625e+01 -6.256157398223876953e+00 -5.369788169860839844e+00 4.218657687306404114e-02 -1.598280549049377441e+00 -3.312633140012621880e-03
2.920000000000000000e+02 6.863525390625000000e+01 -5.228434562683105469e+00 -1.051541686058044434e+00 7.265781164169311523e-01 -9.748907387256622314e-02 -1.506529450416564941e+00
2.930000000000000000e+02 6.914550781250000000e+01 -6.085280895233154297e+00 -3.924301862716674805e+00 9.305762499570846558e-02 -1.149373292922973633e+00 -2.857464551925659180e-01
2.940000000000000000e+02 6.961842346191406250e+01 -6.254612922668457031e+00 -4.754688739776611328e+00 -2.521357499063014984e-02 -1.433970808982849121e+00 -5.899075418710708618e-02
2.950000000000000000e+02 6.921135711669921875e+01 -6.276285648345947266e+00 -5.094164371490478516e+00 2.082685194909572601e-02 -1.522001266479492188e+00 3.617008402943611145e-02
2.960000000000000000e+02 7.039244842529296875e+01 -5.542416572570800781e+00 3.904254436492919922e+00 6.911640167236328125e+00 3.244768381118774414e+00 -7.393654346466064453e+00
2.970000000000000000e+02 6.902626037597656250e+01 -5.239660263061523438e+00 -1.203159019351005554e-01 1.105316162109375000e+00 2.955000698566436768e-01 -2.172952175140380859e+00
2.980000000000000000e+02 7.002684783935546875e+01 -6.281635284423828125e+00 -4.218402862548828125e+00 -1.268557757139205933e-01 -1.303577542304992676e+00 -7.104749232530593872e-02
2.990000000000000000e+02 7.220022583007812500e+01 -6.114337921142578125e+00 1.164158821105957031e+01 2.025757598876953125e+01 9.569749832153320312e+00 2.232965230941772461e+00
3.000000000000000000e+02 7.140276336669921875e+01 -5.313491821289062500e+00 7.376188635826110840e-01 2.463833999633789062e+01 7.612787723541259766e+00 -2.872890472412109375e+00
3.010000000000000000e+02 7.102429199218750000e+01 -5.271251678466796875e+00 8.834612369537353516e-01 1.993628883361816406e+01 6.245924949645996094e+00 -7.214206218719482422e+00
3.020000000000000000e+02 7.082789611816406250e+01 -5.004783630371093750e+00 7.294661998748779297e-01 1.580757808685302734e+01 4.961113452911376953e+00 -7.227898120880126953e+00
3.030000000000000000e+02 7.024610900878906250e+01 -7.133732795715332031e+00 3.677648067474365234e+00 4.102805137634277344e+00 2.334136009216308594e+00 5.727271080017089844e+00
3.040000000000000000e+02 7.060070800781250000e+01 -7.397443771362304688e+00 3.122246503829956055e+00 1.170675945281982422e+01 4.448701858520507812e+00 8.665743827819824219e+00
3.050000000000000000e+02 7.184223937988281250e+01 -7.233932018280029297e+00 4.615261554718017578e+00 2.471808242797851562e+01 8.800003051757812500e+00 -2.273457050323486328e+00
3.060000000000000000e+02 7.227680969238281250e+01 -6.777083873748779297e+00 1.037906455993652344e+01 1.978151512145996094e+01 9.048173904418945312e+00 -2.375399589538574219e+00
3.070000000000000000e+02 7.221683502197265625e+01 -6.502910137176513672e+00 1.254217910766601562e+01 1.971166992187500000e+01 9.676154136657714844e+00 -8.441463112831115723e-01
3.080000000000000000e+02 6.861071014404296875e+01 -6.517961025238037109e+00 -5.442210674285888672e+00 2.773336693644523621e-02 -1.624343276023864746e+00 -5.189047660678625107e-03
3.090000000000000000e+02 7.228721618652343750e+01 -7.054922103881835938e+00 7.630864620208740234e+00 2.004547691345214844e+01 8.302902221679687500e+00 -3.107368230819702148e+00
3.100000000000000000e+02 7.079773712158203125e+01 -7.751062393188476562e+00 9.863434433937072754e-01 1.515273284912109375e+01 4.841722965240478516e+00 7.406561851501464844e+00
3.110000000000000000e+02 7.101232147216796875e+01 -7.504494190216064453e+00 9.604709148406982422e-01 1.989694404602050781e+01 6.257224082946777344e+00 7.255626678466796875e+00
3.120000000000000000e+02 7.196794128417968750e+01 -7.067728996276855469e+00 7.181626319885253906e+00 2.362472724914550781e+01 9.241906166076660156e+00 -3.348906993865966797e+00
3.130000000000000000e+02 7.201920318603515625e+01 -7.412631988525390625e+00 3.687220573425292969e+00 2.228790092468261719e+01 7.792536258697509766e+00 -2.139707565307617188e+00
3.140000000000000000e+02 6.941378021240234375e+01 -6.549508571624755859e+00 -4.851414203643798828e+00 4.331988468766212463e-02 -1.442428231239318848e+00 4.599639773368835449e-02
3.150000000000000000e+02 6.961881256103515625e+01 -6.541179656982421875e+00 -4.667906284332275391e+00 -6.435462739318609238e-03 -1.402302503585815430e+00 7.216934114694595337e-02
3.160000000000000000e+02 6.968852233886718750e+01 -7.044779777526855469e+00 3.897059708833694458e-02 9.136292338371276855e-01 2.857799530029296875e-01 2.129238843917846680e+00
3.170000000000000000e+02 7.166172790527343750e+01 -5.469798088073730469e+00 2.432013034820556641e+00 2.595165443420410156e+01 8.515100479125976562e+00 4.221981167793273926e-01
3.180000000000000000e+02 7.057141876220703125e+01 -5.426897048950195312e+00 3.391443252563476562e+00 1.094948101043701172e+01 4.302277088165283203e+00 -8.608705520629882812e+00
3.190000000000000000e+02 6.929029846191406250e+01 -5.754056453704833984e+00 -1.239209651947021484e+00 4.476499259471893311e-01 -2.374679297208786011e-01 -1.167664885520935059e+00
3.200000000000000000e+02 7.195893859863281250e+01 -5.675073623657226562e+00 6.567525386810302734e+00 2.366839027404785156e+01 9.070774078369140625e+00 3.215593576431274414e+00
3.210000000000000000e+02 6.963002014160156250e+01 -5.995479106903076172e+00 -1.838843226432800293e+00 2.949067950248718262e-01 -4.631809294223785400e-01 -8.656921386718750000e-01
3.220000000000000000e+02 7.006758880615234375e+01 -6.077031612396240234e+00 -4.980000257492065430e-01 4.474816620349884033e-01 -1.515550911426544189e-02 -1.343773603439331055e+00
3.230000000000000000e+02 6.993490600585937500e+01 -5.813070297241210938e+00 1.123774170875549316e+00 1.196750164031982422e+00 6.961572766304016113e-01 -2.646477460861206055e+00
3.240000000000000000e+02 7.223332214355468750e+01 -5.932164669036865234e+00 9.811514854431152344e+00 2.037667655944824219e+01 9.056457519531250000e+00 2.716788530349731445e+00
3.250000000000000000e+02 7.047070312500000000e+01 -5.227006912231445312e+00 2.616491079330444336e+00 9.971313476562500000e+00 3.776341438293457031e+00 -7.723039627075195312e+00
3.260000000000000000e+02 7.075369262695312500e+01 -5.363029003143310547e+00 2.288091897964477539e+00 1.534847831726074219e+01 5.290971279144287109e+00 -8.750823020935058594e+00
3.270000000000000000e+02 7.245796966552734375e+01 -6.112608909606933594e+00 1.023434066772460938e+01 1.797299003601074219e+01 8.462199211120605469e+00 1.565504431724548340e+00
3.280000000000000000e+02 7.231955718994140625e+01 -7.177437782287597656e+00 6.643184661865234375e+00 2.022527885437011719e+01 8.060539245605468750e+00 -2.987222433090209961e+00
3.290000000000000000e+02 7.226236724853515625e+01 -5.645423889160156250e+00 6.661816596984863281e+00 2.030284309387207031e+01 8.089397430419921875e+00 3.136523008346557617e+00
3.300000000000000000e+02 7.158647918701171875e+01 -5.088635444641113281e+00 2.787835001945495605e-01 2.254207038879394531e+01 6.846256256103515625e+00 -1.769728541374206543e+00
3.310000000000000000e+02 7.240483856201171875e+01 -7.043716907501220703e+00 7.729455947875976562e+00 1.910146522521972656e+01 8.049276351928710938e+00 -2.667515993118286133e+00
3.320000000000000000e+02 7.186621856689453125e+01 -7.540893077850341797e+00 2.077424049377441406e+00 2.261972236633300781e+01 7.409143924713134766e+00 -9.237648844718933105e-01
3.330000000000000000e+02 7.182802581787109375e+01 -5.419229984283447266e+00 3.241295576095581055e+00 2.389118003845214844e+01 8.139742851257324219e+00 1.512256979942321777e+00
3.340000000000000000e+02 7.247415924072265625e+01 -6.301171302795410156e+00 1.087049388885498047e+01 1.785990333557128906e+01 8.619118690490722656e+00 6.168145537376403809e-01
3.350000000000000000e+02 7.246841430664062500e+01 -6.503310203552246094e+00 1.075782680511474609e+01 1.791609001159667969e+01 8.602174758911132812e+00 -7.094220519065856934e-01
3.360000000000000000e+02 7.207910156250000000e+01 -5.827008724212646484e+00 8.965286254882812500e+00 2.212712287902832031e+01 9.327722549438476562e+00 3.365685939788818359e+00
3.370000000000000000e+02 7.213658905029296875e+01 -5.496824264526367188e+00 5.250310897827148438e+00 2.164941596984863281e+01 8.069917678833007812e+00 2.802853822708129883e+00
3.380000000000000000e+02 7.189484405517578125e+01 -5.207137107849121094e+00 1.998640775680541992e+00 2.214498519897460938e+01 7.243088245391845703e+00 8.162709474563598633e-01
3.390000000000000000e+02 7.176439666748046875e+01 -5.274038791656494141e+00 1.920612573623657227e+00 2.341834831237792969e+01 7.601687908172607422e+00 4.060524702072143555e-01
3.400000000000000000e+02 7.140316009521484375e+01 -5.055261135101318359e+00 -1.149916276335716248e-01 2.159760093688964844e+01 6.444782733917236328e+00 -3.351284265518188477e+00
3.410000000000000000e+02 7.102143096923828125e+01 -5.016626358032226562e+00 1.543187797069549561e-01 1.805628967285156250e+01 5.463182449340820312e+00 -6.293434619903564453e+00
3.420000000000000000e+02 7.100922393798828125e+01 -7.759116172790527344e+00 2.994860708713531494e-01 1.803750038146972656e+01 5.501095771789550781e+00 6.549479484558105469e+00
3.430000000000000000e+02 7.120914459228515625e+01 -7.755896568298339844e+00 8.762237266637384892e-04 2.021021080017089844e+01 6.063326358795166016e+00 5.016374111175537109e+00
3.440000000000000000e+02 6.992509460449218750e+01 -7.605720996856689453e+00 2.260332584381103516e+00 4.605944156646728516e+00 2.059883117675781250e+00 5.325351715087890625e+00
3.450000000000000000e+02 7.041683959960937500e+01 -7.789265155792236328e+00 1.867815375328063965e+00 9.732222557067871094e+00 3.480011463165283203e+00 7.118659019470214844e+00
3.460000000000000000e+02 6.901749420166015625e+01 -7.478557109832763672e+00 -2.011413276195526123e-01 9.345312118530273438e-01 2.200169712305068970e-01 1.941970109939575195e+00
3.470000000000000000e+02 6.942618560791015625e+01 -7.746408462524414062e+00 1.242300510406494141e+00 2.559229135513305664e+00 1.140458941459655762e+00 3.692952394485473633e+00
3.480000000000000000e+02 7.059851837158203125e+01 -7.774372577667236328e+00 1.546441674232482910e+00 1.237909889221191406e+01 4.177662372589111328e+00 7.605659961700439453e+00
3.490000000000000000e+02 7.021710205078125000e+01 -7.761141300201416016e+00 2.119709014892578125e+00 7.534487247467041016e+00 2.896258831024169922e+00 6.615887165069580078e+00
3.500000000000000000e+02 6.929787445068359375e+01 -7.308766365051269531e+00 8.108134567737579346e-02 1.006557941436767578e+00 3.262917697429656982e-01 2.071867942810058594e+00
3.510000000000000000e+02 6.841280364990234375e+01 -7.802064418792724609e+00 -7.846983671188354492e-01 9.294998645782470703e-01 4.344045743346214294e-02 1.711404323577880859e+00
3.520000000000000000e+02 6.823242950439453125e+01 -7.583893775939941406e+00 -1.659048795700073242e+00 6.818192601203918457e-01 -2.931688427925109863e-01 1.045571565628051758e+00
3.530000000000000000e+02 6.920986938476562500e+01 -6.550513744354248047e+00 -5.002575874328613281e+00 -1.523736026138067245e-02 -1.505343914031982422e+00 2.740067802369594574e-02
3.540000000000000000e+02 6.919355773925781250e+01 -6.846708297729492188e+00 -2.788994312286376953e+00 1.766426265239715576e-01 -7.837055325508117676e-01 5.666102170944213867e-01
3.550000000000000000e+02 6.871398162841796875e+01 -6.979033946990966797e+00 -2.994972229003906250e+00 1.046334579586982727e-01 -8.671016097068786621e-01 3.681034147739410400e-01
3.560000000000000000e+02 6.821266937255859375e+01 -6.724014282226562500e+00 -4.625962734222412109e+00 -6.219765916466712952e-02 -1.406448125839233398e+00 -3.262914717197418213e-02
3.570000000000000000e+02 6.900823974609375000e+01 -6.542913436889648438e+00 -5.144320964813232422e+00 1.134932879358530045e-02 -1.539891481399536133e+00 3.093361109495162964e-02
3.580000000000000000e+02 6.877642059326171875e+01 -5.957174301147460938e+00 -3.674537897109985352e+00 3.998812288045883179e-02 -1.090364933013916016e+00 -2.167990356683731079e-01
3.590000000000000000e+02 6.986277008056640625e+01 -6.034759521484375000e+00 -1.169781327247619629e+00 1.998192369937896729e-01 -2.909886240959167480e-01 -1.067416906356811523e+00
3.600000000000000000e+02 6.982623291015625000e+01 -6.266168117523193359e+00 -4.509187698364257812e+00 7.744459807872772217e-02 -1.329522967338562012e+00 -8.893310278654098511e-02
3.610000000000000000e+02 7.025693511962890625e+01 -5.226919651031494141e+00 2.846234798431396484e+00 7.321318149566650391e+00 3.050266027450561523e+00 -6.936744689941406250e+00
3.620000000000000000e+02 6.901971435546875000e+01 -5.008662700653076172e+00 2.236057668924331665e-01 1.636337161064147949e+00 5.579828619956970215e-01 -2.644259691238403320e+00
3.630000000000000000e+02 6.984062957763671875e+01 -5.265008449554443359e+00 2.057179212570190430e+00 3.581373929977416992e+00 1.691565871238708496e+00 -4.651372432708740234e+00
3.640000000000000000e+02 6.982274627685546875e+01 -5.015901565551757812e+00 1.894304871559143066e+00 4.517431259155273438e+00 1.923520803451538086e+00 -5.129820823669433594e+00
3.650000000000000000e+02 6.842109680175781250e+01 -5.003361701965332031e+00 -9.139353036880493164e-01 8.021196126937866211e-01 -3.354470804333686829e-02 -1.573075294494628906e+00
3.660000000000000000e+02 6.869699859619140625e+01 -5.697564125061035156e+00 -2.463691711425781250e+00 1.518954038619995117e-01 -6.935389041900634766e-01 -6.052960753440856934e-01
3.670000000000000000e+02 6.882097625732421875e+01 -5.005989551544189453e+00 -1.532351225614547729e-01 1.254134893417358398e+00 3.302699327468872070e-01 -2.267774820327758789e+00
3.680000000000000000e+02 6.922078704833984375e+01 -5.247879505157470703e+00 2.514497041702270508e-01 1.510072827339172363e+00 5.284567475318908691e-01 -2.542969703674316406e+00
3.690000000000000000e+02 7.005345153808593750e+01 -5.240289688110351562e+00 2.559129714965820312e+00 4.860874652862548828e+00 2.226001262664794922e+00 -5.683002948760986328e+00
3.700000000000000000e+02 6.961871337890625000e+01 -5.013699054718017578e+00 1.572335600852966309e+00 3.381250381469726562e+00 1.486075758934020996e+00 -4.387359619140625000e+00
3.710000000000000000e+02 7.002603912353515625e+01 -5.010398864746093750e+00 2.131397962570190430e+00 5.806353569030761719e+00 2.381325483322143555e+00 -5.901424884796142578e+00
3.720000000000000000e+02 6.824362182617187500e+01 -7.143108844757080078e+00 -2.841308116912841797e+00 1.544076800346374512e-01 -8.060701489448547363e-01 4.620856940746307373e-01
3.730000000000000000e+02 6.879344940185546875e+01 -7.751495361328125000e+00 -1.591774374246597290e-01 1.135519623756408691e+00 2.929026484489440918e-01 2.135446071624755859e+00
3.740000000000000000e+02 6.821252441406250000e+01 -6.058088302612304688e+00 -4.786354541778564453e+00 -1.629702895879745483e-01 -1.484797477722167969e+00 -5.847379565238952637e-02
3.750000000000000000e+02 6.841220092773437500e+01 -6.267626762390136719e+00 -5.458439350128173828e+00 3.294059261679649353e-02 -1.627649664878845215e+00 6.518605351448059082e-02
3.760000000000000000e+02 6.822834014892578125e+01 -5.646479606628417969e+00 -3.150539636611938477e+00 1.622936278581619263e-01 -8.964737653732299805e-01 -4.361570477485656738e-01
3.770000000000000000e+02 6.921931457519531250e+01 -7.493711948394775391e+00 3.797276020050048828e-01 1.345267653465270996e+00 5.174985527992248535e-01 2.462695598602294922e+00
3.780000000000000000e+02 6.940766143798828125e+01 -7.477191448211669922e+00 8.926700353622436523e-01 1.681193113327026367e+00 7.721589207649230957e-01 2.884756326675415039e+00
3.790000000000000000e+02 7.007384490966796875e+01 -7.381949901580810547e+00 2.819854259490966797e+00 4.181406497955322266e+00 2.100378274917602539e+00 5.459840297698974609e+00
3.800000000000000000e+02 6.901131439208984375e+01 -7.754218578338623047e+00 3.114053308963775635e-01 1.524806618690490723e+00 5.508635640144348145e-01 2.603279829025268555e+00
3.810000000000000000e+02 6.840560913085937500e+01 -6.716277122497558594e+00 -4.618075847625732422e+00 6.743937730789184570e-02 -1.365190982818603516e+00 6.183516979217529297e-02
3.820000000000000000e+02 6.920035552978515625e+01 -7.130462646484375000e+00 -1.180540323257446289e+00 4.582778215408325195e-01 -2.166787385940551758e-01 1.234985232353210449e+00
3.830000000000000000e+02 6.878614044189453125e+01 -7.480198383331298828e+00 -8.648329973220825195e-01 7.194135189056396484e-01 -4.362585395574569702e-02 1.532962083816528320e+00
3.840000000000000000e+02 6.857073211669921875e+01 -6.025247097015380859e+00 -4.253715991973876953e+00 7.468241453170776367e-02 -1.253710031509399414e+00 -7.541713863611221313e-02
3.850000000000000000e+02 6.950463104248046875e+01 -5.640651226043701172e+00 1.391560118645429611e-02 9.595867991447448730e-01 2.920507192611694336e-01 -1.963613271713256836e+00
3.860000000000000000e+02 6.843383026123046875e+01 -5.225291252136230469e+00 -1.241435527801513672e+00 5.777795314788818359e-01 -1.990967839956283569e-01 -1.336697459220886230e+00
3.870000000000000000e+02 7.003968048095703125e+01 -5.593091487884521484e+00 2.703524827957153320e+00 2.840898036956787109e+00 1.663326859474182129e+00 -4.554652214050292969e+00
3.880000000000000000e+02 6.821965789794921875e+01 -5.852670192718505859e+00 -3.575684785842895508e+00 9.181500226259231567e-02 -1.045161008834838867e+00 -4.346025362610816956e-02
3.890000000000000000e+02 6.840019989013671875e+01 -6.065636634826660156e+00 -4.689649581909179688e+00 3.187076374888420105e-02 -1.397333621978759766e+00 -9.347318112850189209e-02
3.900000000000000000e+02 7.012547302246093750e+01 -6.940723896026611328e+00 2.294215917587280273e+00 1.522358059883117676e+00 1.144972205162048340e+00 3.406152009963989258e+00
3.910000000000000000e+02 7.025118255615234375e+01 -5.703486919403076172e+00 3.774068832397460938e+00 3.741997957229614258e+00 2.254820108413696289e+00 -5.562857627868652344e+00
3.920000000000000000e+02 6.962083435058593750e+01 -5.247475624084472656e+00 1.457062602043151855e+00 2.487079858779907227e+00 1.183242797851562500e+00 -3.816395521163940430e+00
3.930000000000000000e+02 6.821611785888671875e+01 -6.930717945098876953e+00 -3.891045570373535156e+00 1.039341017603874207e-01 -1.136133432388305664e+00 1.255058497190475464e-01
3.940000000000000000e+02 6.958405303955078125e+01 -7.377072811126708984e+00 1.153425693511962891e+00 1.675607800483703613e+00 8.487100601196289062e-01 3.165601253509521484e+00
3.950000000000000000e+02 6.941475677490234375e+01 -6.841698646545410156e+00 -2.066797971725463867e+00 1.803639531135559082e-01 -5.659302473068237305e-01 7.756569981575012207e-01
3.960000000000000000e+02 6.937882232666015625e+01 -6.005113601684570312e+00 -2.713200569152832031e+00 1.780911833047866821e-01 -7.605327963829040527e-01 -5.496228337287902832e-01
3.970000000000000000e+02 6.882187652587890625e+01 -6.236428737640380859e+00 -5.249431610107421875e+00 -5.179743468761444092e-02 -1.590368747711181641e+00 6.288988050073385239e-03
3.980000000000000000e+02 6.922335052490234375e+01 -5.498563766479492188e+00 -4.162038266658782959e-01 8.942019343376159668e-01 1.433994323015213013e-01 -1.860330343246459961e+00
3.990000000000000000e+02 6.822289276123046875e+01 -5.215991020202636719e+00 -1.691431164741516113e+00 4.860161542892456055e-01 -3.616245090961456299e-01 -9.857836365699768066e-01
4.000000000000000000e+02 6.846302795410156250e+01 -5.686789512634277344e+00 -2.740760326385498047e+00 1.601984053850173950e-01 -7.741685509681701660e-01 -4.478974044322967529e-01
4.010000000000000000e+02 6.884229278564453125e+01 -5.444193363189697266e+00 -1.234787821769714355e+00 5.739790201187133789e-01 -1.982426494359970093e-01 -1.368167996406555176e+00
4.020000000000000000e+02 6.985155487060546875e+01 -6.773442268371582031e+00 -1.025068879127502441e+00 2.231119573116302490e-01 -2.405870556831359863e-01 1.091380238533020020e+00
4.030000000000000000e+02 6.853018188476562500e+01 -7.421239852905273438e+00 -1.545569419860839844e+00 5.642985701560974121e-01 -2.943812608718872070e-01 1.158377170562744141e+00
4.040000000000000000e+02 6.822763061523437500e+01 -5.432466506958007812e+00 -2.169343709945678711e+00 1.933953315019607544e-01 -5.927845239639282227e-01 -7.556096911430358887e-01
4.050000000000000000e+02 6.862149047851562500e+01 -5.004652023315429688e+00 -5.227290391921997070e-01 1.048490405082702637e+00 1.577284038066864014e-01 -1.904243707656860352e+00
4.060000000000000000e+02 6.883146667480468750e+01 -5.229862689971923828e+00 -6.049824357032775879e-01 8.792527318000793457e-01 8.228108286857604980e-02 -1.762578248977661133e+00
4.070000000000000000e+02 6.902676391601562500e+01 -6.257956981658935547e+00 -5.176314830780029297e+00 -7.823083549737930298e-03 -1.555241346359252930e+00 5.166867002844810486e-02
4.080000000000000000e+02 6.940830993652343750e+01 -6.256934165954589844e+00 -4.949950218200683594e+00 5.916385725140571594e-02 -1.467235922813415527e+00 -3.388930112123489380e-02
4.090000000000000000e+02 6.841270446777343750e+01 -6.514341354370117188e+00 -5.517421722412109375e+00 3.165603056550025940e-02 -1.645729660987854004e+00 -6.206439062952995300e-02
4.100000000000000000e+02 6.839938354492187500e+01 -6.903730392456054688e+00 -3.744003772735595703e+00 8.382655680179595947e-02 -1.098053216934204102e+00 1.892966926097869873e-01
4.110000000000000000e+02 6.859258270263671875e+01 -6.727663516998291016e+00 -4.388317584991455078e+00 7.585991919040679932e-02 -1.293737292289733887e+00 9.526117146015167236e-02
4.120000000000000000e+02 6.878004455566406250e+01 -6.763670921325683594e+00 -4.023477554321289062e+00 6.828781217336654663e-02 -1.186556935310363770e+00 1.985651701688766479e-01
4.130000000000000000e+02 6.880873870849609375e+01 -6.528837680816650391e+00 -5.298589706420898438e+00 2.496613888069987297e-03 -1.588827967643737793e+00 2.107972465455532074e-02
4.140000000000000000e+02 6.897932434082031250e+01 -6.820303440093994141e+00 -3.396673917770385742e+00 7.942050695419311523e-02 -9.951760172843933105e-01 3.587912023067474365e-01
4.150000000000000000e+02 6.845053100585937500e+01 -7.069204807281494141e+00 -2.857378959655761719e+00 1.961861103773117065e-01 -7.983578443527221680e-01 4.092247784137725830e-01
4.160000000000000000e+02 6.855358123779296875e+01 -6.916830062866210938e+00 -3.464180707931518555e+00 1.557432115077972412e-01 -9.925312399864196777e-01 3.062744736671447754e-01
4.170000000000000000e+02 6.921745300292968750e+01 -5.010810852050781250e+00 6.937147974967956543e-01 2.005262613296508789e+00 8.096932172775268555e-01 -3.103620290756225586e+00
4.180000000000000000e+02 6.941806793212890625e+01 -5.243472576141357422e+00 8.109828233718872070e-01 1.805260181427001953e+00 7.848728895187377930e-01 -3.038648605346679688e+00
4.190000000000000000e+02 7.022964477539062500e+01 -5.006354808807373047e+00 2.109314203262329102e+00 7.890840053558349609e+00 3.000046253204345703e+00 -6.747420787811279297e+00
4.200000000000000000e+02 7.043205261230468750e+01 -5.004003524780273438e+00 1.798834204673767090e+00 1.008510684967041016e+01 3.565182447433471680e+00 -7.121726512908935547e+00
4.210000000000000000e+02 7.063101196289062500e+01 -4.998666763305664062e+00 1.450390934944152832e+00 1.262938976287841797e+01 4.223934173583984375e+00 -7.609148502349853516e+00
4.220000000000000000e+02 7.083812713623046875e+01 -5.227206230163574219e+00 1.419914126396179199e+00 1.658051109313964844e+01 5.400127410888671875e+00 -8.015564918518066406e+00
4.230000000000000000e+02 7.175624847412109375e+01 -5.127622127532958984e+00 9.755679965019226074e-01 2.270649719238281250e+01 7.104619503021240234e+00 -2.102781832218170166e-01
4.240000000000000000e+02 7.201068878173828125e+01 -5.342856884002685547e+00 3.517270565032958984e+00 2.223796653747558594e+01 7.726571083068847656e+00 1.965677976608276367e+00
4.250000000000000000e+02 7.237052917480468750e+01 -5.786038875579833984e+00 7.729305744171142578e+00 1.949687194824218750e+01 8.167853355407714844e+00 3.024462461471557617e+00
4.260000000000000000e+02 7.243405151367187500e+01 -5.937705516815185547e+00 9.395975112915039062e+00 1.857091903686523438e+01 8.390068054199218750e+00 2.349368095397949219e+00
4.270000000000000000e+02 7.222257995605468750e+01 -6.301324367523193359e+00 1.260673522949218750e+01 1.963269233703613281e+01 9.671828269958496094e+00 8.267581462860107422e-01
4.280000000000000000e+02 7.246482849121093750e+01 -6.700546264648437500e+00 1.008321380615234375e+01 1.802390861511230469e+01 8.432136535644531250e+00 -1.734634399414062500e+00
4.290000000000000000e+02 7.245168304443359375e+01 -6.880186080932617188e+00 8.662419319152832031e+00 1.831653594970703125e+01 8.093687057495117188e+00 -2.405897855758666992e+00
4.300000000000000000e+02 7.217994689941406250e+01 -7.287577152252197266e+00 5.336088180541992188e+00 2.136734390258789062e+01 8.011030197143554688e+00 -2.884892225265502930e+00
4.310000000000000000e+02 7.139716339111328125e+01 -7.479550838470458984e+00 5.912277698516845703e-01 2.462423896789550781e+01 7.564640045166015625e+00 2.910997152328491211e+00
4.320000000000000000e+02 7.157909393310546875e+01 -7.512161254882812500e+00 1.165383577346801758e+00 2.427634048461914062e+01 7.632516860961914062e+00 1.233804345130920410e+00
4.330000000000000000e+02 7.157201385498046875e+01 -7.713365554809570312e+00 1.778874993324279785e-01 2.255423736572265625e+01 6.819637775421142578e+00 2.100870132446289062e+00
4.340000000000000000e+02 7.121063995361328125e+01 -7.504157066345214844e+00 4.621359109878540039e-01 2.279236030578613281e+01 6.976348876953125000e+00 5.248832225799560547e+00
4.350000000000000000e+02 7.028112030029296875e+01 -7.506784439086914062e+00 3.061167240142822266e+00 7.205275535583496094e+00 3.079932928085327148e+00 7.007126331329345703e+00
4.360000000000000000e+02 6.983024597167968750e+01 -7.789697647094726562e+00 1.837276697158813477e+00 4.569837570190429688e+00 1.922134280204772949e+00 5.102358341217041016e+00
4.370000000000000000e+02 6.921621704101562500e+01 -7.756325721740722656e+00 6.286804080009460449e-01 1.920059084892272949e+00 7.646218538284301758e-01 2.973893165588378906e+00
4.380000000000000000e+02 7.014266204833984375e+01 -5.882794857025146484e+00 2.174914121627807617e+00 1.409879207611083984e+00 1.075438022613525391e+00 -3.215203762054443359e+00
4.390000000000000000e+02 7.005983734130859375e+01 -6.721805095672607422e+00 -5.104811191558837891e-01 3.989181816577911377e-01 -3.346888348460197449e-02 1.369606018066406250e+00
4.400000000000000000e+02 6.982257080078125000e+01 -6.526755809783935547e+00 -4.418042659759521484e+00 7.074231654405593872e-02 -1.304190158843994141e+00 1.130007207393646240e-01
4.410000000000000000e+02 6.989813995361328125e+01 -7.019412040710449219e+00 1.301816821098327637e+00 1.432296514511108398e+00 8.202340006828308105e-01 2.904556274414062500e+00
4.420000000000000000e+02 6.963652038574218750e+01 -6.817912101745605469e+00 -1.494401097297668457e+00 3.084354996681213379e-01 -3.557896912097930908e-01 9.560058712959289551e-01
4.430000000000000000e+02 7.048584747314453125e+01 -7.603079319000244141e+00 2.448089599609375000e+00 1.059847164154052734e+01 3.913968563079833984e+00 7.746661663055419922e+00
4.440000000000000000e+02 7.217969512939453125e+01 -6.918065071105957031e+00 9.451819419860839844e+00 2.130226707458496094e+01 9.226225852966308594e+00 -3.251309156417846680e+00
4.450000000000000000e+02 7.230361175537109375e+01 -6.908138275146484375e+00 8.901075363159179688e+00 1.971883583068847656e+01 8.585973739624023438e+00 -2.796825647354125977e+00
4.460000000000000000e+02 7.159008026123046875e+01 -5.309340000152587891e+00 1.360157251358032227e+00 2.460343742370605469e+01 7.789078235626220703e+00 -9.242123365402221680e-01
4.470000000000000000e+02 6.861098480224609375e+01 -7.186553478240966797e+00 -2.152988433837890625e+00 2.778916656970977783e-01 -5.625290870666503906e-01 7.240814566612243652e-01
4.480000000000000000e+02 6.865640258789062500e+01 -5.458219051361083984e+00 -1.484788179397583008e+00 4.658926129341125488e-01 -3.056686818599700928e-01 -1.126818656921386719e+00
4.490000000000000000e+02 6.901998901367187500e+01 -5.473363399505615234e+00 -8.772611021995544434e-01 6.694707274436950684e-01 -6.233710050582885742e-02 -1.546872854232788086e+00
4.500000000000000000e+02 6.960133361816406250e+01 -5.462018013000488281e+00 1.052069783210754395e+00 1.631399035453796387e+00 8.050406575202941895e-01 -2.969335317611694336e+00
4.510000000000000000e+02 6.980760192871093750e+01 -5.512703895568847656e+00 1.887408018112182617e+00 2.367226600646972656e+00 1.276390433311462402e+00 -3.745656967163085938e+00
4.520000000000000000e+02 7.018378448486328125e+01 -5.408351421356201172e+00 3.143877744674682617e+00 5.474425792694091797e+00 2.585491180419921875e+00 -6.199131011962890625e+00
4.530000000000000000e+02 6.889333343505859375e+01 -7.050377845764160156e+00 -2.293378591537475586e+00 2.415070533752441406e-01 -6.155614852905273438e-01 6.279081106185913086e-01
4.540000000000000000e+02 6.939598846435546875e+01 -7.119286060333251953e+00 -6.600984930992126465e-01 5.916405320167541504e-01 -2.053739503026008606e-02 1.640222430229187012e+00
4.550000000000000000e+02 6.956052398681640625e+01 -7.173696517944335938e+00 1.020388305187225342e-01 1.009400367736816406e+00 3.334317803382873535e-01 2.086855888366699219e+00
4.560000000000000000e+02 6.970104980468750000e+01 -5.749413490295410156e+00 2.727687060832977295e-01 8.519017696380615234e-01 3.374011516571044922e-01 -2.066333293914794922e+00
4.570000000000000000e+02 6.902800750732421875e+01 -5.862182617187500000e+00 -2.666140317916870117e+00 1.718146353960037231e-01 -7.482976913452148438e-01 -5.383221507072448730e-01
4.580000000000000000e+02 6.986875915527343750e+01 -7.275492191314697266e+00 2.024182558059692383e+00 2.344970226287841797e+00 1.310745835304260254e+00 3.898783683776855469e+00
4.590000000000000000e+02 6.973834228515625000e+01 -7.511506557464599609e+00 1.930821180343627930e+00 2.954569578170776367e+00 1.465617179870605469e+00 4.283522129058837891e+00
4.600000000000000000e+02 6.881472778320312500e+01 -7.244641780853271484e+00 -1.545264840126037598e+00 5.117017030715942383e-01 -3.100689351558685303e-01 1.139182567596435547e+00
4.610000000000000000e+02 6.900568389892578125e+01 -7.215435028076171875e+00 -1.269608378410339355e+00 5.201695561408996582e-01 -2.248316556215286255e-01 1.232323646545410156e+00
4.620000000000000000e+02 6.969603729248046875e+01 -7.225018024444580078e+00 1.372415065765380859e+00 1.554438591003417969e+00 8.780561089515686035e-01 3.001057863235473633e+00
4.630000000000000000e+02 6.942497253417968750e+01 -5.459978580474853516e+00 2.190504372119903564e-01 1.256832838058471680e+00 4.427649974822998047e-01 -2.423364400863647461e+00
4.640000000000000000e+02 6.842983245849609375e+01 -5.887835025787353516e+00 -3.800134181976318359e+00 -2.130804024636745453e-02 -1.146432638168334961e+00 -2.195378094911575317e-01
4.650000000000000000e+02 6.891056823730468750e+01 -5.636823654174804688e+00 -1.689671635627746582e+00 3.380228877067565918e-01 -4.054946005344390869e-01 -9.804846644401550293e-01
4.660000000000000000e+02 6.607381439208984375e+01 -5.277544975280761719e+00 -3.623251914978027344e+00 4.289184883236885071e-02 -1.074108004570007324e+00 -8.677977323532104492e-02
4.670000000000000000e+02 6.776409149169921875e+01 -5.451379776000976562e+00 -2.795699357986450195e+00 2.474199980497360229e-01 -7.644838094711303711e-01 -5.874170660972595215e-01
4.680000000000000000e+02 6.798033905029296875e+01 -5.597377777099609375e+00 -3.222028255462646484e+00 2.075301110744476318e-01 -9.043494462966918945e-01 -5.082379579544067383e-01
4.690000000000000000e+02 6.796952819824218750e+01 -5.212944984436035156e+00 -1.884598612785339355e+00 2.160708904266357422e-01 -5.005583167076110840e-01 -8.130481839179992676e-01
4.700000000000000000e+02 6.767527008056640625e+01 -5.172734260559082031e+00 -2.097792863845825195e+00 3.595719933509826660e-01 -5.214662551879882812e-01 -7.500337958335876465e-01
4.710000000000000000e+02 6.543504333496093750e+01 -5.270698547363281250e+00 -3.763088703155517578e+00 5.998886749148368835e-02 -1.110929965972900391e+00 -4.537008330225944519e-02
4.720000000000000000e+02 6.618598937988281250e+01 -6.017537593841552734e+00 -5.061511039733886719e+00 6.605829577893018723e-03 -1.516471505165100098e+00 2.151270210742950439e-02
4.730000000000000000e+02 6.689688873291015625e+01 -6.007372856140136719e+00 -5.045164585113525391e+00 -1.599333598278462887e-03 -1.514029145240783691e+00 1.787084899842739105e-02
4.740000000000000000e+02 6.547217559814453125e+01 -6.010696411132812500e+00 -5.044503688812255859e+00 1.650839485228061676e-02 -1.508398532867431641e+00 4.533819109201431274e-02
4.750000000000000000e+02 6.792441558837890625e+01 -5.788662910461425781e+00 -4.069480419158935547e+00 1.493498533964157104e-01 -1.176039218902587891e+00 -8.227717131376266479e-02
4.760000000000000000e+02 6.789612579345703125e+01 -6.013271331787109375e+00 -4.398924827575683594e+00 1.652812808752059937e-01 -1.270092964172363281e+00 8.984055370092391968e-02
4.770000000000000000e+02 6.753571319580078125e+01 -5.614149093627929688e+00 -3.789315938949584961e+00 2.848274447023868561e-02 -1.128250002861022949e+00 -3.088692128658294678e-01
4.780000000000000000e+02 6.789158630371093750e+01 -5.001589298248291016e+00 -1.621427536010742188e+00 4.113665521144866943e-01 -3.630183041095733643e-01 -1.026055455207824707e+00
4.790000000000000000e+02 6.781855010986328125e+01 -6.252990722656250000e+00 -5.578465461730957031e+00 4.877751320600509644e-02 -1.658906340599060059e+00 5.290836095809936523e-02
4.800000000000000000e+02 6.727645874023437500e+01 -5.193804264068603516e+00 -2.641037225723266602e+00 1.621394306421279907e-01 -7.436693906784057617e-01 -4.862404763698577881e-01
4.810000000000000000e+02 6.746418762207031250e+01 -5.984704017639160156e+00 -4.807162284851074219e+00 -1.098282113671302795e-01 -1.475097060203552246e+00 7.749420404434204102e-02
4.820000000000000000e+02 6.670966339111328125e+01 -5.267384529113769531e+00 -3.234668970108032227e+00 9.481175988912582397e-02 -9.419571757316589355e-01 -2.178781479597091675e-01
4.830000000000000000e+02 6.798901367187500000e+01 -5.412947654724121094e+00 -2.342406749725341797e+00 2.461454272270202637e-01 -6.288784146308898926e-01 -6.855073571205139160e-01
4.840000000000000000e+02 6.323952865600585938e+01 -5.256879329681396484e+00 -4.007014751434326172e+00 1.335883047431707382e-02 -1.198096752166748047e+00 8.539525419473648071e-02
4.850000000000000000e+02 6.398902130126953125e+01 -5.997806072235107422e+00 -4.925996303558349609e+00 4.829045850783586502e-03 -1.476350188255310059e+00 5.864241719245910645e-02
4.860000000000000000e+02 6.249014663696289062e+01 -5.998846054077148438e+00 -4.775227546691894531e+00 1.580474199727177620e-03 -1.432094097137451172e+00 6.155505031347274780e-02
4.870000000000000000e+02 6.474034118652343750e+01 -5.261467933654785156e+00 -3.876237630844116211e+00 2.749622426927089691e-02 -1.154622435569763184e+00 9.658511728048324585e-03
4.880000000000000000e+02 6.473993682861328125e+01 -6.001468181610107422e+00 -4.990835666656494141e+00 -4.608627408742904663e-03 -1.498633265495300293e+00 5.769244208931922913e-02
4.890000000000000000e+02 6.249060440063476562e+01 -5.258846282958984375e+00 -4.022733211517333984e+00 5.934271961450576782e-03 -1.205039620399475098e+00 1.055419817566871643e-01
4.900000000000000000e+02 6.398944091796875000e+01 -5.257805824279785156e+00 -3.965898036956787109e+00 2.035852335393428802e-02 -1.183661818504333496e+00 5.655344575643539429e-02
4.910000000000000000e+02 6.323908996582031250e+01 -5.996879577636718750e+00 -4.854098796844482422e+00 -2.327942056581377983e-03 -1.456928014755249023e+00 6.166980415582656860e-02
4.920000000000000000e+02 6.024127578735351562e+01 -6.002173423767089844e+00 -4.496407985687255859e+00 2.997904957737773657e-04 -1.348832368850708008e+00 6.475555151700973511e-02
4.930000000000000000e+02 5.949018478393554688e+01 -5.999024868011474609e+00 -4.393232345581054688e+00 -6.560209440067410469e-04 -1.318166613578796387e+00 6.484360992908477783e-02
4.940000000000000000e+02 6.174050903320312500e+01 -6.000143527984619141e+00 -4.689266204833984375e+00 -1.557450159452855587e-03 -1.407247066497802734e+00 6.203375384211540222e-02
4.950000000000000000e+02 6.024153518676757812e+01 -5.262173175811767578e+00 -3.935286760330200195e+00 4.680498968809843063e-03 -1.179181933403015137e+00 1.362186223268508911e-01
4.960000000000000000e+02 6.099138641357421875e+01 -6.002598762512207031e+00 -4.595994949340820312e+00 1.521235099062323570e-03 -1.378342151641845703e+00 6.249514594674110413e-02
4.970000000000000000e+02 6.174093246459960938e+01 -5.260143280029296875e+00 -4.008428573608398438e+00 7.574387826025485992e-03 -1.200256228446960449e+00 1.186719834804534912e-01
4.980000000000000000e+02 5.949036026000976562e+01 -5.259025096893310547e+00 -3.875542163848876953e+00 -4.945881082676351070e-04 -1.162811040878295898e+00 1.422086060047149658e-01
4.990000000000000000e+02 6.099172973632812500e+01 -5.262598991394042969e+00 -3.980920791625976562e+00 4.842509515583515167e-03 -1.192823410034179688e+00 1.301314681768417358e-01
5.000000000000000000e+02 5.648974227905273438e+01 -5.999071121215820312e+00 -3.975082635879516602e+00 -1.006882288493216038e-03 -1.192826867103576660e+00 5.795167759060859680e-02
5.010000000000000000e+02 5.723953247070312500e+01 -5.259526252746582031e+00 -3.673469305038452148e+00 -1.372336293570697308e-03 -1.102452516555786133e+00 1.473836749792098999e-01
5.020000000000000000e+02 5.723992156982421875e+01 -5.999526023864746094e+00 -4.078021526336669922e+00 -1.001553842797875404e-03 -1.223706841468811035e+00 5.971700325608253479e-02
5.030000000000000000e+02 5.798986434936523438e+01 -5.998773574829101562e+00 -4.182372570037841797e+00 -4.633054195437580347e-04 -1.254850864410400391e+00 6.097406148910522461e-02
5.040000000000000000e+02 5.873990631103515625e+01 -5.998174190521240234e+00 -4.288022994995117188e+00 -1.667056814767420292e-03 -1.286906957626342773e+00 6.280621141195297241e-02
5.050000000000000000e+02 5.873993682861328125e+01 -5.258173942565917969e+00 -3.813251733779907227e+00 -7.139196386560797691e-04 -1.144189715385437012e+00 1.461750715970993042e-01
5.060000000000000000e+02 5.648913955688476562e+01 -5.259071350097656250e+00 -3.595172882080078125e+00 -3.686668816953897476e-03 -1.079657912254333496e+00 1.466052085161209106e-01
5.070000000000000000e+02 5.798968124389648438e+01 -5.258773326873779297e+00 -3.745918989181518555e+00 -1.782424398697912693e-03 -1.124310493469238281e+00 1.477135270833969116e-01
5.080000000000000000e+02 5.348892211914062500e+01 -6.003879547119140625e+00 -3.557022809982299805e+00 -1.352000865153968334e-03 -1.067512392997741699e+00 4.812568798661231995e-02
5.090000000000000000e+02 5.423745727539062500e+01 -5.263031959533691406e+00 -3.351520061492919922e+00 -2.307613845914602280e-03 -1.006148338317871094e+00 1.428075581789016724e-01
5.100000000000000000e+02 5.423921203613281250e+01 -6.003029823303222656e+00 -3.658151388168334961e+00 -1.083022914826869965e-03 -1.097770333290100098e+00 5.058696493506431580e-02
5.110000000000000000e+02 5.498925781250000000e+01 -6.000969409942626953e+00 -3.762348890304565430e+00 -2.810666919685900211e-04 -1.128788948059082031e+00 5.199908092617988586e-02
5.120000000000000000e+02 5.573940658569335938e+01 -5.999091625213623047e+00 -3.869648218154907227e+00 -2.360882703214883804e-03 -1.161602735519409180e+00 5.463634058833122253e-02
5.130000000000000000e+02 5.573849105834960938e+01 -5.259091854095458984e+00 -3.514937400817871094e+00 -3.030195832252502441e-03 -1.055390357971191406e+00 1.471035331487655640e-01
5.140000000000000000e+02 5.348674774169921875e+01 -5.263882160186767578e+00 -3.264410257339477539e+00 -4.531596321612596512e-03 -9.806826114654541016e-01 1.409972906112670898e-01
5.150000000000000000e+02 5.498792266845703125e+01 -5.260970592498779297e+00 -3.434477090835571289e+00 -3.160252934321761131e-03 -1.031291246414184570e+00 1.458478868007659912e-01
5.160000000000000000e+02 5.048752975463867188e+01 -6.016662120819091797e+00 -3.143423795700073242e+00 -2.247271826490759850e-03 -9.437012672424316406e-01 3.642990067601203918e-02
5.170000000000000000e+02 5.123381042480468750e+01 -5.273665904998779297e+00 -3.003781795501708984e+00 -3.004084341228008270e-03 -9.020357728004455566e-01 1.335582882165908813e-01
5.180000000000000000e+02 5.123796844482421875e+01 -6.013654708862304688e+00 -3.241761445999145508e+00 -6.750635220669209957e-04 -9.727309346199035645e-01 3.962471336126327515e-02
5.190000000000000000e+02 5.198816299438476562e+01 -6.009502887725830078e+00 -3.344798564910888672e+00 -4.625813744496554136e-04 -1.003578305244445801e+00 4.105823114514350891e-02
5.200000000000000000e+02 5.273845672607421875e+01 -6.005567073822021484e+00 -3.452381610870361328e+00 -2.378638600930571556e-03 -1.036428093910217285e+00 4.418610408902168274e-02
5.210000000000000000e+02 5.273571777343750000e+01 -5.265571594238281250e+00 -3.177406787872314453e+00 -3.968817181885242462e-03 -9.544126987457275391e-01 1.401967257261276245e-01
5.220000000000000000e+02 5.048266220092773438e+01 -5.276676654815673828e+00 -2.912108182907104492e+00 -5.278071388602256775e-03 -8.752158880233764648e-01 1.309162974357604980e-01
5.230000000000000000e+02 5.198471069335937500e+01 -5.269510746002197266e+00 -3.091707468032836914e+00 -3.136032028123736382e-03 -9.284530282020568848e-01 1.381072849035263062e-01
5.240000000000000000e+02 4.748569488525390625e+01 -6.043330192565917969e+00 -2.728753805160522461e+00 -1.903531257994472980e-03 -8.191971778869628906e-01 2.366545051336288452e-02
5.250000000000000000e+02 4.822861480712890625e+01 -5.296689510345458984e+00 -2.642527341842651367e+00 -2.118931617587804794e-03 -7.933938503265380859e-01 1.223174631595611572e-01
5.260000000000000000e+02 4.823624420166015625e+01 -6.036650180816650391e+00 -2.826817274093627930e+00 -3.375823725946247578e-04 -8.481464982032775879e-01 2.633671090006828308e-02
5.270000000000000000e+02 4.898653793334960938e+01 -6.028829574584960938e+00 -2.930044174194335938e+00 -4.127891443204134703e-04 -8.791370987892150879e-01 2.757159993052482605e-02
5.280000000000000000e+02 4.973693847656250000e+01 -6.021259307861328125e+00 -3.039325475692749023e+00 -2.609034068882465363e-03 -9.125803112983703613e-01 3.111888468265533447e-02
5.290000000000000000e+02 4.973123168945312500e+01 -5.281280040740966797e+00 -2.821705818176269531e+00 -4.838949069380760193e-03 -8.479633927345275879e-01 1.301422417163848877e-01
5.300000000000000000e+02 4.747710418701171875e+01 -5.303378582000732422e+00 -2.548548936843872070e+00 -4.004852846264839172e-03 -7.657660841941833496e-01 1.196530684828758240e-01
5.310000000000000000e+02 4.897986984252929688e+01 -5.288859844207763672e+00 -2.733581781387329102e+00 -2.681952202692627907e-03 -8.208791017532348633e-01 1.271617859601974487e-01
5.320000000000000000e+02 4.448383331298828125e+01 -6.086326122283935547e+00 -2.316107273101806641e+00 -1.230046851560473442e-03 -6.952011585235595703e-01 1.393273752182722092e-02
5.330000000000000000e+02 4.522269439697265625e+01 -5.335564136505126953e+00 -2.274049758911132812e+00 -3.967420780099928379e-04 -6.823339462280273438e-01 1.123914420604705811e-01
5.340000000000000000e+02 4.523437500000000000e+01 -6.075472354888916016e+00 -2.413941621780395508e+00 -9.231050353264436126e-05 -7.242102026939392090e-01 1.566868461668491364e-02
5.350000000000000000e+02 4.598466110229492188e+01 -6.063519477844238281e+00 -2.516597509384155273e+00 -3.123976284769014455e-06 -7.549801468849182129e-01 1.623554900288581848e-02
5.360000000000000000e+02 4.673505020141601562e+01 -6.051823139190673828e+00 -2.625187635421752930e+00 -2.225020201876759529e-03 -7.882238030433654785e-01 1.900323480367660522e-02
5.370000000000000000e+02 4.672545623779296875e+01 -5.311883449554443359e+00 -2.456307649612426758e+00 -3.310748841613531113e-03 -7.378855347633361816e-01 1.192348897457122803e-01
5.380000000000000000e+02 4.447110748291015625e+01 -5.346434116363525391e+00 -2.179533720016479492e+00 -2.133032074198126793e-03 -6.545000076293945312e-01 1.103764399886131287e-01
5.390000000000000000e+02 4.597402191162109375e+01 -5.323595523834228516e+00 -2.366426944732666016e+00 -1.221234793774783611e-03 -7.102944850921630859e-01 1.165050789713859558e-01
5.400000000000000000e+02 4.223370742797851562e+01 -6.133643150329589844e+00 -2.005435943603515625e+00 7.436851738020777702e-04 -6.014076471328735352e-01 8.936532773077487946e-03
5.410000000000000000e+02 4.148229217529296875e+01 -6.146579742431640625e+00 -1.907830953598022461e+00 -5.524920998141169548e-04 -5.725150108337402344e-01 8.810345083475112915e-03
5.420000000000000000e+02 4.221790695190429688e+01 -5.393811225891113281e+00 -1.904427170753479004e+00 1.622426556423306465e-03 -5.708414316177368164e-01 1.049593538045883179e-01
5.430000000000000000e+02 4.298408889770507812e+01 -6.118122577667236328e+00 -2.107403993606567383e+00 3.369700280018150806e-04 -6.321201324462890625e-01 8.196911774575710297e-03
5.440000000000000000e+02 4.373342132568359375e+01 -6.099862575531005859e+00 -2.213804721832275391e+00 -1.982287736609578133e-03 -6.647360920906066895e-01 1.027299463748931885e-02
5.450000000000000000e+02 4.371966552734375000e+01 -5.359988689422607422e+00 -2.086965084075927734e+00 -1.174034900031983852e-03 -6.264417171478271484e-01 1.104847788810729980e-01
5.460000000000000000e+02 4.146547317504882812e+01 -5.406769752502441406e+00 -1.809653639793395996e+00 4.067859845235943794e-04 -5.427740216255187988e-01 1.044728755950927734e-01
5.470000000000000000e+02 4.296931076049804688e+01 -5.378270149230957031e+00 -1.997116684913635254e+00 7.970681763254106045e-04 -5.988959074020385742e-01 1.082507967948913574e-01
5.480000000000000000e+02 3.846181488037109375e+01 -5.483074665069580078e+00 -1.445786118507385254e+00 3.333056811243295670e-03 -4.327359199523925781e-01 1.025624573230743408e-01
5.490000000000000000e+02 3.848166656494140625e+01 -6.222808361053466797e+00 -1.505937814712524414e+00 7.887062965892255306e-04 -4.515447318553924561e-01 8.902969770133495331e-03
5.500000000000000000e+02 3.923187255859375000e+01 -6.203719139099121094e+00 -1.603100538253784180e+00 7.159219821915030479e-04 -4.807153642177581787e-01 7.793818600475788116e-03
5.510000000000000000e+02 3.998181152343750000e+01 -6.183495998382568359e+00 -1.702831149101257324e+00 8.000212837941944599e-04 -5.106093287467956543e-01 6.636772770434617996e-03
5.520000000000000000e+02 4.073185729980468750e+01 -6.163486957550048828e+00 -1.806740641593933105e+00 -8.300003246404230595e-04 -5.422711968421936035e-01 7.044315338134765625e-03
5.530000000000000000e+02 4.071416854858398438e+01 -5.423696517944335938e+00 -1.718122601509094238e+00 1.166503527201712132e-03 -5.150868296623229980e-01 1.051315814256668091e-01
5.540000000000000000e+02 3.921274185180664062e+01 -5.463966846466064453e+00 -1.536754250526428223e+00 3.706803079694509506e-03 -4.599142372608184814e-01 1.026900708675384521e-01
5.550000000000000000e+02 3.996340179443359375e+01 -5.443724155426025391e+00 -1.628092408180236816e+00 2.729243598878383636e-03 -4.876089394092559814e-01 1.041513457894325256e-01
5.560000000000000000e+02 3.698171997070312500e+01 -6.262598514556884766e+00 -1.310657501220703125e+00 1.220414065755903721e-03 -3.928311169147491455e-01 1.116827316582202911e-02
5.570000000000000000e+02 3.621255493164062500e+01 -5.544963359832763672e+00 -1.181063175201416016e+00 5.400139372795820236e-03 -3.526989221572875977e-01 1.037530601024627686e-01
5.580000000000000000e+02 3.548279571533203125e+01 -6.306656837463378906e+00 -1.120396494865417480e+00 2.010573400184512138e-03 -3.355157673358917236e-01 1.538311503827571869e-02
5.590000000000000000e+02 3.771127700805664062e+01 -5.501970291137695312e+00 -1.356233954429626465e+00 3.917219582945108414e-03 -4.056950211524963379e-01 1.032443046569824219e-01
5.600000000000000000e+02 3.773139953613281250e+01 -6.241697311401367188e+00 -1.408388495445251465e+00 6.671430892311036587e-04 -4.223164021968841553e-01 9.862125851213932037e-03
5.610000000000000000e+02 3.546322250366210938e+01 -5.566914081573486328e+00 -1.095784783363342285e+00 5.855610594153404236e-03 -3.269787728786468506e-01 1.040415018796920776e-01
5.620000000000000000e+02 3.696178054809570312e+01 -5.522866249084472656e+00 -1.268415927886962891e+00 4.488359671086072922e-03 -3.791782855987548828e-01 1.034970879554748535e-01
5.630000000000000000e+02 3.623231124877929688e+01 -6.284700870513916016e+00 -1.215050578117370605e+00 1.212020288221538067e-03 -3.641515672206878662e-01 1.293397322297096252e-02
5.640000000000000000e+02 3.323463058471679688e+01 -6.359344959259033203e+00 -8.550993204116821289e-01 1.066406141035258770e-03 -2.562098801136016846e-01 2.338271029293537140e-02
5.650000000000000000e+02 3.321954727172851562e+01 -5.619493961334228516e+00 -8.484761714935302734e-01 4.898714832961559296e-03 -2.530732452869415283e-01 1.064085960388183594e-01
5.660000000000000000e+02 3.248681640625000000e+01 -6.379900932312011719e+00 -7.671769857406616211e-01 2.454990521073341370e-03 -2.294166088104248047e-01 2.575192227959632874e-02
5.670000000000000000e+02 3.398349380493164062e+01 -6.341384410858154297e+00 -9.422838091850280762e-01 1.683870679698884487e-03 -2.821799814701080322e-01 2.168505080044269562e-02
5.680000000000000000e+02 3.471478271484375000e+01 -5.586100101470947266e+00 -1.011633276939392090e+00 5.822781939059495926e-03 -3.017431497573852539e-01 1.040042415261268616e-01
5.690000000000000000e+02 3.473338699340820312e+01 -6.325866699218750000e+00 -1.029696464538574219e+00 2.174160676077008247e-03 -3.082566857337951660e-01 1.872631162405014038e-02
5.700000000000000000e+02 3.247348785400390625e+01 -5.640007495880126953e+00 -7.721543312072753906e-01 5.407937336713075638e-03 -2.300239056348800659e-01 1.058198660612106323e-01
5.710000000000000000e+02 3.396664810180664062e+01 -5.601575374603271484e+00 -9.288040995597839355e-01 4.761458840221166611e-03 -2.772127985954284668e-01 1.050096452236175537e-01
5.720000000000000000e+02 3.099083137512207031e+01 -6.399948596954345703e+00 -6.124369502067565918e-01 5.884235724806785583e-04 -1.835545450448989868e-01 3.209083154797554016e-02
5.730000000000000000e+02 3.024179267883300781e+01 -5.667771339416503906e+00 -5.528594851493835449e-01 1.158587052486836910e-03 -1.655102819204330444e-01 1.046145483851432800e-01
5.740000000000000000e+02 2.949573898315429688e+01 -6.414954185485839844e+00 -4.601812958717346191e-01 1.673942548222839832e-03 -1.375522017478942871e-01 3.396876156330108643e-02
5.750000000000000000e+02 3.172830200195312500e+01 -5.652883052825927734e+00 -6.965312957763671875e-01 4.456985741853713989e-03 -2.076223045587539673e-01 1.043352633714675903e-01
5.760000000000000000e+02 3.173856925964355469e+01 -6.392818927764892578e+00 -6.865888237953186035e-01 2.310932846739888191e-03 -2.052833735942840576e-01 2.969113737344741821e-02
5.770000000000000000e+02 2.949855422973632812e+01 -5.674893379211425781e+00 -4.874854981899261475e-01 1.275028800591826439e-03 -1.458631455898284912e-01 1.022188439965248108e-01
5.780000000000000000e+02 3.098492622375488281e+01 -5.659971237182617188e+00 -6.225762963294982910e-01 2.061162143945693970e-03 -1.861545443534851074e-01 1.042865514755249023e-01
5.790000000000000000e+02 3.024333572387695312e+01 -6.407790660858154297e+00 -5.366072654724121094e-01 3.794867370743304491e-04 -1.608683466911315918e-01 3.247806802392005920e-02
5.800000000000000000e+02 2.800358009338378906e+01 -6.392907142639160156e+00 -3.355972766876220703e-01 -1.749098883010447025e-03 -1.012039184570312500e-01 3.763267397880554199e-02
5.810000000000000000e+02 2.728431129455566406e+01 -5.636834621429443359e+00 -3.079504370689392090e-01 -6.699979305267333984e-03 -9.439512342214584351e-02 9.339184314012527466e-02
5.820000000000000000e+02 2.651304817199707031e+01 -6.358762741088867188e+00 -2.175059318542480469e-01 -1.577496412210166454e-03 -6.572502851486206055e-02 3.369129821658134460e-02
5.830000000000000000e+02 2.875823974609375000e+01 -5.669638156890869141e+00 -4.243191778659820557e-01 -7.225678418762981892e-04 -1.275125294923782349e-01 9.837325662374496460e-02
5.840000000000000000e+02 2.874904632568359375e+01 -6.409622669219970703e+00 -3.936120271682739258e-01 7.022959180176258087e-04 -1.178729161620140076e-01 3.693797439336776733e-02
5.850000000000000000e+02 2.654741096496582031e+01 -5.619358539581298828e+00 -2.567712962627410889e-01 -7.482154294848442078e-03 -7.927604019641876221e-02 8.741401135921478271e-02
5.860000000000000000e+02 2.802116203308105469e+01 -5.653115749359130859e+00 -3.634189367294311523e-01 -4.342446103692054749e-03 -1.103284209966659546e-01 9.621874988079071045e-02
5.870000000000000000e+02 2.725833702087402344e+01 -6.376431941986083984e+00 -2.759847044944763184e-01 -1.970569137483835220e-03 -8.338658511638641357e-02 3.560292720794677734e-02
5.880000000000000000e+02 2.428754043579101562e+01 -6.197861671447753906e+00 -9.142440557479858398e-02 -4.252794198691844940e-03 -2.870316058397293091e-02 2.610439248383045197e-02
5.890000000000000000e+02 2.435861396789550781e+01 -5.461198806762695312e+00 -1.294932663440704346e-01 -1.531351543962955475e-02 -4.344203323125839233e-02 6.586272269487380981e-02
5.900000000000000000e+02 2.354777717590332031e+01 -6.138960838317871094e+00 -5.696120113134384155e-02 -4.975592717528343201e-03 -1.858103834092617035e-02 2.055052481591701508e-02
5.910000000000000000e+02 2.502826499938964844e+01 -6.258197307586669922e+00 -1.298416554927825928e-01 -4.901235923171043396e-03 -4.042286798357963562e-02 3.059180453419685364e-02
5.920000000000000000e+02 2.581491851806640625e+01 -5.581003189086914062e+00 -2.094771862030029297e-01 -1.008589193224906921e-02 -6.586892157793045044e-02 7.968804240226745605e-02
5.930000000000000000e+02 2.576985549926757812e+01 -6.319781780242919922e+00 -1.692858189344406128e-01 -2.543901326134800911e-03 -5.154891684651374817e-02 3.300641477108001709e-02
5.940000000000000000e+02 2.363185691833496094e+01 -5.403356075286865234e+00 -9.638959169387817383e-02 -1.488567050546407700e-02 -3.338257968425750732e-02 5.639906972646713257e-02
5.950000000000000000e+02 2.508633232116699219e+01 -5.520476818084716797e+00 -1.664509326219558716e-01 -1.298863254487514496e-02 -5.383187159895896912e-02 7.377382367849349976e-02
5.960000000000000000e+02 2.146717453002929688e+01 -5.077126979827880859e+00 -2.961903251707553864e-02 -1.679709181189537048e-02 -1.392483711242675781e-02 2.480264939367771149e-02
5.970000000000000000e+02 2.134441947937011719e+01 -5.806876659393310547e+00 3.749049035832285881e-03 -2.006602240726351738e-03 5.227340152487158775e-04 5.812472198158502579e-03
5.980000000000000000e+02 2.061148262023925781e+01 -5.684748649597167969e+00 1.180734485387802124e-02 -3.979418892413377762e-03 2.348377835005521774e-03 4.402898484840989113e-04
5.990000000000000000e+02 2.207760429382324219e+01 -5.928263664245605469e+00 -1.087076496332883835e-02 -5.885444581508636475e-03 -5.026862956583499908e-03 1.048273406922817230e-02
6.000000000000000000e+02 2.290797805786132812e+01 -5.314875125885009766e+00 -6.919195502996444702e-02 -1.656799763441085815e-02 -2.572798542678356171e-02 4.604720324277877808e-02
6.010000000000000000e+02 2.281096076965332031e+01 -6.048885822296142578e+00 -3.016245551407337189e-02 -3.860274096950888634e-03 -1.020681858062744141e-02 1.614845544099807739e-02
6.020000000000000000e+02 2.074710655212402344e+01 -4.957129478454589844e+00 -1.864138618111610413e-02 -1.135854143649339676e-02 -8.999978192150592804e-03 1.415282301604747772e-02
6.030000000000000000e+02 2.218749046325683594e+01 -5.196383476257324219e+00 -4.638666659593582153e-02 -1.667696610093116760e-02 -1.891908980906009674e-02 3.731180727481842041e-02
6.040000000000000000e+02 1.905580329895019531e+01 -4.613489627838134766e+00 -1.223012950504198670e-04 3.625508397817611694e-03 1.050962135195732117e-03 -5.744852591305971146e-03
6.050000000000000000e+02 1.978026580810546875e+01 -5.523462295532226562e+00 1.062520965933799744e-02 -2.025486319325864315e-04 3.126798197627067566e-03 -4.437373951077461243e-03
6.060000000000000000e+02 1.992511749267578125e+01 -4.797539234161376953e+00 -8.249880746006965637e-03 -1.151605229824781418e-02 -5.929779727011919022e-03 2.641320461407303810e-03
6.070000000000000000e+02 1.847771644592285156e+01 -4.667171001434326172e+00 3.580898628570139408e-04 1.169338822364807129e-02 3.615443594753742218e-03 -2.040926367044448853e-03
6.080000000000000000e+02 1.890536689758300781e+01 -5.338151454925537109e+00 2.903619315475225449e-03 1.856256509199738503e-03 1.427962793968617916e-03 -4.186320584267377853e-03
6.090000000000000000e+02 1.882146453857421875e+01 -6.111851215362548828e+00 -6.755596841685473919e-04 -1.440204679965972900e-03 -6.347292801365256310e-04 -2.980114193633198738e-03
6.100000000000000000e+02 1.800308799743652344e+01 -6.754832744598388672e+00 1.099936477839946747e-02 -1.771961152553558350e-02 -2.016074024140834808e-03 -1.982382265850901604e-03
6.110000000000000000e+02 1.831862449645996094e+01 -6.817986488342285156e+00 -1.406279765069484711e-02 -1.333994325250387192e-02 -8.220821619033813477e-03 -1.770895160734653473e-02
6.120000000000000000e+02 1.959215354919433594e+01 -7.028707504272460938e+00 -7.952645421028137207e-02 -3.835818730294704437e-03 -2.500868216156959534e-02 -3.400231525301933289e-02
6.130000000000000000e+02 1.890554809570312500e+01 -6.889476776123046875e+00 -4.330341517925262451e-02 -1.005702093243598938e-02 -1.600813120603561401e-02 -2.280724421143531799e-02
6.140000000000000000e+02 1.965883255004882812e+01 -6.285129547119140625e+00 -2.369571290910243988e-02 -8.765801321715116501e-04 -7.371687795966863632e-03 -9.677157737314701080e-03
6.150000000000000000e+02 1.828899765014648438e+01 -6.266255378723144531e+00 -6.040345760993659496e-04 3.555464558303356171e-03 8.854290354065597057e-04 3.636548528447747231e-03
6.160000000000000000e+02 1.796524238586425781e+01 -6.500696659088134766e+00 5.922575946897268295e-03 4.103699233382940292e-03 3.007882507517933846e-03 8.245902135968208313e-03
6.170000000000000000e+02 1.887321662902832031e+01 -7.514328479766845703e+00 -7.666143029928207397e-02 -1.760234311223030090e-02 -2.827913127839565277e-02 -4.886547103524208069e-02
6.180000000000000000e+02 1.712473869323730469e+01 -9.211030006408691406e+00 -7.572543621063232422e-02 -9.748268127441406250e-02 -5.196243524551391602e-02 -9.021760523319244385e-02
6.190000000000000000e+02 2.235353088378906250e+01 -8.991217613220214844e+00 -3.228710889816284180e-01 8.682803250849246979e-03 -9.425648301839828491e-02 -1.462845206260681152e-01
6.200000000000000000e+02 2.790704727172851562e+01 -8.650600433349609375e+00 -6.782343983650207520e-01 -8.694657124578952789e-03 -2.060787081718444824e-01 -1.355285793542861938e-01
6.210000000000000000e+02 2.404406738281250000e+01 -8.440767288208007812e+00 -4.085052311420440674e-01 6.376348435878753662e-03 -1.206386610865592957e-01 -1.165197566151618958e-01
6.220000000000000000e+02 1.506785774230957031e+01 -1.269785308837890625e+01 -2.117680311203002930e-01 -3.127477169036865234e-01 -1.573547273874282837e-01 -2.504705488681793213e-01
6.230000000000000000e+02 1.247106170654296875e+01 -1.601297187805175781e+01 -3.230381309986114502e-01 -3.401678204536437988e-01 -1.989617794752120972e-01 -3.292371332645416260e-01
6.240000000000000000e+02 1.458059310913085938e+01 -1.585412406921386719e+01 -2.966514527797698975e-01 -2.655126750469207764e-01 -1.686492413282394409e-01 -2.710255980491638184e-01
6.250000000000000000e+02 1.375922870635986328e+01 -2.499303436279296875e+01 -5.678851157426834106e-04 -2.951333224773406982e-01 -8.871036767959594727e-02 -2.354824542999267578e-01
6.260000000000000000e+02 1.717590522766113281e+01 -3.223815155029296875e+01 1.804980039596557617e-01 -3.297034800052642822e-01 -4.476164653897285461e-02 -2.039975672960281372e-01
6.270000000000000000e+02 1.763671112060546875e+01 -4.056359100341796875e+01 2.578554451465606689e-01 -3.565219938755035400e-01 -2.959997206926345825e-02 -4.362169653177261353e-02
6.280000000000000000e+02 2.247557067871093750e+01 -4.077037048339843750e+01 3.774413168430328369e-01 -3.415923416614532471e-01 1.075468957424163818e-02 -4.049785062670707703e-02
6.290000000000000000e+02 1.852378845214843750e+01 -3.677483367919921875e+01 2.570304572582244873e-01 -3.482309877872467041e-01 -2.736016176640987396e-02 -1.260197013616561890e-01
6.300000000000000000e+02 2.330494499206542969e+01 -3.072537422180175781e+01 2.292365282773971558e-01 -2.892778217792510986e-01 -1.801239140331745148e-02 -2.756491899490356445e-01
6.310000000000000000e+02 2.051577377319335938e+01 -2.148734855651855469e+01 -1.240562200546264648e-01 -1.849004179239273071e-01 -9.268699586391448975e-02 -3.160004317760467529e-01
6.320000000000000000e+02 2.462819671630859375e+01 -1.402329158782958984e+01 -4.016622304916381836e-01 -3.463627770543098450e-02 -1.308895498514175415e-01 -3.447848558425903320e-01
6.330000000000000000e+02 2.388964843750000000e+01 -1.476478290557861328e+01 -3.674076795578002930e-01 -4.676716774702072144e-02 -1.242524534463882446e-01 -3.473865985870361328e-01
6.340000000000000000e+02 1.340944576263427734e+01 -1.496098709106445312e+01 -3.063535094261169434e-01 -3.393410146236419678e-01 -1.937083452939987183e-01 -3.154965043067932129e-01
6.350000000000000000e+02 1.149874114990234375e+01 -1.712978363037109375e+01 -3.853789567947387695e-01 -3.294389247894287109e-01 -2.144453674554824829e-01 -3.226367831230163574e-01
6.360000000000000000e+02 1.029675960540771484e+01 -1.804982185363769531e+01 -4.662810564041137695e-01 -2.663079798221588135e-01 -2.197767049074172974e-01 -2.685267627239227295e-01
6.370000000000000000e+02 8.973999977111816406e+00 -1.836084365844726562e+01 -3.240353465080261230e-01 -9.034668654203414917e-02 -1.243146136403083801e-01 -1.439140886068344116e-01
6.380000000000000000e+02 7.184277534484863281e+00 -1.736446952819824219e+01 -4.848342016339302063e-02 2.677580341696739197e-02 -6.512284744530916214e-03 -1.352350786328315735e-02
6.390000000000000000e+02 6.365881443023681641e+00 -1.639554214477539062e+01 3.600722644478082657e-03 4.963421262800693512e-03 2.569243311882019043e-03 -7.824817672371864319e-03
6.400000000000000000e+02 7.080698013305664062e+00 -1.513168239593505859e+01 4.108187742531299591e-03 2.028220705687999725e-02 7.317118812352418900e-03 -6.272324360907077789e-03
6.410000000000000000e+02 8.828379631042480469e+00 -1.149221897125244141e+01 -2.984682796522974968e-04 -4.589472373481839895e-04 -2.272246638312935829e-04 3.192632575519382954e-04
6.420000000000000000e+02 9.621356010437011719e+00 -1.032693290710449219e+01 -2.098510594805702567e-05 1.099416112992912531e-04 2.668695196916814893e-05 -2.311965654371306300e-04
6.430000000000000000e+02 1.214427852630615234e+01 -7.055706977844238281e+00 1.509066496510058641e-04 -3.824302257271483541e-05 3.379908594070002437e-05 -5.262562626739963889e-05
6.440000000000000000e+02 1.172766971588134766e+01 -2.756629467010498047e+00 7.262013241415843368e-05 1.164555360446684062e-04 5.672269981005229056e-05 -1.772012728906702250e-05
6.450000000000000000e+02 1.225485897064208984e+01 -4.644920349121093750e+00 -1.269699132535606623e-04 -7.915859168861061335e-05 -6.183855293784290552e-05 8.687559784448239952e-06
6.460000000000000000e+02 1.105024528503417969e+01 -1.914093852043151855e+00 2.628267975524067879e-05 1.263802987523376942e-04 4.579889355227351189e-05 1.853021785791497678e-05
6.470000000000000000e+02 4.285181999206542969e+00 -1.931904435157775879e+00 -4.601251566782593727e-05 -3.872704473906196654e-05 -2.542186848586425185e-05 -1.083290699170902371e-04
6.480000000000000000e+02 1.634337782859802246e+00 -1.468101787567138672e+01 2.296477556228637695e-03 2.878610976040363312e-03 1.552526606246829033e-03 5.343024153262376785e-03
6.490000000000000000e+02 4.414584159851074219e+00 -1.862387657165527344e+01 -5.762189626693725586e-02 -2.348218858242034912e-02 -2.433122508227825165e-02 -2.452285774052143097e-02
6.500000000000000000e+02 6.562020778656005859e-01 -2.476317787170410156e+01 -2.419720403850078583e-03 -9.306286275386810303e-02 -2.864477597177028656e-02 -2.211758121848106384e-02
6.510000000000000000e+02 7.726519107818603516e-01 -3.186581039428710938e+01 2.061246428638696671e-03 -3.340949416160583496e-01 -9.961011260747909546e-02 -2.251622453331947327e-02
6.520000000000000000e+02 2.825845956802368164e+00 -3.785531234741210938e+01 1.246039755642414093e-02 -4.152469038963317871e-01 -1.208359524607658386e-01 -2.778301946818828583e-02
6.530000000000000000e+02 8.063265085220336914e-01 -3.726725006103515625e+01 5.819672369398176670e-04 -4.433342516422271729e-01 -1.328256875276565552e-01 -5.216587800532579422e-03
6.540000000000000000e+02 8.773140907287597656e+00 -3.801063156127929688e+01 8.844049274921417236e-02 -3.625957369804382324e-01 -8.224657177925109863e-02 -7.095650583505630493e-02
6.550000000000000000e+02 7.812412261962890625e+00 -3.297151565551757812e+01 5.625124275684356689e-02 -3.260504305362701416e-01 -8.093975484371185303e-02 -1.397863328456878662e-01
6.560000000000000000e+02 1.250756740570068359e+01 -2.294845008850097656e+01 -5.781673267483711243e-02 -2.879987955093383789e-01 -1.037446558475494385e-01 -2.296527773141860962e-01
6.570000000000000000e+02 1.107518768310546875e+01 -2.278625106811523438e+01 -5.258640274405479431e-02 -2.809317111968994141e-01 -1.000554338097572327e-01 -2.234335988759994507e-01
6.580000000000000000e+02 6.281858682632446289e-01 -2.334143257141113281e+01 -1.371896243654191494e-03 -4.890119656920433044e-02 -1.508192811161279678e-02 -1.780767180025577545e-02
6.590000000000000000e+02 1.254463005065917969e+01 -2.003059864044189453e+00 9.242517990060150623e-05 4.167705992585979402e-05 4.023067231173627079e-05 2.663844134076498449e-05
6.600000000000000000e+02 2.714141654968261719e+01 -4.071068572998046875e+01 4.999729990959167480e-01 -3.072152137756347656e-01 5.782733485102653503e-02 -4.256243258714675903e-02
6.610000000000000000e+02 2.883343124389648438e+01 -3.351240158081054688e+01 4.252127408981323242e-01 -2.632736265659332275e-01 4.858173802495002747e-02 -2.440543174743652344e-01
6.620000000000000000e+02 2.810866737365722656e+01 -2.326898193359375000e+01 -1.334556471556425095e-02 -1.779388338327407837e-01 -5.738532170653343201e-02 -4.313622117042541504e-01
6.630000000000000000e+02 3.095926666259765625e+01 -8.657294273376464844e+00 -8.938378691673278809e-01 -1.421696413308382034e-02 -2.724164426326751709e-01 -1.529053002595901489e-01
6.640000000000000000e+02 2.934519767761230469e+01 -9.404713630676269531e+00 -7.448238730430603027e-01 -1.644650101661682129e-02 -2.283811122179031372e-01 -1.928176283836364746e-01
6.650000000000000000e+02 3.839379119873046875e+01 -4.026897430419921875e+01 8.198788762092590332e-01 -1.674522273242473602e-02 2.409401088953018188e-01 -5.964857712388038635e-02
6.660000000000000000e+02 3.810324478149414062e+01 -3.168758392333984375e+01 6.235832571983337402e-01 -5.092928931117057800e-02 1.717961877584457397e-01 -3.026731312274932861e-01
6.670000000000000000e+02 3.777507781982421875e+01 -2.438292503356933594e+01 2.163176834583282471e-01 -9.401505440473556519e-02 3.669078648090362549e-02 -4.857515692710876465e-01
6.680000000000000000e+02 3.923145294189453125e+01 -1.453205299377441406e+01 -7.478449344635009766e-01 -5.610079318284988403e-02 -2.411837279796600342e-01 -5.074509978294372559e-01
6.690000000000000000e+02 3.924321746826171875e+01 -8.453677177429199219e+00 -1.509342432022094727e+00 -9.502845816314220428e-03 -4.556535780429840088e-01 -2.009827792644500732e-01
6.700000000000000000e+02 3.767742156982421875e+01 -9.217003822326660156e+00 -1.305502295494079590e+00 -1.736744865775108337e-02 -3.968609273433685303e-01 -2.459730505943298340e-01
6.710000000000000000e+02 3.624745178222656250e+01 -8.537019729614257812e+00 -1.276430130004882812e+00 -1.361761987209320068e-02 -3.870142996311187744e-01 -1.861474514007568359e-01
6.720000000000000000e+02 4.282463073730468750e+01 -4.065481948852539062e+01 9.467902183532714844e-01 2.574515640735626221e-01 3.612725436687469482e-01 -3.561040759086608887e-02
6.730000000000000000e+02 3.992691040039062500e+01 -3.618875122070312500e+01 8.083202242851257324e-01 5.367721244692802429e-02 2.585992217063903809e-01 -1.745743304491043091e-01
6.740000000000000000e+02 4.459469985961914062e+01 -3.044233703613281250e+01 7.459243535995483398e-01 2.710655629634857178e-01 3.050969839096069336e-01 -2.519476711750030518e-01
6.750000000000000000e+02 4.109022140502929688e+01 -2.260445594787597656e+01 1.173927783966064453e-01 -2.291985042393207550e-02 2.834187820553779602e-02 -5.020604729652404785e-01
6.760000000000000000e+02 4.401127624511718750e+01 -1.388072490692138672e+01 -9.610810875892639160e-01 -3.876006603240966797e-02 -2.999523580074310303e-01 -5.059030055999755859e-01
6.770000000000000000e+02 4.672110366821289062e+01 -8.299073219299316406e+00 -2.159198999404907227e+00 -2.894927747547626495e-03 -6.486281752586364746e-01 -2.282806187868118286e-01
6.780000000000000000e+02 4.298427581787109375e+01 -8.365947723388671875e+00 -1.821362257003784180e+00 -7.621413562446832657e-03 -5.486950874328613281e-01 -2.159416228532791138e-01
6.790000000000000000e+02 4.366453552246093750e+01 -9.074814796447753906e+00 -1.758056879043579102e+00 -1.147553790360689163e-02 -5.308597087860107422e-01 -2.767324447631835938e-01
6.800000000000000000e+02 4.223605728149414062e+01 -8.382141113281250000e+00 -1.756441950798034668e+00 -7.353177294135093689e-03 -5.291385054588317871e-01 -2.127445936203002930e-01
6.810000000000000000e+02 4.751372528076171875e+01 -4.080807495117187500e+01 1.020227551460266113e+00 6.948294043540954590e-01 5.145170688629150391e-01 -1.360723655670881271e-02
6.820000000000000000e+02 4.753777313232421875e+01 -3.400395202636718750e+01 9.288310408592224121e-01 6.105550527572631836e-01 4.618158042430877686e-01 -1.101801767945289612e-01
6.830000000000000000e+02 4.722676086425781250e+01 -2.129689407348632812e+01 1.297780424356460571e-01 1.568302214145660400e-01 8.598247915506362915e-02 -4.028427600860595703e-01
6.840000000000000000e+02 5.139388275146484375e+01 -1.411491298675537109e+01 -9.665839076042175293e-01 5.761972814798355103e-02 -2.726892530918121338e-01 -4.306984841823577881e-01
6.850000000000000000e+02 5.270391464233398438e+01 -8.250557899475097656e+00 -2.735198020935058594e+00 -6.343446439132094383e-04 -8.207497000694274902e-01 -2.398352175951004028e-01
6.860000000000000000e+02 5.113430404663085938e+01 -8.975523948669433594e+00 -2.368096113204956055e+00 -4.430408589541912079e-03 -7.117579579353332520e-01 -2.996419370174407959e-01
6.870000000000000000e+02 4.971277999877929688e+01 -8.269216537475585938e+00 -2.445212364196777344e+00 -1.532283844426274300e-03 -7.340233922004699707e-01 -2.346157133579254150e-01
6.880000000000000000e+02 6.225566482543945312e+01 -4.037816619873046875e+01 7.706058025360107422e-01 3.339861154556274414e+00 1.233140110969543457e+00 1.021732687950134277e-01
6.890000000000000000e+02 5.721369934082031250e+01 -4.041366577148437500e+01 9.480705857276916504e-01 2.282333374023437500e+00 9.691211581230163574e-01 5.971007049083709717e-02
6.900000000000000000e+02 6.090288543701171875e+01 -3.160498428344726562e+01 7.704661488533020020e-01 2.916274547576904297e+00 1.106022238731384277e+00 4.262409508228302002e-01
6.910000000000000000e+02 6.034115219116210938e+01 -2.784016227722167969e+01 7.178404927253723145e-01 2.559552431106567383e+00 9.832178950309753418e-01 5.239084362983703613e-01
6.920000000000000000e+02 5.785822677612304688e+01 -1.376533508300781250e+01 -7.881031632423400879e-01 3.503960371017456055e-01 -1.313121318817138672e-01 -3.967183828353881836e-02
6.930000000000000000e+02 5.794331741333007812e+01 -8.233873367309570312e+00 -3.186946392059326172e+00 4.208665341138839722e-03 -9.548213481903076172e-01 -2.219790816307067871e-01
6.940000000000000000e+02 5.411974716186523438e+01 -8.952042579650878906e+00 -2.595103979110717773e+00 5.075245280750095844e-04 -7.783789038658142090e-01 -2.965514361858367920e-01
6.950000000000000000e+02 5.494968414306640625e+01 -8.242797851562500000e+00 -2.945891618728637695e+00 -9.269549627788364887e-05 -8.837952613830566406e-01 -2.388926893472671509e-01
6.960000000000000000e+02 6.263953399658203125e+01 -3.634281539916992188e+01 7.444934248924255371e-01 3.413959264755249023e+00 1.247535824775695801e+00 2.886219620704650879e-01
6.970000000000000000e+02 6.598998260498046875e+01 -3.258445358276367188e+01 5.574970245361328125e-01 4.233515262603759766e+00 1.437303781509399414e+00 5.532948970794677734e-01
6.980000000000000000e+02 6.016264724731445312e+01 -1.468811035156250000e+01 -3.359304070472717285e-01 8.025785684585571289e-01 1.399944424629211426e-01 3.871080875396728516e-01
6.990000000000000000e+02 6.467172241210937500e+01 -8.185305595397949219e+00 -2.964627027511596680e+00 9.599921852350234985e-02 -8.605883121490478516e-01 9.692683815956115723e-02
7.000000000000000000e+02 6.318343734741210938e+01 -8.200925827026367188e+00 -3.213726520538330078e+00 5.090261623263359070e-02 -9.488472342491149902e-01 -5.369685962796211243e-02
7.010000000000000000e+02 6.093804168701171875e+01 -8.220028877258300781e+00 -3.308190584182739258e+00 1.860573142766952515e-02 -9.868754744529724121e-01 -1.661340743303298950e-01
7.020000000000000000e+02 6.716331481933593750e+01 -4.065505218505859375e+01 5.049749016761779785e-01 4.680891513824462891e+00 1.555759906768798828e+00 9.997490793466567993e-02
7.030000000000000000e+02 6.914353179931640625e+01 -3.651910018920898438e+01 3.926005959510803223e-01 5.246163845062255859e+00 1.691629290580749512e+00 2.752965688705444336e-01
7.040000000000000000e+02 7.241171264648437500e+01 -3.161377334594726562e+01 1.995023488998413086e-01 6.236722469329833984e+00 1.930867433547973633e+00 5.592862367630004883e-01
7.050000000000000000e+02 7.254700469970703125e+01 -2.165781974792480469e+01 -1.802358180284500122e-01 6.930788993835449219e+00 2.025166034698486328e+00 8.639864325523376465e-01
7.060000000000000000e+02 7.362144470214843750e+01 -1.624506759643554688e+01 -9.187683463096618652e-01 8.571581840515136719e+00 2.295843839645385742e+00 5.392460823059082031e-01
7.070000000000000000e+02 7.144486999511718750e+01 -8.088624954223632812e+00 -7.557755708694458008e-01 1.901790237426757812e+01 5.478637695312500000e+00 3.216611862182617188e+00
7.080000000000000000e+02 6.612923431396484375e+01 -8.193426132202148438e+00 -2.404725313186645508e+00 1.887331306934356689e-01 -6.647976636886596680e-01 4.352960586547851562e-01
7.090000000000000000e+02 7.795629119873046875e+01 -4.163932800292968750e+01 1.064763590693473816e-01 7.339416980743408203e+00 2.233767986297607422e+00 2.990501560270786285e-02
7.100000000000000000e+02 7.792537689208984375e+01 -3.689445877075195312e+01 1.485045440495014191e-02 7.432889461517333984e+00 2.234322071075439453e+00 1.278975903987884521e-01
7.110000000000000000e+02 7.797386932373046875e+01 -3.046664237976074219e+01 1.732521504163742065e-02 7.914122104644775391e+00 2.379434108734130859e+00 2.146656811237335205e-01
7.120000000000000000e+02 7.826015472412109375e+01 -2.363577842712402344e+01 -1.214235275983810425e-02 8.770605087280273438e+00 2.627538919448852539e+00 2.203188687562942505e-01
7.130000000000000000e+02 7.825255584716796875e+01 -1.673444366455078125e+01 -1.367959082126617432e-01 9.207658767700195312e+00 2.721258878707885742e+00 -2.078175544738769531e-01
7.140000000000000000e+02 7.826334381103515625e+01 -9.462854385375976562e+00 1.291298270225524902e-01 7.149899482727050781e+00 2.183708667755126953e+00 -1.231758832931518555e+00
7.150000000000000000e+02 7.833838653564453125e+01 4.286929607391357422e+00 -1.266744881868362427e-01 9.203144073486328125e+00 2.722940921783447266e+00 1.506562232971191406e-01
7.160000000000000000e+02 7.812407684326171875e+01 1.119722175598144531e+01 -1.322273071855306625e-02 8.563429832458496094e+00 2.565062046051025391e+00 -2.689479589462280273e-01
7.170000000000000000e+02 7.802175140380859375e+01 1.953181838989257812e+01 1.349536515772342682e-02 7.429831504821777344e+00 2.232998132705688477e+00 -2.415896952152252197e-01
7.180000000000000000e+02 7.665226745605468750e+01 2.237077331542968750e+01 3.024310618638992310e-02 6.839127063751220703e+00 2.060811042785644531e+00 -3.318055570125579834e-01
7.190000000000000000e+02 7.930674743652343750e+01 3.195909500122070312e+01 9.459729306399822235e-03 6.606589317321777344e+00 1.984814763069152832e+00 -2.938765287399291992e-02
7.200000000000000000e+02 7.902437591552734375e+01 3.741358947753906250e+01 -1.226526685059070587e-03 6.356793403625488281e+00 1.906670093536376953e+00 -4.545619711279869080e-02
7.210000000000000000e+02 7.217733001708984375e+01 3.628659057617187500e+01 1.172040104866027832e-01 5.357037544250488281e+00 1.642272472381591797e+00 -1.712856739759445190e-01
7.220000000000000000e+02 7.170813751220703125e+01 3.842309570312500000e+01 1.418261229991912842e-01 5.289527416229248047e+00 1.629405975341796875e+00 -8.913394063711166382e-02
7.230000000000000000e+02 7.287385559082031250e+01 3.210014343261718750e+01 1.203119382262229919e-01 5.596329689025878906e+00 1.714992523193359375e+00 -2.929277718067169189e-01
7.240000000000000000e+02 7.233778381347656250e+01 2.397043991088867188e+01 1.494018435478210449e-01 5.757992267608642578e+00 1.772218227386474609e+00 -5.502600073814392090e-01
7.250000000000000000e+02 7.255298614501953125e+01 1.819239234924316406e+01 1.361150145530700684e-01 6.119861125946044922e+00 1.876792907714843750e+00 -7.435001730918884277e-01
7.260000000000000000e+02 7.277131652832031250e+01 9.602998733520507812e+00 -1.548327803611755371e-01 6.857064723968505859e+00 2.010669708251953125e+00 -9.222325086593627930e-01
7.270000000000000000e+02 7.404081726074218750e+01 4.415875911712646484e+00 -7.483001947402954102e-01 8.359571456909179688e+00 2.283381462097167969e+00 -4.996169507503509521e-01
7.280000000000000000e+02 6.841905212402343750e+01 -4.688972949981689453e+00 -3.230987787246704102e-01 1.334678173065185547e+00 3.034738302230834961e-01 -2.102947235107421875e+00
7.290000000000000000e+02 7.183893585205078125e+01 -4.846897125244140625e+00 1.669921875000000000e-01 2.052070999145507812e+01 6.206310272216796875e+00 -6.012280583381652832e-01
7.300000000000000000e+02 7.944090270996093750e+01 -1.249356937408447266e+01 -5.338870361447334290e-02 7.928978919982910156e+00 2.362677097320556641e+00 -4.173552989959716797e-01
7.310000000000000000e+02 6.241459655761718750e+01 4.039876937866210938e+01 4.376606941223144531e-01 3.720701456069946289e+00 1.247508645057678223e+00 -7.469961792230606079e-02
7.320000000000000000e+02 6.377240753173828125e+01 3.062305641174316406e+01 4.364275038242340088e-01 3.837330102920532227e+00 1.282127261161804199e+00 -3.973047435283660889e-01
7.330000000000000000e+02 6.791950988769531250e+01 2.243103981018066406e+01 3.120554387569427490e-01 4.778903484344482422e+00 1.527287602424621582e+00 -7.244359254837036133e-01
7.340000000000000000e+02 6.618695831298828125e+01 1.677485084533691406e+01 3.690530657768249512e-01 4.256666183471679688e+00 1.387715697288513184e+00 -9.356423020362854004e-01
7.350000000000000000e+02 6.785952758789062500e+01 1.057138538360595703e+01 1.140483766794204712e-01 4.779545783996582031e+00 1.468078255653381348e+00 -1.229196906089782715e+00
7.360000000000000000e+02 6.257408905029296875e+01 -6.090089082717895508e-01 -8.467586040496826172e-01 7.672622799873352051e-01 -2.384888567030429840e-02 -6.667198538780212402e-01
7.370000000000000000e+02 6.024172973632812500e+01 -4.581177234649658203e+00 -3.431284904479980469e+00 1.196350622922182083e-02 -1.025796413421630859e+00 1.680083870887756348e-01
7.380000000000000000e+02 6.247732543945312500e+01 -4.600881099700927734e+00 -3.385944366455078125e+00 3.012552298605442047e-02 -1.006745696067810059e+00 8.391836285591125488e-02
7.390000000000000000e+02 6.321674728393554688e+01 -4.608934879302978516e+00 -3.324790716171264648e+00 4.177429899573326111e-02 -9.849049448966979980e-01 4.060183092951774597e-02
7.400000000000000000e+02 5.744646072387695312e+01 4.067773818969726562e+01 5.956753492355346680e-01 2.834593296051025391e+00 1.029080629348754883e+00 -4.601394757628440857e-02
7.410000000000000000e+02 6.156251144409179688e+01 3.616952133178710938e+01 4.697093963623046875e-01 3.559410572052001953e+00 1.208735942840576172e+00 -2.082990556955337524e-01
7.420000000000000000e+02 5.537311935424804688e+01 3.019804763793945312e+01 6.504247188568115234e-01 2.370963573455810547e+00 9.064164757728576660e-01 -2.434069514274597168e-01
7.430000000000000000e+02 5.538919830322265625e+01 2.446760749816894531e+01 6.500084996223449707e-01 2.131463050842285156e+00 8.344414830207824707e-01 -3.255473971366882324e-01
7.440000000000000000e+02 5.971194076538085938e+01 1.445314788818359375e+01 5.400341749191284180e-01 2.394311189651489258e+00 8.803036212921142578e-01 -6.859980225563049316e-01
7.450000000000000000e+02 5.687572097778320312e+01 7.334806442260742188e+00 1.444459408521652222e-01 1.037716150283813477e+00 3.546486198902130127e-01 -3.017497956752777100e-01
7.460000000000000000e+02 5.647637939453125000e+01 -3.794138133525848389e-01 -1.445292353630065918e+00 1.484534442424774170e-01 -3.890516757965087891e-01 2.040670067071914673e-01
7.470000000000000000e+02 5.425326919555664062e+01 -4.552693367004394531e+00 -3.057935476303100586e+00 -4.578416701406240463e-03 -9.187542200088500977e-01 2.153893113136291504e-01
7.480000000000000000e+02 5.650376510620117188e+01 -4.553356647491455078e+00 -3.241073131561279297e+00 -8.813514141365885735e-04 -9.725863337516784668e-01 2.108707278966903687e-01
7.490000000000000000e+02 5.350238037109375000e+01 -4.553760051727294922e+00 -2.990751981735229492e+00 -3.898320021107792854e-03 -8.983950614929199219e-01 2.156299799680709839e-01
7.500000000000000000e+02 5.258224868774414062e+01 4.082384109497070312e+01 6.975318193435668945e-01 2.072767734527587891e+00 8.310898542404174805e-01 -2.403349801898002625e-02
7.510000000000000000e+02 5.219037246704101562e+01 3.087653732299804688e+01 6.899884939193725586e-01 1.894105434417724609e+00 7.752281427383422852e-01 -1.509235352277755737e-01
7.520000000000000000e+02 5.264469909667968750e+01 1.585800743103027344e+01 5.286720991134643555e-01 1.236970663070678711e+00 5.296928286552429199e-01 -1.394248306751251221e-01
7.530000000000000000e+02 4.956233596801757812e+01 6.688817977905273438e+00 -2.290114760398864746e-01 3.108505904674530029e-01 2.455173619091510773e-02 3.694924116134643555e-01
7.540000000000000000e+02 4.904911422729492188e+01 -3.812217414379119873e-01 -1.491286516189575195e+00 2.162340842187404633e-02 -4.408989548683166504e-01 4.763268232345581055e-01
7.550000000000000000e+02 4.824068450927734375e+01 -4.584491252899169922e+00 -2.463348865509033203e+00 -4.931305535137653351e-03 -7.404840588569641113e-01 2.063616961240768433e-01
7.560000000000000000e+02 5.049619674682617188e+01 -4.565690994262695312e+00 -2.698191642761230469e+00 -5.671094171702861786e-03 -8.111587762832641602e-01 2.120382338762283325e-01
7.570000000000000000e+02 5.124749755859375000e+01 -4.562305450439453125e+00 -2.773956298828125000e+00 -6.002598442137241364e-03 -8.339876532554626465e-01 2.134044170379638672e-01
7.580000000000000000e+02 3.861468887329101562e+01 4.017210388183593750e+01 7.278809547424316406e-01 4.317738711833953857e-01 3.478964567184448242e-01 2.026340179145336151e-02
7.590000000000000000e+02 4.306707382202148438e+01 4.062936782836914062e+01 7.618082165718078613e-01 8.808696866035461426e-01 4.928033649921417236e-01 1.749363378621637821e-03
7.600000000000000000e+02 4.219825744628906250e+01 3.281103515625000000e+01 7.057436108589172363e-01 7.320224642753601074e-01 4.313298165798187256e-01 4.801999777555465698e-02
7.610000000000000000e+02 4.553204727172851562e+01 2.326851844787597656e+01 5.800972580909729004e-01 8.185338377952575684e-01 4.195893406867980957e-01 1.025566533207893372e-01
7.620000000000000000e+02 4.025407409667968750e+01 1.508292770385742188e+01 1.378006488084793091e-01 2.265440225601196289e-01 1.093033999204635620e-01 4.817592203617095947e-01
7.630000000000000000e+02 4.309714508056640625e+01 8.210410118103027344e+00 -2.435220628976821899e-01 1.509725600481033325e-01 -2.776485495269298553e-02 6.000807285308837891e-01
7.640000000000000000e+02 4.302369689941406250e+01 -4.605745673179626465e-01 -1.263646006584167480e+00 7.682511582970619202e-03 -3.767890334129333496e-01 5.333355069160461426e-01
7.650000000000000000e+02 3.996586990356445312e+01 -4.731545925140380859e+00 -1.554226875305175781e+00 3.706064773723483086e-03 -4.651562571525573730e-01 1.883850246667861938e-01
7.660000000000000000e+02 4.372633743286132812e+01 -4.647864818572998047e+00 -1.971327900886535645e+00 -8.165602339431643486e-04 -5.916433334350585938e-01 1.948268860578536987e-01
7.670000000000000000e+02 4.523119735717773438e+01 -4.623001575469970703e+00 -2.137334585189819336e+00 -2.392773050814867020e-03 -6.419181823730468750e-01 1.984476447105407715e-01
7.680000000000000000e+02 4.061169815063476562e+01 3.606513977050781250e+01 7.177561521530151367e-01 6.124230027198791504e-01 3.990537524223327637e-01 4.159928858280181885e-02
7.690000000000000000e+02 3.717107009887695312e+01 2.923121261596679688e+01 5.645247697830200195e-01 2.700938284397125244e-01 2.503855824470520020e-01 1.536294966936111450e-01
7.700000000000000000e+02 3.612578201293945312e+01 2.029863166809082031e+01 2.483666837215423584e-01 1.105274409055709839e-01 1.076682433485984802e-01 3.898882269859313965e-01
7.710000000000000000e+02 3.501285171508789062e+01 1.843001937866210938e+01 1.218078061938285828e-01 3.392778337001800537e-02 4.672067612409591675e-02 4.555394351482391357e-01
7.720000000000000000e+02 3.444779968261718750e+01 8.664197921752929688e+00 -3.518566787242889404e-01 -3.327786177396774292e-02 -1.155403628945350647e-01 7.096626162528991699e-01
7.730000000000000000e+02 3.685678482055664062e+01 -6.064323782920837402e-01 -9.376163482666015625e-01 6.085354252718389034e-04 -2.811023592948913574e-01 5.307579636573791504e-01
7.740000000000000000e+02 3.397154617309570312e+01 -4.896549701690673828e+00 -9.162036776542663574e-01 6.832684855908155441e-03 -2.728112936019897461e-01 1.795799434185028076e-01
7.750000000000000000e+02 3.471758651733398438e+01 -4.877706527709960938e+00 -9.918393492698669434e-01 7.148140575736761093e-03 -2.954073548316955566e-01 1.808136254549026489e-01
7.760000000000000000e+02 3.696320724487304688e+01 -4.813415050506591797e+00 -1.227063894271850586e+00 6.605285219848155975e-03 -3.661375939846038818e-01 1.842676252126693726e-01
7.770000000000000000e+02 3.162252807617187500e+01 4.036422729492187500e+01 6.634582877159118652e-01 -6.153854727745056152e-02 1.805759221315383911e-01 3.044430166482925415e-02
7.780000000000000000e+02 2.658071899414062500e+01 3.730668258666992188e+01 5.803157687187194824e-01 -3.493041396141052246e-01 6.930349022150039673e-02 8.092591911554336548e-02
7.790000000000000000e+02 3.257433700561523438e+01 2.856544113159179688e+01 4.647971689701080322e-01 -6.764010339975357056e-02 1.191471144556999207e-01 1.981418281793594360e-01
7.800000000000000000e+02 3.242605209350585938e+01 2.336425018310546875e+01 2.792598903179168701e-01 -7.920358330011367798e-02 6.001689285039901733e-02 3.098804950714111328e-01
7.810000000000000000e+02 2.930807876586914062e+01 1.840023612976074219e+01 -4.489038139581680298e-02 -2.329580038785934448e-01 -8.335451781749725342e-02 4.495923519134521484e-01
7.820000000000000000e+02 2.829810142517089844e+01 9.444150924682617188e+00 -3.938927352428436279e-01 -2.250902503728866577e-01 -1.856948882341384888e-01 6.835961341857910156e-01
7.830000000000000000e+02 2.497879791259765625e+01 2.657528877258300781e+00 -2.950708270072937012e-01 -2.619135975837707520e-01 -1.670953333377838135e-01 5.083954930305480957e-01
7.840000000000000000e+02 2.732606887817382812e+01 -4.923128604888916016e+00 -3.361580073833465576e-01 -1.309445966035127640e-02 -1.047757416963577271e-01 1.453164666891098022e-01
7.850000000000000000e+02 3.025832557678222656e+01 -4.957162380218505859e+00 -5.673421025276184082e-01 -2.741417556535452604e-04 -1.702848672866821289e-01 1.671885550022125244e-01
7.860000000000000000e+02 2.883082389831542969e+01 -4.270664691925048828e+00 -4.627391397953033447e-01 -1.212262082844972610e-02 -1.424585282802581787e-01 2.110832780599594116e-01
7.870000000000000000e+02 3.322588729858398438e+01 -4.914684772491455078e+00 -8.423067927360534668e-01 6.125288549810647964e-03 -2.508544623851776123e-01 1.778740137815475464e-01
7.880000000000000000e+02 1.768870162963867188e+01 4.088196563720703125e+01 4.050458669662475586e-01 -6.331604123115539551e-01 -6.843436509370803833e-02 4.010424390435218811e-02
7.890000000000000000e+02 2.248060798645019531e+01 4.087782287597656250e+01 5.113821029663085938e-01 -5.155206322669982910e-01 -1.241565099917352200e-03 2.774292416870594025e-02
7.900000000000000000e+02 2.292831993103027344e+01 3.091362190246582031e+01 3.789721131324768066e-01 -5.530136823654174805e-01 -5.221246182918548584e-02 2.013962566852569580e-01
7.910000000000000000e+02 2.204952239990234375e+01 2.146549224853515625e+01 -8.589413017034530640e-02 -6.724280118942260742e-01 -2.274966388940811157e-01 3.238483667373657227e-01
7.920000000000000000e+02 2.187660217285156250e+01 1.599400329589843750e+01 -4.174800217151641846e-01 -6.744616627693176270e-01 -3.275825083255767822e-01 4.787568151950836182e-01
7.930000000000000000e+02 2.026574707031250000e+01 1.009526729583740234e+01 -4.319401681423187256e-01 -9.442837834358215332e-01 -4.128671884536743164e-01 6.121349334716796875e-01
7.940000000000000000e+02 1.997465705871582031e+01 5.411570072174072266e+00 -1.407779306173324585e-01 -7.212007641792297363e-01 -2.585935890674591064e-01 3.569990992546081543e-01
7.950000000000000000e+02 2.159536361694335938e+01 -4.386077880859375000e+00 -5.185866728425025940e-02 -3.449443355202674866e-02 -2.590592950582504272e-02 4.872862249612808228e-02
7.960000000000000000e+02 2.449020195007324219e+01 -4.019245147705078125e+00 -1.832091510295867920e-01 -4.659383744001388550e-02 -6.894089281558990479e-02 1.444303989410400391e-01
7.970000000000000000e+02 2.371247673034667969e+01 -4.673593521118164062e+00 -1.265021860599517822e-01 -3.105010092258453369e-02 -4.726568609476089478e-02 9.135571867227554321e-02
7.980000000000000000e+02 1.761386489868164062e+01 2.989650344848632812e+01 2.903457581996917725e-01 -7.171878218650817871e-01 -1.280526220798492432e-01 2.764255702495574951e-01
7.990000000000000000e+02 1.636628341674804688e+01 2.276584625244140625e+01 -4.766505211591720581e-02 -8.854852914810180664e-01 -2.799451053142547607e-01 4.034246504306793213e-01
8.000000000000000000e+02 1.295514583587646484e+01 1.754237747192382812e+01 -1.084567070007324219e+00 -8.941362500190734863e-01 -5.936110019683837891e-01 9.010490179061889648e-01
8.010000000000000000e+02 1.508199024200439453e+01 1.557036590576171875e+01 -9.627965092658996582e-01 -1.463699936866760254e+00 -7.279489040374755859e-01 1.069307684898376465e+00
8.020000000000000000e+02 1.887030792236328125e+01 1.611334800720214844e+01 -5.419325828552246094e-01 -9.734861850738525391e-01 -4.546256363391876221e-01 5.388103723526000977e-01
8.030000000000000000e+02 1.592874908447265625e+01 1.440539550781250000e+01 -7.889357805252075195e-01 -1.682081699371337891e+00 -7.413052320480346680e-01 1.014077305793762207e+00
8.040000000000000000e+02 1.803086853027343750e+01 9.140987396240234375e+00 -2.152954488992691040e-01 -1.511740326881408691e+00 -5.181107521057128906e-01 4.921940267086029053e-01
8.050000000000000000e+02 1.858397293090820312e+01 6.411839962005615234e+00 -7.849281281232833862e-02 -1.000297665596008301e+00 -3.236371576786041260e-01 2.648056447505950928e-01
8.060000000000000000e+02 1.899619674682617188e+01 2.224044084548950195e+00 -1.509191840887069702e-02 -3.758049607276916504e-01 -1.172690689563751221e-01 8.659480512142181396e-02
8.070000000000000000e+02 1.891058921813964844e+01 -5.094316005706787109e-01 -8.398203179240226746e-03 -1.028289794921875000e-01 -3.336815536022186279e-02 3.506850078701972961e-02
8.080000000000000000e+02 1.969148063659667969e+01 -3.070934534072875977e+00 -2.071216329932212830e-02 -3.213805705308914185e-02 -1.585506647825241089e-02 2.579210139811038971e-02
8.090000000000000000e+02 1.294446086883544922e+01 4.089069366455078125e+01 2.821547985076904297e-01 -6.717588901519775391e-01 -1.168812289834022522e-01 4.000312834978103638e-02
8.100000000000000000e+02 7.520262718200683594e+00 3.142767715454101562e+01 9.920996427536010742e-02 -5.970975160598754883e-01 -1.493662744760513306e-01 2.806520164012908936e-01
8.110000000000000000e+02 5.894503116607666016e+00 2.460903358459472656e+01 -8.169564604759216309e-02 -3.200188577175140381e-01 -1.205143481492996216e-01 2.983170151710510254e-01
8.120000000000000000e+02 1.026304054260253906e+01 1.889867591857910156e+01 -8.673055171966552734e-01 -3.355224132537841797e-01 -3.608483672142028809e-01 4.066457748413085938e-01
8.130000000000000000e+02 1.170213413238525391e+01 1.842459487915039062e+01 -1.040145158767700195e+00 -6.020572781562805176e-01 -4.926607012748718262e-01 6.860638260841369629e-01
8.140000000000000000e+02 2.050443887710571289e+00 4.164550399780273438e+01 1.252446416765451431e-02 -7.918438911437988281e-01 -2.337958216667175293e-01 3.545873099938035011e-03
8.150000000000000000e+02 2.039785623550415039e+00 3.574377441406250000e+01 1.433196198195219040e-02 -6.758638024330139160e-01 -1.984595507383346558e-01 6.371361017227172852e-02
8.160000000000000000e+02 1.945428609848022461e+00 2.894363021850585938e+01 1.700662425719201565e-03 -3.848465383052825928e-01 -1.149437576532363892e-01 1.222792118787765503e-01
8.170000000000000000e+02 1.945683479309082031e+00 2.314321708679199219e+01 -2.144391462206840515e-02 -9.190770238637924194e-02 -3.400548547506332397e-02 7.653888314962387085e-02
8.180000000000000000e+02 4.243027210235595703e+00 1.575163650512695312e+01 4.840297624468803406e-03 -2.340893819928169250e-02 -5.570592358708381653e-03 -6.147749256342649460e-03
8.190000000000000000e+02 5.668305754661560059e-01 6.400236129760742188e+00 -4.420205368660390377e-04 -3.512492112349718809e-04 -2.379809302510693669e-04 1.893191511044278741e-04
8.200000000000000000e+02 6.056800365447998047e+00 1.850767850875854492e+00 -6.396358367055654526e-05 -1.030060593620873988e-04 -5.009089363738894463e-05 -2.176411799155175686e-04
8.210000000000000000e+02 8.073959350585937500e+00 2.596801996231079102e+00 -2.219554335169959813e-05 -1.867004175437614322e-04 -6.266879063332453370e-05 -4.236927779857069254e-04
8.220000000000000000e+02 9.630393028259277344e+00 1.863419771194458008e+00 -4.769554288941435516e-05 4.684230952989310026e-05 -2.559702920734707732e-07 2.457666851114481688e-04
8.230000000000000000e+02 1.392463111877441406e+01 1.747594118118286133e+00 1.611142652109265327e-04 -1.366622163914144039e-04 7.335616373893572018e-06 1.104224566006450914e-06
8.240000000000000000e+02 1.444099140167236328e+01 6.252426624298095703e+00 -6.131595000624656677e-04 -2.260019391542300582e-04 -2.517484244890511036e-04 -1.781245809979736805e-04
8.250000000000000000e+02 1.177566719055175781e+01 9.569270133972167969e+00 -7.147846044972538948e-04 -1.351247308775782585e-03 -6.198096089065074921e-04 -9.753791382536292076e-04
8.260000000000000000e+02 1.131657886505126953e+01 1.234511184692382812e+01 1.948999823071062565e-03 1.306885271333158016e-03 9.767655283212661743e-04 1.990992808714509010e-03
8.270000000000000000e+02 1.215850448608398438e+01 1.123809528350830078e+01 -1.833787770010530949e-03 -1.325815101154148579e-03 -9.478808497078716755e-04 -1.028852537274360657e-03
8.280000000000000000e+02 9.410782814025878906e+00 1.446666812896728516e+01 3.135693026706576347e-03 3.741535590961575508e-03 2.063168678432703018e-03 2.750942017883062363e-03
8.290000000000000000e+02 7.858697414398193359e+00 1.687548255920410156e+01 1.538080349564552307e-02 8.321467041969299316e-02 2.957864105701446533e-02 1.688448153436183929e-02
8.300000000000000000e+02 1.769886493682861328e+00 2.171804618835449219e+01 -2.363136410713195801e-02 -3.773481026291847229e-02 -1.840985193848609924e-02 4.507796466350555420e-02
8.310000000000000000e+02 1.162430524826049805e+00 3.802009820938110352e+00 7.984926924109458923e-05 7.010784611338749528e-05 4.498713315115310252e-05 -2.204771008109673858e-04
8.320000000000000000e+02 1.385251617431640625e+01 2.566035747528076172e+00 -3.522596962284296751e-04 -2.936825621873140335e-04 -1.937826746143400669e-04 -4.516478802543133497e-04
8.330000000000000000e+02 2.248556518554687500e+01 -8.280825614929199219e+00 -3.041688501834869385e-01 9.488446637988090515e-03 -8.840412646532058716e-02 -1.074896529316902161e-01
8.340000000000000000e+02 7.947232055664062500e+01 -5.434979438781738281e+00 8.805245906114578247e-02 4.133983612060546875e+00 1.266610860824584961e+00 1.703841537237167358e-01
8.350000000000000000e+02 1.958558273315429688e+01 -2.467574119567871094e+01 -5.281660240143537521e-03 -2.437461614608764648e-01 -7.470835000276565552e-02 -2.951244115829467773e-01
8.360000000000000000e+02 1.413780307769775391e+01 -2.320565795898437500e+01 -4.850051552057266235e-02 -2.857577204704284668e-01 -1.002774760127067566e-01 -2.370510995388031006e-01
8.370000000000000000e+02 3.049909782409667969e+01 -1.394010734558105469e+01 -5.601103305816650391e-01 -5.443093553185462952e-02 -1.843623667955398560e-01 -4.061028063297271729e-01
8.380000000000000000e+02 3.856807327270507812e+01 -1.386565685272216797e+01 -8.077115416526794434e-01 -5.526355654001235962e-02 -2.588925361633300781e-01 -4.838069379329681396e-01
8.390000000000000000e+02 4.338045120239257812e+01 -1.401091098785400391e+01 -9.111612439155578613e-01 -3.677569702267646790e-02 -2.843810915946960449e-01 -5.085299611091613770e-01
8.400000000000000000e+02 4.925371170043945312e+01 -1.496265697479248047e+01 -8.006766438484191895e-01 3.389260172843933105e-02 -2.300352156162261963e-01 -4.757544994354248047e-01
8.410000000000000000e+02 5.714664077758789062e+01 -1.365873527526855469e+01 -8.646245002746582031e-01 2.734701335430145264e-01 -1.773463040590286255e-01 -1.196130365133285522e-01
8.420000000000000000e+02 6.250366592407226562e+01 -1.542603588104248047e+01 -1.606593467295169830e-02 1.619851589202880859e+00 4.811356961727142334e-01 9.539188742637634277e-01
8.430000000000000000e+02 7.384992218017578125e+01 -1.902463722229003906e+01 -4.639763236045837402e-01 7.875535488128662109e+00 2.223467826843261719e+00 6.201294064521789551e-01
8.440000000000000000e+02 7.942490386962890625e+01 -2.229016494750976562e+01 -8.904583752155303955e-03 9.371322631835937500e+00 2.808725595474243164e+00 5.973697081208229065e-02
8.450000000000000000e+02 5.377551555633544922e+00 -1.561178302764892578e+01 2.898244187235832214e-03 -1.339571643620729446e-02 -3.149241674691438675e-03 -4.480348434299230576e-03
8.460000000000000000e+02 1.780981063842773438e+00 -1.742889213562011719e+01 -2.413961337879300117e-03 4.954811884090304375e-04 -5.755440797656774521e-04 5.088462028652429581e-03
8.470000000000000000e+02 5.700736045837402344e-01 -1.065554141998291016e+01 7.808349328115582466e-04 5.247711087577044964e-04 3.916818241123110056e-04 3.725397982634603977e-04
8.480000000000000000e+02 2.606484985351562500e+01 -3.385416030883789062e+01 3.759885430335998535e-01 -2.928945124149322510e-01 2.492821216583251953e-02 -2.305015474557876587e-01
8.490000000000000000e+02 2.067886543273925781e+01 -3.027479743957519531e+01 1.841517686843872070e-01 -3.012811243534088135e-01 -3.513880446553230286e-02 -2.586257755756378174e-01
8.500000000000000000e+02 3.269757080078125000e+01 -2.527067375183105469e+01 1.726405769586563110e-01 -1.714870184659957886e-01 3.460711159277707338e-04 -4.505661129951477051e-01
8.510000000000000000e+02 3.545517349243164062e+01 -2.528137969970703125e+01 2.362871766090393066e-01 -1.334568858146667480e-01 3.084908612072467804e-02 -4.636099338531494141e-01
8.520000000000000000e+02 4.257447814941406250e+01 -2.476211738586425781e+01 3.439306318759918213e-01 4.551670327782630920e-02 1.168342009186744690e-01 -4.352119266986846924e-01
8.530000000000000000e+02 5.204275131225585938e+01 -2.370728874206542969e+01 5.037686824798583984e-01 6.294994354248046875e-01 3.399804532527923584e-01 -9.169276803731918335e-02
8.540000000000000000e+02 5.456066131591796875e+01 -2.722870445251464844e+01 7.671429514884948730e-01 1.220951199531555176e+00 5.964282155036926270e-01 1.369697302579879761e-01
8.550000000000000000e+02 6.495752716064453125e+01 -2.300965309143066406e+01 3.861131072044372559e-01 3.610416173934936523e+00 1.198958873748779297e+00 1.055788397789001465e+00
8.560000000000000000e+02 7.405461120605468750e+01 -2.399385070800781250e+01 -2.151528000831604004e-02 7.273189544677734375e+00 2.175502300262451172e+00 6.626467704772949219e-01
8.570000000000000000e+02 7.938316345214843750e+01 -2.643383789062500000e+01 -2.601286687422543764e-04 8.783691406250000000e+00 2.635029315948486328e+00 7.972403615713119507e-02
8.580000000000000000e+02 7.431742548942565918e-01 -3.043699264526367188e+01 -8.290542173199355602e-04 -2.909209728240966797e-01 -8.752501010894775391e-02 -2.383084967732429504e-02
8.590000000000000000e+02 8.437919616699218750e+00 -3.536285400390625000e+01 8.079565316438674927e-02 -3.463447988033294678e-01 -7.966474443674087524e-02 -1.127654165029525757e-01
8.600000000000000000e+02 3.091869926452636719e+01 -3.233814620971679688e+01 4.406062662601470947e-01 -2.340230643749237061e-01 6.197496503591537476e-02 -2.889773249626159668e-01
8.610000000000000000e+02 3.693910598754882812e+01 -3.479439163208007812e+01 7.083725333213806152e-01 -7.781322300434112549e-02 1.891677975654602051e-01 -2.227881401777267456e-01
8.620000000000000000e+02 4.168357086181640625e+01 -2.970103645324707031e+01 6.379028558731079102e-01 8.932947367429733276e-02 2.181697040796279907e-01 -3.262203335762023926e-01
8.630000000000000000e+02 5.104372024536132812e+01 -3.391561889648437500e+01 9.594933390617370605e-01 1.060549616813659668e+00 6.060128808021545410e-01 -2.465884201228618622e-03
8.640000000000000000e+02 7.287336730957031250e+01 -3.297400283813476562e+01 1.804466396570205688e-01 6.312241077423095703e+00 1.947806358337402344e+00 4.492419958114624023e-01
8.650000000000000000e+02 7.934917449951171875e+01 -3.337844085693359375e+01 9.502879343926906586e-03 7.975852966308593750e+00 2.395606756210327148e+00 5.072699114680290222e-02
8.660000000000000000e+02 7.283838653564453125e+01 5.374158859252929688e+00 -6.490853428840637207e-01 7.670349121093750000e+00 2.106379270553588867e+00 -8.892813324928283691e-01
8.670000000000000000e+02 7.946611785888671875e+01 2.829689741134643555e+00 -3.473178297281265259e-02 9.322999954223632812e+00 2.786480426788330078e+00 1.540556997060775757e-01
8.680000000000000000e+02 7.276055145263671875e+01 1.109223175048828125e+01 -4.911635071039199829e-02 6.673119068145751953e+00 1.987200856208801270e+00 -9.043449163436889648e-01
8.690000000000000000e+02 7.940052032470703125e+01 8.390139579772949219e+00 -1.021404284983873367e-02 9.425093650817871094e+00 2.824463844299316406e+00 -5.464047193527221680e-02
8.700000000000000000e+02 6.185630035400390625e+01 -6.568362712860107422e-01 -9.872562289237976074e-01 5.910610556602478027e-01 -1.188585683703422546e-01 -4.754766523838043213e-01
8.710000000000000000e+02 5.863314056396484375e+01 9.367078542709350586e-01 -8.519723415374755859e-01 4.284951984882354736e-01 -1.270431429147720337e-01 -1.137419193983078003e-01
8.720000000000000000e+02 4.980627822875976562e+01 -1.103464722633361816e+00 -1.687663197517395020e+00 1.320653222501277924e-02 -5.023369789123535156e-01 4.435090720653533936e-01
8.730000000000000000e+02 4.379373931884765625e+01 -4.317072629928588867e-01 -1.298318147659301758e+00 8.264457806944847107e-03 -3.870160877704620361e-01 5.305014848709106445e-01
8.740000000000000000e+02 3.523909378051757812e+01 7.098523527383804321e-02 -8.051137924194335938e-01 -8.706009015440940857e-03 -2.441459447145462036e-01 5.619807243347167969e-01
8.750000000000000000e+02 2.952144050598144531e+01 -9.055116772651672363e-01 -5.171273350715637207e-01 -5.645063146948814392e-02 -1.720733940601348877e-01 4.480115771293640137e-01
8.760000000000000000e+02 2.027912902832031250e+01 3.939184188842773438e+00 -1.051513627171516418e-01 -5.501210093498229980e-01 -1.965817213058471680e-01 3.087691068649291992e-01
8.770000000000000000e+02 1.896161270141601562e+01 3.627805709838867188e+00 -3.291442617774009705e-02 -5.678307414054870605e-01 -1.802235394716262817e-01 1.278843283653259277e-01
8.780000000000000000e+02 7.261360168457031250e+01 1.960111808776855469e+01 1.472709476947784424e-01 6.047490596771240234e+00 1.858428478240966797e+00 -6.975857019424438477e-01
8.790000000000000000e+02 7.935549926757812500e+01 1.673007202148437500e+01 6.564882933162152767e-04 8.128066062927246094e+00 2.438616752624511719e+00 -8.780067414045333862e-02
8.800000000000000000e+02 6.694484710693359375e+01 1.176456642150878906e+01 2.202712744474411011e-01 4.428957939147949219e+00 1.394768714904785156e+00 -1.187147855758666992e+00
8.810000000000000000e+02 5.789897155761718750e+01 8.390068054199218750e+00 2.604800462722778320e-01 1.365593791007995605e+00 4.878221452236175537e-01 -4.547421932220458984e-01
8.820000000000000000e+02 5.066305923461914062e+01 7.845232963562011719e+00 -5.696210637688636780e-02 4.427368342876434326e-01 1.157324165105819702e-01 2.556535005569458008e-01
8.830000000000000000e+02 4.382133102416992188e+01 1.012606048583984375e+01 -6.744685024023056030e-02 2.303011417388916016e-01 4.885628819465637207e-02 5.295300483703613281e-01
8.840000000000000000e+02 2.639024925231933594e+01 1.071945476531982422e+01 -4.119436740875244141e-01 -3.305717408657073975e-01 -2.227546274662017822e-01 6.542717814445495605e-01
8.850000000000000000e+02 1.999053764343261719e+01 1.153668308258056641e+01 -4.921178221702575684e-01 -9.915376901626586914e-01 -4.450966715812683105e-01 6.358628869056701660e-01
8.860000000000000000e+02 7.215888977050781250e+01 2.572729301452636719e+01 1.447454392910003662e-01 5.680442810058593750e+00 1.747556447982788086e+00 -4.941717684268951416e-01
8.870000000000000000e+02 7.935045623779296875e+01 2.369476318359375000e+01 2.052113413810729980e-03 7.243628978729248047e+00 2.173704385757446289e+00 -6.167377904057502747e-02
8.880000000000000000e+02 5.868562698364257812e+01 1.576088142395019531e+01 5.631378889083862305e-01 2.282226085662841797e+00 8.536091446876525879e-01 -5.964769721031188965e-01
8.890000000000000000e+02 5.110526275634765625e+01 1.817903137207031250e+01 5.640552639961242676e-01 1.202594637870788574e+00 5.299949645996093750e-01 -8.251039683818817139e-02
8.900000000000000000e+02 4.374816513061523438e+01 1.372955322265625000e+01 1.776242256164550781e-01 3.563854992389678955e-01 1.602029204368591309e-01 4.152830839157104492e-01
8.910000000000000000e+02 3.337015151977539062e+01 1.687494659423828125e+01 3.995818551629781723e-03 -4.062327742576599121e-02 -1.098823733627796173e-02 5.017032623291015625e-01
8.920000000000000000e+02 2.523915290832519531e+01 1.625080299377441406e+01 -2.953882515430450439e-01 -4.337244033813476562e-01 -2.187337875366210938e-01 4.878327846527099609e-01
8.930000000000000000e+02 2.058101272583007812e+01 1.802716636657714844e+01 -3.513933718204498291e-01 -7.757873535156250000e-01 -3.381542265415191650e-01 4.221794903278350830e-01
8.940000000000000000e+02 2.685170888900756836e+00 2.094221115112304688e+01 -3.727666288614273071e-02 -5.812485516071319580e-02 -2.862045541405677795e-02 4.647755995392799377e-02
8.950000000000000000e+02 7.026137542724609375e+01 3.167744636535644531e+01 2.013616859912872314e-01 5.144731521606445312e+00 1.603827953338623047e+00 -3.686564862728118896e-01
8.960000000000000000e+02 7.935904693603515625e+01 2.921245765686035156e+01 6.913873367011547089e-03 6.764684200286865234e+00 2.031479597091674805e+00 -3.814551606774330139e-02
8.970000000000000000e+02 6.478621673583984375e+01 2.323054885864257812e+01 4.411738514900207520e-01 3.924705505371093750e+00 1.309763789176940918e+00 -6.506302356719970703e-01
8.980000000000000000e+02 5.657990264892578125e+01 2.640761947631835938e+01 6.360239982604980469e-01 2.407177925109863281e+00 9.129605889320373535e-01 -3.592351675033569336e-01
8.990000000000000000e+02 4.923023223876953125e+01 2.281934165954589844e+01 6.318131685256958008e-01 1.214686870574951172e+00 5.539500117301940918e-01 -4.656317830085754395e-02
9.000000000000000000e+02 4.399136352539062500e+01 2.462424468994140625e+01 5.825701951980590820e-01 7.384110689163208008e-01 3.962943851947784424e-01 1.219694539904594421e-01
9.010000000000000000e+02 3.534100341796875000e+01 2.656395912170410156e+01 4.629642069339752197e-01 1.110930964350700378e-01 1.722171902656555176e-01 2.300442457199096680e-01
9.020000000000000000e+02 2.745276069641113281e+01 2.420396232604980469e+01 1.867050528526306152e-01 -3.529211282730102539e-01 -4.986481741070747375e-02 2.901265323162078857e-01
9.030000000000000000e+02 2.068974113464355469e+01 2.314585685729980469e+01 3.506222367286682129e-02 -7.206876277923583984e-01 -2.056876122951507568e-01 3.192896544933319092e-01
9.040000000000000000e+02 1.605756187438964844e+01 2.504376983642578125e+01 9.181170910596847534e-02 -8.278265595436096191e-01 -2.208044528961181641e-01 3.734750747680664062e-01
9.050000000000000000e+02 7.802369117736816406e+00 2.316572380065917969e+01 -1.596118062734603882e-01 -3.520523607730865479e-01 -1.534992605447769165e-01 3.769195675849914551e-01
9.060000000000000000e+02 6.529663085937500000e+01 3.457963180541992188e+01 3.614466190338134766e-01 4.182229042053222656e+00 1.363102674484252930e+00 -2.521624863147735596e-01
9.070000000000000000e+02 5.253097534179687500e+01 3.404629516601562500e+01 6.895578503608703613e-01 2.007460832595825195e+00 8.091056346893310547e-01 -1.203970015048980713e-01
9.080000000000000000e+02 4.529878997802734375e+01 3.375189590454101562e+01 7.286770343780517578e-01 1.065330266952514648e+00 5.382021665573120117e-01 -3.232419956475496292e-03
9.090000000000000000e+02 3.476504135131835938e+01 3.179083442687988281e+01 5.955415964126586914e-01 9.929793328046798706e-02 2.084518522024154663e-01 1.365816742181777954e-01
9.100000000000000000e+02 2.626974487304687500e+01 3.394632339477539062e+01 5.004039406776428223e-01 -3.909809291362762451e-01 3.282690793275833130e-02 1.379771530628204346e-01
9.110000000000000000e+02 2.001349449157714844e+01 3.064345169067382812e+01 3.419608771800994873e-01 -6.582980155944824219e-01 -9.490113705396652222e-02 2.386932075023651123e-01
9.120000000000000000e+02 8.501668930053710938e+00 3.293435287475585938e+01 1.334161013364791870e-01 -6.324594020843505859e-01 -1.497129946947097778e-01 2.570281326770782471e-01
9.130000000000000000e+02 2.121343374252319336e+00 3.175096893310546875e+01 8.581258356571197510e-03 -5.271791815757751465e-01 -1.555793732404708862e-01 1.098539382219314575e-01
9.140000000000000000e+02 1.800223827362060547e+00 9.067633628845214844e+00 8.637672872282564640e-04 2.207749930676072836e-04 3.253626928199082613e-04 -7.764616166241466999e-04
9.150000000000000000e+02 1.787257575988769531e+01 -7.430860996246337891e+00 -3.327672928571701050e-02 -2.719722315669059753e-02 -1.814218610525131226e-02 -3.186705335974693298e-02
9.160000000000000000e+02 1.949738502502441406e+01 -7.676573753356933594e+00 -1.137033998966217041e-01 -8.481563068926334381e-03 -3.665548935532569885e-02 -6.167082488536834717e-02
9.170000000000000000e+02 1.427961254119873047e+01 -1.385734272003173828e+01 -2.752081751823425293e-01 -3.436031639575958252e-01 -1.856434047222137451e-01 -2.950265705585479736e-01
9.180000000000000000e+02 7.548935413360595703e+00 -1.388589668273925781e+01 -1.343377167358994484e-03 2.830283483490347862e-03 4.460718482732772827e-04 1.536951749585568905e-03
9.190000000000000000e+02 1.132761669158935547e+01 -8.129543304443359375e+00 -1.361739996355026960e-04 -5.257609882391989231e-05 -5.662503099301829934e-05 -3.124004797427915037e-05
9.200000000000000000e+02 1.015806388854980469e+01 -3.147531747817993164e+00 1.138655261456733570e-05 -1.330136001342907548e-04 -3.648811252787709236e-05 -9.273048635805025697e-05
9.210000000000000000e+02 1.320852661132812500e+01 -1.964401006698608398e+00 -5.264332139631733298e-05 -7.400748290820047259e-05 -3.799523983616381884e-05 -5.062374475528486073e-05
9.220000000000000000e+02 1.491085338592529297e+01 -2.294755458831787109e+00 5.691356273018755019e-05 1.597344271431211382e-05 2.186610072385519743e-05 -5.143440944266330916e-07
9.230000000000000000e+02 1.430373382568359375e+01 -2.143755674362182617e+00 -1.884360608528368175e-05 -2.362030500080436468e-05 -1.273917314392747357e-05 -1.145545684266835451e-05
9.240000000000000000e+02 1.375002288818359375e+01 -1.999521851539611816e+00 4.729779902845621109e-06 3.706388451973907650e-05 1.253809932677540928e-05 1.511282516730716452e-05
9.250000000000000000e+02 1.179600048065185547e+01 -1.973394274711608887e+00 -7.608309533679857850e-05 -9.458331624045968056e-05 -5.119992420077323914e-05 2.514881452952977270e-05
9.260000000000000000e+02 1.031373882293701172e+01 -1.857182741165161133e+00 -3.321035183034837246e-05 -1.485907996539026499e-04 -5.454034544527530670e-05 -1.742666063364595175e-05
9.270000000000000000e+02 9.572981834411621094e+00 -1.832888245582580566e+00 1.017215436149854213e-05 1.397595333401113749e-04 4.497950430959463120e-05 8.588608034187927842e-05
9.280000000000000000e+02 8.825547218322753906e+00 -1.840878605842590332e+00 -6.408079934772104025e-05 -1.211127164424397051e-04 -5.555805546464398503e-05 -6.411872891476377845e-05
9.290000000000000000e+02 7.321507930755615234e+00 -1.862742543220520020e+00 -6.403565930668264627e-05 -9.036692063091322780e-05 -4.632077616406604648e-05 -7.431559788528829813e-05
9.300000000000000000e+02 5.801157951354980469e+00 -1.879371047019958496e+00 -2.411477726127486676e-05 -8.755846647545695305e-05 -3.350197221152484417e-05 -1.132945326389744878e-04
9.310000000000000000e+02 3.523192882537841797e+00 -1.976255893707275391e+00 3.167059185216203332e-05 2.862542351067531854e-05 1.808880551834590733e-05 6.819034024374559522e-05
9.320000000000000000e+02 5.042372226715087891e+00 -1.899946689605712891e+00 -4.682388680521398783e-05 9.857323311734944582e-05 1.552480352984275669e-05 9.368821338284760714e-05
9.330000000000000000e+02 4.454069137573242188e+00 -2.786724328994750977e+00 1.735193654894828796e-05 9.534676792100071907e-05 3.380961061338894069e-05 1.219273981405422091e-04
9.340000000000000000e+02 2.754457473754882812e+00 -2.028551101684570312e+00 -9.812723874347284436e-05 -1.809779314498882741e-05 -3.486750938463956118e-05 -9.425103053217753768e-05
9.350000000000000000e+02 1.977142572402954102e+00 -2.071926832199096680e+00 6.560774636454880238e-05 2.602041058707982302e-05 2.748844781308434904e-05 9.520032108412124217e-06
9.360000000000000000e+02 1.193686127662658691e+00 -2.131198406219482422e+00 -1.064736716216430068e-04 -5.620969386654905975e-05 -4.880501001025550067e-05 -7.525367982452735305e-05
9.370000000000000000e+02 2.036679744720458984e+00 -4.162410354614257812e+01 1.885826350189745426e-03 -4.577431976795196533e-01 -1.367572098970413208e-01 -5.361807998269796371e-04
9.380000000000000000e+02 6.166393280029296875e+00 -3.801325225830078125e+01 5.101713538169860840e-02 -3.683795332908630371e-01 -9.520871937274932861e-02 -5.941362679004669189e-02
9.390000000000000000e+02 1.020672678947448730e+00 -3.863328552246093750e+01 -9.528950904496014118e-04 -4.523071944713592529e-01 -1.359780281782150269e-01 -6.048764567822217941e-03
9.400000000000000000e+02 6.562904119491577148e-01 -3.474470138549804688e+01 5.148306023329496384e-03 -4.019442498683929443e-01 -1.190387830138206482e-01 -1.463275216519832611e-02
9.410000000000000000e+02 8.052577972412109375e-01 -3.334017944335937500e+01 1.156021491624414921e-03 -3.719507455825805664e-01 -1.112384200096130371e-01 -1.966127939522266388e-02
9.420000000000000000e+02 7.137433886528015137e-01 -2.901627159118652344e+01 2.102861413732171059e-03 -2.436789423227310181e-01 -7.247282564640045166e-02 -2.484137378633022308e-02
9.430000000000000000e+02 6.904580593109130859e-01 -2.759897613525390625e+01 -1.926233060657978058e-03 -1.929651200771331787e-01 -5.846740677952766418e-02 -2.535799518227577209e-02
9.440000000000000000e+02 6.738201379776000977e-01 -2.618223571777343750e+01 6.039192667230963707e-04 -1.418580859899520874e-01 -4.237625002861022949e-02 -2.373356185853481293e-02
9.450000000000000000e+02 5.970063209533691406e-01 -2.192087936401367188e+01 -2.363460371270775795e-03 -1.195227541029453278e-02 -4.294720478355884552e-03 -1.365087088197469711e-02
9.460000000000000000e+02 1.709422945976257324e+00 -2.034864425659179688e+01 -1.116723939776420593e-02 -1.757908798754215240e-02 -8.623898029327392578e-03 -2.286619506776332855e-02
9.470000000000000000e+02 5.565780997276306152e-01 -1.624650573730468750e+01 1.360406284220516682e-03 1.699056848883628845e-02 5.505292676389217377e-03 3.539556404575705528e-03
9.480000000000000000e+02 5.452298521995544434e-01 -1.484718608856201172e+01 -4.852286947425454855e-04 9.431451559066772461e-03 2.683867001906037331e-03 2.133836271241307259e-03
9.490000000000000000e+02 5.559421777725219727e-01 -1.345077323913574219e+01 1.098539563827216625e-03 4.585287533700466156e-03 1.705148140899837017e-03 1.520408201031386852e-03
9.500000000000000000e+02 4.459568977355957031e+00 -1.480362033843994141e+01 5.114251282066106796e-03 -9.253775700926780701e-03 -1.241857185959815979e-03 -1.569019630551338196e-03
9.510000000000000000e+02 5.539938807487487793e-01 -9.260597229003906250e+00 -5.450851167552173138e-04 6.853486411273479462e-06 -1.614694920135661960e-04 4.406628431752324104e-05
9.520000000000000000e+02 5.332700610160827637e-01 -7.869005680084228516e+00 5.251687252894043922e-04 -1.402319467160850763e-04 1.154810306616127491e-04 5.465617869049310684e-05
9.530000000000000000e+02 5.220730304718017578e-01 -6.476785659790039062e+00 -4.028485855087637901e-04 -1.209311885759234428e-04 -1.571339234942570329e-04 -5.200866871746256948e-05
9.540000000000000000e+02 7.177357482910156250e+01 -4.085353088378906250e+01 2.517434358596801758e-01 5.921527862548828125e+00 1.851981282234191895e+00 8.478274941444396973e-02
9.550000000000000000e+02 5.230024719238281250e+01 -4.075266647338867188e+01 1.039452791213989258e+00 1.317853927612304688e+00 7.071920037269592285e-01 1.894447050290182233e-04
9.560000000000000000e+02 3.153005981445312500e+01 -4.035615539550781250e+01 6.401735544204711914e-01 -2.260611504316329956e-01 1.242337152361869812e-01 -5.917795002460479736e-02
9.570000000000000000e+02 1.273109722137451172e+01 -4.065506362915039062e+01 1.629268229007720947e-01 -3.597129583358764648e-01 -5.903583765029907227e-02 -3.696193173527717590e-02
9.580000000000000000e+02 7.554581451416015625e+01 4.055970001220703125e+01 5.653488636016845703e-02 5.952452659606933594e+00 1.802696347236633301e+00 1.660705171525478363e-02
9.590000000000000000e+02 7.799351501464843750e+01 4.173173141479492188e+01 9.609813988208770752e-02 6.180202007293701172e+00 1.882889986038208008e+00 -2.687615528702735901e-02
9.600000000000000000e+02 7.863249206542968750e+01 3.876726531982421875e+01 -1.715787686407566071e-02 6.283984184265136719e+00 1.880047917366027832e+00 -6.062848120927810669e-02
9.610000000000000000e+02 7.666950988769531250e+01 3.792332839965820312e+01 -7.195643614977598190e-03 6.080142974853515625e+00 1.821884155273437500e+00 -5.071012303233146667e-02
9.620000000000000000e+02 7.923907470703125000e+01 3.470099639892578125e+01 4.473496694117784500e-03 6.489370346069335938e+00 1.948153138160705566e+00 -2.805533073842525482e-02
9.630000000000000000e+02 7.771207427978515625e+01 3.441552734375000000e+01 -6.577767780981957912e-04 6.293450355529785156e+00 1.887837767601013184e+00 -7.880068570375442505e-02
9.640000000000000000e+02 7.927563476562500000e+01 3.333264923095703125e+01 -6.103027611970901489e-03 6.546076774597167969e+00 1.961992144584655762e+00 -2.820311859250068665e-02
9.650000000000000000e+02 7.933562469482421875e+01 3.058530426025390625e+01 -4.313758108764886856e-03 6.679016113281250000e+00 2.002410650253295898e+00 -3.636211901903152466e-02
9.660000000000000000e+02 7.526249694824218750e+01 2.857795333862304688e+01 6.845057010650634766e-02 6.176710605621337891e+00 1.873548388481140137e+00 -2.870354354381561279e-01
9.670000000000000000e+02 7.937403869628906250e+01 2.645762825012207031e+01 3.142772940918803215e-03 6.979454994201660156e+00 2.094779253005981445e+00 -4.897599667310714722e-02
9.680000000000000000e+02 7.675802612304687500e+01 2.510938262939453125e+01 3.251907974481582642e-02 6.645925998687744141e+00 2.003533601760864258e+00 -2.796559035778045654e-01
9.690000000000000000e+02 7.936382293701171875e+01 2.507763290405273438e+01 3.100379370152950287e-03 7.105477809906005859e+00 2.132573604583740234e+00 -5.602614209055900574e-02
9.700000000000000000e+02 7.934021759033203125e+01 2.091415786743164062e+01 1.842191675677895546e-03 7.557115554809570312e+00 2.267687320709228516e+00 -7.417798787355422974e-02
9.710000000000000000e+02 7.934323883056640625e+01 1.951861381530761719e+01 2.110628876835107803e-03 7.733697414398193359e+00 2.320742368698120117e+00 -7.854953408241271973e-02
9.720000000000000000e+02 7.934915924072265625e+01 1.812354660034179688e+01 2.759518567472696304e-03 7.923758983612060547e+00 2.377955436706542969e+00 -8.390681445598602295e-02
9.730000000000000000e+02 7.936598205566406250e+01 1.394850826263427734e+01 -8.936586673371493816e-04 8.568711280822753906e+00 2.570345401763916016e+00 -9.170985221862792969e-02
9.740000000000000000e+02 7.937033843994140625e+01 1.255772209167480469e+01 -1.157759921625256538e-03 8.796903610229492188e+00 2.638723611831665039e+00 -8.968038111925125122e-02
9.750000000000000000e+02 7.937722015380859375e+01 1.116773509979248047e+01 -3.749610157683491707e-03 9.022568702697753906e+00 2.705645799636840820e+00 -8.447840064764022827e-02
9.760000000000000000e+02 7.941534423828125000e+01 7.001478672027587891e+00 -1.401106454432010651e-02 9.566138267517089844e+00 2.865638017654418945e+00 -2.595588378608226776e-02
9.770000000000000000e+02 7.943087005615234375e+01 5.611331939697265625e+00 -2.315497957170009613e-02 9.625037193298339844e+00 2.880564689636230469e+00 1.968568004667758942e-02
9.780000000000000000e+02 7.944686889648437500e+01 4.219964504241943359e+00 -2.323472686111927032e-02 9.559989929199218750e+00 2.861026525497436523e+00 7.792272418737411499e-02
9.790000000000000000e+02 7.951288604736328125e+01 6.562283635139465332e-02 -3.849784657359123230e-02 8.133157730102539062e+00 2.428397893905639648e+00 3.296683430671691895e-01
9.800000000000000000e+02 7.952992248535156250e+01 -1.308608889579772949e+00 -4.880142863839864731e-03 7.130517005920410156e+00 2.137691020965576172e+00 3.915387988090515137e-01
9.810000000000000000e+02 7.859262084960937500e+01 -1.153728842735290527e+00 -1.034741327166557312e-01 7.836785793304443359e+00 2.319993495941162109e+00 1.005529284477233887e+00
9.820000000000000000e+02 7.270813751220703125e+01 -5.806010246276855469e+00 7.681073665618896484e+00 1.696033668518066406e+01 7.392423152923583984e+00 2.261607885360717773e+00
9.830000000000000000e+02 7.951246643066406250e+01 -4.052661895751953125e+00 4.809438809752464294e-02 4.808973789215087891e+00 1.457120418548583984e+00 3.688521385192871094e-01
9.840000000000000000e+02 7.944020080566406250e+01 -8.240198135375976562e+00 1.096316725015640259e-01 4.692554950714111328e+00 1.440655946731567383e+00 -3.538691997528076172e-01
9.850000000000000000e+02 7.826161193847656250e+01 -1.095908451080322266e+01 -7.467766106128692627e-02 7.819085597991943359e+00 2.323322296142578125e+00 -1.243366003036499023e+00
9.860000000000000000e+02 7.941670227050781250e+01 -1.107439422607421875e+01 -5.451503675431013107e-03 6.858250617980957031e+00 2.055839776992797852e+00 -4.973782896995544434e-01
9.870000000000000000e+02 7.942676544189453125e+01 -1.531286239624023438e+01 -2.836981043219566345e-02 9.262623786926269531e+00 2.770276308059692383e+00 -1.787649542093276978e-01
9.880000000000000000e+02 7.826910400390625000e+01 -1.816646957397460938e+01 -1.120490357279777527e-01 9.238029479980468750e+00 2.737794160842895508e+00 -3.370498865842819214e-02
9.890000000000000000e+02 7.941901397705078125e+01 -1.812412834167480469e+01 -1.926807127892971039e-02 9.659289360046386719e+00 2.892006635665893555e+00 -3.506588935852050781e-02
9.900000000000000000e+02 7.941552734375000000e+01 -2.367034339904785156e+01 -2.933680079877376556e-04 9.183676719665527344e+00 2.755014896392822266e+00 7.055906206369400024e-02
9.910000000000000000e+02 7.821775817871093750e+01 -2.498378944396972656e+01 -2.352673327550292015e-03 8.589249610900878906e+00 2.576069116592407227e+00 2.343465238809585571e-01
9.920000000000000000e+02 7.940251922607421875e+01 -2.505148124694824219e+01 -3.836183575913310051e-03 8.984233856201171875e+00 2.694119453430175781e+00 7.527885586023330688e-02
9.930000000000000000e+02 7.933726501464843750e+01 -2.920158767700195312e+01 3.216593468096107244e-04 8.406657218933105469e+00 2.522093534469604492e+00 7.814023643732070923e-02
9.940000000000000000e+02 7.800307464599609375e+01 -3.187225341796875000e+01 2.675620280206203461e-02 7.784994125366210938e+00 2.343525171279907227e+00 1.817986518144607544e-01
9.950000000000000000e+02 7.933384704589843750e+01 -3.198387145996093750e+01 -1.494392869062721729e-03 8.101851463317871094e+00 2.430107116699218750e+00 6.042385846376419067e-02
9.960000000000000000e+02 7.935900878906250000e+01 -3.610320281982421875e+01 1.669735088944435120e-02 7.739622116088867188e+00 2.326895952224731445e+00 4.407830163836479187e-02
9.970000000000000000e+02 7.925469207763671875e+01 -3.741552352905273438e+01 -2.805618569254875183e-02 7.611947059631347656e+00 2.275167226791381836e+00 6.693854928016662598e-02
9.980000000000000000e+02 7.901760101318359375e+01 -3.871452713012695312e+01 8.904323913156986237e-03 7.491618633270263672e+00 2.250156879425048828e+00 7.156132906675338745e-02
9.990000000000000000e+02 7.864285278320312500e+01 -4.007317352294921875e+01 -2.575818449258804321e-02 7.382665157318115234e+00 2.207072019577026367e+00 9.253103286027908325e-02
1.000000000000000000e+03 2.718010520935058594e+01 4.075646972656250000e+01 5.889060497283935547e-01 -3.256651461124420166e-01 7.897227257490158081e-02 2.325435541570186615e-02
1.001000000000000000e+03 4.833239364624023438e+01 3.745410156250000000e+01 7.364120483398437500e-01 1.473505973815917969e+00 6.629753708839416504e-01 -3.578246757388114929e-02
1.002000000000000000e+03 6.739338684082031250e+01 4.060403442382812500e+01 2.842427790164947510e-01 4.515899658203125000e+00 1.440042734146118164e+00 -6.539547443389892578e-02
1.003000000000000000e+03 1.122806549072265625e+00 1.935492038726806641e+00 -2.906998270191252232e-05 -1.076803018804639578e-04 -4.102508682990446687e-05 1.486131368437781930e-04
1.004000000000000000e+03 3.184251546859741211e+00 2.659927845001220703e+00 -1.336939458269625902e-04 5.167340350453741848e-05 -2.460616269672755152e-05 3.099818422924727201e-04
1.005000000000000000e+03 5.288290977478027344e+00 2.551383733749389648e+00 9.090063940675463527e-06 -1.069398422259837389e-04 -2.935493284894619137e-05 -2.024820423685014248e-04
1.006000000000000000e+03 1.770090699195861816e+00 6.236475467681884766e+00 2.822219976224005222e-04 1.753124888637103140e-05 8.992597577162086964e-05 -3.054972039535641670e-04
1.007000000000000000e+03 5.973070859909057617e-01 9.198596954345703125e+00 -8.385796681977808475e-04 -8.202686149161309004e-05 -2.761819632723927498e-04 7.545073458459228277e-05
1.008000000000000000e+03 6.049616932868957520e-01 1.201377105712890625e+01 -7.725464529357850552e-04 3.313046414405107498e-03 7.621499826200306416e-04 -1.182385603897273540e-03
1.009000000000000000e+03 1.825097918510437012e+00 1.182686328887939453e+01 2.501295646652579308e-03 1.060948707163333893e-03 1.068673213012516499e-03 -3.251878311857581139e-03
1.010000000000000000e+03 6.243780255317687988e-01 1.765203666687011719e+01 -1.945893047377467155e-03 4.444090649485588074e-02 1.274850498884916306e-02 -5.638581234961748123e-03
1.011000000000000000e+03 7.686445236206054688e+00 1.838266181945800781e+01 -1.168153956532478333e-01 4.275150224566459656e-02 -2.221916802227497101e-02 3.225237876176834106e-02
1.012000000000000000e+03 5.937189459800720215e-01 2.191603279113769531e+01 -5.875958129763603210e-03 2.379820868372917175e-02 5.376675166189670563e-03 1.646205037832260132e-02
1.013000000000000000e+03 6.381372213363647461e-01 2.333553504943847656e+01 -3.163536777719855309e-03 -2.575991861522197723e-02 -8.677036501467227936e-03 2.621502056717872620e-02
1.014000000000000000e+03 6.468780040740966797e-01 2.477423477172851562e+01 -5.127569194883108139e-03 -9.386020898818969727e-02 -2.969633415341377258e-02 3.549703955650329590e-02
1.015000000000000000e+03 6.535332202911376953e-01 2.902873229980468750e+01 1.639011432416737080e-03 -3.651364743709564209e-01 -1.090492457151412964e-01 4.246956110000610352e-02
1.016000000000000000e+03 6.765524148941040039e-01 3.044159126281738281e+01 -8.041169494390487671e-04 -4.549477994441986084e-01 -1.367255747318267822e-01 4.177188128232955933e-02
1.017000000000000000e+03 2.029157638549804688e+00 3.034737014770507812e+01 9.385923855006694794e-03 -4.622742831707000732e-01 -1.358665078878402710e-01 1.167814284563064575e-01
1.018000000000000000e+03 6.960839033126831055e-01 3.184777641296386719e+01 4.165984690189361572e-03 -5.366418957710266113e-01 -1.597427725791931152e-01 3.801875561475753784e-02
1.019000000000000000e+03 6.987942457199096680e-01 3.600598907470703125e+01 -1.603346434421837330e-03 -7.186951637268066406e-01 -2.160895466804504395e-01 2.401077933609485626e-02
1.020000000000000000e+03 1.039837121963500977e+00 3.867750167846679688e+01 -3.564100945368409157e-03 -7.724406123161315918e-01 -2.328014224767684937e-01 1.187400985509157181e-02
1.021000000000000000e+03 1.388158202171325684e+00 4.006941604614257812e+01 1.492829294875264168e-03 -7.867336869239807129e-01 -2.355722635984420776e-01 1.178158540278673172e-02
1.022000000000000000e+03 1.037239837646484375e+01 1.849898576736450195e+00 -1.603638520464301109e-04 2.630789094837382436e-05 -4.021678978460840881e-05 -3.162621578667312860e-04
1.023000000000000000e+03 8.906689643859863281e+00 1.864165902137756348e+00 -1.103398972190916538e-04 -5.972684448352083564e-05 -5.102002251078374684e-05 -3.647338598966598511e-04
1.024000000000000000e+03 8.189338684082031250e+00 1.862455725669860840e+00 -1.343047188129276037e-04 1.341067691100761294e-04 -5.938575498021236854e-08 2.889749011956155300e-04
1.025000000000000000e+03 7.476352691650390625e+00 1.858786702156066895e+00 -7.808900409145280719e-05 -1.053782689268700778e-04 -5.504018190549686551e-05 -3.181825741194188595e-04
1.026000000000000000e+03 5.346639156341552734e+00 1.851062536239624023e+00 -1.582991244504228234e-04 1.434910373063758016e-04 -4.442425506567815319e-06 2.512101491447538137e-04
1.027000000000000000e+03 4.634062290191650391e+00 1.856820464134216309e+00 -6.040383595973253250e-05 -6.601047061849385500e-05 -3.792429197346791625e-05 -1.205966182169504464e-04
1.028000000000000000e+03 3.920457124710083008e+00 1.868009328842163086e+00 -1.298505812883377075e-04 8.838058420224115252e-05 -1.244099803443532437e-05 2.401094534434378147e-04
1.029000000000000000e+03 3.210159063339233398e+00 1.879213690757751465e+00 -9.458446584176272154e-06 -6.365231092786416411e-05 -2.193322870880365372e-05 -6.242797826416790485e-05
1.030000000000000000e+03 2.510093212127685547e+00 1.881767511367797852e+00 -1.091472367988899350e-04 3.665231633931398392e-05 -2.174847577407490462e-05 1.894442393677309155e-04
1.031000000000000000e+03 1.816979885101318359e+00 1.883655428886413574e+00 4.372027888166485354e-06 -2.802347262331750244e-05 -7.095433829817920923e-06 -2.349394344491884112e-05
1.032000000000000000e+03 1.263403606414794922e+01 1.760220527648925781e+00 -2.197811045334674418e-05 2.108524859067983925e-05 -2.678587804894050350e-07 -5.530069756787270308e-06
1.033000000000000000e+03 1.331483554840087891e+01 1.737430572509765625e+00 -1.217860699398443103e-04 -5.433863407233729959e-05 -5.283741120365448296e-05 -2.003280242206528783e-04
1.034000000000000000e+03 1.513076114654541016e+01 1.858763694763183594e+00 1.303533917962340638e-05 2.484556753188371658e-04 7.844730134820565581e-05 2.337609184905886650e-04
1.035000000000000000e+03 1.325298786163330078e+01 2.469042778015136719e+00 -1.288554631173610687e-04 1.114938932005316019e-04 -5.208471065998310223e-06 3.943889169022440910e-05
1.036000000000000000e+03 1.475466632843017578e+01 3.606728076934814453e+00 -1.363883347949013114e-04 4.002778223366476595e-05 -2.890816722356248647e-05 -1.329803635599091649e-04
1.037000000000000000e+03 1.404559326171875000e+01 7.555177688598632812e+00 8.656497811898589134e-04 -4.442805584403686225e-05 2.463665150571614504e-04 3.956098225899040699e-04
1.038000000000000000e+03 1.350596046447753906e+01 8.819040298461914062e+00 -1.141804968938231468e-03 -6.143391365185379982e-04 -5.268432432785630226e-04 -4.687234468292444944e-04
1.039000000000000000e+03 1.287300395965576172e+01 1.005037498474121094e+01 1.366496086120605469e-03 2.620572631713002920e-04 4.885660018771886826e-04 9.989936370402574539e-04
1.040000000000000000e+03 1.026093292236328125e+01 1.169855499267578125e+01 -6.885320763103663921e-04 -1.980208558961749077e-03 -8.006221614778041840e-04 -1.380626694299280643e-03
1.041000000000000000e+03 9.374068260192871094e+00 1.274679660797119141e+01 4.793621483258903027e-04 4.091963171958923340e-03 1.371397636830806732e-03 2.003137720748782158e-03
1.042000000000000000e+03 8.446754455566406250e+00 1.557477283477783203e+01 -3.994976636022329330e-03 1.755687594413757324e-02 4.068569745868444443e-03 -6.307977717369794846e-03
1.043000000000000000e+03 1.628117942810058594e+01 1.676258087158203125e+01 -6.733658313751220703e-01 -1.185732841491699219e+00 -5.577296018600463867e-01 6.668859124183654785e-01
1.044000000000000000e+03 1.658721733093261719e+01 1.311805820465087891e+01 -5.461387038230895996e-01 -1.671494126319885254e+00 -6.652898192405700684e-01 8.919920921325683594e-01
1.045000000000000000e+03 1.764260673522949219e+01 1.048640346527099609e+01 -3.352463543415069580e-01 -1.646470665931701660e+00 -5.945150852203369141e-01 6.637544631958007812e-01
1.046000000000000000e+03 1.832493400573730469e+01 7.780580520629882812e+00 -1.097881123423576355e-01 -1.233885049819946289e+00 -4.031019508838653564e-01 3.498447835445404053e-01
1.047000000000000000e+03 1.880784034729003906e+01 5.026175498962402344e+00 -5.516542866826057434e-02 -7.858421206474304199e-01 -2.523022592067718506e-01 1.915047317743301392e-01
1.048000000000000000e+03 1.924043083190917969e+01 -3.802418708801269531e+00 -9.501927532255649567e-03 -1.231663580983877182e-02 -6.545568816363811493e-03 6.441943813115358353e-03
1.049000000000000000e+03 2.010187530517578125e+01 -4.062490463256835938e+00 -2.281432785093784332e-02 -2.128303050994873047e-02 -1.322920713573694229e-02 1.727687381207942963e-02
1.050000000000000000e+03 2.088858032226562500e+01 -4.252797126770019531e+00 -3.496804460883140564e-02 -3.066983819007873535e-02 -1.969136483967304230e-02 2.916642650961875916e-02
1.051000000000000000e+03 2.300401687622070312e+01 -4.594772815704345703e+00 -9.752095490694046021e-02 -3.207599371671676636e-02 -3.887908533215522766e-02 7.831601053476333618e-02
1.052000000000000000e+03 2.442795944213867188e+01 -4.735953807830810547e+00 -1.596948951482772827e-01 -2.860104292631149292e-02 -5.648878216743469238e-02 1.052232384681701660e-01
1.053000000000000000e+03 2.514834213256835938e+01 -4.798388957977294922e+00 -1.983105093240737915e-01 -2.549274079501628876e-02 -6.714097410440444946e-02 1.168820485472679138e-01
1.054000000000000000e+03 2.587031173706054688e+01 -4.857966899871826172e+00 -2.398623526096343994e-01 -2.133852802217006683e-02 -7.836025953292846680e-02 1.279026716947555542e-01
1.055000000000000000e+03 2.810670852661132812e+01 -4.259431838989257812e+00 -4.090037941932678223e-01 -1.694655790925025940e-02 -1.277851015329360962e-01 2.031749784946441650e-01
1.056000000000000000e+03 2.805656051635742188e+01 -4.941577434539794922e+00 -3.895911276340484619e-01 -9.238007478415966034e-03 -1.196487471461296082e-01 1.520370244979858398e-01
1.057000000000000000e+03 2.878674316406250000e+01 -4.956422805786132812e+00 -4.454947113990783691e-01 -5.731990095227956772e-03 -1.353680193424224854e-01 1.577226817607879639e-01
1.058000000000000000e+03 3.102804565429687500e+01 -4.271820545196533203e+00 -6.379572749137878418e-01 -1.316380570642650127e-03 -1.917821019887924194e-01 2.299679070711135864e-01
1.059000000000000000e+03 3.099808120727539062e+01 -4.951076984405517578e+00 -6.323669552803039551e-01 1.736494130454957485e-03 -1.891891360282897949e-01 1.708391755819320679e-01
1.060000000000000000e+03 3.173839378356933594e+01 -4.943624496459960938e+00 -7.000905871391296387e-01 3.549759741872549057e-03 -2.089622467756271362e-01 1.734991222620010376e-01
1.061000000000000000e+03 3.324880981445312500e+01 -4.239233970642089844e+00 -8.331341743469238281e-01 5.237014964222908020e-03 -2.483691424131393433e-01 2.420804947614669800e-01
1.062000000000000000e+03 3.473792266845703125e+01 -4.199841976165771484e+00 -9.714893102645874023e-01 7.359099574387073517e-03 -2.892390489578247070e-01 2.481042593717575073e-01
1.063000000000000000e+03 3.621376419067382812e+01 -4.835393905639648438e+00 -1.147714614868164062e+00 7.148879114538431168e-03 -3.421697020530700684e-01 1.832813471555709839e-01
1.064000000000000000e+03 3.846335220336914062e+01 -4.770883560180664062e+00 -1.389427304267883301e+00 5.528618115931749344e-03 -4.151696264743804932e-01 1.861292272806167603e-01
1.065000000000000000e+03 3.771279907226562500e+01 -4.791654586791992188e+00 -1.307884573936462402e+00 5.848763510584831238e-03 -3.906107246875762939e-01 1.850529760122299194e-01
1.066000000000000000e+03 3.921456909179687500e+01 -4.751056194305419922e+00 -1.471771836280822754e+00 4.563933238387107849e-03 -4.401623904705047607e-01 1.872586458921432495e-01
1.067000000000000000e+03 4.222194290161132812e+01 -4.678677082061767578e+00 -1.804494738578796387e+00 1.173418597318232059e-03 -5.409963726997375488e-01 1.921852976083755493e-01
1.068000000000000000e+03 4.297423171997070312e+01 -4.663104534149169922e+00 -1.887670636177062988e+00 3.001279837917536497e-04 -5.662111639976501465e-01 1.934159696102142334e-01
1.069000000000000000e+03 4.447874450683593750e+01 -4.634458065032958984e+00 -2.054498672485351562e+00 -1.271645771339535713e-03 -6.167311072349548340e-01 1.968239098787307739e-01
1.070000000000000000e+03 4.598329544067382812e+01 -4.611917018890380859e+00 -2.219779729843139648e+00 -2.763732802122831345e-03 -6.667630076408386230e-01 2.005371898412704468e-01
1.071000000000000000e+03 4.673566436767578125e+01 -4.601089000701904297e+00 -2.301621198654174805e+00 -3.812171053141355515e-03 -6.916300058364868164e-01 2.023569345474243164e-01
1.072000000000000000e+03 4.748831558227539062e+01 -4.591922283172607422e+00 -2.382836580276489258e+00 -4.072681535035371780e-03 -7.160727381706237793e-01 2.046302407979965210e-01
1.073000000000000000e+03 4.974426269531250000e+01 -4.570712089538574219e+00 -2.621248245239257812e+00 -5.850341171026229858e-03 -7.881295680999755859e-01 2.102600038051605225e-01
1.074000000000000000e+03 5.199871826171875000e+01 -4.559111118316650391e+00 -2.848533630371093750e+00 -4.819041118025779724e-03 -8.560057878494262695e-01 2.142598479986190796e-01
1.075000000000000000e+03 5.275060272216796875e+01 -4.555964946746826172e+00 -2.920723676681518555e+00 -5.107928533107042313e-03 -8.777494430541992188e-01 2.155660837888717651e-01
1.076000000000000000e+03 5.500359344482421875e+01 -4.552141189575195312e+00 -3.123061180114746094e+00 -2.637262456119060516e-03 -9.377095103263854980e-01 2.141558378934860229e-01
1.077000000000000000e+03 5.575394439697265625e+01 -4.552029132843017578e+00 -3.183653116226196289e+00 -3.622700693085789680e-03 -9.561827182769775391e-01 2.127395868301391602e-01
1.078000000000000000e+03 5.727966308593750000e+01 -3.891278028488159180e+00 -2.944797515869140625e+00 8.065823465585708618e-03 -8.810194730758666992e-01 2.386840283870697021e-01
1.079000000000000000e+03 5.874953079223632812e+01 -4.566105842590332031e+00 -3.381227493286132812e+00 3.037380753085017204e-03 -1.013457059860229492e+00 1.927518248558044434e-01
1.080000000000000000e+03 5.949632644653320312e+01 -4.573313236236572266e+00 -3.413117647171020508e+00 9.176057763397693634e-03 -1.021182417869567871e+00 1.815756559371948242e-01
1.081000000000000000e+03 6.098700332641601562e+01 -4.588228225708007812e+00 -3.437334060668945312e+00 2.180580794811248779e-02 -1.024658441543579102e+00 1.455444842576980591e-01
1.082000000000000000e+03 6.173271560668945312e+01 -4.594193935394287109e+00 -3.426581859588623047e+00 2.335958741605281830e-02 -1.020966768264770508e+00 1.184541359543800354e-01
1.083000000000000000e+03 6.244862365722656250e+01 -4.014553546905517578e+00 -2.872762680053710938e+00 6.882293522357940674e-02 -8.411819338798522949e-01 2.080432139337062836e-02
1.084000000000000000e+03 6.467928314208984375e+01 -4.606169223785400391e+00 -3.025596380233764648e+00 1.036534979939460754e-01 -8.765829205513000488e-01 -1.318144351243972778e-01
1.085000000000000000e+03 6.662341308593750000e+01 -4.559751510620117188e+00 -2.023578643798828125e+00 3.586265742778778076e-01 -4.994856417179107666e-01 -7.099857330322265625e-01
1.086000000000000000e+03 6.535352325439453125e+01 -4.581595897674560547e+00 -2.752108812332153320e+00 1.483929008245468140e-01 -7.811147570610046387e-01 -2.579442560672760010e-01
1.087000000000000000e+03 6.778496551513671875e+01 -4.666156291961669922e+00 -1.191299796104431152e+00 7.449304461479187012e-01 -1.339108198881149292e-01 -1.398277044296264648e+00
1.088000000000000000e+03 7.240011596679687500e+01 -5.236041069030761719e+00 3.658694505691528320e+00 1.929949951171875000e+01 6.887457847595214844e+00 2.423059225082397461e+00
1.089000000000000000e+03 7.251621246337890625e+01 -5.442564964294433594e+00 5.309280395507812500e+00 1.879326248168945312e+01 7.230762958526611328e+00 2.752902984619140625e+00
1.090000000000000000e+03 7.280583190917968750e+01 -5.999414920806884766e+00 8.359139442443847656e+00 1.644149589538574219e+01 7.440190792083740234e+00 1.591909527778625488e+00
1.091000000000000000e+03 7.278154754638671875e+01 -6.695667266845703125e+00 8.676638603210449219e+00 1.626048278808593750e+01 7.481136322021484375e+00 -1.427035808563232422e+00
1.092000000000000000e+03 7.274928283691406250e+01 -6.907469749450683594e+00 7.913723945617675781e+00 1.679800415039062500e+01 7.413518428802490234e+00 -2.185790300369262695e+00
1.093000000000000000e+03 7.228364562988281250e+01 -7.690394401550292969e+00 2.531386613845825195e+00 1.965054512023925781e+01 6.654579639434814453e+00 -1.910876393318176270e+00
1.094000000000000000e+03 7.168479919433593750e+01 -8.067234992980957031e+00 -4.380416572093963623e-01 1.980278778076171875e+01 5.809423923492431641e+00 1.749066352844238281e+00
1.095000000000000000e+03 7.022350311279296875e+01 -8.058193206787109375e+00 1.447648644447326660e+00 8.378424644470214844e+00 2.947821855545043945e+00 6.304080963134765625e+00
1.096000000000000000e+03 6.842880249023437500e+01 -8.343565940856933594e+00 -2.463277280330657959e-01 1.494460701942443848e+00 3.744398951530456543e-01 2.372559547424316406e+00
1.097000000000000000e+03 6.540705108642578125e+01 -8.182692527770996094e+00 -2.735373258590698242e+00 1.357963234186172485e-01 -7.798730731010437012e-01 2.306976765394210815e-01
1.098000000000000000e+03 6.680971527099609375e+01 -8.235434532165527344e+00 -1.821357131004333496e+00 3.821220099925994873e-01 -4.317705333232879639e-01 7.979909181594848633e-01
1.099000000000000000e+03 6.233438491821289062e+01 -8.849270820617675781e+00 -2.719713926315307617e+00 8.289679884910583496e-02 -7.910451292991638184e-01 -4.706730321049690247e-02
1.100000000000000000e+03 6.243543243408203125e+01 -8.208251953125000000e+00 -3.275202989578247070e+00 3.574360907077789307e-02 -9.718378186225891113e-01 -1.047142893075942993e-01
1.101000000000000000e+03 6.168685913085937500e+01 -8.214580535888671875e+00 -3.301006793975830078e+00 2.925011701881885529e-02 -9.815270304679870605e-01 -1.370984166860580444e-01
1.102000000000000000e+03 5.944044876098632812e+01 -8.228206634521484375e+00 -3.269250154495239258e+00 9.062131866812705994e-03 -9.780563712120056152e-01 -2.008917778730392456e-01
1.103000000000000000e+03 6.018923187255859375e+01 -8.224458694458007812e+00 -3.295078516006469727e+00 1.635940372943878174e-02 -9.836157560348510742e-01 -1.849104762077331543e-01
1.104000000000000000e+03 5.869178390502929688e+01 -8.231414794921875000e+00 -3.231491804122924805e+00 9.069132618606090546e-03 -9.667267799377441406e-01 -2.124805450439453125e-01
1.105000000000000000e+03 5.644617843627929688e+01 -8.238104820251464844e+00 -3.074346303939819336e+00 1.380658126436173916e-03 -9.218896627426147461e-01 -2.331226766109466553e-01
1.106000000000000000e+03 5.569804382324218750e+01 -8.240266799926757812e+00 -3.012267351150512695e+00 2.724326448515057564e-03 -9.028629064559936523e-01 -2.362829744815826416e-01
1.107000000000000000e+03 5.345205688476562500e+01 -8.247494697570800781e+00 -2.806892633438110352e+00 -1.543532009236514568e-03 -8.425308465957641602e-01 -2.403104901313781738e-01
1.108000000000000000e+03 5.420084381103515625e+01 -8.245242118835449219e+00 -2.877488374710083008e+00 8.646470378153026104e-04 -8.629871606826782227e-01 -2.397700250148773193e-01
1.109000000000000000e+03 5.195621871948242188e+01 -8.254784584045410156e+00 -2.663378477096557617e+00 -2.659776248037815094e-03 -7.998114824295043945e-01 -2.394579052925109863e-01
1.110000000000000000e+03 5.046046447753906250e+01 -8.263714790344238281e+00 -2.517504215240478516e+00 -2.706421539187431335e-03 -7.560632228851318359e-01 -2.363696694374084473e-01
1.111000000000000000e+03 4.746882247924804688e+01 -8.290149688720703125e+00 -2.229408025741577148e+00 -3.368132282048463821e-03 -6.698328852653503418e-01 -2.297223061323165894e-01
1.112000000000000000e+03 4.597404098510742188e+01 -8.310412406921386719e+00 -2.089568138122558594e+00 -4.614212084561586380e-03 -6.282547116279602051e-01 -2.259368300437927246e-01
1.113000000000000000e+03 4.522659301757812500e+01 -8.322604179382324219e+00 -2.020597219467163086e+00 -4.621688742190599442e-03 -6.075657010078430176e-01 -2.237517386674880981e-01
1.114000000000000000e+03 4.447919464111328125e+01 -8.335364341735839844e+00 -1.952712297439575195e+00 -6.455520633608102798e-03 -5.877503156661987305e-01 -2.215459048748016357e-01
1.115000000000000000e+03 4.148788070678710938e+01 -8.398257255554199219e+00 -1.693356752395629883e+00 -8.611851371824741364e-03 -5.105905532836914062e-01 -2.101863026618957520e-01
1.116000000000000000e+03 4.291569137573242188e+01 -9.092927932739257812e+00 -1.698754072189331055e+00 -1.146653667092323303e-02 -5.130661725997924805e-01 -2.728314697742462158e-01
1.117000000000000000e+03 3.999143218994140625e+01 -8.434512138366699219e+00 -1.569945216178894043e+00 -9.519551880657672882e-03 -4.738394320011138916e-01 -2.041004449129104614e-01
1.118000000000000000e+03 3.774676132202148438e+01 -8.493952751159667969e+00 -1.391484379768371582e+00 -1.118377130478620529e-02 -4.208004474639892578e-01 -1.942374855279922485e-01
1.119000000000000000e+03 3.474572753906250000e+01 -8.579319953918457031e+00 -1.164908289909362793e+00 -1.478901877999305725e-02 -3.539091944694519043e-01 -1.774040758609771729e-01
1.120000000000000000e+03 3.699715423583984375e+01 -8.515433311462402344e+00 -1.333810210227966309e+00 -1.293151546269655228e-02 -4.040225148200988770e-01 -1.907737106084823608e-01
1.121000000000000000e+03 3.849524688720703125e+01 -8.473360061645507812e+00 -1.449893712997436523e+00 -1.128365471959114075e-02 -4.383532106876373291e-01 -1.981063485145568848e-01
1.122000000000000000e+03 3.549785614013671875e+01 -8.558690071105957031e+00 -1.220861315727233887e+00 -1.475980039685964584e-02 -3.706863522529602051e-01 -1.826057136058807373e-01
1.123000000000000000e+03 3.399118804931640625e+01 -8.598615646362304688e+00 -1.110400080680847168e+00 -1.533382479101419449e-02 -3.377201557159423828e-01 -1.727537363767623901e-01
1.124000000000000000e+03 3.247916412353515625e+01 -8.635663032531738281e+00 -1.001056909561157227e+00 -1.549067627638578415e-02 -3.049642741680145264e-01 -1.632515639066696167e-01
1.125000000000000000e+03 2.944028472900390625e+01 -8.668878555297851562e+00 -7.860533595085144043e-01 -1.274059806019067764e-02 -2.396381944417953491e-01 -1.444388180971145630e-01
1.126000000000000000e+03 3.019961357116699219e+01 -8.663823127746582031e+00 -8.392086029052734375e-01 -1.374116539955139160e-02 -2.558849155902862549e-01 -1.480064392089843750e-01
1.127000000000000000e+03 2.713713264465332031e+01 -8.633925437927246094e+00 -6.231417059898376465e-01 -6.492749787867069244e-03 -1.888903379440307617e-01 -1.315218508243560791e-01
1.128000000000000000e+03 2.636661911010742188e+01 -8.612535476684570312e+00 -5.694007277488708496e-01 -3.669708035886287689e-03 -1.719211190938949585e-01 -1.289151906967163086e-01
1.129000000000000000e+03 2.326765632629394531e+01 -8.370015144348144531e+00 -3.570730686187744141e-01 9.151971898972988129e-03 -1.043763309717178345e-01 -1.121531352400779724e-01
1.130000000000000000e+03 2.093157577514648438e+01 -8.029491424560546875e+00 -2.058796882629394531e-01 8.037863299250602722e-03 -5.935254693031311035e-02 -8.774352073669433594e-02
1.131000000000000000e+03 2.018494796752929688e+01 -7.856994152069091797e+00 -1.570205092430114746e-01 -4.599404346663504839e-04 -4.724413529038429260e-02 -7.532796263694763184e-02
1.132000000000000000e+03 1.827639579772949219e+01 -7.420742511749267578e+00 -4.730477556586265564e-02 -1.726384088397026062e-02 -1.937058568000793457e-02 -3.036835044622421265e-02
1.133000000000000000e+03 1.900773620605468750e+01 -8.766072273254394531e+00 -1.480226069688796997e-01 -2.784742787480354309e-02 -5.276100710034370422e-02 -1.080223023891448975e-01
1.134000000000000000e+03 7.223094177246093750e+01 -5.080342292785644531e+00 2.440219879150390625e+00 1.994624710083007812e+01 6.715940475463867188e+00 1.868456602096557617e+00
1.135000000000000000e+03 7.259912109375000000e+01 -5.640748023986816406e+00 6.759182929992675781e+00 1.800659370422363281e+01 7.429733276367187500e+00 2.815700769424438477e+00
1.136000000000000000e+03 7.162854003906250000e+01 -4.778643131256103516e+00 -4.333900511264801025e-01 2.011169815063476562e+01 5.903492450714111328e+00 -1.974336862564086914e+00
1.137000000000000000e+03 7.835231781005859375e+01 -6.567143440246582031e+00 5.281531810760498047e-01 6.157239437103271484e+00 2.005617856979370117e+00 -6.445542722940444946e-02
1.138000000000000000e+03 7.271143341064453125e+01 -7.130601882934570312e+00 6.617103099822998047e+00 1.730767250061035156e+01 7.177432537078857422e+00 -2.621667146682739258e+00
1.139000000000000000e+03 7.280511474609375000e+01 -6.477400779724121094e+00 8.894396781921386719e+00 1.588930034637451172e+01 7.435109138488769531e+00 -4.238082170486450195e-01
1.140000000000000000e+03 7.190509033203125000e+01 -7.958860397338867188e+00 3.102205395698547363e-01 2.030996704101562500e+01 6.186056137084960938e+00 1.696360707283020020e-01
1.141000000000000000e+03 7.282221984863281250e+01 -6.244514942169189453e+00 8.787812232971191406e+00 1.597360420227050781e+01 7.428424835205078125e+00 5.894659161567687988e-01
1.142000000000000000e+03 7.261439514160156250e+01 -7.345088481903076172e+00 5.425113201141357422e+00 1.802276992797851562e+01 7.034364700317382812e+00 -2.797632217407226562e+00
1.143000000000000000e+03 7.329814147949218750e+01 -5.445320129394531250e+00 4.997442245483398438e+00 1.496813678741455078e+01 5.989673614501953125e+00 2.175049781799316406e+00
1.144000000000000000e+03 7.210176849365234375e+01 -7.833795547485351562e+00 1.390752196311950684e+00 2.018943405151367188e+01 6.474055767059326172e+00 -1.052712559700012207e+00
1.145000000000000000e+03 7.081992340087890625e+01 -4.763175964355468750e+00 1.990931034088134766e-01 1.483444404602050781e+01 4.510061264038085938e+00 -6.596570491790771484e+00
1.146000000000000000e+03 7.141490173339843750e+01 -4.768692016601562500e+00 -6.829619407653808594e-01 1.949885559082031250e+01 5.644768238067626953e+00 -3.424116134643554688e+00
1.147000000000000000e+03 6.981434631347656250e+01 -8.068840980529785156e+00 1.540198445320129395e+00 5.300856113433837891e+00 2.052316427230834961e+00 5.327295303344726562e+00
1.148000000000000000e+03 7.101910400390625000e+01 -8.025998115539550781e+00 -2.962966859340667725e-01 1.666855621337890625e+01 4.911677837371826172e+00 5.791250228881835938e+00
1.149000000000000000e+03 6.900442504882812500e+01 -8.023112297058105469e+00 4.547246992588043213e-01 2.047968864440917969e+00 7.508081197738647461e-01 2.997272968292236328e+00
1.150000000000000000e+03 7.062609863281250000e+01 -8.034949302673339844e+00 7.191630601882934570e-01 1.283708381652832031e+01 4.066874027252197266e+00 6.861655712127685547e+00
1.151000000000000000e+03 7.066059875488281250e+01 -8.312016487121582031e+00 1.216375902295112610e-01 1.267316246032714844e+01 3.838439941406250000e+00 6.134659767150878906e+00
1.152000000000000000e+03 7.002027130126953125e+01 -8.068288803100585938e+00 1.581306457519531250e+00 6.839647293090820312e+00 2.526286125183105469e+00 5.962355613708496094e+00
1.153000000000000000e+03 6.960750579833984375e+01 -8.056465148925781250e+00 1.261313080787658691e+00 4.362888336181640625e+00 1.687260508537292480e+00 4.696537017822265625e+00
1.154000000000000000e+03 6.940474700927734375e+01 -8.037468910217285156e+00 1.071789741516113281e+00 3.472514629364013672e+00 1.363291382789611816e+00 4.102313995361328125e+00
1.155000000000000000e+03 6.920466613769531250e+01 -8.026900291442871094e+00 8.981311917304992676e-01 2.621831893920898438e+00 1.055988907814025879e+00 3.563059091567993164e+00
1.156000000000000000e+03 6.844319152832031250e+01 -8.003210067749023438e+00 -3.057709038257598877e-01 1.105896711349487305e+00 2.400377541780471802e-01 1.883059859275817871e+00
1.157000000000000000e+03 6.861549377441406250e+01 -7.987793922424316406e+00 -4.941717162728309631e-02 1.303653597831726074e+00 3.762709200382232666e-01 2.223825216293334961e+00
1.158000000000000000e+03 6.942429351806640625e+01 -4.761641502380371094e+00 1.169041275978088379e+00 3.390101432800292969e+00 1.367742776870727539e+00 -4.142204761505126953e+00
1.159000000000000000e+03 7.062343597412109375e+01 -4.757898330688476562e+00 7.321822047233581543e-01 1.262769985198974609e+01 4.007964611053466797e+00 -6.800205230712890625e+00
1.160000000000000000e+03 6.598751068115234375e+01 -4.534051895141601562e+00 -2.337536811828613281e+00 2.388388514518737793e-01 -6.296093463897705078e-01 -4.780912101268768311e-01
1.161000000000000000e+03 6.818159484863281250e+01 -4.673751354217529297e+00 -6.671583652496337891e-01 1.027598500251770020e+00 1.081320345401763916e-01 -1.818709135055541992e+00
1.162000000000000000e+03 6.883946990966796875e+01 -4.725740432739257812e+00 2.715287804603576660e-01 1.853393554687500000e+00 6.374766826629638672e-01 -2.765181541442871094e+00
1.163000000000000000e+03 6.903581237792968750e+01 -4.745171070098876953e+00 5.935122966766357422e-01 2.176579236984252930e+00 8.310274481773376465e-01 -3.172042608261108398e+00
1.164000000000000000e+03 6.962277984619140625e+01 -4.747085094451904297e+00 1.378043889999389648e+00 4.376130104064941406e+00 1.726252198219299316e+00 -4.772253036499023438e+00
1.165000000000000000e+03 7.002706146240234375e+01 -4.731692790985107422e+00 1.546380996704101562e+00 6.815277576446533203e+00 2.508497476577758789e+00 -5.948197841644287109e+00
1.166000000000000000e+03 7.005446624755859375e+01 -4.400631904602050781e+00 8.729370832443237305e-01 7.671366691589355469e+00 2.563291072845458984e+00 -5.762282848358154297e+00
1.167000000000000000e+03 7.042702484130859375e+01 -4.747375488281250000e+00 1.208560347557067871e+00 1.040652370452880859e+01 3.484525203704833984e+00 -6.803060054779052734e+00
1.168000000000000000e+03 7.101724243164062500e+01 -4.767475128173828125e+00 -1.707340329885482788e-01 1.673810005187988281e+01 4.970209598541259766e+00 -5.819661617279052734e+00
1.169000000000000000e+03 7.026622009277343750e+01 -4.420128345489501953e+00 7.010710239410400391e-01 9.396200180053710938e+00 3.029181480407714844e+00 -6.153723716735839844e+00
1.170000000000000000e+03 1.452239704132080078e+01 1.738523721694946289e+00 1.287333434447646141e-04 -7.734135579084977508e-05 1.541759593237657100e-05 -1.413860154571011662e-04
1.171000000000000000e+03 1.463131999969482422e+01 2.561870098114013672e+00 -2.052999770967289805e-04 -3.733277844730764627e-04 -1.735883270157501101e-04 2.383150422247126698e-05
1.172000000000000000e+03 1.188682937622070312e+01 1.793019890785217285e+00 -1.479541679145768285e-04 5.349116690922528505e-05 -2.833890175679698586e-05 -1.611467014299705625e-04
1.173000000000000000e+03 6.722557067871093750e+01 -4.640082359313964844e+00 -1.687742352485656738e+00 4.472881555557250977e-01 -3.721362650394439697e-01 -9.630786776542663574e-01
1.174000000000000000e+03 6.582135772705078125e+01 -3.856159210205078125e+00 -1.672792911529541016e+00 4.639748334884643555e-01 -3.626454174518585205e-01 -7.697161436080932617e-01
1.175000000000000000e+03 6.678195190429687500e+01 -3.980947494506835938e+00 -1.242390394210815430e+00 7.061251997947692871e-01 -1.608795672655105591e-01 -1.181722402572631836e+00
1.176000000000000000e+03 6.729247283935546875e+01 -4.164299011230468750e+00 -1.046159386634826660e+00 8.544729948043823242e-01 -5.750591680407524109e-02 -1.451637744903564453e+00
1.177000000000000000e+03 6.635002899169921875e+01 -3.576580524444580078e+00 -1.168217301368713379e+00 7.825707793235778809e-01 -1.156939491629600525e-01 -1.167644739151000977e+00
1.178000000000000000e+03 1.446649169921875000e+01 -3.375657558441162109e+00 -4.752837412524968386e-05 6.197998300194740295e-05 4.335482117312494665e-06 7.382114404208550695e-07
1.179000000000000000e+03 1.384656238555908203e+01 -2.968001842498779297e+00 1.094906183425337076e-04 -6.154620496090501547e-05 1.438332310499390587e-05 -2.850311648217029870e-05
1.180000000000000000e+03 1.933325004577636719e+01 -8.229574203491210938e+00 -1.348201036453247070e-01 -1.664475351572036743e-02 -4.543945938348770142e-02 -8.604647964239120483e-02
1.181000000000000000e+03 1.847399330139160156e+01 -9.257913589477539062e+00 -1.478960812091827393e-01 -5.093692988157272339e-02 -5.964990332722663879e-02 -1.240930333733558655e-01
1.182000000000000000e+03 3.191361665725708008e+00 3.480244636535644531e+00 2.753607441263739020e-05 5.281415724311955273e-05 2.410506931482814252e-05 -1.816178846638649702e-04
1.183000000000000000e+03 9.527140617370605469e+00 2.603435993194580078e+00 -9.923725883709266782e-05 -1.221385027747601271e-04 -6.641272921115159988e-05 -4.653763025999069214e-04
1.184000000000000000e+03 7.368185520172119141e+00 2.585511922836303711e+00 -1.569852029206231236e-04 2.880990505218505859e-04 3.933415791834704578e-05 3.466121561359614134e-04
1.185000000000000000e+03 6.765974998474121094e+00 1.854233741760253906e+00 -1.729152718326076865e-04 1.694413076620548964e-04 -1.042188500832708087e-06 2.804524847306311131e-04
1.186000000000000000e+03 6.671159267425537109e+00 2.570093631744384766e+00 1.905950739455875009e-05 -1.815768628148362041e-04 -4.875520608038641512e-05 -3.159590123686939478e-04
1.187000000000000000e+03 7.936977863311767578e+00 3.358181715011596680e+00 -1.300987933063879609e-04 4.179398529231548309e-04 8.635231642983853817e-05 3.872037632390856743e-04
1.188000000000000000e+03 5.747009754180908203e+00 3.960481166839599609e+00 -2.069082256639376283e-04 4.617793019860982895e-04 7.646132144145667553e-05 3.266988496761769056e-04
1.189000000000000000e+03 1.885540366172790527e+00 7.651038646697998047e+00 -2.524500014260411263e-04 6.657595076831057668e-05 -5.576221155934035778e-05 2.199780137743800879e-04
1.190000000000000000e+03 3.979656696319580078e-01 3.783051729202270508e+00 -1.523563987575471401e-04 -1.609690079931169748e-04 -9.399762348039075732e-05 7.913661829661577940e-05
1.191000000000000000e+03 1.864396333694458008e+00 2.624546766281127930e+00 -7.466514216503128409e-05 -2.681186379049904644e-05 -3.044310324185062200e-05 1.793134142644703388e-04
1.192000000000000000e+03 6.959325671195983887e-01 3.027203559875488281e+00 -1.087142372853122652e-04 -2.456611546222120523e-04 -1.063126182998530567e-04 2.129787608282640576e-04
1.193000000000000000e+03 1.113002014160156250e+01 1.823425412178039551e+00 4.016448656329885125e-05 -4.668305700761266053e-05 -1.955571178768877871e-06 1.269903586944565177e-04
1.194000000000000000e+03 8.659731864929199219e+00 3.366415023803710938e+00 1.989455813600216061e-05 -2.743545628618448973e-04 -7.633800123585388064e-05 -5.119670531712472439e-04
1.195000000000000000e+03 2.659588241577148438e+01 -4.899709701538085938e+00 -2.861251533031463623e-01 -1.726575754582881927e-02 -9.101727604866027832e-02 1.367242634296417236e-01
1.196000000000000000e+03 2.606339454650878906e+01 -2.871486902236938477e+00 -2.983044385910034180e-01 -6.409496068954467773e-02 -1.087198257446289062e-01 2.553618550300598145e-01
1.197000000000000000e+03 2.308111953735351562e+01 -3.886398792266845703e+00 -1.191291436553001404e-01 -5.232568830251693726e-02 -5.143645033240318298e-02 1.096777915954589844e-01
1.198000000000000000e+03 2.521055412292480469e+01 -4.095234870910644531e+00 -2.214209884405136108e-01 -4.137089103460311890e-02 -7.883756607770919800e-02 1.600812375545501709e-01
1.199000000000000000e+03 2.377906417846679688e+01 -3.947255849838256836e+00 -1.485770493745803833e-01 -5.028886720538139343e-02 -5.965977534651756287e-02 1.282682418823242188e-01
1.200000000000000000e+03 2.311344337463378906e+01 -3.161367177963256836e+00 -1.320547759532928467e-01 -7.729844003915786743e-02 -6.280596554279327393e-02 1.433142423629760742e-01
1.201000000000000000e+03 2.229982376098632812e+01 -4.496317386627197266e+00 -7.407309859991073608e-02 -3.364584594964981079e-02 -3.231568261981010437e-02 6.374177336692810059e-02
1.202000000000000000e+03 1.913706588745117188e+01 -2.651915311813354492e+00 -6.693753879517316818e-03 -2.307136356830596924e-02 -8.929534815251827240e-03 2.029699459671974182e-02
1.203000000000000000e+03 2.239628791809082031e+01 -3.830938577651977539e+00 -9.189978241920471191e-02 -5.272315442562103271e-02 -4.338688030838966370e-02 9.101650863885879517e-02
1.204000000000000000e+03 2.952019691467285156e+01 -4.961434364318847656e+00 -5.048553347587585449e-01 -2.749349689111113548e-03 -1.522814184427261353e-01 1.625566631555557251e-01
1.205000000000000000e+03 2.665759468078613281e+01 -4.211267471313476562e+00 -3.096060156822204590e-01 -2.834432385861873627e-02 -1.013851016759872437e-01 1.841808259487152100e-01
1.206000000000000000e+03 2.889959526062011719e+01 -2.892780780792236328e+00 -4.814432859420776367e-01 -3.039722517132759094e-02 -1.535521596670150757e-01 3.106666803359985352e-01
1.207000000000000000e+03 2.738254928588867188e+01 -4.241137027740478516e+00 -3.583064377307891846e-01 -2.240804396569728851e-02 -1.142143458127975464e-01 1.939669251441955566e-01
1.208000000000000000e+03 3.248087692260742188e+01 -4.931526660919189453e+00 -7.698163390159606934e-01 5.066864658147096634e-03 -2.294248342514038086e-01 1.757966578006744385e-01
1.209000000000000000e+03 2.959142494201660156e+01 -3.590361595153808594e+00 -5.268711447715759277e-01 -1.531890872865915298e-02 -1.626570075750350952e-01 2.710927724838256836e-01
1.210000000000000000e+03 3.254696655273437500e+01 -2.251236915588378906e+00 -7.328671813011169434e-01 -8.494514971971511841e-03 -2.224085181951522827e-01 3.997382521629333496e-01
1.211000000000000000e+03 2.955832672119140625e+01 -4.275730609893798828e+00 -5.180366039276123047e-01 -8.160757832229137421e-03 -1.578592061996459961e-01 2.182929962873458862e-01
1.212000000000000000e+03 1.346442604064941406e+01 -4.838497161865234375e+00 1.929641439346596599e-04 9.856904398475307971e-06 6.084631604608148336e-05 -2.140421565854921937e-05
1.213000000000000000e+03 1.287710857391357422e+01 -5.959831237792968750e+00 -1.777241268428042531e-04 -4.540695590549148619e-05 -6.693932664347812533e-05 3.068420846830122173e-05
1.214000000000000000e+03 8.142323493957519531e+00 -2.586149454116821289e+00 -8.617328421678394079e-05 -8.453500777250155807e-05 -5.121248614159412682e-05 -8.535263623343780637e-05
1.215000000000000000e+03 3.250654983520507812e+01 -4.254457950592041016e+00 -7.663268446922302246e-01 3.608526196330785751e-03 -2.288154810667037964e-01 2.385794818401336670e-01
1.216000000000000000e+03 3.546476364135742188e+01 -4.857262134552001953e+00 -1.069033026695251465e+00 7.520750630646944046e-03 -3.184536993503570557e-01 1.819004416465759277e-01
1.217000000000000000e+03 3.400701522827148438e+01 -2.872371196746826172e+00 -8.610028028488159180e-01 2.152211498469114304e-03 -2.576551735401153564e-01 3.618861734867095947e-01
1.218000000000000000e+03 3.399283599853515625e+01 -4.220547676086425781e+00 -9.016848802566528320e-01 6.428590975701808929e-03 -2.685768902301788330e-01 2.452763617038726807e-01
1.219000000000000000e+03 4.373207092285156250e+01 -8.349867820739746094e+00 -1.886664390563964844e+00 -6.041312124580144882e-03 -5.678117275238037109e-01 -2.187584042549133301e-01
1.220000000000000000e+03 4.515741729736328125e+01 -9.039549827575683594e+00 -1.878718137741088867e+00 -9.448595345020294189e-03 -5.664499998092651367e-01 -2.831341624259948730e-01
1.221000000000000000e+03 4.510428237915039062e+01 -9.753642082214355469e+00 -1.739828705787658691e+00 -1.239962317049503326e-02 -5.256685018539428711e-01 -3.351296186447143555e-01
1.222000000000000000e+03 4.441065597534179688e+01 -9.056473731994628906e+00 -1.818275332450866699e+00 -9.386587888002395630e-03 -5.482985973358154297e-01 -2.798611819744110107e-01
1.223000000000000000e+03 4.739599227905273438e+01 -9.002581596374511719e+00 -2.063365697860717773e+00 -5.070541054010391235e-03 -6.205308437347412109e-01 -2.909773886203765869e-01
1.224000000000000000e+03 4.285734558105468750e+01 -9.827866554260253906e+00 -1.576264142990112305e+00 -1.725732535123825073e-02 -4.780564308166503906e-01 -3.248012065887451172e-01
1.225000000000000000e+03 4.073972702026367188e+01 -8.415704727172851562e+00 -1.631192564964294434e+00 -8.032313548028469086e-03 -4.917674660682678223e-01 -2.072744667530059814e-01
1.226000000000000000e+03 4.204121398925781250e+01 -1.058819293975830078e+01 -1.406416416168212891e+00 -2.284846641123294830e-02 -4.287794530391693115e-01 -3.665487170219421387e-01
1.227000000000000000e+03 4.141547775268554688e+01 -9.125678062438964844e+00 -1.582642555236816406e+00 -1.225634198635816574e-02 -4.784696698188781738e-01 -2.655086517333984375e-01
1.228000000000000000e+03 4.957890701293945312e+01 -9.705742835998535156e+00 -2.052824258804321289e+00 -5.269637331366539001e-03 -6.174281239509582520e-01 -3.482197225093841553e-01
1.229000000000000000e+03 4.821757888793945312e+01 -8.283121109008789062e+00 -2.300581932067871094e+00 -2.213668776676058769e-03 -6.908386349678039551e-01 -2.312998026609420776e-01
1.230000000000000000e+03 4.896583175659179688e+01 -8.276164054870605469e+00 -2.373236656188964844e+00 -2.551544224843382835e-03 -7.127364277839660645e-01 -2.331146299839019775e-01
1.231000000000000000e+03 4.964032745361328125e+01 -8.986503601074218750e+00 -2.247848749160766602e+00 -4.500747192651033401e-03 -6.757048368453979492e-01 -2.969901263713836670e-01
1.232000000000000000e+03 4.814611053466796875e+01 -8.996630668640136719e+00 -2.125427007675170898e+00 -5.366635043174028397e-03 -6.392380595207214355e-01 -2.931132614612579346e-01
1.233000000000000000e+03 4.066664123535156250e+01 -9.141801834106445312e+00 -1.526075720787048340e+00 -1.363326236605644226e-02 -4.619126915931701660e-01 -2.616653442382812500e-01
1.234000000000000000e+03 4.134668731689453125e+01 -9.857517242431640625e+00 -1.471958994865417480e+00 -1.822760701179504395e-02 -4.470559656620025635e-01 -3.158141374588012695e-01
1.235000000000000000e+03 3.991831207275390625e+01 -9.158859252929687500e+00 -1.469900131225585938e+00 -1.342507917433977127e-02 -4.449975788593292236e-01 -2.578771412372589111e-01
1.236000000000000000e+03 3.842396163940429688e+01 -9.196020126342773438e+00 -1.359685540199279785e+00 -1.550048310309648514e-02 -4.125558137893676758e-01 -2.496737390756607056e-01
1.237000000000000000e+03 5.120859527587890625e+01 -8.259347915649414062e+00 -2.590393066406250000e+00 -1.297623501159250736e-03 -7.775072455406188965e-01 -2.373708635568618774e-01
1.238000000000000000e+03 5.256154632568359375e+01 -9.676321029663085938e+00 -2.241356134414672852e+00 -4.566302814055234194e-04 -6.725438237190246582e-01 -3.456562459468841553e-01
1.239000000000000000e+03 5.038700103759765625e+01 -8.981193542480468750e+00 -2.308179140090942383e+00 -3.294902620837092400e-03 -6.934421658515930176e-01 -2.978671193122863770e-01
1.240000000000000000e+03 5.337173843383789062e+01 -8.956804275512695312e+00 -2.541311979293823242e+00 3.973367274738848209e-04 -7.622743844985961914e-01 -2.986786365509033203e-01
1.241000000000000000e+03 5.776706314086914062e+01 -9.613326072692871094e+00 -2.444587230682373047e+00 3.159114718437194824e-02 -7.238988280296325684e-01 -2.669267058372497559e-01
1.242000000000000000e+03 5.635941314697265625e+01 -8.937376022338867188e+00 -2.736377477645874023e+00 9.610173292458057404e-03 -8.180301785469055176e-01 -2.782441079616546631e-01
1.243000000000000000e+03 5.785223388671875000e+01 -8.925046920776367188e+00 -2.802715301513671875e+00 1.687896996736526489e-02 -8.357509374618530273e-01 -2.544291615486145020e-01
1.244000000000000000e+03 5.719469833374023438e+01 -8.236064910888671875e+00 -3.133594989776611328e+00 5.424424074590206146e-03 -9.384511709213256836e-01 -2.274448424577713013e-01
1.245000000000000000e+03 5.934592819213867188e+01 -8.908747673034667969e+00 -2.834494113922119141e+00 2.868327498435974121e-02 -8.417432308197021484e-01 -2.149900943040847778e-01
1.246000000000000000e+03 5.710560226440429688e+01 -8.931298255920410156e+00 -2.773030757904052734e+00 1.008581835776567459e-02 -8.288834691047668457e-01 -2.688298225402832031e-01
1.247000000000000000e+03 3.548362350463867188e+01 -4.177511692047119141e+00 -1.042343020439147949e+00 7.686492986977100372e-03 -3.103969693183898926e-01 2.507645189762115479e-01
1.248000000000000000e+03 3.549205780029296875e+01 -3.497062683105468750e+00 -1.011710166931152344e+00 6.922728847712278366e-03 -3.014362156391143799e-01 3.139699697494506836e-01
1.249000000000000000e+03 3.623184204101562500e+01 -4.154155731201171875e+00 -1.114186763763427734e+00 7.668674923479557037e-03 -3.319554328918457031e-01 2.530947029590606689e-01
1.250000000000000000e+03 6.009302520751953125e+01 -8.897193908691406250e+00 -2.833909273147583008e+00 3.404068946838378906e-02 -8.399605751037597656e-01 -1.877264529466629028e-01
1.251000000000000000e+03 6.084037399291992188e+01 -8.883806228637695312e+00 -2.815553426742553711e+00 4.852917790412902832e-02 -8.301072716712951660e-01 -1.514375507831573486e-01
1.252000000000000000e+03 6.307900619506835938e+01 -8.827689170837402344e+00 -2.632846355438232422e+00 1.073209717869758606e-01 -7.576575875282287598e-01 2.575016394257545471e-02
1.253000000000000000e+03 6.395020294189453125e+01 -4.613474369049072266e+00 -3.212923765182495117e+00 6.680405884981155396e-02 -9.438359141349792480e-01 -2.400251291692256927e-02
1.254000000000000000e+03 6.316618347167968750e+01 -4.032719135284423828e+00 -2.774236917495727539e+00 9.390009194612503052e-02 -8.041010499000549316e-01 -4.604639858007431030e-02
1.255000000000000000e+03 6.386398696899414062e+01 -4.047925472259521484e+00 -2.638592720031738281e+00 1.363928616046905518e-01 -7.506599426269531250e-01 -1.378351897001266479e-01
1.256000000000000000e+03 6.520124053955078125e+01 -3.973168611526489258e+00 -2.109071493148803711e+00 2.685073614120483398e-01 -5.521692633628845215e-01 -4.688090384006500244e-01
1.257000000000000000e+03 6.454963684082031250e+01 -4.034174442291259766e+00 -2.426874399185180664e+00 2.091161906719207764e-01 -6.653274297714233398e-01 -2.772168517112731934e-01
1.258000000000000000e+03 6.392945480346679688e+01 -8.192685127258300781e+00 -3.118532657623291016e+00 6.989695131778717041e-02 -9.145907163619995117e-01 7.361738942563533783e-03
1.259000000000000000e+03 6.381664657592773438e+01 -8.804081916809082031e+00 -2.504651069641113281e+00 1.453888565301895142e-01 -7.077786922454833984e-01 1.248642206192016602e-01
1.260000000000000000e+03 6.224592208862304688e+01 -9.498464584350585938e+00 -2.230303287506103516e+00 1.498944014310836792e-01 -6.241226792335510254e-01 3.427762165665626526e-02
1.261000000000000000e+03 6.454147338867187500e+01 -8.782843589782714844e+00 -2.323100328445434570e+00 1.950559467077255249e-01 -6.384133100509643555e-01 2.529237270355224609e-01
1.262000000000000000e+03 6.524532318115234375e+01 -8.772224426269531250e+00 -2.072888135910034180e+00 2.717089653015136719e-01 -5.403537154197692871e-01 4.259380102157592773e-01
1.263000000000000000e+03 6.591386413574218750e+01 -8.790355682373046875e+00 -1.677733540534973145e+00 3.978518545627593994e-01 -3.839645087718963623e-01 6.963837742805480957e-01
1.264000000000000000e+03 6.649801635742187500e+01 -8.868385314941406250e+00 -1.224490642547607422e+00 6.768659353256225586e-01 -1.642874032258987427e-01 1.100719451904296875e+00
1.265000000000000000e+03 6.732122802734375000e+01 -8.505397796630859375e+00 -1.109062075614929199e+00 7.828311920166015625e-01 -9.786926209926605225e-02 1.318083882331848145e+00
1.266000000000000000e+03 6.898049926757812500e+01 -8.295312881469726562e+00 6.640817523002624512e-01 2.583700418472290039e+00 9.743346571922302246e-01 3.473475694656372070e+00
1.267000000000000000e+03 6.804734039306640625e+01 -8.720549583435058594e+00 -1.496072411537170410e-01 1.744571208953857422e+00 4.784891903400421143e-01 2.329425573348999023e+00
1.268000000000000000e+03 6.171503829956054688e+01 -4.001169204711914062e+00 -2.936723709106445312e+00 6.116428226232528687e-02 -8.626678586006164551e-01 7.966059446334838867e-02
1.269000000000000000e+03 6.024562454223632812e+01 -3.966059207916259766e+00 -3.001528024673461914e+00 3.646844625473022461e-02 -8.895178437232971191e-01 1.569268852472305298e-01
1.270000000000000000e+03 5.951082992553710938e+01 -3.942206144332885742e+00 -3.002086639404296875e+00 2.196195349097251892e-02 -8.940373659133911133e-01 1.869609355926513672e-01
1.271000000000000000e+03 3.692934799194335938e+01 -9.239365577697753906e+00 -1.252017855644226074e+00 -1.825971715152263641e-02 -3.810832500457763672e-01 -2.407761663198471069e-01
1.272000000000000000e+03 3.835976409912109375e+01 -9.914108276367187500e+00 -1.269729495048522949e+00 -2.188980206847190857e-02 -3.874857723712921143e-01 -2.976029813289642334e-01
1.273000000000000000e+03 3.543350601196289062e+01 -9.285168647766113281e+00 -1.147216916084289551e+00 -2.055000700056552887e-02 -3.503300845623016357e-01 -2.314015179872512817e-01
1.274000000000000000e+03 5.653220748901367188e+01 -3.882687568664550781e+00 -2.911350488662719727e+00 2.206990495324134827e-03 -8.727430701255798340e-01 2.479230463504791260e-01
1.275000000000000000e+03 5.800154113769531250e+01 -4.560447692871093750e+00 -3.340986013412475586e+00 2.404581522569060326e-03 -1.001574397087097168e+00 2.004594653844833374e-01
1.276000000000000000e+03 5.725279617309570312e+01 -4.556324481964111328e+00 -3.293817758560180664e+00 -9.873803937807679176e-04 -9.884415268898010254e-01 2.060709148645401001e-01
1.277000000000000000e+03 5.730308151245117188e+01 -3.223615646362304688e+00 -2.605802297592163086e+00 1.944086514413356781e-02 -7.759084105491638184e-01 2.492375075817108154e-01
1.278000000000000000e+03 5.802610015869140625e+01 -3.903621435165405273e+00 -2.972530126571655273e+00 1.096762809902429581e-02 -8.884687423706054688e-01 2.238223403692245483e-01
1.279000000000000000e+03 5.428384399414062500e+01 -3.874878168106079102e+00 -2.785264015197753906e+00 -1.286215381696820259e-03 -8.359650969505310059e-01 2.668281793594360352e-01
1.280000000000000000e+03 5.503365325927734375e+01 -3.875687360763549805e+00 -2.831768274307250977e+00 -8.189670625142753124e-04 -8.497761487960815430e-01 2.622491717338562012e-01
1.281000000000000000e+03 5.578321075439453125e+01 -3.877764701843261719e+00 -2.874737739562988281e+00 1.540555153042078018e-03 -8.619591593742370605e-01 2.556847333908081055e-01
1.282000000000000000e+03 4.827017593383789062e+01 -3.902008295059204102e+00 -2.295942544937133789e+00 -5.251329392194747925e-03 -6.903581619262695312e-01 2.758151590824127197e-01
1.283000000000000000e+03 4.899235916137695312e+01 -4.577417373657226562e+00 -2.542865276336669922e+00 -5.054089240729808807e-03 -7.643758058547973633e-01 2.083568423986434937e-01
1.284000000000000000e+03 5.127669143676757812e+01 -3.881742238998413086e+00 -2.559640645980834961e+00 -5.566731095314025879e-03 -7.695622444152832031e-01 2.761619389057159424e-01
1.285000000000000000e+03 5.202720260620117188e+01 -3.879552125930786133e+00 -2.620603322982788086e+00 -5.068139638751745224e-03 -7.877014875411987305e-01 2.754742801189422607e-01
1.286000000000000000e+03 5.277949142456054688e+01 -3.877239227294921875e+00 -2.678886651992797852e+00 -3.725966671481728554e-03 -8.047837615013122559e-01 2.732823789119720459e-01
1.287000000000000000e+03 4.071746826171875000e+01 -4.712355613708496094e+00 -1.637324333190917969e+00 2.670374931767582893e-03 -4.903962016105651855e-01 1.892658770084381104e-01
1.288000000000000000e+03 3.773156356811523438e+01 -4.108261108398437500e+00 -1.260625720024108887e+00 6.783075630664825439e-03 -3.761527836322784424e-01 2.572656869888305664e-01
1.289000000000000000e+03 4.146958541870117188e+01 -4.694704532623291016e+00 -1.721226692199707031e+00 2.266003284603357315e-03 -5.156882405281066895e-01 1.905502229928970337e-01
1.290000000000000000e+03 3.998671722412109375e+01 -4.047555923461914062e+00 -1.484982252120971680e+00 4.345935769379138947e-03 -4.441908895969390869e-01 2.620507478713989258e-01
1.291000000000000000e+03 3.848306274414062500e+01 -4.086846351623535156e+00 -1.335113644599914551e+00 6.018512882292270660e-03 -3.987285494804382324e-01 2.589319348335266113e-01
1.292000000000000000e+03 4.751710510253906250e+01 -3.909775018692016602e+00 -2.226008653640747070e+00 -5.044770892709493637e-03 -6.693159937858581543e-01 2.747290134429931641e-01
1.293000000000000000e+03 4.977324295043945312e+01 -3.888935804367065430e+00 -2.430971145629882812e+00 -6.091952789574861526e-03 -7.311189174652099609e-01 2.767147123813629150e-01
1.294000000000000000e+03 4.375150299072265625e+01 -3.963804006576538086e+00 -1.861147046089172363e+00 -6.597505416721105576e-04 -5.585420727729797363e-01 2.688382267951965332e-01
1.295000000000000000e+03 3.923488235473632812e+01 -4.066685199737548828e+00 -1.409788966178894043e+00 5.258511751890182495e-03 -4.213591516017913818e-01 2.606540918350219727e-01
1.296000000000000000e+03 4.224608230590820312e+01 -3.994581937789916992e+00 -1.711442351341247559e+00 1.517590950243175030e-03 -5.129774212837219238e-01 2.660693228244781494e-01
1.297000000000000000e+03 4.299918365478515625e+01 -3.978872299194335938e+00 -1.786564588546752930e+00 3.840067947749048471e-04 -5.358541607856750488e-01 2.674906253814697266e-01
1.298000000000000000e+03 4.525841522216796875e+01 -3.939147472381591797e+00 -2.009510278701782227e+00 -2.519179368391633034e-03 -6.036088466644287109e-01 2.715223133563995361e-01
1.299000000000000000e+03 4.676319122314453125e+01 -3.918619871139526367e+00 -2.154673814773559570e+00 -4.109951201826334000e-03 -6.476351618766784668e-01 2.739484310150146484e-01
1.300000000000000000e+03 4.450489425659179688e+01 -3.950475215911865234e+00 -1.935534000396728516e+00 -1.907954690977931023e-03 -5.812326073646545410e-01 2.700141668319702148e-01
1.301000000000000000e+03 3.323561096191406250e+01 -8.617365837097167969e+00 -1.054902791976928711e+00 -1.545092090964317322e-02 -3.211061060428619385e-01 -1.675346791744232178e-01
1.302000000000000000e+03 3.618113327026367188e+01 -9.262347221374511719e+00 -1.199704647064208984e+00 -1.967054978013038635e-02 -3.658125698566436768e-01 -2.369110137224197388e-01
1.303000000000000000e+03 3.172013282775878906e+01 -8.649256706237792969e+00 -9.469751119613647461e-01 -1.460609212517738342e-02 -2.884743511676788330e-01 -1.581131964921951294e-01
1.304000000000000000e+03 3.316329956054687500e+01 -9.347895622253417969e+00 -9.938131570816040039e-01 -2.144295722246170044e-02 -3.045768141746520996e-01 -2.167465835809707642e-01
1.305000000000000000e+03 3.468075561523437500e+01 -9.307061195373535156e+00 -1.096350193023681641e+00 -2.122109010815620422e-02 -3.352713882923126221e-01 -2.269661128520965576e-01
1.306000000000000000e+03 3.392326736450195312e+01 -9.327590942382812500e+00 -1.044254064559936523e+00 -2.143308520317077637e-02 -3.197061419486999512e-01 -2.214240282773971558e-01
1.307000000000000000e+03 8.792312622070312500e+00 2.602651834487915039e+00 -7.644996367162093520e-05 2.286295639351010323e-04 4.565388371702283621e-05 3.504560736473649740e-04
1.308000000000000000e+03 1.359400272369384766e+01 3.914339542388916016e+00 3.764966095332056284e-04 -3.348987374920397997e-04 1.247936506842961535e-05 2.656865108292549849e-04
1.309000000000000000e+03 1.257131671905517578e+01 2.528237342834472656e+00 -1.656370732234790921e-04 9.582264465279877186e-05 -2.094432784360833466e-05 -1.032636719173751771e-04
1.310000000000000000e+03 1.104926300048828125e+01 2.582936286926269531e+00 -2.115898823831230402e-04 1.218616398546146229e-05 -5.982111542834900320e-05 -3.899153962265700102e-04
1.311000000000000000e+03 2.867611122131347656e+01 -8.664552688598632812e+00 -7.319065928459167480e-01 -1.075980067253112793e-02 -2.227999120950698853e-01 -1.399568170309066772e-01
1.312000000000000000e+03 3.010446929931640625e+01 -9.402712821960449219e+00 -7.938309907913208008e-01 -1.807049475610256195e-02 -2.435704469680786133e-01 -1.974901556968688965e-01
1.313000000000000000e+03 3.086680412292480469e+01 -9.396143913269042969e+00 -8.422427773475646973e-01 -1.934217102825641632e-02 -2.584754824638366699e-01 -2.017313539981842041e-01
1.314000000000000000e+03 3.163380432128906250e+01 -9.385650634765625000e+00 -8.924710750579833984e-01 -2.041192539036273956e-02 -2.738648951053619385e-01 -2.068554610013961792e-01
1.315000000000000000e+03 8.076109886169433594e+00 -1.854256868362426758e+00 2.172524182242341340e-05 1.107394782593473792e-04 3.973941420554183424e-05 1.010525083984248340e-04
1.316000000000000000e+03 1.253841018676757812e+01 -3.697241067886352539e+00 1.461179344914853573e-04 8.288254321087151766e-05 6.870014476589858532e-05 -1.303762564930366352e-05
1.317000000000000000e+03 7.403972148895263672e+00 -2.601071119308471680e+00 2.715957089094445109e-05 1.084406758309341967e-04 4.068007547175511718e-05 1.123637557611800730e-04
1.318000000000000000e+03 1.176274204254150391e+01 -5.618850708007812500e+00 1.280136930290609598e-04 -4.822349728783592582e-05 2.393705835856962949e-05 1.652923492656555027e-05
1.319000000000000000e+03 7.247838973999023438e+00 -4.913630962371826172e+00 -1.903280208352953196e-04 2.650387759786099195e-04 2.241322727059014142e-05 -2.731771382968872786e-05
1.320000000000000000e+03 6.562134742736816406e+00 -1.868563532829284668e+00 -2.116482392011675984e-05 1.079996291082352400e-04 2.605044028314296156e-05 1.020653289742767811e-04
1.321000000000000000e+03 6.658133506774902344e+00 -2.605912685394287109e+00 -3.400525019969791174e-05 -9.340779070043936372e-05 -3.822391227004118264e-05 -1.033156731864437461e-04
1.322000000000000000e+03 5.182702064514160156e+00 -2.696714639663696289e+00 -2.471051629981957376e-05 -8.832839375827461481e-05 -3.391167047084309161e-05 -1.593031047377735376e-04
1.323000000000000000e+03 1.605413317680358887e+00 -7.871563434600830078e+00 -3.169179253745824099e-04 3.820469828497152776e-06 -9.392923675477504730e-05 -9.082572796614840627e-05
1.324000000000000000e+03 3.959612846374511719e+00 -3.773709774017333984e+00 9.496948041487485170e-05 7.845524669392034411e-05 5.202741886023432016e-05 1.480625069234520197e-04
1.325000000000000000e+03 1.562924504280090332e+00 -6.552321910858154297e+00 3.600695927161723375e-04 -4.706460458692163229e-05 9.390150080434978008e-05 8.231859828811138868e-05
1.326000000000000000e+03 4.951800107955932617e-01 -3.598320007324218750e+00 -2.012845507124438882e-04 -5.766730828327126801e-05 -7.768555951770395041e-05 -6.685557309538125992e-05
1.327000000000000000e+03 4.009375870227813721e-01 -2.190479993820190430e+00 1.426654198439791799e-04 -1.031583087751641870e-05 3.970487523474730551e-05 2.876105463656131178e-05
1.328000000000000000e+03 5.461620092391967773e-01 -5.047550201416015625e+00 2.871627802960574627e-04 -1.164690766017884016e-04 5.120810601511038840e-05 3.010058753716293722e-05
1.329000000000000000e+03 2.559253883361816406e+01 -8.571146965026855469e+00 -5.150727629661560059e-01 -3.818794793915003538e-04 -1.546363979578018188e-01 -1.249044388532638550e-01
1.330000000000000000e+03 2.703097724914550781e+01 -9.374299049377441406e+00 -5.990129113197326660e-01 -8.230096660554409027e-03 -1.821728944778442383e-01 -1.813131272792816162e-01
1.331000000000000000e+03 2.858108901977539062e+01 -9.399428367614746094e+00 -6.966324448585510254e-01 -1.419715397059917450e-02 -2.132488787174224854e-01 -1.888730227947235107e-01
1.332000000000000000e+03 2.625164222717285156e+01 -9.350761413574218750e+00 -5.508881211280822754e-01 -4.564547445625066757e-03 -1.666357964277267456e-01 -1.768899708986282349e-01
1.333000000000000000e+03 2.170149040222167969e+01 -8.169843673706054688e+00 -2.514758408069610596e-01 9.300480596721172333e-03 -7.265260815620422363e-02 -9.852082282304763794e-02
1.334000000000000000e+03 2.314438629150390625e+01 -9.073796272277832031e+00 -3.671227097511291504e-01 7.995353080332279205e-03 -1.077382117509841919e-01 -1.536462604999542236e-01
1.335000000000000000e+03 1.981103515625000000e+01 -1.022812652587890625e+01 -2.503649592399597168e-01 -2.866887487471103668e-02 -8.371014893054962158e-02 -1.831376850605010986e-01
1.336000000000000000e+03 2.069713020324707031e+01 -8.783431053161621094e+00 -2.300481051206588745e-01 -1.412586774677038193e-03 -6.943820416927337646e-02 -1.267301440238952637e-01
1.337000000000000000e+03 2.481731986999511719e+01 -8.508898735046386719e+00 -4.619551301002502441e-01 3.273140639066696167e-03 -1.376045942306518555e-01 -1.209163144230842590e-01
1.338000000000000000e+03 2.468982696533203125e+01 -9.245408058166503906e+00 -4.577075839042663574e-01 3.035732544958591461e-03 -1.364015489816665649e-01 -1.671973615884780884e-01
1.339000000000000000e+03 2.391811943054199219e+01 -9.163115501403808594e+00 -4.134231209754943848e-01 6.211041938513517380e-03 -1.221636235713958740e-01 -1.610271334648132324e-01
1.340000000000000000e+03 2.172426223754882812e+01 -3.751259088516235352e+00 -6.975362449884414673e-02 -5.333285778760910034e-02 -3.692594543099403381e-02 7.291962206363677979e-02
1.341000000000000000e+03 2.038828659057617188e+01 -3.345160245895385742e+00 -2.817903272807598114e-02 -4.462332651019096375e-02 -2.184070833027362823e-02 3.391843289136886597e-02
1.342000000000000000e+03 1.254482555389404297e+01 -1.953756332397460938e+01 -2.136141210794448853e-01 -2.867824435234069824e-01 -1.501189768314361572e-01 -2.131482660770416260e-01
1.343000000000000000e+03 3.603466033935546875e+00 -1.963410758972167969e+01 -3.616756200790405273e-02 -3.865767270326614380e-02 -2.244757115840911865e-02 -3.912823274731636047e-02
1.344000000000000000e+03 1.254911994934082031e+01 1.976018714904785156e+01 -5.532574653625488281e-01 -8.089280128479003906e-01 -4.086556434631347656e-01 5.831028223037719727e-01
1.345000000000000000e+03 8.729816436767578125e+00 2.017315864562988281e+01 -4.720425903797149658e-01 -1.541227549314498901e-01 -1.878495961427688599e-01 3.748612403869628906e-01
1.346000000000000000e+03 1.940565109252929688e+01 8.225315093994140625e+00 -2.550244927406311035e-01 -1.063782215118408203e+00 -3.956420123577117920e-01 5.103255510330200195e-01
1.347000000000000000e+03 1.911101531982421875e+01 9.619460105895996094e+00 -3.620795011520385742e-01 -1.171681642532348633e+00 -4.601283371448516846e-01 5.836759209632873535e-01
1.348000000000000000e+03 1.380531883239746094e+01 1.876226615905761719e+01 -6.916968226432800293e-01 -9.485154747962951660e-01 -4.920636713504791260e-01 6.634110212326049805e-01
1.349000000000000000e+03 1.406505489349365234e+01 1.659685516357421875e+01 -1.041124701499938965e+00 -1.154384970664978027e+00 -6.586529016494750977e-01 1.012782931327819824e+00
1.350000000000000000e+03 1.715102767944335938e+01 1.180816555023193359e+01 -4.309959113597869873e-01 -1.648772954940795898e+00 -6.239306926727294922e-01 7.845393419265747070e-01
1.351000000000000000e+03 1.726470184326171875e+01 1.541776466369628906e+01 -6.849337816238403320e-01 -1.196918964385986328e+00 -5.645558238029479980e-01 6.843711137771606445e-01
1.352000000000000000e+03 2.031012725830078125e+01 2.408719062805175781e+00 -7.041309028863906860e-02 -4.110702872276306152e-01 -1.444450169801712036e-01 2.432160526514053345e-01
1.353000000000000000e+03 6.249771714210510254e-01 1.622571182250976562e+01 1.700973021797835827e-03 3.078358434140682220e-02 9.745366871356964111e-03 -6.549953948706388474e-03
1.354000000000000000e+03 1.968565940856933594e+01 6.830941677093505859e+00 -1.712978482246398926e-01 -8.997728228569030762e-01 -3.213211894035339355e-01 4.179312288761138916e-01
1.355000000000000000e+03 1.835243797302246094e+01 1.243486213684082031e+01 -5.103281736373901367e-01 -1.312866926193237305e+00 -5.469585657119750977e-01 7.049317359924316406e-01
1.356000000000000000e+03 1.502468776702880859e+01 1.779347991943359375e+01 -6.930271983146667480e-01 -1.109717369079589844e+00 -5.408233404159545898e-01 7.068229317665100098e-01
1.357000000000000000e+03 1.894785499572753906e+01 8.355572223663330078e-01 -1.032352447509765625e-02 -2.142512947320938110e-01 -6.737244129180908203e-02 5.795668065547943115e-02
1.358000000000000000e+03 2.010241699218750000e+01 9.582893848419189453e-01 -3.838249668478965759e-02 -2.745549976825714111e-01 -9.388124942779541016e-02 1.566022336483001709e-01
1.359000000000000000e+03 1.786458206176757812e+01 1.387621879577636719e+01 -6.339589357376098633e-01 -1.276732444763183594e+00 -5.732074379920959473e-01 7.520225048065185547e-01
1.360000000000000000e+03 2.214221382141113281e+01 -1.840813398361206055e+00 -1.012592986226081848e-01 -1.350369453430175781e-01 -7.088886946439743042e-02 1.639829576015472412e-01
1.361000000000000000e+03 1.891480064392089844e+01 -1.768521547317504883e+00 -4.220334347337484360e-03 -3.613956645131111145e-02 -1.210797019302845001e-02 1.988941803574562073e-02
1.362000000000000000e+03 2.909837245941162109e+00 -1.694235229492187500e+01 -4.539838992059230804e-03 -1.044796779751777649e-02 -4.496342036873102188e-03 4.101674538105726242e-03
1.363000000000000000e+03 5.881191492080688477e-01 -1.765643692016601562e+01 -1.672864658758044243e-03 2.452683448791503906e-02 6.856190972030162811e-03 2.636917401105165482e-03
1.364000000000000000e+03 1.276820945739746094e+01 -1.800020599365234375e+01 -3.121013939380645752e-01 -2.741031050682067871e-01 -1.758613437414169312e-01 -2.488208413124084473e-01
1.365000000000000000e+03 1.025581359863281250e+01 -2.524711132049560547e+00 -2.472639607731252909e-06 1.603344135219231248e-04 4.735853144666180015e-05 9.697926725493744016e-05
1.366000000000000000e+03 1.645388984680175781e+01 -1.033837318420410156e+01 -1.062704175710678101e-01 -1.681104600429534912e-01 -8.231426775455474854e-02 -1.377648264169692993e-01
1.367000000000000000e+03 1.727475738525390625e+01 -1.096785926818847656e+01 -1.838622689247131348e-01 -1.279257386922836304e-01 -9.353639930486679077e-02 -1.840149760246276855e-01
1.368000000000000000e+03 1.578104496002197266e+01 -1.151485729217529297e+01 -1.513993293046951294e-01 -2.475916296243667603e-01 -1.196972876787185669e-01 -1.926503032445907593e-01
1.369000000000000000e+03 2.151768112182617188e+01 -8.939928054809570312e+00 -2.774614095687866211e-01 5.836195312440395355e-03 -8.148756623268127441e-02 -1.404317617416381836e-01
1.370000000000000000e+03 1.360498619079589844e+01 -1.691932868957519531e+01 -3.233471810817718506e-01 -2.712016403675079346e-01 -1.783646494150161743e-01 -2.820752263069152832e-01
1.371000000000000000e+03 1.668988418579101562e+01 -1.211035633087158203e+01 -2.243852764368057251e-01 -1.713730841875076294e-01 -1.187275052070617676e-01 -2.197438478469848633e-01
1.372000000000000000e+03 1.363917446136474609e+01 -3.804427146911621094e+00 -2.087933535221964121e-04 -8.766791142988950014e-05 -8.893838094081729650e-05 1.946908560057636350e-05
1.373000000000000000e+03 1.606116676330566406e+01 -1.331974887847900391e+01 -2.663121223449707031e-01 -2.109984606504440308e-01 -1.431931704282760620e-01 -2.459217905998229980e-01
1.374000000000000000e+03 1.535990619659423828e+01 -1.456790351867675781e+01 -2.859713435173034668e-01 -2.423467040061950684e-01 -1.584954112768173218e-01 -2.582083344459533691e-01
1.375000000000000000e+03 1.047220897674560547e+01 -9.211035728454589844e+00 3.062661198782734573e-05 -1.832445268519222736e-04 -4.578537482302635908e-05 -1.985303970286622643e-05
1.376000000000000000e+03 1.332826614379882812e+01 -2.566939353942871094e+00 5.372220766730606556e-05 4.070484646945260465e-05 2.832811696862336248e-05 4.374772470328025520e-05
1.377000000000000000e+03 9.502170562744140625e+00 -8.702815055847167969e+00 -5.863219848833978176e-05 2.776185865513980389e-04 6.569591641891747713e-05 -1.578432857058942318e-04
1.378000000000000000e+03 1.110891342163085938e+01 -6.620863437652587891e+00 -8.836238703224807978e-05 2.722428689594380558e-05 -1.834143040468916297e-05 -5.331715874490328133e-05
1.379000000000000000e+03 1.034871196746826172e+01 -7.644311904907226562e+00 1.152515324065461755e-04 -2.311052521690726280e-04 -3.475611447356641293e-05 9.383743599755689502e-05
1.380000000000000000e+03 1.736724138259887695e+00 -1.057453632354736328e+01 -5.868296284461393952e-06 3.066320496145635843e-04 9.022912854561582208e-05 6.172741996124386787e-04
1.381000000000000000e+03 8.147220611572265625e+00 -1.267852020263671875e+01 6.488838116638362408e-04 1.502059632912278175e-03 6.452830275520682335e-04 -9.503493783995509148e-04
1.382000000000000000e+03 1.042638111114501953e+01 -4.062447547912597656e+00 -2.205392411269713193e-05 3.132440542685799301e-05 2.781144758046139032e-06 -3.728373485500924289e-05
1.383000000000000000e+03 7.779647064208984375e+01 3.309298324584960938e+01 1.448972802609205246e-02 6.351069927215576172e+00 1.909667968750000000e+00 -8.629509061574935913e-02
1.384000000000000000e+03 7.917368316650390625e+01 3.606214523315429688e+01 -1.152320951223373413e-02 6.426929473876953125e+00 1.924621939659118652e+00 -3.731587529182434082e-02
1.385000000000000000e+03 7.935877990722656250e+01 -2.781746482849121094e+01 5.440072272904217243e-04 8.588728904724121094e+00 2.576781988143920898e+00 7.906759530305862427e-02
1.386000000000000000e+03 7.731094360351562500e+01 -3.788769149780273438e+01 -8.710508234798908234e-03 7.302836894989013672e+00 2.188237905502319336e+00 1.544157415628433228e-01
1.387000000000000000e+03 7.936449432373046875e+01 -3.475590133666992188e+01 -1.113634649664163589e-02 7.854290962219238281e+00 2.352946281433105469e+00 5.458885803818702698e-02
1.388000000000000000e+03 7.942999267578125000e+01 -2.090980529785156250e+01 -4.629895556718111038e-03 9.533537864685058594e+00 2.858672380447387695e+00 4.345318302512168884e-02
1.389000000000000000e+03 7.807250213623046875e+01 -2.770113372802734375e+01 7.092811167240142822e-03 8.221999168395996094e+00 2.468727588653564453e+00 2.401923388242721558e-01
1.390000000000000000e+03 7.815425872802734375e+01 -2.633684730529785156e+01 6.872658850625157356e-04 8.404063224792480469e+00 2.521425247192382812e+00 2.362077683210372925e-01
1.391000000000000000e+03 7.932831573486328125e+01 -3.059001350402832031e+01 9.092089720070362091e-03 8.243631362915039062e+00 2.475816965103149414e+00 6.726762652397155762e-02
1.392000000000000000e+03 7.808916473388671875e+01 -3.463220214843750000e+01 1.765734888613224030e-02 7.608677864074707031e+00 2.287900447845458984e+00 1.335990577936172485e-01
1.393000000000000000e+03 7.805176544189453125e+01 -3.327558135986328125e+01 2.622942673042416573e-03 7.678928852081298828e+00 2.304465532302856445e+00 1.635871529579162598e-01
1.394000000000000000e+03 7.644120788574218750e+01 -3.904363250732421875e+01 3.097985684871673584e-02 7.235282421112060547e+00 2.179878711700439453e+00 1.161916404962539673e-01
1.395000000000000000e+03 7.808978271484375000e+01 1.396839046478271484e+01 2.500463044270873070e-03 8.166191101074218750e+00 2.450607538223266602e+00 -2.840101420879364014e-01
1.396000000000000000e+03 7.936132049560546875e+01 1.533879947662353516e+01 1.696574501693248749e-03 8.343795776367187500e+00 2.503647565841674805e+00 -9.057854861021041870e-02
1.397000000000000000e+03 7.800967407226562500e+01 2.093541717529296875e+01 1.191997341811656952e-02 7.272754192352294922e+00 2.185402393341064453e+00 -2.245617955923080444e-01
1.398000000000000000e+03 7.934194183349609375e+01 2.230690193176269531e+01 3.833663184195756912e-03 7.393590450286865234e+00 2.219227313995361328e+00 -6.811597943305969238e-02
1.399000000000000000e+03 7.788318634033203125e+01 3.175299263000488281e+01 9.970381855964660645e-03 6.423111438751220703e+00 1.929924488067626953e+00 -9.775673598051071167e-02
1.400000000000000000e+03 7.810707092285156250e+01 2.776071929931640625e+01 1.418895181268453598e-02 6.681836605072021484e+00 2.008807659149169922e+00 -1.366481184959411621e-01
1.401000000000000000e+03 7.937333679199218750e+01 2.783659362792968750e+01 -3.489633963909000158e-04 6.864885807037353516e+00 2.059360980987548828e+00 -4.595445469021797180e-02
1.402000000000000000e+03 7.807668304443359375e+01 2.507785034179687500e+01 1.310438569635152817e-02 6.889617443084716797e+00 2.070816516876220703e+00 -1.706918329000473022e-01
1.403000000000000000e+03 7.803469848632812500e+01 2.371675491333007812e+01 1.328464224934577942e-02 7.002052307128906250e+00 2.104601144790649414e+00 -1.924917697906494141e-01
1.404000000000000000e+03 7.804023742675781250e+01 1.813256072998046875e+01 1.173525210469961166e-02 7.601159095764160156e+00 2.283868312835693359e+00 -2.552457749843597412e-01
1.405000000000000000e+03 7.807554626464843750e+01 1.535291957855224609e+01 5.674853455275297165e-03 7.971724987030029297e+00 2.393219947814941406e+00 -2.795406281948089600e-01
1.406000000000000000e+03 7.805879211425781250e+01 1.673982238769531250e+01 1.136282179504632950e-02 7.781692504882812500e+00 2.337916612625122070e+00 -2.693234384059906006e-01
1.407000000000000000e+03 7.684884643554687500e+01 1.120305442810058594e+01 -3.128102049231529236e-02 8.114847183227539062e+00 2.425069808959960938e+00 -4.358780384063720703e-01
1.408000000000000000e+03 7.819669342041015625e+01 8.436934471130371094e+00 -4.180461913347244263e-02 8.934247016906738281e+00 2.667732715606689453e+00 -1.941761970520019531e-01
1.409000000000000000e+03 7.938751220703125000e+01 9.778603553771972656e+00 -6.180973723530769348e-03 9.236765861511230469e+00 2.769175529479980469e+00 -7.341702282428741455e-02
1.410000000000000000e+03 7.944385528564453125e+01 -1.390518856048583984e+01 -5.269885063171386719e-02 8.752100944519042969e+00 2.609820604324340820e+00 -2.800941467285156250e-01
1.411000000000000000e+03 7.739714813232421875e+01 -7.814830780029296875e+00 8.338456749916076660e-01 7.630822181701660156e+00 2.539400339126586914e+00 -9.911054968833923340e-01
1.412000000000000000e+03 7.944795227050781250e+01 -6.830886363983154297e+00 1.066035777330398560e-01 4.087929248809814453e+00 1.258359789848327637e+00 -8.061107248067855835e-02
1.413000000000000000e+03 7.953251647949218750e+01 -2.679840803146362305e+00 -1.635537296533584595e-02 5.942134380340576172e+00 1.777733683586120605e+00 4.291669726371765137e-01
1.414000000000000000e+03 7.942665100097656250e+01 -1.952171897888183594e+01 -2.011274732649326324e-02 9.642187118530273438e+00 2.886622428894042969e+00 1.267270650714635849e-02
1.415000000000000000e+03 7.948928070068359375e+01 1.444641590118408203e+00 -2.567892521619796753e-02 8.865291595458984375e+00 2.651883840560913086e+00 2.357524335384368896e-01
1.416000000000000000e+03 7.805004882812500000e+01 2.908811378479003906e+01 1.217213179916143417e-02 6.584625244140625000e+00 1.979039192199707031e+00 -1.270407140254974365e-01
1.417000000000000000e+03 7.841647338867187500e+01 4.020587158203125000e+01 -1.597702316939830780e-02 6.224164485931396484e+00 1.862456321716308594e+00 -7.457151263952255249e-02
1.418000000000000000e+03 7.471938323974609375e+01 3.851103210449218750e+01 4.298404976725578308e-02 5.808207035064697266e+00 1.755357265472412109e+00 -6.475061923265457153e-02
1.419000000000000000e+03 7.434622955322265625e+01 3.674189758300781250e+01 4.948640614748001099e-02 5.739507675170898438e+00 1.736698269844055176e+00 -1.167450025677680969e-01
1.420000000000000000e+03 7.815573883056640625e+01 9.815706253051757812e+00 -2.674367278814315796e-02 8.755872726440429688e+00 2.618738651275634766e+00 -2.411886751651763916e-01
1.421000000000000000e+03 7.757833099365234375e+01 2.311067581176757812e-01 -3.744823038578033447e-01 8.857229232788085938e+00 2.544824123382568359e+00 1.042824149131774902e+00
1.422000000000000000e+03 7.853932189941406250e+01 1.757078021764755249e-01 -1.566043347120285034e-01 8.448923110961914062e+00 2.487695693969726562e+00 8.008104562759399414e-01
1.423000000000000000e+03 7.839276123046875000e+01 2.898439884185791016e+00 -1.474741399288177490e-01 9.108443260192871094e+00 2.688290834426879883e+00 3.427869379520416260e-01
1.424000000000000000e+03 7.860408782958984375e+01 -2.468600749969482422e+00 -1.740841008722782135e-02 7.127627372741699219e+00 2.133065700531005859e+00 1.099964141845703125e+00
1.425000000000000000e+03 7.941779327392578125e+01 -9.656068801879882812e+00 1.657595485448837280e-02 5.737214565277099609e+00 1.726137042045593262e+00 -4.899719953536987305e-01
1.426000000000000000e+03 7.837222290039062500e+01 -1.243579101562500000e+01 -1.958869546651840210e-01 8.363912582397460938e+00 2.450407743453979492e+00 -9.604308009147644043e-01
1.427000000000000000e+03 7.941570281982421875e+01 -1.672050666809082031e+01 -3.554878383874893188e-02 9.544520378112792969e+00 2.852691411972045898e+00 -1.012889295816421509e-01
1.428000000000000000e+03 7.829102325439453125e+01 -1.956889915466308594e+01 -6.146487966179847717e-02 9.184739112854003906e+00 2.736982345581054688e+00 8.738003671169281006e-02
1.429000000000000000e+03 7.539951801300048828e+00 1.987863159179687500e+01 -3.263023197650909424e-01 -4.408429190516471863e-02 -1.111159846186637878e-01 1.624274551868438721e-01
1.430000000000000000e+03 8.853124618530273438e+00 1.870228767395019531e+01 -3.611437380313873291e-01 1.452900096774101257e-02 -1.039844229817390442e-01 1.164077445864677429e-01
1.431000000000000000e+03 1.349860548973083496e+00 -4.004021453857421875e+01 3.934744745492935181e-03 -4.568634033203125000e-01 -1.358785927295684814e-01 -2.712750108912587166e-03
1.432000000000000000e+03 8.098315000534057617e-01 3.734659957885742188e+01 9.997779503464698792e-03 -7.532377839088439941e-01 -2.229720056056976318e-01 1.316247601062059402e-02
1.433000000000000000e+03 6.849809288978576660e-01 3.463640975952148438e+01 4.492233041673898697e-03 -6.670826077461242676e-01 -1.987771093845367432e-01 2.605354227125644684e-02
1.434000000000000000e+03 6.949469447135925293e-01 3.324721527099609375e+01 1.514352392405271530e-03 -6.073123812675476074e-01 -1.817394196987152100e-01 3.253450617194175720e-02
1.435000000000000000e+03 6.419968008995056152e-01 2.761762809753417969e+01 -1.352631370536983013e-03 -2.712315618991851807e-01 -8.177525550127029419e-02 4.298938810825347900e-02
1.436000000000000000e+03 6.422393918037414551e-01 2.620282745361328125e+01 -2.771745785139501095e-04 -1.782774776220321655e-01 -5.356639623641967773e-02 4.107949882745742798e-02
1.437000000000000000e+03 5.931053757667541504e-01 -3.599624252319335938e+01 7.300264551304280758e-04 -4.318402707576751709e-01 -1.293330788612365723e-01 -6.485243793576955795e-03
1.438000000000000000e+03 2.405436515808105469e+00 -3.322137832641601562e+01 1.096032094210386276e-02 -3.492469191551208496e-01 -1.014859825372695923e-01 -5.477355048060417175e-02
1.439000000000000000e+03 3.193991184234619141e+00 2.611545562744140625e+01 -1.806384511291980743e-02 -2.786961495876312256e-01 -8.902800083160400391e-02 1.728887110948562622e-01
1.440000000000000000e+03 3.207340717315673828e+00 2.466987609863281250e+01 -2.580005861818790436e-02 -2.179879397153854370e-01 -7.313639670610427856e-02 1.613159328699111938e-01
1.441000000000000000e+03 2.079883098602294922e+00 3.449257659912109375e+01 1.104116346687078476e-02 -6.411572694778442383e-01 -1.890348345041275024e-01 8.052682876586914062e-02
1.442000000000000000e+03 2.119776487350463867e+00 3.314233779907226562e+01 1.649281196296215057e-02 -5.856741070747375488e-01 -1.707544028759002686e-01 9.680737555027008057e-02
1.443000000000000000e+03 2.917149543762207031e+00 3.787688827514648438e+01 3.021359629929065704e-02 -7.256918549537658691e-01 -2.086434811353683472e-01 5.201789736747741699e-02
1.444000000000000000e+03 3.648306369781494141e+00 3.911547851562500000e+01 1.682490482926368713e-02 -7.311885952949523926e-01 -2.143091112375259399e-01 5.452096089720726013e-02
1.445000000000000000e+03 2.228491306304931641e+00 -3.032560157775878906e+01 6.843953393399715424e-03 -2.827844321727752686e-01 -8.278214186429977417e-02 -6.746812909841537476e-02
1.446000000000000000e+03 2.066023349761962891e+00 -2.747902107238769531e+01 1.802611630409955978e-03 -2.020481824874877930e-01 -6.007367372512817383e-02 -7.003559172153472900e-02
1.447000000000000000e+03 2.330905199050903320e+00 -3.654917144775390625e+01 9.099734947085380554e-03 -4.074985682964324951e-01 -1.195196509361267090e-01 -3.410785645246505737e-02
1.448000000000000000e+03 5.343873023986816406e+00 -1.757708930969238281e+01 -3.332908824086189270e-02 -2.080399356782436371e-02 -1.623992435634136200e-02 -1.813290524296462536e-03
1.449000000000000000e+03 5.898710489273071289e-01 2.051304244995117188e+01 -4.036436788737773895e-03 5.089978873729705811e-02 1.405900530517101288e-02 3.641966730356216431e-03
1.450000000000000000e+03 6.223667263984680176e-01 1.908878898620605469e+01 -1.001818338409066200e-03 5.300779640674591064e-02 1.560179330408573151e-02 -2.401561010628938675e-03
1.451000000000000000e+03 6.276935935020446777e-01 1.481582069396972656e+01 -4.114219045732170343e-04 1.775826886296272278e-02 5.204054061323404312e-03 -4.716918803751468658e-03
1.452000000000000000e+03 6.214904189109802246e-01 1.341669654846191406e+01 2.143983263522386551e-03 8.584153838455677032e-03 3.218441270291805267e-03 -3.179212100803852081e-03
1.453000000000000000e+03 6.057668328285217285e-01 7.794239521026611328e+00 7.191065815277397633e-04 -2.918789687100797892e-04 1.281682780245319009e-04 -2.436459471937268972e-04
1.454000000000000000e+03 5.960880517959594727e-01 -1.907887077331542969e+01 -1.702381414361298084e-03 2.538751065731048584e-02 7.105538621544837952e-03 -1.329562161117792130e-03
1.455000000000000000e+03 1.676008224487304688e+00 -9.212798118591308594e+00 6.630811840295791626e-04 7.057382026687264442e-05 2.200965100200846791e-04 3.684410185087472200e-04
1.456000000000000000e+03 4.984192371368408203e+00 -4.027747726440429688e+01 2.675118297338485718e-02 -4.000225961208343506e-01 -1.119814291596412659e-01 -2.872917614877223969e-02
1.457000000000000000e+03 3.475495815277099609e+00 -3.907233047485351562e+01 1.422507502138614655e-02 -4.253959953784942627e-01 -1.233512759208679199e-01 -3.000517003238201141e-02
1.458000000000000000e+03 4.737528324127197266e+00 -3.610528945922851562e+01 3.166808560490608215e-02 -3.735991418361663818e-01 -1.025793179869651794e-01 -6.562317907810211182e-02
1.459000000000000000e+03 1.635059356689453125e+00 -3.535503005981445312e+01 6.790963467210531235e-03 -3.942177891731262207e-01 -1.162280514836311340e-01 -2.937600202858448029e-02
1.460000000000000000e+03 2.321487188339233398e+00 -3.176208686828613281e+01 4.920247476547956467e-03 -3.171366453170776367e-01 -9.366492182016372681e-02 -6.209662184119224548e-02
1.461000000000000000e+03 3.434545755386352539e+00 -2.735139274597167969e+01 -5.822174716740846634e-04 -2.117999196052551270e-01 -6.371464580297470093e-02 -1.069665551185607910e-01
1.462000000000000000e+03 1.970587730407714844e+00 -2.462092781066894531e+01 -4.394130781292915344e-03 -1.172039210796356201e-01 -3.647941723465919495e-02 -6.036519631743431091e-02
1.463000000000000000e+03 2.020174741744995117e+00 -2.605903625488281250e+01 -4.577513784170150757e-03 -1.588937193155288696e-01 -4.904137179255485535e-02 -6.835500150918960571e-02
1.464000000000000000e+03 5.832048654556274414e-01 -2.050192642211914062e+01 -3.002294804900884628e-03 1.419054623693227768e-02 3.356475383043289185e-03 -7.181992754340171814e-03
1.465000000000000000e+03 2.899291276931762695e+00 -2.150121498107910156e+01 -2.379437163472175598e-02 -5.911204591393470764e-02 -2.487192489206790924e-02 -5.633245408535003662e-02
1.466000000000000000e+03 1.659453511238098145e+00 -1.602802658081054688e+01 8.089100592769682407e-04 3.805245039984583855e-03 1.384246512316167355e-03 6.982033606618642807e-03
1.467000000000000000e+03 1.746240019798278809e+00 -1.195636749267578125e+01 1.521836966276168823e-03 7.021573255769908428e-04 6.671982700936496258e-04 1.744919340126216412e-03
1.468000000000000000e+03 5.712858438491821289e-01 -1.205339336395263672e+01 -5.026319995522499084e-04 1.815703464671969414e-03 3.939214511774480343e-04 6.471551023423671722e-04
1.469000000000000000e+03 8.595884323120117188e+00 -9.826969146728515625e+00 1.453751319786533713e-04 -5.225368659012019634e-04 -1.131485187215730548e-04 1.703589223325252533e-04
1.470000000000000000e+03 5.368191242218017578e+00 -3.485449552536010742e+00 -1.078166133083868772e-05 1.770920935086905956e-04 4.989312947145663202e-05 1.821616751840338111e-04
1.471000000000000000e+03 3.709182739257812500e+00 -2.905954837799072266e+00 -8.870078454492613673e-05 -3.337297675898298621e-05 -3.662212839117273688e-05 -1.473091106163337827e-04
1.472000000000000000e+03 2.925595521926879883e+00 -3.086354255676269531e+00 1.149440649896860123e-04 2.186260826420038939e-05 4.104199979337863624e-05 7.312459638342261314e-05
1.473000000000000000e+03 1.358939886093139648e+00 -3.363421678543090820e+00 5.485277506522834301e-05 6.653991295024752617e-05 3.641780494945123792e-05 5.976773536531254649e-05
1.474000000000000000e+03 4.786356091499328613e-01 5.034381866455078125e+00 2.726303646340966225e-04 -2.383040700806304812e-04 1.029788745654514059e-05 -7.702040602453052998e-05
1.475000000000000000e+03 2.406494617462158203e+00 3.568313121795654297e+00 -2.410151355434209108e-04 7.140375964809209108e-05 -5.088341276859864593e-05 3.473214746918529272e-04
1.476000000000000000e+03 1.778914213180541992e+00 1.044585704803466797e+01 3.078999579884111881e-04 7.032534340396523476e-04 3.033460234291851521e-04 -9.415133972652256489e-04
1.477000000000000000e+03 5.931587219238281250e-01 1.060602474212646484e+01 1.334978500381112099e-03 8.522605639882385731e-04 6.561717018485069275e-04 -8.015501080080866814e-04
1.478000000000000000e+03 1.895303845405578613e+00 1.320532321929931641e+01 2.689140615984797478e-03 2.139205345883965492e-03 1.448503811843693256e-03 -6.152352318167686462e-03
1.479000000000000000e+03 1.907245278358459473e+00 1.458844757080078125e+01 4.471136257052421570e-03 3.068024525418877602e-03 2.261748071759939194e-03 -1.021447684615850449e-02
1.480000000000000000e+03 1.869928956031799316e+00 1.600171279907226562e+01 1.677896012552082539e-03 5.382376257330179214e-03 2.118081785738468170e-03 -1.364901382476091385e-02
1.481000000000000000e+03 1.930392742156982422e+00 2.468692588806152344e+01 -1.678676530718803406e-02 -1.615435630083084106e-01 -5.349909886717796326e-02 1.024672165513038635e-01
1.482000000000000000e+03 9.272068023681640625e+00 1.107183933258056641e+01 -3.368153120391070843e-04 3.421766450628638268e-03 9.254853357560932636e-04 9.414454689249396324e-04
1.483000000000000000e+03 1.240428543090820312e+01 8.454614639282226562e+00 8.060200489126145840e-04 6.151791894808411598e-04 4.263597948011010885e-04 8.108083857223391533e-04
1.484000000000000000e+03 1.467296409606933594e+01 4.922371387481689453e+00 3.994440194219350815e-04 -1.096939886338077486e-04 8.692501432960852981e-05 9.316245996160432696e-05
1.485000000000000000e+03 1.181885051727294922e+01 2.562258243560791016e+00 1.818790915422141552e-04 -9.768901509232819080e-05 2.525702439015731215e-05 1.377673324896022677e-04
1.486000000000000000e+03 1.037977695465087891e+01 1.340362167358398438e+01 -2.859588945284485817e-03 -1.901882817037403584e-03 -1.428441493771970272e-03 -2.109647262841463089e-03
1.487000000000000000e+03 8.337528228759765625e+00 1.044464969635009766e+01 1.144017325714230537e-03 -1.213766401633620262e-03 -2.092472277581691742e-05 7.365040364675223827e-04
1.488000000000000000e+03 8.424652099609375000e+00 1.384448909759521484e+01 -1.289730076678097248e-03 2.962992526590824127e-03 5.019786767661571503e-04 -2.205399330705404282e-03
1.489000000000000000e+03 1.176399803161621094e+01 3.343384504318237305e+00 -3.382328432053327560e-04 6.255378684727475047e-05 -8.270372200058773160e-05 -4.948634887114167213e-04
1.490000000000000000e+03 7.694118976593017578e+00 -1.109266567230224609e+01 -2.737225440796464682e-04 1.632578903809189796e-03 4.076568875461816788e-04 -6.204084493219852448e-04
1.491000000000000000e+03 7.318066406250000000e+01 -7.173618316650390625e+00 5.730159759521484375e+00 1.514851379394531250e+01 6.263602256774902344e+00 -2.195564985275268555e+00
1.492000000000000000e+03 6.880461120605468750e+01 -8.010283470153808594e+00 2.543631494045257568e-01 1.696585059165954590e+00 5.852844715118408203e-01 2.658259868621826172e+00
1.493000000000000000e+03 7.082277679443359375e+01 -8.026784896850585938e+00 1.839445531368255615e-01 1.479628181457519531e+01 4.494067668914794922e+00 6.466745853424072266e+00
1.494000000000000000e+03 7.025555419921875000e+01 -8.383889198303222656e+00 7.628048062324523926e-01 9.115556716918945312e+00 2.963508605957031250e+00 6.043484210968017578e+00
1.495000000000000000e+03 6.856336975097656250e+01 -8.162037849426269531e+00 -6.093711033463478088e-02 1.584436297416687012e+00 4.570497572422027588e-01 2.341261386871337891e+00
1.496000000000000000e+03 6.871507263183593750e+01 -9.450439453125000000e+00 2.571132183074951172e-01 3.929654598236083984e+00 1.256030321121215820e+00 3.626208782196044922e+00
1.497000000000000000e+03 7.122000122070312500e+01 -8.044015884399414062e+00 -7.012680768966674805e-01 1.804931640625000000e+01 5.204414367675781250e+00 4.664387226104736328e+00
1.498000000000000000e+03 6.863491058349609375e+01 -4.707395553588867188e+00 -2.674065157771110535e-02 1.537028074264526367e+00 4.530862271785736084e-01 -2.425578832626342773e+00
1.499000000000000000e+03 7.101868438720703125e+01 -4.524301528930664062e+00 -5.765910148620605469e-01 1.565369129180908203e+01 4.523129940032958984e+00 -5.267862796783447266e+00
1.500000000000000000e+03 7.275257873535156250e+01 -4.955316066741943359e+00 2.736005783081054688e+00 1.740235137939453125e+01 6.041507244110107422e+00 2.287533998489379883e+00
1.501000000000000000e+03 7.238388061523437500e+01 -4.706767082214355469e+00 1.137407779693603516e+00 1.847904586791992188e+01 5.884936332702636719e+00 1.407437682151794434e+00
1.502000000000000000e+03 7.829406738281250000e+01 -1.528687191009521484e+01 -1.692338734865188599e-01 9.071519851684570312e+00 2.670685768127441406e+00 -4.187825918197631836e-01
1.503000000000000000e+03 7.245315551757812500e+01 -7.528308868408203125e+00 3.879495859146118164e+00 1.898875236511230469e+01 6.860474109649658203e+00 -2.536501884460449219e+00
1.504000000000000000e+03 7.266829681396484375e+01 -4.628331184387207031e+00 1.339243650436401367e+00 1.737186241149902344e+01 5.613331794738769531e+00 1.678580641746520996e+00
1.505000000000000000e+03 7.102479553222656250e+01 -8.266074180603027344e+00 -5.387041568756103516e-01 1.575004005432128906e+01 4.563400745391845703e+00 5.229461669921875000e+00
1.506000000000000000e+03 7.654113769531250000e+01 -6.677643299102783203e+00 1.897544026374816895e+00 8.648752212524414062e+00 3.163888692855834961e+00 -2.206937521696090698e-01
1.507000000000000000e+03 7.064371490478515625e+01 -4.491784572601318359e+00 1.518285274505615234e-01 1.277606391906738281e+01 3.878367900848388672e+00 -6.235744953155517578e+00
1.508000000000000000e+03 7.119642639160156250e+01 -4.499823093414306641e+00 -8.132410049438476562e-01 1.688934516906738281e+01 4.822831630706787109e+00 -4.457530021667480469e+00
1.509000000000000000e+03 6.555609893798828125e+01 -3.249310255050659180e+00 -1.281086802482604980e+00 6.760350465774536133e-01 -1.815155148506164551e-01 -9.584864377975463867e-01
1.510000000000000000e+03 6.845904541015625000e+01 -4.302368164062500000e+00 3.097900003194808960e-02 1.959521651268005371e+00 5.971502065658569336e-01 -2.664936065673828125e+00
1.511000000000000000e+03 6.708370971679687500e+01 -3.547611474990844727e+00 -6.294552683830261230e-01 1.282771110534667969e+00 1.959947645664215088e-01 -1.761363506317138672e+00
1.512000000000000000e+03 2.135281944274902344e+01 -2.066030740737915039e+00 -6.654539704322814941e-02 -1.156863346695899963e-01 -5.466951802372932434e-02 1.175447478890419006e-01
1.513000000000000000e+03 2.074927902221679688e+01 -2.611308336257934570e+00 -4.239220544695854187e-02 -8.720273524522781372e-02 -3.887848183512687683e-02 7.279639691114425659e-02
1.514000000000000000e+03 2.382752227783203125e+01 -3.208640336990356445e+00 -1.644894033670425415e-01 -7.435200363397598267e-02 -7.165241986513137817e-02 1.655020117759704590e-01
1.515000000000000000e+03 2.593377685546875000e+01 -4.162563323974609375e+00 -2.647954225540161133e-01 -3.464883193373680115e-02 -8.983327448368072510e-02 1.726749688386917114e-01
1.516000000000000000e+03 1.764375305175781250e+01 -8.412985801696777344e+00 -6.454208493232727051e-02 -4.916749894618988037e-02 -3.411287441849708557e-02 -6.332104653120040894e-02
1.517000000000000000e+03 3.029133415222167969e+01 -4.275541305541992188e+00 -5.768095254898071289e-01 -4.577784799039363861e-03 -1.744161844253540039e-01 2.246214002370834351e-01
1.518000000000000000e+03 2.671647644042968750e+01 -3.546510457992553711e+00 -3.285542130470275879e-01 -4.093318060040473938e-02 -1.108462214469909668e-01 2.284670770168304443e-01
1.519000000000000000e+03 3.888695240020751953e+00 2.607852935791015625e+00 -1.041235464072087780e-05 -2.273084464832209051e-05 -9.942959877662360668e-06 -1.344002812402322888e-04
1.520000000000000000e+03 4.591341018676757812e+00 2.566873788833618164e+00 -1.270338252652436495e-04 1.408250245731323957e-04 4.137357336730929092e-06 3.003123274538666010e-04
1.521000000000000000e+03 5.979685306549072266e+00 2.555399179458618164e+00 -1.741726155159994960e-04 2.527909236960113049e-04 2.358548772463109344e-05 3.169331757817417383e-04
1.522000000000000000e+03 5.222679138183593750e+00 3.241407632827758789e+00 -1.513351598987355828e-04 2.631261013448238373e-04 3.353728607180528343e-05 3.379322006367146969e-04
1.523000000000000000e+03 5.882658004760742188e+00 3.263468265533447266e+00 1.084364994312636554e-04 -2.008189767366275191e-04 -2.771474100882187486e-05 -2.611853997223079205e-04
1.524000000000000000e+03 1.028102397918701172e+01 2.597098112106323242e+00 5.583782694884575903e-05 8.694254938745871186e-05 4.283411180949769914e-05 2.967569162137806416e-04
1.525000000000000000e+03 7.235126972198486328e+00 3.335564136505126953e+00 9.165530354948714375e-05 -2.756999165285378695e-04 -5.521338607650250196e-05 -3.933127445634454489e-04
1.526000000000000000e+03 6.551917076110839844e+00 3.301101207733154297e+00 -1.921150978887453675e-04 4.086696135345846415e-04 6.496635614894330502e-05 3.534274001140147448e-04
1.527000000000000000e+03 4.565403938293457031e+00 3.254765510559082031e+00 4.341883322922512889e-05 -4.745155092678032815e-05 -1.209815764013910666e-06 -1.943321258295327425e-04
1.528000000000000000e+03 2.497380495071411133e+00 2.676010370254516602e+00 8.837987115839496255e-05 -9.030434011947363615e-05 -5.773421776211762335e-07 -4.896605969406664371e-05
1.529000000000000000e+03 1.017005252838134766e+01 3.365383386611938477e+00 -1.128138683270663023e-04 -1.863141078501939774e-04 -8.973839430836960673e-05 -5.839692312292754650e-04
1.530000000000000000e+03 2.527585792541503906e+01 -3.410611391067504883e+00 -2.418032288551330566e-01 -5.831938982009887695e-02 -9.003678709268569946e-02 2.022099941968917847e-01
1.531000000000000000e+03 2.234636306762695312e+01 -2.503572940826416016e+00 -1.005669385194778442e-01 -1.047188416123390198e-01 -6.158573180437088013e-02 1.410272568464279175e-01
1.532000000000000000e+03 2.130118560791015625e+01 -3.004512310028076172e+00 -6.146084517240524292e-02 -7.656095921993255615e-02 -4.140654206275939941e-02 8.356306701898574829e-02
1.533000000000000000e+03 2.106533622741699219e+01 -3.592118978500366211e+00 -4.581079259514808655e-02 -5.619751662015914917e-02 -3.060249239206314087e-02 5.511122196912765503e-02
1.534000000000000000e+03 9.563027381896972656e+00 -2.495188236236572266e+00 -3.121041299891658127e-05 -1.540693483548238873e-04 -5.558392513194121420e-05 -9.292932372773066163e-05
1.535000000000000000e+03 2.599645614624023438e+01 -3.495318174362182617e+00 -2.831605672836303711e-01 -4.926948621869087219e-02 -9.972901642322540283e-02 2.156883031129837036e-01
1.536000000000000000e+03 2.815065765380859375e+01 -3.577188253402709961e+00 -4.240750670433044434e-01 -2.633388340473175049e-02 -1.351226866245269775e-01 2.519158124923706055e-01
1.537000000000000000e+03 3.176647567749023438e+01 -4.265165328979492188e+00 -7.010753750801086426e-01 1.289754873141646385e-03 -2.099356800317764282e-01 2.346252202987670898e-01
1.538000000000000000e+03 2.886817550659179688e+01 -3.584480524063110352e+00 -4.735874235630035400e-01 -2.070569992065429688e-02 -1.482879370450973511e-01 2.620123028755187988e-01
1.539000000000000000e+03 3.105467796325683594e+01 -3.592746973037719727e+00 -6.389561295509338379e-01 -6.291774101555347443e-03 -1.935743689537048340e-01 2.858744263648986816e-01
1.540000000000000000e+03 1.157229423522949219e+01 -3.560539722442626953e+00 -5.694950596080161631e-05 -1.423535431968048215e-04 -5.979091292829252779e-05 1.152718778030248359e-05
1.541000000000000000e+03 1.096396255493164062e+01 -2.635854244232177734e+00 -1.852247260103467852e-05 -1.711952645564451814e-04 -5.691531987395137548e-05 2.714701167860766873e-06
1.542000000000000000e+03 1.124709892272949219e+01 -4.388909816741943359e+00 8.354680903721600771e-05 4.809423899132525548e-06 2.650687019922770560e-05 4.420440382091328502e-05
1.543000000000000000e+03 4.584930801391601562e+01 -9.729968070983886719e+00 -1.794641256332397461e+00 -1.184793468564748764e-02 -5.419467687606811523e-01 -3.373595178127288818e-01
1.544000000000000000e+03 4.664935302734375000e+01 -9.011044502258300781e+00 -2.002079248428344727e+00 -6.831407546997070312e-03 -6.026732325553894043e-01 -2.881638109683990479e-01
1.545000000000000000e+03 4.883312988281250000e+01 -9.705265998840332031e+00 -2.004476547241210938e+00 -6.893476471304893494e-03 -6.034109592437744141e-01 -3.473194837570190430e-01
1.546000000000000000e+03 1.257474613189697266e+01 -2.805948019027709961e+00 -1.459093764424324036e-04 -7.387294317595660686e-05 -6.593469151994213462e-05 2.732922621362376958e-05
1.547000000000000000e+03 4.433245086669921875e+01 -1.050405025482177734e+01 -1.553081274032592773e+00 -1.949586719274520874e-02 -4.717731177806854248e-01 -3.772225379943847656e-01
1.548000000000000000e+03 3.252757644653320312e+01 -3.580978870391845703e+00 -7.583460807800292969e-01 5.464869900606572628e-04 -2.273398935794830322e-01 2.966205477714538574e-01
1.549000000000000000e+03 5.181926345825195312e+01 -9.687773704528808594e+00 -2.196225404739379883e+00 -4.205431323498487473e-03 -6.601293087005615234e-01 -3.479870259761810303e-01
1.550000000000000000e+03 3.179089736938476562e+01 -3.589192152023315430e+00 -6.981460452079772949e-01 -2.244662260636687279e-03 -2.101172059774398804e-01 2.915524244308471680e-01
1.551000000000000000e+03 3.400640106201171875e+01 -3.545971632003784180e+00 -8.832745552062988281e-01 4.865597933530807495e-03 -2.635226845741271973e-01 3.060197532176971436e-01
1.552000000000000000e+03 5.262593078613281250e+01 -8.962203025817871094e+00 -2.485270738601684570e+00 -2.654813462868332863e-03 -7.463776469230651855e-01 -3.000062704086303711e-01
1.553000000000000000e+03 5.486798477172851562e+01 -8.946927070617675781e+00 -2.646414995193481445e+00 4.335277713835239410e-03 -7.926239371299743652e-01 -2.921678721904754639e-01
1.554000000000000000e+03 3.984876632690429688e+01 -9.881400108337402344e+00 -1.369881033897399902e+00 -1.966025866568088531e-02 -4.168623983860015869e-01 -3.066895604133605957e-01
1.555000000000000000e+03 4.435828018188476562e+01 -9.779355049133300781e+00 -1.684033036231994629e+00 -1.542226318269968033e-02 -5.098366141319274902e-01 -3.321470022201538086e-01
1.556000000000000000e+03 4.659058761596679688e+01 -9.713518142700195312e+00 -1.848852157592773438e+00 -9.068639017641544342e-03 -5.573762655258178711e-01 -3.404073417186737061e-01
1.557000000000000000e+03 4.590422821044921875e+01 -9.023688316345214844e+00 -1.940474629402160645e+00 -7.039512041956186295e-03 -5.842542648315429688e-01 -2.860486805438995361e-01
1.558000000000000000e+03 4.216512680053710938e+01 -9.109702110290527344e+00 -1.640593886375427246e+00 -1.262126769870519638e-02 -4.959645271301269531e-01 -2.694238126277923584e-01
1.559000000000000000e+03 4.733410263061523438e+01 -9.705415725708007812e+00 -1.901926159858703613e+00 -8.825022727251052856e-03 -5.732253789901733398e-01 -3.424720466136932373e-01
1.560000000000000000e+03 4.889496994018554688e+01 -8.991767883300781250e+00 -2.186303138732910156e+00 -4.232425708323717117e-03 -6.571606993675231934e-01 -2.950341403484344482e-01
1.561000000000000000e+03 5.561428833007812500e+01 -8.942203521728515625e+00 -2.693623542785644531e+00 4.657858982682228088e-03 -8.066897392272949219e-01 -2.868802845478057861e-01
1.562000000000000000e+03 5.547694778442382812e+01 -1.032909679412841797e+01 -2.107686758041381836e+00 2.531491965055465698e-02 -6.247115731239318848e-01 -3.362071216106414795e-01
1.563000000000000000e+03 3.917070770263671875e+01 -9.176592826843261719e+00 -1.414292216300964355e+00 -1.525173988193273544e-02 -4.288631975650787354e-01 -2.540329992771148682e-01
1.564000000000000000e+03 3.898791885375976562e+01 -1.131810665130615234e+01 -1.134939670562744141e+00 -3.291094303131103516e-02 -3.503551781177520752e-01 -3.824597895145416260e-01
1.565000000000000000e+03 5.188050079345703125e+01 -8.968771934509277344e+00 -2.427117347717285156e+00 -2.545119496062397957e-03 -7.288987636566162109e-01 -2.996139824390411377e-01
1.566000000000000000e+03 5.032527542114257812e+01 -9.702967643737792969e+00 -2.102032899856567383e+00 -5.418336950242519379e-03 -6.322353482246398926e-01 -3.494355380535125732e-01
1.567000000000000000e+03 5.330376815795898438e+01 -9.665516853332519531e+00 -2.284214973449707031e+00 8.718571625649929047e-04 -6.850029230117797852e-01 -3.427383899688720703e-01
1.568000000000000000e+03 5.404999160766601562e+01 -9.655467987060546875e+00 -2.324432134628295898e+00 6.257350090891122818e-03 -6.954524517059326172e-01 -3.369700014591217041e-01
1.569000000000000000e+03 5.479658508300781250e+01 -9.646790504455566406e+00 -2.360765218734741211e+00 8.346427232027053833e-03 -7.057256102561950684e-01 -3.294331133365631104e-01
1.570000000000000000e+03 5.859886932373046875e+01 -8.918248176574707031e+00 -2.824113845825195312e+00 1.932205073535442352e-02 -8.414375185966491699e-01 -2.375331521034240723e-01
1.571000000000000000e+03 6.158772659301757812e+01 -8.867863655090332031e+00 -2.782344579696655273e+00 6.132372841238975525e-02 -8.163062930107116699e-01 -1.076253578066825867e-01
1.572000000000000000e+03 6.363859939575195312e+01 -1.008217525482177734e+01 -1.516328215599060059e+00 4.022468030452728271e-01 -3.342244327068328857e-01 4.315702915191650391e-01
1.573000000000000000e+03 5.628030776977539062e+01 -9.633506774902343750e+00 -2.415194034576416016e+00 1.742240600287914276e-02 -7.193315029144287109e-01 -3.062219321727752686e-01
1.574000000000000000e+03 5.851250076293945312e+01 -9.602863311767578125e+00 -2.443934202194213867e+00 4.399750754237174988e-02 -7.199810147285461426e-01 -2.391711324453353882e-01
1.575000000000000000e+03 3.698126983642578125e+01 -4.130832672119140625e+00 -1.187067031860351562e+00 7.282997015863656998e-03 -3.539352118968963623e-01 2.553004622459411621e-01
1.576000000000000000e+03 3.474888992309570312e+01 -3.522417783737182617e+00 -9.471308588981628418e-01 6.123872008174657822e-03 -2.823020815849304199e-01 3.101547360420227051e-01
1.577000000000000000e+03 3.548521423339843750e+01 -2.813737154006958008e+00 -9.773675203323364258e-01 5.221003666520118713e-03 -2.916439771652221680e-01 3.720627129077911377e-01
1.578000000000000000e+03 3.623951339721679688e+01 -3.471239805221557617e+00 -1.077238321304321289e+00 7.187049835920333862e-03 -3.210153877735137939e-01 3.174589872360229492e-01
1.579000000000000000e+03 5.925883102416992188e+01 -9.588441848754882812e+00 -2.434454202651977539e+00 5.302323773503303528e-02 -7.144293189048767090e-01 -2.059525549411773682e-01
1.580000000000000000e+03 6.000527572631835938e+01 -9.570162773132324219e+00 -2.410309314727783203e+00 7.112229615449905396e-02 -7.017561197280883789e-01 -1.635978966951370239e-01
1.581000000000000000e+03 6.075222015380859375e+01 -9.549461364746093750e+00 -2.372029542922973633e+00 8.790812641382217407e-02 -6.852363944053649902e-01 -1.123815625905990601e-01
1.582000000000000000e+03 6.311861038208007812e+01 -3.429640054702758789e+00 -2.275323390960693359e+00 1.670726984739303589e-01 -6.324751973152160645e-01 -1.618234962224960327e-01
1.583000000000000000e+03 6.097939300537109375e+01 -3.986664056777954102e+00 -2.979511976242065430e+00 4.288668185472488403e-02 -8.809875845909118652e-01 1.245790198445320129e-01
1.584000000000000000e+03 6.371880340576171875e+01 -9.433478355407714844e+00 -1.969177722930908203e+00 2.531769275665283203e-01 -5.148002505302429199e-01 2.674282789230346680e-01
1.585000000000000000e+03 6.573087310791015625e+01 -9.378393173217773438e+00 -1.249432086944580078e+00 6.586588025093078613e-01 -1.772319674491882324e-01 9.481797218322753906e-01
1.586000000000000000e+03 6.096920394897460938e+01 -3.386396646499633789e+00 -2.560889482498168945e+00 8.868967741727828979e-02 -7.416599988937377930e-01 7.252828776836395264e-02
1.587000000000000000e+03 5.953166580200195312e+01 -3.305785655975341797e+00 -2.610297679901123047e+00 4.963731765747070312e-02 -7.681981325149536133e-01 1.627324670553207397e-01
1.588000000000000000e+03 5.879514312744140625e+01 -3.269363880157470703e+00 -2.620213747024536133e+00 3.822933509945869446e-02 -7.745953202247619629e-01 1.973928362131118774e-01
1.589000000000000000e+03 5.877047729492187500e+01 -3.920579433441162109e+00 -2.990718126296997070e+00 1.631904765963554382e-02 -8.923197388648986816e-01 2.061985135078430176e-01
1.590000000000000000e+03 3.757529830932617188e+01 -1.064818000793457031e+01 -1.137405753135681152e+00 -2.924033068120479584e-02 -3.499937951564788818e-01 -3.347660303115844727e-01
1.591000000000000000e+03 3.687313842773437500e+01 -9.961675643920898438e+00 -1.171518206596374512e+00 -2.451402880251407623e-02 -3.588096797466278076e-01 -2.879514396190643311e-01
1.592000000000000000e+03 3.830788421630859375e+01 -1.062463474273681641e+01 -1.181878805160522461e+00 -2.807560190558433533e-02 -3.629863262176513672e-01 -3.390540480613708496e-01
1.593000000000000000e+03 5.655464172363281250e+01 -3.210131168365478516e+00 -2.593541860580444336e+00 1.434219628572463989e-02 -7.737599015235900879e-01 2.663159668445587158e-01
1.594000000000000000e+03 5.505539703369140625e+01 -3.198946952819824219e+00 -2.549232721328735352e+00 7.518140133470296860e-03 -7.625143527984619141e-01 2.931618094444274902e-01
1.595000000000000000e+03 6.241436386108398438e+01 -3.409551620483398438e+00 -2.381393432617187500e+00 1.412574052810668945e-01 -6.720408201217651367e-01 -6.542655080556869507e-02
1.596000000000000000e+03 6.169106674194335938e+01 -3.401875972747802734e+00 -2.483219146728515625e+00 1.037283763289451599e-01 -7.138472795486450195e-01 1.230696123093366623e-02
1.597000000000000000e+03 6.501181030273437500e+01 -3.392765283584594727e+00 -1.614722609519958496e+00 4.352225661277770996e-01 -3.538500070571899414e-01 -6.538416743278503418e-01
1.598000000000000000e+03 6.441468811035156250e+01 -3.472443580627441406e+00 -1.920457363128662109e+00 3.246310055255889893e-01 -4.787479043006896973e-01 -4.420202970504760742e-01
1.599000000000000000e+03 6.442681121826171875e+01 -9.400055885314941406e+00 -1.783552765846252441e+00 3.405520915985107422e-01 -4.329001903533935547e-01 4.346386790275573730e-01
1.600000000000000000e+03 5.052563476562500000e+01 -3.884498596191406250e+00 -2.496416091918945312e+00 -6.411790847778320312e-03 -7.508483529090881348e-01 2.767091095447540283e-01
1.601000000000000000e+03 5.353233337402343750e+01 -3.875464677810668945e+00 -2.733692407608032227e+00 -3.155798884108662605e-03 -8.210544586181640625e-01 2.710392475128173828e-01
1.602000000000000000e+03 5.430563354492187500e+01 -3.197186231613159180e+00 -2.517638444900512695e+00 4.297422710806131363e-03 -7.540023326873779297e-01 3.040742576122283936e-01
1.603000000000000000e+03 4.979485321044921875e+01 -3.204783916473388672e+00 -2.242466926574707031e+00 -5.180863197892904282e-03 -6.742943525314331055e-01 3.326898515224456787e-01
1.604000000000000000e+03 5.129872894287109375e+01 -3.199621200561523438e+00 -2.347636461257934570e+00 -4.025318659842014313e-03 -7.054985165596008301e-01 3.276439905166625977e-01
1.605000000000000000e+03 3.849267578125000000e+01 -3.400421142578125000e+00 -1.277658104896545410e+00 6.113766692578792572e-03 -3.814632892608642578e-01 3.256102204322814941e-01
1.606000000000000000e+03 4.073912811279296875e+01 -4.029006958007812500e+00 -1.560511589050292969e+00 3.489442169666290283e-03 -4.671066403388977051e-01 2.634795606136322021e-01
1.607000000000000000e+03 3.924723052978515625e+01 -3.380623817443847656e+00 -1.345608949661254883e+00 5.374571308493614197e-03 -4.020702838897705078e-01 3.274462819099426270e-01
1.608000000000000000e+03 4.149239730834960938e+01 -4.011183738708496094e+00 -1.635956168174743652e+00 2.380341291427612305e-03 -4.900727570056915283e-01 2.648197710514068604e-01
1.609000000000000000e+03 4.000071716308593750e+01 -3.362231492996215820e+00 -1.413637042045593262e+00 4.629331640899181366e-03 -4.227023124694824219e-01 3.291727900505065918e-01
1.610000000000000000e+03 5.580459213256835938e+01 -3.202648639678955078e+00 -2.573198795318603516e+00 9.640297852456569672e-03 -7.690675258636474609e-01 2.812723517417907715e-01
1.611000000000000000e+03 4.902132415771484375e+01 -3.895005464553833008e+00 -2.364328145980834961e+00 -5.947115831077098846e-03 -7.110825777053833008e-01 2.763215601444244385e-01
1.612000000000000000e+03 4.753906250000000000e+01 -3.224949121475219727e+00 -2.069280147552490234e+00 -4.376905970275402069e-03 -6.220971345901489258e-01 3.362850546836853027e-01
1.613000000000000000e+03 4.601060867309570312e+01 -3.928622961044311523e+00 -2.082489252090454102e+00 -3.589557483792304993e-03 -6.258236169815063477e-01 2.725467383861541748e-01
1.614000000000000000e+03 4.904341506958007812e+01 -3.210427522659301758e+00 -2.186531782150268555e+00 -4.936106037348508835e-03 -6.574403047561645508e-01 3.344054818153381348e-01
1.615000000000000000e+03 4.301815032958984375e+01 -3.292224884033203125e+00 -1.683985352516174316e+00 6.608100957237184048e-04 -5.049973726272583008e-01 3.339951336383819580e-01
1.616000000000000000e+03 4.150794982910156250e+01 -3.325807332992553711e+00 -1.549416542053222656e+00 2.805557334795594215e-03 -4.639832973480224609e-01 3.318946063518524170e-01
1.617000000000000000e+03 4.226401519775390625e+01 -3.308854103088378906e+00 -1.617009162902832031e+00 1.741424435749650002e-03 -4.845803380012512207e-01 3.330263495445251465e-01
1.618000000000000000e+03 4.528014755249023438e+01 -3.251834630966186523e+00 -1.880728960037231445e+00 -2.749775536358356476e-03 -5.650436282157897949e-01 3.360513746738433838e-01
1.619000000000000000e+03 4.452519607543945312e+01 -3.262636661529541016e+00 -1.815712571144104004e+00 -1.584621728397905827e-03 -5.451891422271728516e-01 3.357758522033691406e-01
1.620000000000000000e+03 4.377057647705078125e+01 -3.276106357574462891e+00 -1.749874830245971680e+00 -5.830812151543796062e-04 -5.251373648643493652e-01 3.350022435188293457e-01
1.621000000000000000e+03 3.773979568481445312e+01 -3.422394275665283203e+00 -1.210263371467590332e+00 6.686856970191001892e-03 -3.610729575157165527e-01 3.231593072414398193e-01
1.622000000000000000e+03 5.355264663696289062e+01 -3.197364091873168945e+00 -2.481792688369750977e+00 1.991985365748405457e-03 -7.439402341842651367e-01 3.117547929286956787e-01
1.623000000000000000e+03 5.279883575439453125e+01 -3.198440074920654297e+00 -2.440924406051635742e+00 -3.613131411839276552e-04 -7.323856949806213379e-01 3.187909126281738281e-01
1.624000000000000000e+03 3.386915969848632812e+01 -1.005737972259521484e+01 -9.811881780624389648e-01 -2.763970196247100830e-02 -3.026483654975891113e-01 -2.668760418891906738e-01
1.625000000000000000e+03 3.240036010742187500e+01 -9.368615150451660156e+00 -9.424114227294921875e-01 -2.091517113149166107e-02 -2.889979779720306396e-01 -2.115687876939773560e-01
1.626000000000000000e+03 3.233561706542968750e+01 -1.010559463500976562e+01 -8.860136866569519043e-01 -2.702139690518379211e-02 -2.739105224609375000e-01 -2.568219602108001709e-01
1.627000000000000000e+03 5.054758834838867188e+01 -3.201087236404418945e+00 -2.295929670333862305e+00 -4.743272904306650162e-03 -6.902018785476684570e-01 3.304103612899780273e-01
1.628000000000000000e+03 4.829261016845703125e+01 -3.217380762100219727e+00 -2.129120349884033203e+00 -4.936836659908294678e-03 -6.402171254158020020e-01 3.353024125099182129e-01
1.629000000000000000e+03 3.462984085083007812e+01 -1.003770732879638672e+01 -1.027520895004272461e+00 -2.771223522722721100e-02 -3.165699541568756104e-01 -2.719177305698394775e-01
1.630000000000000000e+03 4.678458404541015625e+01 -3.232911109924316406e+00 -2.007550239562988281e+00 -4.091918002814054489e-03 -6.034926772117614746e-01 3.364205062389373779e-01
1.631000000000000000e+03 1.354864788055419922e+01 5.000471591949462891e+00 -4.081842489540576935e-04 -1.417457096977159381e-04 -1.649789919611066580e-04 -4.326847847551107407e-04
1.632000000000000000e+03 9.404126167297363281e+00 3.366828203201293945e+00 -1.861703094618860632e-05 3.301367105450481176e-04 9.345590660814195871e-05 4.190833424217998981e-04
1.633000000000000000e+03 1.260489749908447266e+01 4.098894596099853516e+00 -4.695267125498503447e-04 7.835626456653699279e-05 -1.173511409433558583e-04 -5.929082399234175682e-04
1.634000000000000000e+03 1.258096790313720703e+01 3.291192293167114258e+00 3.921761817764490843e-04 -3.463535394985228777e-04 1.374679050059057772e-05 1.557017531013116241e-04
1.635000000000000000e+03 3.001117706298828125e+01 -1.016102790832519531e+01 -7.475522756576538086e-01 -2.266835235059261322e-02 -2.310661822557449341e-01 -2.423528432846069336e-01
1.636000000000000000e+03 3.077969551086425781e+01 -1.014936542510986328e+01 -7.926304340362548828e-01 -2.439149655401706696e-02 -2.451065778732299805e-01 -2.473504394292831421e-01
1.637000000000000000e+03 2.780844306945800781e+01 -9.388791084289550781e+00 -6.472394466400146484e-01 -1.145243085920810699e-02 -1.976075619459152222e-01 -1.848061233758926392e-01
1.638000000000000000e+03 2.925159835815429688e+01 -1.016099262237548828e+01 -7.051057219505310059e-01 -2.031087502837181091e-02 -2.176249772310256958e-01 -2.382379919290542603e-01
1.639000000000000000e+03 3.155785369873046875e+01 -1.013084983825683594e+01 -8.382389545440673828e-01 -2.582504972815513611e-02 -2.592191994190216064e-01 -2.517587840557098389e-01
1.640000000000000000e+03 9.269988059997558594e+00 4.156229496002197266e+00 7.308446220122277737e-05 -4.087202541995793581e-04 -1.006907405098900199e-04 -6.230669096112251282e-04
1.641000000000000000e+03 1.996537590026855469e+01 -8.500640869140625000e+00 -1.793894022703170776e-01 -8.368230424821376801e-03 -5.632728710770606995e-02 -1.049257591366767883e-01
1.642000000000000000e+03 6.746499061584472656e+00 -3.330363273620605469e+00 4.120981884625507519e-06 1.473603770136833191e-04 4.544440889731049538e-05 1.441898057237267494e-04
1.643000000000000000e+03 2.584127902984619141e+00 -6.615171909332275391e+00 -2.229253004770725965e-04 9.996107110055163503e-06 -6.387875328073278069e-05 -1.693703670753166080e-04
1.644000000000000000e+03 7.471246719360351562e+00 -4.147954463958740234e+00 1.072222294169478118e-04 3.918702714145183563e-05 4.392277696751989424e-05 1.587731676409021020e-04
1.645000000000000000e+03 8.861876487731933594e+00 -2.540799379348754883e+00 4.455781527212820947e-05 1.242130383616313338e-04 5.063125354354269803e-05 1.482743391534313560e-04
1.646000000000000000e+03 5.630261898040771484e+00 -4.266693592071533203e+00 3.163109431625343859e-05 -1.506382686784490943e-04 -3.570215267245657742e-05 -2.239796012872830033e-04
1.647000000000000000e+03 5.915233135223388672e+00 -2.634195089340209961e+00 -2.990193388541229069e-05 1.420654589310288429e-04 3.364905569469556212e-05 1.313859829679131508e-04
1.648000000000000000e+03 6.048517704010009766e+00 -3.367745876312255859e+00 6.095139724493492395e-06 -1.210588379763066769e-04 -3.448910865699872375e-05 -1.627915335120633245e-04
1.649000000000000000e+03 4.193163871765136719e+00 -4.627201080322265625e+00 -1.274533424293622375e-04 -2.177019632654264569e-05 -4.476706089917570353e-05 -2.463357814121991396e-04
1.650000000000000000e+03 2.124095201492309570e+00 -3.174916028976440430e+00 -1.421004708390682936e-04 -1.900361712614540011e-05 -4.833122511627152562e-05 -3.741516411537304521e-05
1.651000000000000000e+03 1.610476136207580566e+00 -5.231742382049560547e+00 -2.925543230958282948e-04 4.117839580430882052e-06 -8.653094846522435546e-05 -8.287717355415225029e-05
1.652000000000000000e+03 2.771986961364746094e+01 -1.012902164459228516e+01 -6.190497875213623047e-01 -1.434026844799518585e-02 -1.900170147418975830e-01 -2.287388741970062256e-01
1.653000000000000000e+03 2.849172401428222656e+01 -1.014699363708496094e+01 -6.617684364318847656e-01 -1.767680794000625610e-02 -2.038335800170898438e-01 -2.332895100116729736e-01
1.654000000000000000e+03 2.614491653442382812e+01 -1.009998035430908203e+01 -5.327093601226806641e-01 -6.934859789907932281e-03 -1.618932783603668213e-01 -2.200869619846343994e-01
1.655000000000000000e+03 2.303339767456054688e+01 -9.772409439086914062e+00 -3.758251368999481201e-01 4.915257915854454041e-03 -1.112729609012603760e-01 -1.899584233760833740e-01
1.656000000000000000e+03 2.030246734619140625e+01 -9.532020568847656250e+00 -2.414387613534927368e-01 -1.406090427190065384e-02 -7.664989680051803589e-02 -1.587627083063125610e-01
1.657000000000000000e+03 2.378875923156738281e+01 -9.892522811889648438e+00 -4.139640629291534424e-01 4.008919000625610352e-03 -1.229865401983261108e-01 -1.991922706365585327e-01
1.658000000000000000e+03 2.455865859985351562e+01 -9.999242782592773438e+00 -4.533064067363739014e-01 1.313437009230256081e-03 -1.355978846549987793e-01 -2.076992243528366089e-01
1.659000000000000000e+03 2.546925354003906250e+01 -9.309433937072753906e+00 -5.040034651756286621e-01 -7.319862488657236099e-04 -1.514206379652023315e-01 -1.729215830564498901e-01
1.660000000000000000e+03 2.534942817687988281e+01 -1.006701087951660156e+01 -4.916181266307830811e-01 -2.568029798567295074e-03 -1.482558399438858032e-01 -2.139888256788253784e-01
1.661000000000000000e+03 1.848709678649902344e+01 -1.451303005218505859e+01 -3.078879714012145996e-01 -1.045591235160827637e-01 -1.237341240048408508e-01 -2.693265378475189209e-01
1.662000000000000000e+03 2.091060256958007812e+01 -1.001902008056640625e+01 -2.862794697284698486e-01 -8.010152727365493774e-03 -8.828689157962799072e-02 -1.838803887367248535e-01
1.663000000000000000e+03 1.999596405029296875e+01 -2.365606069564819336e+00 -2.167606540024280548e-02 -7.336066663265228271e-02 -2.851101942360401154e-02 5.178954079747200012e-02
1.664000000000000000e+03 2.227596282958984375e+01 -9.682653427124023438e+00 -3.346038460731506348e-01 4.268410615622997284e-03 -9.910063445568084717e-02 -1.801798492670059204e-01
1.665000000000000000e+03 2.157509994506835938e+01 2.229952335357666016e+00 -1.243101581931114197e-01 -3.747298717498779297e-01 -1.497120112180709839e-01 3.296867609024047852e-01
1.666000000000000000e+03 2.115308189392089844e+01 5.930253028869628906e+00 -2.152140885591506958e-01 -6.567236185073852539e-01 -2.615813016891479492e-01 4.781078100204467773e-01
1.667000000000000000e+03 1.800270652770996094e+01 -8.094526290893554688e+00 -6.203116849064826965e-02 -2.446212805807590485e-02 -2.594798803329467773e-02 -4.992991685867309570e-02
1.668000000000000000e+03 1.785879135131835938e+01 -9.956929206848144531e+00 -1.566008776426315308e-01 -8.363887667655944824e-02 -7.207192480564117432e-02 -1.476215869188308716e-01
1.669000000000000000e+03 1.075244903564453125e+01 9.076515197753906250e+00 2.579488791525363922e-04 1.729769981466233730e-03 5.963156581856310368e-04 7.944479584693908691e-04
1.670000000000000000e+03 1.106197643280029297e+01 1.064997386932373047e+01 8.755229646340012550e-04 1.781051745638251305e-03 7.969724247232079506e-04 1.307787140831351280e-03
1.671000000000000000e+03 1.331679534912109375e+01 6.159748077392578125e+00 6.070996751077473164e-04 1.070132275344803929e-04 2.142338635167106986e-04 4.660798877011984587e-04
1.672000000000000000e+03 6.122885227203369141e+00 -1.449839210510253906e+01 4.412192385643720627e-03 -9.961730102077126503e-04 1.024805707857012749e-03 -9.548327885568141937e-03
1.673000000000000000e+03 6.783448696136474609e+00 -1.345033645629882812e+01 -8.114404627121984959e-04 7.373751141130924225e-03 1.968693220987915993e-03 -3.081803210079669952e-03
1.674000000000000000e+03 1.876556587219238281e+01 1.102455902099609375e+01 -4.452839195728302002e-01 -1.265278935432434082e+00 -5.131688714027404785e-01 6.351337432861328125e-01
1.675000000000000000e+03 2.080552482604980469e+01 7.304190635681152344e+00 -2.739789783954620361e-01 -7.783257365226745605e-01 -3.156914114952087402e-01 5.328138470649719238e-01
1.676000000000000000e+03 1.078629398345947266e+01 -3.354606866836547852e+00 1.483371943322708830e-05 1.051538638421334326e-04 3.599627598305232823e-05 7.396290311589837074e-05
1.677000000000000000e+03 8.469834327697753906e+00 -2.025445747375488281e+01 -1.937771737575531006e-01 -1.523668169975280762e-01 -1.038431972265243530e-01 -2.259331047534942627e-01
1.678000000000000000e+03 7.832620620727539062e+00 -1.879044342041015625e+01 -1.809392273426055908e-01 -2.723941393196582794e-02 -6.245359405875205994e-02 -1.044571474194526672e-01
1.679000000000000000e+03 1.004769897460937500e+01 4.149342536926269531e+00 3.764806751860305667e-05 4.351382667664438486e-04 1.418359024683013558e-04 5.399478832259774208e-04
1.680000000000000000e+03 1.011814880371093750e+01 -6.166173458099365234e+00 1.526709820609539747e-04 -2.318195474799722433e-04 -2.374456926190759987e-05 1.117424253607168794e-04
1.681000000000000000e+03 1.574337196350097656e+01 -1.972731781005859375e+01 -1.902020722627639771e-01 -2.301019281148910522e-01 -1.260911971330642700e-01 -2.426356524229049683e-01
1.682000000000000000e+03 1.593738079071044922e+01 -1.656842613220214844e+01 -2.880061268806457520e-01 -2.038177102804183960e-01 -1.475471556186676025e-01 -2.545244693756103516e-01
1.683000000000000000e+03 9.557334899902343750e+00 -1.987465286254882812e+01 -1.776226460933685303e-01 -2.501735389232635498e-01 -1.283388584852218628e-01 -2.573314607143402100e-01
1.684000000000000000e+03 1.999819374084472656e+01 -3.236278891563415527e-01 -2.983608283102512360e-02 -1.779997199773788452e-01 -6.235074251890182495e-02 1.078261584043502808e-01
1.685000000000000000e+03 1.941026878356933594e+01 -1.100994205474853516e+01 -2.645657956600189209e-01 -4.599305242300033569e-02 -9.316764771938323975e-02 -2.085278034210205078e-01
1.686000000000000000e+03 1.339806938171386719e+01 3.108994483947753906e+00 -4.945279215462505817e-05 5.143707385286688805e-04 1.394753780914470553e-04 7.947531412355601788e-05
1.687000000000000000e+03 3.632625818252563477e+00 2.173572921752929688e+01 -7.548966258764266968e-02 -9.642559289932250977e-02 -5.157457664608955383e-02 9.592606872320175171e-02
1.688000000000000000e+03 7.814539337158203125e+01 -3.586516952514648438e+01 -1.071361638605594635e-02 7.542110919952392578e+00 2.259419202804565430e+00 1.413690000772476196e-01
1.689000000000000000e+03 7.380453491210937500e+01 -3.830586242675781250e+01 1.344330757856369019e-01 6.384376525878906250e+00 1.955642938613891602e+00 1.009235382080078125e-01
1.690000000000000000e+03 7.565087127685546875e+01 -3.323983383178710938e+01 7.212265580892562866e-02 7.117179393768310547e+00 2.156790733337402344e+00 3.161694407463073730e-01
1.691000000000000000e+03 7.704003906250000000e+01 -3.597301864624023438e+01 1.739944145083427429e-02 7.275846004486083984e+00 2.187973499298095703e+00 1.778453439474105835e-01
1.692000000000000000e+03 7.605773162841796875e+01 -2.236561584472656250e+01 -7.760774344205856323e-02 8.158868789672851562e+00 2.424378395080566406e+00 4.478121399879455566e-01
1.693000000000000000e+03 7.799840545654296875e+01 -2.907499122619628906e+01 1.674003712832927704e-02 8.058498382568359375e+00 2.422571659088134766e+00 2.259452939033508301e-01
1.694000000000000000e+03 7.541782379150390625e+01 1.534938907623291016e+01 3.819291293621063232e-02 7.174379348754882812e+00 2.163771629333496094e+00 -5.898005962371826172e-01
1.695000000000000000e+03 7.676571655273437500e+01 1.535364341735839844e+01 2.076627314090728760e-02 7.581214904785156250e+00 2.280594348907470703e+00 -4.451962113380432129e-01
1.696000000000000000e+03 7.759560394287109375e+01 3.570640182495117188e+01 9.268264402635395527e-04 6.249845027923583984e+00 1.875231623649597168e+00 -7.287750393152236938e-02
1.697000000000000000e+03 7.623251342773437500e+01 3.283572387695312500e+01 3.209285438060760498e-02 6.128222465515136719e+00 1.848094582557678223e+00 -1.516051143407821655e-01
1.698000000000000000e+03 7.828605651855468750e+01 -2.228862762451171875e+01 -2.203380875289440155e-02 8.940544128417968750e+00 2.675553083419799805e+00 1.972600072622299194e-01
1.699000000000000000e+03 7.713456726074218750e+01 -2.360853576660156250e+01 -2.711914852261543274e-02 8.383234024047851562e+00 2.506834506988525391e+00 3.507106900215148926e-01
1.700000000000000000e+03 7.658283996582031250e+01 -3.037438774108886719e+01 5.130743235349655151e-02 7.546030998229980469e+00 2.279201507568359375e+00 3.272496759891510010e-01
1.701000000000000000e+03 7.661981964111328125e+01 -2.892991638183593750e+01 3.899923712015151978e-02 7.665472507476806641e+00 2.311341524124145508e+00 3.658474385738372803e-01
1.702000000000000000e+03 7.395324707031250000e+01 -3.677180480957031250e+01 1.696150600910186768e-01 6.438527107238769531e+00 1.982442617416381836e+00 1.970181614160537720e-01
1.703000000000000000e+03 7.695024108886718750e+01 -2.620321655273437500e+01 1.130745746195316315e-02 8.023857116699218750e+00 2.410549163818359375e+00 3.772167563438415527e-01
1.704000000000000000e+03 7.678517150878906250e+01 -2.754104042053222656e+01 1.964308694005012512e-02 7.837595462799072266e+00 2.357171535491943359e+00 3.703368604183197021e-01
1.705000000000000000e+03 7.706684875488281250e+01 -2.490295982360839844e+01 -4.960666876286268234e-03 8.211299896240234375e+00 2.461901664733886719e+00 3.695260584354400635e-01
1.706000000000000000e+03 7.679759979248046875e+01 -3.323371887207031250e+01 4.992698878049850464e-02 7.363664150238037109e+00 2.224077463150024414e+00 2.493476420640945435e-01
1.707000000000000000e+03 7.678936004638671875e+01 -3.464792251586914062e+01 2.176603488624095917e-02 7.277280330657958984e+00 2.189713954925537109e+00 2.142668962478637695e-01
1.708000000000000000e+03 7.496834564208984375e+01 -4.032894134521484375e+01 1.303866654634475708e-01 6.790088176727294922e+00 2.076142549514770508e+00 1.631051860749721527e-02
1.709000000000000000e+03 7.801098632812500000e+01 2.233391761779785156e+01 1.243062596768140793e-02 7.131138801574707031e+00 2.143070936203002930e+00 -2.102013230323791504e-01
1.710000000000000000e+03 7.668533325195312500e+01 1.953280448913574219e+01 3.337625786662101746e-02 7.105969429016113281e+00 2.141803741455078125e+00 -3.826456069946289062e-01
1.711000000000000000e+03 7.527540588378906250e+01 2.241702079772949219e+01 6.208903342485427856e-02 6.523312091827392578e+00 1.975620388984680176e+00 -4.377740025520324707e-01
1.712000000000000000e+03 7.666083526611328125e+01 2.095148086547851562e+01 3.405491262674331665e-02 6.964462757110595703e+00 2.099555253982543945e+00 -3.588811457157135010e-01
1.713000000000000000e+03 7.810308837890625000e+01 1.258201885223388672e+01 -5.625065881758928299e-03 8.364661216735839844e+00 2.507710695266723633e+00 -2.827833890914916992e-01
1.714000000000000000e+03 7.573104858398437500e+01 8.440327644348144531e+00 -1.621822565793991089e-01 8.073019981384277344e+00 2.373251438140869141e+00 -4.910059869289398193e-01
1.715000000000000000e+03 7.678987121582031250e+01 1.397292900085449219e+01 5.235441029071807861e-03 7.755632400512695312e+00 2.328260421752929688e+00 -4.551649391651153564e-01
1.716000000000000000e+03 7.681348419189453125e+01 1.258828735351562500e+01 -8.715047501027584076e-03 7.932648181915283203e+00 2.377179861068725586e+00 -4.516537189483642578e-01
1.717000000000000000e+03 7.668142700195312500e+01 2.376643943786621094e+01 3.271988779306411743e-02 6.738384723663330078e+00 2.031331300735473633e+00 -3.064628839492797852e-01
1.718000000000000000e+03 7.811219787597656250e+01 2.642346382141113281e+01 9.470785036683082581e-03 6.783197402954101562e+00 2.037800550460815430e+00 -1.565083265304565430e-01
1.719000000000000000e+03 7.829857635498046875e+01 -2.093995285034179688e+01 -4.020053148269653320e-02 9.080366134643554688e+00 2.712049484252929688e+00 1.516807824373245239e-01
1.720000000000000000e+03 7.716644287109375000e+01 -2.230846023559570312e+01 -4.845383018255233765e-02 8.532355308532714844e+00 2.545170307159423828e+00 3.172265887260437012e-01
1.721000000000000000e+03 7.796818542480468750e+01 3.041468238830566406e+01 1.776562072336673737e-02 6.498260498046875000e+00 1.954807877540588379e+00 -1.073163896799087524e-01
1.722000000000000000e+03 7.684300994873046875e+01 2.639824104309082031e+01 2.979952096939086914e-02 6.566702842712402344e+00 1.978950619697570801e+00 -2.449667602777481079e-01
1.723000000000000000e+03 7.824369812011718750e+01 7.058526515960693359e+00 -6.623575091361999512e-02 9.082542419433593750e+00 2.704891920089721680e+00 -1.188110634684562683e-01
1.724000000000000000e+03 7.592571258544921875e+01 -1.710530281066894531e+01 -4.974585771560668945e-01 8.817257881164550781e+00 2.495939731597900391e+00 -1.100008375942707062e-02
1.725000000000000000e+03 7.829164123535156250e+01 5.675735950469970703e+00 -9.531870484352111816e-02 9.184745788574218750e+00 2.726828098297119141e+00 -9.461031295359134674e-03
1.726000000000000000e+03 7.730922698974609375e+01 2.931956529617309570e+00 -3.524437546730041504e-01 9.041093826293945312e+00 2.606595039367675781e+00 3.988529145717620850e-01
1.727000000000000000e+03 7.604644012451171875e+01 3.670988082885742188e+01 3.083939105272293091e-02 5.972370147705078125e+00 1.800962924957275391e+00 -7.822910696268081665e-02
1.728000000000000000e+03 7.738738250732421875e+01 3.691770553588867188e+01 -1.128447521477937698e-02 6.210619926452636719e+00 1.859800696372985840e+00 -7.410923391580581665e-02
1.729000000000000000e+03 7.840854644775390625e+01 -5.133947849273681641e+00 4.207416474819183350e-01 6.222620964050292969e+00 1.993008732795715332e+00 6.016463041305541992e-01
1.730000000000000000e+03 7.855175018310546875e+01 -3.782456874847412109e+00 1.448809504508972168e-01 6.526567935943603516e+00 2.001434564590454102e+00 1.021144509315490723e+00
1.731000000000000000e+03 7.715281677246093750e+01 5.718988418579101562e+00 -2.139079570770263672e-01 8.837190628051757812e+00 2.586984634399414062e+00 -8.993782848119735718e-02
1.732000000000000000e+03 7.837223815917968750e+01 -8.018300056457519531e+00 4.272804260253906250e-01 6.383000850677490234e+00 2.043084383010864258e+00 -8.088742494583129883e-01
1.733000000000000000e+03 7.297654724121093750e+01 -8.344178199768066406e+00 1.180227637290954590e+00 1.600280189514160156e+01 5.154909133911132812e+00 -1.835064649581909180e+00
1.734000000000000000e+03 7.708230590820312500e+01 -1.678758239746093750e+01 -3.288484811782836914e-01 9.011240959167480469e+00 2.604717731475830078e+00 -1.891386061906814575e-01
1.735000000000000000e+03 7.614855957031250000e+01 3.415374374389648438e+01 2.731506526470184326e-02 6.064590930938720703e+00 1.827571749687194824e+00 -1.328472048044204712e-01
1.736000000000000000e+03 7.451496887207031250e+01 3.529261779785156250e+01 6.002954393625259399e-02 5.745569705963134766e+00 1.741679787635803223e+00 -1.400169879198074341e-01
1.737000000000000000e+03 7.637551116943359375e+01 3.149937629699707031e+01 3.728989511728286743e-02 6.200806617736816406e+00 1.871428966522216797e+00 -1.688394248485565186e-01
1.738000000000000000e+03 7.653071594238281250e+01 3.017352485656738281e+01 3.968187421560287476e-02 6.290788173675537109e+00 1.899140954017639160e+00 -1.899563819169998169e-01
1.739000000000000000e+03 7.671230316162109375e+01 1.812844085693359375e+01 3.365133330225944519e-02 7.256664276123046875e+00 2.187094688415527344e+00 -4.077596962451934814e-01
1.740000000000000000e+03 7.690411376953125000e+01 9.825640678405761719e+00 -5.887547880411148071e-02 8.305058479309082031e+00 2.473855018615722656e+00 -3.984546959400177002e-01
1.741000000000000000e+03 7.706513977050781250e+01 7.091160297393798828e+00 -1.477112919092178345e-01 8.674659729003906250e+00 2.558084726333618164e+00 -2.333780676126480103e-01
1.742000000000000000e+03 7.836813354492187500e+01 -1.385670948028564453e+01 -2.024287581443786621e-01 8.775784492492675781e+00 2.572006702423095703e+00 -6.804727315902709961e-01
1.743000000000000000e+03 7.717506408691406250e+01 -1.524915981292724609e+01 -4.125302433967590332e-01 9.064803123474121094e+00 2.595681905746459961e+00 -4.966846406459808350e-01
1.744000000000000000e+03 7.846373748779296875e+01 1.525693416595458984e+00 -1.670521646738052368e-01 8.865922927856445312e+00 2.609661102294921875e+00 5.719754099845886230e-01
1.745000000000000000e+03 7.723085784912109375e+01 4.331952095031738281e+00 -2.934739291667938232e-01 8.975665092468261719e+00 2.604657411575317383e+00 1.162634566426277161e-01
1.746000000000000000e+03 7.767638397216796875e+01 -1.040475130081176758e+00 -2.743377685546875000e-01 8.557516098022460938e+00 2.484953403472900391e+00 1.335445165634155273e+00
1.747000000000000000e+03 7.737435913085937500e+01 -1.380626869201660156e+01 -4.254249632358551025e-01 9.028898239135742188e+00 2.581042051315307617e+00 -8.688501715660095215e-01
1.748000000000000000e+03 7.638148498535156250e+01 -1.143540954589843750e+01 -4.818759858608245850e-01 9.647727966308593750e+00 2.749755620956420898e+00 -1.555937290191650391e+00
1.749000000000000000e+03 7.740770721435546875e+01 -1.246197128295898438e+01 -3.915566205978393555e-01 8.830806732177734375e+00 2.531774997711181641e+00 -1.208956003189086914e+00
1.750000000000000000e+03 7.714827728271484375e+01 -1.827337265014648438e+01 -2.220930457115173340e-01 8.913181304931640625e+00 2.607326507568359375e+00 4.315085709095001221e-02
1.751000000000000000e+03 7.453453540802001953e+00 1.317586421966552734e+01 -2.734476467594504356e-03 8.742971345782279968e-03 1.802548416890203953e-03 4.710175096988677979e-03
1.752000000000000000e+03 1.137910175323486328e+01 8.066787719726562500e+00 -1.662305003264918923e-04 -1.270369859412312508e-03 -4.309801151975989342e-04 -8.494515204802155495e-04
1.753000000000000000e+03 1.292627525329589844e+01 7.316697597503662109e+00 -6.260597729124128819e-04 -6.590104312635958195e-04 -3.855210379697382450e-04 -6.573111168108880520e-04
1.754000000000000000e+03 1.926814270019531250e+01 1.448409175872802734e+01 -5.914036631584167480e-01 -9.976150989532470703e-01 -4.767056405544281006e-01 6.080350279808044434e-01
1.755000000000000000e+03 4.481767654418945312e+00 3.668900299072265625e+01 5.613795667886734009e-02 -6.705790162086486816e-01 -1.843323111534118652e-01 1.210370883345603943e-01
1.756000000000000000e+03 1.915573120117187500e+00 2.754932594299316406e+01 -2.215631306171417236e-03 -3.065663576126098633e-01 -9.263459593057632446e-02 1.182832270860671997e-01
1.757000000000000000e+03 3.345304965972900391e+00 3.020119857788085938e+01 1.750586181879043579e-02 -4.745246171951293945e-01 -1.371056288480758667e-01 1.825306862592697144e-01
1.758000000000000000e+03 1.917942523956298828e+00 2.614010238647460938e+01 -5.109141580760478973e-03 -2.346758991479873657e-01 -7.193551212549209595e-02 1.139559149742126465e-01
1.759000000000000000e+03 3.171517133712768555e+00 2.750751876831054688e+01 -4.878255072981119156e-03 -3.457182049751281738e-01 -1.051789373159408569e-01 1.855171173810958862e-01
1.760000000000000000e+03 6.345624446868896484e+00 3.010993766784667969e+01 5.484924092888832092e-02 -5.380259156227111816e-01 -1.449529975652694702e-01 2.809173762798309326e-01
1.761000000000000000e+03 3.652914524078369141e+00 3.165901756286621094e+01 3.025177121162414551e-02 -5.371758341789245605e-01 -1.520772129297256470e-01 1.705275326967239380e-01
1.762000000000000000e+03 3.184365987777709961e+00 2.885350227355957031e+01 7.064152508974075317e-03 -4.091614484786987305e-01 -1.206291913986206055e-01 1.811865270137786865e-01
1.763000000000000000e+03 3.529434442520141602e+00 3.449452590942382812e+01 3.740908578038215637e-02 -6.292453408241271973e-01 -1.775508671998977661e-01 1.253054440021514893e-01
1.764000000000000000e+03 3.611097574234008789e+00 3.312592697143554688e+01 2.974440343677997589e-02 -5.801442861557006836e-01 -1.651199758052825928e-01 1.543454080820083618e-01
1.765000000000000000e+03 3.463611602783203125e+00 -3.555233383178710938e+01 2.338975109159946442e-02 -3.823269605636596680e-01 -1.076811626553535461e-01 -5.634458735585212708e-02
1.766000000000000000e+03 3.960395336151123047e+00 -3.438870620727539062e+01 2.526314184069633484e-02 -3.507935702800750732e-01 -9.765912592411041260e-02 -7.914930582046508789e-02
1.767000000000000000e+03 3.715726613998413086e+00 -3.017840957641601562e+01 1.100434549152851105e-02 -2.794911861419677734e-01 -8.054605126380920410e-02 -1.043995842337608337e-01
1.768000000000000000e+03 2.136069536209106445e+00 -2.889756774902343750e+01 1.509200432337820530e-03 -2.432150989770889282e-01 -7.251176983118057251e-02 -7.014824450016021729e-02
1.769000000000000000e+03 4.820654869079589844e+00 -2.723847198486328125e+01 3.040260635316371918e-03 -2.241960316896438599e-01 -6.634673476219177246e-02 -1.375156790018081665e-01
1.770000000000000000e+03 3.255951166152954102e+00 2.314864540100097656e+01 -5.592691898345947266e-02 -1.456614136695861816e-01 -6.047650054097175598e-02 1.322395056486129761e-01
1.771000000000000000e+03 1.679395794868469238e+00 -1.333251571655273438e+01 7.765569025650620461e-04 1.364933210425078869e-03 6.424470338970422745e-04 2.975341165438294411e-03
1.772000000000000000e+03 1.750070810317993164e+00 2.041941833496093750e+01 -1.479390729218721390e-02 -5.244427360594272614e-03 -6.011500488966703415e-03 1.420668326318264008e-02
1.773000000000000000e+03 1.886856555938720703e+00 1.896059989929199219e+01 -1.032283529639244080e-02 4.877594765275716782e-04 -2.950522815808653831e-03 -9.908234933391213417e-04
1.774000000000000000e+03 5.532748222351074219e+00 1.821391105651855469e+01 -5.257457122206687927e-02 -4.478566348552703857e-02 -2.920806966722011566e-02 1.770755648612976074e-02
1.775000000000000000e+03 1.791419148445129395e+00 -1.890465164184570312e+01 -1.190236676484346390e-02 -3.509088419377803802e-03 -4.623436369001865387e-03 -4.347680602222681046e-03
1.776000000000000000e+03 3.591876506805419922e+00 -1.784711647033691406e+01 -2.008197084069252014e-02 -1.978796534240245819e-02 -1.196098048239946365e-02 1.284096157178282738e-03
1.777000000000000000e+03 5.422717094421386719e+00 1.347998428344726562e+01 6.713379640132188797e-03 -9.084131568670272827e-03 -7.112255552783608437e-04 2.832506084814667702e-03
1.778000000000000000e+03 1.767172694206237793e+00 -2.174528503417968750e+01 -8.902957662940025330e-03 -4.264042153954505920e-02 -1.546301413327455521e-02 -3.541447967290878296e-02
1.779000000000000000e+03 6.776875495910644531e+00 -1.976319122314453125e+01 -1.234381273388862610e-01 -5.475338175892829895e-02 -5.345745384693145752e-02 -1.112010702490806580e-01
1.780000000000000000e+03 3.821312189102172852e+00 5.099164485931396484e+00 -1.050261780619621277e-04 4.332266980782151222e-04 9.846015746006742120e-05 -1.147046496043913066e-04
1.781000000000000000e+03 3.188956499099731445e+00 7.742537498474121094e+00 7.985327392816543579e-04 -2.242187329102307558e-04 1.722941960906609893e-04 -3.794369404204189777e-04
1.782000000000000000e+03 4.508055210113525391e+00 1.459592151641845703e+01 1.202386431396007538e-02 -1.469758618623018265e-02 -8.021165267564356327e-04 4.448552790563553572e-04
1.783000000000000000e+03 1.856712698936462402e+00 1.744859886169433594e+01 -3.304607700556516647e-03 5.891884677112102509e-03 7.761831511743366718e-04 -1.131242699921131134e-02
1.784000000000000000e+03 3.476285934448242188e+00 1.992948722839355469e+01 -4.843907430768013000e-02 -5.088512599468231201e-02 -2.979725971817970276e-02 3.385133296251296997e-02
1.785000000000000000e+03 2.993841409683227539e+00 9.029360771179199219e+00 5.412907339632511139e-04 1.387505180900916457e-04 2.040123799815773964e-04 -3.592837601900100708e-04
1.786000000000000000e+03 2.751082181930541992e+00 -4.522623538970947266e+00 -2.575445978436619043e-04 9.981590847019106150e-05 -4.731860826723277569e-05 -6.555836444022133946e-05
1.787000000000000000e+03 1.939445018768310547e+00 -4.135690689086914062e+00 2.515593660064041615e-04 -1.496281765867024660e-04 3.057935828110203147e-05 -1.138057778007350862e-04
1.788000000000000000e+03 2.765084981918334961e+00 -1.575609683990478516e+01 3.046290483325719833e-03 -5.959518719464540482e-03 -8.739684708416461945e-04 6.034409161657094955e-03
1.789000000000000000e+03 7.650632858276367188e+00 -9.264362335205078125e+00 -2.220783935626968741e-04 9.086033678613603115e-04 2.059574908344075084e-04 3.347467281855642796e-05
1.790000000000000000e+03 3.545148611068725586e+00 -2.875286102294921875e+01 7.989077828824520111e-03 -2.467071712017059326e-01 -7.161542773246765137e-02 -1.066472306847572327e-01
1.791000000000000000e+03 4.387937545776367188e+00 -3.763826370239257812e+01 2.527840621769428253e-02 -3.942251503467559814e-01 -1.106840223073959351e-01 -5.326600372791290283e-02
1.792000000000000000e+03 2.682734012603759766e+00 -7.829996109008789062e+00 4.291035293135792017e-04 6.719899101881310344e-05 1.488907582825049758e-04 2.502062707208096981e-04
1.793000000000000000e+03 2.699280738830566406e+00 -3.456266784667968750e+01 1.230918057262897491e-02 -3.755230903625488281e-01 -1.089641749858856201e-01 -5.199171975255012512e-02
1.794000000000000000e+03 5.401156902313232422e+00 -3.475695419311523438e+01 4.188889637589454651e-02 -3.509562015533447266e-01 -9.272019565105438232e-02 -9.195006638765335083e-02
1.795000000000000000e+03 2.744784355163574219e+00 -2.021185111999511719e+01 -2.468156255781650543e-02 -3.545218333601951599e-02 -1.804012432694435120e-02 -3.263528272509574890e-02
1.796000000000000000e+03 1.875824451446533203e+00 -2.317393302917480469e+01 -9.152156300842761993e-03 -7.789535820484161377e-02 -2.611425518989562988e-02 -5.145492404699325562e-02
1.797000000000000000e+03 3.365301847457885742e+00 -2.593967628479003906e+01 -4.119399003684520721e-03 -1.771440654993057251e-01 -5.437903851270675659e-02 -1.043059527873992920e-01
1.798000000000000000e+03 6.030362129211425781e+00 -2.445757102966308594e+01 -3.018605522811412811e-02 -1.863255798816680908e-01 -6.495349109172821045e-02 -1.638603210449218750e-01
1.799000000000000000e+03 2.731127500534057617e+00 -1.452050399780273438e+01 2.859487198293209076e-03 -3.903707023710012436e-03 -3.132659767288714647e-04 4.874572157859802246e-03
1.800000000000000000e+03 2.808552742004394531e+00 -1.328509521484375000e+01 3.388301469385623932e-03 -1.814133720472455025e-03 4.722503363154828548e-04 2.685269108042120934e-03
1.801000000000000000e+03 5.689293861389160156e+00 -9.558138847351074219e+00 6.427973276004195213e-04 1.730987060000188649e-05 1.980321540031582117e-04 -1.579098170623183250e-05
1.802000000000000000e+03 2.949103832244873047e+00 1.030512714385986328e+01 1.752673764713108540e-03 -1.913162559503689408e-04 4.684072337113320827e-04 -1.537225442007184029e-03
1.803000000000000000e+03 3.265488386154174805e+00 1.440928459167480469e+01 7.824247702956199646e-03 -9.061085991561412811e-03 -3.710515156853944063e-04 -7.224168628454208374e-03
1.804000000000000000e+03 6.828437805175781250e+00 1.664871978759765625e+01 8.292722515761852264e-03 -1.341029070317745209e-02 -1.535270479507744312e-03 2.011951990425586700e-02
1.805000000000000000e+03 5.591718196868896484e+00 1.670498275756835938e+01 -5.879343952983617783e-03 -3.032267652451992035e-02 -1.086060609668493271e-02 7.265140302479267120e-03
1.806000000000000000e+03 4.305047035217285156e+00 1.700340461730957031e+01 -6.754866801202297211e-03 -3.768280521035194397e-02 -1.333130151033401489e-02 -1.542353769764304161e-03
1.807000000000000000e+03 5.330158233642578125e+00 1.538378810882568359e+01 1.053165830671787262e-02 -2.539490908384323120e-02 -4.458975046873092651e-03 5.091536790132522583e-03
1.808000000000000000e+03 7.444951057434082031e+00 1.511352920532226562e+01 -6.674412870779633522e-04 1.882401295006275177e-02 5.446971394121646881e-03 1.616612449288368225e-02
1.809000000000000000e+03 4.004373073577880859e+00 -8.896156311035156250e+00 6.589212571270763874e-04 -2.508484612917527556e-05 1.901509240269660950e-04 3.287900181021541357e-04
1.810000000000000000e+03 9.410898208618164062e+00 -7.144926071166992188e+00 -1.081003356375731528e-04 3.044248151127249002e-04 5.889733802177943289e-05 -8.678883023094385862e-05
1.811000000000000000e+03 8.597146987915039062e+00 -8.170596122741699219e+00 2.503488503862172365e-04 -5.016532377339899540e-04 -7.539131183875724673e-05 6.573358405148610473e-05
1.812000000000000000e+03 1.190071201324462891e+01 7.053631782531738281e+00 4.405456129461526871e-04 7.823845371603965759e-04 3.668790450319647789e-04 7.121532107703387737e-04
1.813000000000000000e+03 2.161681365966796875e+01 4.556298732757568359e+00 -1.892825216054916382e-01 -5.206999778747558594e-01 -2.129947543144226074e-01 4.415823817253112793e-01
1.814000000000000000e+03 1.591160202026367188e+01 1.913488197326660156e+01 -4.463399946689605713e-01 -1.029900670051574707e+00 -4.428721964359283447e-01 5.204519033432006836e-01
1.815000000000000000e+03 2.221388626098632812e+01 6.997063755989074707e-01 -1.278282254934310913e-01 -2.724492251873016357e-01 -1.200832426548004150e-01 2.940642833709716797e-01
1.816000000000000000e+03 2.353272628784179688e+01 4.408317089080810547e+00 -2.729918658733367920e-01 -4.033825099468231201e-01 -2.029123157262802124e-01 5.401786565780639648e-01
1.817000000000000000e+03 1.886404800415039062e+01 1.792537307739257812e+01 -4.364636838436126709e-01 -9.188542366027832031e-01 -4.065953791141510010e-01 4.600213170051574707e-01
1.818000000000000000e+03 1.966629600524902344e+01 1.299755382537841797e+01 -5.627141594886779785e-01 -1.012516021728515625e+00 -4.725690484046936035e-01 6.436452865600585938e-01
1.819000000000000000e+03 1.719127464294433594e+01 -1.392420101165771484e+01 -2.901763021945953369e-01 -1.470837593078613281e-01 -1.311780214309692383e-01 -2.497543543577194214e-01
1.820000000000000000e+03 1.657428359985351562e+01 -1.521329975128173828e+01 -2.961643338203430176e-01 -1.797705590724945068e-01 -1.427804678678512573e-01 -2.586001455783843994e-01
1.821000000000000000e+03 2.052503395080566406e+01 8.687175750732421875e+00 -3.510477840900421143e-01 -8.705271482467651367e-01 -3.664724826812744141e-01 5.787339806556701660e-01
1.822000000000000000e+03 2.130256843566894531e+01 1.196880531311035156e+01 -5.081053376197814941e-01 -7.780342698097229004e-01 -3.858418762683868408e-01 6.207616329193115234e-01
1.823000000000000000e+03 1.091872596740722656e+01 -1.957026100158691406e+01 -1.824856549501419067e-01 -2.974877059459686279e-01 -1.439920067787170410e-01 -2.164046019315719604e-01
1.824000000000000000e+03 1.419836330413818359e+01 -1.970892333984375000e+01 -1.890323311090469360e-01 -2.580684125423431396e-01 -1.341302245855331421e-01 -2.348146140575408936e-01
1.825000000000000000e+03 1.266601467132568359e+01 2.191783332824707031e+01 -2.204144746065139771e-01 -8.174213767051696777e-01 -3.113507628440856934e-01 5.318975448608398438e-01
1.826000000000000000e+03 1.153952407836914062e+01 2.107858085632324219e+01 -3.388806283473968506e-01 -6.975240707397460938e-01 -3.109214007854461670e-01 5.512371063232421875e-01
1.827000000000000000e+03 5.526257514953613281e+00 -1.184096527099609375e+01 1.153048942796885967e-03 -8.136409451253712177e-05 3.215054457541555166e-04 -1.260103192180395126e-03
1.828000000000000000e+03 5.086800575256347656e+00 4.024108886718750000e+01 5.088868364691734314e-02 -7.035716176033020020e-01 -1.958048790693283081e-01 5.912548676133155823e-02
1.829000000000000000e+03 7.010691070556640625e+01 -8.814326286315917969e+00 2.538505196571350098e-01 8.526161193847656250e+00 2.634003639221191406e+00 5.467181205749511719e+00
1.830000000000000000e+03 6.979557800292968750e+01 -8.812217712402343750e+00 4.720396101474761963e-01 6.927526950836181641e+00 2.219870090484619141e+00 5.136227130889892578e+00
1.831000000000000000e+03 6.980920410156250000e+01 -8.427869796752929688e+00 1.020339012145996094e+00 6.351459026336669922e+00 2.211539268493652344e+00 5.410321712493896484e+00
1.832000000000000000e+03 6.936849975585937500e+01 -8.311072349548339844e+00 9.401668906211853027e-01 4.086896419525146484e+00 1.508118987083435059e+00 4.288949012756347656e+00
1.833000000000000000e+03 6.869405364990234375e+01 -4.357443809509277344e+00 2.920710146427154541e-01 2.329017162322998047e+00 7.863264679908752441e-01 -3.021420001983642578e+00
1.834000000000000000e+03 6.909553527832031250e+01 -4.462705612182617188e+00 7.369867563247680664e-01 2.936537027359008789e+00 1.102057099342346191e+00 -3.668473482131958008e+00
1.835000000000000000e+03 7.307616424560546875e+01 -7.620383739471435547e+00 4.083343505859375000e+00 1.588644313812255859e+01 5.990935802459716797e+00 -2.493176221847534180e+00
1.836000000000000000e+03 7.199282073974609375e+01 -4.470363140106201172e+00 -4.558055698871612549e-01 1.841461944580078125e+01 5.387644290924072266e+00 -6.234290003776550293e-01
1.837000000000000000e+03 7.140800476074218750e+01 -8.468523025512695312e+00 -1.012946367263793945e+00 1.711807823181152344e+01 4.831539630889892578e+00 3.439638376235961914e+00
1.838000000000000000e+03 7.137891387939453125e+01 -4.152203559875488281e+00 -1.221594333648681641e+00 1.606483650207519531e+01 4.452972412109375000e+00 -3.519531726837158203e+00
1.839000000000000000e+03 7.317568206787109375e+01 -6.930831432342529297e+00 6.794713020324707031e+00 1.496992492675781250e+01 6.529391288757324219e+00 -1.543602705001831055e+00
1.840000000000000000e+03 7.232810974121093750e+01 -4.451539516448974609e+00 1.200328022241592407e-01 1.776282882690429688e+01 5.364858627319335938e+00 5.651453137397766113e-01
1.841000000000000000e+03 7.624810028076171875e+01 -5.879073619842529297e+00 2.048133611679077148e+00 8.996165275573730469e+00 3.313289880752563477e+00 4.987482428550720215e-01
1.842000000000000000e+03 7.192702484130859375e+01 -8.550621986389160156e+00 -9.143575429916381836e-01 1.762562370300292969e+01 5.013380050659179688e+00 1.180208444595336914e+00
1.843000000000000000e+03 7.762134552001953125e+01 -3.467054843902587891e+00 2.297774404287338257e-01 7.836306095123291016e+00 2.419825077056884766e+00 1.458302736282348633e+00
1.844000000000000000e+03 7.317639160156250000e+01 -6.701162815093994141e+00 7.435088634490966797e+00 1.477767276763916016e+01 6.663828372955322266e+00 -1.038578510284423828e+00
1.845000000000000000e+03 6.824345397949218750e+01 -9.175329208374023438e+00 1.170253679156303406e-01 2.540001869201660156e+00 7.971081733703613281e-01 2.879714012145996094e+00
1.846000000000000000e+03 6.696617126464843750e+01 -9.040337562561035156e+00 -8.861899375915527344e-01 1.004125595092773438e+00 3.538068011403083801e-02 1.497239470481872559e+00
1.847000000000000000e+03 6.765642547607421875e+01 -9.607442855834960938e+00 -1.310149282217025757e-01 2.187947273254394531e+00 6.170796751976013184e-01 2.487182140350341797e+00
1.848000000000000000e+03 6.777490234375000000e+01 -4.213908195495605469e+00 -6.075857281684875488e-01 1.235812544822692871e+00 1.884680539369583130e-01 -1.892526626586914062e+00
1.849000000000000000e+03 6.604172515869140625e+01 -3.028671503067016602e+00 -9.475044608116149902e-01 9.663503170013427734e-01 5.653758998960256577e-03 -1.298968076705932617e+00
1.850000000000000000e+03 6.530081939697265625e+01 -2.683778524398803711e+00 -1.050586819648742676e+00 8.487414717674255371e-01 -6.055360659956932068e-02 -1.077527046203613281e+00
1.851000000000000000e+03 6.920162200927734375e+01 -4.208992958068847656e+00 7.093275189399719238e-01 3.886142015457153320e+00 1.378640890121459961e+00 -4.079338073730468750e+00
1.852000000000000000e+03 6.676834106445312500e+01 -3.192960500717163086e+00 -6.166027784347534180e-01 1.296660542488098145e+00 2.040173560380935669e-01 -1.704887747764587402e+00
1.853000000000000000e+03 2.243137931823730469e+01 -3.163042306900024414e+00 -1.033970713615417480e-01 -7.650479674339294434e-02 -5.397056043148040771e-02 1.180431619286537170e-01
1.854000000000000000e+03 2.239468574523925781e+01 3.453524827957153320e+00 -1.897521466016769409e-01 -4.155350327491760254e-01 -1.815861612558364868e-01 4.337880015373229980e-01
1.855000000000000000e+03 2.387342834472656250e+01 -2.445727825164794922e+00 -1.777874082326889038e-01 -1.040841862559318542e-01 -8.456148207187652588e-02 2.095281630754470825e-01
1.856000000000000000e+03 2.001995658874511719e+01 -1.458031535148620605e+00 -2.849960699677467346e-02 -1.160932183265686035e-01 -4.337784647941589355e-02 7.642360031604766846e-02
1.857000000000000000e+03 2.463944244384765625e+01 -2.612366199493408203e+00 -2.198870778083801270e-01 -8.890719711780548096e-02 -9.263828396797180176e-02 2.285753190517425537e-01
1.858000000000000000e+03 2.676705169677734375e+01 -2.913754701614379883e+00 -3.421691358089447021e-01 -5.436187237501144409e-02 -1.189593002200126648e-01 2.703908979892730713e-01
1.859000000000000000e+03 8.511386871337890625e+00 4.162471771240234375e+00 -9.719323134049773216e-05 5.507726455107331276e-04 1.360738242510706186e-04 4.233778454363346100e-04
1.860000000000000000e+03 2.747382354736328125e+01 -2.903493881225585938e+00 -3.882154822349548340e-01 -4.538171738386154175e-02 -1.300791501998901367e-01 2.853012681007385254e-01
1.861000000000000000e+03 9.594897270202636719e+00 -3.129540681838989258e+00 -1.122195862990338355e-05 2.047657035291194916e-04 5.806312401546165347e-05 1.904257660498842597e-04
1.862000000000000000e+03 8.961547851562500000e+00 -3.286965847015380859e+00 -7.100424409145489335e-05 -1.287862251047044992e-04 -5.993714148644357920e-05 -1.348396181128919125e-04
1.863000000000000000e+03 7.772522449493408203e+00 4.153171062469482422e+00 1.573940389789640903e-04 -3.797111858148127794e-04 -6.669513822998851538e-05 -4.513644089456647635e-04
1.864000000000000000e+03 6.832861423492431641e+00 4.906492233276367188e+00 3.074789128731936216e-04 -4.315032565500587225e-04 -3.720730455825105309e-05 -2.706297673285007477e-04
1.865000000000000000e+03 5.126434803009033203e+00 3.916211366653442383e+00 1.690424833213910460e-04 -1.687014591880142689e-04 1.023079363449141965e-07 -2.018979139393195510e-04
1.866000000000000000e+03 4.508071422576904297e+00 5.741569519042968750e+00 4.471885913517326117e-04 -3.894278488587588072e-04 1.732822238409426063e-05 1.944206014741212130e-04
1.867000000000000000e+03 2.483733892440795898e+00 4.629039764404296875e+00 7.321454904740676284e-05 1.167818190879188478e-04 5.699890971300192177e-05 -2.040987019427120686e-04
1.868000000000000000e+03 3.899194002151489258e+00 3.338323831558227539e+00 -5.263433922664262354e-05 4.092657763976603746e-05 -3.512329158184002154e-06 3.564982907846570015e-04
1.869000000000000000e+03 5.159203052520751953e+00 5.134605884552001953e+00 -1.837028103182092309e-04 6.272241007536649704e-04 1.330563973169773817e-04 -9.005374158732593060e-05
1.870000000000000000e+03 1.474650502204895020e+00 4.894670486450195312e+00 -1.470621064072474837e-04 -2.400108787696808577e-04 -1.161218970082700253e-04 3.895798581652343273e-04
1.871000000000000000e+03 1.707827091217041016e+00 3.320194244384765625e+00 1.602081756573170424e-04 -3.430509823374450207e-04 -5.485284054884687066e-05 1.161112522822804749e-04
1.872000000000000000e+03 3.034645271301269531e+01 -2.912313938140869141e+00 -5.828558802604675293e-01 -1.815699972212314606e-02 -1.803038567304611206e-01 3.306072652339935303e-01
1.873000000000000000e+03 2.548411750793457031e+01 -2.169174432754516602e+00 -2.734979391098022461e-01 -9.098037332296371460e-02 -1.093434989452362061e-01 2.791517674922943115e-01
1.874000000000000000e+03 2.455245590209960938e+01 -3.305625915527343750e+00 -2.006122916936874390e-01 -6.860955804586410522e-02 -8.076655119657516479e-02 1.864403039216995239e-01
1.875000000000000000e+03 2.171710205078125000e+01 -2.643546104431152344e+00 -7.994704693555831909e-02 -9.176631271839141846e-02 -5.151400715112686157e-02 1.105403155088424683e-01
1.876000000000000000e+03 2.308351707458496094e+01 -2.410479307174682617e+00 -1.390786021947860718e-01 -1.100388765335083008e-01 -7.473524659872055054e-02 1.800029575824737549e-01
1.877000000000000000e+03 2.901918601989746094e+01 -1.450336575508117676e+00 -4.879369437694549561e-01 -5.758359283208847046e-02 -1.636561602354049683e-01 4.106601178646087646e-01
1.878000000000000000e+03 2.743470764160156250e+01 -3.568165063858032227e+00 -3.752232193946838379e-01 -3.327114880084991455e-02 -1.225483119487762451e-01 2.411373257637023926e-01
1.879000000000000000e+03 3.036696243286132812e+01 -2.233225822448730469e+00 -5.825695395469665527e-01 -2.426665276288986206e-02 -1.820508688688278198e-01 3.772788047790527344e-01
1.880000000000000000e+03 7.476531505584716797e+00 -3.365020513534545898e+00 -6.063336695660836995e-05 -7.480484782718122005e-05 -4.063146479893475771e-05 -7.800747698638588190e-05
1.881000000000000000e+03 1.074263668060302734e+01 -5.249382495880126953e+00 -7.725294562987983227e-05 7.396386354230344296e-05 -9.867235348792746663e-07 -2.769275488390121609e-05
1.882000000000000000e+03 3.254246902465820312e+01 -2.912521839141845703e+00 -7.469220161437988281e-01 -3.642660332843661308e-03 -2.251693904399871826e-01 3.505606651306152344e-01
1.883000000000000000e+03 2.962009048461914062e+01 -2.905143022537231445e+00 -5.303451418876647949e-01 -2.439673803746700287e-02 -1.664225608110427856e-01 3.207265436649322510e-01
1.884000000000000000e+03 3.032093811035156250e+01 -3.593132495880126953e+00 -5.816701054573059082e-01 -1.047462504357099533e-02 -1.776434183120727539e-01 2.788379192352294922e-01
1.885000000000000000e+03 4.361151885986328125e+01 -9.805517196655273438e+00 -1.629778623580932617e+00 -1.558982674032449722e-02 -4.936105608940124512e-01 -3.281000256538391113e-01
1.886000000000000000e+03 4.584486770629882812e+01 -1.175799751281738281e+01 -1.392303943634033203e+00 -1.685997657477855682e-02 -4.227491915225982666e-01 -4.489620029926300049e-01
1.887000000000000000e+03 4.209988784790039062e+01 -9.844146728515625000e+00 -1.523086190223693848e+00 -1.700519211590290070e-02 -4.620274305343627930e-01 -3.202523589134216309e-01
1.888000000000000000e+03 4.281333923339843750e+01 -1.057061004638671875e+01 -1.452933549880981445e+00 -2.150040492415428162e-02 -4.423301815986633301e-01 -3.702492117881774902e-01
1.889000000000000000e+03 4.728456878662109375e+01 -1.039314365386962891e+01 -1.745721101760864258e+00 -1.082875952124595642e-02 -5.269649624824523926e-01 -3.861102163791656494e-01
1.890000000000000000e+03 4.791267395019531250e+01 -1.176288414001464844e+01 -1.474880218505859375e+00 -1.358129456639289856e-02 -4.465384483337402344e-01 -4.500274658203125000e-01
1.891000000000000000e+03 4.808352279663085938e+01 -9.703431129455566406e+00 -1.953183054924011230e+00 -7.081274408847093582e-03 -5.880793333053588867e-01 -3.452662527561187744e-01
1.892000000000000000e+03 4.059689331054687500e+01 -9.869248390197753906e+00 -1.420738101005554199e+00 -1.786935701966285706e-02 -4.315822124481201172e-01 -3.113332092761993408e-01
1.893000000000000000e+03 4.357925033569335938e+01 -1.128197574615478516e+01 -1.377776622772216797e+00 -2.635900862514972687e-02 -4.212406873703002930e-01 -4.132754802703857422e-01
1.894000000000000000e+03 6.225193023681640625e+01 -2.115280628204345703e+00 -1.589432835578918457e+00 3.332982361316680908e-01 -3.768403828144073486e-01 -2.884572744369506836e-01
1.895000000000000000e+03 6.378166198730468750e+01 -3.470202445983886719e+00 -2.144741773605346680e+00 2.472336590290069580e-01 -5.692524313926696777e-01 -2.772747874259948730e-01
1.896000000000000000e+03 4.952902221679687500e+01 -1.042675685882568359e+01 -1.863537430763244629e+00 -6.319935899227857590e-03 -5.609572529792785645e-01 -3.907014727592468262e-01
1.897000000000000000e+03 5.027768707275390625e+01 -1.043121623992919922e+01 -1.899065375328063965e+00 -3.919507376849651337e-03 -5.708954930305480957e-01 -3.887909352779388428e-01
1.898000000000000000e+03 3.910276412963867188e+01 -9.895960807800292969e+00 -1.320091366767883301e+00 -1.978551223874092102e-02 -4.019630551338195801e-01 -3.017812073230743408e-01
1.899000000000000000e+03 4.052770996093750000e+01 -1.059898948669433594e+01 -1.315127253532409668e+00 -2.468940429389476776e-02 -4.019449949264526367e-01 -3.556841015815734863e-01
1.900000000000000000e+03 5.101867675781250000e+01 -1.190171432495117188e+01 -1.523972749710083008e+00 1.000114623457193375e-02 -4.541915059089660645e-01 -4.328522980213165283e-01
1.901000000000000000e+03 5.107315444946289062e+01 -9.697286605834960938e+00 -2.149693250656127930e+00 -3.760024206712841988e-03 -6.460359692573547363e-01 -3.482557833194732666e-01
1.902000000000000000e+03 3.398861694335937500e+01 -2.196312665939331055e+00 -8.352649807929992676e-01 -1.403413596563041210e-03 -2.510005235671997070e-01 4.132393300533294678e-01
1.903000000000000000e+03 3.326552581787109375e+01 -3.566330671310424805e+00 -8.202041387557983398e-01 2.978371223434805870e-03 -2.451677322387695312e-01 3.015784025192260742e-01
1.904000000000000000e+03 5.325693511962890625e+01 -1.036968040466308594e+01 -2.038521051406860352e+00 7.003353442996740341e-03 -6.094553470611572266e-01 -3.727932870388031006e-01
1.905000000000000000e+03 3.761786651611328125e+01 -9.935795783996582031e+00 -1.220630764961242676e+00 -2.299925126135349274e-02 -3.730890154838562012e-01 -2.918368875980377197e-01
1.906000000000000000e+03 3.978156280517578125e+01 -1.060063552856445312e+01 -1.271685719490051270e+00 -2.359822951257228851e-02 -3.885851800441741943e-01 -3.502534925937652588e-01
1.907000000000000000e+03 5.553948974609375000e+01 -9.640523910522460938e+00 -2.390663862228393555e+00 1.488805096596479416e-02 -7.127327919006347656e-01 -3.182894289493560791e-01
1.908000000000000000e+03 4.434278869628906250e+01 -1.123204612731933594e+01 -1.423230051994323730e+00 -2.647204883396625519e-02 -4.349106252193450928e-01 -4.174003601074218750e-01
1.909000000000000000e+03 4.507671737670898438e+01 -1.046249008178710938e+01 -1.603108763694763184e+00 -1.812468655407428741e-02 -4.863700568675994873e-01 -3.801892399787902832e-01
1.910000000000000000e+03 4.802765655517578125e+01 -1.039995002746582031e+01 -1.788122653961181641e+00 -9.731970727443695068e-03 -5.393564105033874512e-01 -3.881742656230926514e-01
1.911000000000000000e+03 5.620976638793945312e+01 -1.032283782958984375e+01 -2.116694927215576172e+00 3.624666109681129456e-02 -6.241344809532165527e-01 -3.154298365116119385e-01
1.912000000000000000e+03 4.127957534790039062e+01 -1.059778308868408203e+01 -1.359375953674316406e+00 -2.300464361906051636e-02 -4.147141873836517334e-01 -3.617483973503112793e-01
1.913000000000000000e+03 5.917816162109375000e+01 -1.026421260833740234e+01 -2.069080352783203125e+00 9.426534920930862427e-02 -5.924444794654846191e-01 -1.777767091989517212e-01
1.914000000000000000e+03 5.702289962768554688e+01 -9.623533248901367188e+00 -2.434830665588378906e+00 2.647703140974044800e-02 -7.225060462951660156e-01 -2.880785167217254639e-01
1.915000000000000000e+03 5.102894210815429688e+01 -1.042621707916259766e+01 -1.935505867004394531e+00 -3.779982682317495346e-03 -5.817857384681701660e-01 -3.876678645610809326e-01
1.916000000000000000e+03 3.612783050537109375e+01 -9.989488601684570312e+00 -1.122626781463623047e+00 -2.597895450890064240e-02 -3.445816934108734131e-01 -2.821579873561859131e-01
1.917000000000000000e+03 3.904136276245117188e+01 -1.060899448394775391e+01 -1.226037979125976562e+00 -2.648514136672019958e-02 -3.757569193840026855e-01 -3.459707498550415039e-01
1.918000000000000000e+03 5.473991394042968750e+01 -1.033595657348632812e+01 -2.091356515884399414e+00 2.041302435100078583e-02 -6.212830543518066406e-01 -3.507896959781646729e-01
1.919000000000000000e+03 5.399738311767578125e+01 -1.035020828247070312e+01 -2.068446874618530273e+00 1.195846311748027802e-02 -6.169465184211730957e-01 -3.639761805534362793e-01
1.920000000000000000e+03 3.698928070068359375e+01 -3.446173667907714844e+00 -1.143460273742675781e+00 7.070278748869895935e-03 -3.409169912338256836e-01 3.205066323280334473e-01
1.921000000000000000e+03 3.620448684692382812e+01 -2.089304685592651367e+00 -9.925715327262878418e-01 4.009487107396125793e-03 -2.965686023235321045e-01 4.305230379104614258e-01
1.922000000000000000e+03 6.291094970703125000e+01 -1.012210845947265625e+01 -1.671076893806457520e+00 3.109733462333679199e-01 -4.080310761928558350e-01 2.678302526473999023e-01
1.923000000000000000e+03 6.149940109252929688e+01 -9.525755882263183594e+00 -2.309960842132568359e+00 1.174371466040611267e-01 -6.577571034431457520e-01 -4.684489592909812927e-02
1.924000000000000000e+03 5.694656753540039062e+01 -1.031045913696289062e+01 -2.118791818618774414e+00 4.398673400282859802e-02 -6.224415302276611328e-01 -2.924799919128417969e-01
1.925000000000000000e+03 6.298860931396484375e+01 -9.467692375183105469e+00 -2.115142822265625000e+00 1.960818022489547729e-01 -5.757183432579040527e-01 1.403304040431976318e-01
1.926000000000000000e+03 3.538282394409179688e+01 -1.001532554626464844e+01 -1.075773477554321289e+00 -2.692554518580436707e-02 -3.308096826076507568e-01 -2.778610885143280029e-01
1.927000000000000000e+03 3.755858230590820312e+01 -1.135438060760498047e+01 -1.056600093841552734e+00 -3.661549463868141174e-02 -3.279646933078765869e-01 -3.717432618141174316e-01
1.928000000000000000e+03 6.142034149169921875e+01 -1.018763160705566406e+01 -1.897515654563903809e+00 1.862455010414123535e-01 -5.133810639381408691e-01 3.107664175331592560e-02
1.929000000000000000e+03 5.992451858520507812e+01 -1.024204730987548828e+01 -2.030822992324829102e+00 1.157832518219947815e-01 -5.745119452476501465e-01 -1.228057816624641418e-01
1.930000000000000000e+03 6.433774566650390625e+01 -1.003550243377685547e+01 -1.336513280868530273e+00 5.190352797508239746e-01 -2.452434003353118896e-01 6.210702061653137207e-01
1.931000000000000000e+03 6.216795730590820312e+01 -1.015641784667968750e+01 -1.794246077537536621e+00 2.451626062393188477e-01 -4.647250473499298096e-01 1.365773379802703857e-01
1.932000000000000000e+03 6.025252532958984375e+01 -3.350694894790649414e+00 -2.595491647720336914e+00 6.723855435848236084e-02 -7.584759593009948730e-01 1.286734342575073242e-01
1.933000000000000000e+03 5.806835556030273438e+01 -2.577106714248657227e+00 -2.273867130279541016e+00 5.729532241821289062e-02 -6.649715304374694824e-01 2.104130238294601440e-01
1.934000000000000000e+03 3.474510192871093750e+01 -2.843751192092895508e+00 -9.190508723258972168e-01 4.001961555331945419e-03 -2.745146751403808594e-01 3.672338128089904785e-01
1.935000000000000000e+03 6.095395660400390625e+01 -2.791650533676147461e+00 -2.168538808822631836e+00 1.438269168138504028e-01 -6.074135899543762207e-01 5.744397640228271484e-03
1.936000000000000000e+03 5.581357192993164062e+01 -2.524546623229980469e+00 -2.285931348800659180e+00 2.618121728301048279e-02 -6.779250502586364746e-01 2.903864979743957520e-01
1.937000000000000000e+03 6.164967727661132812e+01 -2.794690608978271484e+00 -2.084684133529663086e+00 1.626280248165130615e-01 -5.766168832778930664e-01 -6.810182332992553711e-02
1.938000000000000000e+03 1.095881366729736328e+01 3.358227729797363281e+00 1.904251112136989832e-04 9.167546522803604603e-05 8.463017729809507728e-05 4.003125068265944719e-04
1.939000000000000000e+03 1.159807395935058594e+01 4.990719318389892578e+00 -2.438169467495754361e-04 -4.477296024560928345e-04 -2.074639633065089583e-04 -9.195529273711144924e-04
1.940000000000000000e+03 5.804990005493164062e+01 -3.243132352828979492e+00 -2.614822149276733398e+00 3.217995166778564453e-02 -7.747926712036132812e-01 2.278621196746826172e-01
1.941000000000000000e+03 5.956475067138671875e+01 -2.651965856552124023e+00 -2.244528055191040039e+00 8.670113235712051392e-02 -6.473480463027954102e-01 1.233656257390975952e-01
1.942000000000000000e+03 6.026911544799804688e+01 -2.732241153717041016e+00 -2.224745512008666992e+00 1.211688145995140076e-01 -6.310729980468750000e-01 7.009302824735641479e-02
1.943000000000000000e+03 6.499858093261718750e+01 -9.988928794860839844e+00 -1.147120714187622070e+00 6.927701830863952637e-01 -1.363051682710647583e-01 8.634954690933227539e-01
1.944000000000000000e+03 6.510261535644531250e+01 -9.375874519348144531e+00 -1.531244397163391113e+00 4.522857666015625000e-01 -3.236876130104064941e-01 6.521068811416625977e-01
1.945000000000000000e+03 5.431400680541992188e+01 -2.519052743911743164e+00 -2.258544445037841797e+00 1.520942430943250656e-02 -6.730004549026489258e-01 3.266070783138275146e-01
1.946000000000000000e+03 5.055905914306640625e+01 -2.512826919555664062e+00 -2.098283290863037109e+00 -1.294704386964440346e-03 -6.298733949661254883e-01 3.738631308078765869e-01
1.947000000000000000e+03 3.623167037963867188e+01 -2.784486532211303711e+00 -1.036643266677856445e+00 5.884261801838874817e-03 -3.092277050018310547e-01 3.764297962188720703e-01
1.948000000000000000e+03 5.204777526855468750e+01 -3.199240922927856445e+00 -2.396037817001342773e+00 -2.059939317405223846e-03 -7.194293141365051270e-01 3.235012888908386230e-01
1.949000000000000000e+03 5.205803298950195312e+01 -2.515846967697143555e+00 -2.175756216049194336e+00 3.272813744843006134e-03 -6.517450213432312012e-01 3.608313500881195068e-01
1.950000000000000000e+03 5.731741714477539062e+01 -2.551978588104248047e+00 -2.285589694976806641e+00 4.264594987034797668e-02 -6.728830933570861816e-01 2.414328157901763916e-01
1.951000000000000000e+03 5.656521987915039062e+01 -2.533604145050048828e+00 -2.287193059921264648e+00 3.128425404429435730e-02 -6.767726540565490723e-01 2.682756483554840088e-01
1.952000000000000000e+03 3.924727630615234375e+01 -2.691481828689575195e+00 -1.278964757919311523e+00 5.162294022738933563e-03 -3.821407556533813477e-01 3.882097303867340088e-01
1.953000000000000000e+03 4.830596923828125000e+01 -2.527503013610839844e+00 -1.962819218635559082e+00 -2.499359892681241035e-03 -5.895955562591552734e-01 3.863251507282257080e-01
1.954000000000000000e+03 4.378152465820312500e+01 -2.582319974899291992e+00 -1.637646555900573730e+00 1.226970489369705319e-04 -4.912571609020233154e-01 3.938782215118408203e-01
1.955000000000000000e+03 4.227231979370117188e+01 -2.619483470916748047e+00 -1.521450638771057129e+00 2.335639903321862221e-03 -4.557344913482666016e-01 3.929325342178344727e-01
1.956000000000000000e+03 4.603235244750976562e+01 -3.241942882537841797e+00 -1.944816708564758301e+00 -3.242042846977710724e-03 -5.844176411628723145e-01 3.366467654705047607e-01
1.957000000000000000e+03 4.604708480834960938e+01 -2.548760414123535156e+00 -1.806532621383666992e+00 -2.463174751028418541e-03 -5.426987409591674805e-01 3.922132253646850586e-01
1.958000000000000000e+03 4.075335693359375000e+01 -3.343865156173706055e+00 -1.481542587280273438e+00 3.732363693416118622e-03 -4.433430731296539307e-01 3.305850625038146973e-01
1.959000000000000000e+03 3.310521697998046875e+01 -1.007913875579833984e+01 -9.330477714538574219e-01 -2.738705277442932129e-02 -2.881304323673248291e-01 -2.614456117153167725e-01
1.960000000000000000e+03 5.355884933471679688e+01 -2.518324613571166992e+00 -2.236259937286376953e+00 1.050260849297046661e-02 -6.677272319793701172e-01 3.404748737812042236e-01
1.961000000000000000e+03 3.698212814331054688e+01 -2.757178068161010742e+00 -1.096532821655273438e+00 6.146896164864301682e-03 -3.271157741546630859e-01 3.801829814910888672e-01
1.962000000000000000e+03 6.560648345947265625e+01 -9.960826873779296875e+00 -9.334414005279541016e-01 9.051388502120971680e-01 -8.490771055221557617e-03 1.132884144783020020e+00
1.963000000000000000e+03 5.280563354492187500e+01 -2.517589569091796875e+00 -2.208675622940063477e+00 7.216928061097860336e-03 -6.604375839233398438e-01 3.513199388980865479e-01
1.964000000000000000e+03 3.383367919921875000e+01 -1.078984928131103516e+01 -9.179731011390686035e-01 -3.391739353537559509e-02 -2.855671346187591553e-01 -3.081753849983215332e-01
1.965000000000000000e+03 3.459565734863281250e+01 -1.077383899688720703e+01 -9.618629813194274902e-01 -3.380559384822845459e-02 -2.987005710601806641e-01 -3.138704597949981689e-01
1.966000000000000000e+03 5.131058502197265625e+01 -2.513533592224121094e+00 -2.138272285461425781e+00 6.804048316553235054e-04 -6.412776112556457520e-01 3.677843213081359863e-01
1.967000000000000000e+03 4.980705261230468750e+01 -2.515338897705078125e+00 -2.055166244506835938e+00 -1.797364209778606892e-03 -6.170890331268310547e-01 3.787395656108856201e-01
1.968000000000000000e+03 4.000372314453125000e+01 -2.673927783966064453e+00 -1.340302109718322754e+00 4.651399329304695129e-03 -4.006952345371246338e-01 3.897385001182556152e-01
1.969000000000000000e+03 4.151356506347656250e+01 -2.637080430984497070e+00 -1.461170196533203125e+00 3.198386402800679207e-03 -4.373915493488311768e-01 3.922566473484039307e-01
1.970000000000000000e+03 4.755195617675781250e+01 -2.533747196197509766e+00 -1.912627220153808594e+00 -2.739334246143698692e-03 -5.746099948883056641e-01 3.887851238250732422e-01
1.971000000000000000e+03 4.679836654663085938e+01 -2.540498495101928711e+00 -1.860368490219116211e+00 -2.535655163228511810e-03 -5.588712096214294434e-01 3.911362588405609131e-01
1.972000000000000000e+03 4.378542709350585938e+01 -1.879488587379455566e+00 -1.524438500404357910e+00 1.595131936483085155e-03 -4.568530023097991943e-01 4.460365474224090576e-01
1.973000000000000000e+03 4.529441070556640625e+01 -2.557948827743530273e+00 -1.751637697219848633e+00 -1.678426167927682400e-03 -5.259948372840881348e-01 3.934113681316375732e-01
1.974000000000000000e+03 4.453774642944335938e+01 -2.568270921707153320e+00 -1.694558739662170410e+00 -1.009591389447450638e-03 -5.086705088615417480e-01 3.938436806201934814e-01
1.975000000000000000e+03 3.683800506591796875e+01 -1.068150329589843750e+01 -1.092174649238586426e+00 -3.086386620998382568e-02 -3.369115591049194336e-01 -3.290381133556365967e-01
1.976000000000000000e+03 2.992401313781738281e+01 -1.095410060882568359e+01 -7.020242810249328613e-01 -2.733040973544120789e-02 -2.188064008951187134e-01 -2.850481867790222168e-01
1.977000000000000000e+03 3.070755195617675781e+01 -1.092487430572509766e+01 -7.421515583992004395e-01 -2.978173457086086273e-02 -2.315799891948699951e-01 -2.886272966861724854e-01
1.978000000000000000e+03 6.784313964843750000e+01 -8.185290336608886719e+00 -1.009465813636779785e+00 8.430852293968200684e-01 -4.991415888071060181e-02 1.479480862617492676e+00
1.979000000000000000e+03 6.627828216552734375e+01 -9.430644035339355469e+00 -9.747945070266723633e-01 9.175281524658203125e-01 -1.717989891767501831e-02 1.259451985359191895e+00
1.980000000000000000e+03 3.229391479492187500e+01 -1.084387111663818359e+01 -8.307627439498901367e-01 -3.289347514510154724e-02 -2.590968608856201172e-01 -2.976806461811065674e-01
1.981000000000000000e+03 1.074201297760009766e+01 4.943866252899169922e+00 7.148666190914809704e-05 6.110964459367096424e-04 2.047749294433742762e-04 7.268003537319600582e-04
1.982000000000000000e+03 2.763715744018554688e+01 -1.086912155151367188e+01 -5.905386805534362793e-01 -1.781385019421577454e-02 -1.825057566165924072e-01 -2.673436403274536133e-01
1.983000000000000000e+03 2.693535232543945312e+01 -1.011534690856933594e+01 -5.752169489860534668e-01 -1.062634680420160294e-02 -1.757529973983764648e-01 -2.241971194744110107e-01
1.984000000000000000e+03 9.818798065185546875e+00 -4.781518459320068359e+00 8.896559302229434252e-05 -2.231896942248567939e-04 -4.026723036076873541e-05 3.148546602460555732e-05
1.985000000000000000e+03 4.677502155303955078e+00 -3.626842975616455078e+00 -6.433805538108572364e-05 -6.692267925245687366e-05 -3.937822111765854061e-05 -2.081610000459477305e-04
1.986000000000000000e+03 6.048425674438476562e+00 -5.026392936706542969e+00 -8.669328235555440187e-05 3.381282149348407984e-04 7.543048559455201030e-05 1.892747677629813552e-04
1.987000000000000000e+03 6.576753616333007812e+00 -4.547375679016113281e+00 1.892476575449109077e-04 -2.136544935638085008e-04 -7.322052169911330566e-06 -2.393836984992958605e-05
1.988000000000000000e+03 8.232784271240234375e+00 -3.378963232040405273e+00 9.930658416124060750e-05 8.795916801318526268e-05 5.617972419713623822e-05 1.308755017817020416e-04
1.989000000000000000e+03 3.743041515350341797e+00 -7.697613239288330078e+00 -1.132655825131223537e-06 -1.906594661704730242e-05 -6.059580300643574446e-06 -1.701567816780880094e-04
1.990000000000000000e+03 3.238694190979003906e+00 -3.966208696365356445e+00 -1.070477155735716224e-04 -3.269593071308918297e-05 -4.192309279460459948e-05 -2.444942656438797712e-04
1.991000000000000000e+03 3.485914468765258789e+00 -5.582763195037841797e+00 -1.728297211229801178e-04 -2.242519485662342049e-06 -5.252167466096580029e-05 -2.449773019179701805e-04
1.992000000000000000e+03 2.585799694061279297e+00 -5.494203090667724609e+00 2.800028014462441206e-04 5.879886089132924099e-07 8.417724166065454483e-05 1.129445299739018083e-04
1.993000000000000000e+03 3.150254058837890625e+01 -1.088343334197998047e+01 -7.862505912780761719e-01 -3.182488307356834412e-02 -2.454226464033126831e-01 -2.935450375080108643e-01
1.994000000000000000e+03 2.151208877563476562e+01 -9.663168907165527344e+00 -2.974809408187866211e-01 -6.373541691573336720e-05 -8.926340192556381226e-02 -1.726409196853637695e-01
1.995000000000000000e+03 2.363479042053222656e+01 -1.063719749450683594e+01 -4.141280949115753174e-01 4.058346094097942114e-04 -1.241166740655899048e-01 -2.320802509784698486e-01
1.996000000000000000e+03 2.441439247131347656e+01 -1.078776073455810547e+01 -4.441489875316619873e-01 -2.291408600285649300e-03 -1.339321136474609375e-01 -2.422050088644027710e-01
1.997000000000000000e+03 6.428829193115234375e+01 -2.950654029846191406e+00 -1.560962200164794922e+00 4.448443353176116943e-01 -3.348353505134582520e-01 -5.806502699851989746e-01
1.998000000000000000e+03 6.375055694580078125e+01 -2.891668796539306641e+00 -1.686155080795288086e+00 3.774793446063995361e-01 -3.926027119159698486e-01 -4.383132457733154297e-01
1.999000000000000000e+03 2.915470314025878906e+01 -1.095113754272460938e+01 -6.631079316139221191e-01 -2.496959641575813293e-02 -2.064232528209686279e-01 -2.796254456043243408e-01
2.000000000000000000e+03 1.170690250396728516e+01 4.144474029541015625e+00 3.630841092672199011e-04 9.335161303170025349e-05 1.369307137792930007e-04 5.735366721637547016e-04
2.001000000000000000e+03 2.839883804321289062e+01 -1.091390323638916016e+01 -6.278747916221618652e-01 -2.138486690819263458e-02 -1.947778910398483276e-01 -2.735780477523803711e-01
2.002000000000000000e+03 1.771802520751953125e+01 -1.269369506835937500e+01 -2.727201581001281738e-01 -1.186284571886062622e-01 -1.174045875668525696e-01 -2.387031614780426025e-01
2.003000000000000000e+03 1.817348289489746094e+01 -1.156075096130371094e+01 -2.457026094198226929e-01 -8.902680128812789917e-02 -1.004188209772109985e-01 -2.149527519941329956e-01
2.004000000000000000e+03 2.523881721496582031e+01 -1.085090255737304688e+01 -4.785433113574981689e-01 -6.697847973555326462e-03 -1.455723494291305542e-01 -2.510708570480346680e-01
2.005000000000000000e+03 2.220806121826171875e+01 -1.034853935241699219e+01 -3.474622070789337158e-01 -1.489282818511128426e-03 -1.046854481101036072e-01 -2.119433730840682983e-01
2.006000000000000000e+03 2.150520324707031250e+01 -1.031956577301025391e+01 -3.201439082622528076e-01 -6.964823231101036072e-03 -9.813261777162551880e-02 -2.048980444669723511e-01
2.007000000000000000e+03 1.863733100891113281e+01 -1.058890247344970703e+01 -2.227524071931838989e-01 -6.390459835529327393e-02 -8.599710464477539062e-02 -1.865656822919845581e-01
2.008000000000000000e+03 1.913086509704589844e+01 -9.811714172363281250e+00 -2.046416252851486206e-01 -4.156356304883956909e-02 -7.386155426502227783e-02 -1.601099520921707153e-01
2.009000000000000000e+03 1.004703903198242188e+01 1.007352352142333984e+01 2.390315494267269969e-04 -1.866399659775197506e-03 -4.882104112766683102e-04 -6.963724154047667980e-04
2.010000000000000000e+03 9.812078475952148438e+00 8.564739227294921875e+00 5.473935743793845177e-04 -1.559277530759572983e-03 -3.035651752725243568e-04 -3.304814454168081284e-04
2.011000000000000000e+03 3.051330566406250000e+00 1.161131858825683594e+01 3.156241960823535919e-03 -8.385212277062237263e-04 6.953162373974919319e-04 -2.118495758622884750e-03
2.012000000000000000e+03 6.631860733032226562e+00 1.824521827697753906e+01 -8.152484148740768433e-02 -2.777863480150699615e-02 -3.279104083776473999e-02 1.999355852603912354e-02
2.013000000000000000e+03 3.068204641342163086e+00 1.723782539367675781e+01 -6.471972446888685226e-03 -1.806678995490074158e-02 -7.361629046499729156e-03 -1.144196651875972748e-02
2.014000000000000000e+03 9.928010940551757812e+00 4.949835777282714844e+00 1.411603443557396531e-04 -5.644269404001533985e-04 -1.269799831788986921e-04 -7.874866714701056480e-04
2.015000000000000000e+03 4.235936164855957031e+00 1.130310726165771484e+01 3.439346095547080040e-03 -2.516082022339105606e-03 2.769792627077549696e-04 -1.101569505408406258e-03
2.016000000000000000e+03 7.328673362731933594e+00 -2.422011184692382812e+01 -3.043819405138492584e-02 -2.102238833904266357e-01 -7.219862192869186401e-02 -1.912482082843780518e-01
2.017000000000000000e+03 7.619214534759521484e+00 -2.259756088256835938e+01 -7.932601869106292725e-02 -1.746759265661239624e-01 -7.620058208703994751e-02 -1.962672173976898193e-01
2.018000000000000000e+03 2.854647159576416016e+00 -1.901094818115234375e+01 -2.351307123899459839e-02 -1.675165444612503052e-02 -1.207941770553588867e-02 -1.674991659820079803e-02
2.019000000000000000e+03 6.087331771850585938e+00 -1.853127288818359375e+01 -1.051947176456451416e-01 -2.079364284873008728e-02 -3.779650852084159851e-02 -3.877676650881767273e-02
2.020000000000000000e+03 9.207532882690429688e+00 -4.092787265777587891e+00 1.575861824676394463e-05 2.630358503665775061e-04 8.363834058400243521e-05 1.652814971748739481e-04
2.021000000000000000e+03 7.519894599914550781e+00 -2.094890785217285156e+01 -1.329589486122131348e-01 -1.131331846117973328e-01 -7.382763922214508057e-02 -1.739405989646911621e-01
2.022000000000000000e+03 2.194058799743652344e+01 7.810395717620849609e+00 -3.453936576843261719e-01 -6.551315188407897949e-01 -3.001575469970703125e-01 5.939527153968811035e-01
2.023000000000000000e+03 2.104262542724609375e+01 -2.359253764152526855e-01 -6.503397971391677856e-02 -2.119251042604446411e-01 -8.308772742748260498e-02 1.740102171897888184e-01
2.024000000000000000e+03 9.093137741088867188e+00 9.488089561462402344e+00 -3.746401634998619556e-04 2.456000307574868202e-03 6.244080723263323307e-04 2.664825879037380219e-04
2.025000000000000000e+03 1.252312946319580078e+01 5.024287223815917969e+00 4.678312106989324093e-04 1.146244976553134620e-04 1.747367059579119086e-04 5.833397153764963150e-04
2.026000000000000000e+03 2.275676918029785156e+01 -1.102160811424255371e+00 -1.352721750736236572e-01 -1.722869277000427246e-01 -9.226772934198379517e-02 2.309663891792297363e-01
2.027000000000000000e+03 2.120134544372558594e+01 9.154995679855346680e-01 -7.861424982547760010e-02 -2.900988161563873291e-01 -1.106139197945594788e-01 2.346981167793273926e-01
2.028000000000000000e+03 7.637227535247802734e+00 -6.140279293060302734e+00 -1.753471588017418981e-04 3.902485186699777842e-04 6.447040505008772016e-05 6.353012577164918184e-05
2.029000000000000000e+03 8.411784172058105469e+00 1.209571743011474609e+01 9.093731059692800045e-04 -6.375951925292611122e-04 8.153336966643109918e-05 4.166636790614575148e-05
2.030000000000000000e+03 5.807264804840087891e+00 1.166486263275146484e+01 3.473195247352123260e-03 -3.255995223298668861e-03 6.516005669254809618e-05 1.857203780673444271e-03
2.031000000000000000e+03 1.359211349487304688e+01 2.092799949645996094e+01 -2.872554361820220947e-01 -8.880107402801513672e-01 -3.525798618793487549e-01 5.334832072257995605e-01
2.032000000000000000e+03 7.544929504394531250e+01 1.396748065948486328e+01 1.975925453007221222e-02 7.322077751159667969e+00 2.202551126480102539e+00 -6.065635085105895996e-01
2.033000000000000000e+03 7.607545471191406250e+01 3.545030975341796875e+01 1.444435585290193558e-02 6.004774093627929688e+00 1.805765509605407715e+00 -1.118466630578041077e-01
2.034000000000000000e+03 7.481920623779296875e+01 3.119824790954589844e+01 7.219983637332916260e-02 5.956828117370605469e+00 1.808708310127258301e+00 -2.617190182209014893e-01
2.035000000000000000e+03 7.736073303222656250e+01 -6.536215782165527344e+00 1.174833774566650391e+00 7.523483276367187500e+00 2.609495162963867188e+00 -8.892076462507247925e-02
2.036000000000000000e+03 7.739823913574218750e+01 -4.636837482452392578e+00 7.775343656539916992e-01 7.777112483978271484e+00 2.566394090652465820e+00 1.106053829193115234e+00
2.037000000000000000e+03 7.331073760986328125e+01 -5.838631153106689453e+00 6.318058967590332031e+00 1.449054145812988281e+01 6.242579936981201172e+00 1.527713060379028320e+00
2.038000000000000000e+03 7.697828674316406250e+01 8.457158088684082031e+00 -9.960733354091644287e-02 8.493248939514160156e+00 2.518092393875122070e+00 -3.324267268180847168e-01
2.039000000000000000e+03 7.673903656005859375e+01 1.673717498779296875e+01 2.708514034748077393e-02 7.416649341583251953e+00 2.233120203018188477e+00 -4.279918968677520752e-01
2.040000000000000000e+03 7.536080932617187500e+01 1.812293434143066406e+01 5.999297276139259338e-02 6.895741462707519531e+00 2.086720228195190430e+00 -5.384976267814636230e-01
2.041000000000000000e+03 7.530617523193359375e+01 2.096693992614746094e+01 6.260006129741668701e-02 6.638348102569580078e+00 2.010284423828125000e+00 -4.720992445945739746e-01
2.042000000000000000e+03 7.533724212646484375e+01 1.953164291381835938e+01 6.553364545106887817e-02 6.764369487762451172e+00 2.048970937728881836e+00 -5.075160264968872070e-01
2.043000000000000000e+03 7.398102569580078125e+01 1.813514709472656250e+01 9.828053414821624756e-02 6.514343738555908203e+00 1.983787298202514648e+00 -6.514470577239990234e-01
2.044000000000000000e+03 7.769812011718750000e+01 -2.269622802734375000e+00 -6.273061782121658325e-02 8.180631637573242188e+00 2.435370206832885742e+00 1.496363639831542969e+00
2.045000000000000000e+03 7.561490631103515625e+01 9.800839424133300781e+00 -9.903274476528167725e-02 7.859806060791015625e+00 2.328232049942016602e+00 -5.556104779243469238e-01
2.046000000000000000e+03 7.515506744384765625e+01 -2.873178482055664062e+01 8.008635789155960083e-02 7.216931819915771484e+00 2.189105510711669922e+00 4.778389036655426025e-01
2.047000000000000000e+03 7.492871093750000000e+01 -2.250318527221679688e+01 -9.619861096143722534e-02 7.757857799530029297e+00 2.298497915267944336e+00 5.655726790428161621e-01
2.048000000000000000e+03 7.717340087890625000e+01 -9.050227165222167969e+00 4.785006046295166016e-01 8.349994659423828125e+00 2.648548603057861328e+00 -1.580968499183654785e+00
2.049000000000000000e+03 7.550051879882812500e+01 -1.600410461425781250e+01 -6.844967603683471680e-01 8.972120285034179688e+00 2.486287117004394531e+00 -1.167069524526596069e-01
2.050000000000000000e+03 7.446213531494140625e+01 2.685922241210937500e+01 8.702188730239868164e-02 6.072835445404052734e+00 1.847957134246826172e+00 -3.781237006187438965e-01
2.051000000000000000e+03 7.382987213134765625e+01 2.397240829467773438e+01 9.953641146421432495e-02 6.094378471374511719e+00 1.858174443244934082e+00 -4.826429784297943115e-01
2.052000000000000000e+03 7.553585815429687500e+01 1.118176269531250000e+01 -4.964592307806015015e-02 7.669903278350830078e+00 2.286077260971069336e+00 -5.940212011337280273e-01
2.053000000000000000e+03 7.425481414794921875e+01 9.729306221008300781e+00 -1.351922303438186646e-01 7.408912658691406250e+00 2.182116031646728516e+00 -7.277333736419677734e-01
2.054000000000000000e+03 7.560025787353515625e+01 2.642464447021484375e+01 5.046972632408142090e-02 6.341133594512939453e+00 1.917480945587158203e+00 -3.333687782287597656e-01
2.055000000000000000e+03 7.666890716552734375e+01 2.014186531305313110e-01 -6.342831254005432129e-01 9.314616203308105469e+00 2.604099988937377930e+00 1.108818769454956055e+00
2.056000000000000000e+03 7.603285980224609375e+01 -2.001422882080078125e+00 -3.882976770401000977e-01 9.983727455139160156e+00 2.878628969192504883e+00 1.705095767974853516e+00
2.057000000000000000e+03 7.669046020507812500e+01 2.889675331115722656e+01 4.195149242877960205e-02 6.382435321807861328e+00 1.927315950393676758e+00 -2.053481042385101318e-01
2.058000000000000000e+03 7.557033538818359375e+01 2.746685981750488281e+01 5.648144334554672241e-02 6.261642932891845703e+00 1.895437359809875488e+00 -2.963419854640960693e-01
2.059000000000000000e+03 7.595327758789062500e+01 -2.480130577087402344e+01 -1.051093172281980515e-02 7.844538211822509766e+00 2.350208282470703125e+00 4.843302965164184570e-01
2.060000000000000000e+03 7.578990173339843750e+01 -2.601104354858398438e+01 2.161425724625587463e-02 7.685871124267578125e+00 2.312245607376098633e+00 4.931109547615051270e-01
2.061000000000000000e+03 7.604491424560546875e+01 -2.359809112548828125e+01 -3.834594413638114929e-02 7.998235225677490234e+00 2.387966871261596680e+00 4.695310294628143311e-01
2.062000000000000000e+03 7.718165588378906250e+01 -2.100322341918945312e+01 -8.735627681016921997e-02 8.682633399963378906e+00 2.578583240509033203e+00 2.696656882762908936e-01
2.063000000000000000e+03 7.241475677490234375e+01 -8.209812164306640625e+00 6.889870762825012207e-01 1.798219490051269531e+01 5.601354598999023438e+00 -1.060004711151123047e+00
2.064000000000000000e+03 7.722866058349609375e+01 -1.110898876190185547e+01 -2.282246500253677368e-01 8.784706115722656250e+00 2.566944599151611328e+00 -1.556570887565612793e+00
2.065000000000000000e+03 7.653482055664062500e+01 -1.252417278289794922e+01 -6.420484781265258789e-01 9.416741371154785156e+00 2.632407903671264648e+00 -1.259426593780517578e+00
2.066000000000000000e+03 7.365676879882812500e+01 -3.077013778686523438e+01 1.441150009632110596e-01 6.634655475616455078e+00 2.033631086349487305e+00 5.024954080581665039e-01
2.067000000000000000e+03 7.743251037597656250e+01 1.554439783096313477e+00 -3.940801918506622314e-01 9.016517639160156250e+00 2.586731433868408203e+00 7.061332464218139648e-01
2.068000000000000000e+03 7.640288543701171875e+01 1.500878691673278809e+00 -6.838254928588867188e-01 9.242086410522460938e+00 2.567478418350219727e+00 6.641284823417663574e-01
2.069000000000000000e+03 7.587659454345703125e+01 7.088633060455322266e+00 -2.492564767599105835e-01 8.304531097412109375e+00 2.416582345962524414e+00 -3.816833794116973877e-01
2.070000000000000000e+03 7.447906494140625000e+01 3.400801849365234375e+01 6.740223616361618042e-02 5.777593612670898438e+00 1.753498792648315430e+00 -1.963759958744049072e-01
2.071000000000000000e+03 7.502780151367187500e+01 2.984772491455078125e+01 7.119426131248474121e-02 6.075551033020019531e+00 1.844023585319519043e+00 -2.755813300609588623e-01
2.072000000000000000e+03 7.604084014892578125e+01 -1.848710250854492188e+01 -3.269297182559967041e-01 8.617207527160644531e+00 2.487083435058593750e+00 1.748108863830566406e-01
2.073000000000000000e+03 7.717655181884765625e+01 -1.966453742980957031e+01 -1.414685994386672974e-01 8.805361747741699219e+00 2.599167823791503906e+00 1.723854839801788330e-01
2.074000000000000000e+03 7.606504058837890625e+01 -1.981940460205078125e+01 -2.262869179248809814e-01 8.452295303344726562e+00 2.467802286148071289e+00 3.071060776710510254e-01
2.075000000000000000e+03 7.668531799316406250e+01 -3.182383728027343750e+01 3.663937002420425415e-02 7.456203460693359375e+00 2.247852802276611328e+00 3.052584230899810791e-01
2.076000000000000000e+03 7.510105133056640625e+01 -3.035352706909179688e+01 8.797580748796463013e-02 7.102155685424804688e+00 2.157039403915405273e+00 4.472011625766754150e-01
2.077000000000000000e+03 7.553845977783203125e+01 -3.443704986572265625e+01 6.313829869031906128e-02 7.013771533966064453e+00 2.123072862625122070e+00 2.665718793869018555e-01
2.078000000000000000e+03 7.614172363281250000e+01 4.363794803619384766e+00 -4.656130075454711914e-01 8.780172348022460938e+00 2.494367599487304688e+00 -2.404215931892395020e-02
2.079000000000000000e+03 7.621139526367187500e+01 2.928969144821166992e+00 -6.083506941795349121e-01 9.044167518615722656e+00 2.530745029449462891e+00 2.852962315082550049e-01
2.080000000000000000e+03 7.602333831787109375e+01 5.735480308532714844e+00 -3.422076404094696045e-01 8.538621902465820312e+00 2.458924293518066406e+00 -2.252333909273147583e-01
2.081000000000000000e+03 3.093666553497314453e+00 1.583377838134765625e+01 5.106714088469743729e-03 -1.524514239281415939e-02 -3.041528631001710892e-03 -1.115381903946399689e-02
2.082000000000000000e+03 3.687884330749511719e+00 -1.384084796905517578e+01 4.416423849761486053e-03 -6.747839041054248810e-03 -6.994245341047644615e-04 2.082193270325660706e-03
2.083000000000000000e+03 5.435557842254638672e+00 1.960773277282714844e+01 -1.185651570558547974e-01 -5.701650306582450867e-02 -5.267449840903282166e-02 5.383583530783653259e-02
2.084000000000000000e+03 5.236569404602050781e+00 2.098462104797363281e+01 -1.392004936933517456e-01 -9.408663213253021240e-02 -6.998613476753234863e-02 1.260499954223632812e-01
2.085000000000000000e+03 4.534359455108642578e+00 -1.674749183654785156e+01 -2.965550869703292847e-03 -1.763671264052391052e-02 -6.180678959935903549e-03 -1.233657239936292171e-03
2.086000000000000000e+03 4.357345581054687500e+00 1.835135841369628906e+01 -4.253032431006431580e-02 -4.419890046119689941e-02 -2.601876668632030487e-02 1.049637235701084137e-02
2.087000000000000000e+03 4.520877838134765625e+00 2.468616867065429688e+01 -5.370584130287170410e-02 -2.594324946403503418e-01 -9.394150227308273315e-02 2.161090672016143799e-01
2.088000000000000000e+03 5.684429645538330078e+00 2.777219772338867188e+01 1.007660944014787674e-02 -4.497650861740112305e-01 -1.319065392017364502e-01 2.890128493309020996e-01
2.089000000000000000e+03 6.898586750030517578e+00 -2.308601379394531250e+01 -6.191663071513175964e-02 -1.681904047727584839e-01 -6.903211027383804321e-02 -1.769003272056579590e-01
2.090000000000000000e+03 3.270156145095825195e+00 1.297857856750488281e+01 6.270323414355516434e-03 -5.131129641085863113e-03 3.417581610847264528e-04 -4.167979117482900620e-03
2.091000000000000000e+03 5.326354026794433594e+00 -1.372918224334716797e+01 4.280927125364542007e-03 -5.370940081775188446e-03 -3.270038869231939316e-04 -2.587660681456327438e-03
2.092000000000000000e+03 2.828374862670898438e+00 -9.111382484436035156e+00 8.445000275969505310e-05 5.933642569289077073e-06 2.711509478103835136e-05 1.456744939787313342e-05
2.093000000000000000e+03 2.965504407882690430e+00 -1.044719505310058594e+01 1.379415160045027733e-03 -4.369532689452171326e-04 2.827385615091770887e-04 7.440760964527726173e-04
2.094000000000000000e+03 5.121362209320068359e+00 -1.949364089965820312e+01 -6.983523815870285034e-02 -4.175103083252906799e-02 -3.347587957978248596e-02 -6.256344914436340332e-02
2.095000000000000000e+03 3.109642505645751953e+00 -2.294696044921875000e+01 -1.943702436983585358e-02 -9.718724340200424194e-02 -3.498728200793266296e-02 -7.792079448699951172e-02
2.096000000000000000e+03 4.763904571533203125e+00 -2.110223770141601562e+01 -5.968066677451133728e-02 -8.050369471311569214e-02 -4.205530881881713867e-02 -9.246213734149932861e-02
2.097000000000000000e+03 5.630170822143554688e+00 2.308849143981933594e+01 -1.286723166704177856e-01 -2.290412485599517822e-01 -1.073140650987625122e-01 2.499441802501678467e-01
2.098000000000000000e+03 4.500421524047851562e+00 2.613934516906738281e+01 -2.753533236682415009e-02 -3.326848745346069336e-01 -1.080660596489906311e-01 2.437057048082351685e-01
2.099000000000000000e+03 3.307776451110839844e+00 -2.444989585876464844e+01 -1.609641313552856445e-02 -1.361784934997558594e-01 -4.568247497081756592e-02 -9.743335843086242676e-02
2.100000000000000000e+03 4.867054462432861328e+00 -2.317238235473632812e+01 -4.279020801186561584e-02 -1.282859146595001221e-01 -5.132283642888069153e-02 -1.258596032857894897e-01
2.101000000000000000e+03 4.987990856170654297e+00 -2.212029647827148438e+01 -5.535400286316871643e-02 -1.017471477389335632e-01 -4.713034629821777344e-02 -1.134941503405570984e-01
2.102000000000000000e+03 4.681332111358642578e+00 -2.442829895019531250e+01 -2.039785683155059814e-02 -1.601820886135101318e-01 -5.417398363351821899e-02 -1.305546462535858154e-01
2.103000000000000000e+03 3.905896663665771484e+00 -3.162656593322753906e+01 1.975258812308311462e-02 -3.103660941123962402e-01 -8.718404918909072876e-02 -9.739006310701370239e-02
2.104000000000000000e+03 4.928308010101318359e+00 -2.859181404113769531e+01 9.050150401890277863e-03 -2.521912157535552979e-01 -7.294232398271560669e-02 -1.374580562114715576e-01
2.105000000000000000e+03 5.095840930938720703e+00 1.008289527893066406e+01 2.211732789874076843e-03 -1.417898922227323055e-03 2.381501108175143600e-04 1.440244086552411318e-04
2.106000000000000000e+03 6.085103511810302734e+00 3.258050918579101562e+01 7.281457632780075073e-02 -5.911767482757568359e-01 -1.555086523294448853e-01 2.214141935110092163e-01
2.107000000000000000e+03 5.552828788757324219e+00 3.815671157836914062e+01 8.388844132423400879e-02 -6.775580644607543945e-01 -1.781008839607238770e-01 1.001164987683296204e-01
2.108000000000000000e+03 3.306286811828613281e+00 3.583117294311523438e+01 2.966706268489360809e-02 -6.612284779548645020e-01 -1.894684135913848877e-01 1.041226759552955627e-01
2.109000000000000000e+03 3.014515399932861328e+00 -1.188306045532226562e+01 1.506422529928386211e-03 -9.290822781622409821e-04 1.732020755298435688e-04 1.319252303801476955e-03
2.110000000000000000e+03 5.941426277160644531e+00 1.026995468139648438e+01 2.028331626206636429e-03 -8.372871088795363903e-04 3.573133435565978289e-04 7.864255458116531372e-04
2.111000000000000000e+03 3.568151473999023438e+00 -6.588499069213867188e+00 2.778473717626184225e-04 1.056955443345941603e-04 1.150628741015680134e-04 2.336713660042732954e-04
2.112000000000000000e+03 7.195860862731933594e+00 -3.102419662475585938e+01 4.171495512127876282e-02 -3.027358949184417725e-01 -7.830628007650375366e-02 -1.516333371400833130e-01
2.113000000000000000e+03 5.177442550659179688e+00 -2.997607040405273438e+01 2.222476340830326080e-02 -2.815296053886413574e-01 -7.779145240783691406e-02 -1.338243484497070312e-01
2.114000000000000000e+03 5.540216445922851562e+00 -3.146146774291992188e+01 2.984778396785259247e-02 -3.058861792087554932e-01 -8.281151950359344482e-02 -1.282416284084320068e-01
2.115000000000000000e+03 4.019495964050292969e+00 -3.307212448120117188e+01 1.987374015152454376e-02 -3.342532813549041748e-01 -9.431385993957519531e-02 -8.821940422058105469e-02
2.116000000000000000e+03 4.321058273315429688e+00 2.879627609252929688e+01 1.051937416195869446e-02 -4.355081915855407715e-01 -1.274966448545455933e-01 2.312320023775100708e-01
2.117000000000000000e+03 4.817350387573242188e+00 3.386607360839843750e+01 5.059262737631797791e-02 -6.069837808609008789e-01 -1.669173538684844971e-01 1.717385500669479370e-01
2.118000000000000000e+03 5.145205020904541016e+00 3.115589904785156250e+01 4.845082759857177734e-02 -5.446645021438598633e-01 -1.488641053438186646e-01 2.266107350587844849e-01
2.119000000000000000e+03 4.389011383056640625e+00 8.034901618957519531e+00 4.696462710853666067e-04 3.236082266084849834e-04 2.379763463977724314e-04 1.659248664509505033e-05
2.120000000000000000e+03 3.458792209625244141e+00 -4.712336063385009766e+00 1.917771442094817758e-04 5.797809353680349886e-05 7.492657459806650877e-05 2.226559736300259829e-04
2.121000000000000000e+03 2.916146516799926758e+00 5.767205715179443359e+00 2.107094624079763889e-04 -2.918512327596545219e-04 -2.434253656247165054e-05 3.500381426420062780e-04
2.122000000000000000e+03 5.313800811767578125e+00 6.225288391113281250e+00 -9.818487887969240546e-05 6.976866279728710651e-04 1.798505254555493593e-04 7.600672688568010926e-05
2.123000000000000000e+03 6.316968917846679688e+00 -3.596649551391601562e+01 4.875503852963447571e-02 -3.580856323242187500e-01 -9.279917925596237183e-02 -8.715766668319702148e-02
2.124000000000000000e+03 7.768514633178710938e+00 -7.600749492645263672e+00 -1.487624831497669220e-04 5.443293484859168530e-04 1.186700537800788879e-04 1.255869428860023618e-04
2.125000000000000000e+03 1.417417621612548828e+01 -1.812389564514160156e+01 -2.573188245296478271e-01 -2.507734596729278564e-01 -1.524276882410049438e-01 -2.330859303474426270e-01
2.126000000000000000e+03 1.733683776855468750e+01 -1.708639907836914062e+01 -2.681508064270019531e-01 -1.665455102920532227e-01 -1.304088979959487915e-01 -2.613510787487030029e-01
2.127000000000000000e+03 5.154238700866699219e+00 -8.465233802795410156e+00 2.993289672303944826e-04 -1.770506205502897501e-04 3.668350836960598826e-05 -2.656084543559700251e-04
2.128000000000000000e+03 2.078913879394531250e+01 -1.121894073486328125e+01 -3.154808282852172852e-01 -1.958836801350116730e-02 -1.005207598209381104e-01 -2.270011156797409058e-01
2.129000000000000000e+03 6.473010540008544922e+00 1.970800399780273438e+01 -1.690107583999633789e-01 -4.719417169690132141e-02 -6.486147642135620117e-02 7.775236666202545166e-02
2.130000000000000000e+03 4.426098823547363281e+00 1.956755447387695312e+01 -7.223083078861236572e-02 -5.873850360512733459e-02 -3.929080069065093994e-02 4.244210943579673767e-02
2.131000000000000000e+03 1.112622737884521484e+01 -2.120453453063964844e+01 -1.172055304050445557e-01 -2.788966596126556396e-01 -1.188306584954261780e-01 -2.321325987577438354e-01
2.132000000000000000e+03 1.562130165100097656e+01 -1.808179473876953125e+01 -2.529133558273315430e-01 -2.176492810249328613e-01 -1.411687880754470825e-01 -2.454593926668167114e-01
2.133000000000000000e+03 2.147026252746582031e+01 1.051523208618164062e+01 -4.622189998626708984e-01 -7.608551383018493652e-01 -3.669222295284271240e-01 6.257361769676208496e-01
2.134000000000000000e+03 7.184117317199707031e+00 -1.235823822021484375e+01 -9.204968955600634217e-05 5.025452119298279285e-04 1.231486530741676688e-04 7.478208281099796295e-04
2.135000000000000000e+03 6.533070087432861328e+00 -1.051702308654785156e+01 6.520884344354271889e-04 -3.732865734491497278e-04 8.364055247511714697e-05 -9.785962756723165512e-04
2.136000000000000000e+03 8.392272949218750000e+00 2.168066596984863281e+01 -2.733915746212005615e-01 -3.069373071193695068e-01 -1.740986704826354980e-01 4.061753451824188232e-01
2.137000000000000000e+03 2.281349182128906250e+01 5.395896911621093750e+00 -2.729230225086212158e-01 -4.867188632488250732e-01 -2.278925627470016479e-01 5.494344830513000488e-01
2.138000000000000000e+03 2.230244445800781250e+01 6.550714492797851562e+00 -2.993403673171997070e-01 -5.725916624069213867e-01 -2.615796029567718506e-01 5.690115690231323242e-01
2.139000000000000000e+03 4.318588733673095703e+00 -1.020563030242919922e+01 7.731866789981722832e-04 -4.130468587391078472e-04 1.080419606296345592e-04 -2.793720050249248743e-04
2.140000000000000000e+03 1.696233558654785156e+01 -1.830122375488281250e+01 -2.402379065752029419e-01 -1.888742744922637939e-01 -1.287336498498916626e-01 -2.562271058559417725e-01
2.141000000000000000e+03 2.012568473815917969e+01 -1.126292228698730469e+01 -2.937716543674468994e-01 -3.348611667752265930e-02 -9.817732870578765869e-02 -2.234043627977371216e-01
2.142000000000000000e+03 1.911839485168457031e+01 -1.199004554748535156e+01 -2.862934172153472900e-01 -6.193690374493598938e-02 -1.044690981507301331e-01 -2.344009578227996826e-01
2.143000000000000000e+03 1.787640953063964844e+01 1.997389602661132812e+01 -2.614010572433471680e-01 -9.086938500404357910e-01 -3.510284721851348877e-01 4.093447029590606689e-01
2.144000000000000000e+03 1.726455688476562500e+01 1.830038833618164062e+01 -4.676432013511657715e-01 -1.005803465843200684e+00 -4.420340061187744141e-01 4.974310398101806641e-01
2.145000000000000000e+03 2.264281082153320312e+01 1.709982872009277344e+00 -1.718908846378326416e-01 -3.085277676582336426e-01 -1.441255956888198853e-01 3.716283738613128662e-01
2.146000000000000000e+03 2.052801322937011719e+01 1.638233375549316406e+01 -4.480993151664733887e-01 -7.890546917915344238e-01 -3.711462020874023438e-01 4.800108373165130615e-01
2.147000000000000000e+03 1.470158100128173828e+01 2.001545715332031250e+01 -3.777638971805572510e-01 -9.738870859146118164e-01 -4.054953157901763916e-01 5.269979238510131836e-01
2.148000000000000000e+03 2.450710296630859375e+01 7.736294746398925781e+00 -3.926538527011871338e-01 -4.251993298530578613e-01 -2.453559488058090210e-01 6.530178189277648926e-01
2.149000000000000000e+03 6.935675811767578125e+01 -4.338076591491699219e+00 8.524439334869384766e-01 4.237456321716308594e+00 1.526970028877258301e+00 -4.372911930084228516e+00
2.150000000000000000e+03 6.878659057617187500e+01 -4.047837257385253906e+00 4.613336324691772461e-01 3.060807943344116211e+00 1.056642532348632812e+00 -3.534465312957763672e+00
2.151000000000000000e+03 7.051614379882812500e+01 -8.609834671020507812e+00 -1.639069989323616028e-02 1.126096820831298828e+01 3.373373270034790039e+00 5.746995925903320312e+00
2.152000000000000000e+03 7.027702331542968750e+01 -3.649502277374267578e+00 -3.484866023063659668e-01 9.619009971618652344e+00 2.781157255172729492e+00 -5.079991340637207031e+00
2.153000000000000000e+03 7.001113891601562500e+01 -3.880472183227539062e+00 2.195678353309631348e-01 8.145748138427734375e+00 2.509594917297363281e+00 -5.279733657836914062e+00
2.154000000000000000e+03 6.975218200683593750e+01 -4.063567638397216797e+00 6.330735087394714355e-01 6.614589214324951172e+00 2.174298763275146484e+00 -5.194402217864990234e+00
2.155000000000000000e+03 6.961194610595703125e+01 -4.460130691528320312e+00 1.080028891563415527e+00 5.026885986328125000e+00 1.832074403762817383e+00 -4.878628253936767578e+00
2.156000000000000000e+03 6.876211547851562500e+01 -8.249486923217773438e+00 2.072285860776901245e-01 2.182183504104614258e+00 7.168236374855041504e-01 2.914207935333251953e+00
2.157000000000000000e+03 6.924153137207031250e+01 -8.529902458190917969e+00 7.655124068260192871e-01 3.988013982772827148e+00 1.426057934761047363e+00 4.134002208709716797e+00
2.158000000000000000e+03 6.859039306640625000e+01 -9.049147605895996094e+00 3.005879819393157959e-01 3.014394998550415039e+00 9.944949150085449219e-01 3.314960718154907227e+00
2.159000000000000000e+03 7.090988922119140625e+01 -8.538062095642089844e+00 -5.967741012573242188e-01 1.407727146148681641e+01 4.044149398803710938e+00 5.110845088958740234e+00
2.160000000000000000e+03 7.139519500732421875e+01 -4.458667755126953125e+00 -8.913714289665222168e-01 1.766766357421875000e+01 5.032887935638427734e+00 -3.544676303863525391e+00
2.161000000000000000e+03 7.119551086425781250e+01 -8.311947822570800781e+00 -7.728697061538696289e-01 1.681768417358398438e+01 4.813444614410400391e+00 4.525858879089355469e+00
2.162000000000000000e+03 7.179689788818359375e+01 -4.260259151458740234e+00 -1.028294801712036133e+00 1.764109230041503906e+01 4.983839511871337891e+00 -1.663880228996276855e+00
2.163000000000000000e+03 7.218170166015625000e+01 -8.381999015808105469e+00 -2.133887410163879395e-01 1.807396507263183594e+01 5.358172893524169922e+00 -4.980837926268577576e-02
2.164000000000000000e+03 7.107110595703125000e+01 -4.318231582641601562e+00 -8.275799155235290527e-01 1.543082427978515625e+01 4.380973339080810547e+00 -4.727613925933837891e+00
2.165000000000000000e+03 7.115509033203125000e+01 -4.102703094482421875e+00 -1.163086175918579102e+00 1.513644981384277344e+01 4.192008972167968750e+00 -4.347691535949707031e+00
2.166000000000000000e+03 7.288954925537109375e+01 -5.539914131164550781e+00 5.860204219818115234e+00 1.660494041442871094e+01 6.739543437957763672e+00 2.531788110733032227e+00
2.167000000000000000e+03 7.317968750000000000e+01 -6.469058513641357422e+00 7.666958808898925781e+00 1.470828056335449219e+01 6.712571620941162109e+00 -3.308073282241821289e-01
2.168000000000000000e+03 7.273445129394531250e+01 -8.562930107116699219e+00 2.610875070095062256e-01 1.636580657958984375e+01 4.988068103790283203e+00 -1.139627218246459961e+00
2.169000000000000000e+03 7.285675811767578125e+01 -7.828860759735107422e+00 2.950744390487670898e+00 1.688911247253417969e+01 5.951957225799560547e+00 -2.362927675247192383e+00
2.170000000000000000e+03 7.351766204833984375e+01 -4.451174259185791016e+00 1.643198013305664062e+00 1.448057460784912109e+01 4.837131977081298828e+00 2.153519630432128906e+00
2.171000000000000000e+03 6.766001129150390625e+01 -8.949587821960449219e+00 -3.167598843574523926e-01 1.530748724937438965e+00 3.641966581344604492e-01 2.074214220046997070e+00
2.172000000000000000e+03 6.712042999267578125e+01 -9.693293571472167969e+00 -3.809294700622558594e-01 1.666851282119750977e+00 3.857765495777130127e-01 2.007804870605468750e+00
2.173000000000000000e+03 6.673459625244140625e+01 -9.537761688232421875e+00 -6.359381079673767090e-01 1.250557899475097656e+00 1.843859404325485229e-01 1.613775253295898438e+00
2.174000000000000000e+03 6.577347564697265625e+01 -2.494924068450927734e+00 -7.704573273658752441e-01 1.145020365715026855e+00 1.123689115047454834e-01 -1.378303647041320801e+00
2.175000000000000000e+03 6.741703033447265625e+01 -3.772059440612792969e+00 -5.884720683097839355e-01 1.290936708450317383e+00 2.107393741607666016e-01 -1.881378054618835449e+00
2.176000000000000000e+03 6.552233886718750000e+01 -1.966272115707397461e+00 -6.469104886054992676e-01 1.300954461097717285e+00 1.962131857872009277e-01 -1.433545589447021484e+00
2.177000000000000000e+03 6.648403167724609375e+01 -2.741708755493164062e+00 -5.933636426925659180e-01 1.394755125045776367e+00 2.404174506664276123e-01 -1.716517210006713867e+00
2.178000000000000000e+03 2.338744354248046875e+01 -1.349236726760864258e+00 -1.664111316204071045e-01 -1.526568382978439331e-01 -9.572038799524307251e-02 2.474697530269622803e-01
2.179000000000000000e+03 6.613886260986328125e+01 -9.970869064331054688e+00 -6.900300383567810059e-01 1.167427420616149902e+00 1.432192325592041016e-01 1.434308290481567383e+00
2.180000000000000000e+03 6.946646881103515625e+01 -8.707552909851074219e+00 7.087789177894592285e-01 5.157369136810302734e+00 1.759844303131103516e+00 4.665049076080322266e+00
2.181000000000000000e+03 2.479797363281250000e+01 -1.959801673889160156e+00 -2.368869185447692871e-01 -1.074203401803970337e-01 -1.032921746373176575e-01 2.682994008064270020e-01
2.182000000000000000e+03 2.696164321899414062e+01 -1.051029801368713379e+00 -3.711285293102264404e-01 -9.681572020053863525e-02 -1.403832733631134033e-01 3.866967856884002686e-01
2.183000000000000000e+03 6.236175537109375000e+01 -2.781155824661254883e+00 -1.957053184509277344e+00 2.325399070978164673e-01 -5.173540115356445312e-01 -1.732942610979080200e-01
2.184000000000000000e+03 6.479515838623046875e+01 -2.832399368286132812e+00 -1.331347942352294922e+00 6.046369075775146484e-01 -2.180133014917373657e-01 -8.025598526000976562e-01
2.185000000000000000e+03 2.469647216796875000e+01 -4.068748652935028076e-01 -2.508909404277801514e-01 -1.637210994958877563e-01 -1.243836134672164917e-01 3.523282110691070557e-01
2.186000000000000000e+03 2.535983848571777344e+01 -2.764070749282836914e+00 -2.571855485439300537e-01 -7.555730640888214111e-02 -9.982285648584365845e-02 2.417297512292861938e-01
2.187000000000000000e+03 2.613768386840820312e+01 -2.308401346206665039e+00 -3.088196516036987305e-01 -7.815390080213546753e-02 -1.160920634865760803e-01 2.900379002094268799e-01
2.188000000000000000e+03 3.358424663543701172e+00 4.327690601348876953e+00 8.282119961222633719e-05 -1.575331698404625058e-04 -2.241358924948144704e-05 3.527441585902124643e-04
2.189000000000000000e+03 4.380170345306396484e+00 4.486680984497070312e+00 3.357233363203704357e-04 -3.558829193934798241e-04 -6.047881015547318384e-06 1.180298841063631698e-05
2.190000000000000000e+03 6.544973373413085938e+00 5.705946445465087891e+00 -1.424778602086007595e-04 7.942956290207803249e-04 1.955453190021216869e-04 2.317603066330775619e-04
2.191000000000000000e+03 6.388072967529296875e+00 4.040457725524902344e+00 2.228956291219219565e-04 -3.359351248946040869e-04 -3.391184509382583201e-05 -2.951829810626804829e-04
2.192000000000000000e+03 5.558619976043701172e+00 4.609200954437255859e+00 3.412964288145303726e-04 -3.728309238795191050e-04 -9.460349247092381120e-06 -1.637282693991437554e-04
2.193000000000000000e+03 4.976875305175781250e+00 4.584910392761230469e+00 -1.289538922719657421e-04 3.130898403469473124e-04 5.524078369489870965e-05 3.968490636907517910e-04
2.194000000000000000e+03 2.820351219177246094e+01 -2.167063236236572266e+00 -4.405917823314666748e-01 -4.935592040419578552e-02 -1.469843089580535889e-01 3.441511392593383789e-01
2.195000000000000000e+03 2.818492889404296875e+01 -2.887513399124145508e+00 -4.334848225116729736e-01 -3.762404993176460266e-02 -1.413326710462570190e-01 2.993520796298980713e-01
2.196000000000000000e+03 2.893284225463867188e+01 -2.186299800872802734e+00 -4.812044799327850342e-01 -4.401580244302749634e-02 -1.575660854578018188e-01 3.573653101921081543e-01
2.197000000000000000e+03 8.353630065917968750e+00 4.994578361511230469e+00 2.250546822324395180e-04 -5.029485328122973442e-04 -8.336815517395734787e-05 -5.383609677664935589e-04
2.198000000000000000e+03 7.061487674713134766e+00 4.111748695373535156e+00 -1.827638043323531747e-04 5.674050771631300449e-04 1.153923803940415382e-04 3.603181976359337568e-04
2.199000000000000000e+03 8.976782798767089844e+00 8.026592254638671875e+00 -3.954960848204791546e-04 1.841316698119044304e-03 4.337462014518678188e-04 -8.514802175341174006e-05
2.200000000000000000e+03 4.010288715362548828e+00 4.010608673095703125e+00 -8.264349162345752120e-05 2.430393651593476534e-04 4.811876351595856249e-05 -1.905304816318675876e-04
2.201000000000000000e+03 3.181085968017578125e+01 -2.918143749237060547e+00 -6.909120082855224609e-01 -7.565964013338088989e-03 -2.095433920621871948e-01 3.440118432044982910e-01
2.202000000000000000e+03 2.967500495910644531e+01 -1.557964682579040527e+00 -5.383730530738830566e-01 -3.943075239658355713e-02 -1.733411401510238647e-01 4.099888205528259277e-01
2.203000000000000000e+03 3.107677650451660156e+01 -2.916974067687988281e+00 -6.367576718330383301e-01 -1.159805152565240860e-02 -1.945067197084426880e-01 3.376107513904571533e-01
2.204000000000000000e+03 3.327248764038085938e+01 -2.896752119064331055e+00 -8.037772178649902344e-01 -3.005242033395916224e-04 -2.412233203649520874e-01 3.562425673007965088e-01
2.205000000000000000e+03 3.182403945922851562e+01 -2.256505727767944336e+00 -6.805998086929321289e-01 -1.385664939880371094e-02 -2.083369344472885132e-01 3.931767642498016357e-01
2.206000000000000000e+03 4.652771759033203125e+01 -1.106579685211181641e+01 -1.563235878944396973e+00 -1.407522335648536682e-02 -4.731933474540710449e-01 -4.183622002601623535e-01
2.207000000000000000e+03 4.358083343505859375e+01 -1.054188919067382812e+01 -1.502460479736328125e+00 -2.197961509227752686e-02 -4.573320150375366211e-01 -3.745797872543334961e-01
2.208000000000000000e+03 4.655009460449218750e+01 -1.039954662322998047e+01 -1.702136278152465820e+00 -1.334006991237401962e-02 -5.146428942680358887e-01 -3.825584352016448975e-01
2.209000000000000000e+03 4.948630142211914062e+01 -1.115077972412109375e+01 -1.675718188285827637e+00 -3.699124325066804886e-03 -5.038251876831054688e-01 -4.220052361488342285e-01
2.210000000000000000e+03 4.439876174926757812e+01 -1.197418117523193359e+01 -1.301048159599304199e+00 -2.959189377725124359e-02 -3.991920053958892822e-01 -4.490818977355957031e-01
2.211000000000000000e+03 3.374937438964843750e+01 -8.194278925657272339e-02 -7.341484427452087402e-01 -1.786053180694580078e-02 -2.256027013063430786e-01 5.444368124008178711e-01
2.212000000000000000e+03 5.024556350708007812e+01 -1.116813087463378906e+01 -1.700154542922973633e+00 -2.886791015043854713e-03 -5.109124183654785156e-01 -4.207676947116851807e-01
2.213000000000000000e+03 5.251089859008789062e+01 -1.110133457183837891e+01 -1.783416748046875000e+00 8.270950987935066223e-03 -5.325437188148498535e-01 -3.972419798374176025e-01
2.214000000000000000e+03 3.472075653076171875e+01 -2.159551382064819336e+00 -8.870121240615844727e-01 1.005267840810120106e-03 -2.658020555973052979e-01 4.195910990238189697e-01
2.215000000000000000e+03 4.581654739379882812e+01 -1.042386245727539062e+01 -1.655043125152587891e+00 -1.351541467010974884e-02 -5.005675554275512695e-01 -3.819501698017120361e-01
2.216000000000000000e+03 4.508515167236328125e+01 -1.116606426239013672e+01 -1.473309755325317383e+00 -2.060144022107124329e-02 -4.481733441352844238e-01 -4.188268482685089111e-01
2.217000000000000000e+03 4.196249008178710938e+01 -1.210192966461181641e+01 -1.170818686485290527e+00 -3.277172893285751343e-02 -3.610771298408508301e-01 -4.417337775230407715e-01
2.218000000000000000e+03 4.120915985107421875e+01 -1.135464859008789062e+01 -1.246910572052001953e+00 -3.138385340571403503e-02 -3.834883272647857666e-01 -4.018455445766448975e-01
2.219000000000000000e+03 4.877853012084960938e+01 -1.041410636901855469e+01 -1.825191378593444824e+00 -7.238245103508234024e-03 -5.497288703918457031e-01 -3.898546993732452393e-01
2.220000000000000000e+03 4.724329757690429688e+01 -1.106496429443359375e+01 -1.597826719284057617e+00 -1.533589046448469162e-02 -4.839487671852111816e-01 -4.198491275310516357e-01
2.221000000000000000e+03 5.252025604248046875e+01 -1.039069175720214844e+01 -2.005862951278686523e+00 7.888866093708202243e-05 -6.017352342605590820e-01 -3.785589337348937988e-01
2.222000000000000000e+03 5.177903366088867188e+01 -1.041142272949218750e+01 -1.971890330314636230e+00 -2.385895350016653538e-04 -5.916386842727661133e-01 -3.826426565647125244e-01
2.223000000000000000e+03 3.921634292602539062e+01 -1.322379493713378906e+01 -9.040722250938415527e-01 -4.654069989919662476e-02 -2.851838767528533936e-01 -4.674172699451446533e-01
2.224000000000000000e+03 3.827338409423828125e+01 -1.132958793640136719e+01 -1.095969676971435547e+00 -3.403438255190849304e-02 -3.390012085437774658e-01 -3.782966434955596924e-01
2.225000000000000000e+03 5.687499237060546875e+01 -1.099043750762939453e+01 -1.830820322036743164e+00 7.575233280658721924e-02 -5.265203714370727539e-01 -2.822614908218383789e-01
2.226000000000000000e+03 5.614396667480468750e+01 -1.100632381439208984e+01 -1.837485313415527344e+00 5.470739677548408508e-02 -5.348333716392517090e-01 -3.158079385757446289e-01
2.227000000000000000e+03 5.324124145507812500e+01 -1.106312084197998047e+01 -1.806011557579040527e+00 9.833994321525096893e-03 -5.388532876968383789e-01 -3.897863626480102539e-01
2.228000000000000000e+03 4.797363281250000000e+01 -1.108519172668457031e+01 -1.625775694847106934e+00 -1.021799631416797638e-02 -4.907981157302856445e-01 -4.240230619907379150e-01
2.229000000000000000e+03 6.357496261596679688e+01 -1.075789642333984375e+01 -1.136725425720214844e+00 5.777503252029418945e-01 -1.676925122737884521e-01 5.925724506378173828e-01
2.230000000000000000e+03 5.100799560546875000e+01 -1.116180419921875000e+01 -1.726744771003723145e+00 1.767922076396644115e-03 -5.174930691719055176e-01 -4.147367179393768311e-01
2.231000000000000000e+03 8.336551666259765625e+00 -4.272167682647705078e+00 -1.153850680566392839e-04 -6.185804522829130292e-05 -5.317293471307493746e-05 -1.128304211306385696e-04
2.232000000000000000e+03 6.067199325561523438e+01 -1.021599483489990234e+01 -1.972655177116394043e+00 1.503076255321502686e-01 -5.467042922973632812e-01 -5.268347635865211487e-02
2.233000000000000000e+03 6.284105682373046875e+01 -1.079342174530029297e+01 -1.287434101104736328e+00 4.617389440536499023e-01 -2.477085590362548828e-01 4.040091633796691895e-01
2.234000000000000000e+03 5.835578155517578125e+01 -1.095257949829101562e+01 -1.782317996025085449e+00 1.146206781268119812e-01 -5.003091692924499512e-01 -1.953607499599456787e-01
2.235000000000000000e+03 5.768812179565429688e+01 -1.029506492614746094e+01 -2.114544153213500977e+00 6.021455302834510803e-02 -6.162989139556884766e-01 -2.613191306591033936e-01
2.236000000000000000e+03 5.542388916015625000e+01 -1.100764465332031250e+01 -1.843876481056213379e+00 4.513767361640930176e-02 -5.396216511726379395e-01 -3.375956416130065918e-01
2.237000000000000000e+03 6.428186798095703125e+01 -1.069551563262939453e+01 -9.890177249908447266e-01 7.408700585365295410e-01 -7.444430142641067505e-02 8.036497235298156738e-01
2.238000000000000000e+03 5.843248367309570312e+01 -1.028078937530517578e+01 -2.097990274429321289e+00 7.261954993009567261e-02 -6.076111793518066406e-01 -2.237504869699478149e-01
2.239000000000000000e+03 5.910034942626953125e+01 -1.093664550781250000e+01 -1.742977619171142578e+00 1.409584879875183105e-01 -4.806057214736938477e-01 -1.393513977527618408e-01
2.240000000000000000e+03 5.754212951660156250e+01 -1.163649940490722656e+01 -1.535109400749206543e+00 1.319748610258102417e-01 -4.209403395652770996e-01 -2.147015035152435303e-01
2.241000000000000000e+03 3.609653854370117188e+01 -1.072048854827880859e+01 -1.047579407691955566e+00 -3.256370872259140015e-02 -3.240429461002349854e-01 -3.254211246967315674e-01
2.242000000000000000e+03 5.984746551513671875e+01 -1.091423320770263672e+01 -1.688470959663391113e+00 1.799668967723846436e-01 -4.525512456893920898e-01 -6.822632253170013428e-02
2.243000000000000000e+03 3.535062789916992188e+01 -1.075233650207519531e+01 -1.003109574317932129e+00 -3.422528877854347229e-02 -3.112004697322845459e-01 -3.189781010150909424e-01
2.244000000000000000e+03 3.858943557739257812e+01 -1.265527915954589844e+01 -9.554459452629089355e-01 -4.621260240674018860e-02 -3.004975616931915283e-01 -4.405055344104766846e-01
2.245000000000000000e+03 3.773382568359375000e+01 -2.732173204421997070e+00 -1.156802177429199219e+00 6.020754110068082809e-03 -3.452344238758087158e-01 3.834617733955383301e-01
2.246000000000000000e+03 3.467113113403320312e+01 -1.461887240409851074e+00 -8.513746857643127441e-01 -2.882505767047405243e-03 -2.562771439552307129e-01 4.681150019168853760e-01
2.247000000000000000e+03 5.396953964233398438e+01 -1.102701759338378906e+01 -1.828171372413635254e+00 2.568708918988704681e-02 -5.407452583312988281e-01 -3.792473673820495605e-01
2.248000000000000000e+03 5.469965744018554688e+01 -1.100768089294433594e+01 -1.844726681709289551e+00 3.400858491659164429e-02 -5.432153940200805664e-01 -3.605012595653533936e-01
2.249000000000000000e+03 5.655982971191406250e+01 -1.845418453216552734e+00 -1.999591112136840820e+00 5.901487544178962708e-02 -5.821728706359863281e-01 2.553567886352539062e-01
2.250000000000000000e+03 5.882197952270507812e+01 -2.605796575546264648e+00 -2.254102945327758789e+00 7.941412180662155151e-02 -6.524066329002380371e-01 1.696090102195739746e-01
2.251000000000000000e+03 5.883898544311523438e+01 -1.928482294082641602e+00 -1.915727376937866211e+00 1.289362013339996338e-01 -5.360373258590698242e-01 1.218852996826171875e-01
2.252000000000000000e+03 5.963516616821289062e+01 -1.947342634201049805e+00 -1.853428721427917480e+00 1.576201617717742920e-01 -5.087425708770751953e-01 4.879792779684066772e-02
2.253000000000000000e+03 3.848876953125000000e+01 -2.710136175155639648e+00 -1.217496395111083984e+00 5.667950026690959930e-03 -3.635485470294952393e-01 3.859918713569641113e-01
2.254000000000000000e+03 3.545835494995117188e+01 -2.122919321060180664e+00 -9.394778013229370117e-01 2.723152283579111099e-03 -2.810263931751251221e-01 4.255287945270538330e-01
2.255000000000000000e+03 5.807176971435546875e+01 -1.904242038726806641e+00 -1.959279537200927734e+00 9.529874473810195923e-02 -5.591942071914672852e-01 1.767634004354476929e-01
2.256000000000000000e+03 5.430508422851562500e+01 -1.838792681694030762e+00 -2.009496450424194336e+00 3.069867193698883057e-02 -5.936393141746520996e-01 3.375453054904937744e-01
2.257000000000000000e+03 5.506492996215820312e+01 -2.520839691162109375e+00 -2.274783372879028320e+00 2.044185996055603027e-02 -6.763024330139160156e-01 3.110691606998443604e-01
2.258000000000000000e+03 6.033541107177734375e+01 -2.100060462951660156e+00 -1.855466604232788086e+00 1.917466223239898682e-01 -4.991159737110137939e-01 -2.325769979506731033e-03
2.259000000000000000e+03 6.309227752685546875e+01 -2.777964591979980469e+00 -1.784159541130065918e+00 3.041667640209197998e-01 -4.439978301525115967e-01 -3.225592970848083496e-01
2.260000000000000000e+03 6.137937164306640625e+01 -1.500038623809814453e+00 -1.417518138885498047e+00 3.577195107936859131e-01 -3.179395794868469238e-01 -2.465036213397979736e-01
2.261000000000000000e+03 5.644175529479980469e+00 -7.042966842651367188e+00 1.197062665596604347e-04 -9.172126738121733069e-05 8.395501026825513691e-06 -2.126675972249358892e-04
2.262000000000000000e+03 5.731721496582031250e+01 -1.869667530059814453e+00 -1.982404589653015137e+00 7.328667491674423218e-02 -5.727353692054748535e-01 2.194098532199859619e-01
2.263000000000000000e+03 5.505686187744140625e+01 -1.838234663009643555e+00 -2.011839866638183594e+00 3.891750052571296692e-02 -5.918767452239990234e-01 3.154152929782867432e-01
2.264000000000000000e+03 4.831036376953125000e+01 -1.827808141708374023e+00 -1.797835588455200195e+00 1.620351453311741352e-03 -5.388645529747009277e-01 4.283739924430847168e-01
2.265000000000000000e+03 4.905702590942382812e+01 -2.520867109298706055e+00 -2.010628461837768555e+00 -2.461606869474053383e-03 -6.039270162582397461e-01 3.827318847179412842e-01
2.266000000000000000e+03 4.302794265747070312e+01 -2.600574254989624023e+00 -1.580094456672668457e+00 1.252034795470535755e-03 -4.736527502536773682e-01 3.935135006904602051e-01
2.267000000000000000e+03 6.134637832641601562e+01 -1.085624599456787109e+01 -1.533530712127685547e+00 2.821935117244720459e-01 -3.754011690616607666e-01 1.220664381980895996e-01
2.268000000000000000e+03 6.753513336181640625e+00 -5.649564743041992188e+00 2.492717176210135221e-04 -2.383604878559708595e-04 3.273367155998130329e-06 -6.646941619692370296e-05
2.269000000000000000e+03 4.943011283874511719e+00 -4.479717254638671875e+00 7.219790131784975529e-05 1.535734918434172869e-04 6.773141649318858981e-05 2.086756867356598377e-04
2.270000000000000000e+03 5.279893875122070312e+01 -1.832679986953735352e+00 -1.982668876647949219e+00 1.802473887801170349e-02 -5.893932580947875977e-01 3.739093840122222900e-01
2.271000000000000000e+03 3.306870651245117188e+01 -1.081142330169677734e+01 -8.753820657730102539e-01 -3.386336937546730042e-02 -2.727736234664916992e-01 -3.027870655059814453e-01
2.272000000000000000e+03 3.923358917236328125e+01 -1.995598554611206055e+00 -1.210198163986206055e+00 4.829404409974813461e-03 -3.616106212139129639e-01 4.428020119667053223e-01
2.273000000000000000e+03 3.847117233276367188e+01 -2.012549877166748047e+00 -1.155159950256347656e+00 4.892457276582717896e-03 -3.450802564620971680e-01 4.410718977451324463e-01
2.274000000000000000e+03 5.131114578247070312e+01 -1.819802045822143555e+00 -1.933711647987365723e+00 7.730425801128149033e-03 -5.777943730354309082e-01 3.981731534004211426e-01
2.275000000000000000e+03 5.056074905395507812e+01 -1.815878391265869141e+00 -1.902742028236389160e+00 5.599093623459339142e-03 -5.691428780555725098e-01 4.074242413043975830e-01
2.276000000000000000e+03 6.059650039672851562e+01 -1.088605880737304688e+01 -1.623461842536926270e+00 2.218642681837081909e-01 -4.204792678356170654e-01 1.574946194887161255e-02
2.277000000000000000e+03 4.075708007812500000e+01 -2.655247211456298828e+00 -1.400837063789367676e+00 3.973793238401412964e-03 -4.190589785575866699e-01 3.912030160427093506e-01
2.278000000000000000e+03 5.354955673217773438e+01 -1.836997270584106445e+00 -1.999907016754150391e+00 2.469043992459774017e-02 -5.925649404525756836e-01 3.569352328777313232e-01
2.279000000000000000e+03 4.906117248535156250e+01 -1.821512222290039062e+00 -1.835393190383911133e+00 2.891151932999491692e-03 -5.497505664825439453e-01 4.224887788295745850e-01
2.280000000000000000e+03 4.227008438110351562e+01 -1.922705531120300293e+00 -1.424384951591491699e+00 3.465799149125814438e-03 -4.262757301330566406e-01 4.463465809822082520e-01
2.281000000000000000e+03 4.150911712646484375e+01 -1.941663384437561035e+00 -1.371914505958557129e+00 3.862835699692368507e-03 -4.104155004024505615e-01 4.462982416152954102e-01
2.282000000000000000e+03 4.530151748657226562e+01 -1.854275226593017578e+00 -1.621322035789489746e+00 -1.257629919564351439e-04 -4.864343106746673584e-01 4.428202211856842041e-01
2.283000000000000000e+03 4.226155853271484375e+01 -1.214130401611328125e+00 -1.326581478118896484e+00 4.941690713167190552e-03 -3.964919149875640869e-01 4.940098822116851807e-01
2.284000000000000000e+03 4.605450820922851562e+01 -1.844942808151245117e+00 -1.668383955955505371e+00 -2.772169136733282357e-05 -5.005235075950622559e-01 4.409016072750091553e-01
2.285000000000000000e+03 4.454389953613281250e+01 -1.864975452423095703e+00 -1.573845624923706055e+00 7.469846750609576702e-04 -4.719296097755432129e-01 4.446381926536560059e-01
2.286000000000000000e+03 5.204338073730468750e+01 -1.127678155899047852e+00 -1.751565098762512207e+00 2.515199594199657440e-02 -5.179239511489868164e-01 4.043846428394317627e-01
2.287000000000000000e+03 3.683708572387695312e+01 -1.139836311340332031e+01 -1.013754248619079590e+00 -3.682763502001762390e-02 -3.151745498180389404e-01 -3.678262829780578613e-01
2.288000000000000000e+03 3.457810592651367188e+01 -1.152249240875244141e+01 -8.926662802696228027e-01 -4.120665043592453003e-02 -2.801618874073028564e-01 -3.521773517131805420e-01
2.289000000000000000e+03 3.609793472290039062e+01 -1.146223545074462891e+01 -9.726254343986511230e-01 -4.038693755865097046e-02 -3.039037287235260010e-01 -3.622345328330993652e-01
2.290000000000000000e+03 4.755707168579101562e+01 -1.832353472709655762e+00 -1.756312012672424316e+00 9.199478081427514553e-04 -5.266176462173461914e-01 4.337431788444519043e-01
2.291000000000000000e+03 4.680498504638671875e+01 -1.837475061416625977e+00 -1.712946534156799316e+00 1.805630163289606571e-04 -5.138297677040100098e-01 4.374809861183166504e-01
2.292000000000000000e+03 2.985101509094238281e+01 -1.179658222198486328e+01 -6.528875827789306641e-01 -3.353369981050491333e-02 -2.059263885021209717e-01 -3.234935998916625977e-01
2.293000000000000000e+03 3.381654739379882812e+01 -1.152906990051269531e+01 -8.571772575378417969e-01 -4.056400060653686523e-02 -2.693223655223846436e-01 -3.449051380157470703e-01
2.294000000000000000e+03 6.276834487915039062e+01 -1.342121839523315430e+00 -1.083538532257080078e+00 6.114528775215148926e-01 -1.416257023811340332e-01 -5.765606164932250977e-01
2.295000000000000000e+03 6.782131195068359375e+00 -3.999632596969604492e+00 -6.524507625726982951e-05 -7.683306648686993867e-06 -2.187851532653439790e-05 -1.250964414793998003e-04
2.296000000000000000e+03 6.213552474975585938e+00 -4.037189960479736328e+00 -7.177080988185480237e-05 2.678340242709964514e-04 5.881896140635944903e-05 1.856113958638161421e-04
2.297000000000000000e+03 2.685534477233886719e+01 -1.085038471221923828e+01 -5.521163344383239746e-01 -1.432582922279834747e-02 -1.699326634407043457e-01 -2.619026303291320801e-01
2.298000000000000000e+03 3.148440551757812500e+01 -1.163879203796386719e+01 -7.357070446014404297e-01 -3.829734027385711670e-02 -2.322013229131698608e-01 -3.305329382419586182e-01
2.299000000000000000e+03 3.228359603881835938e+01 -1.157978916168212891e+01 -7.789840102195739746e-01 -3.959468007087707520e-02 -2.455736100673675537e-01 -3.357811868190765381e-01
2.300000000000000000e+03 3.070291900634765625e+01 -1.256455898284912109e+01 -6.433420181274414062e-01 -4.317991808056831360e-02 -2.059565782546997070e-01 -3.650970458984375000e-01
2.301000000000000000e+03 2.339301300048828125e+01 -1.141150093078613281e+01 -4.042194187641143799e-01 -5.108421202749013901e-03 -1.227983534336090088e-01 -2.610023021697998047e-01
2.302000000000000000e+03 2.605703544616699219e+01 -1.085637950897216797e+01 -5.144261717796325684e-01 -1.051826216280460358e-02 -1.574833393096923828e-01 -2.564677000045776367e-01
2.303000000000000000e+03 2.827776336669921875e+01 -1.171281623840332031e+01 -5.903092622756958008e-01 -2.591922134160995483e-02 -1.848685443401336670e-01 -3.104783296585083008e-01
2.304000000000000000e+03 2.904255104064941406e+01 -1.179611301422119141e+01 -6.203419566154479980e-01 -2.926369383931159973e-02 -1.948816925287246704e-01 -3.181480765342712402e-01
2.305000000000000000e+03 6.504534912109375000e+01 -2.131902933120727539e+00 -8.484108448028564453e-01 9.941961765289306641e-01 4.373561218380928040e-02 -1.157860279083251953e+00
2.306000000000000000e+03 6.366532135009765625e+01 -1.925150036811828613e+00 -1.154752850532531738e+00 6.360552310943603516e-01 -1.556092947721481323e-01 -6.845788955688476562e-01
2.307000000000000000e+03 6.401165771484375000e+01 -2.484682083129882812e+00 -1.356811285018920898e+00 5.395805239677429199e-01 -2.451692223548889160e-01 -6.462342143058776855e-01
2.308000000000000000e+03 2.754506492614746094e+01 -1.159615802764892578e+01 -5.613260269165039062e-01 -2.238162234425544739e-02 -1.751123070716857910e-01 -3.006227910518646240e-01
2.309000000000000000e+03 1.085905551910400391e+01 4.146735668182373047e+00 -1.509500434622168541e-04 -2.857933868654072285e-04 -1.310230290982872248e-04 -7.516334881074726582e-04
2.310000000000000000e+03 3.066855430603027344e+01 -1.172760772705078125e+01 -6.923661828041076660e-01 -3.589791804552078247e-02 -2.184792309999465942e-01 -3.279535770416259766e-01
2.311000000000000000e+03 6.554961395263671875e+01 -1.053571701049804688e+01 -6.663877367973327637e-01 1.178977966308593750e+00 1.537770628929138184e-01 1.325786948204040527e+00
2.312000000000000000e+03 6.659295654296875000e+01 -1.002470684051513672e+01 -5.103011131286621094e-01 1.507915973663330078e+00 2.992844581604003906e-01 1.753329038619995117e+00
2.313000000000000000e+03 1.137699699401855469e+01 5.877726554870605469e+00 2.313263394171372056e-04 7.402601768262684345e-04 2.914759679697453976e-04 7.583704427815973759e-04
2.314000000000000000e+03 2.516328620910644531e+01 -1.167029094696044922e+01 -4.652675986289978027e-01 -1.183779165148735046e-02 -1.431316286325454712e-01 -2.828577458858489990e-01
2.315000000000000000e+03 2.291247558593750000e+01 -1.045466327667236328e+01 -3.801710307598114014e-01 1.568056293763220310e-03 -1.135808974504470825e-01 -2.209124714136123657e-01
2.316000000000000000e+03 2.424086761474609375e+01 -1.164470386505126953e+01 -4.340802431106567383e-01 -8.200744166970252991e-03 -1.326842904090881348e-01 -2.751939892768859863e-01
2.317000000000000000e+03 2.601219367980957031e+01 -1.161406040191650391e+01 -4.973190724849700928e-01 -1.591113023459911346e-02 -1.539690643548965454e-01 -2.878591716289520264e-01
2.318000000000000000e+03 1.890439605712890625e+01 -1.319463634490966797e+01 -3.048886954784393311e-01 -7.831410318613052368e-02 -1.149608343839645386e-01 -2.564813792705535889e-01
2.319000000000000000e+03 2.148844909667968750e+01 -1.104650306701660156e+01 -3.349874317646026611e-01 -1.194681227207183838e-02 -1.040802747011184692e-01 -2.288244664669036865e-01
2.320000000000000000e+03 2.106960868835449219e+01 -1.258102536201477051e+00 -6.201177462935447693e-02 -1.517246961593627930e-01 -6.412094086408615112e-02 1.344845443964004517e-01
2.321000000000000000e+03 2.167753028869628906e+01 9.133062362670898438e+00 -4.060476720333099365e-01 -7.194625735282897949e-01 -3.376530706882476807e-01 6.179733872413635254e-01
2.322000000000000000e+03 7.517609119415283203e+00 1.143410873413085938e+01 -1.141741289757192135e-03 3.931562881916761398e-03 8.369464776478707790e-04 1.079613692127168179e-03
2.323000000000000000e+03 6.556726932525634766e+00 1.243783378601074219e+01 3.873172448948025703e-03 -8.474630885757505894e-04 9.077128488570451736e-04 6.674687843769788742e-03
2.324000000000000000e+03 8.182578086853027344e+00 8.865236282348632812e+00 9.363290737383067608e-04 -9.260055958293378353e-04 3.097031594734289683e-06 7.471119170077145100e-04
2.325000000000000000e+03 8.282052993774414062e+00 7.456259727478027344e+00 6.014839746057987213e-04 -5.406835116446018219e-04 1.824013816076330841e-05 6.568677490577101707e-04
2.326000000000000000e+03 4.367418289184570312e+00 -1.165096092224121094e+01 2.543124603107571602e-03 -2.123103709891438484e-03 1.260062417713925242e-04 -6.051592663425253704e-06
2.327000000000000000e+03 9.139942169189453125e+00 4.983309268951416016e+00 -7.792755059199407697e-05 7.077578338794410229e-04 1.889490813482552767e-04 5.066524608992040157e-04
2.328000000000000000e+03 1.045357704162597656e+01 7.646043777465820312e+00 -6.825944001320749521e-05 1.578047405928373337e-03 4.529363941401243210e-04 4.758055147249251604e-04
2.329000000000000000e+03 7.431819152832031250e+01 -7.278685569763183594e+00 4.052158832550048828e+00 1.212870121002197266e+01 4.854258060455322266e+00 -1.441191673278808594e+00
2.330000000000000000e+03 7.689397430419921875e+01 -5.466090202331542969e+00 1.281062006950378418e+00 8.193902969360351562e+00 2.842489480972290039e+00 7.652511000633239746e-01
2.331000000000000000e+03 6.200402259826660156e+00 -1.272568702697753906e+01 1.030172454193234444e-03 1.321578398346900940e-03 7.055252790451049805e-04 -4.974387586116790771e-03
2.332000000000000000e+03 7.663538360595703125e+01 -9.974215507507324219e+00 4.200951382517814636e-02 9.176935195922851562e+00 2.765683412551879883e+00 -1.758104443550109863e+00
2.333000000000000000e+03 7.675099182128906250e+01 -3.153146028518676758e+00 2.510966956615447998e-01 9.073686599731445312e+00 2.797435045242309570e+00 1.761342048645019531e+00
2.334000000000000000e+03 7.565692138671875000e+01 -1.165379905700683594e+01 -7.722627520561218262e-01 1.020547103881835938e+01 2.829962730407714844e+00 -1.369939446449279785e+00
2.335000000000000000e+03 7.574375152587890625e+01 -9.191252708435058594e+00 6.374151706695556641e-01 1.029793548583984375e+01 3.280605077743530273e+00 -1.916209340095520020e+00
2.336000000000000000e+03 1.228948116302490234e+01 6.034181594848632812e+00 -3.511592221911996603e-04 -5.822981474921107292e-04 -2.800372312776744366e-04 -7.901060162112116814e-04
2.337000000000000000e+03 2.076694297790527344e+01 1.497405529022216797e+01 -5.175428390502929688e-01 -7.904391884803771973e-01 -3.923946022987365723e-01 5.413147211074829102e-01
2.338000000000000000e+03 2.115547180175781250e+01 1.352673339843750000e+01 -5.290430784225463867e-01 -7.721703648567199707e-01 -3.903640508651733398e-01 5.805082917213439941e-01
2.339000000000000000e+03 6.384452819824218750e+00 9.375341415405273438e+00 1.478998339734971523e-03 -1.040962990373373032e-03 1.314105902565643191e-04 1.031288993544876575e-03
2.340000000000000000e+03 3.736570358276367188e+00 6.608724594116210938e+00 -1.143598710768856108e-04 5.232842522673308849e-04 1.226773165399208665e-04 -9.648798004491254687e-05
2.341000000000000000e+03 9.152517318725585938e+00 -5.652336120605468750e+00 -1.286841870751231909e-04 2.578740823082625866e-04 3.875696711475029588e-05 -4.833342609344981611e-05
2.342000000000000000e+03 6.410235404968261719e+00 1.438470554351806641e+01 9.331643581390380859e-03 -5.070695653557777405e-03 1.278284355066716671e-03 1.425633206963539124e-02
2.343000000000000000e+03 2.198509597778320312e+01 -1.105709910392761230e+00 -1.033762395381927490e-01 -1.715983599424362183e-01 -8.249238133430480957e-02 1.937093287706375122e-01
2.344000000000000000e+03 2.314228057861328125e+01 3.780916631221771240e-01 -1.773577332496643066e-01 -2.302573770284652710e-01 -1.222845315933227539e-01 3.289734721183776855e-01
2.345000000000000000e+03 5.260570526123046875e+00 1.089110946655273438e+01 3.453836310654878616e-03 -1.842659665271639824e-03 4.833529819734394550e-04 7.508372073061764240e-04
2.346000000000000000e+03 7.449630737304687500e+01 3.262017440795898438e+01 7.750979810953140259e-02 5.834558963775634766e+00 1.773620605468750000e+00 -2.297381162643432617e-01
2.347000000000000000e+03 7.372558593750000000e+01 2.802079010009765625e+01 1.037801802158355713e-01 5.916592597961425781e+00 1.806111812591552734e+00 -3.750886023044586182e-01
2.348000000000000000e+03 7.551173400878906250e+01 1.171678781509399414e+00 -9.547418355941772461e-01 9.529089927673339844e+00 2.572304487228393555e+00 5.757251977920532227e-01
2.349000000000000000e+03 7.617256927490234375e+01 -1.496430587768554688e+01 -6.742174029350280762e-01 9.190075874328613281e+00 2.554757595062255859e+00 -4.703088700771331787e-01
2.350000000000000000e+03 7.484230041503906250e+01 -1.759292984008789062e+01 -6.046513915061950684e-01 8.500052452087402344e+00 2.368620395660400391e+00 2.976913750171661377e-01
2.351000000000000000e+03 7.553495025634765625e+01 -2.729193305969238281e+01 3.891675919294357300e-02 7.444869518280029297e+00 2.245135784149169922e+00 5.092255473136901855e-01
2.352000000000000000e+03 7.375297546386718750e+01 -2.807471656799316406e+01 1.089104712009429932e-01 6.835393428802490234e+00 2.083291292190551758e+00 5.994195938110351562e-01
2.353000000000000000e+03 7.599510192871093750e+01 -1.000003576278686523e+00 -7.224197983741760254e-01 9.888158798217773438e+00 2.749721765518188477e+00 1.402422308921813965e+00
2.354000000000000000e+03 7.501002502441406250e+01 -2.362648963928222656e+01 -4.694479331374168396e-02 7.677132129669189453e+00 2.289056062698364258e+00 5.824568867683410645e-01
2.355000000000000000e+03 7.390507507324218750e+01 2.245019912719726562e+01 1.000670492649078369e-01 6.194375514984130859e+00 1.888332843780517578e+00 -5.255900025367736816e-01
2.356000000000000000e+03 7.527799224853515625e+01 2.385806083679199219e+01 5.882552266120910645e-02 6.430910110473632812e+00 1.946920633316040039e+00 -4.004631340503692627e-01
2.357000000000000000e+03 7.442829895019531250e+01 8.360172271728515625e+00 -2.264820039272308350e-01 7.640930175781250000e+00 2.224334478378295898e+00 -6.657661795616149902e-01
2.358000000000000000e+03 7.646822357177734375e+01 -1.370077037811279297e+01 -6.614031791687011719e-01 9.303359031677246094e+00 2.592586755752563477e+00 -8.926959037780761719e-01
2.359000000000000000e+03 7.460347747802734375e+01 -1.663627052307128906e+01 -7.457837462425231934e-01 8.690823554992675781e+00 2.383511781692504883e+00 2.466408163309097290e-01
2.360000000000000000e+03 7.548447418212890625e+01 1.257700634002685547e+01 -1.451054401695728302e-02 7.488246917724609375e+00 2.242120742797851562e+00 -6.127611398696899414e-01
2.361000000000000000e+03 7.402400970458984375e+01 1.535030078887939453e+01 6.610817462205886841e-02 6.743036270141601562e+00 2.042743444442749023e+00 -7.156080603599548340e-01
2.362000000000000000e+03 7.538564300537109375e+01 1.673239135742187500e+01 5.416399613022804260e-02 7.029294967651367188e+00 2.125037670135498047e+00 -5.676108002662658691e-01
2.363000000000000000e+03 7.388343811035156250e+01 2.555980110168457031e+01 1.006516888737678528e-01 6.033600330352783203e+00 1.840275526046752930e+00 -4.355716109275817871e-01
2.364000000000000000e+03 7.537790679931640625e+01 2.522835350036621094e+01 6.225284188985824585e-02 6.384994983673095703e+00 1.934174299240112305e+00 -3.633008301258087158e-01
2.365000000000000000e+03 7.416919708251953125e+01 1.113479900360107422e+01 -6.715021282434463501e-02 7.193107128143310547e+00 2.137787103652954102e+00 -7.604764103889465332e-01
2.366000000000000000e+03 7.399092864990234375e+01 1.674059677124023438e+01 8.363140374422073364e-02 6.625737190246582031e+00 2.012810468673706055e+00 -6.867432594299316406e-01
2.367000000000000000e+03 7.345823669433593750e+01 2.949395751953125000e+01 1.072701439261436462e-01 5.803429126739501953e+00 1.773209810256958008e+00 -3.561665415763854980e-01
2.368000000000000000e+03 7.683695983886718750e+01 -2.105589628219604492e+00 -2.008708417415618896e-01 9.118944168090820312e+00 2.675421953201293945e+00 1.694982409477233887e+00
2.369000000000000000e+03 7.484365081787109375e+01 -2.464769363403320312e+01 -8.719122968614101410e-03 7.476510524749755859e+00 2.240337371826171875e+00 5.959969758987426758e-01
2.370000000000000000e+03 7.359195709228515625e+01 -2.598353195190429688e+01 6.033007055521011353e-02 6.925074100494384766e+00 2.095621347427368164e+00 6.573995947837829590e-01
2.371000000000000000e+03 7.596365356445312500e+01 -1.051933765411376953e+01 -2.842541635036468506e-01 1.008502197265625000e+01 2.940230131149291992e+00 -1.765659213066101074e+00
2.372000000000000000e+03 7.606308746337890625e+01 -2.111189270019531250e+01 -1.398614645004272461e-01 8.296347618103027344e+00 2.446945905685424805e+00 3.896587789058685303e-01
2.373000000000000000e+03 7.507421875000000000e+01 4.403995990753173828e+00 -6.109616160392761230e-01 8.585498809814453125e+00 2.392361164093017578e+00 -2.263286411762237549e-01
2.374000000000000000e+03 7.396743774414062500e+01 2.097922325134277344e+01 1.019043549895286560e-01 6.306401729583740234e+00 1.922491788864135742e+00 -5.703888535499572754e-01
2.375000000000000000e+03 7.539624786376953125e+01 -3.191667938232421875e+01 8.426616340875625610e-02 7.081030368804931641e+00 2.149589061737060547e+00 3.585132658481597900e-01
2.376000000000000000e+03 7.680915832519531250e+01 -9.873856306076049805e-01 -4.714511334896087646e-01 9.228325843811035156e+00 2.627062559127807617e+00 1.445706963539123535e+00
2.377000000000000000e+03 7.406541442871093750e+01 1.395879459381103516e+01 3.739726543426513672e-02 6.873745918273925781e+00 2.073343038558959961e+00 -7.384124994277954102e-01
2.378000000000000000e+03 7.534096527099609375e+01 -1.450917530059814453e+01 -9.531098008155822754e-01 9.386898994445800781e+00 2.530136585235595703e+00 -3.830378949642181396e-01
2.379000000000000000e+03 7.439927673339843750e+01 -2.685784530639648438e+01 7.085985690355300903e-02 7.151788711547851562e+00 2.166794538497924805e+00 5.854496955871582031e-01
2.380000000000000000e+03 7.491399383544921875e+01 -2.127837371826171875e+01 -1.817503571510314941e-01 7.890500068664550781e+00 2.312624931335449219e+00 5.380206704139709473e-01
2.381000000000000000e+03 7.335591125488281250e+01 3.085471916198730469e+01 1.162505000829696655e-01 5.744863986968994141e+00 1.758334279060363770e+00 -3.147708773612976074e-01
2.382000000000000000e+03 4.519915580749511719e+00 2.988755989074707031e+01 2.720840461552143097e-02 -4.863132834434509277e-01 -1.377314627170562744e-01 2.245415747165679932e-01
2.383000000000000000e+03 6.257173538208007812e+00 -2.845456695556640625e+01 1.647173054516315460e-02 -2.620048820972442627e-01 -7.365994155406951904e-02 -1.611108332872390747e-01
2.384000000000000000e+03 7.467630004882812500e+01 7.022051811218261719e+00 -3.402627706527709961e-01 7.925881862640380859e+00 2.275685787200927734e+00 -5.688450336456298828e-01
2.385000000000000000e+03 7.493262481689453125e+01 -1.877220153808593750e+01 -4.226362407207489014e-01 8.275204658508300781e+00 2.355770349502563477e+00 3.847543001174926758e-01
2.386000000000000000e+03 7.493331146240234375e+01 -2.002189254760742188e+01 -2.872843444347381592e-01 8.064436912536621094e+00 2.333145856857299805e+00 4.740844964981079102e-01
2.387000000000000000e+03 1.021486759185791016e+01 6.394901752471923828e+00 -3.266679123044013977e-04 1.442738925106823444e-03 3.348212921991944313e-04 6.767721060896292329e-05
2.388000000000000000e+03 4.428054332733154297e+00 2.754910850524902344e+01 -5.645451601594686508e-04 -3.931067287921905518e-01 -1.181013807654380798e-01 2.353089600801467896e-01
2.389000000000000000e+03 5.345342159271240234e+00 2.911176490783691406e+01 2.956782653927803040e-02 -4.862189888954162598e-01 -1.369953453540802002e-01 2.634578347206115723e-01
2.390000000000000000e+03 4.739091873168945312e+00 -2.586324310302734375e+01 -9.336606599390506744e-03 -1.940633803606033325e-01 -6.101999431848526001e-02 -1.357681006193161011e-01
2.391000000000000000e+03 6.850214481353759766e+00 -8.578296661376953125e+00 2.246241056127473712e-04 -1.819324243115261197e-04 1.280750348087167367e-05 -4.409778339322656393e-04
2.392000000000000000e+03 4.479658126831054688e+00 2.332793235778808594e+01 -7.597710192203521729e-02 -2.080436795949935913e-01 -8.520623296499252319e-02 1.962601989507675171e-01
2.393000000000000000e+03 1.095751667022705078e+01 2.266651725769042969e+01 -1.648326963186264038e-01 -6.162400245666503906e-01 -2.343218326568603516e-01 5.155823826789855957e-01
2.394000000000000000e+03 1.193758869171142578e+01 2.484849929809570312e+01 4.854372818954288960e-04 -7.162116169929504395e-01 -2.147178649902343750e-01 4.649794995784759521e-01
2.395000000000000000e+03 7.481673431396484375e+01 -3.557265090942382812e+01 9.172441810369491577e-02 6.728818893432617188e+00 2.046162843704223633e+00 2.314659953117370605e-01
2.396000000000000000e+03 5.722954750061035156e+00 -2.057913970947265625e+01 -8.589896559715270996e-02 -7.553723454475402832e-02 -4.843086004257202148e-02 -1.021274030208587646e-01
2.397000000000000000e+03 3.895669460296630859e+00 -2.134650802612304688e+01 -3.483869880437850952e-02 -7.404500991106033325e-02 -3.266511112451553345e-02 -7.164322584867477417e-02
2.398000000000000000e+03 5.940583229064941406e+00 -2.321087265014648438e+01 -4.215281829237937927e-02 -1.595173180103302002e-01 -6.050103902816772461e-02 -1.560922563076019287e-01
2.399000000000000000e+03 5.960410118103027344e+00 -2.190623664855957031e+01 -8.129382878541946411e-02 -1.110172420740127563e-01 -5.769332125782966614e-02 -1.385028809309005737e-01
2.400000000000000000e+03 4.643902778625488281e+00 1.246827220916748047e+01 6.438587792217731476e-03 -4.567302297800779343e-03 5.613857065327465534e-04 2.962407888844609261e-04
2.401000000000000000e+03 4.253057956695556641e+00 -2.034226989746093750e+01 -5.449384078383445740e-02 -5.461130663752555847e-02 -3.273154422640800476e-02 -5.968167260289192200e-02
2.402000000000000000e+03 5.795391559600830078e+00 2.621323585510253906e+01 -2.494214847683906555e-02 -3.950656950473785400e-01 -1.260023564100265503e-01 2.980563640594482422e-01
2.403000000000000000e+03 8.515530586242675781e+00 -6.634477138519287109e+00 2.384001272730529308e-04 -3.638285270426422358e-04 -3.762851702049374580e-05 5.213669282966293395e-05
2.404000000000000000e+03 7.863135814666748047e+00 -2.731008148193359375e+01 1.800031587481498718e-02 -2.679980397224426270e-01 -7.499931752681732178e-02 -1.896490752696990967e-01
2.405000000000000000e+03 4.215133666992187500e+00 2.061117744445800781e+01 -8.492013067007064819e-02 -8.068211376667022705e-02 -4.968067258596420288e-02 7.391976565122604370e-02
2.406000000000000000e+03 4.772410869598388672e+00 2.219173812866210938e+01 -1.333298236131668091e-01 -1.464337706565856934e-01 -8.392907679080963135e-02 1.727223694324493408e-01
2.407000000000000000e+03 5.788177490234375000e+00 -3.318904495239257812e+01 4.078134521842002869e-02 -3.291564881801605225e-01 -8.651254326105117798e-02 -1.139831915497779846e-01
2.408000000000000000e+03 1.174576282501220703e+01 -3.081566810607910156e+01 8.492732793092727661e-02 -3.225049674510955811e-01 -7.127329707145690918e-02 -1.891017258167266846e-01
2.409000000000000000e+03 7.296448707580566406e+00 2.123885536193847656e+01 -2.891623377799987793e-01 -1.668999940156936646e-01 -1.368187069892883301e-01 3.069418966770172119e-01
2.410000000000000000e+03 6.277455329895019531e+00 -2.718680763244628906e+01 3.240068443119525909e-03 -2.411361783742904663e-01 -7.136882841587066650e-02 -1.651156246662139893e-01
2.411000000000000000e+03 4.077056407928466797e+00 1.017766094207763672e+01 2.155585680156946182e-03 -7.204754510894417763e-04 4.305330803617835045e-04 -6.702971295453608036e-04
2.412000000000000000e+03 4.150532245635986328e+00 9.082886695861816406e+00 1.379008404910564423e-03 -5.347262485884130001e-04 2.532846410758793354e-04 -5.154592799954116344e-04
2.413000000000000000e+03 5.500958919525146484e+00 8.262764930725097656e+00 1.187807414680719376e-03 -7.864205399528145790e-04 1.204160726047120988e-04 1.555128619656898081e-05
2.414000000000000000e+03 7.501924991607666016e+00 8.124010086059570312e+00 1.663595612626522779e-04 6.540450267493724823e-04 2.461213734932243824e-04 -5.881693796254694462e-04
2.415000000000000000e+03 5.266129493713378906e+00 9.184926033020019531e+00 1.356796361505985260e-03 -1.295382389798760414e-04 3.681774251163005829e-04 4.663434447138570249e-05
2.416000000000000000e+03 4.509353637695312500e+00 -6.449153423309326172e+00 -5.629249426419846714e-05 -2.656117067090235651e-05 -2.485609911673236638e-05 -2.577067352831363678e-04
2.417000000000000000e+03 4.361159324645996094e+00 -5.518373489379882812e+00 1.684252201812341809e-04 1.453813601983711123e-04 9.414197120349854231e-05 2.566277980804443359e-04
2.418000000000000000e+03 1.424923229217529297e+01 -2.141514778137207031e+01 -1.163715869188308716e-01 -2.757101058959960938e-01 -1.176245138049125671e-01 -2.265893518924713135e-01
2.419000000000000000e+03 1.447025966644287109e+01 2.215386962890625000e+01 -1.366418749094009399e-01 -8.975979685783386230e-01 -3.102719485759735107e-01 4.753356873989105225e-01
2.420000000000000000e+03 6.181787014007568359e+00 -7.803691864013671875e+00 1.972748723346740007e-04 2.413199690636247396e-04 1.315784465987235308e-04 9.688736463431268930e-05
2.421000000000000000e+03 1.861343193054199219e+01 -1.775522994995117188e+01 -2.496100366115570068e-01 -1.481348872184753418e-01 -1.193234771490097046e-01 -2.810205817222595215e-01
2.422000000000000000e+03 1.919879150390625000e+01 1.968150138854980469e+01 -2.586674988269805908e-01 -8.423599004745483398e-01 -3.303082287311553955e-01 3.866328299045562744e-01
2.423000000000000000e+03 1.667994689941406250e+01 2.059191894531250000e+01 -2.338596731424331665e-01 -9.497197866439819336e-01 -3.550738394260406494e-01 4.261716306209564209e-01
2.424000000000000000e+03 1.975939178466796875e+01 -1.526943016052246094e+01 -3.135544061660766602e-01 -8.394219726324081421e-02 -1.192489787936210632e-01 -2.896423935890197754e-01
2.425000000000000000e+03 1.787012100219726562e+01 -1.581853485107421875e+01 -2.954244315624237061e-01 -1.368490904569625854e-01 -1.296820491552352905e-01 -2.679943740367889404e-01
2.426000000000000000e+03 1.802771759033203125e+01 -1.889188766479492188e+01 -2.167658060789108276e-01 -1.754742711782455444e-01 -1.176720261573791504e-01 -2.719091475009918213e-01
2.427000000000000000e+03 2.384895515441894531e+01 6.153302192687988281e+00 -3.330650627613067627e-01 -4.416407048702239990e-01 -2.324117273092269897e-01 6.083583831787109375e-01
2.428000000000000000e+03 2.448128700256347656e+01 5.304251194000244141e+00 -3.273301124572753906e-01 -3.752949833869934082e-01 -2.107875347137451172e-01 6.016134619712829590e-01
2.429000000000000000e+03 2.334831619262695312e+01 2.667062759399414062e+00 -2.190097272396087646e-01 -3.279123604297637939e-01 -1.640766263008117676e-01 4.458072185516357422e-01
2.430000000000000000e+03 1.913519668579101562e+01 -1.649575805664062500e+01 -2.833069562911987305e-01 -1.173736676573753357e-01 -1.202041879296302795e-01 -2.879562675952911377e-01
2.431000000000000000e+03 2.066039085388183594e+01 -1.437413787841796875e+01 -3.312475979328155518e-01 -5.958390235900878906e-02 -1.172494441270828247e-01 -2.938564419746398926e-01
2.432000000000000000e+03 1.709200286865234375e+01 -1.956001853942871094e+01 -1.970431953668594360e-01 -2.041302472352981567e-01 -1.203520372509956360e-01 -2.571302056312561035e-01
2.433000000000000000e+03 2.268278312683105469e+01 1.083844566345214844e+01 -4.681659340858459473e-01 -6.195959448814392090e-01 -3.263285458087921143e-01 6.326255202293395996e-01
2.434000000000000000e+03 7.205371856689453125e+01 4.105037307739257812e+01 1.288339048624038696e-01 5.379961967468261719e+00 1.652638792991638184e+00 -3.116497583687305450e-02
2.435000000000000000e+03 2.339999771118164062e+01 7.164906501770019531e+00 -3.549453318119049072e-01 -4.987570047378540039e-01 -2.561106979846954346e-01 6.211003661155700684e-01
2.436000000000000000e+03 2.423931312561035156e+01 8.771444320678710938e+00 -4.146483242511749268e-01 -4.576496183872222900e-01 -2.616893649101257324e-01 6.549859642982482910e-01
2.437000000000000000e+03 6.902227020263671875e+01 -9.401185035705566406e+00 2.585887610912322998e-01 4.697325229644775391e+00 1.486774206161499023e+00 3.977955102920532227e+00
2.438000000000000000e+03 6.763031768798828125e+01 -3.507800579071044922e+00 -2.859948873519897461e-01 1.875105500221252441e+00 4.767332077026367188e-01 -2.320236206054687500e+00
2.439000000000000000e+03 7.047378540039062500e+01 -3.945941686630249023e+00 -3.177664577960968018e-01 1.072151660919189453e+01 3.121124982833862305e+00 -5.354424953460693359e+00
2.440000000000000000e+03 6.982214355468750000e+01 -3.581614971160888672e+00 3.799282759428024292e-02 7.355484485626220703e+00 2.218043088912963867e+00 -4.870520114898681641e+00
2.441000000000000000e+03 7.336481475830078125e+01 -7.441193580627441406e+00 4.818575382232666016e+00 1.495958137512207031e+01 5.933446884155273438e+00 -2.275470018386840820e+00
2.442000000000000000e+03 7.122534179687500000e+01 -8.698187828063964844e+00 -1.109393358230590820e+00 1.530879688262939453e+01 4.259820938110351562e+00 3.993313312530517578e+00
2.443000000000000000e+03 7.297255706787109375e+01 -4.393386840820312500e+00 9.834957122802734375e-01 1.590103530883789062e+01 5.065359115600585938e+00 1.789316177368164062e+00
2.444000000000000000e+03 7.531949615478515625e+01 -9.838289260864257812e+00 -1.575316675007343292e-02 1.089298152923583984e+01 3.263168573379516602e+00 -1.867291331291198730e+00
2.445000000000000000e+03 7.378369903564453125e+01 -6.787271976470947266e+00 5.652418613433837891e+00 1.306350326538085938e+01 5.614776611328125000e+00 -9.293979406356811523e-01
2.446000000000000000e+03 7.451532745361328125e+01 -3.930651426315307617e+00 9.414921402931213379e-01 1.213284778594970703e+01 3.922302007675170898e+00 2.048319816589355469e+00
2.447000000000000000e+03 7.387236785888671875e+01 -4.115854263305664062e+00 1.084264636039733887e+00 1.360621643066406250e+01 4.407144546508789062e+00 2.051415681838989258e+00
2.448000000000000000e+03 7.652960968017578125e+01 -4.083887100219726562e+00 9.260856509208679199e-01 9.166010856628417969e+00 3.027628898620605469e+00 1.642720341682434082e+00
2.449000000000000000e+03 7.587271881103515625e+01 -6.733515739440917969e+00 2.531818389892578125e+00 9.508826255798339844e+00 3.612193346023559570e+00 -3.754363358020782471e-01
2.450000000000000000e+03 6.734633636474609375e+01 -9.297112464904785156e+00 -4.383857846260070801e-01 1.457407474517822266e+00 3.057065010070800781e-01 1.991629123687744141e+00
2.451000000000000000e+03 6.793054199218750000e+01 -9.355413436889648438e+00 -4.248838499188423157e-02 2.349438667297363281e+00 6.920850872993469238e-01 2.639662981033325195e+00
2.452000000000000000e+03 6.831217956542968750e+01 -3.844496011734008789e+00 2.426526881754398346e-02 2.347109317779541016e+00 7.114123702049255371e-01 -2.879979610443115234e+00
2.453000000000000000e+03 6.740806579589843750e+01 -3.219199180603027344e+00 -2.964203655719757080e-01 1.875252842903137207e+00 4.736497402191162109e-01 -2.239309072494506836e+00
2.454000000000000000e+03 6.716724395751953125e+01 -2.859990596771240234e+00 -3.219754993915557861e-01 1.958622336387634277e+00 4.909940659999847412e-01 -2.192278623580932617e+00
2.455000000000000000e+03 6.842388153076171875e+01 -9.594926834106445312e+00 1.720008105039596558e-01 3.398098945617675781e+00 1.071029901504516602e+00 3.315927743911743164e+00
2.456000000000000000e+03 2.405548858642578125e+01 -1.706682205200195312e+00 -1.987175494432449341e-01 -1.282265335321426392e-01 -9.808322787284851074e-02 2.556029856204986572e-01
2.457000000000000000e+03 2.494854164123535156e+01 1.340482711791992188e+00 -2.802976667881011963e-01 -2.167479246854782104e-01 -1.491136848926544189e-01 4.469272792339324951e-01
2.458000000000000000e+03 6.607160186767578125e+01 -1.049823188781738281e+01 -5.290369987487792969e-01 1.437526345252990723e+00 2.725467979907989502e-01 1.588199615478515625e+00
2.459000000000000000e+03 6.743644714355468750e+01 -9.887669563293457031e+00 -1.988244801759719849e-01 2.116810560226440430e+00 5.753958225250244141e-01 2.385119676589965820e+00
2.460000000000000000e+03 6.529732513427734375e+01 -1.423755049705505371e+00 -5.292563438415527344e-01 1.443801999092102051e+00 2.743636965751647949e-01 -1.470015883445739746e+00
2.461000000000000000e+03 2.436379623413085938e+01 -1.034246325492858887e+00 -2.248210459947586060e-01 -1.502489298582077026e-01 -1.125209927558898926e-01 3.061172962188720703e-01
2.462000000000000000e+03 2.288571739196777344e+01 -1.724577665328979492e+00 -1.389740109443664551e-01 -1.380727887153625488e-01 -8.311403542757034302e-02 2.052171379327774048e-01
2.463000000000000000e+03 2.679149055480957031e+01 -2.326469421386718750e+00 -3.502177298069000244e-01 -6.848347932100296021e-02 -1.256103664636611938e-01 3.076791167259216309e-01
2.464000000000000000e+03 2.504420661926269531e+01 -1.351495385169982910e+00 -2.589167952537536621e-01 -1.237126737833023071e-01 -1.147888451814651489e-01 3.119513392448425293e-01
2.465000000000000000e+03 2.747490119934082031e+01 -2.238904476165771484e+00 -3.965944945812225342e-01 -5.898686498403549194e-02 -1.366744041442871094e-01 3.288766741752624512e-01
2.466000000000000000e+03 2.675140380859375000e+01 -1.817648649215698242e+00 -3.501858711242675781e-01 -8.115819841623306274e-02 -1.294032186269760132e-01 3.342522084712982178e-01
2.467000000000000000e+03 8.192174911499023438e+00 5.853384017944335938e+00 -2.031770127359777689e-04 1.009995699860155582e-03 2.420456003164872527e-04 4.309255746193230152e-04
2.468000000000000000e+03 7.620560455322265625e+01 -8.455904960632324219e+00 1.146145343780517578e+00 9.564679145812988281e+00 3.213247299194335938e+00 -1.708603024482727051e+00
2.469000000000000000e+03 2.623148345947265625e+01 -1.825086474418640137e+00 -3.206198513507843018e-01 -8.915805816650390625e-02 -1.229333728551864624e-01 3.201543092727661133e-01
2.470000000000000000e+03 9.867452621459960938e+00 5.772676944732666016e+00 3.698596992762759328e-05 4.840336332563310862e-04 1.563058904139325023e-04 8.775894530117511749e-04
2.471000000000000000e+03 7.652101135253906250e+01 -7.598205566406250000e+00 1.497911453247070312e+00 8.853081703186035156e+00 3.105297803878784180e+00 -1.031880617141723633e+00
2.472000000000000000e+03 7.379006958007812500e+01 -7.349730491638183594e+00 4.610748291015625000e+00 1.332837200164794922e+01 5.381736278533935547e+00 -1.835024952888488770e+00
2.473000000000000000e+03 7.470011901855468750e+01 -6.822896003723144531e+00 4.039800643920898438e+00 1.128155422210693359e+01 4.596406459808349609e+00 -7.528527379035949707e-01
2.474000000000000000e+03 2.964697456359863281e+01 -2.222940683364868164e+00 -5.332124829292297363e-01 -3.467820212244987488e-02 -1.703671962022781372e-01 3.706372380256652832e-01
2.475000000000000000e+03 7.523937225341796875e+01 -1.074653267860412598e+00 -9.669824242591857910e-01 1.045363330841064453e+01 2.845995426177978516e+00 1.201278209686279297e+00
2.476000000000000000e+03 7.597168731689453125e+01 -2.925469160079956055e+00 1.240653619170188904e-01 1.008287429809570312e+01 3.062081813812255859e+00 1.854930520057678223e+00
2.477000000000000000e+03 7.578267097473144531e+00 4.977587223052978516e+00 -1.716456899885088205e-04 7.543063838966190815e-04 1.747982169035822153e-04 3.667016571853309870e-04
2.478000000000000000e+03 3.109290122985839844e+01 -2.246940851211547852e+00 -6.291261315345764160e-01 -1.937692984938621521e-02 -1.945509165525436401e-01 3.844441771507263184e-01
2.479000000000000000e+03 6.146318912506103516e+00 4.776735782623291016e+00 -2.064202126348391175e-04 6.461431039497256279e-04 1.319168659392744303e-04 2.691485569812357426e-04
2.480000000000000000e+03 3.037629127502441406e+01 -1.543260097503662109e+00 -5.716901421546936035e-01 -3.546828776597976685e-02 -1.821475327014923096e-01 4.185407161712646484e-01
2.481000000000000000e+03 3.326438522338867188e+01 -2.229130506515502930e+00 -7.836398482322692871e-01 -4.557686857879161835e-03 -2.364592701196670532e-01 4.064621031284332275e-01
2.482000000000000000e+03 3.253523635864257812e+01 -1.598868846893310547e+00 -7.153609991073608398e-01 -1.410591229796409607e-02 -2.188400775194168091e-01 4.443071484565734863e-01
2.483000000000000000e+03 3.249485778808593750e+01 -9.581640958786010742e-01 -6.959618330001831055e-01 -2.012461796402931213e-02 -2.148259282112121582e-01 4.838685989379882812e-01
2.484000000000000000e+03 4.199125289916992188e+01 -1.134310245513916016e+01 -1.285929799079895020e+00 -2.693620696663856506e-02 -3.938598036766052246e-01 -4.083022177219390869e-01
2.485000000000000000e+03 4.278707504272460938e+01 -1.205187034606933594e+01 -1.210578083992004395e+00 -3.090300410985946655e-02 -3.724443316459655762e-01 -4.467878341674804688e-01
2.486000000000000000e+03 4.719965362548828125e+01 -1.172818660736083984e+01 -1.456050038337707520e+00 -1.607516407966613770e-02 -4.416375756263732910e-01 -4.481635987758636475e-01
2.487000000000000000e+03 4.785986328125000000e+01 -1.381206321716308594e+01 -1.031749606132507324e+00 2.640518127009272575e-03 -3.087327182292938232e-01 -4.974881112575531006e-01
2.488000000000000000e+03 4.364785003662109375e+01 -1.278089618682861328e+01 -1.131625652313232422e+00 -3.453414142131805420e-02 -3.498479425907135010e-01 -4.788724780082702637e-01
2.489000000000000000e+03 4.045160293579101562e+01 -1.133217239379882812e+01 -1.211074352264404297e+00 -2.727377042174339294e-02 -3.715044558048248291e-01 -3.959115147590637207e-01
2.490000000000000000e+03 4.035107421875000000e+01 -1.206861782073974609e+01 -1.102809906005859375e+00 -3.244491294026374817e-02 -3.405764400959014893e-01 -4.342885017395019531e-01
2.491000000000000000e+03 4.944467163085937500e+01 -1.188113880157470703e+01 -1.493434309959411621e+00 -1.844360842369496822e-03 -4.485836029052734375e-01 -4.477760195732116699e-01
2.492000000000000000e+03 5.023035430908203125e+01 -1.191906929016113281e+01 -1.505048632621765137e+00 3.456842154264450073e-03 -4.504775404930114746e-01 -4.421790838241577148e-01
2.493000000000000000e+03 6.276711273193359375e+01 -1.148600482940673828e+01 -9.847042560577392578e-01 6.126853227615356445e-01 -1.116056740283966064e-01 5.257375240325927734e-01
2.494000000000000000e+03 6.352782821655273438e+01 -1.148120403289794922e+01 -8.182244300842285156e-01 8.066916465759277344e-01 -3.459832165390253067e-03 7.571930289268493652e-01
2.495000000000000000e+03 5.326725006103515625e+01 -1.174186515808105469e+01 -1.597294569015502930e+00 2.362434193491935730e-02 -4.721010923385620117e-01 -3.932259976863861084e-01
2.496000000000000000e+03 3.394491577148437500e+01 -1.510711908340454102e+00 -8.053131699562072754e-01 -5.876494571566581726e-03 -2.433568984270095825e-01 4.603463113307952881e-01
2.497000000000000000e+03 3.695656585693359375e+01 -2.059491634368896484e+00 -1.046372175216674805e+00 4.602305591106414795e-03 -3.125309646129608154e-01 4.348235130310058594e-01
2.498000000000000000e+03 3.540837478637695312e+01 -1.416903018951416016e+00 -8.978058695793151855e-01 -3.703608817886561155e-04 -2.694528698921203613e-01 4.746996760368347168e-01
2.499000000000000000e+03 4.112131500244140625e+01 -1.215296936035156250e+01 -1.131003260612487793e+00 -3.457929193973541260e-02 -3.496747910976409912e-01 -4.405654966831207275e-01
2.500000000000000000e+03 4.581226730346679688e+01 -1.110147094726562500e+01 -1.519775629043579102e+00 -1.674639061093330383e-02 -4.609566032886505127e-01 -4.178645312786102295e-01
2.501000000000000000e+03 4.514547729492187500e+01 -1.186947631835937500e+01 -1.342399239540100098e+00 -2.501426637172698975e-02 -4.102240502834320068e-01 -4.493286311626434326e-01
2.502000000000000000e+03 4.450672531127929688e+01 -1.276462936401367188e+01 -1.163777709007263184e+00 -2.899299003183841705e-02 -3.578311800956726074e-01 -4.810196161270141602e-01
2.503000000000000000e+03 4.278846359252929688e+01 -1.131643295288085938e+01 -1.332700848579406738e+00 -2.624903805553913116e-02 -4.076849520206451416e-01 -4.115632772445678711e-01
2.504000000000000000e+03 4.872567367553710938e+01 -1.111741447448730469e+01 -1.654768586158752441e+00 -7.005393505096435547e-03 -4.985322058200836182e-01 -4.242691695690155029e-01
2.505000000000000000e+03 3.971394348144531250e+01 -1.131797885894775391e+01 -1.170417785644531250e+00 -3.067904524505138397e-02 -3.603290319442749023e-01 -3.910428285598754883e-01
2.506000000000000000e+03 3.894453430175781250e+01 -1.204071044921875000e+01 -1.046452045440673828e+00 -3.814817965030670166e-02 -3.253800570964813232e-01 -4.190446734428405762e-01
2.507000000000000000e+03 5.176775360107421875e+01 -1.113642024993896484e+01 -1.755194187164306641e+00 4.304674919694662094e-03 -5.252668857574462891e-01 -4.078699946403503418e-01
2.508000000000000000e+03 3.757424926757812500e+01 -1.206815433502197266e+01 -9.819366335868835449e-01 -4.273843392729759216e-02 -3.074025213718414307e-01 -4.063729047775268555e-01
2.509000000000000000e+03 5.607621002197265625e+01 -1.169580268859863281e+01 -1.584710001945495605e+00 8.819528669118881226e-02 -4.489544034004211426e-01 -3.018485903739929199e-01
2.510000000000000000e+03 5.827629852294921875e+01 -1.162412643432617188e+01 -1.500347852706909180e+00 1.609991937875747681e-01 -4.018045961856842041e-01 -1.607579141855239868e-01
2.511000000000000000e+03 5.536734390258789062e+01 -1.168976497650146484e+01 -1.599651455879211426e+00 6.401001662015914917e-02 -4.606924355030059814e-01 -3.363121449947357178e-01
2.512000000000000000e+03 5.901845550537109375e+01 -1.161417865753173828e+01 -1.447029113769531250e+00 2.034602910280227661e-01 -3.730706572532653809e-01 -9.070150554180145264e-02
2.513000000000000000e+03 5.761404800415039062e+01 -1.096909236907958984e+01 -1.811948180198669434e+00 9.166499972343444824e-02 -5.160849690437316895e-01 -2.416352629661560059e-01
2.514000000000000000e+03 5.680704879760742188e+01 -1.166367626190185547e+01 -1.559361696243286133e+00 1.106621325016021729e-01 -4.346098899841308594e-01 -2.589617669582366943e-01
2.515000000000000000e+03 5.397209548950195312e+01 -1.167611122131347656e+01 -1.610615015029907227e+00 3.457153216004371643e-02 -4.728130400180816650e-01 -3.795882463455200195e-01
2.516000000000000000e+03 5.466828918457031250e+01 -1.165654754638671875e+01 -1.607742786407470703e+00 5.777767300605773926e-02 -4.649895429611206055e-01 -3.604926168918609619e-01
2.517000000000000000e+03 3.771179580688476562e+01 -2.033456325531005859e+00 -1.100434541702270508e+00 4.966813139617443085e-03 -3.286403119564056396e-01 4.382260739803314209e-01
2.518000000000000000e+03 5.976815032958984375e+01 -1.159595680236816406e+01 -1.385458230972290039e+00 2.509569227695465088e-01 -3.403503894805908203e-01 -8.806658908724784851e-03
2.519000000000000000e+03 3.826361846923828125e+01 -1.204696464538574219e+01 -1.008178830146789551e+00 -4.126912355422973633e-02 -3.148343563079833984e-01 -4.099396467208862305e-01
2.520000000000000000e+03 6.052050781250000000e+01 -1.156937313079833984e+01 -1.307574510574340820e+00 3.149266839027404785e-01 -2.977943718433380127e-01 9.261869639158248901e-02
2.521000000000000000e+03 5.838916015625000000e+01 -2.366365864872932434e-02 -1.186450839042663574e+00 2.740085721015930176e-01 -2.737326920032501221e-01 2.869123360142111778e-03
2.522000000000000000e+03 5.880682754516601562e+01 -1.247203469276428223e+00 -1.618893384933471680e+00 1.816490441560745239e-01 -4.311733245849609375e-01 6.612267345190048218e-02
2.523000000000000000e+03 3.533518981933593750e+01 -6.874602437019348145e-01 -8.531426191329956055e-01 -4.159508738666772842e-03 -2.571906447410583496e-01 5.204033851623535156e-01
2.524000000000000000e+03 3.534041213989257812e+01 -1.150293445587158203e+01 -9.337747097015380859e-01 -4.029154404997825623e-02 -2.922198772430419922e-01 -3.585036695003509521e-01
2.525000000000000000e+03 6.453118896484375000e+01 -2.287199497222900391e+00 -1.085330486297607422e+00 7.701023221015930176e-01 -9.456845372915267944e-02 -8.965453505516052246e-01
2.526000000000000000e+03 6.071434402465820312e+01 -1.666461229324340820e+00 -1.600344061851501465e+00 2.563124001026153564e-01 -4.032095074653625488e-01 -1.084496825933456421e-01
2.527000000000000000e+03 5.938160324096679688e+01 -4.401251673698425293e-01 -1.241950750350952148e+00 3.094281256198883057e-01 -2.797568142414093018e-01 -7.915534079074859619e-02
2.528000000000000000e+03 5.427590179443359375e+01 -1.153313636779785156e+00 -1.772537469863891602e+00 5.281199887394905090e-02 -5.159176588058471680e-01 3.384344577789306641e-01
2.529000000000000000e+03 5.580530166625976562e+01 -1.837577342987060547e+00 -2.007447004318237305e+00 5.022646859288215637e-02 -5.871661901473999023e-01 2.894181013107299805e-01
2.530000000000000000e+03 5.257955551147460938e+00 -5.364015579223632812e+00 -4.339036968303844333e-05 -6.595713784918189049e-05 -3.280425153207033873e-05 -2.468551683705300093e-04
2.531000000000000000e+03 5.805337524414062500e+01 -1.220828652381896973e+00 -1.675585865974426270e+00 1.483605355024337769e-01 -4.581675827503204346e-01 1.345070749521255493e-01
2.532000000000000000e+03 3.615727615356445312e+01 -1.378325700759887695e+00 -9.453604221343994141e-01 1.454621553421020508e-03 -2.831717431545257568e-01 4.804019033908843994e-01
2.533000000000000000e+03 5.205583953857421875e+01 -1.826293349266052246e+00 -1.960216403007507324e+00 1.284059043973684311e-02 -5.842127203941345215e-01 3.868670761585235596e-01
2.534000000000000000e+03 5.055539321899414062e+01 -1.105075240135192871e+00 -1.711519718170166016e+00 1.463770307600498199e-02 -5.090646147727966309e-01 4.318626821041107178e-01
2.535000000000000000e+03 5.577188873291015625e+01 -1.132800459861755371e+00 -1.740378618240356445e+00 7.914107292890548706e-02 -4.983712732791900635e-01 2.768190503120422363e-01
2.536000000000000000e+03 4.981017684936523438e+01 -1.816293716430664062e+00 -1.870479822158813477e+00 3.555931849405169487e-03 -5.600771903991699219e-01 4.155614972114562988e-01
2.537000000000000000e+03 3.999307250976562500e+01 -1.978400945663452148e+00 -1.264675140380859375e+00 4.463335033506155014e-03 -3.780635297298431396e-01 4.444927573204040527e-01
2.538000000000000000e+03 3.920806121826171875e+01 -1.283574581146240234e+00 -1.139031291007995605e+00 4.238648340106010437e-03 -3.404377996921539307e-01 4.926505386829376221e-01
2.539000000000000000e+03 4.074961853027343750e+01 -1.959492444992065430e+00 -1.318402767181396484e+00 4.347055684775114059e-03 -3.942167162895202637e-01 4.456993639469146729e-01
2.540000000000000000e+03 3.997151947021484375e+01 -1.268509984016418457e+00 -1.187241315841674805e+00 4.619623534381389618e-03 -3.547864854335784912e-01 4.937416911125183105e-01
2.541000000000000000e+03 5.730153656005859375e+01 -1.158231854438781738e+00 -1.698771715164184570e+00 1.131088733673095703e-01 -4.756988286972045898e-01 1.871972829103469849e-01
2.542000000000000000e+03 5.653420257568359375e+01 -1.131126165390014648e+00 -1.716184973716735840e+00 1.003589183092117310e-01 -4.847478270530700684e-01 2.351015061140060425e-01
2.543000000000000000e+03 4.830785751342773438e+01 -1.114084005355834961e+00 -1.633044958114624023e+00 8.475778624415397644e-03 -4.873707294464111328e-01 4.626534879207611084e-01
2.544000000000000000e+03 5.352465057373046875e+01 -1.152512311935424805e+00 -1.772863268852233887e+00 4.263529554009437561e-02 -5.190683603286743164e-01 3.638978898525238037e-01
2.545000000000000000e+03 6.209507369995117188e+01 -1.082542705535888672e+01 -1.425364613533020020e+00 3.512631058692932129e-01 -3.222304284572601318e-01 2.459211051464080811e-01
2.546000000000000000e+03 4.302824401855468750e+01 -1.899947881698608398e+00 -1.475082159042358398e+00 2.374006668105721474e-03 -4.418124556541442871e-01 4.463805258274078369e-01
2.547000000000000000e+03 4.605693435668945312e+01 -1.127881407737731934e+00 -1.529519557952880859e+00 3.437880193814635277e-03 -4.578244984149932861e-01 4.812702536582946777e-01
2.548000000000000000e+03 4.302437973022460938e+01 -1.187979221343994141e+00 -1.369669318199157715e+00 4.918338730931282043e-03 -4.094252884387969971e-01 4.929154515266418457e-01
2.549000000000000000e+03 6.113180541992187500e+01 -7.725068926811218262e-01 -1.132366776466369629e+00 4.580776095390319824e-01 -2.022867500782012939e-01 -3.105463087558746338e-01
2.550000000000000000e+03 6.155952453613281250e+01 -2.162022590637207031e+00 -1.746452808380126953e+00 2.552348673343658447e-01 -4.473653733730316162e-01 -1.534148156642913818e-01
2.551000000000000000e+03 3.691411209106445312e+01 -1.345973372459411621e+00 -9.933318495750427246e-01 2.862822031602263451e-03 -2.971407175064086914e-01 4.847587645053863525e-01
2.552000000000000000e+03 6.298044204711914062e+01 -2.068431377410888672e+00 -1.395010352134704590e+00 4.545504450798034668e-01 -2.821379601955413818e-01 -4.641989767551422119e-01
2.553000000000000000e+03 3.729375839233398438e+01 -1.267720890045166016e+01 -9.018101692199707031e-01 -4.872283339500427246e-02 -2.851598858833312988e-01 -4.315735399723052979e-01
2.554000000000000000e+03 6.202032470703125000e+01 -1.151162052154541016e+01 -1.108250379562377930e+00 4.862080216407775879e-01 -1.866127252578735352e-01 3.587504625320434570e-01
2.555000000000000000e+03 3.457417678833007812e+01 -1.229959964752197266e+01 -8.280783295631408691e-01 -4.858506843447685242e-02 -2.629989981651306152e-01 -3.865272104740142822e-01
2.556000000000000000e+03 3.305528640747070312e+01 -1.154417991638183594e+01 -8.193231821060180664e-01 -3.921540081501007080e-02 -2.575615644454956055e-01 -3.398641347885131836e-01
2.557000000000000000e+03 3.305984115600585938e+01 -1.228373718261718750e+01 -7.600590586662292480e-01 -4.619963094592094421e-02 -2.418776154518127441e-01 -3.730529844760894775e-01
2.558000000000000000e+03 5.130310058593750000e+01 -1.113565087318420410e+00 -1.731997847557067871e+00 1.930866204202175140e-02 -5.138067603111267090e-01 4.189542531967163086e-01
2.559000000000000000e+03 4.905769729614257812e+01 -1.108271837234497070e+00 -1.662167668342590332e+00 1.026666723191738129e-02 -4.955703020095825195e-01 4.540639221668243408e-01
2.560000000000000000e+03 4.149743270874023438e+01 -1.233589649200439453e+00 -1.280964493751525879e+00 5.216831341385841370e-03 -3.827243149280548096e-01 4.944584667682647705e-01
2.561000000000000000e+03 4.755647277832031250e+01 -1.117253899574279785e+00 -1.601339101791381836e+00 6.722569465637207031e-03 -4.783849418163299561e-01 4.702581167221069336e-01
2.562000000000000000e+03 4.530496597290039062e+01 -1.137337446212768555e+00 -1.492748141288757324e+00 3.299763193354010582e-03 -4.468345046043395996e-01 4.855153262615203857e-01
2.563000000000000000e+03 4.454808044433593750e+01 -1.148281455039978027e+00 -1.451958894729614258e+00 3.476220183074474335e-03 -4.345448017120361328e-01 4.888717830181121826e-01
2.564000000000000000e+03 3.689747619628906250e+01 -1.210778427124023438e+01 -9.383319020271301270e-01 -4.386851191520690918e-02 -2.946601212024688721e-01 -4.003715813159942627e-01
2.565000000000000000e+03 6.428200531005859375e+01 -1.138577365875244141e+01 -6.819273829460144043e-01 1.005681872367858887e+00 9.712634980678558350e-02 9.883730411529541016e-01
2.566000000000000000e+03 6.127210998535156250e+01 -1.153990745544433594e+01 -1.220287203788757324e+00 3.881986737251281738e-01 -2.496265769004821777e-01 2.112136781215667725e-01
2.567000000000000000e+03 5.421988010406494141e+00 -6.245817661285400391e+00 2.766991383396089077e-04 5.988380144117400050e-05 1.009748884825967252e-04 2.653272822499275208e-04
2.568000000000000000e+03 2.981966590881347656e+01 -1.270659923553466797e+01 -6.026920676231384277e-01 -4.126464948058128357e-02 -1.931870132684707642e-01 -3.636213243007659912e-01
2.569000000000000000e+03 3.381122970581054688e+01 -1.228490829467773438e+01 -7.947772145271301270e-01 -4.657705128192901611e-02 -2.524062693119049072e-01 -3.805784583091735840e-01
2.570000000000000000e+03 1.059712505340576172e+01 5.716341972351074219e+00 1.629301987122744322e-04 -9.012083173729479313e-04 -2.214834385085850954e-04 -1.008859835565090179e-03
2.571000000000000000e+03 3.152317237854003906e+01 -1.237524890899658203e+01 -6.941865086555480957e-01 -4.351512342691421509e-02 -2.213104814291000366e-01 -3.647060394287109375e-01
2.572000000000000000e+03 2.679880332946777344e+01 -1.156048488616943359e+01 -5.294465422630310059e-01 -1.923008263111114502e-02 -1.646029949188232422e-01 -2.924001812934875488e-01
2.573000000000000000e+03 2.678952217102050781e+01 -1.220721340179443359e+01 -5.128257870674133301e-01 -2.409007027745246887e-02 -1.610747575759887695e-01 -3.159406185150146484e-01
2.574000000000000000e+03 2.889103317260742188e+01 -1.272837543487548828e+01 -5.624176859855651855e-01 -3.734563663601875305e-02 -1.799290031194686890e-01 -3.538868129253387451e-01
2.575000000000000000e+03 2.740004348754882812e+01 -1.226571464538574219e+01 -5.310688018798828125e-01 -2.731170877814292908e-02 -1.675141453742980957e-01 -3.238112926483154297e-01
2.576000000000000000e+03 2.805801963806152344e+01 -1.257009983062744141e+01 -5.444393754005432129e-01 -3.287937864661216736e-02 -1.731956154108047485e-01 -3.409412801265716553e-01
2.577000000000000000e+03 6.496885681152343750e+01 -1.121063232421875000e+01 -5.732554197311401367e-01 1.233191370964050293e+00 1.979808062314987183e-01 1.233346700668334961e+00
2.578000000000000000e+03 6.494697570800781250e+01 -1.060781955718994141e+01 -8.290081024169921875e-01 9.563861489295959473e-01 3.821342810988426208e-02 1.048927307128906250e+00
2.579000000000000000e+03 2.216437911987304688e+01 -1.097430133819580078e+01 -3.584289848804473877e-01 -4.747157450765371323e-03 -1.089528426527976990e-01 -2.330142110586166382e-01
2.580000000000000000e+03 2.084494400024414062e+01 -1.609553527832031250e+01 -3.055523931980133057e-01 -8.325669169425964355e-02 -1.166427209973335266e-01 -3.144269287586212158e-01
2.581000000000000000e+03 6.207087707519531250e+01 -1.411881446838378906e+00 -1.251016974449157715e+00 4.521604478359222412e-01 -2.396569848060607910e-01 -3.909843564033508301e-01
2.582000000000000000e+03 2.005600738525390625e+01 -1.215169811248779297e+01 -3.113494813442230225e-01 -4.205074161291122437e-02 -1.060200631618499756e-01 -2.449762523174285889e-01
2.583000000000000000e+03 2.092776870727539062e+01 -1.204897594451904297e+01 -3.345471322536468506e-01 -2.772566489875316620e-02 -1.086818426847457886e-01 -2.553062140941619873e-01
2.584000000000000000e+03 6.480619812011718750e+01 -1.567451953887939453e+00 -6.966760158538818359e-01 1.165588378906250000e+00 1.406736969947814941e-01 -1.211791872978210449e+00
2.585000000000000000e+03 6.426167297363281250e+01 -1.723286271095275879e+00 -8.889172077178955078e-01 8.950810432434082031e-01 1.849159365519881248e-03 -9.528607726097106934e-01
2.586000000000000000e+03 2.390631866455078125e+01 -1.336780452728271484e+01 -4.024132192134857178e-01 -2.671235799789428711e-02 -1.287376731634140015e-01 -3.224809765815734863e-01
2.587000000000000000e+03 2.517683792114257812e+01 -1.256003093719482422e+01 -4.510324597358703613e-01 -1.926060393452644348e-02 -1.410879194736480713e-01 -3.135037720203399658e-01
2.588000000000000000e+03 2.012902641296386719e+01 -1.326257801055908203e+01 -3.256725668907165527e-01 -5.414308235049247742e-02 -1.139446943998336792e-01 -2.716089487075805664e-01
2.589000000000000000e+03 6.556876373291015625e+01 -1.109585571289062500e+01 -4.734823107719421387e-01 1.490840673446655273e+00 3.052075207233428955e-01 1.487436175346374512e+00
2.590000000000000000e+03 2.333505058288574219e+01 -1.274197101593017578e+01 -3.947403430938720703e-01 -1.829754188656806946e-02 -1.239113658666610718e-01 -2.965967655181884766e-01
2.591000000000000000e+03 2.170589447021484375e+01 -1.181275463104248047e+01 -3.541904985904693604e-01 -1.603519357740879059e-02 -1.110677123069763184e-01 -2.577155530452728271e-01
2.592000000000000000e+03 1.099007701873779297e+01 6.756946086883544922e+00 9.421362483408302069e-05 -1.208921545185148716e-03 -3.344123833812773228e-04 -7.687350735068321228e-04
2.593000000000000000e+03 7.418219089508056641e+00 9.815531730651855469e+00 -2.560883585829287767e-04 2.145930193364620209e-03 5.669525125995278358e-04 2.368317655054852366e-04
2.594000000000000000e+03 8.042193412780761719e+00 6.723995685577392578e+00 6.313719204626977444e-04 -7.375950808636844158e-04 -3.186694084433838725e-05 -3.288205480203032494e-04
2.595000000000000000e+03 6.703839302062988281e+00 1.079486179351806641e+01 1.934737199917435646e-03 -3.890900406986474991e-04 4.636941594071686268e-04 3.173028584569692612e-03
2.596000000000000000e+03 2.200597763061523438e+01 -2.548631131649017334e-01 -1.057224869728088379e-01 -2.177946716547012329e-01 -9.705515205860137939e-02 2.316692769527435303e-01
2.597000000000000000e+03 7.248552703857421875e+01 -8.769477844238281250e+00 -5.190393328666687012e-01 1.640323257446289062e+01 4.765257835388183594e+00 -3.173740804195404053e-01
2.598000000000000000e+03 7.583444213867187500e+01 5.733516812324523926e-02 -8.647748231887817383e-01 9.707445144653320312e+00 2.652801275253295898e+00 1.012171387672424316e+00
2.599000000000000000e+03 7.572811126708984375e+01 -1.255066776275634766e+01 -8.854403495788574219e-01 9.917780876159667969e+00 2.709702014923095703e+00 -1.103088140487670898e+00
2.600000000000000000e+03 2.206931495666503906e+01 1.837742042541503906e+01 -2.820725739002227783e-01 -6.578454971313476562e-01 -2.819754183292388916e-01 4.038984775543212891e-01
2.601000000000000000e+03 2.316444396972656250e+01 -1.545505809783935547e+01 -3.413130640983581543e-01 -5.800637602806091309e-02 -1.197958290576934814e-01 -3.453415632247924805e-01
2.602000000000000000e+03 6.301497936248779297e+00 2.109358024597167969e+01 -2.185896784067153931e-01 -1.097085848450660706e-01 -9.848947823047637939e-02 1.816151142120361328e-01
2.603000000000000000e+03 4.799274444580078125e+00 7.073510169982910156e+00 8.155166869983077049e-04 -4.991497844457626343e-04 9.491007949691265821e-05 -5.311104541760869324e-05
2.604000000000000000e+03 2.429457664489746094e+01 3.496659517288208008e+00 -2.778826653957366943e-01 -3.261082470417022705e-01 -1.811972856521606445e-01 5.260707736015319824e-01
2.605000000000000000e+03 9.624901771545410156e+00 7.160490989685058594e+00 6.769859464839100838e-04 -1.426641829311847687e-03 -2.248967648483812809e-04 -1.828810345614328980e-04
2.606000000000000000e+03 7.061978912353515625e+01 -2.692117881774902344e+01 1.900685727596282959e-01 5.794875621795654297e+00 1.795483231544494629e+00 8.177769184112548828e-01
2.607000000000000000e+03 7.033435821533203125e+01 -3.173525810241699219e+01 2.964833378791809082e-01 5.619479656219482422e+00 1.774788975715637207e+00 5.722752809524536133e-01
2.608000000000000000e+03 7.511432647705078125e+01 3.082051753997802734e+00 -8.171538710594177246e-01 8.968923568725585938e+00 2.445530891418457031e+00 8.853876031935214996e-03
2.609000000000000000e+03 7.217708587646484375e+01 -1.730202674865722656e+01 -7.448814511299133301e-01 7.634494781494140625e+00 2.066884040832519531e+00 1.023499608039855957e+00
2.610000000000000000e+03 7.374012756347656250e+01 -1.701318550109863281e+01 -7.815264463424682617e-01 8.337562561035156250e+00 2.266810894012451172e+00 5.597130656242370605e-01
2.611000000000000000e+03 7.153129577636718750e+01 -3.285654449462890625e+01 2.497500032186508179e-01 5.933728218078613281e+00 1.855043411254882812e+00 5.069171190261840820e-01
2.612000000000000000e+03 7.352378082275390625e+01 -3.443628692626953125e+01 1.607520878314971924e-01 6.437829017639160156e+00 1.979574322700500488e+00 3.809239566326141357e-01
2.613000000000000000e+03 7.376802062988281250e+01 -2.278365516662597656e+01 -8.915200829505920410e-02 7.291368484497070312e+00 2.160664796829223633e+00 6.965950131416320801e-01
2.614000000000000000e+03 7.379654693603515625e+01 -1.557486248016357422e+01 -1.031966328620910645e+00 8.880640029907226562e+00 2.354602098464965820e+00 3.828922808170318604e-01
2.615000000000000000e+03 1.127248954772949219e+01 2.858573722839355469e+01 1.173341497778892517e-01 -6.741141080856323242e-01 -1.670339852571487427e-01 3.796368837356567383e-01
2.616000000000000000e+03 1.039914798736572266e+01 3.253683853149414062e+01 1.773732453584671021e-01 -6.593429446220397949e-01 -1.445909142494201660e-01 2.841132283210754395e-01
2.617000000000000000e+03 7.125659179687500000e+01 9.697126388549804688e+00 -1.174269169569015503e-01 6.266495704650878906e+00 1.844720602035522461e+00 -1.087920546531677246e+00
2.618000000000000000e+03 7.303198242187500000e+01 8.157430648803710938e+00 -2.750929892063140869e-01 7.143037796020507812e+00 2.060383558273315430e+00 -8.902609348297119141e-01
2.619000000000000000e+03 7.105075073242187500e+01 1.831604385375976562e+01 1.860918253660202026e-01 5.679738044738769531e+00 1.759749054908752441e+00 -8.061397075653076172e-01
2.620000000000000000e+03 7.254116821289062500e+01 1.677368927001953125e+01 1.233286112546920776e-01 6.192894458770751953e+00 1.894866943359375000e+00 -7.824459075927734375e-01
2.621000000000000000e+03 7.408838653564453125e+01 3.311282396316528320e+00 -9.444587826728820801e-01 8.725789070129394531e+00 2.334399223327636719e+00 -3.914898931980133057e-01
2.622000000000000000e+03 7.383641815185546875e+01 -1.793497276306152344e+01 -6.226400732994079590e-01 8.116433143615722656e+00 2.248137950897216797e+00 5.780888199806213379e-01
2.623000000000000000e+03 7.191071319580078125e+01 2.760013580322265625e+01 1.566609442234039307e-01 5.569275856018066406e+00 1.717781066894531250e+00 -4.548701941967010498e-01
2.624000000000000000e+03 7.398194885253906250e+01 1.954441642761230469e+01 9.997966140508651733e-02 6.413136005401611328e+00 1.953934669494628906e+00 -6.101288199424743652e-01
2.625000000000000000e+03 7.349481964111328125e+01 6.836529731750488281e+00 -4.223429262638092041e-01 7.575305461883544922e+00 2.145888805389404297e+00 -7.852203845977783203e-01
2.626000000000000000e+03 7.263982391357421875e+01 -2.694111633300781250e+01 1.089512854814529419e-01 6.542722702026367188e+00 1.995502114295959473e+00 7.273601293563842773e-01
2.627000000000000000e+03 8.504939079284667969e+00 3.471160507202148438e+01 1.445968449115753174e-01 -6.529649496078491211e-01 -1.525104343891143799e-01 2.114402800798416138e-01
2.628000000000000000e+03 7.411156463623046875e+01 1.255405616760253906e+01 -5.662064068019390106e-04 7.014031887054443359e+00 2.104039669036865234e+00 -7.567452788352966309e-01
2.629000000000000000e+03 7.379437255859375000e+01 -2.021906089782714844e+01 -3.165274858474731445e-01 7.630645275115966797e+00 2.194235324859619141e+00 6.680536866188049316e-01
2.630000000000000000e+03 7.373330688476562500e+01 -2.148368453979492188e+01 -1.903426647186279297e-01 7.423424243927001953e+00 2.169924497604370117e+00 6.904670000076293945e-01
2.631000000000000000e+03 1.014000415802001953e+01 2.048921585083007812e+01 -4.283493459224700928e-01 -4.583111405372619629e-01 -2.659981548786163330e-01 5.323051214218139648e-01
2.632000000000000000e+03 7.491065216064453125e+01 5.706968307495117188e+00 -4.692432880401611328e-01 8.259020805358886719e+00 2.336933374404907227e+00 -4.210548400878906250e-01
2.633000000000000000e+03 7.383539581298828125e+01 5.597456932067871094e+00 -5.662816166877746582e-01 7.967550754547119141e+00 2.220380783081054688e+00 -6.503266692161560059e-01
2.634000000000000000e+03 7.688751697540283203e+00 -2.565331268310546875e+01 -1.139968913048505783e-02 -2.402445971965789795e-01 -7.549328356981277466e-02 -1.949376463890075684e-01
2.635000000000000000e+03 8.332309722900390625e+00 -2.346301841735839844e+01 -4.823461547493934631e-02 -2.280547320842742920e-01 -8.288680016994476318e-02 -2.132732868194580078e-01
2.636000000000000000e+03 6.248750686645507812e+00 -6.418440818786621094e+00 -1.020252529997378588e-04 2.984304155688732862e-04 5.892154877074062824e-05 -5.270720066619105637e-06
2.637000000000000000e+03 4.751936435699462891e+00 -7.432932853698730469e+00 3.199620405212044716e-04 1.255114766536280513e-04 1.336420536972582340e-04 2.518692053854465485e-04
2.638000000000000000e+03 9.007001876831054688e+00 2.856924819946289062e+01 7.591640204191207886e-02 -5.928149223327636719e-01 -1.550695598125457764e-01 3.630506098270416260e-01
2.639000000000000000e+03 6.578530788421630859e+00 8.443586349487304688e+00 5.381426890380680561e-04 9.478011634200811386e-04 4.457831382751464844e-04 8.955993689596652985e-04
2.640000000000000000e+03 5.821364879608154297e+00 7.373951911926269531e+00 2.230393001809716225e-04 7.010958506725728512e-04 2.772405277937650681e-04 2.476933877915143967e-04
2.641000000000000000e+03 2.592409706115722656e+01 7.321464061737060547e+00 -3.992666006088256836e-01 -3.315017223358154297e-01 -2.192304879426956177e-01 6.712344288825988770e-01
2.642000000000000000e+03 2.307664489746093750e+01 8.302355766296386719e+00 -3.921088874340057373e-01 -5.497703552246093750e-01 -2.825637757778167725e-01 6.345618367195129395e-01
2.643000000000000000e+03 1.259912872314453125e+01 -2.125725364685058594e+01 -1.040465459227561951e-01 -2.912333607673645020e-01 -1.185839772224426270e-01 -2.252260446548461914e-01
2.644000000000000000e+03 8.905628204345703125e+00 -2.139285850524902344e+01 -9.492105245590209961e-02 -2.299184054136276245e-01 -9.745183587074279785e-02 -2.288288623094558716e-01
2.645000000000000000e+03 2.254431152343750000e+01 -1.328367710113525391e+01 -3.721731901168823242e-01 -2.725048363208770752e-02 -1.198271065950393677e-01 -3.009073734283447266e-01
2.646000000000000000e+03 1.080281543731689453e+01 -2.433160781860351562e+01 -2.232164517045021057e-02 -2.809892296791076660e-01 -9.099326282739639282e-02 -2.265973240137100220e-01
2.647000000000000000e+03 7.307640838623046875e+01 3.465070724487304688e+01 1.054528057575225830e-01 5.543424129486083984e+00 1.694663166999816895e+00 -2.186560630798339844e-01
2.648000000000000000e+03 6.705101013183593750e+01 2.991023445129394531e+01 3.176737725734710693e-01 4.541451930999755859e+00 1.457737803459167480e+00 -4.378282725811004639e-01
2.649000000000000000e+03 9.147553443908691406e+00 2.369478988647460938e+01 -1.157332211732864380e-01 -4.897621572017669678e-01 -1.816486120223999023e-01 4.431682825088500977e-01
2.650000000000000000e+03 1.222408294677734375e+01 2.318628501892089844e+01 -9.940723329782485962e-02 -7.625600695610046387e-01 -2.585901916027069092e-01 5.054869651794433594e-01
2.651000000000000000e+03 2.315003776550292969e+01 1.530101871490478516e+01 -4.039914309978485107e-01 -5.709439516067504883e-01 -2.924806177616119385e-01 5.111868381500244141e-01
2.652000000000000000e+03 2.156220436096191406e+01 -1.528821945190429688e+01 -3.296865522861480713e-01 -6.395479291677474976e-02 -1.180924028158187866e-01 -3.181146681308746338e-01
2.653000000000000000e+03 2.533971214294433594e+01 4.862287998199462891e+00 -3.435656428337097168e-01 -3.157936930656433105e-01 -1.978077888488769531e-01 6.087459325790405273e-01
2.654000000000000000e+03 8.784077644348144531e+00 -3.005853462219238281e+01 4.651108384132385254e-02 -3.019302487373352051e-01 -7.662575691938400269e-02 -1.779185086488723755e-01
2.655000000000000000e+03 6.535100936889648438e+00 -2.962079811096191406e+01 2.753470465540885925e-02 -2.840973734855651855e-01 -7.696880400180816650e-02 -1.570713520050048828e-01
2.656000000000000000e+03 1.604553794860839844e+01 -2.152285194396972656e+01 -1.133325248956680298e-01 -2.466604411602020264e-01 -1.079978942871093750e-01 -2.526159584522247314e-01
2.657000000000000000e+03 2.483077621459960938e+01 6.819291591644287109e+00 -3.740885555744171143e-01 -3.870533108711242676e-01 -2.283425629138946533e-01 6.452660560607910156e-01
2.658000000000000000e+03 2.261681556701660156e+01 1.222525119781494141e+01 -4.939115643501281738e-01 -6.251412034034729004e-01 -3.357158303260803223e-01 6.090167760848999023e-01
2.659000000000000000e+03 6.670463085174560547e+00 2.233698081970214844e+01 -1.802639067173004150e-01 -2.347453236579895020e-01 -1.245027706027030945e-01 2.974355816841125488e-01
2.660000000000000000e+03 7.266289520263671875e+01 2.099777603149414062e+01 1.393727511167526245e-01 5.978864192962646484e+00 1.835471153259277344e+00 -6.450667977333068848e-01
2.661000000000000000e+03 7.569410800933837891e+00 -2.876705169677734375e+01 2.841708995401859283e-02 -2.797422707080841064e-01 -7.539755105972290039e-02 -1.762355268001556396e-01
2.662000000000000000e+03 7.173390960693359375e+01 2.937282180786132812e+01 1.684239953756332397e-01 5.473693370819091797e+00 1.692635297775268555e+00 -3.934810757637023926e-01
2.663000000000000000e+03 6.912686920166015625e+01 -3.795871973037719727e+00 4.039206206798553467e-01 4.455212593078613281e+00 1.457739949226379395e+00 -4.112088680267333984e+00
2.664000000000000000e+03 6.957017517089843750e+01 -3.776248931884765625e+00 3.933406770229339600e-01 6.141741275787353516e+00 1.960524559020996094e+00 -4.802532196044921875e+00
2.665000000000000000e+03 7.094795989990234375e+01 -3.965129375457763672e+00 -9.676042199134826660e-01 1.359649372100830078e+01 3.788666963577270508e+00 -4.643661499023437500e+00
2.666000000000000000e+03 7.140190887451171875e+01 -9.058930397033691406e+00 -1.396841406822204590e+00 1.462917423248291016e+01 3.969699859619140625e+00 3.181353330612182617e+00
2.667000000000000000e+03 7.053848266601562500e+01 -3.380729913711547852e+00 -8.458688259124755859e-01 1.059470939636230469e+01 2.924652338027954102e+00 -4.608558177947998047e+00
2.668000000000000000e+03 7.410073852539062500e+01 -9.037189483642578125e+00 4.832112789154052734e-01 1.297000217437744141e+01 4.035964012145996094e+00 -1.881211400032043457e+00
2.669000000000000000e+03 7.167679595947265625e+01 -8.813887596130371094e+00 -1.308266043663024902e+00 1.627556228637695312e+01 4.490188598632812500e+00 2.295688629150390625e+00
2.670000000000000000e+03 6.698835754394531250e+01 -1.011572647094726562e+01 -3.145723938941955566e-01 1.909752011299133301e+00 4.785538911819458008e-01 2.078950166702270508e+00
2.671000000000000000e+03 7.455994415283203125e+01 -1.116419792175292969e+01 -1.061916708946228027e+00 1.119775581359863281e+01 3.040751695632934570e+00 -1.074216842651367188e+00
2.672000000000000000e+03 7.189784240722656250e+01 -9.569068908691406250e+00 -1.659541368484497070e+00 1.442157649993896484e+01 3.828610658645629883e+00 1.790157318115234375e+00
2.673000000000000000e+03 7.272029113769531250e+01 -4.232949256896972656e+00 1.298317909240722656e-01 1.640588569641113281e+01 4.960715293884277344e+00 1.111147880554199219e+00
2.674000000000000000e+03 7.329235076904296875e+01 -4.093488693237304688e+00 6.068974137306213379e-01 1.483559131622314453e+01 4.632746696472167969e+00 1.748049736022949219e+00
2.675000000000000000e+03 7.159387207031250000e+01 -4.162628173828125000e+00 -1.229686975479125977e+00 1.664158248901367188e+01 4.623568534851074219e+00 -2.586580038070678711e+00
2.676000000000000000e+03 7.347328186035156250e+01 -9.440447807312011719e+00 -4.115583896636962891e-01 1.385624122619628906e+01 4.033404827117919922e+00 -1.283521413803100586e+00
2.677000000000000000e+03 7.347890472412109375e+01 -7.902844429016113281e+00 2.892786026000976562e+00 1.455817604064941406e+01 5.235288619995117188e+00 -2.276190519332885742e+00
2.678000000000000000e+03 7.307234954833984375e+01 -8.898154258728027344e+00 -6.093490496277809143e-02 1.508650112152099609e+01 4.507669925689697266e+00 -1.302350759506225586e+00
2.679000000000000000e+03 7.354486846923828125e+01 -7.045277595520019531e+00 5.582559585571289062e+00 1.370054244995117188e+01 5.784930706024169922e+00 -1.555310130119323730e+00
2.680000000000000000e+03 7.418906402587890625e+01 -4.431018829345703125e+00 1.878830313682556152e+00 1.282974624633789062e+01 4.412572860717773438e+00 2.148924827575683594e+00
2.681000000000000000e+03 7.398228454589843750e+01 -6.036543846130371094e+00 5.309639930725097656e+00 1.259660148620605469e+01 5.371872425079345703e+00 7.038440704345703125e-01
2.682000000000000000e+03 7.366181945800781250e+01 -6.291271209716796875e+00 6.194782257080078125e+00 1.321368503570556641e+01 5.822540283203125000e+00 2.429068535566329956e-01
2.683000000000000000e+03 7.373825073242187500e+01 -4.821117877960205078e+00 2.731688737869262695e+00 1.383322715759277344e+01 4.969474792480468750e+00 2.228719949722290039e+00
2.684000000000000000e+03 7.277854156494140625e+01 -3.776043891906738281e+00 -5.569777488708496094e-01 1.539161205291748047e+01 4.450390338897705078e+00 7.071016430854797363e-01
2.685000000000000000e+03 7.313597106933593750e+01 -4.719239234924316406e+00 2.142868280410766602e+00 1.551802158355712891e+01 5.298266887664794922e+00 2.178957939147949219e+00
2.686000000000000000e+03 7.385024261474609375e+01 -5.694476127624511719e+00 4.930623531341552734e+00 1.301599025726318359e+01 5.383984088897705078e+00 1.404989242553710938e+00
2.687000000000000000e+03 7.617037200927734375e+01 -4.797682285308837891e+00 1.479853868484497070e+00 9.395434379577636719e+00 3.262586593627929688e+00 1.442259430885314941e+00
2.688000000000000000e+03 7.424163818359375000e+01 -6.887527942657470703e+00 4.727691173553466797e+00 1.210647296905517578e+01 5.050249576568603516e+00 -9.856858849525451660e-01
2.689000000000000000e+03 7.438045501708984375e+01 -5.890487670898437500e+00 4.332938194274902344e+00 1.185410499572753906e+01 4.856112957000732422e+00 8.836850523948669434e-01
2.690000000000000000e+03 7.490534210205078125e+01 -5.368100643157958984e+00 2.905399084091186523e+00 1.106262683868408203e+01 4.190407752990722656e+00 1.338138222694396973e+00
2.691000000000000000e+03 7.384260559082031250e+01 -5.257332801818847656e+00 3.895175695419311523e+00 1.331858158111572266e+01 5.164127349853515625e+00 2.002531528472900391e+00
2.692000000000000000e+03 6.959760284423828125e+01 -9.836673736572265625e+00 -1.923682689666748047e-01 6.721005916595458984e+00 1.958591341972351074e+00 4.299476146697998047e+00
2.693000000000000000e+03 6.933253479003906250e+01 -9.430097579956054688e+00 1.438130885362625122e-01 5.692536354064941406e+00 1.750904798507690430e+00 4.354306697845458984e+00
2.694000000000000000e+03 6.934220886230468750e+01 -3.509914159774780273e+00 2.179285734891891479e-01 5.563247680664062500e+00 1.734352946281433105e+00 -4.425745964050292969e+00
2.695000000000000000e+03 6.808292388916015625e+01 -3.649749517440795898e+00 -1.001402288675308228e-01 2.169226884841918945e+00 6.207259893417358398e-01 -2.667942762374877930e+00
2.696000000000000000e+03 6.776406860351562500e+01 -2.971246242523193359e+00 -9.871026128530502319e-02 2.549930810928344727e+00 7.353661656379699707e-01 -2.695130109786987305e+00
2.697000000000000000e+03 7.549188995361328125e+01 -7.918087005615234375e+00 2.085366487503051758e+00 1.039308929443359375e+01 3.743536710739135742e+00 -1.583688378334045410e+00
2.698000000000000000e+03 7.580741882324218750e+01 -7.366650104522705078e+00 2.303442716598510742e+00 9.742727279663085938e+00 3.613851070404052734e+00 -1.001457333564758301e+00
2.699000000000000000e+03 6.596379089355468750e+01 -1.771823287010192871e+00 -4.635438024997711182e-01 1.668405652046203613e+00 3.614585697650909424e-01 -1.720401883125305176e+00
2.700000000000000000e+03 6.621813201904296875e+01 -2.259198665618896484e+00 -5.264500975608825684e-01 1.544513821601867676e+00 3.054191470146179199e-01 -1.725227475166320801e+00
2.701000000000000000e+03 6.651985931396484375e+01 -1.049768543243408203e+01 -3.748752176761627197e-01 1.766233205795288086e+00 4.174074232578277588e-01 1.854310512542724609e+00
2.702000000000000000e+03 2.510381698608398438e+01 1.902365088462829590e-01 -2.776684761047363281e-01 -1.739756464958190918e-01 -1.354932337999343872e-01 3.953585326671600342e-01
2.703000000000000000e+03 6.692028045654296875e+01 -1.055139541625976562e+01 -2.736585140228271484e-01 2.179931640625000000e+00 5.718819499015808105e-01 2.167632818222045898e+00
2.704000000000000000e+03 2.536259460449218750e+01 -7.876781821250915527e-01 -2.831346094608306885e-01 -1.367166936397552490e-01 -1.259553879499435425e-01 3.543474972248077393e-01
2.705000000000000000e+03 2.597325706481933594e+01 -1.128989934921264648e+00 -3.156906962394714355e-01 -1.129490211606025696e-01 -1.285919100046157837e-01 3.552593290805816650e-01
2.706000000000000000e+03 2.567770195007324219e+01 -1.622835636138916016e+00 -2.913744151592254639e-01 -1.036874875426292419e-01 -1.185185760259628296e-01 3.150334954261779785e-01
2.707000000000000000e+03 9.052473068237304688e+00 5.875234127044677734e+00 3.345088625792413950e-04 -7.657916867174208164e-04 -1.293848326895385981e-04 -7.324975449591875076e-04
2.708000000000000000e+03 2.736976623535156250e+01 -1.569781064987182617e+00 -3.903472423553466797e-01 -7.810560613870620728e-02 -1.405358463525772095e-01 3.672745227813720703e-01
2.709000000000000000e+03 2.648587036132812500e+01 -1.439911365509033203e+00 -3.407289385795593262e-01 -9.425826370716094971e-02 -1.304961591958999634e-01 3.488153219223022461e-01
2.710000000000000000e+03 7.496973419189453125e+01 -1.251205539703369141e+01 -1.146211385726928711e+00 1.031884765625000000e+01 2.751791000366210938e+00 -8.081533312797546387e-01
2.711000000000000000e+03 7.500894927978515625e+01 -1.174422264099121094e+01 -1.039233088493347168e+00 1.067556285858154297e+01 2.890898942947387695e+00 -1.100575804710388184e+00
2.712000000000000000e+03 7.459277343750000000e+01 -1.417073631286621094e+01 -1.172499537467956543e+00 9.603712081909179688e+00 2.529363632202148438e+00 -1.804205477237701416e-01
2.713000000000000000e+03 7.562959289550781250e+01 -1.353248405456542969e+01 -9.412748217582702637e-01 9.650640487670898438e+00 2.612809658050537109e+00 -7.538646459579467773e-01
2.714000000000000000e+03 7.440509033203125000e+01 1.325179696083068848e+00 -1.219964027404785156e+00 9.588232994079589844e+00 2.510480642318725586e+00 9.770961850881576538e-02
2.715000000000000000e+03 7.480832672119140625e+01 7.217036485671997070e-01 -1.227929949760437012e+00 9.889096260070800781e+00 2.598349809646606445e+00 4.108009040355682373e-01
2.716000000000000000e+03 2.872002983093261719e+01 6.379915475845336914e-01 -4.602231383323669434e-01 -1.010564863681793213e-01 -1.683838814496994019e-01 5.158193111419677734e-01
2.717000000000000000e+03 7.220233917236328125e+01 -4.230271816253662109e+00 -6.374295949935913086e-01 1.726450729370117188e+01 4.988122940063476562e+00 -1.432866603136062622e-01
2.718000000000000000e+03 6.202915191650390625e+00 6.521941184997558594e+00 5.629538791254162788e-04 -4.885387606918811798e-04 2.232453152828384191e-05 -6.789281178498640656e-05
2.719000000000000000e+03 2.821176719665527344e+01 -1.358915925025939941e+00 -4.408124089241027832e-01 -6.804232299327850342e-02 -1.526564210653305054e-01 3.967317342758178711e-01
2.720000000000000000e+03 6.403752136230468750e+01 -1.109849691390991211e+00 -7.297410964965820312e-01 1.026984691619873047e+00 8.917307853698730469e-02 -1.020517230033874512e+00
2.721000000000000000e+03 3.182985496520996094e+01 -1.611776351928710938e+00 -6.695805788040161133e-01 -1.987260207533836365e-02 -2.068359553813934326e-01 4.371807277202606201e-01
2.722000000000000000e+03 3.036892318725585938e+01 -8.202918767929077148e-01 -5.595282912254333496e-01 -4.937222227454185486e-02 -1.826701611280441284e-01 4.674286246299743652e-01
2.723000000000000000e+03 3.118553352355957031e+01 4.433346092700958252e-01 -5.841618180274963379e-01 -5.407974123954772949e-02 -1.914724707603454590e-01 5.467656254768371582e-01
2.724000000000000000e+03 3.110594367980957031e+01 -1.585691452026367188e+00 -6.188482046127319336e-01 -2.854216843843460083e-02 -1.942171156406402588e-01 4.306771755218505859e-01
2.725000000000000000e+03 3.323365402221679688e+01 -1.559608578681945801e+00 -7.606616020202636719e-01 -9.506797417998313904e-03 -2.310505211353302002e-01 4.523631036281585693e-01
2.726000000000000000e+03 3.182791709899902344e+01 -1.002101778984069824e+00 -6.559185385704040527e-01 -2.616258896887302399e-02 -2.046243399381637573e-01 4.751096069812774658e-01
2.727000000000000000e+03 4.529882812500000000e+01 -1.259099102020263672e+01 -1.222765207290649414e+00 -2.715603075921535492e-02 -3.749763667583465576e-01 -4.741013050079345703e-01
2.728000000000000000e+03 4.360874557495117188e+01 -1.202541255950927734e+01 -1.257559776306152344e+00 -3.025633655488491058e-02 -3.863448202610015869e-01 -4.508812427520751953e-01
2.729000000000000000e+03 6.997280597686767578e+00 -7.001208305358886719e+00 2.161381853511556983e-04 -2.193385735154151917e-04 -9.601154715710435994e-07 -1.495411124778911471e-04
2.730000000000000000e+03 4.651788330078125000e+01 -1.171068382263183594e+01 -1.431247591972351074e+00 -1.595340296626091003e-02 -4.341602921485900879e-01 -4.465413093566894531e-01
2.731000000000000000e+03 5.023174667358398438e+01 -1.270918941497802734e+01 -1.299878954887390137e+00 1.063374336808919907e-02 -3.867735564708709717e-01 -4.570482075214385986e-01
2.732000000000000000e+03 4.475806045532226562e+01 -1.360641956329345703e+01 -1.018620014190673828e+00 -2.895023301243782043e-02 -3.142710924148559570e-01 -5.063508152961730957e-01
2.733000000000000000e+03 4.649790573120117188e+01 -1.232929992675781250e+01 -1.310059309005737305e+00 -1.418690290302038193e-02 -3.972738683223724365e-01 -4.709495902061462402e-01
2.734000000000000000e+03 5.107359313964843750e+01 -1.264345455169677734e+01 -1.324845314025878906e+00 2.405738830566406250e-02 -3.902363777160644531e-01 -4.443343281745910645e-01
2.735000000000000000e+03 3.386766433715820312e+01 -8.074539899826049805e-01 -7.716909050941467285e-01 -1.148805487900972366e-02 -2.349536865949630737e-01 5.041434764862060547e-01
2.736000000000000000e+03 3.459302139282226562e+01 -7.422357797622680664e-01 -8.116552829742431641e-01 -7.581715472042560577e-03 -2.457710951566696167e-01 5.128841400146484375e-01
2.737000000000000000e+03 4.866613769531250000e+01 -1.181271648406982422e+01 -1.482079386711120605e+00 -2.179415198042988777e-03 -4.452776610851287842e-01 -4.497148990631103516e-01
2.738000000000000000e+03 4.778562164306640625e+01 -1.312145137786865234e+01 -1.175970673561096191e+00 -2.689221641048789024e-03 -3.535979688167572021e-01 -4.866783022880554199e-01
2.739000000000000000e+03 4.116120147705078125e+01 -1.295709800720214844e+01 -1.012865900993347168e+00 -3.987704962491989136e-02 -3.158228695392608643e-01 -4.689905345439910889e-01
2.740000000000000000e+03 3.964886474609375000e+01 -1.204656028747558594e+01 -1.072913646697998047e+00 -3.803290799260139465e-02 -3.332839906215667725e-01 -4.225031137466430664e-01
2.741000000000000000e+03 4.102214431762695312e+01 -1.370094680786132812e+01 -9.021793603897094727e-01 -4.461010545492172241e-02 -2.840368449687957764e-01 -4.979453682899475098e-01
2.742000000000000000e+03 5.261343002319335938e+01 -1.249921035766601562e+01 -1.375030040740966797e+00 3.560590744018554688e-02 -4.018272161483764648e-01 -4.060824513435363770e-01
2.743000000000000000e+03 5.179420471191406250e+01 -1.185835361480712891e+01 -1.546595931053161621e+00 1.405672915279865265e-02 -4.597617685794830322e-01 -4.198704659938812256e-01
2.744000000000000000e+03 3.983804321289062500e+01 -1.385417747497558594e+01 -8.500511646270751953e-01 -5.057060346007347107e-02 -2.701865434646606445e-01 -4.929972589015960693e-01
2.745000000000000000e+03 5.254117584228515625e+01 -1.180371856689453125e+01 -1.571146845817565918e+00 1.693078875541687012e-02 -4.662648141384124756e-01 -4.099904596805572510e-01
2.746000000000000000e+03 5.335564041137695312e+01 -1.241800403594970703e+01 -1.388587951660156250e+00 3.853332996368408203e-02 -4.050163924694061279e-01 -3.886509239673614502e-01
2.747000000000000000e+03 5.186530685424804688e+01 -1.257950592041015625e+01 -1.355564713478088379e+00 2.670032531023025513e-02 -3.986593186855316162e-01 -4.276038110256195068e-01
2.748000000000000000e+03 3.991806793212890625e+01 -1.266806888580322266e+01 -1.003278732299804688e+00 -4.314180463552474976e-02 -3.139261603355407715e-01 -4.504302740097045898e-01
2.749000000000000000e+03 3.448471832275390625e+01 3.627181285992264748e-03 -7.695096731185913086e-01 -1.303667295724153519e-02 -2.347639054059982300e-01 5.541400313377380371e-01
2.750000000000000000e+03 5.675440216064453125e+01 -1.232042312622070312e+01 -1.317267417907714844e+00 1.487878262996673584e-01 -3.505438864231109619e-01 -2.338650375604629517e-01
2.751000000000000000e+03 5.746569442749023438e+01 -1.229942893981933594e+01 -1.294811725616455078e+00 1.747588217258453369e-01 -3.360158801078796387e-01 -1.851941347122192383e-01
2.752000000000000000e+03 5.892078399658203125e+01 -1.231329345703125000e+01 -1.180702805519104004e+00 2.719902396202087402e-01 -2.726137638092041016e-01 -3.933881595730781555e-02
2.753000000000000000e+03 6.266989517211914062e+01 -1.220559501647949219e+01 -7.248668074607849121e-01 7.754919528961181641e-01 1.518753357231616974e-02 6.346025466918945312e-01
2.754000000000000000e+03 6.338719177246093750e+01 -1.222454452514648438e+01 -5.948179960250854492e-01 9.933367371559143066e-01 1.195556223392486572e-01 8.508980274200439453e-01
2.755000000000000000e+03 3.615541076660156250e+01 -1.223297500610351562e+01 -8.992396593093872070e-01 -4.749966785311698914e-02 -2.840217947959899902e-01 -3.986287117004394531e-01
2.756000000000000000e+03 5.735476303100585938e+01 -1.297098064422607422e+01 -1.077820658683776855e+00 2.288699299097061157e-01 -2.546852231025695801e-01 -1.474981904029846191e-01
2.757000000000000000e+03 5.601366806030273438e+01 -1.242096138000488281e+01 -1.316349267959594727e+00 1.283033639192581177e-01 -3.564137518405914307e-01 -2.765785455703735352e-01
2.758000000000000000e+03 5.967780303955078125e+01 -1.230440521240234375e+01 -1.105558037757873535e+00 3.392968177795410156e-01 -2.298783808946609497e-01 5.797547101974487305e-02
2.759000000000000000e+03 5.402581787109375000e+01 -1.228832149505615234e+01 -1.418294906616210938e+00 5.605939775705337524e-02 -4.086706638336181641e-01 -3.722365498542785645e-01
2.760000000000000000e+03 5.461879348754882812e+01 -1.226005363464355469e+01 -1.419068813323974609e+00 6.713207066059112549e-02 -4.055810272693634033e-01 -3.544133603572845459e-01
2.761000000000000000e+03 3.535095596313476562e+01 -1.227079677581787109e+01 -8.582603931427001953e-01 -4.710522666573524475e-02 -2.716096937656402588e-01 -3.925597369670867920e-01
2.762000000000000000e+03 3.767541885375976562e+01 -1.319112777709960938e+00 -1.041732668876647949e+00 3.538814373314380646e-03 -3.114581704139709473e-01 4.883325994014739990e-01
2.763000000000000000e+03 5.805351257324218750e+01 -5.231553912162780762e-01 -1.394566535949707031e+00 2.101534903049468994e-01 -3.553239405155181885e-01 8.559289574623107910e-02
2.764000000000000000e+03 5.527623748779296875e+01 -1.241325187683105469e+01 -1.351513862609863281e+00 1.030960157513618469e-01 -3.745253384113311768e-01 -3.175585865974426270e-01
2.765000000000000000e+03 5.960019683837890625e+01 -1.191464424133300781e+00 -1.517970204353332520e+00 2.278137356042861938e-01 -3.870469629764556885e-01 -1.653512194752693176e-02
2.766000000000000000e+03 5.904204940795898438e+01 2.595692276954650879e-01 -1.024497032165527344e+00 3.816663622856140137e-01 -1.928492188453674316e-01 -1.142516210675239563e-01
2.767000000000000000e+03 5.502369689941406250e+01 -1.145330071449279785e+00 -1.761097788810729980e+00 6.313939392566680908e-02 -5.093875527381896973e-01 3.091054260730743408e-01
2.768000000000000000e+03 3.844093322753906250e+01 -1.298539996147155762e+00 -1.090273499488830566e+00 4.002562258392572403e-03 -3.258812725543975830e-01 4.906315207481384277e-01
2.769000000000000000e+03 5.422182083129882812e+01 -4.592398405075073242e-01 -1.546372652053833008e+00 7.799699157476425171e-02 -4.405126869678497314e-01 3.305510580539703369e-01
2.770000000000000000e+03 5.495637893676757812e+01 -4.337396323680877686e-01 -1.523565769195556641e+00 9.437679499387741089e-02 -4.287566840648651123e-01 2.973636686801910400e-01
2.771000000000000000e+03 5.129075241088867188e+01 -3.893738687038421631e-01 -1.537514328956604004e+00 3.331526368856430054e-02 -4.512597322463989258e-01 4.305656254291534424e-01
2.772000000000000000e+03 6.043799591064453125e+01 -1.228241252899169922e+01 -1.027563929557800293e+00 4.164891839027404785e-01 -1.833224296569824219e-01 1.689771562814712524e-01
2.773000000000000000e+03 3.794705581665039062e+01 -1.321466636657714844e+01 -8.615342378616333008e-01 -5.050251632928848267e-02 -2.736110389232635498e-01 -4.581377506256103516e-01
2.774000000000000000e+03 5.729406738281250000e+01 -3.813366591930389404e-01 -1.398389935493469238e+00 1.775338947772979736e-01 -3.662568032741546631e-01 1.389743387699127197e-01
2.775000000000000000e+03 5.277980422973632812e+01 -1.142956614494323730e+00 -1.766087770462036133e+00 3.480860218405723572e-02 -5.193837881088256836e-01 3.855734169483184814e-01
2.776000000000000000e+03 5.202719497680664062e+01 -4.162210524082183838e-01 -1.548290967941284180e+00 4.302068054676055908e-02 -4.515810906887054443e-01 4.118389785289764404e-01
2.777000000000000000e+03 5.794779586791992188e+01 6.447312235832214355e-01 -1.011244416236877441e+00 3.239797055721282959e-01 -2.061794251203536987e-01 -8.098416728898882866e-04
2.778000000000000000e+03 3.609138870239257812e+01 -6.427953243255615234e-01 -8.950558304786682129e-01 -1.349370344541966915e-03 -2.689215540885925293e-01 5.260500311851501465e-01
2.779000000000000000e+03 4.830068206787109375e+01 -3.866153657436370850e-01 -1.472050786018371582e+00 1.853313483297824860e-02 -4.360553026199340820e-01 4.894954562187194824e-01
2.780000000000000000e+03 3.917584991455078125e+01 -5.469855070114135742e-01 -1.065917015075683594e+00 3.929348196834325790e-03 -3.185963034629821777e-01 5.372663140296936035e-01
2.781000000000000000e+03 3.914220046997070312e+01 2.333540916442871094e-01 -9.901853799819946289e-01 3.762462409213185310e-03 -2.959268689155578613e-01 5.777227282524108887e-01
2.782000000000000000e+03 4.378732681274414062e+01 -1.164104223251342773e+00 -1.411336779594421387e+00 3.762898268178105354e-03 -4.222721755504608154e-01 4.909496307373046875e-01
2.783000000000000000e+03 4.605853652954101562e+01 -3.933610320091247559e-01 -1.393598318099975586e+00 9.229534305632114410e-03 -4.153106510639190674e-01 5.157088041305541992e-01
2.784000000000000000e+03 5.348615646362304688e+01 -4.668637514114379883e-01 -1.560490965843200684e+00 6.821022927761077881e-02 -4.476842284202575684e-01 3.616899251937866211e-01
2.785000000000000000e+03 5.275472259521484375e+01 -4.491485953330993652e-01 -1.558410644531250000e+00 5.477944388985633850e-02 -4.510893821716308594e-01 3.903310596942901611e-01
2.786000000000000000e+03 3.378934860229492188e+01 -1.307140350341796875e+01 -7.284097075462341309e-01 -5.457165092229843140e-02 -2.348944097757339478e-01 -4.120132923126220703e-01
2.787000000000000000e+03 5.054452896118164062e+01 -3.762664794921875000e-01 -1.523144245147705078e+00 3.005923144519329071e-02 -4.479254782199859619e-01 4.482982456684112549e-01
2.788000000000000000e+03 4.073326110839843750e+01 -1.250449419021606445e+00 -1.234413385391235352e+00 4.685753025114536285e-03 -3.689182996749877930e-01 4.945760369300842285e-01
2.789000000000000000e+03 3.994562911987304688e+01 -5.361151099205017090e-01 -1.108080625534057617e+00 4.713924136012792587e-03 -3.310100138187408447e-01 5.378865599632263184e-01
2.790000000000000000e+03 4.979670715332031250e+01 -3.753071427345275879e-01 -1.507715106010437012e+00 2.427872456610202789e-02 -4.450309276580810547e-01 4.639906883239746094e-01
2.791000000000000000e+03 6.039209365844726562e+01 -1.003748416900634766e+00 -1.345334649085998535e+00 3.377320170402526855e-01 -3.022807836532592773e-01 -1.443410515785217285e-01
2.792000000000000000e+03 6.010200881958007812e+01 -2.038513123989105225e-01 -1.070634722709655762e+00 4.207026660442352295e-01 -1.949796229600906372e-01 -2.112718671560287476e-01
2.793000000000000000e+03 4.225369262695312500e+01 -4.899770915508270264e-01 -1.227979063987731934e+00 7.913060486316680908e-03 -3.660197854042053223e-01 5.352604985237121582e-01
2.794000000000000000e+03 4.148445892333984375e+01 -5.094755887985229492e-01 -1.189385533332824707e+00 6.640732288360595703e-03 -3.548234403133392334e-01 5.373416543006896973e-01
2.795000000000000000e+03 4.680612945556640625e+01 -1.120960354804992676e+00 -1.566253304481506348e+00 4.735441878437995911e-03 -4.684553444385528564e-01 4.770207703113555908e-01
2.796000000000000000e+03 4.531023788452148438e+01 -4.010514020919799805e-01 -1.361852884292602539e+00 7.778416387736797333e-03 -4.062223434448242188e-01 5.210803151130676270e-01
2.797000000000000000e+03 4.302924346923828125e+01 2.832540571689605713e-01 -1.159087657928466797e+00 1.352225523442029953e-02 -3.436696231365203857e-01 5.675237178802490234e-01
2.798000000000000000e+03 5.201863098144531250e+01 3.154245018959045410e-01 -1.356619477272033691e+00 6.305014342069625854e-02 -3.880708217620849609e-01 4.120364487171173096e-01
2.799000000000000000e+03 3.457385253906250000e+01 -1.315258407592773438e+01 -7.497026920318603516e-01 -5.585526674985885620e-02 -2.416673898696899414e-01 -4.210287332534790039e-01
2.800000000000000000e+03 4.071408462524414062e+01 -5.217827558517456055e-01 -1.148551702499389648e+00 5.658179521560668945e-03 -3.428680598735809326e-01 5.378915071487426758e-01
2.801000000000000000e+03 4.755160522460937500e+01 -3.878227472305297852e-01 -1.446427106857299805e+00 1.415547635406255722e-02 -4.296814799308776855e-01 4.998368918895721436e-01
2.802000000000000000e+03 4.680428314208984375e+01 -3.892565667629241943e-01 -1.420894265174865723e+00 1.167086977511644363e-02 -4.227670133113861084e-01 5.075641274452209473e-01
2.803000000000000000e+03 4.455638885498046875e+01 -4.126281440258026123e-01 -1.331668257713317871e+00 7.517515681684017181e-03 -3.972452282905578613e-01 5.254982113838195801e-01
2.804000000000000000e+03 4.225976562500000000e+01 1.001250386238098145e+00 -1.030967116355895996e+00 1.411345507949590683e-02 -3.050560951232910156e-01 5.996312499046325684e-01
2.805000000000000000e+03 3.230549240112304688e+01 -1.231541538238525391e+01 -7.300660014152526855e-01 -4.639543965458869934e-02 -2.329384386539459229e-01 -3.660078346729278564e-01
2.806000000000000000e+03 6.398885345458984375e+01 -1.245765113830566406e+01 -4.355714619159698486e-01 1.274427533149719238e+00 2.516568005084991455e-01 1.083089470863342285e+00
2.807000000000000000e+03 3.096582984924316406e+01 -1.326992034912109375e+01 -6.131381988525390625e-01 -4.942047968506813049e-02 -1.987676024436950684e-01 -3.913518190383911133e-01
2.808000000000000000e+03 3.160806083679199219e+01 -1.304208755493164062e+01 -6.522395610809326172e-01 -5.035055056214332581e-02 -2.107770442962646484e-01 -3.865170180797576904e-01
2.809000000000000000e+03 6.244480895996093750e+01 1.557479351758956909e-01 -6.097660064697265625e-01 9.452431797981262207e-01 1.006431505084037781e-01 -7.564221620559692383e-01
2.810000000000000000e+03 6.119404220581054688e+01 -1.225456047058105469e+01 -9.350707530975341797e-01 5.163479447364807129e-01 -1.256168484687805176e-01 3.031247854232788086e-01
2.811000000000000000e+03 6.194005203247070312e+01 -1.222844219207763672e+01 -8.380408883094787598e-01 6.329218745231628418e-01 -6.153570488095283508e-02 4.574847519397735596e-01
2.812000000000000000e+03 3.308152770996093750e+01 -1.303674411773681641e+01 -7.028132081031799316e-01 -5.437869578599929810e-02 -2.271575778722763062e-01 -4.002930223941802979e-01
2.813000000000000000e+03 2.973680877685546875e+01 -1.361492538452148438e+01 -5.562272071838378906e-01 -4.838350415229797363e-02 -1.813832074403762817e-01 -3.905378580093383789e-01
2.814000000000000000e+03 2.700609970092773438e+01 -1.275200366973876953e+01 -5.041106343269348145e-01 -2.938445284962654114e-02 -1.600485295057296753e-01 -3.358480036258697510e-01
2.815000000000000000e+03 2.938434982299804688e+01 -1.438086032867431641e+01 -4.940156638622283936e-01 -5.584307014942169189e-02 -1.649576276540756226e-01 -4.098900854587554932e-01
2.816000000000000000e+03 2.420139122009277344e+01 -1.256234455108642578e+01 -4.199977815151214600e-01 -1.709673181176185608e-02 -1.311283558607101440e-01 -3.046253025531768799e-01
2.817000000000000000e+03 2.606678771972656250e+01 -1.236674880981445312e+01 -4.844673573970794678e-01 -2.174641937017440796e-02 -1.518641263246536255e-01 -3.155094683170318604e-01
2.818000000000000000e+03 2.751772880554199219e+01 -1.329114151000976562e+01 -5.012457966804504395e-01 -3.642094507813453674e-02 -1.613000184297561646e-01 -3.599901497364044189e-01
2.819000000000000000e+03 6.343005371093750000e+01 -1.244135260581970215e+00 -9.157654047012329102e-01 7.922656536102294922e-01 -3.704992681741714478e-02 -7.850175499916076660e-01
2.820000000000000000e+03 6.312789154052734375e+01 1.246237084269523621e-01 -5.306428074836730957e-01 1.122167825698852539e+00 1.774574965238571167e-01 -9.427256584167480469e-01
2.821000000000000000e+03 6.512871551513671875e+01 -8.249241709709167480e-01 -4.310662746429443359e-01 1.655246615409851074e+00 3.672540783882141113e-01 -1.521016240119934082e+00
2.822000000000000000e+03 6.460323333740234375e+01 -9.680526256561279297e-01 -5.621928572654724121e-01 1.325923800468444824e+00 2.291193008422851562e-01 -1.261082410812377930e+00
2.823000000000000000e+03 6.447734832763671875e+01 -1.201197147369384766e+01 -4.741516113281250000e-01 1.313285708427429199e+00 2.517402470111846924e-01 1.182844877243041992e+00
2.824000000000000000e+03 2.365983009338378906e+01 -6.891902089118957520e-01 -1.936235576868057251e-01 -1.722910851240158081e-01 -1.097743883728981018e-01 2.967371940612792969e-01
2.825000000000000000e+03 7.569564056396484375e+01 -6.149837970733642578e+00 2.730978012084960938e+00 9.702912330627441406e+00 3.730166912078857422e+00 2.938908040523529053e-01
2.826000000000000000e+03 2.285499954223632812e+01 -1.207272243499755859e+01 -3.857293426990509033e-01 -1.338354684412479401e-02 -1.197338700294494629e-01 -2.769452631473541260e-01
2.827000000000000000e+03 2.673402214050292969e+01 -1.376238918304443359e+01 -4.569894373416900635e-01 -3.943131864070892334e-02 -1.489262282848358154e-01 -3.650926053524017334e-01
2.828000000000000000e+03 2.118531417846679688e+01 -1.293078613281250000e+01 -3.456560969352722168e-01 -3.277009353041648865e-02 -1.135278567671775818e-01 -2.786856591701507568e-01
2.829000000000000000e+03 7.539743041992187500e+01 -1.090665912628173828e+01 -6.250165104866027832e-01 1.063725185394287109e+01 3.003670454025268555e+00 -1.550116062164306641e+00
2.830000000000000000e+03 7.580298614501953125e+01 -3.734096288681030273e+00 7.617170810699462891e-01 1.020476627349853516e+01 3.289944887161254883e+00 1.906740307807922363e+00
2.831000000000000000e+03 7.137400150299072266e+00 6.724370002746582031e+00 -8.203945981222204864e-06 9.464027825742959976e-04 2.814596518874168396e-04 2.193456020904704928e-04
2.832000000000000000e+03 6.795166492462158203e+00 7.601063251495361328e+00 5.330654093995690346e-04 -4.074517637491226196e-04 3.768409078475087881e-05 1.478142949054017663e-04
2.833000000000000000e+03 8.159979820251464844e+00 -5.227531433105468750e+00 2.433017216389998794e-04 -1.987014984479174018e-04 1.338006677542580292e-05 1.155130812549032271e-04
2.834000000000000000e+03 2.166970062255859375e+01 -1.380891799926757812e+01 -3.513306975364685059e-01 -3.915970027446746826e-02 -1.171471178531646729e-01 -2.997591793537139893e-01
2.835000000000000000e+03 6.508384704589843750e+01 -1.176304817199707031e+01 -4.144575297832489014e-01 1.508557558059692383e+00 3.282300233840942383e-01 1.396668195724487305e+00
2.836000000000000000e+03 7.464385986328125000e+01 -1.076004028320312500e+01 -8.596391081809997559e-01 1.134095096588134766e+01 3.144393444061279297e+00 -1.318410754203796387e+00
2.837000000000000000e+03 7.484314727783203125e+01 2.003274440765380859e+00 -1.012702107429504395e+00 9.290424346923828125e+00 2.483316898345947266e+00 1.187967285513877869e-01
2.838000000000000000e+03 7.423095703125000000e+01 -1.491657733917236328e+01 -1.121941208839416504e+00 9.249755859375000000e+00 2.438344478607177734e+00 1.202346980571746826e-01
2.839000000000000000e+03 7.485617065429687500e+01 -1.534826660156250000e+01 -9.296945333480834961e-01 9.132271766662597656e+00 2.460772991180419922e+00 -5.539170652627944946e-02
2.840000000000000000e+03 2.385795211791992188e+01 1.232210159301757812e+01 -4.624619483947753906e-01 -5.099528431892395020e-01 -2.917244434356689453e-01 6.046245694160461426e-01
2.841000000000000000e+03 2.284166336059570312e+01 9.530883789062500000e+00 -4.314336776733398438e-01 -5.916908979415893555e-01 -3.069373965263366699e-01 6.381825208663940430e-01
2.842000000000000000e+03 2.396810722351074219e+01 -3.413811326026916504e-03 -2.154009342193603516e-01 -1.961459964513778687e-01 -1.234640777111053467e-01 3.437174260616302490e-01
2.843000000000000000e+03 2.356885147094726562e+01 1.187237024307250977e+00 -2.089374810457229614e-01 -2.547235190868377686e-01 -1.390983015298843384e-01 3.863970935344696045e-01
2.844000000000000000e+03 7.271733093261718750e+01 1.253438186645507812e+01 1.824341528117656708e-02 6.539941787719726562e+00 1.967455506324768066e+00 -8.780082464218139648e-01
2.845000000000000000e+03 7.258209228515625000e+01 1.535713672637939453e+01 1.013037934899330139e-01 6.290575981140136719e+00 1.917563915252685547e+00 -8.206763267517089844e-01
2.846000000000000000e+03 7.269050598144531250e+01 -2.034401512145996094e+01 -3.097166121006011963e-01 7.189875125885009766e+00 2.064047574996948242e+00 8.503035902976989746e-01
2.847000000000000000e+03 7.060964202880859375e+01 -2.474230194091796875e+01 1.107941269874572754e-01 5.984932899475097656e+00 1.828718066215515137e+00 9.117932915687561035e-01
2.848000000000000000e+03 2.723749542236328125e+01 7.636999130249023438e+00 -4.051430523395538330e-01 -2.638793587684631348e-01 -2.007067203521728516e-01 6.869876384735107422e-01
2.849000000000000000e+03 2.031547737121582031e+01 -1.717230987548828125e+01 -2.755162417888641357e-01 -1.063947007060050964e-01 -1.145732775330543518e-01 -3.120855987071990967e-01
2.850000000000000000e+03 2.176402664184570312e+01 -1.675374603271484375e+01 -2.976001203060150146e-01 -8.525715768337249756e-02 -1.148571893572807312e-01 -3.342609107494354248e-01
2.851000000000000000e+03 2.531712532043457031e+01 4.016457557678222656e+00 -3.313833773136138916e-01 -2.971999645233154297e-01 -1.885749995708465576e-01 5.816723108291625977e-01
2.852000000000000000e+03 1.991686058044433594e+01 -1.856107902526855469e+01 -2.240733504295349121e-01 -1.413976550102233887e-01 -1.096412986516952515e-01 -3.067737519741058350e-01
2.853000000000000000e+03 1.915830993652343750e+01 -1.998704719543457031e+01 -1.797981858253479004e-01 -1.748033314943313599e-01 -1.063804551959037781e-01 -2.927688956260681152e-01
2.854000000000000000e+03 7.292125701904296875e+01 -1.720996284484863281e+01 -7.638118863105773926e-01 7.979165554046630859e+00 2.164606094360351562e+00 8.048084378242492676e-01
2.855000000000000000e+03 7.297956466674804688e+00 2.474779701232910156e+01 -7.659072428941726685e-02 -4.038385450839996338e-01 -1.441287845373153687e-01 3.570207059383392334e-01
2.856000000000000000e+03 7.291000366210937500e+01 -2.468915939331054688e+01 2.384242229163646698e-02 6.786623477935791016e+00 2.043139696121215820e+00 7.670390605926513672e-01
2.857000000000000000e+03 7.118946838378906250e+01 1.977796745300292969e+01 1.926003247499465942e-01 5.678573131561279297e+00 1.761352062225341797e+00 -7.550488114356994629e-01
2.858000000000000000e+03 7.136523437500000000e+01 1.112627506256103516e+01 -1.706972345709800720e-02 6.182829856872558594e+00 1.849727988243103027e+00 -1.022382736206054688e+00
2.859000000000000000e+03 7.290671539306640625e+01 -1.813052940368652344e+01 -6.162332892417907715e-01 7.721550464630126953e+00 2.131595134735107422e+00 8.190336227416992188e-01
2.860000000000000000e+03 7.359338378906250000e+01 9.659358859062194824e-01 -1.447700977325439453e+00 9.774452209472656250e+00 2.498025417327880859e+00 -3.137078285217285156e-01
2.861000000000000000e+03 8.535169601440429688e+00 3.008219718933105469e+01 9.825338423252105713e-02 -5.979210734367370605e-01 -1.499003022909164429e-01 3.204202651977539062e-01
2.862000000000000000e+03 1.234008693695068359e+01 2.763885307312011719e+01 1.114283204078674316e-01 -7.183043360710144043e-01 -1.820628046989440918e-01 3.989354968070983887e-01
2.863000000000000000e+03 7.141000366210937500e+01 2.107575225830078125e+01 1.840142011642456055e-01 5.662818908691406250e+00 1.754050016403198242e+00 -7.063665390014648438e-01
2.864000000000000000e+03 7.232444000244140625e+01 3.295735597610473633e+00 -1.019943952560424805e+00 8.103796958923339844e+00 2.125155687332153320e+00 -1.061575293540954590e+00
2.865000000000000000e+03 7.132859039306640625e+01 1.252715778350830078e+01 4.989539086818695068e-02 6.053449153900146484e+00 1.831003427505493164e+00 -9.872295856475830078e-01
2.866000000000000000e+03 7.275490570068359375e+01 -2.931959724426269531e+01 1.630515903234481812e-01 6.481141567230224609e+00 1.993257880210876465e+00 6.249063611030578613e-01
2.867000000000000000e+03 6.935974884033203125e+01 -3.043525695800781250e+01 3.473310768604278564e-01 5.324628353118896484e+00 1.701587915420532227e+00 6.500349044799804688e-01
2.868000000000000000e+03 6.979347991943359375e+01 2.746180152893066406e+01 2.256856262683868408e-01 5.120024681091308594e+00 1.603713035583496094e+00 -4.949702918529510498e-01
2.869000000000000000e+03 7.256832122802734375e+01 2.242281341552734375e+01 1.458981484174728394e-01 5.876911640167236328e+00 1.806842923164367676e+00 -6.027591228485107422e-01
2.870000000000000000e+03 2.522152137756347656e+01 6.083975791931152344e+00 -3.658410012722015381e-01 -3.551447093486785889e-01 -2.162957042455673218e-01 6.427816152572631836e-01
2.871000000000000000e+03 2.603536033630371094e+01 6.466354846954345703e+00 -3.868507146835327148e-01 -3.097182810306549072e-01 -2.089706957340240479e-01 6.607779860496520996e-01
2.872000000000000000e+03 2.267989158630371094e+01 1.373586273193359375e+01 -4.773882627487182617e-01 -6.131056547164916992e-01 -3.271481692790985107e-01 5.628057122230529785e-01
2.873000000000000000e+03 9.656694412231445312e+00 2.213492012023925781e+01 -2.373005896806716919e-01 -4.683821201324462891e-01 -2.117048203945159912e-01 4.736809730529785156e-01
2.874000000000000000e+03 1.049553775787353516e+01 2.424342346191406250e+01 -7.440245151519775391e-02 -6.067016124725341797e-01 -2.043312191963195801e-01 4.677530527114868164e-01
2.875000000000000000e+03 7.168936157226562500e+01 -2.570300102233886719e+01 9.739029407501220703e-02 6.257885932922363281e+00 1.906582832336425781e+00 8.188222646713256836e-01
2.876000000000000000e+03 1.841609954833984375e+01 2.143398284912109375e+01 -1.221628561615943909e-01 -8.555541038513183594e-01 -2.933150827884674072e-01 3.655392229557037354e-01
2.877000000000000000e+03 1.541242313385009766e+01 -2.558867645263671875e+01 2.072320319712162018e-02 -2.913445830345153809e-01 -8.118641376495361328e-02 -2.471161037683486938e-01
2.878000000000000000e+03 1.043393135070800781e+01 -2.592140579223632812e+01 1.185801718384027481e-02 -2.872641086578369141e-01 -8.262182772159576416e-02 -2.180406004190444946e-01
2.879000000000000000e+03 7.038851737976074219e+00 2.636688995361328125e+01 -1.733013428747653961e-02 -4.516541063785552979e-01 -1.406952738761901855e-01 3.419802486896514893e-01
2.880000000000000000e+03 8.659815788269042969e+00 2.520789718627929688e+01 -5.542464181780815125e-02 -5.012212395668029785e-01 -1.669937670230865479e-01 4.097348153591156006e-01
2.881000000000000000e+03 7.121148681640625000e+01 1.392554950714111328e+01 1.089126169681549072e-01 5.927331924438476562e+00 1.810873270034790039e+00 -9.469124078750610352e-01
2.882000000000000000e+03 1.778489112854003906e+01 -2.108924674987792969e+01 -1.371375620365142822e-01 -2.147433161735534668e-01 -1.055642589926719666e-01 -2.711470127105712891e-01
2.883000000000000000e+03 1.946196365356445312e+01 2.121961021423339844e+01 -1.232025027275085449e-01 -7.976531982421875000e-01 -2.762567102909088135e-01 3.566922545433044434e-01
2.884000000000000000e+03 7.055892944335937500e+01 -3.458908081054687500e+01 2.747756242752075195e-01 5.658861160278320312e+00 1.780091047286987305e+00 4.293286502361297607e-01
2.885000000000000000e+03 2.133857154846191406e+01 -1.886581420898437500e+01 -2.165153622627258301e-01 -1.312184929847717285e-01 -1.043201535940170288e-01 -3.329925537109375000e-01
2.886000000000000000e+03 3.722666740417480469e+00 -1.597744655609130859e+01 5.162374000065028667e-04 -1.584152132272720337e-02 -4.597585182636976242e-03 3.337279660627245903e-03
2.887000000000000000e+03 9.447350502014160156e+00 -2.405052185058593750e+01 -2.835416980087757111e-02 -2.573041915893554688e-01 -8.569750934839248657e-02 -2.145342379808425903e-01
2.888000000000000000e+03 7.175672531127929688e+00 3.388769912719726562e+01 1.001532226800918579e-01 -6.246839165687561035e-01 -1.573592126369476318e-01 2.132272869348526001e-01
2.889000000000000000e+03 7.917884826660156250e+00 2.805649948120117188e+01 4.434347152709960938e-02 -5.444105267524719238e-01 -1.500201076269149780e-01 3.502110242843627930e-01
2.890000000000000000e+03 7.164363098144531250e+01 -2.808439826965332031e+01 1.815724372863769531e-01 6.145007133483886719e+00 1.897973895072937012e+00 7.295593023300170898e-01
2.891000000000000000e+03 7.196528625488281250e+01 3.094004440307617188e+01 1.571996212005615234e-01 5.473596572875976562e+00 1.689238905906677246e+00 -3.458696603775024414e-01
2.892000000000000000e+03 2.467023658752441406e+01 -1.552664852142333984e+01 -3.555755615234375000e-01 -5.713667348027229309e-02 -1.238136664032936096e-01 -3.714218139648437500e-01
2.893000000000000000e+03 2.139990615844726562e+01 -1.759885978698730469e+01 -2.650840580463409424e-01 -1.059774383902549744e-01 -1.113184466958045959e-01 -3.308426141738891602e-01
2.894000000000000000e+03 7.152167510986328125e+01 -3.045754432678222656e+01 2.299891561269760132e-01 6.025141716003417969e+00 1.876539230346679688e+00 6.151670813560485840e-01
2.895000000000000000e+03 8.253269195556640625e+00 2.668798446655273438e+01 8.409549482166767120e-03 -5.261290073394775391e-01 -1.553158462047576904e-01 3.793733119964599609e-01
2.896000000000000000e+03 9.873156547546386719e+00 -3.208255767822265625e+01 7.424848526716232300e-02 -3.228887617588043213e-01 -7.459208369255065918e-02 -1.663814783096313477e-01
2.897000000000000000e+03 9.468112945556640625e+00 -2.709117698669433594e+01 2.004037424921989441e-02 -2.816853821277618408e-01 -7.849350571632385254e-02 -2.046352028846740723e-01
2.898000000000000000e+03 7.108433532714843750e+01 -3.508501052856445312e+00 -1.317122340202331543e+00 1.307457256317138672e+01 3.527235031127929688e+00 -3.784859657287597656e+00
2.899000000000000000e+03 7.212801361083984375e+01 -3.853245973587036133e+00 -1.145497798919677734e+00 1.619764137268066406e+01 4.515643119812011719e+00 -7.734411358833312988e-01
2.900000000000000000e+03 6.935893249511718750e+01 -3.981715917587280273e+00 6.070518493652343750e-01 5.026655197143554688e+00 1.690111994743347168e+00 -4.518245697021484375e+00
2.901000000000000000e+03 7.472259521484375000e+01 -2.916576862335205078e+00 -1.914545744657516479e-01 1.165671253204345703e+01 3.439577341079711914e+00 1.762385845184326172e+00
2.902000000000000000e+03 7.137764739990234375e+01 -3.854045391082763672e+00 -1.443215608596801758e+00 1.479702281951904297e+01 4.006142139434814453e+00 -3.443435668945312500e+00
2.903000000000000000e+03 7.504269409179687500e+01 -7.495460987091064453e+00 3.019057750701904297e+00 1.091751956939697266e+01 4.180973052978515625e+00 -1.370515704154968262e+00
2.904000000000000000e+03 7.315097045898437500e+01 -1.262756061553955078e+01 -1.648243546485900879e+00 1.052919960021972656e+01 2.664286851882934570e+00 4.519948065280914307e-01
2.905000000000000000e+03 6.971784973144531250e+01 -9.169467926025390625e+00 2.143061906099319458e-01 6.998668193817138672e+00 2.163892269134521484e+00 4.882025718688964844e+00
2.906000000000000000e+03 7.309206390380859375e+01 -2.876158952713012695e+00 -1.157363653182983398e+00 1.353433704376220703e+01 3.713092088699340820e+00 4.346944987773895264e-01
2.907000000000000000e+03 6.731214904785156250e+01 -1.063076686859130859e+01 -1.800795346498489380e-01 2.601532459259033203e+00 7.264358401298522949e-01 2.475625038146972656e+00
2.908000000000000000e+03 6.981286621093750000e+01 -1.061435508728027344e+01 -6.845281124114990234e-01 7.528450965881347656e+00 2.053176879882812500e+00 3.840371608734130859e+00
2.909000000000000000e+03 6.793686676025390625e+01 -3.315840959548950195e+00 -8.864359557628631592e-02 2.339484691619873047e+00 6.752523183822631836e-01 -2.685154199600219727e+00
2.910000000000000000e+03 7.025527191162109375e+01 -9.249835014343261719e+00 -3.849419355392456055e-01 9.381988525390625000e+00 2.699113845825195312e+00 4.994745254516601562e+00
2.911000000000000000e+03 7.496627044677734375e+01 -4.140821933746337891e+00 1.270251393318176270e+00 1.137589454650878906e+01 3.793843746185302734e+00 2.045188188552856445e+00
2.912000000000000000e+03 7.431258392333984375e+01 -5.596903800964355469e+00 4.041233539581298828e+00 1.207710838317871094e+01 4.835502624511718750e+00 1.306780338287353516e+00
2.913000000000000000e+03 6.949281311035156250e+01 -2.979682683944702148e+00 -2.083545625209808350e-01 6.596672058105468750e+00 1.916495203971862793e+00 -4.322214603424072266e+00
2.914000000000000000e+03 6.736791992187500000e+01 -2.114779710769653320e+00 -1.997578740119934082e-01 2.779159545898437500e+00 7.738204598426818848e-01 -2.573002338409423828e+00
2.915000000000000000e+03 7.456266021728515625e+01 -6.183368206024169922e+00 4.454489231109619141e+00 1.153434276580810547e+01 4.796649456024169922e+00 2.962141036987304688e-01
2.916000000000000000e+03 7.534537506103515625e+01 -5.689268589019775391e+00 2.834643602371215820e+00 1.025899028778076172e+01 3.928090095520019531e+00 8.598136305809020996e-01
2.917000000000000000e+03 7.496870422363281250e+01 -6.601076126098632812e+00 3.797763109207153320e+00 1.080836582183837891e+01 4.381838798522949219e+00 -3.603550791740417480e-01
2.918000000000000000e+03 6.790034484863281250e+01 -9.963589668273925781e+00 -2.815203554928302765e-02 2.874301910400390625e+00 8.538449406623840332e-01 2.841543436050415039e+00
2.919000000000000000e+03 6.665445709228515625e+01 -1.979992508888244629e+00 -3.276974856853485107e-01 2.063213348388671875e+00 5.206547379493713379e-01 -2.098775386810302734e+00
2.920000000000000000e+03 6.757280731201171875e+01 -2.582340717315673828e+00 -1.430624127388000488e-01 2.660650253295898438e+00 7.552763819694519043e-01 -2.649718523025512695e+00
2.921000000000000000e+03 6.691823577880859375e+01 -2.430722236633300781e+00 -3.317322731018066406e-01 2.010649204254150391e+00 5.036751031875610352e-01 -2.152456283569335938e+00
2.922000000000000000e+03 6.573577880859375000e+01 -1.279131531715393066e+00 -4.157136380672454834e-01 1.787001490592956543e+00 4.113863706588745117e-01 -1.707833647727966309e+00
2.923000000000000000e+03 6.608483886718750000e+01 -1.101720905303955078e+01 -3.652448058128356934e-01 1.737819314002990723e+00 4.117723405361175537e-01 1.750685811042785645e+00
2.924000000000000000e+03 2.574540901184082031e+01 -2.641622722148895264e-01 -3.061111271381378174e-01 -1.460915058851242065e-01 -1.356607824563980103e-01 3.939646482467651367e-01
2.925000000000000000e+03 2.729680442810058594e+01 -5.226136445999145508e-01 -3.906056582927703857e-01 -1.015126630663871765e-01 -1.476354897022247314e-01 4.194566011428833008e-01
2.926000000000000000e+03 2.671559906005859375e+01 -2.409005016088485718e-01 -3.551623225212097168e-01 -1.245034113526344299e-01 -1.438997238874435425e-01 4.193510413169860840e-01
2.927000000000000000e+03 7.394910430908203125e+01 1.483058780431747437e-01 -1.472437500953674316e+00 1.029168415069580078e+01 2.645773887634277344e+00 8.378101885318756104e-02
2.928000000000000000e+03 2.620518302917480469e+01 2.228784710168838501e-01 -3.349436223506927490e-01 -1.473187953233718872e-01 -1.446787267923355103e-01 4.307346642017364502e-01
2.929000000000000000e+03 7.526924896240234375e+01 -7.164207458496093750e+00 3.060594797134399414e+00 1.047936439514160156e+01 4.061987876892089844e+00 -9.630399942398071289e-01
2.930000000000000000e+03 6.565377044677734375e+01 -1.163171005249023438e+01 -3.209674954414367676e-01 1.822535157203674316e+00 4.504702687263488770e-01 1.640343427658081055e+00
2.931000000000000000e+03 7.428216552734375000e+01 -1.246780776977539062e+01 -1.377224564552307129e+00 1.061387348175048828e+01 2.770994663238525391e+00 -4.414881169795989990e-01
2.932000000000000000e+03 7.528520202636718750e+01 -1.968130946159362793e+00 -6.265578269958496094e-01 1.077866172790527344e+01 3.045631408691406250e+00 1.548033237457275391e+00
2.933000000000000000e+03 7.533877563476562500e+01 -6.738343715667724609e+00 3.144171953201293945e+00 1.027776050567626953e+01 4.026579856872558594e+00 -4.967055916786193848e-01
2.934000000000000000e+03 3.062062072753906250e+01 -1.183511018753051758e-01 -5.676109790802001953e-01 -5.364166572690010071e-02 -1.863757967948913574e-01 5.079249739646911621e-01
2.935000000000000000e+03 2.790010452270507812e+01 2.982668578624725342e-01 -4.241566658020019531e-01 -1.116519197821617126e-01 -1.607425808906555176e-01 4.837221801280975342e-01
2.936000000000000000e+03 3.113660240173339844e+01 -9.566195011138916016e-01 -6.129997968673706055e-01 -3.507484868168830872e-02 -1.944223940372467041e-01 4.707954525947570801e-01
2.937000000000000000e+03 2.781824111938476562e+01 2.226004362106323242e+00 -4.139910042285919189e-01 -1.567810773849487305e-01 -1.712316125631332397e-01 5.700579881668090820e-01
2.938000000000000000e+03 7.316656494140625000e+01 3.368055582046508789e+00 -9.990881085395812988e-01 8.429358482360839844e+00 2.229080915451049805e+00 -7.316758036613464355e-01
2.939000000000000000e+03 7.314509582519531250e+01 2.511830806732177734e+00 -1.163600444793701172e+00 8.785090446472167969e+00 2.286446809768676758e+00 -6.984431147575378418e-01
2.940000000000000000e+03 7.575081634521484375e+01 -5.304089546203613281e+00 2.040327072143554688e+00 9.792475700378417969e+00 3.549840927124023438e+00 1.145127415657043457e+00
2.941000000000000000e+03 7.552179718017578125e+01 -4.396113872528076172e+00 1.515332579612731934e+00 1.044501113891601562e+01 3.588103055953979492e+00 1.849322557449340820e+00
2.942000000000000000e+03 2.914301109313964844e+01 -1.698779612779617310e-01 -4.912299811840057373e-01 -7.539172470569610596e-02 -1.699865162372589111e-01 4.803605675697326660e-01
2.943000000000000000e+03 3.239269638061523438e+01 -3.254276514053344727e-01 -6.693543791770935059e-01 -2.811388298869132996e-02 -2.092404663562774658e-01 5.181294679641723633e-01
2.944000000000000000e+03 3.180483627319335938e+01 -4.512974023818969727e-01 -6.423388719558715820e-01 -3.230822458863258362e-02 -2.023941278457641602e-01 5.054365992546081543e-01
2.945000000000000000e+03 4.599386596679687500e+01 -1.420197010040283203e+01 -9.384865164756774902e-01 -1.764379255473613739e-02 -2.868390977382659912e-01 -5.132181644439697266e-01
2.946000000000000000e+03 3.316731643676757812e+01 -8.827279210090637207e-01 -7.327273488044738770e-01 -1.559619139879941940e-02 -2.244970649480819702e-01 4.938480257987976074e-01
2.947000000000000000e+03 4.199440002441406250e+01 -1.286927986145019531e+01 -1.058512806892395020e+00 -3.777182474732398987e-02 -3.288853764533996582e-01 -4.725607037544250488e-01
2.948000000000000000e+03 4.352725982666015625e+01 -1.343361663818359375e+01 -1.025413513183593750e+00 -3.618824854493141174e-02 -3.184805214405059814e-01 -4.977821707725524902e-01
2.949000000000000000e+03 4.627645492553710938e+01 -1.291008663177490234e+01 -1.176924109458923340e+00 -1.700400561094284058e-02 -3.581784367561340332e-01 -4.900971949100494385e-01
2.950000000000000000e+03 4.712660217285156250e+01 -1.240906906127929688e+01 -1.320924162864685059e+00 -1.746041327714920044e-02 -4.015153646469116211e-01 -4.718657433986663818e-01
2.951000000000000000e+03 4.913541412353515625e+01 -1.327142810821533203e+01 -1.163319349288940430e+00 8.703857660293579102e-03 -3.463846445083618164e-01 -4.736948907375335693e-01
2.952000000000000000e+03 4.283921432495117188e+01 -1.334627914428710938e+01 -1.030679345130920410e+00 -3.985178843140602112e-02 -3.211593329906463623e-01 -4.906483590602874756e-01
2.953000000000000000e+03 3.304554367065429688e+01 -1.919756531715393066e-01 -7.007234096527099609e-01 -2.328041009604930878e-02 -2.172011435031890869e-01 5.326828956604003906e-01
2.954000000000000000e+03 5.039455795288085938e+01 -1.353568172454833984e+01 -1.110337615013122559e+00 2.447348460555076599e-02 -3.257592320442199707e-01 -4.578434824943542480e-01
2.955000000000000000e+03 4.593980789184570312e+01 -1.238111114501953125e+01 -1.271945238113403320e+00 -1.873611845076084137e-02 -3.872044086456298828e-01 -4.723173677921295166e-01
2.956000000000000000e+03 4.938469314575195312e+01 -1.262925052642822266e+01 -1.303887605667114258e+00 5.086779128760099411e-03 -3.896402418613433838e-01 -4.637048542499542236e-01
2.957000000000000000e+03 4.843827056884765625e+01 -1.529677486419677734e+01 -7.372983694076538086e-01 3.014755621552467346e-02 -2.121452391147613525e-01 -4.880643188953399658e-01
2.958000000000000000e+03 4.280855941772460938e+01 -1.274586486816406250e+01 -1.109075307846069336e+00 -3.550563380122184753e-02 -3.433742821216583252e-01 -4.734202027320861816e-01
2.959000000000000000e+03 4.053584289550781250e+01 -1.442339992523193359e+01 -7.913497090339660645e-01 -5.056669190526008606e-02 -2.525749206542968750e-01 -5.141707658767700195e-01
2.960000000000000000e+03 4.858968353271484375e+01 -1.248354339599609375e+01 -1.327989220619201660e+00 -4.532087128609418869e-03 -3.997564017772674561e-01 -4.645643234252929688e-01
2.961000000000000000e+03 4.696860504150390625e+01 -1.396235179901123047e+01 -9.957325458526611328e-01 -7.685516029596328735e-03 -3.010254204273223877e-01 -5.057740807533264160e-01
2.962000000000000000e+03 4.043503189086914062e+01 -1.323441219329833984e+01 -9.481928348541259766e-01 -4.387503117322921753e-02 -2.976203560829162598e-01 -4.745305180549621582e-01
2.963000000000000000e+03 3.600689697265625000e+01 1.250649839639663696e-01 -8.422240018844604492e-01 -4.567019641399383545e-03 -2.540373206138610840e-01 5.684832930564880371e-01
2.964000000000000000e+03 5.273443222045898438e+01 -1.320389747619628906e+01 -1.179944753646850586e+00 4.871587455272674561e-02 -3.393686413764953613e-01 -4.055170714855194092e-01
2.965000000000000000e+03 5.198785018920898438e+01 -1.332626056671142578e+01 -1.150785565376281738e+00 5.258359014987945557e-02 -3.294605910778045654e-01 -4.216966927051544189e-01
2.966000000000000000e+03 3.679582595825195312e+01 -1.321130561828613281e+01 -8.243978619575500488e-01 -5.432989075779914856e-02 -2.636183202266693115e-01 -4.463216662406921387e-01
2.967000000000000000e+03 3.733272552490234375e+01 -1.380504417419433594e+01 -7.772427201271057129e-01 -5.989234521985054016e-02 -2.511405050754547119e-01 -4.704405069351196289e-01
2.968000000000000000e+03 5.399179458618164062e+01 -1.320726585388183594e+01 -1.166660428047180176e+00 8.839458972215652466e-02 -3.234797418117523193e-01 -3.590950965881347656e-01
2.969000000000000000e+03 5.879618835449218750e+01 -1.304912948608398438e+01 -9.310038089752197266e-01 3.539557456970214844e-01 -1.731144189834594727e-01 1.444037631154060364e-02
2.970000000000000000e+03 5.818066406250000000e+01 -1.230813980102539062e+01 -1.243548154830932617e+00 2.209550291299819946e-01 -3.067779541015625000e-01 -1.190649271011352539e-01
2.971000000000000000e+03 5.804699707031250000e+01 -1.302158737182617188e+01 -1.006676077842712402e+00 2.821688950061798096e-01 -2.173521369695663452e-01 -7.609523087739944458e-02
2.972000000000000000e+03 3.762736511230468750e+01 -5.767181515693664551e-01 -9.801780581474304199e-01 2.215927233919501305e-03 -2.933886349201202393e-01 5.339905023574829102e-01
2.973000000000000000e+03 3.590029525756835938e+01 9.290071725845336914e-01 -7.863497734069824219e-01 -8.500470779836177826e-03 -2.384550720453262329e-01 6.056383848190307617e-01
2.974000000000000000e+03 3.626933288574218750e+01 -1.362242412567138672e+01 -7.569997310638427734e-01 -5.977815762162208557e-02 -2.450333684682846069e-01 -4.559606015682220459e-01
2.975000000000000000e+03 5.654372787475585938e+01 -1.346885013580322266e+01 -9.528557062149047852e-01 2.211139649152755737e-01 -2.195225208997726440e-01 -1.784760951995849609e-01
2.976000000000000000e+03 5.436180877685546875e+01 -1.275563335418701172e+01 -1.276640653610229492e+00 7.561328262090682983e-02 -3.603082299232482910e-01 -3.528037071228027344e-01
2.977000000000000000e+03 5.761635208129882812e+01 1.445714235305786133e+00 -7.997099757194519043e-01 3.897839188575744629e-01 -1.229778155684471130e-01 -3.214272484183311462e-02
2.978000000000000000e+03 3.538924026489257812e+01 -1.305486869812011719e+01 -7.908839583396911621e-01 -5.496511980891227722e-02 -2.537547051906585693e-01 -4.264081418514251709e-01
2.979000000000000000e+03 3.666532135009765625e+01 -1.430344772338867188e+01 -7.052488923072814941e-01 -6.481279432773590088e-02 -2.310184985399246216e-01 -4.787428677082061768e-01
2.980000000000000000e+03 5.413188552856445312e+01 2.463691085577011108e-01 -1.335876345634460449e+00 1.072229370474815369e-01 -3.685960173606872559e-01 3.210185766220092773e-01
2.981000000000000000e+03 5.957127761840820312e+01 -1.305391311645507812e+01 -8.556782007217407227e-01 4.370535314083099365e-01 -1.255874037742614746e-01 1.232416629791259766e-01
2.982000000000000000e+03 5.484051895141601562e+01 3.056555986404418945e-01 -1.300483465194702148e+00 1.306535154581069946e-01 -3.509489893913269043e-01 2.813165485858917236e-01
2.983000000000000000e+03 5.570076751708984375e+01 -4.011520743370056152e-01 -1.489272475242614746e+00 1.153456792235374451e-01 -4.121780395507812500e-01 2.552630305290222168e-01
2.984000000000000000e+03 3.840132141113281250e+01 -5.564956068992614746e-01 -1.023028731346130371e+00 3.128482028841972351e-03 -3.059700727462768555e-01 5.364533066749572754e-01
2.985000000000000000e+03 5.052583312988281250e+01 3.735629916191101074e-01 -1.337120294570922852e+00 4.520446807146072388e-02 -3.875747323036193848e-01 4.566000699996948242e-01
2.986000000000000000e+03 5.557507705688476562e+01 3.651230335235595703e-01 -1.252590537071228027e+00 1.627871096134185791e-01 -3.269410133361816406e-01 2.299138754606246948e-01
2.987000000000000000e+03 4.829047775268554688e+01 3.479148149490356445e-01 -1.312287688255310059e+00 2.996740676462650299e-02 -3.846960961818695068e-01 5.076422691345214844e-01
2.988000000000000000e+03 5.716727447509765625e+01 4.634687602519989014e-01 -1.128876566886901855e+00 2.479489594697952271e-01 -2.642782926559448242e-01 9.383522719144821167e-02
2.989000000000000000e+03 3.678442382812500000e+01 1.693962514400482178e-01 -8.791449666023254395e-01 -1.322614960372447968e-03 -2.641402781009674072e-01 5.725696682929992676e-01
2.990000000000000000e+03 4.977865982055664062e+01 3.662538528442382812e-01 -1.334887146949768066e+00 4.165400564670562744e-02 -3.879699409008026123e-01 4.736547172069549561e-01
2.991000000000000000e+03 6.034762191772460938e+01 -1.303945064544677734e+01 -7.687861323356628418e-01 5.360873341560363770e-01 -6.980962306261062622e-02 2.504040598869323730e-01
2.992000000000000000e+03 4.225285720825195312e+01 2.501967847347259521e-01 -1.129003882408142090e+00 1.107566710561513901e-02 -3.353784382343292236e-01 5.720504522323608398e-01
2.993000000000000000e+03 4.754606246948242188e+01 3.530762195587158203e-01 -1.297929406166076660e+00 2.592580765485763550e-02 -3.816010951995849609e-01 5.209649801254272461e-01
2.994000000000000000e+03 4.606169128417968750e+01 3.716014325618743896e-01 -1.253546714782714844e+00 1.716324873268604279e-02 -3.709150254726409912e-01 5.409906506538391113e-01
2.995000000000000000e+03 5.127733993530273438e+01 3.600049316883087158e-01 -1.343854188919067383e+00 5.632157623767852783e-02 -3.862597942352294922e-01 4.360475540161132812e-01
2.996000000000000000e+03 4.828099060058593750e+01 1.076470971107482910e+00 -1.165738940238952637e+00 4.401641711592674255e-02 -3.365167379379272461e-01 5.215526223182678223e-01
2.997000000000000000e+03 3.234225845336914062e+01 -1.308251953125000000e+01 -6.774660348892211914e-01 -5.270536988973617554e-02 -2.190514355897903442e-01 -3.960290253162384033e-01
2.998000000000000000e+03 3.342340087890625000e+01 -1.367286682128906250e+01 -6.673244833946228027e-01 -6.113637611269950867e-02 -2.185382694005966187e-01 -4.292176067829132080e-01
2.999000000000000000e+03 5.126202392578125000e+01 1.139088511466979980e+00 -1.155179738998413086e+00 7.861419767141342163e-02 -3.229696750640869141e-01 4.318827092647552490e-01
3.000000000000000000e+03 4.069981765747070312e+01 2.331630140542984009e-01 -1.062169551849365234e+00 7.239444181323051453e-03 -3.164790570735931396e-01 5.762079954147338867e-01
3.001000000000000000e+03 3.393871307373046875e+01 -1.438951969146728516e+01 -6.225605607032775879e-01 -6.743104755878448486e-02 -2.069974690675735474e-01 -4.546210467815399170e-01
3.002000000000000000e+03 4.381350708007812500e+01 1.110655665397644043e+00 -1.071375727653503418e+00 2.394130080938339233e-02 -3.142303228378295898e-01 5.896673798561096191e-01
3.003000000000000000e+03 4.457183074951171875e+01 3.535007536411285400e-01 -1.208669185638427734e+00 1.410971116274595261e-02 -3.583678603172302246e-01 5.577132105827331543e-01
3.004000000000000000e+03 6.321781158447265625e+01 -1.293999958038330078e+01 -4.193844497203826904e-01 1.171999216079711914e+00 2.257844358682632446e-01 9.063547253608703613e-01
3.005000000000000000e+03 3.220560836791992188e+01 -1.384456253051757812e+01 -6.164625287055969238e-01 -6.003783270716667175e-02 -2.029501050710678101e-01 -4.239228963851928711e-01
3.006000000000000000e+03 6.165601730346679688e+01 2.166664600372314453e-01 -7.146200537681579590e-01 7.602837085723876953e-01 1.369908452033996582e-02 -5.641130208969116211e-01
3.007000000000000000e+03 6.085113143920898438e+01 9.277012199163436890e-02 -8.627020716667175293e-01 5.852697491645812988e-01 -8.322969079017639160e-02 -3.898968696594238281e-01
3.008000000000000000e+03 6.324496459960937500e+01 -5.597596168518066406e-01 -6.994097232818603516e-01 9.561989903450012207e-01 7.703677564859390259e-02 -8.675982356071472168e-01
3.009000000000000000e+03 6.310610198974609375e+01 8.090367317199707031e-01 -3.789020180702209473e-01 1.325216650962829590e+00 2.838943898677825928e-01 -1.022237896919250488e+00
3.010000000000000000e+03 3.151015663146972656e+01 -1.365035629272460938e+01 -6.060574650764465332e-01 -5.477867275476455688e-02 -1.982508450746536255e-01 -4.099703431129455566e-01
3.011000000000000000e+03 3.194383621215820312e+01 -1.461973953247070312e+01 -5.491313338279724121e-01 -6.618256121873855591e-02 -1.845941841602325439e-01 -4.450412690639495850e-01
3.012000000000000000e+03 2.800665664672851562e+01 -1.407963943481445312e+01 -4.780034124851226807e-01 -4.726786166429519653e-02 -1.575813889503479004e-01 -3.845210671424865723e-01
3.013000000000000000e+03 3.014175415039062500e+01 -1.482060050964355469e+01 -4.874830543994903564e-01 -6.422593444585800171e-02 -1.655126959085464478e-01 -4.307107925415039062e-01
3.014000000000000000e+03 6.111612701416015625e+01 -1.301565074920654297e+01 -6.823999881744384766e-01 6.540893912315368652e-01 -8.493171073496341705e-03 3.902041912078857422e-01
3.015000000000000000e+03 6.385586929321289062e+01 -4.766895771026611328e-01 -5.704345703125000000e-01 1.179407835006713867e+00 1.826919764280319214e-01 -1.077096343040466309e+00
3.016000000000000000e+03 2.890268898010253906e+01 -1.369478321075439453e+01 -5.216134190559387207e-01 -4.539347812533378601e-02 -1.701020598411560059e-01 -3.849981725215911865e-01
3.017000000000000000e+03 2.631437873840332031e+01 -1.308550071716308594e+01 -4.751964807510375977e-01 -2.849192731082439423e-02 -1.511065214872360229e-01 -3.412635624408721924e-01
3.018000000000000000e+03 2.643088340759277344e+01 -1.482590293884277344e+01 -4.146443009376525879e-01 -5.051285400986671448e-02 -1.395471394062042236e-01 -3.834096789360046387e-01
3.019000000000000000e+03 3.121809387207031250e+01 -1.435117721557617188e+01 -5.520284175872802734e-01 -6.218214705586433411e-02 -1.842631697654724121e-01 -4.299537837505340576e-01
3.020000000000000000e+03 6.442475128173828125e+01 -3.562361299991607666e-01 -4.527179598808288574e-01 1.464881420135498047e+00 3.036490082740783691e-01 -1.302218675613403320e+00
3.021000000000000000e+03 2.288553047180175781e+01 -4.044196903705596924e-01 -1.497783809900283813e-01 -2.036728113889694214e-01 -1.060353592038154602e-01 2.731995582580566406e-01
3.022000000000000000e+03 7.503859710693359375e+01 -1.619285345077514648e-01 -1.130715847015380859e+00 1.015741443634033203e+01 2.708009481430053711e+00 7.979776263236999512e-01
3.023000000000000000e+03 2.714187049865722656e+01 -1.448554420471191406e+01 -4.389163255691528320e-01 -4.908067733049392700e-02 -1.463990956544876099e-01 -3.841467499732971191e-01
3.024000000000000000e+03 6.442874145507812500e+01 -1.289707851409912109e+01 -2.541878819465637207e-01 1.642984986305236816e+00 4.166391193866729736e-01 1.322125911712646484e+00
3.025000000000000000e+03 2.546349525451660156e+01 -1.344240283966064453e+01 -4.360892474651336670e-01 -3.020118363201618195e-02 -1.398871243000030518e-01 -3.416196703910827637e-01
3.026000000000000000e+03 2.316396141052246094e+01 -1.402104473114013672e+01 -3.742896616458892822e-01 -3.543676063418388367e-02 -1.229179278016090393e-01 -3.257368803024291992e-01
3.027000000000000000e+03 7.498835754394531250e+01 -8.174730300903320312e+00 1.871371507644653320e+00 1.119842720031738281e+01 3.920939683914184570e+00 -1.834137320518493652e+00
3.028000000000000000e+03 2.597178077697753906e+01 -1.419108486175537109e+01 -4.251765906810760498e-01 -4.184173420071601868e-02 -1.401055008172988892e-01 -3.664196431636810303e-01
3.029000000000000000e+03 6.372499084472656250e+01 1.428645551204681396e-01 -4.429892599582672119e-01 1.340530157089233398e+00 2.692622840404510498e-01 -1.129941701889038086e+00
3.030000000000000000e+03 7.358661651611328125e+00 5.825253009796142578e+00 4.227121535222977400e-04 -5.704049253836274147e-04 -4.430782428244128823e-05 -2.662164624780416489e-04
3.031000000000000000e+03 2.206373977661132812e+01 -1.254286575317382812e+01 -3.641040623188018799e-01 -2.201910316944122314e-02 -1.158369556069374084e-01 -2.794843614101409912e-01
3.032000000000000000e+03 2.236712646484375000e+01 -1.464116859436035156e+01 -3.496617376804351807e-01 -4.866811633110046387e-02 -1.194989532232284546e-01 -3.221189975738525391e-01
3.033000000000000000e+03 7.484764099121093750e+01 -1.335249900817871094e+01 -1.188577294349670410e+00 9.935606956481933594e+00 2.624109029769897461e+00 -4.814463853836059570e-01
3.034000000000000000e+03 7.362268829345703125e+01 -1.462222003936767578e+01 -1.236512064933776855e+00 9.275520324707031250e+00 2.411702394485473633e+00 3.543273210525512695e-01
3.035000000000000000e+03 6.482623291015625000e+01 -1.253272342681884766e+01 -2.745869755744934082e-01 1.713388800621032715e+00 4.316405653953552246e-01 1.411450743675231934e+00
3.036000000000000000e+03 5.273253631591796875e+01 2.449739724397659302e-01 -1.365232348442077637e+00 8.372113853693008423e-02 -3.844533860683441162e-01 3.845923244953155518e-01
3.037000000000000000e+03 7.418798065185546875e+01 7.107843756675720215e-01 -1.379158616065979004e+00 9.991169929504394531e+00 2.583603382110595703e+00 1.175255849957466125e-01
3.038000000000000000e+03 2.620128440856933594e+01 4.546706676483154297e+00 -3.705241084098815918e-01 -2.589504718780517578e-01 -1.888423711061477661e-01 6.199261546134948730e-01
3.039000000000000000e+03 5.971212005615234375e+01 5.592401027679443359e-01 -8.629121184349060059e-01 4.862691164016723633e-01 -1.129929050803184509e-01 -2.363271415233612061e-01
3.040000000000000000e+03 7.329145050048828125e+01 -1.527093696594238281e+01 -1.132668972015380859e+00 8.886351585388183594e+00 2.326104879379272461e+00 5.537064075469970703e-01
3.041000000000000000e+03 7.473094177246093750e+01 -3.431784629821777344e+00 3.699402511119842529e-01 1.170423126220703125e+01 3.622251510620117188e+00 1.935067772865295410e+00
3.042000000000000000e+03 7.493170166015625000e+01 -1.035502719879150391e+01 -5.377009510993957520e-01 1.124810695648193359e+01 3.213121891021728516e+00 -1.612695217132568359e+00
3.043000000000000000e+03 7.281256866455078125e+01 -9.154231071472167969e+00 -7.009941935539245605e-01 1.505709362030029297e+01 4.306829929351806641e+00 -6.105880737304687500e-01
3.044000000000000000e+03 4.680272674560546875e+01 3.635760247707366943e-01 -1.276148557662963867e+00 1.995412632822990417e-02 -3.768583238124847412e-01 5.333284139633178711e-01
3.045000000000000000e+03 2.243771553039550781e+01 -1.610674095153808594e+01 -3.169086873531341553e-01 -7.211731374263763428e-02 -1.167077943682670593e-01 -3.386068642139434814e-01
3.046000000000000000e+03 7.359027099609375000e+01 -8.871654510498046875e+00 4.933963716030120850e-01 1.411762237548828125e+01 4.383305549621582031e+00 -1.787556171417236328e+00
3.047000000000000000e+03 7.241863250732421875e+01 6.462051868438720703e+00 -4.755096733570098877e-01 7.251001834869384766e+00 2.032647609710693359e+00 -9.813565015792846680e-01
3.048000000000000000e+03 7.085984802246093750e+01 6.739761829376220703e+00 -3.915879726409912109e-01 6.432175159454345703e+00 1.812176227569580078e+00 -1.275897622108459473e+00
3.049000000000000000e+03 2.419100761413574219e+01 1.966402292251586914e+00 -2.511698305606842041e-01 -2.669989764690399170e-01 -1.554506421089172363e-01 4.517600834369659424e-01
3.050000000000000000e+03 2.438678932189941406e+01 6.801891326904296875e-01 -2.461663335561752319e-01 -2.105758786201477051e-01 -1.370226591825485229e-01 3.966269493103027344e-01
3.051000000000000000e+03 2.402341842651367188e+01 9.892677307128906250e+00 -4.384162724018096924e-01 -4.857695400714874268e-01 -2.772557437419891357e-01 6.515514850616455078e-01
3.052000000000000000e+03 2.586979293823242188e+01 3.245316028594970703e+00 -3.351998031139373779e-01 -2.546153664588928223e-01 -1.769445538520812988e-01 5.635026097297668457e-01
3.053000000000000000e+03 7.249533081054687500e+01 -2.317263031005859375e+01 -4.602130874991416931e-02 6.755300521850585938e+00 2.012783765792846680e+00 8.320842981338500977e-01
3.054000000000000000e+03 6.974713897705078125e+01 -2.289992713928222656e+01 4.512294381856918335e-02 5.630156517028808594e+00 1.702583789825439453e+00 1.063000321388244629e+00
3.055000000000000000e+03 6.965703582763671875e+01 2.021781539916992188e+01 2.521195113658905029e-01 5.226392269134521484e+00 1.643553495407104492e+00 -7.798248529434204102e-01
3.056000000000000000e+03 7.279559326171875000e+01 -1.504171848297119141e+01 -1.235385656356811523e+00 8.866443634033203125e+00 2.289317369461059570e+00 8.050031661987304688e-01
3.057000000000000000e+03 7.006214141845703125e+01 1.122190666198730469e+01 3.613922372460365295e-02 5.658961772918701172e+00 1.708530306816101074e+00 -1.127923965454101562e+00
3.058000000000000000e+03 7.074523162841796875e+01 8.413106918334960938e+00 -2.043676227331161499e-01 6.204864501953125000e+00 1.800148963928222656e+00 -1.188419222831726074e+00
3.059000000000000000e+03 9.962703704833984375e+00 2.574395561218261719e+01 -4.703564103692770004e-03 -6.004739403724670410e-01 -1.815532445907592773e-01 4.366655051708221436e-01
3.060000000000000000e+03 7.207022094726562500e+01 -1.818864631652832031e+01 -5.942603945732116699e-01 7.340052604675292969e+00 2.023737668991088867e+00 1.024634599685668945e+00
3.061000000000000000e+03 7.282849884033203125e+01 -1.917516708374023438e+01 -4.638652205467224121e-01 7.452462673187255859e+00 2.096579313278198242e+00 8.378173112869262695e-01
3.062000000000000000e+03 7.264944458007812500e+01 1.394913673400878906e+01 6.756559759378433228e-02 6.406684398651123047e+00 1.942275047302246094e+00 -8.544157743453979492e-01
3.063000000000000000e+03 6.997689819335937500e+01 1.249414825439453125e+01 9.494616091251373291e-02 5.567482471466064453e+00 1.698728561401367188e+00 -1.065555572509765625e+00
3.064000000000000000e+03 7.164998626708984375e+01 -2.033957290649414062e+01 -2.933966219425201416e-01 6.746519088745117188e+00 1.935936689376831055e+00 1.021705269813537598e+00
3.065000000000000000e+03 7.137678527832031250e+01 -2.166650199890136719e+01 -1.441193222999572754e-01 6.484972476959228516e+00 1.902255892753601074e+00 9.916419982910156250e-01
3.066000000000000000e+03 7.306712341308593750e+01 1.763933420181274414e+00 -1.314416289329528809e+00 9.129348754882812500e+00 2.344479799270629883e+00 -6.959566473960876465e-01
3.067000000000000000e+03 7.307863616943359375e+01 4.332570075988769531e+00 -8.215480446815490723e-01 8.065778732299804688e+00 2.173269271850585938e+00 -7.993711829185485840e-01
3.068000000000000000e+03 7.109249877929687500e+01 1.535465526580810547e+01 1.476197689771652222e-01 5.818767070770263672e+00 1.789916038513183594e+00 -9.052395820617675781e-01
3.069000000000000000e+03 1.408625411987304688e+01 2.415483665466308594e+01 2.302890177816152573e-03 -8.263009190559387207e-01 -2.471994012594223022e-01 4.430759549140930176e-01
3.070000000000000000e+03 9.427359580993652344e+00 2.715312194824218750e+01 3.922924026846885681e-02 -5.924990177154541016e-01 -1.659809350967407227e-01 3.967452049255371094e-01
3.071000000000000000e+03 1.356065845489501953e+01 3.442708587646484375e+01 2.740382850170135498e-01 -6.877418160438537598e-01 -1.241110563278198242e-01 2.245003730058670044e-01
3.072000000000000000e+03 1.184000968933105469e+01 3.008114624023437500e+01 1.663224697113037109e-01 -6.930201649665832520e-01 -1.580093055963516235e-01 3.435323536396026611e-01
3.073000000000000000e+03 7.130141448974609375e+01 2.226293754577636719e+01 1.864103823900222778e-01 5.577547073364257812e+00 1.729187250137329102e+00 -6.540483236312866211e-01
3.074000000000000000e+03 6.947270202636718750e+01 1.849925041198730469e+01 2.457963079214096069e-01 5.208438873291015625e+00 1.636270523071289062e+00 -8.476212024688720703e-01
3.075000000000000000e+03 7.150602722167968750e+01 5.939213275909423828e+00 -5.231554508209228516e-01 6.903933048248291016e+00 1.914233326911926270e+00 -1.183383464813232422e+00
3.076000000000000000e+03 7.178221893310546875e+01 7.574719429016113281e+00 -3.246334493160247803e-01 6.740430831909179688e+00 1.924739122390747070e+00 -1.084190011024475098e+00
3.077000000000000000e+03 7.029597473144531250e+01 2.545849800109863281e+01 2.090687006711959839e-01 5.231753349304199219e+00 1.632246613502502441e+00 -5.637360811233520508e-01
3.078000000000000000e+03 7.081760406494140625e+01 2.368547058105468750e+01 2.109219133853912354e-01 5.442251682281494141e+00 1.695952057838439941e+00 -6.119114160537719727e-01
3.079000000000000000e+03 2.393384552001953125e+01 1.676395606994628906e+01 -3.126260042190551758e-01 -5.236361622810363770e-01 -2.508786618709564209e-01 4.587814509868621826e-01
3.080000000000000000e+03 1.043957901000976562e+01 -2.883607864379882812e+01 4.974532127380371094e-02 -3.025692701339721680e-01 -7.584718614816665649e-02 -2.017786353826522827e-01
3.081000000000000000e+03 2.061861610412597656e+01 1.971872711181640625e+01 -2.300115674734115601e-01 -7.642758488655090332e-01 -2.982862293720245361e-01 3.638277947902679443e-01
3.082000000000000000e+03 1.926557922363281250e+01 2.258605194091796875e+01 -1.041901018470525742e-02 -7.972923517227172852e-01 -2.423133999109268188e-01 3.381647169589996338e-01
3.083000000000000000e+03 1.178359603881835938e+01 -2.626112365722656250e+01 1.884952187538146973e-02 -2.962501645088195801e-01 -8.322019129991531372e-02 -2.245492190122604370e-01
3.084000000000000000e+03 1.221829795837402344e+01 -2.460753631591796875e+01 -9.372795000672340393e-03 -2.933115661144256592e-01 -9.080530703067779541e-02 -2.291764169931411743e-01
3.085000000000000000e+03 9.847126960754394531e+00 -2.264411544799804688e+01 -6.539977341890335083e-02 -2.593396008014678955e-01 -9.742181748151779175e-02 -2.306701689958572388e-01
3.086000000000000000e+03 8.192981719970703125e+00 -2.183545494079589844e+01 -9.707979112863540649e-02 -2.002879530191421509e-01 -8.921032398939132690e-02 -2.223536372184753418e-01
3.087000000000000000e+03 6.990681457519531250e+01 1.000297641754150391e+01 -3.467203676700592041e-02 5.666093349456787109e+00 1.689426422119140625e+00 -1.203198552131652832e+00
3.088000000000000000e+03 6.960889434814453125e+01 -2.582066345214843750e+01 2.033929824829101562e-01 5.456814289093017578e+00 1.698062181472778320e+00 9.121867418289184570e-01
3.089000000000000000e+03 1.742743110656738281e+01 2.205169486999511719e+01 -9.061185270547866821e-02 -8.748597502708435059e-01 -2.896414995193481445e-01 3.824551701545715332e-01
3.090000000000000000e+03 1.466509246826171875e+01 2.534525489807128906e+01 9.408624470233917236e-02 -8.129893541336059570e-01 -2.156709283590316772e-01 4.005436897277832031e-01
3.091000000000000000e+03 1.897369384765625000e+01 -2.275336265563964844e+01 -7.184888422489166260e-02 -2.257323712110519409e-01 -8.927437663078308105e-02 -2.887223362922668457e-01
3.092000000000000000e+03 2.509905242919921875e+01 1.344529151916503906e+01 -4.040152132511138916e-01 -4.316327273845672607e-01 -2.506943941116333008e-01 5.764532685279846191e-01
3.093000000000000000e+03 2.291238403320312500e+01 -2.114426231384277344e+01 -1.350068598985671997e-01 -1.608809232711791992e-01 -8.876633644104003906e-02 -3.606673777103424072e-01
3.094000000000000000e+03 2.272917366027832031e+01 -1.860100746154785156e+01 -2.288952916860580444e-01 -1.162720471620559692e-01 -1.035502031445503235e-01 -3.630324006080627441e-01
3.095000000000000000e+03 6.910785198211669922e+00 -2.198068428039550781e+01 -8.406314253807067871e-02 -1.347877681255340576e-01 -6.565527617931365967e-02 -1.674145013093948364e-01
3.096000000000000000e+03 6.855930328369140625e+01 2.491435432434082031e+01 2.882564961910247803e-01 4.851139068603515625e+00 1.541818737983703613e+00 -6.270696520805358887e-01
3.097000000000000000e+03 7.198018646240234375e+01 -2.561477899551391602e+00 -1.814164757728576660e+00 1.307902812957763672e+01 3.379458904266357422e+00 -1.636239767074584961e+00
3.098000000000000000e+03 6.882489013671875000e+01 -3.747581958770751953e+00 3.155727386474609375e-01 3.627856492996215820e+00 1.183028817176818848e+00 -3.725603580474853516e+00
3.099000000000000000e+03 7.101785278320312500e+01 -3.093003034591674805e+00 -1.436704754829406738e+00 1.219678020477294922e+01 3.228022813796997070e+00 -3.635229825973510742e+00
3.100000000000000000e+03 6.883353424072265625e+01 -9.784586906433105469e+00 7.111182808876037598e-02 4.508730411529541016e+00 1.373952627182006836e+00 3.720504522323608398e+00
3.101000000000000000e+03 6.979453277587890625e+01 -2.834856510162353516e+00 -4.660979807376861572e-01 7.469094753265380859e+00 2.100898981094360352e+00 -4.333609104156494141e+00
3.102000000000000000e+03 7.423006439208984375e+01 -1.065918350219726562e+01 -1.008682847023010254e+00 1.180961894989013672e+01 3.240280866622924805e+00 -1.170301079750061035e+00
3.103000000000000000e+03 7.151127624511718750e+01 -9.548210144042968750e+00 -1.615813612937927246e+00 1.370620918273925781e+01 3.627118587493896484e+00 2.704753398895263672e+00
3.104000000000000000e+03 7.244576263427734375e+01 -3.310103178024291992e+00 -1.386734247207641602e+00 1.478088569641113281e+01 4.018245697021484375e+00 -4.753655791282653809e-01
3.105000000000000000e+03 6.765097808837890625e+01 -1.018773365020751953e+01 -6.571502983570098877e-02 2.752798795700073242e+00 8.061251640319824219e-01 2.713216543197631836e+00
3.106000000000000000e+03 7.156050872802734375e+01 -1.006433677673339844e+01 -1.744140148162841797e+00 1.267324924468994141e+01 3.278732776641845703e+00 2.499925374984741211e+00
3.107000000000000000e+03 7.250663757324218750e+01 -9.359293937683105469e+00 -1.235749840736389160e+00 1.487501049041748047e+01 4.091778278350830078e+00 2.717424929141998291e-01
3.108000000000000000e+03 6.815170288085937500e+01 -1.065513229370117188e+01 -8.818494528532028198e-02 3.885403633117675781e+00 1.139165639877319336e+00 3.096828222274780273e+00
3.109000000000000000e+03 7.180423736572265625e+01 -2.923262119293212891e+00 -1.745309114456176758e+00 1.346061515808105469e+01 3.514591693878173828e+00 -1.979768991470336914e+00
3.110000000000000000e+03 7.160002136230468750e+01 -3.844036579132080078e+00 -1.463839054107666016e+00 1.560402679443359375e+01 4.242056369781494141e+00 -2.582175016403198242e+00
3.111000000000000000e+03 7.438991546630859375e+01 -2.514017581939697266e+00 -6.989845037460327148e-01 1.183512306213378906e+01 3.340841531753540039e+00 1.409639835357666016e+00
3.112000000000000000e+03 7.069661712646484375e+01 -3.018719911575317383e+00 -1.152533769607543945e+00 1.090221405029296875e+01 2.924904108047485352e+00 -4.101933002471923828e+00
3.113000000000000000e+03 7.242263031005859375e+01 -1.001212501525878906e+01 -1.645909428596496582e+00 1.368646430969238281e+01 3.612166404724121094e+00 7.802863717079162598e-01
3.114000000000000000e+03 7.200395202636718750e+01 -1.009284019470214844e+01 -1.795676827430725098e+00 1.324767303466796875e+01 3.435599088668823242e+00 1.611350059509277344e+00
3.115000000000000000e+03 7.041204833984375000e+01 -2.885144472122192383e+00 -9.566451907157897949e-01 9.751267433166503906e+00 2.638386487960815430e+00 -4.247017860412597656e+00
3.116000000000000000e+03 6.798344421386718750e+01 -2.375462293624877930e+00 -1.174857616424560547e-01 3.414761304855346680e+00 9.891826510429382324e-01 -2.997692823410034180e+00
3.117000000000000000e+03 7.421672058105468750e+01 -8.524106979370117188e+00 1.650789618492126465e+00 1.275984287261962891e+01 4.323189735412597656e+00 -2.099365472793579102e+00
3.118000000000000000e+03 7.330111694335937500e+01 -8.631937980651855469e+00 7.885156273841857910e-01 1.488149261474609375e+01 4.701002597808837891e+00 -1.833960294723510742e+00
3.119000000000000000e+03 7.334560394287109375e+01 -9.911597251892089844e+00 -1.040659785270690918e+00 1.340676116943359375e+01 3.709830522537231445e+00 -7.207504510879516602e-01
3.120000000000000000e+03 7.417733001708984375e+01 -7.925947189331054688e+00 2.781841278076171875e+00 1.276075363159179688e+01 4.662778377532958984e+00 -2.068495512008666992e+00
3.121000000000000000e+03 7.002150726318359375e+01 -9.663328170776367188e+00 -4.280447661876678467e-01 8.583656311035156250e+00 2.446683406829833984e+00 4.690796852111816406e+00
3.122000000000000000e+03 6.964334869384765625e+01 -1.023301315307617188e+01 -4.596483111381530762e-01 7.107759952545166016e+00 1.994433522224426270e+00 4.037996292114257812e+00
3.123000000000000000e+03 7.415198516845703125e+01 -3.697644710540771484e+00 4.566422104835510254e-01 1.284434127807617188e+01 3.990295171737670898e+00 1.897205114364624023e+00
3.124000000000000000e+03 7.439764404296875000e+01 -5.199254512786865234e+00 3.260024785995483398e+00 1.215111446380615234e+01 4.623341560363769531e+00 1.755383253097534180e+00
3.125000000000000000e+03 7.111058807373046875e+01 -9.574748992919921875e+00 -1.416296958923339844e+00 1.243370723724365234e+01 3.305223226547241211e+00 3.635901689529418945e+00
3.126000000000000000e+03 7.519700622558593750e+01 -4.929824829101562500e+00 2.242601871490478516e+00 1.075593852996826172e+01 3.899562120437622070e+00 1.660887360572814941e+00
3.127000000000000000e+03 7.467062377929687500e+01 -5.700775146484375000e+00 3.723747491836547852e+00 1.142655563354492188e+01 4.545090675354003906e+00 1.044913291931152344e+00
3.128000000000000000e+03 6.814124298095703125e+01 -9.746846199035644531e+00 8.607885986566543579e-02 3.100271701812744141e+00 9.559051990509033203e-01 3.044397115707397461e+00
3.129000000000000000e+03 7.356791687011718750e+01 -8.405041694641113281e+00 1.575196027755737305e+00 1.430241012573242188e+01 4.763281822204589844e+00 -2.083663702011108398e+00
3.130000000000000000e+03 7.456460571289062500e+01 -8.965139389038085938e+00 7.651322484016418457e-01 1.202117252349853516e+01 3.835891246795654297e+00 -1.993843197822570801e+00
3.131000000000000000e+03 6.685209655761718750e+01 -1.097047328948974609e+01 -2.210750728845596313e-01 2.427206516265869141e+00 6.618394255638122559e-01 2.199208736419677734e+00
3.132000000000000000e+03 7.481766510009765625e+01 -7.152952194213867188e+00 3.591501951217651367e+00 1.116122817993164062e+01 4.425818920135498047e+00 -1.058271527290344238e+00
3.133000000000000000e+03 6.813469696044921875e+01 -2.777053356170654297e+00 -2.376830205321311951e-02 3.304349184036254883e+00 9.841742515563964844e-01 -3.111581087112426758e+00
3.134000000000000000e+03 6.638257598876953125e+01 -1.534041166305541992e+00 -3.211165070533752441e-01 2.134459972381591797e+00 5.440030097961425781e-01 -2.026100873947143555e+00
3.135000000000000000e+03 7.115950775146484375e+01 -2.114082813262939453e+00 -1.608745217323303223e+00 1.094771671295166016e+01 2.801691293716430664e+00 -2.873262166976928711e+00
3.136000000000000000e+03 6.557945251464843750e+01 -7.650519013404846191e-01 -3.462079465389251709e-01 1.942571282386779785e+00 4.789089858531951904e-01 -1.727825999259948730e+00
3.137000000000000000e+03 7.346925354003906250e+01 4.091868102550506592e-01 -1.531097292900085449e+00 1.006172657012939453e+01 2.559188604354858398e+00 -3.142513036727905273e-01
3.138000000000000000e+03 7.375836181640625000e+01 1.621282935142517090e+00 -1.269932270050048828e+00 9.401939392089843750e+00 2.439602375030517578e+00 -2.750931382179260254e-01
3.139000000000000000e+03 6.650369262695312500e+01 -1.094090461730957031e+01 -3.115437030792236328e-01 2.002001523971557617e+00 5.071373581886291504e-01 1.942395329475402832e+00
3.140000000000000000e+03 3.830943298339843750e+01 1.065539240837097168e+00 -8.792357444763183594e-01 2.258900785818696022e-03 -2.630930542945861816e-01 6.147351861000061035e-01
3.141000000000000000e+03 3.992177200317382812e+01 2.332100719213485718e-01 -1.025884389877319336e+00 5.381548777222633362e-03 -3.061508536338806152e-01 5.773896574974060059e-01
3.142000000000000000e+03 7.372138214111328125e+01 -1.239603614807128906e+01 -1.530490159988403320e+00 1.071846580505371094e+01 2.756392478942871094e+00 -5.198857933282852173e-02
3.143000000000000000e+03 6.573012542724609375e+01 -1.214900398254394531e+01 -2.550429701805114746e-01 2.088641166687011719e+00 5.500794053077697754e-01 1.748831868171691895e+00
3.144000000000000000e+03 2.749410629272460938e+01 1.038020491600036621e+00 -4.023811221122741699e-01 -1.381603926420211792e-01 -1.621624529361724854e-01 5.099147558212280273e-01
3.145000000000000000e+03 2.719050979614257812e+01 6.500491499900817871e-02 -3.912254571914672852e-01 -1.171242520213127136e-01 -1.525049060583114624e-01 4.510056376457214355e-01
3.146000000000000000e+03 2.828123474121093750e+01 1.431004643440246582e+00 -4.359077513217926025e-01 -1.280330121517181396e-01 -1.691822260618209839e-01 5.448560118675231934e-01
3.147000000000000000e+03 3.025908088684082031e+01 1.509864330291748047e+00 -5.243931412696838379e-01 -8.281771838665008545e-02 -1.821632534265518188e-01 5.829280018806457520e-01
3.148000000000000000e+03 7.464264678955078125e+01 -1.906580209732055664e+00 -8.633060455322265625e-01 1.131846237182617188e+01 3.136546850204467773e+00 1.321037650108337402e+00
3.149000000000000000e+03 3.070280647277832031e+01 9.237273931503295898e-01 -5.572987794876098633e-01 -6.607925146818161011e-02 -1.870134025812149048e-01 5.627511739730834961e-01
3.150000000000000000e+03 3.000023651123046875e+01 3.789412081241607666e-01 -5.306473374366760254e-01 -6.941185146570205688e-02 -1.800177544355392456e-01 5.236243009567260742e-01
3.151000000000000000e+03 7.520287322998046875e+01 -3.533552169799804688e+00 5.856902599334716797e-01 1.109271526336669922e+01 3.503521680831909180e+00 1.996527194976806641e+00
3.152000000000000000e+03 5.335621261596679688e+01 8.520441651344299316e-01 -1.191368699073791504e+00 1.190227344632148743e-01 -3.217037916183471680e-01 3.422377407550811768e-01
3.153000000000000000e+03 4.249569702148437500e+01 -1.452168655395507812e+01 -8.206379413604736328e-01 -4.150622710585594177e-02 -2.586432397365570068e-01 -5.208806395530700684e-01
3.154000000000000000e+03 4.505315399169921875e+01 -1.449089717864990234e+01 -8.709287047386169434e-01 -2.800244092941284180e-02 -2.696793377399444580e-01 -5.202963948249816895e-01
3.155000000000000000e+03 4.563809967041015625e+01 -1.334445667266845703e+01 -1.090945243835449219e+00 -2.477669715881347656e-02 -3.347165882587432861e-01 -4.994859099388122559e-01
3.156000000000000000e+03 4.174165344238281250e+01 -1.410993862152099609e+01 -8.678841590881347656e-01 -4.375410079956054688e-02 -2.734914720058441162e-01 -5.114628076553344727e-01
3.157000000000000000e+03 4.418012237548828125e+01 -1.468118095397949219e+01 -8.310547471046447754e-01 -3.693062439560890198e-02 -2.603956162929534912e-01 -5.246991515159606934e-01
3.158000000000000000e+03 4.697455215454101562e+01 -1.314320182800292969e+01 -1.153228282928466797e+00 -1.296158973127603531e-02 -3.498569726943969727e-01 -4.917866289615631104e-01
3.159000000000000000e+03 4.721197128295898438e+01 -1.483488178253173828e+01 -8.222096562385559082e-01 7.012024056166410446e-03 -2.445592880249023438e-01 -5.072519183158874512e-01
3.160000000000000000e+03 4.133221435546875000e+01 -1.492652511596679688e+01 -7.382337450981140137e-01 -4.934775084257125854e-02 -2.362744510173797607e-01 -5.268390774726867676e-01
3.161000000000000000e+03 4.890198898315429688e+01 -1.424055480957031250e+01 -9.504140615463256836e-01 2.258979901671409607e-02 -2.783472836017608643e-01 -4.845352172851562500e-01
3.162000000000000000e+03 5.074365234375000000e+01 -1.435767841339111328e+01 -9.263503551483154297e-01 4.955429211258888245e-02 -2.630388140678405762e-01 -4.461000859737396240e-01
3.163000000000000000e+03 3.434554672241210938e+01 7.735234498977661133e-01 -7.248517870903015137e-01 -1.903194375336170197e-02 -2.231651246547698975e-01 5.917859673500061035e-01
3.164000000000000000e+03 4.273728179931640625e+01 -1.388256835937500000e+01 -9.125906825065612793e-01 -4.391141608357429504e-02 -2.869506478309631348e-01 -5.094875097274780273e-01
3.165000000000000000e+03 5.120077514648437500e+01 -1.339110660552978516e+01 -1.142258763313293457e+00 3.754796087741851807e-02 -3.314132392406463623e-01 -4.442377388477325439e-01
3.166000000000000000e+03 3.511855697631835938e+01 8.594373464584350586e-01 -7.566065192222595215e-01 -1.317194383591413498e-02 -2.309335470199584961e-01 5.996365547180175781e-01
3.167000000000000000e+03 3.790758895874023438e+01 -1.449150848388671875e+01 -7.190694212913513184e-01 -6.222238019108772278e-02 -2.343875318765640259e-01 -4.949583411216735840e-01
3.168000000000000000e+03 4.963154602050781250e+01 -1.385342121124267578e+01 -1.047573208808898926e+00 2.003023773431777954e-02 -3.082628846168518066e-01 -4.697904586791992188e-01
3.169000000000000000e+03 4.850103378295898438e+01 -1.308736705780029297e+01 -1.206116795539855957e+00 -1.730372663587331772e-03 -3.623541593551635742e-01 -4.799984097480773926e-01
3.170000000000000000e+03 5.181628799438476562e+01 -1.474526023864746094e+01 -7.874457836151123047e-01 8.725443482398986816e-02 -2.100574076175689697e-01 -4.048445522785186768e-01
3.171000000000000000e+03 5.203946685791015625e+01 -1.407007980346679688e+01 -9.648308753967285156e-01 7.530085742473602295e-02 -2.668589949607849121e-01 -4.105831384658813477e-01
3.172000000000000000e+03 5.341386032104492188e+01 -1.304109668731689453e+01 -1.222974061965942383e+00 5.725384503602981567e-02 -3.497160375118255615e-01 -3.872611820697784424e-01
3.173000000000000000e+03 5.358084106445312500e+01 -1.355735206604003906e+01 -1.070215702056884766e+00 8.784049004316329956e-02 -2.947125434875488281e-01 -3.651852905750274658e-01
3.174000000000000000e+03 5.864258193969726562e+01 -1.382054519653320312e+01 -7.079906463623046875e-01 4.411787390708923340e-01 -8.004357665777206421e-02 6.655289977788925171e-02
3.175000000000000000e+03 5.672861862182617188e+01 -1.292295360565185547e+01 -1.137713670730590820e+00 1.828252226114273071e-01 -2.864665389060974121e-01 -2.025497108697891235e-01
3.176000000000000000e+03 3.756869506835937500e+01 2.049440741539001465e-01 -9.157155156135559082e-01 6.396478274837136269e-04 -2.745227515697479248e-01 5.759664177894592285e-01
3.177000000000000000e+03 5.612952804565429688e+01 -1.307376480102539062e+01 -1.113577842712402344e+00 1.700064986944198608e-01 -2.830713987350463867e-01 -2.378460019826889038e-01
3.178000000000000000e+03 5.682566452026367188e+01 -1.440478515625000000e+01 -6.897535920143127441e-01 3.196500241756439209e-01 -1.110310629010200500e-01 -1.025942191481590271e-01
3.179000000000000000e+03 5.497820663452148438e+01 -1.311071586608886719e+01 -1.143929243087768555e+00 1.250704377889633179e-01 -3.056576550006866455e-01 -3.097749054431915283e-01
3.180000000000000000e+03 5.448511886596679688e+01 -1.367927360534667969e+01 -9.988235235214233398e-01 1.303585767745971680e-01 -2.605394721031188965e-01 -3.141835629940032959e-01
3.181000000000000000e+03 3.835642623901367188e+01 2.263540327548980713e-01 -9.525071382522583008e-01 2.591044176369905472e-03 -2.849748432636260986e-01 5.774098634719848633e-01
3.182000000000000000e+03 3.657467269897460938e+01 1.845704793930053711e+00 -7.527782917022705078e-01 -6.754279136657714844e-03 -2.278597801923751831e-01 6.430802941322326660e-01
3.183000000000000000e+03 3.555946350097656250e+01 -1.386447143554687500e+01 -7.181318402290344238e-01 -6.292022019624710083e-02 -2.343156337738037109e-01 -4.564832746982574463e-01
3.184000000000000000e+03 5.392633438110351562e+01 -1.409074115753173828e+01 -9.128762483596801758e-01 1.297560483217239380e-01 -2.349360585212707520e-01 -3.257282674312591553e-01
3.185000000000000000e+03 5.826110839843750000e+01 1.628000378608703613e+00 -6.963686943054199219e-01 4.767738580703735352e-01 -6.587846577167510986e-02 -1.314140409231185913e-01
3.186000000000000000e+03 5.945087051391601562e+01 -1.384336757659912109e+01 -6.200284957885742188e-01 5.460619330406188965e-01 -2.218998223543167114e-02 1.883719414472579956e-01
3.187000000000000000e+03 5.555994033813476562e+01 -1.358923625946044922e+01 -9.858795404434204102e-01 1.862405687570571899e-01 -2.398916929960250854e-01 -2.549470067024230957e-01
3.188000000000000000e+03 3.669290161132812500e+01 9.882062077522277832e-01 -8.169730901718139648e-01 -3.732241690158843994e-03 -2.462116032838821411e-01 6.112362742424011230e-01
3.189000000000000000e+03 5.498540115356445312e+01 -1.424737548828125000e+01 -8.286994099617004395e-01 1.905102133750915527e-01 -1.914567649364471436e-01 -2.613463401794433594e-01
3.190000000000000000e+03 5.690526199340820312e+01 1.317163228988647461e+00 -8.815449476242065430e-01 3.225950896739959717e-01 -1.676849573850631714e-01 5.347957462072372437e-02
3.191000000000000000e+03 5.634896850585937500e+01 4.137123227119445801e-01 -1.200760006904602051e+00 1.965379118919372559e-01 -3.012666106224060059e-01 1.719790995121002197e-01
3.192000000000000000e+03 7.348467254638671875e+01 -9.428831934928894043e-02 -1.589245915412902832e+00 1.049079608917236328e+01 2.670465230941772461e+00 -1.768394261598587036e-01
3.193000000000000000e+03 3.718670654296875000e+01 -1.507987499237060547e+01 -6.353504061698913574e-01 -7.166773825883865356e-02 -2.121054381132125854e-01 -5.031984448432922363e-01
3.194000000000000000e+03 3.857443237304687500e+01 -1.524055480957031250e+01 -6.470085382461547852e-01 -6.662432849407196045e-02 -2.140898704528808594e-01 -5.183347463607788086e-01
3.195000000000000000e+03 5.048986816406250000e+01 1.148124933242797852e+00 -1.162515163421630859e+00 6.737772375345230103e-02 -3.285412490367889404e-01 4.549016356468200684e-01
3.196000000000000000e+03 5.465770339965820312e+01 1.074047446250915527e+00 -1.085528373718261719e+00 1.721470355987548828e-01 -2.740144133567810059e-01 2.597564458847045898e-01
3.197000000000000000e+03 3.991327285766601562e+01 1.047988533973693848e+00 -9.429837465286254883e-01 6.501366384327411652e-03 -2.809447050094604492e-01 6.117572784423828125e-01
3.198000000000000000e+03 4.903487777709960938e+01 3.535221517086029053e-01 -1.327091693878173828e+00 3.657698631286621094e-02 -3.871544003486633301e-01 4.939757883548736572e-01
3.199000000000000000e+03 4.380664825439453125e+01 3.237485885620117188e-01 -1.183922767639160156e+00 1.292953826487064362e-02 -3.512979745864868164e-01 5.622533559799194336e-01
3.200000000000000000e+03 4.148551940917968750e+01 9.951111078262329102e-01 -1.005422472953796387e+00 1.238269731402397156e-02 -2.979119420051574707e-01 6.042613983154296875e-01
3.201000000000000000e+03 3.474235534667968750e+01 -1.408411693572998047e+01 -6.715140342712402344e-01 -6.591596454381942749e-02 -2.212290018796920776e-01 -4.544254243373870850e-01
3.202000000000000000e+03 4.974164962768554688e+01 1.118248939514160156e+00 -1.167514562606811523e+00 6.370631605386734009e-02 -3.311424553394317627e-01 4.810137450695037842e-01
3.203000000000000000e+03 4.147798538208007812e+01 2.359455972909927368e-01 -1.096440434455871582e+00 8.841485716402530670e-03 -3.262796998023986816e-01 5.736252069473266602e-01
3.204000000000000000e+03 4.301087570190429688e+01 1.813258409500122070e+00 -9.486705660820007324e-01 2.288467250764369965e-02 -2.777357697486877441e-01 6.169276237487792969e-01
3.205000000000000000e+03 4.532079315185546875e+01 3.686184585094451904e-01 -1.234509825706481934e+00 1.499432325363159180e-02 -3.658546507358551025e-01 5.497465729713439941e-01
3.206000000000000000e+03 4.303294372558593750e+01 1.042141675949096680e+00 -1.051582813262939453e+00 1.925855316221714020e-02 -3.096972703933715820e-01 5.977581739425659180e-01
3.207000000000000000e+03 6.025455474853515625e+01 -1.384076118469238281e+01 -5.443537831306457520e-01 6.641302704811096191e-01 3.593294695019721985e-02 3.217126131057739258e-01
3.208000000000000000e+03 6.186730957031250000e+01 -1.299105930328369141e+01 -5.872181653976440430e-01 8.054821491241455078e-01 6.547918915748596191e-02 5.556651353836059570e-01
3.209000000000000000e+03 3.262876892089843750e+01 -1.480202198028564453e+01 -5.527814626693725586e-01 -7.077149301767349243e-02 -1.870658844709396362e-01 -4.531182944774627686e-01
3.210000000000000000e+03 5.343202209472656250e+01 2.117532789707183838e-01 -1.356753110885620117e+00 9.538584202527999878e-02 -3.784101903438568115e-01 3.518402576446533203e-01
3.211000000000000000e+03 3.911571502685546875e+01 1.070839643478393555e+00 -9.099292755126953125e-01 4.877154715359210968e-03 -2.715156376361846924e-01 6.142942309379577637e-01
3.212000000000000000e+03 6.181987762451171875e+01 -1.380599403381347656e+01 -3.800548613071441650e-01 9.915842413902282715e-01 1.834588199853897095e-01 6.478774547576904297e-01
3.213000000000000000e+03 6.257836532592773438e+01 -1.378772926330566406e+01 -3.032790720462799072e-01 1.213743925094604492e+00 2.731394469738006592e-01 8.454349040985107422e-01
3.214000000000000000e+03 6.104646682739257812e+01 -1.382676601409912109e+01 -4.620561599731445312e-01 8.116602301597595215e-01 1.048812121152877808e-01 4.774256348609924316e-01
3.215000000000000000e+03 6.258003234863281250e+01 -1.296040725708007812e+01 -4.937402606010437012e-01 9.655284881591796875e-01 1.415364742279052734e-01 7.383572459220886230e-01
3.216000000000000000e+03 6.495636749267578125e+01 -1.878854483366012573e-01 -3.447692692279815674e-01 1.831083655357360840e+00 4.458943009376525879e-01 -1.536336660385131836e+00
3.217000000000000000e+03 2.897277450561523438e+01 -1.515935230255126953e+01 -4.443389177322387695e-01 -6.166974827647209167e-02 -1.518025994300842285e-01 -4.239308834075927734e-01
3.218000000000000000e+03 3.092432785034179688e+01 -1.522303676605224609e+01 -4.865024387836456299e-01 -7.082423567771911621e-02 -1.671980023384094238e-01 -4.471155703067779541e-01
3.219000000000000000e+03 6.244570541381835938e+01 9.308936595916748047e-01 -4.397791624069213867e-01 1.134803771972656250e+00 2.085073888301849365e-01 -8.574397563934326172e-01
3.220000000000000000e+03 2.738982582092285156e+01 -1.533666324615478516e+01 -4.113807678222656250e-01 -6.066300347447395325e-02 -1.416131258010864258e-01 -4.047085046768188477e-01
3.221000000000000000e+03 2.846183586120605469e+01 -1.588207435607910156e+01 -3.920609354972839355e-01 -7.144685089588165283e-02 -1.390523463487625122e-01 -4.285359978675842285e-01
3.222000000000000000e+03 6.374315643310546875e+01 -1.348314762115478516e+01 -2.195026278495788574e-01 1.545354366302490234e+00 3.977555334568023682e-01 1.143877863883972168e+00
3.223000000000000000e+03 6.373097991943359375e+01 -1.299519729614257812e+01 -3.543598949909210205e-01 1.368877291679382324e+00 3.043552339076995850e-01 1.071224093437194824e+00
3.224000000000000000e+03 7.299127197265625000e+01 1.093736290931701660e+00 -1.455919981002807617e+00 9.503138542175292969e+00 2.414165735244750977e+00 -6.829431056976318359e-01
3.225000000000000000e+03 7.416815185546875000e+01 -1.107475566864013672e+01 -1.226584434509277344e+00 1.151779460906982422e+01 3.087363004684448242e+00 -8.674639463424682617e-01
3.226000000000000000e+03 7.500684356689453125e+01 -8.683426856994628906e+00 1.234320998191833496e+00 1.133921241760253906e+01 3.772059917449951172e+00 -1.997696995735168457e+00
3.227000000000000000e+03 4.755050277709960938e+01 1.099911689758300781e+00 -1.148520827293395996e+00 3.688472509384155273e-02 -3.334908187389373779e-01 5.338658690452575684e-01
3.228000000000000000e+03 4.458622360229492188e+01 1.175452113151550293e+00 -1.082938313484191895e+00 2.149605005979537964e-02 -3.184326589107513428e-01 5.792688131332397461e-01
3.229000000000000000e+03 2.640368843078613281e+01 -1.783373069763183594e+01 -2.810562849044799805e-01 -9.638065844774246216e-02 -1.132310852408409119e-01 -4.212477803230285645e-01
3.230000000000000000e+03 7.388680267333984375e+01 -1.391837596893310547e+01 -1.345471382141113281e+00 9.706577301025390625e+00 2.508331775665283203e+00 1.443311423063278198e-01
3.231000000000000000e+03 6.319581222534179688e+01 1.493577361106872559e+00 -2.626124918460845947e-01 1.553261518478393555e+00 3.871947228908538818e-01 -1.127356648445129395e+00
3.232000000000000000e+03 2.528825759887695312e+01 -1.477043151855468750e+01 -3.936291635036468506e-01 -4.693141579627990723e-02 -1.321681737899780273e-01 -3.696051239967346191e-01
3.233000000000000000e+03 5.397508239746093750e+01 9.629164338111877441e-01 -1.146904587745666504e+00 1.411309093236923218e-01 -3.017320930957794189e-01 3.068876564502716064e-01
3.234000000000000000e+03 2.584339141845703125e+01 5.685231685638427734e+00 -3.696588575839996338e-01 -3.099145889282226562e-01 -2.038720399141311646e-01 6.437010765075683594e-01
3.235000000000000000e+03 6.481500244140625000e+01 -1.340958976745605469e+01 -1.557535380125045776e-01 2.025756120681762695e+00 5.610007643699645996e-01 1.495763778686523438e+00
3.236000000000000000e+03 6.167627716064453125e+01 1.133999109268188477e+00 -4.821126759052276611e-01 9.716719985008239746e-01 1.468677967786788940e-01 -6.845895648002624512e-01
3.237000000000000000e+03 4.070270156860351562e+01 1.013540983200073242e+00 -9.748037457466125488e-01 9.918059222400188446e-03 -2.894656956195831299e-01 6.082292199134826660e-01
3.238000000000000000e+03 7.236859893798828125e+01 2.503777265548706055e+00 -1.174952626228332520e+00 8.453322410583496094e+00 2.183510780334472656e+00 -1.059342026710510254e+00
3.239000000000000000e+03 5.925113296508789062e+01 1.245696187019348145e+00 -6.934686303138732910e-01 5.534296035766601562e-01 -4.201171174645423889e-02 -2.419275790452957153e-01
3.240000000000000000e+03 6.038209915161132812e+01 9.474298357963562012e-01 -6.627571582794189453e-01 6.687496900558471680e-01 1.797766890376806259e-03 -4.047439098358154297e-01
3.241000000000000000e+03 7.189096069335937500e+01 -1.919165802001953125e+01 -4.395465850830078125e-01 7.054982185363769531e+00 1.984630703926086426e+00 1.016929030418395996e+00
3.242000000000000000e+03 7.111071777343750000e+01 -2.321421623229980469e+01 -2.920751459896564484e-03 6.221913814544677734e+00 1.865697860717773438e+00 9.511653184890747070e-01
3.243000000000000000e+03 7.290441131591796875e+01 -1.636240196228027344e+01 -9.274741411209106445e-01 8.273570060729980469e+00 2.203828811645507812e+00 7.910579442977905273e-01
3.244000000000000000e+03 8.850774765014648438e+00 6.764611721038818359e+00 -4.214296059217303991e-04 1.628298778086900711e-03 3.620607603807002306e-04 2.123552985722199082e-04
3.245000000000000000e+03 7.141188812255859375e+01 3.913741350173950195e+00 -8.524754047393798828e-01 7.390789031982421875e+00 1.961494088172912598e+00 -1.343711853027343750e+00
3.246000000000000000e+03 2.951940345764160156e+01 1.076702475547790527e+00 -4.954085350036621094e-01 -9.144913405179977417e-02 -1.760572940111160278e-01 5.494996309280395508e-01
3.247000000000000000e+03 2.561904907226562500e+01 7.605683803558349609e-01 -3.085468709468841553e-01 -1.800961643457412720e-01 -1.465929150581359863e-01 4.416747689247131348e-01
3.248000000000000000e+03 2.564684867858886719e+01 1.948088765144348145e+00 -3.171814084053039551e-01 -2.186744064092636108e-01 -1.607567518949508667e-01 4.995635151863098145e-01
3.249000000000000000e+03 2.678439521789550781e+01 6.538506746292114258e-01 -3.681567609310150146e-01 -1.451459527015686035e-01 -1.539908200502395630e-01 4.718012213706970215e-01
3.250000000000000000e+03 3.286466598510742188e+01 -1.414851188659667969e+01 -6.137076616287231445e-01 -6.319457292556762695e-02 -2.030706703662872314e-01 -4.386430084705352783e-01
3.251000000000000000e+03 2.554754638671875000e+01 -1.618342781066894531e+01 -3.467309474945068359e-01 -6.785285472869873047e-02 -1.243751421570777893e-01 -3.952537178993225098e-01
3.252000000000000000e+03 2.571913909912109375e+01 8.255722999572753906e+00 -4.087617695331573486e-01 -3.513391017913818359e-01 -2.280302643775939941e-01 6.719160079956054688e-01
3.253000000000000000e+03 2.505269622802734375e+01 1.132221698760986328e+01 -4.334081113338470459e-01 -4.125011861324310303e-01 -2.537727952003479004e-01 6.369178295135498047e-01
3.254000000000000000e+03 6.871645355224609375e+01 1.230521106719970703e+01 1.425303518772125244e-01 5.091411113739013672e+00 1.570182442665100098e+00 -1.138120532035827637e+00
3.255000000000000000e+03 2.674855232238769531e+01 5.464755535125732422e+00 -3.910872340202331543e-01 -2.545179128646850586e-01 -1.936815381050109863e-01 6.509521603584289551e-01
3.256000000000000000e+03 2.708772468566894531e+01 8.747472763061523438e+00 -4.095499217510223389e-01 -2.791735231876373291e-01 -2.066170424222946167e-01 6.840551495552062988e-01
3.257000000000000000e+03 6.929856872558593750e+01 -2.447081375122070312e+01 1.740819513797760010e-01 5.396888256072998047e+00 1.671291112899780273e+00 9.883619546890258789e-01
3.258000000000000000e+03 2.270870018005371094e+01 1.731571960449218750e+01 -3.219240605831146240e-01 -6.107671856880187988e-01 -2.798073589801788330e-01 4.391187429428100586e-01
3.259000000000000000e+03 7.064159393310546875e+01 -1.792682647705078125e+01 -5.358126163482666016e-01 6.673169612884521484e+00 1.841207027435302734e+00 1.344786047935485840e+00
3.260000000000000000e+03 6.894886016845703125e+01 1.129121398925781250e+01 9.515109658241271973e-02 5.254738807678222656e+00 1.604966998100280762e+00 -1.176280021667480469e+00
3.261000000000000000e+03 6.877890014648437500e+01 1.027432250976562500e+01 4.195979610085487366e-02 5.198827743530273438e+00 1.572236180305480957e+00 -1.215305328369140625e+00
3.262000000000000000e+03 6.955998992919921875e+01 1.530179214477539062e+01 2.016021311283111572e-01 5.323628425598144531e+00 1.657569050788879395e+00 -9.744867086410522461e-01
3.263000000000000000e+03 7.024445343017578125e+01 2.161916923522949219e+01 2.301406413316726685e-01 5.330687046051025391e+00 1.668248295783996582e+00 -7.171566486358642578e-01
3.264000000000000000e+03 6.797706604003906250e+01 2.055424308776855469e+01 3.083558976650238037e-01 4.794570922851562500e+00 1.530878067016601562e+00 -7.823695540428161621e-01
3.265000000000000000e+03 7.103485870361328125e+01 -1.906758880615234375e+01 -4.161141812801361084e-01 6.669115543365478516e+00 1.875900506973266602e+00 1.185462236404418945e+00
3.266000000000000000e+03 6.975734710693359375e+01 1.383741760253906250e+01 1.577185094356536865e-01 5.445969104766845703e+00 1.681106328964233398e+00 -1.022019028663635254e+00
3.267000000000000000e+03 1.727016639709472656e+01 2.429012680053710938e+01 7.364237308502197266e-02 -8.234206438064575195e-01 -2.249334901571273804e-01 3.554665446281433105e-01
3.268000000000000000e+03 1.050611305236816406e+01 2.767423629760742188e+01 7.563345879316329956e-02 -6.420675516128540039e-01 -1.699302196502685547e-01 3.987063169479370117e-01
3.269000000000000000e+03 7.067301940917968750e+01 -2.017234230041503906e+01 -2.627243399620056152e-01 6.339214324951171875e+00 1.822946906089782715e+00 1.162204027175903320e+00
3.270000000000000000e+03 1.633850860595703125e+01 -2.856005477905273438e+01 9.612821787595748901e-02 -3.075936734676361084e-01 -6.343962997198104858e-02 -2.402660697698593140e-01
3.271000000000000000e+03 6.955869293212890625e+01 -2.807561683654785156e+01 2.870820760726928711e-01 5.433262825012207031e+00 1.716103434562683105e+00 7.560796141624450684e-01
3.272000000000000000e+03 7.054965209960937500e+01 -2.925675392150878906e+01 2.679038941860198975e-01 5.758220672607421875e+00 1.807837367057800293e+00 6.993959546089172363e-01
3.273000000000000000e+03 1.339458465576171875e+01 2.298426055908203125e+01 -8.653209358453750610e-02 -8.342842459678649902e-01 -2.762449085712432861e-01 4.843922257423400879e-01
3.274000000000000000e+03 1.336285018920898438e+01 2.531475448608398438e+01 5.394040793180465698e-02 -7.852733731269836426e-01 -2.193998843431472778e-01 4.373304843902587891e-01
3.275000000000000000e+03 6.917208099365234375e+01 -2.105636787414550781e+01 -5.358264595270156860e-02 5.502094745635986328e+00 1.634553670883178711e+00 1.244927883148193359e+00
3.276000000000000000e+03 6.660281372070312500e+01 -3.715708541870117188e+01 5.324726104736328125e-01 4.532182216644287109e+00 1.519396424293518066e+00 2.969349026679992676e-01
3.277000000000000000e+03 1.060960102081298828e+01 3.489579772949218750e+01 2.017081826925277710e-01 -6.702293157577514648e-01 -1.405563503503799438e-01 2.141490876674652100e-01
3.278000000000000000e+03 1.014471435546875000e+01 3.049650573730468750e+01 1.356008648872375488e-01 -6.445142626762390137e-01 -1.526740193367004395e-01 3.308152556419372559e-01
3.279000000000000000e+03 1.126433563232421875e+01 2.644937705993652344e+01 5.164485052227973938e-02 -6.759227514266967773e-01 -1.872833669185638428e-01 4.251883029937744141e-01
3.280000000000000000e+03 1.779181480407714844e+01 -2.421988487243652344e+01 -2.358907647430896759e-02 -2.574112713336944580e-01 -8.430010825395584106e-02 -2.687309384346008301e-01
3.281000000000000000e+03 1.597773933410644531e+01 -2.354250717163085938e+01 -4.315377026796340942e-02 -2.708653807640075684e-01 -9.420574456453323364e-02 -2.486788034439086914e-01
3.282000000000000000e+03 6.744749450683593750e+01 2.710834121704101562e+01 3.173615336418151855e-01 4.585924148559570312e+00 1.470985770225524902e+00 -5.250132083892822266e-01
3.283000000000000000e+03 6.966708374023437500e+01 2.959647369384765625e+01 2.326358258724212646e-01 5.093792438507080078e+00 1.597928404808044434e+00 -4.411464035511016846e-01
3.284000000000000000e+03 7.016071319580078125e+01 -2.950293779373168945e+00 -7.219248414039611816e-01 8.840931892395019531e+00 2.435702323913574219e+00 -4.352344036102294922e+00
3.285000000000000000e+03 7.294691467285156250e+01 4.792530238628387451e-01 -1.589209675788879395e+00 9.927157402038574219e+00 2.501384258270263672e+00 -6.752420663833618164e-01
3.286000000000000000e+03 6.875621795654296875e+01 -3.385237932205200195e+00 1.978710293769836426e-01 3.956480503082275391e+00 1.246305465698242188e+00 -3.695776939392089844e+00
3.287000000000000000e+03 7.113829040527343750e+01 -1.007395935058593750e+01 -1.526160836219787598e+00 1.176753807067871094e+01 3.072413206100463867e+00 3.228436231613159180e+00
3.288000000000000000e+03 6.906446075439453125e+01 -9.751969337463378906e+00 1.934730820357799530e-02 5.290328979492187500e+00 1.592902898788452148e+00 3.936888217926025391e+00
3.289000000000000000e+03 7.150514984130859375e+01 -2.663985490798950195e+00 -1.771905303001403809e+00 1.257365989685058594e+01 3.240526199340820312e+00 -2.517013072967529297e+00
3.290000000000000000e+03 6.930050659179687500e+01 -1.023338508605957031e+01 -2.713023722171783447e-01 6.165302753448486328e+00 1.768200039863586426e+00 3.931701421737670898e+00
3.291000000000000000e+03 7.353946685791015625e+01 -1.292921066284179688e+01 -1.542902588844299316e+00 1.032806205749511719e+01 2.635547876358032227e+00 2.151047140359878540e-01
3.292000000000000000e+03 7.349782562255859375e+01 -3.467402696609497070e+00 -2.577174305915832520e-01 1.381236267089843750e+01 4.066393375396728516e+00 1.385846257209777832e+00
3.293000000000000000e+03 7.368777465820312500e+01 -2.704284906387329102e+00 -9.328235983848571777e-01 1.292545890808105469e+01 3.597790479660034180e+00 9.835075139999389648e-01
3.294000000000000000e+03 7.051416015625000000e+01 -9.692392349243164062e+00 -9.306205511093139648e-01 1.029135704040527344e+01 2.808221101760864258e+00 4.289726734161376953e+00
3.295000000000000000e+03 7.132054901123046875e+01 -2.946553468704223633e+00 -1.651371598243713379e+00 1.272873306274414062e+01 3.323208332061767578e+00 -3.095275640487670898e+00
3.296000000000000000e+03 7.074192810058593750e+01 -1.016119289398193359e+01 -1.270151376724243164e+00 1.053771018981933594e+01 2.780267477035522461e+00 3.676145076751708984e+00
3.297000000000000000e+03 7.342714691162109375e+01 -9.107134819030761719e+00 -6.980363279581069946e-02 1.423457050323486328e+01 4.249430179595947266e+00 -1.460900068283081055e+00
3.298000000000000000e+03 7.310250854492187500e+01 -9.558530807495117188e+00 -9.114024639129638672e-01 1.412454891204833984e+01 3.963943958282470703e+00 -6.909476518630981445e-01
3.299000000000000000e+03 6.864073944091796875e+01 -2.989006042480468750e+00 3.562569618225097656e-02 4.167606830596923828e+00 1.260969758033752441e+00 -3.585294246673583984e+00
3.300000000000000000e+03 6.984188842773437500e+01 -9.574225425720214844e+00 -1.852265745401382446e-01 7.358256816864013672e+00 2.151909112930297852e+00 4.603059291839599609e+00
3.301000000000000000e+03 6.817543792724609375e+01 -1.015181446075439453e+01 -2.614647895097732544e-02 3.496728897094726562e+00 1.041174769401550293e+00 3.120786190032958984e+00
3.302000000000000000e+03 6.722074890136718750e+01 -1.109841156005859375e+01 -1.354733109474182129e-01 2.823474645614624023e+00 8.064003586769104004e-01 2.486058950424194336e+00
3.303000000000000000e+03 7.367029571533203125e+01 -1.010737323760986328e+01 -9.896811246871948242e-01 1.285950851440429688e+01 3.560948371887207031e+00 -9.878593087196350098e-01
3.304000000000000000e+03 7.277056121826171875e+01 -9.783295631408691406e+00 -1.317366600036621094e+00 1.399931335449218750e+01 3.804584026336669922e+00 -1.859418116509914398e-02
3.305000000000000000e+03 7.305158996582031250e+01 -2.375888586044311523e+00 -1.555247664451599121e+00 1.288774585723876953e+01 3.399749517440795898e+00 1.966109126806259155e-02
3.306000000000000000e+03 6.861461639404296875e+01 -9.923838615417480469e+00 1.488030143082141876e-02 4.205631256103515625e+00 1.266153454780578613e+00 3.512613058090209961e+00
3.307000000000000000e+03 7.464033508300781250e+01 -4.690855979919433594e+00 2.236332178115844727e+00 1.186039924621582031e+01 4.229019641876220703e+00 1.969976902008056641e+00
3.308000000000000000e+03 6.613455200195312500e+01 -1.093326091766357422e+00 -3.158586621284484863e-01 2.192226171493530273e+00 5.629102587699890137e-01 -1.964024543762207031e+00
3.309000000000000000e+03 7.460171508789062500e+01 -7.701097965240478516e+00 3.043889760971069336e+00 1.178390789031982422e+01 4.448339462280273438e+00 -1.703042507171630859e+00
3.310000000000000000e+03 6.664868164062500000e+01 -1.133496856689453125e+01 -2.023633867502212524e-01 2.399245977401733398e+00 6.590647697448730469e-01 2.124155521392822266e+00
3.311000000000000000e+03 6.939887237548828125e+01 -2.624892711639404297e+00 -3.280685544013977051e-01 6.412837505340576172e+00 1.825430631637573242e+00 -4.044629573822021484e+00
3.312000000000000000e+03 6.569810485839843750e+01 -3.430129885673522949e-01 -2.871660292148590088e-01 2.161657571792602539e+00 5.623474717140197754e-01 -1.830719590187072754e+00
3.313000000000000000e+03 7.119506072998046875e+01 -2.567362308502197266e+00 -1.601277112960815430e+00 1.154508781433105469e+01 2.983143091201782227e+00 -3.095602273941040039e+00
3.314000000000000000e+03 7.330426788330078125e+01 -1.228343963623046875e+01 -1.630536079406738281e+00 1.078251075744628906e+01 2.745592355728149414e+00 2.764794528484344482e-01
3.315000000000000000e+03 7.465322113037109375e+01 -9.492250442504882812e+00 1.335353255271911621e-01 1.183975124359130859e+01 3.591985940933227539e+00 -1.892756819725036621e+00
3.316000000000000000e+03 6.593810272216796875e+01 -6.763611435890197754e-01 -2.745228111743927002e-01 2.229774951934814453e+00 5.865756273269653320e-01 -1.899400949478149414e+00
3.317000000000000000e+03 6.475675201416015625e+01 4.037689864635467529e-01 -2.823352217674255371e-01 1.938496232032775879e+00 4.968482851982116699e-01 -1.512964367866516113e+00
3.318000000000000000e+03 6.629170989990234375e+01 -1.213646125793457031e+01 -1.886723041534423828e-01 2.518740892410278320e+00 6.990206241607666016e-01 2.024769067764282227e+00
3.319000000000000000e+03 6.620880126953125000e+01 -1.154649734497070312e+01 -2.485579699277877808e-01 2.158418416976928711e+00 5.729581117630004883e-01 1.932003855705261230e+00
3.320000000000000000e+03 7.455945587158203125e+01 -1.228119611740112305e+00 -1.187155723571777344e+00 1.101294803619384766e+01 2.947737693786621094e+00 9.450331926345825195e-01
3.321000000000000000e+03 7.227165985107421875e+01 -2.755106925964355469e+00 -1.717950344085693359e+00 1.352763080596923828e+01 3.542904138565063477e+00 -1.064542770385742188e+00
3.322000000000000000e+03 3.740921020507812500e+01 1.914198637008666992e+00 -7.757325768470764160e-01 -7.430682890117168427e-04 -2.329427003860473633e-01 6.476193070411682129e-01
3.323000000000000000e+03 7.429466247558593750e+01 -4.842789769172668457e-01 -1.392976641654968262e+00 1.066671848297119141e+01 2.782122611999511719e+00 4.807012081146240234e-01
3.324000000000000000e+03 3.182504272460937500e+01 9.008849859237670898e-01 -6.041101813316345215e-01 -4.988792166113853455e-02 -1.961994320154190063e-01 5.771556496620178223e-01
3.325000000000000000e+03 2.908670806884765625e+01 1.840213656425476074e+00 -4.682711064815521240e-01 -1.146431565284729004e-01 -1.748742759227752686e-01 5.773206353187561035e-01
3.326000000000000000e+03 6.590457153320312500e+01 -1.291948318481445312e+01 -1.474058628082275391e-01 2.537923812866210938e+00 7.171553969383239746e-01 1.882049083709716797e+00
3.327000000000000000e+03 6.526316070556640625e+01 -1.224467468261718750e+01 -3.019195795059204102e-01 1.805833816528320312e+00 4.511742591857910156e-01 1.548199534416198730e+00
3.328000000000000000e+03 2.867994499206542969e+01 2.649491310119628906e+00 -4.449171125888824463e-01 -1.408901065587997437e-01 -1.757421642541885376e-01 6.024604439735412598e-01
3.329000000000000000e+03 3.284863662719726562e+01 5.109478235244750977e-01 -6.649439334869384766e-01 -3.189166262745857239e-02 -2.090506702661514282e-01 5.672447085380554199e-01
3.330000000000000000e+03 2.733698844909667969e+01 3.040760278701782227e+00 -3.944750130176544189e-01 -1.906269192695617676e-01 -1.755305826663970947e-01 5.933699607849121094e-01
3.331000000000000000e+03 5.538689804077148438e+01 1.165372252464294434e+00 -1.028286457061767578e+00 2.105090469121932983e-01 -2.453332096338272095e-01 2.077995985746383667e-01
3.332000000000000000e+03 5.275721740722656250e+01 9.268464446067810059e-01 -1.179379463195800781e+00 1.164283677935600281e-01 -3.188853263854980469e-01 3.715898990631103516e-01
3.333000000000000000e+03 7.374435424804687500e+01 -1.098431110382080078e+01 -1.390548944473266602e+00 1.192879295349121094e+01 3.161473035812377930e+00 -5.904001593589782715e-01
3.334000000000000000e+03 7.400717926025390625e+01 -9.668667793273925781e+00 -3.463698923587799072e-01 1.287221717834472656e+01 3.757754087448120117e+00 -1.540787220001220703e+00
3.335000000000000000e+03 3.937110900878906250e+01 -1.601259613037109375e+01 -5.724990963935852051e-01 -6.339479237794876099e-02 -1.907681673765182495e-01 -5.353446006774902344e-01
3.336000000000000000e+03 4.333036804199218750e+01 -1.471485996246337891e+01 -8.097226023674011230e-01 -3.928837180137634277e-02 -2.547033131122589111e-01 -5.256109237670898438e-01
3.337000000000000000e+03 4.424672317504882812e+01 -1.562833690643310547e+01 -6.827877163887023926e-01 -3.347923606634140015e-02 -2.148800790309906006e-01 -5.335520505905151367e-01
3.338000000000000000e+03 4.222834396362304688e+01 -1.534583187103271484e+01 -7.017337083816528320e-01 -4.288021475076675415e-02 -2.233841717243194580e-01 -5.351544618606567383e-01
3.339000000000000000e+03 7.412500762939453125e+01 -1.318244171142578125e+01 -1.391980409622192383e+00 1.014265251159667969e+01 2.625201702117919922e+00 -1.317754387855529785e-01
3.340000000000000000e+03 4.754843521118164062e+01 -1.569425487518310547e+01 -6.645381450653076172e-01 2.263246849179267883e-02 -1.925716996192932129e-01 -4.984343349933624268e-01
3.341000000000000000e+03 4.087979507446289062e+01 -1.580355358123779297e+01 -6.175249218940734863e-01 -5.539907515048980713e-02 -2.018772065639495850e-01 -5.385905504226684570e-01
3.342000000000000000e+03 5.002139663696289062e+01 -1.464219379425048828e+01 -8.627546429634094238e-01 4.317150637507438660e-02 -2.458749413490295410e-01 -4.646401405334472656e-01
3.343000000000000000e+03 5.121085357666015625e+01 -1.520000648498535156e+01 -7.135484814643859863e-01 8.828730881214141846e-02 -1.875783503055572510e-01 -4.141480922698974609e-01
3.344000000000000000e+03 4.625038528442382812e+01 -1.516849231719970703e+01 -7.628389596939086914e-01 -6.747460458427667618e-03 -2.308759242296218872e-01 -5.215702056884765625e-01
3.345000000000000000e+03 4.920209503173828125e+01 -1.689185523986816406e+01 -4.505317509174346924e-01 7.955671101808547974e-02 -1.112925112247467041e-01 -4.416442811489105225e-01
3.346000000000000000e+03 4.961235427856445312e+01 -1.575553321838378906e+01 -6.357398629188537598e-01 5.898610129952430725e-02 -1.730261296033859253e-01 -4.576704502105712891e-01
3.347000000000000000e+03 5.269449996948242188e+01 -1.428353309631347656e+01 -9.148214459419250488e-01 8.474194258451461792e-02 -2.490238398313522339e-01 -3.863354623317718506e-01
3.348000000000000000e+03 4.810152816772460938e+01 -1.453705215454101562e+01 -8.850252628326416016e-01 1.276735868304967880e-02 -2.616773545742034912e-01 -4.925519227981567383e-01
3.349000000000000000e+03 5.429144668579101562e+01 -1.476010417938232422e+01 -7.341063022613525391e-01 1.821637451648712158e-01 -1.655827760696411133e-01 -2.829811573028564453e-01
3.350000000000000000e+03 3.591288757324218750e+01 -1.470572853088378906e+01 -6.421477794647216797e-01 -7.101045548915863037e-02 -2.139474749565124512e-01 -4.821217656135559082e-01
3.351000000000000000e+03 3.496696090698242188e+01 1.676140904426574707e+00 -7.054464221000671387e-01 -1.826880499720573425e-02 -2.171145677566528320e-01 6.322000622749328613e-01
3.352000000000000000e+03 5.846799850463867188e+01 -1.461736011505126953e+01 -4.969187676906585693e-01 5.347086787223815918e-01 1.133697107434272766e-02 1.126602292060852051e-01
3.353000000000000000e+03 3.510769653320312500e+01 -1.504263210296630859e+01 -5.915626883506774902e-01 -7.464338093996047974e-02 -1.998618245124816895e-01 -4.840433299541473389e-01
3.354000000000000000e+03 3.728470993041992188e+01 2.807050228118896484e+00 -7.055253982543945312e-01 -2.477581612765789032e-03 -2.124008834362030029e-01 6.717607378959655762e-01
3.355000000000000000e+03 5.613092803955078125e+01 -1.409437847137451172e+01 -8.046880364418029785e-01 2.565846443176269531e-01 -1.644310057163238525e-01 -1.799264997243881226e-01
3.356000000000000000e+03 5.558333206176757812e+01 -1.490049076080322266e+01 -6.208063364028930664e-01 2.791536450386047363e-01 -1.024958118796348572e-01 -1.789362430572509766e-01
3.357000000000000000e+03 3.749826049804687500e+01 1.036988496780395508e+00 -8.482704758644104004e-01 1.489090209361165762e-04 -2.544364631175994873e-01 6.135691404342651367e-01
3.358000000000000000e+03 3.826074600219726562e+01 1.967195749282836914e+00 -8.020012974739074707e-01 3.545863088220357895e-03 -2.395366281270980835e-01 6.480586528778076172e-01
3.359000000000000000e+03 3.604833221435546875e+01 -1.714077377319335938e+01 -4.185067415237426758e-01 -9.128539264202117920e-02 -1.529376357793807983e-01 -5.270635485649108887e-01
3.360000000000000000e+03 5.642992019653320312e+01 -1.531059646606445312e+01 -4.853122532367706299e-01 3.839111924171447754e-01 -3.042031824588775635e-02 -8.494722843170166016e-02
3.361000000000000000e+03 5.645687484741210938e+01 2.994899749755859375e+00 -5.074962377548217773e-01 4.842461347579956055e-01 -6.975036114454269409e-03 -1.934985257685184479e-02
3.362000000000000000e+03 3.994262313842773438e+01 1.908583164215087891e+00 -8.580564856529235840e-01 1.132420450448989868e-02 -2.540196776390075684e-01 6.397318243980407715e-01
3.363000000000000000e+03 5.665943145751953125e+01 2.157239913940429688e+00 -6.886137723922729492e-01 3.958639800548553467e-01 -8.782492578029632568e-02 1.890799403190612793e-02
3.364000000000000000e+03 5.762232208251953125e+01 -1.454638767242431641e+01 -5.913884639739990234e-01 4.166048765182495117e-01 -5.243507772684097290e-02 -5.659767892211675644e-03
3.365000000000000000e+03 5.614687728881835938e+01 1.237968206405639648e+00 -9.633151292800903320e-01 2.588368654251098633e-01 -2.113434672355651855e-01 1.386268436908721924e-01
3.366000000000000000e+03 5.205146026611328125e+01 1.086809635162353516e+00 -1.156702518463134766e+00 9.922691434621810913e-02 -3.172427117824554443e-01 4.012861847877502441e-01
3.367000000000000000e+03 4.948152160644531250e+01 2.658081054687500000e+00 -8.571429252624511719e-01 1.041747033596038818e-01 -2.258904576301574707e-01 4.759310781955718994e-01
3.368000000000000000e+03 3.058536148071289062e+01 -1.623749160766601562e+01 -4.137134552001953125e-01 -8.123796433210372925e-02 -1.484854221343994141e-01 -4.619539678096771240e-01
3.369000000000000000e+03 2.820448112487792969e+01 -1.503312110900878906e+01 -4.413218200206756592e-01 -5.890627205371856689e-02 -1.500684320926666260e-01 -4.116346538066864014e-01
3.370000000000000000e+03 3.326166152954101562e+01 -1.473635101318359375e+01 -5.765089988708496094e-01 -7.104656100273132324e-02 -1.942666769027709961e-01 -4.588078558444976807e-01
3.371000000000000000e+03 3.783311843872070312e+01 -1.593792533874511719e+01 -5.580120086669921875e-01 -7.467480748891830444e-02 -1.898060441017150879e-01 -5.249844193458557129e-01
3.372000000000000000e+03 4.151648712158203125e+01 1.748894333839416504e+00 -9.165483713150024414e-01 1.710652559995651245e-02 -2.698325514793395996e-01 6.285401582717895508e-01
3.373000000000000000e+03 4.827962493896484375e+01 1.780172109603881836e+00 -1.029623508453369141e+00 6.524244695901870728e-02 -2.893143296241760254e-01 5.273069143295288086e-01
3.374000000000000000e+03 4.901027679443359375e+01 1.084306597709655762e+00 -1.169846415519714355e+00 5.499608069658279419e-02 -3.344551026821136475e-01 5.015699863433837891e-01
3.375000000000000000e+03 4.966194534301757812e+01 1.881001591682434082e+00 -1.005412220954895020e+00 8.394456654787063599e-02 -2.764402925968170166e-01 4.810349643230438232e-01
3.376000000000000000e+03 5.041819763183593750e+01 1.956204652786254883e+00 -9.858905076980590820e-01 9.941244125366210938e-02 -2.659434080123901367e-01 4.547497928142547607e-01
3.377000000000000000e+03 4.377830123901367188e+01 1.930730342864990234e+00 -9.445852041244506836e-01 3.630346059799194336e-02 -2.724845409393310547e-01 6.126370429992675781e-01
3.378000000000000000e+03 4.896393966674804688e+01 1.795574545860290527e+00 -1.026730060577392578e+00 7.591829448938369751e-02 -2.852435410022735596e-01 5.024475455284118652e-01
3.379000000000000000e+03 4.533890914916992188e+01 1.201718807220458984e+00 -1.093315720558166504e+00 2.391243539750576019e-02 -3.208209574222564697e-01 5.735778212547302246e-01
3.380000000000000000e+03 4.457286453247070312e+01 2.087564229965209961e+00 -9.471057653427124023e-01 3.684335201978683472e-02 -2.730787098407745361e-01 6.028565764427185059e-01
3.381000000000000000e+03 4.607700347900390625e+01 1.183352708816528320e+00 -1.116779565811157227e+00 2.870458364486694336e-02 -3.264224827289581299e-01 5.643321871757507324e-01
3.382000000000000000e+03 4.537658309936523438e+01 2.142546176910400391e+00 -9.589595198631286621e-01 3.472607210278511047e-02 -2.772700190544128418e-01 5.901785492897033691e-01
3.383000000000000000e+03 3.136860847473144531e+01 -1.779468154907226562e+01 -3.191788494586944580e-01 -1.000608205795288086e-01 -1.257718950510025024e-01 -4.890623092651367188e-01
3.384000000000000000e+03 3.417417526245117188e+01 1.558789372444152832e+00 -6.818736195564270020e-01 -2.482857555150985718e-02 -2.120106667280197144e-01 6.241086125373840332e-01
3.385000000000000000e+03 3.217485046386718750e+01 2.929468154907226562e-01 -6.381981968879699707e-01 -3.799792006611824036e-02 -2.028588354587554932e-01 5.511398315429687500e-01
3.386000000000000000e+03 5.514716339111328125e+01 1.988506793975830078e+00 -8.251706957817077637e-01 2.642956972122192383e-01 -1.682624965906143188e-01 1.822348833084106445e-01
3.387000000000000000e+03 2.401975250244140625e+01 -1.632556915283203125e+01 -3.221489787101745605e-01 -7.157284766435623169e-02 -1.181165501475334167e-01 -3.672330975532531738e-01
3.388000000000000000e+03 6.178801727294921875e+01 -1.549924087524414062e+01 -4.355421289801597595e-02 1.374218106269836426e+00 3.991991579532623291e-01 7.750650048255920410e-01
3.389000000000000000e+03 6.321043014526367188e+01 -1.611990737915039062e+01 7.181291282176971436e-02 2.039626836776733398e+00 6.334319114685058594e-01 1.128183364868164062e+00
3.390000000000000000e+03 7.328330993652343750e+01 -1.184896087646484375e+01 -1.649859666824340820e+00 1.117024898529052734e+01 2.856116771697998047e+00 1.864687502384185791e-01
3.391000000000000000e+03 6.255307769775390625e+01 -1.464414119720458984e+01 -1.485833227634429932e-01 1.420183300971984863e+00 3.814799785614013672e-01 9.096792936325073242e-01
3.392000000000000000e+03 6.327505111694335938e+01 -1.485628318786621094e+01 -6.487454473972320557e-02 1.720562100410461426e+00 4.967062473297119141e-01 1.097856402397155762e+00
3.393000000000000000e+03 6.324602508544921875e+01 -1.367014217376708984e+01 -2.588537931442260742e-01 1.402035593986511230e+00 3.429545164108276367e-01 1.005284428596496582e+00
3.394000000000000000e+03 6.216366195678710938e+01 2.763695001602172852e+00 -1.471015661954879761e-01 1.522412776947021484e+00 4.125933647155761719e-01 -9.473304748535156250e-01
3.395000000000000000e+03 6.089274978637695312e+01 1.581678032875061035e+00 -4.627688527107238770e-01 8.785276412963867188e-01 1.247276291251182556e-01 -5.625500082969665527e-01
3.396000000000000000e+03 2.972364616394042969e+01 -1.573331356048583984e+01 -4.305306375026702881e-01 -7.218242436647415161e-02 -1.508139073848724365e-01 -4.439424872398376465e-01
3.397000000000000000e+03 7.439671325683593750e+01 -9.969079971313476562e+00 -5.182205438613891602e-01 1.204761505126953125e+01 3.458818435668945312e+00 -1.581490039825439453e+00
3.398000000000000000e+03 6.400669860839843750e+01 -1.393268013000488281e+01 -1.686116158962249756e-01 1.726743578910827637e+00 4.674395918846130371e-01 1.254973411560058594e+00
3.399000000000000000e+03 2.909551429748535156e+01 -1.672211456298828125e+01 -3.569455146789550781e-01 -8.319461345672607422e-02 -1.320420354604721069e-01 -4.524303376674652100e-01
3.400000000000000000e+03 2.405154418945312500e+01 -1.815601730346679688e+01 -2.550127804279327393e-01 -1.030227616429328918e-01 -1.074106618762016296e-01 -3.848576247692108154e-01
3.401000000000000000e+03 6.426654815673828125e+01 2.209978103637695312e-01 -3.504809737205505371e-01 1.594153285026550293e+00 3.731017112731933594e-01 -1.322292447090148926e+00
3.402000000000000000e+03 5.735514450073242188e+01 2.242200613021850586e+00 -6.129155158996582031e-01 4.642833471298217773e-01 -4.458965361118316650e-02 -6.755308806896209717e-02
3.403000000000000000e+03 4.086676788330078125e+01 2.641373395919799805e+00 -8.106254935264587402e-01 1.948220655322074890e-02 -2.373429834842681885e-01 6.532396674156188965e-01
3.404000000000000000e+03 6.440114593505859375e+01 -1.370010280609130859e+01 -1.449400931596755981e-01 1.911754965782165527e+00 5.300444364547729492e-01 1.378728628158569336e+00
3.405000000000000000e+03 6.415311431884765625e+01 7.283635139465332031e-01 -2.947066724300384521e-01 1.721338987350463867e+00 4.279896914958953857e-01 -1.337771773338317871e+00
3.406000000000000000e+03 6.367152786254882812e+01 7.447849512100219727e-01 -3.298619389533996582e-01 1.507449746131896973e+00 3.532763421535491943e-01 -1.190083742141723633e+00
3.407000000000000000e+03 2.661564254760742188e+01 -1.552720928192138672e+01 -3.906015753746032715e-01 -6.076433509588241577e-02 -1.354097723960876465e-01 -3.981970250606536865e-01
3.408000000000000000e+03 2.593274688720703125e+01 -1.533901691436767578e+01 -3.856812715530395508e-01 -5.595474690198898315e-02 -1.324907988309860229e-01 -3.866869211196899414e-01
3.409000000000000000e+03 6.190540695190429688e+01 1.981307268142700195e+00 -2.752186357975006104e-01 1.246299624443054199e+00 2.913242876529693604e-01 -8.263917565345764160e-01
3.410000000000000000e+03 3.133584594726562500e+01 1.386287450790405273e+00 -5.726252198219299316e-01 -6.166291609406471252e-02 -1.902864426374435425e-01 5.927562713623046875e-01
3.411000000000000000e+03 2.645046424865722656e+01 2.505117416381835938e+00 -3.564945161342620850e-01 -2.092096805572509766e-01 -1.697112619876861572e-01 5.492935776710510254e-01
3.412000000000000000e+03 4.613879013061523438e+01 2.052137613296508789e+00 -9.706276655197143555e-01 5.283685773611068726e-02 -2.753372192382812500e-01 5.733448863029479980e-01
3.413000000000000000e+03 4.681449127197265625e+01 1.141315937042236328e+00 -1.135600209236145020e+00 3.468490764498710632e-02 -3.302745819091796875e-01 5.472067594528198242e-01
3.414000000000000000e+03 2.625701332092285156e+01 1.285771846771240234e+00 -3.430418968200683594e-01 -1.781245619058609009e-01 -1.563499420881271362e-01 4.873310625553131104e-01
3.415000000000000000e+03 7.217438507080078125e+01 -1.573583030700683594e+01 -1.025026679039001465e+00 8.156774520874023438e+00 2.139524221420288086e+00 1.083087921142578125e+00
3.416000000000000000e+03 7.076136779785156250e+01 5.385088920593261719e+00 -5.562132000923156738e-01 6.619082927703857422e+00 1.818861007690429688e+00 -1.388188481330871582e+00
3.417000000000000000e+03 7.220445251464843750e+01 4.152083396911621094e+00 -8.582129478454589844e-01 7.741688251495361328e+00 2.065042495727539062e+00 -1.079539656639099121e+00
3.418000000000000000e+03 7.238433074951171875e+01 1.120618939399719238e+00 -1.465720772743225098e+00 9.220377922058105469e+00 2.326397180557250977e+00 -1.084345340728759766e+00
3.419000000000000000e+03 3.358457183837890625e+01 6.620657444000244141e-01 -6.941157579421997070e-01 -2.559986151754856110e-02 -2.159146815538406372e-01 5.809883475303649902e-01
3.420000000000000000e+03 3.639122390747070312e+01 -1.560038757324218750e+01 -5.675608515739440918e-01 -7.768154889345169067e-02 -1.935727149248123169e-01 -5.076185464859008789e-01
3.421000000000000000e+03 3.428512954711914062e+01 -1.534371471405029297e+01 -5.512689948081970215e-01 -7.764799892902374268e-02 -1.886751055717468262e-01 -4.845320880413055420e-01
3.422000000000000000e+03 7.132044982910156250e+01 -1.812287902832031250e+01 -5.631800889968872070e-01 6.999519824981689453e+00 1.930901885032653809e+00 1.185291886329650879e+00
3.423000000000000000e+03 6.976579284667968750e+01 -1.984206962585449219e+01 -2.218884527683258057e-01 5.915910720825195312e+00 1.708206653594970703e+00 1.292740464210510254e+00
3.424000000000000000e+03 6.949517822265625000e+01 8.889355659484863281e+00 -9.227433800697326660e-02 5.552123546600341797e+00 1.637954711914062500e+00 -1.274908542633056641e+00
3.425000000000000000e+03 2.204480934143066406e+01 1.990546226501464844e+01 -1.781393438577651978e-01 -6.717145442962646484e-01 -2.549561858177185059e-01 3.577255308628082275e-01
3.426000000000000000e+03 2.071676063537597656e+01 2.137447547912597656e+01 -1.047606840729713440e-01 -7.407181262969970703e-01 -2.536436617374420166e-01 3.367913961410522461e-01
3.427000000000000000e+03 6.843032073974609375e+01 -2.248300361633300781e+01 1.111933290958404541e-01 5.082651138305664062e+00 1.558153390884399414e+00 1.165517210960388184e+00
3.428000000000000000e+03 5.439462280273437500e+01 1.858539223670959473e+00 -8.912145495414733887e-01 2.095609456300735474e-01 -2.044960856437683105e-01 2.465286105871200562e-01
3.429000000000000000e+03 5.370254516601562500e+01 1.671063780784606934e+00 -9.584460258483886719e-01 1.770520955324172974e-01 -2.344181686639785767e-01 2.927551865577697754e-01
3.430000000000000000e+03 7.117464447021484375e+01 4.682878494262695312e+00 -7.025643587112426758e-01 7.021689891815185547e+00 1.895737648010253906e+00 -1.344468116760253906e+00
3.431000000000000000e+03 6.989656066894531250e+01 4.229691028594970703e+00 -6.262454986572265625e-01 6.288303852081298828e+00 1.698617458343505859e+00 -1.679719924926757812e+00
3.432000000000000000e+03 6.239929580688476562e+01 1.499148464202880859e+01 4.833410382270812988e-01 3.133986711502075195e+00 1.085198283195495605e+00 -8.619259595870971680e-01
3.433000000000000000e+03 6.783802795410156250e+01 1.685227966308593750e+01 3.035959601402282715e-01 4.747535228729248047e+00 1.515339374542236328e+00 -9.368885159492492676e-01
3.434000000000000000e+03 6.945381164550781250e+01 1.686143112182617188e+01 2.340565919876098633e-01 5.241855144500732422e+00 1.642773509025573730e+00 -9.136366844177246094e-01
3.435000000000000000e+03 6.827194976806640625e+01 1.357258415222167969e+01 2.148737162351608276e-01 4.919321060180664062e+00 1.540258407592773438e+00 -1.080642461776733398e+00
3.436000000000000000e+03 7.023717498779296875e+01 -2.145561790466308594e+01 -9.322074055671691895e-02 5.970415115356445312e+00 1.763158321380615234e+00 1.117770314216613770e+00
3.437000000000000000e+03 2.778264236450195312e+01 5.381237506866455078e+00 -4.108934104442596436e-01 -2.164970040321350098e-01 -1.882171332836151123e-01 6.643783450126647949e-01
3.438000000000000000e+03 2.704870414733886719e+01 6.519407272338867188e+00 -4.027952551841735840e-01 -2.584689557552337646e-01 -1.983792632818222046e-01 6.810268759727478027e-01
3.439000000000000000e+03 7.220622253417968750e+01 -1.649258804321289062e+01 -8.964056968688964844e-01 7.902144432067871094e+00 2.101721763610839844e+00 1.050088763236999512e+00
3.440000000000000000e+03 7.194773864746093750e+01 5.050328254699707031e+00 -6.903296709060668945e-01 7.361227035522460938e+00 2.001269340515136719e+00 -1.121861577033996582e+00
3.441000000000000000e+03 2.671232032775878906e+01 9.759590148925781250e+00 -4.092794656753540039e-01 -3.044134080410003662e-01 -2.141078561544418335e-01 6.723899245262145996e-01
3.442000000000000000e+03 2.546444129943847656e+01 9.241294860839843750e+00 -4.206725060939788818e-01 -3.756119906902313232e-01 -2.388853430747985840e-01 6.675423979759216309e-01
3.443000000000000000e+03 2.400452041625976562e+01 1.359863471984863281e+01 -4.310144782066345215e-01 -4.939409196376800537e-01 -2.774866223335266113e-01 5.661519765853881836e-01
3.444000000000000000e+03 6.893650817871093750e+01 -1.935099411010742188e+01 -1.898461878299713135e-01 5.498523235321044922e+00 1.592603087425231934e+00 1.419831991195678711e+00
3.445000000000000000e+03 6.759105682373046875e+01 -2.838936805725097656e+01 4.097428619861602783e-01 4.666988849639892578e+00 1.523019552230834961e+00 7.644937634468078613e-01
3.446000000000000000e+03 1.207539653778076172e+01 -2.782995033264160156e+01 4.760368540883064270e-02 -3.057364523410797119e-01 -7.743982970714569092e-02 -2.163248360157012939e-01
3.447000000000000000e+03 2.064703178405761719e+01 2.527379035949707031e+01 1.534101516008377075e-01 -7.019608020782470703e-01 -1.645651906728744507e-01 2.886382341384887695e-01
3.448000000000000000e+03 1.316175556182861328e+01 -2.664245033264160156e+01 3.719456121325492859e-02 -3.044052422046661377e-01 -8.016320317983627319e-02 -2.305821478366851807e-01
3.449000000000000000e+03 6.935862731933593750e+01 2.302314186096191406e+01 2.668252289295196533e-01 5.090666294097900391e+00 1.607247471809387207e+00 -6.883091926574707031e-01
3.450000000000000000e+03 1.479630565643310547e+01 2.675945091247558594e+01 1.370574086904525757e-01 -7.956553697586059570e-01 -1.975793987512588501e-01 3.802325725555419922e-01
3.451000000000000000e+03 1.834861183166503906e+01 2.347467994689941406e+01 3.223237395286560059e-02 -8.107879161834716797e-01 -2.335666716098785400e-01 3.420469462871551514e-01
3.452000000000000000e+03 6.475318145751953125e+01 -2.732691383361816406e+01 5.414969921112060547e-01 3.776416540145874023e+00 1.295374035835266113e+00 8.167732357978820801e-01
3.453000000000000000e+03 6.582205200195312500e+01 -3.002870559692382812e+01 5.332316160202026367e-01 4.122395038604736328e+00 1.396688103675842285e+00 6.864499449729919434e-01
3.454000000000000000e+03 1.327257156372070312e+01 2.916167831420898438e+01 1.843300014734268188e-01 -7.322032451629638672e-01 -1.643619835376739502e-01 3.515369892120361328e-01
3.455000000000000000e+03 6.998316192626953125e+01 7.376879692077636719e+00 -2.709642946720123291e-01 5.953302860260009766e+00 1.704701542854309082e+00 -1.339832901954650879e+00
3.456000000000000000e+03 6.623763275146484375e+01 2.070981025695800781e+01 3.844004273414611816e-01 4.279108047485351562e+00 1.399052619934082031e+00 -7.594278454780578613e-01
3.457000000000000000e+03 6.715164947509765625e+01 2.401753044128417969e+01 3.396800756454467773e-01 4.604639530181884766e+00 1.483295917510986328e+00 -6.525660157203674316e-01
3.458000000000000000e+03 7.033473205566406250e+01 -2.504369735717773438e+00 -1.025935053825378418e+00 9.320804595947265625e+00 2.488461017608642578e+00 -3.999511718750000000e+00
3.459000000000000000e+03 7.278781127929687500e+01 -2.935116052627563477e+00 -1.420816659927368164e+00 1.380353069305419922e+01 3.714814186096191406e+00 -9.716948866844177246e-02
3.460000000000000000e+03 7.131365966796875000e+01 3.774606287479400635e-01 -1.471404671669006348e+00 8.883764266967773438e+00 2.223707914352416992e+00 -1.889249801635742188e+00
3.461000000000000000e+03 6.773246002197265625e+01 -1.067886257171630859e+01 -1.066747754812240601e-01 3.216663122177124023e+00 9.329965114593505859e-01 2.817423820495605469e+00
3.462000000000000000e+03 6.934250640869140625e+01 -1.146991920471191406e+01 -6.519857048988342285e-01 6.502954483032226562e+00 1.755290627479553223e+00 3.348757505416870117e+00
3.463000000000000000e+03 7.289336395263671875e+01 -1.189751529693603516e+01 -1.735377788543701172e+00 1.108865642547607422e+01 2.805983543395996094e+00 5.833801031112670898e-01
3.464000000000000000e+03 6.889414978027343750e+01 -2.448295116424560547e+00 -1.970147937536239624e-01 5.184703350067138672e+00 1.496306657791137695e+00 -3.712440967559814453e+00
3.465000000000000000e+03 7.243189239501953125e+01 -9.471761435270309448e-02 -1.700590729713439941e+00 1.020019149780273438e+01 2.549880266189575195e+00 -1.076389551162719727e+00
3.466000000000000000e+03 7.321463775634765625e+01 -1.133742523193359375e+01 -1.653988122940063477e+00 1.175464534759521484e+01 3.030197143554687500e+00 1.018999665975570679e-01
3.467000000000000000e+03 6.604648590087890625e+01 -6.168732792139053345e-02 -2.513417899608612061e-01 2.573272466659545898e+00 6.965792179107666016e-01 -1.955394387245178223e+00
3.468000000000000000e+03 7.277630615234375000e+01 -1.051485919952392578e+01 -1.694210290908813477e+00 1.287393951416015625e+01 3.353918790817260742e+00 3.933269977569580078e-01
3.469000000000000000e+03 7.412889099121093750e+01 -1.660621285438537598e+00 -1.227823257446289062e+00 1.158356094360351562e+01 3.106721401214599609e+00 8.221487998962402344e-01
3.470000000000000000e+03 7.213223266601562500e+01 -1.124020957946777344e+01 -1.821580529212951660e+00 1.140429973602294922e+01 2.874815702438354492e+00 1.460686802864074707e+00
3.471000000000000000e+03 6.901573181152343750e+01 -2.815452814102172852e+00 -8.157060295343399048e-02 5.153458595275878906e+00 1.521566271781921387e+00 -3.884228706359863281e+00
3.472000000000000000e+03 6.927192687988281250e+01 -2.273885011672973633e+00 -4.195437431335449219e-01 6.172959804534912109e+00 1.726024746894836426e+00 -3.825739383697509766e+00
3.473000000000000000e+03 6.784188079833984375e+01 -1.909240245819091797e+00 -1.770699769258499146e-01 3.547761201858520508e+00 1.011207342147827148e+00 -2.908279180526733398e+00
3.474000000000000000e+03 7.387606811523437500e+01 -8.699365615844726562e+00 1.022949337959289551e+00 1.349079990386962891e+01 4.354125022888183594e+00 -1.986323714256286621e+00
3.475000000000000000e+03 6.704270935058593750e+01 -1.159473323822021484e+01 -1.654746234416961670e-01 2.967522621154785156e+00 8.406143784523010254e-01 2.380559682846069336e+00
3.476000000000000000e+03 7.237812042236328125e+01 1.783002614974975586e+00 -1.322443962097167969e+00 8.820011138916015625e+00 2.249269962310791016e+00 -1.064816832542419434e+00
3.477000000000000000e+03 7.185216522216796875e+01 -1.383467102050781250e+01 -1.426672697067260742e+00 8.962192535400390625e+00 2.260655879974365234e+00 1.414649605751037598e+00
3.478000000000000000e+03 6.878498077392578125e+01 -1.021559333801269531e+01 -7.413686066865921021e-02 5.001076698303222656e+00 1.478081941604614258e+00 3.660727262496948242e+00
3.479000000000000000e+03 7.393916320800781250e+01 -2.258711099624633789e+00 -1.087918281555175781e+00 1.211661243438720703e+01 3.308608293533325195e+00 9.321926236152648926e-01
3.480000000000000000e+03 7.404425811767578125e+01 -3.002891540527343750e+00 -3.988128304481506348e-01 1.277550411224365234e+01 3.713007450103759766e+00 1.513355135917663574e+00
3.481000000000000000e+03 7.383144378662109375e+01 -9.389829635620117188e+00 -8.382361382246017456e-02 1.335060405731201172e+01 3.980034112930297852e+00 -1.608397960662841797e+00
3.482000000000000000e+03 6.709076690673828125e+01 -1.651957631111145020e+00 -2.333304882049560547e-01 2.771547794342041016e+00 7.614651322364807129e-01 -2.445168495178222656e+00
3.483000000000000000e+03 6.676981353759765625e+01 -1.241874694824218750e+00 -2.577499151229858398e-01 2.654882192611694336e+00 7.191396355628967285e-01 -2.276777505874633789e+00
3.484000000000000000e+03 7.217382812500000000e+01 -1.497060489654541016e+01 -1.222934007644653320e+00 8.578487396240234375e+00 2.206665992736816406e+00 1.125424623489379883e+00
3.485000000000000000e+03 7.455052947998046875e+01 -8.313025474548339844e+00 1.969618082046508789e+00 1.220421314239501953e+01 4.252149105072021484e+00 -2.120440006256103516e+00
3.486000000000000000e+03 2.700049591064453125e+01 1.765922307968139648e+00 -3.786620497703552246e-01 -1.707927137613296509e-01 -1.648364216089248657e-01 5.317487716674804688e-01
3.487000000000000000e+03 7.349646759033203125e+01 -2.197738885879516602e+00 -1.381600856781005859e+00 1.257183361053466797e+01 3.357069969177246094e+00 4.745934903621673584e-01
3.488000000000000000e+03 7.366470336914062500e+01 -9.790694236755371094e+00 -7.444187402725219727e-01 1.317260074615478516e+01 3.728454589843750000e+00 -1.152128696441650391e+00
3.489000000000000000e+03 6.278733825683593750e+01 2.401531219482421875e+00 -1.425751000642776489e-01 1.642049312591552734e+00 4.498422443866729736e-01 -1.080924034118652344e+00
3.490000000000000000e+03 3.066702079772949219e+01 2.506483793258666992e+00 -5.220146179199218750e-01 -8.804176747798919678e-02 -1.830169111490249634e-01 6.253714561462402344e-01
3.491000000000000000e+03 5.123378753662109375e+01 1.956525564193725586e+00 -9.828059673309326172e-01 1.045730561017990112e-01 -2.634698748588562012e-01 4.223311543464660645e-01
3.492000000000000000e+03 6.631475830078125000e+01 -1.270464324951171875e+01 -1.765458583831787109e-01 2.787051439285278320e+00 7.831516861915588379e-01 2.037326574325561523e+00
3.493000000000000000e+03 7.123051452636718750e+01 -1.058444499969482422e+01 -1.638095498085021973e+00 1.120048904418945312e+01 2.868718147277832031e+00 2.760403633117675781e+00
3.494000000000000000e+03 3.158231353759765625e+01 1.961508870124816895e+00 -5.679959654808044434e-01 -6.498025357723236084e-02 -1.898928731679916382e-01 6.177138686180114746e-01
3.495000000000000000e+03 3.092384910583496094e+01 1.858764886856079102e+00 -5.406974554061889648e-01 -7.766854763031005859e-02 -1.855098009109497070e-01 6.053909063339233398e-01
3.496000000000000000e+03 6.526351165771484375e+01 -1.387462520599365234e+01 -1.115289181470870972e-01 2.456631183624267578e+00 7.035306692123413086e-01 1.661987781524658203e+00
3.497000000000000000e+03 6.519048309326171875e+01 -1.299073410034179688e+01 -1.664442270994186401e-01 2.123986244201660156e+00 5.872625708580017090e-01 1.607303500175476074e+00
3.498000000000000000e+03 4.190098190307617188e+01 -1.631569480895996094e+01 -5.598716139793395996e-01 -4.774584248661994934e-02 -1.822852343320846558e-01 -5.468968152999877930e-01
3.499000000000000000e+03 4.305600357055664062e+01 -1.666392517089843750e+01 -5.229653120040893555e-01 -3.381918370723724365e-02 -1.670353561639785767e-01 -5.465772151947021484e-01
3.500000000000000000e+03 5.040276336669921875e+01 -1.546692752838134766e+01 -6.768900752067565918e-01 8.334863930940628052e-02 -1.780624240636825562e-01 -4.371269941329956055e-01
3.501000000000000000e+03 5.346779632568359375e+01 -1.504935264587402344e+01 -6.933676600456237793e-01 1.728907972574234009e-01 -1.561430692672729492e-01 -3.200555741786956787e-01
3.502000000000000000e+03 4.656178665161132812e+01 -1.615642547607421875e+01 -5.910432934761047363e-01 1.797116547822952271e-02 -1.719216406345367432e-01 -5.136518478393554688e-01
3.503000000000000000e+03 4.881722259521484375e+01 -1.608095169067382812e+01 -5.882747173309326172e-01 5.019459500908851624e-02 -1.614240407943725586e-01 -4.700751006603240967e-01
3.504000000000000000e+03 4.796116256713867188e+01 -1.651813507080078125e+01 -5.208281874656677246e-01 4.520254582166671753e-02 -1.426876932382583618e-01 -4.852866828441619873e-01
3.505000000000000000e+03 3.576371383666992188e+01 1.769941329956054688e+00 -7.302779555320739746e-01 -1.208772417157888412e-02 -2.227097004652023315e-01 6.387821435928344727e-01
3.506000000000000000e+03 3.235457611083984375e+01 1.999662995338439941e+00 -5.939418673515319824e-01 -5.215634778141975403e-02 -1.938294619321823120e-01 6.270363330841064453e-01
3.507000000000000000e+03 5.829252624511718750e+01 -1.542587757110595703e+01 -3.313129246234893799e-01 6.118463277816772461e-01 8.416002988815307617e-02 1.449794173240661621e-01
3.508000000000000000e+03 5.798855209350585938e+01 2.320839166641235352e+00 -5.465971827507019043e-01 5.417068004608154297e-01 -1.467107911594212055e-03 -1.515658944845199585e-01
3.509000000000000000e+03 5.978662109375000000e+01 1.638561129570007324e+00 -5.421704649925231934e-01 6.968339085578918457e-01 4.639903455972671509e-02 -3.667109906673431396e-01
3.510000000000000000e+03 3.819292449951171875e+01 2.939505815505981445e+00 -7.172001004219055176e-01 4.246750846505165100e-03 -2.138860076665878296e-01 6.749544739723205566e-01
3.511000000000000000e+03 3.553302383422851562e+01 -1.604226875305175781e+01 -5.106305480003356934e-01 -8.328624814748764038e-02 -1.781750470399856567e-01 -5.085688233375549316e-01
3.512000000000000000e+03 3.642635345458984375e+01 2.729359149932861328e+00 -6.902392506599426270e-01 -9.018741548061370850e-03 -2.097773998975753784e-01 6.699535250663757324e-01
3.513000000000000000e+03 5.748167037963867188e+01 -1.985128021240234375e+01 3.090110719203948975e-01 1.072327971458435059e+00 4.144017100334167480e-01 2.532180249691009521e-01
3.514000000000000000e+03 3.911029052734375000e+01 1.968508124351501465e+00 -8.293492794036865234e-01 6.899752654135227203e-03 -2.467348575592041016e-01 6.455959677696228027e-01
3.515000000000000000e+03 5.331351089477539062e+01 -1.433797264099121094e+01 -8.755636811256408691e-01 1.266851127147674561e-01 -2.246635556221008301e-01 -3.531193733215332031e-01
3.516000000000000000e+03 5.627474975585937500e+01 -1.639560127258300781e+01 -2.691469490528106689e-01 4.733522534370422363e-01 6.126159429550170898e-02 -3.768961131572723389e-02
3.517000000000000000e+03 5.719057846069335938e+01 3.049954652786254883e+00 -4.476028084754943848e-01 5.465804338455200195e-01 2.969328500330448151e-02 -1.113707721233367920e-01
3.518000000000000000e+03 5.591588592529296875e+01 2.076786518096923828e+00 -7.535815834999084473e-01 3.291427493095397949e-01 -1.273316442966461182e-01 1.022369191050529480e-01
3.519000000000000000e+03 4.886341476440429688e+01 2.456202030181884766e+00 -8.997620940208435059e-01 1.042373254895210266e-01 -2.386574298143386841e-01 5.017366409301757812e-01
3.520000000000000000e+03 5.202967453002929688e+01 1.868720769882202148e+00 -9.830043911933898926e-01 1.341126412153244019e-01 -2.546675205230712891e-01 3.913443088531494141e-01
3.521000000000000000e+03 5.028118515014648438e+01 2.804339170455932617e+00 -8.167757391929626465e-01 1.255006790161132812e-01 -2.073825150728225708e-01 4.492627680301666260e-01
3.522000000000000000e+03 4.363984680175781250e+01 2.735447406768798828e+00 -8.371562361717224121e-01 4.058016091585159302e-02 -2.389728128910064697e-01 6.269725561141967773e-01
3.523000000000000000e+03 4.293738937377929688e+01 2.599795341491699219e+00 -8.467418551445007324e-01 3.116357326507568359e-02 -2.446734905242919922e-01 6.326087713241577148e-01
3.524000000000000000e+03 2.829307174682617188e+01 3.505097627639770508e+00 -4.286084473133087158e-01 -1.660940647125244141e-01 -1.784107536077499390e-01 6.263418197631835938e-01
3.525000000000000000e+03 4.445117568969726562e+01 3.127886772155761719e+00 -7.889336943626403809e-01 5.648508667945861816e-02 -2.197345793247222900e-01 6.159474849700927734e-01
3.526000000000000000e+03 5.308451843261718750e+01 1.412256717681884766e+00 -1.049027442932128906e+00 1.443306654691696167e-01 -2.714090347290039062e-01 3.390455245971679688e-01
3.527000000000000000e+03 5.125038528442382812e+01 2.834484577178955078e+00 -7.836776971817016602e-01 1.595228165388107300e-01 -1.872464716434478760e-01 3.991440534591674805e-01
3.528000000000000000e+03 4.226516723632812500e+01 1.752090454101562500e+00 -9.396290779113769531e-01 2.009946480393409729e-02 -2.758588790893554688e-01 6.222565174102783203e-01
3.529000000000000000e+03 7.357125854492187500e+01 -1.474575877189636230e+00 -1.560084700584411621e+00 1.174349021911621094e+01 3.055021524429321289e+00 2.335006296634674072e-01
3.530000000000000000e+03 7.361902618408203125e+01 -7.156684398651123047e-01 -1.600335121154785156e+00 1.103170967102050781e+01 2.829412460327148438e+00 5.439769476652145386e-02
3.531000000000000000e+03 5.474458312988281250e+01 -1.559028816223144531e+01 -5.110094547271728516e-01 2.761637270450592041e-01 -7.045372575521469116e-02 -2.114708125591278076e-01
3.532000000000000000e+03 7.313874053955078125e+01 -1.330372333526611328e+01 -1.525864839553833008e+00 9.961520195007324219e+00 2.530696392059326172e+00 5.225390791893005371e-01
3.533000000000000000e+03 3.260632324218750000e+01 -1.668699645996093750e+01 -4.140943586826324463e-01 -8.950429409742355347e-02 -1.510795950889587402e-01 -4.893448948860168457e-01
3.534000000000000000e+03 4.026037597656250000e+01 3.734248161315917969e+00 -6.855017542839050293e-01 2.371055074036121368e-02 -1.985373646020889282e-01 6.793465614318847656e-01
3.535000000000000000e+03 6.052431869506835938e+01 2.887869596481323242e+00 -2.410210967063903809e-01 1.050600528717041016e+00 2.428738176822662354e-01 -6.070013046264648438e-01
3.536000000000000000e+03 6.257752990722656250e+01 1.688096880912780762e+00 -2.816871702671051025e-01 1.385226845741271973e+00 3.310618996620178223e-01 -9.691246151924133301e-01
3.537000000000000000e+03 7.162680816650390625e+01 2.394277334213256836e+00 -1.153577327728271484e+00 8.073924064636230469e+00 2.076103925704956055e+00 -1.397826671600341797e+00
3.538000000000000000e+03 7.240123748779296875e+01 4.996793568134307861e-01 -1.592348933219909668e+00 9.676772117614746094e+00 2.425327062606811523e+00 -1.081946849822998047e+00
3.539000000000000000e+03 6.178315734863281250e+01 -1.464537239074707031e+01 -2.127646654844284058e-01 1.171755194664001465e+00 2.876971662044525146e-01 7.162156701087951660e-01
3.540000000000000000e+03 3.999337768554687500e+01 -1.519183444976806641e+01 -6.797507405281066895e-01 -5.869920551776885986e-02 -2.215349823236465454e-01 -5.248355865478515625e-01
3.541000000000000000e+03 6.312671661376953125e+01 -1.550647449493408203e+01 -4.172316752374172211e-03 1.808646440505981445e+00 5.413422584533691406e-01 1.086032509803771973e+00
3.542000000000000000e+03 6.360573959350585938e+01 -1.429920673370361328e+01 -1.407021731138229370e-01 1.697047948837280273e+00 4.669037461280822754e-01 1.153600573539733887e+00
3.543000000000000000e+03 5.882418823242187500e+01 1.864182949066162109e+00 -5.875223278999328613e-01 5.975904464721679688e-01 3.020433709025382996e-03 -2.382085919380187988e-01
3.544000000000000000e+03 4.635248947143554688e+01 2.956338882446289062e+00 -8.188585042953491211e-01 8.151923865079879761e-02 -2.212017923593521118e-01 5.765078067779541016e-01
3.545000000000000000e+03 5.214314651489257812e+01 2.595943450927734375e+00 -7.986201643943786621e-01 1.876150220632553101e-01 -1.833015531301498413e-01 3.552182316780090332e-01
3.546000000000000000e+03 6.020986938476562500e+01 2.182898998260498047e+00 -3.982922732830047607e-01 8.587102890014648438e-01 1.381254047155380249e-01 -4.864487946033477783e-01
3.547000000000000000e+03 6.121130371093750000e+01 2.406305074691772461e+00 -2.603518962860107422e-01 1.151129484176635742e+00 2.672332823276519775e-01 -7.151613235473632812e-01
3.548000000000000000e+03 6.865942382812500000e+01 -1.090578365325927734e+01 -2.377501279115676880e-01 5.058028221130371094e+00 1.446083426475524902e+00 3.424128293991088867e+00
3.549000000000000000e+03 6.099070358276367188e+01 -1.467196941375732422e+01 -2.677997350692749023e-01 9.796688556671142578e-01 2.135607302188873291e-01 5.473176836967468262e-01
3.550000000000000000e+03 5.931900405883789062e+01 -1.467118835449218750e+01 -4.160863757133483887e-01 6.562719345092773438e-01 7.205566763877868652e-02 2.452442795038223267e-01
3.551000000000000000e+03 6.454285430908203125e+01 8.831324577331542969e-01 -2.354603558778762817e-01 1.958324909210205078e+00 5.168593525886535645e-01 -1.473417639732360840e+00
3.552000000000000000e+03 6.374177551269531250e+01 1.342579841613769531e+00 -2.285449206829071045e-01 1.735923647880554199e+00 4.522136449813842773e-01 -1.267128348350524902e+00
3.553000000000000000e+03 4.525640487670898438e+01 -1.546491527557373047e+01 -7.142007946968078613e-01 -2.212761715054512024e-02 -2.208985239267349243e-01 -5.291208624839782715e-01
3.554000000000000000e+03 7.239087677001953125e+01 -1.423140048980712891e+01 -1.390386104583740234e+00 9.069851875305175781e+00 2.303839683532714844e+00 1.057828187942504883e+00
3.555000000000000000e+03 6.523169708251953125e+01 7.109058499336242676e-01 -2.176040112972259521e-01 2.338113069534301758e+00 6.361526846885681152e-01 -1.699453711509704590e+00
3.556000000000000000e+03 6.641411590576171875e+01 1.761741340160369873e-01 -2.377192974090576172e-01 3.014754056930541992e+00 8.331103920936584473e-01 -2.139953613281250000e+00
3.557000000000000000e+03 4.758589553833007812e+01 1.840561270713806152e+00 -1.017591714859008789e+00 4.371960461139678955e-02 -2.921616137027740479e-01 5.427498221397399902e-01
3.558000000000000000e+03 3.961642837524414062e+01 -1.778644371032714844e+01 -3.722444474697113037e-01 -6.529122591018676758e-02 -1.312607079744338989e-01 -5.489268302917480469e-01
3.559000000000000000e+03 4.768345642089843750e+01 2.575822591781616211e+00 -8.962541222572326660e-01 6.814517825841903687e-02 -2.484326809644699097e-01 5.421324968338012695e-01
3.560000000000000000e+03 6.097229003906250000e+01 -1.555823516845703125e+01 -8.812718838453292847e-02 1.161741971969604492e+00 3.220844268798828125e-01 6.225642561912536621e-01
3.561000000000000000e+03 6.007485580444335938e+01 -1.558717536926269531e+01 -1.585727781057357788e-01 9.443966746330261230e-01 2.357471734285354614e-01 4.447394013404846191e-01
3.562000000000000000e+03 5.917296218872070312e+01 -1.554607391357421875e+01 -2.297190278768539429e-01 7.810444235801696777e-01 1.653976142406463623e-01 2.980317771434783936e-01
3.563000000000000000e+03 5.268804931640625000e+01 2.017880201339721680e+00 -9.201796054840087891e-01 1.758711636066436768e-01 -2.232925295829772949e-01 3.403256535530090332e-01
3.564000000000000000e+03 7.154325103759765625e+01 -1.584450340270996094e+01 -9.738165736198425293e-01 7.804297924041748047e+00 2.049144506454467773e+00 1.303343772888183594e+00
3.565000000000000000e+03 6.819724273681640625e+01 4.180021286010742188e+00 -3.790249824523925781e-01 5.095344066619873047e+00 1.414895772933959961e+00 -1.861437916755676270e+00
3.566000000000000000e+03 2.683445930480957031e+01 3.873208045959472656e+00 -3.837647736072540283e-01 -2.263025939464569092e-01 -1.830202043056488037e-01 6.128323078155517578e-01
3.567000000000000000e+03 5.060730743408203125e+01 -1.726135826110839844e+01 -3.415666818618774414e-01 1.427145004272460938e-01 -5.965565145015716553e-02 -3.823473751544952393e-01
3.568000000000000000e+03 5.368657302856445312e+01 -1.596013927459716797e+01 -4.759512543678283691e-01 2.366220504045486450e-01 -7.179875671863555908e-02 -2.715019285678863525e-01
3.569000000000000000e+03 7.102660369873046875e+01 1.540801763534545898e+00 -1.218886613845825195e+00 8.003221511840820312e+00 2.035300493240356445e+00 -1.796195030212402344e+00
3.570000000000000000e+03 7.154248809814453125e+01 3.138578414916992188e+00 -1.005090117454528809e+00 7.723330020904541016e+00 2.015471935272216797e+00 -1.366381049156188965e+00
3.571000000000000000e+03 7.301867675781250000e+01 -1.442214775085449219e+01 -1.318006157875061035e+00 9.210432052612304688e+00 2.367727756500244141e+00 6.555129885673522949e-01
3.572000000000000000e+03 5.405979919433593750e+01 2.665921926498413086e+00 -7.266213297843933105e-01 2.562487423419952393e-01 -1.411117762327194214e-01 2.280678451061248779e-01
3.573000000000000000e+03 3.913752746582031250e+01 2.960711240768432617e+00 -7.363036274909973145e-01 1.143845077604055405e-02 -2.174595445394515991e-01 6.727580428123474121e-01
3.574000000000000000e+03 4.074507904052734375e+01 1.818717837333679199e+00 -8.889502286911010742e-01 1.201389636844396591e-02 -2.630808949470520020e-01 6.332234740257263184e-01
3.575000000000000000e+03 7.151512908935546875e+01 -1.730790328979492188e+01 -7.072707414627075195e-01 7.279566764831542969e+00 1.971688747406005859e+00 1.211957454681396484e+00
3.576000000000000000e+03 6.937189483642578125e+01 6.465372562408447266e+00 -3.119514286518096924e-01 5.732042789459228516e+00 1.626027464866638184e+00 -1.483584523200988770e+00
3.577000000000000000e+03 3.175065612792968750e+01 -1.550922393798828125e+01 -4.844756126403808594e-01 -7.540281116962432861e-02 -1.679635196924209595e-01 -4.604927003383636475e-01
3.578000000000000000e+03 3.363739776611328125e+01 -1.662141799926757812e+01 -4.350739717483520508e-01 -8.990250527858734131e-02 -1.574929505586624146e-01 -5.002875328063964844e-01
3.579000000000000000e+03 6.732653045654296875e+01 -2.162341880798339844e+01 1.424256265163421631e-01 4.632441520690917969e+00 1.432460069656372070e+00 1.238496661186218262e+00
3.580000000000000000e+03 7.024686431884765625e+01 -1.880117797851562500e+01 -3.937669992446899414e-01 6.313006877899169922e+00 1.775771975517272949e+00 1.330686688423156738e+00
3.581000000000000000e+03 3.477241516113281250e+01 2.524412393569946289e+00 -6.561965942382812500e-01 -2.294980920851230621e-02 -2.037439197301864624e-01 6.607900261878967285e-01
3.582000000000000000e+03 2.815296745300292969e+01 6.384397983551025391e+00 -4.170311391353607178e-01 -2.098358422517776489e-01 -1.880600899457931519e-01 6.880736947059631348e-01
3.583000000000000000e+03 2.917866706848144531e+01 8.919602394104003906e+00 -3.865658044815063477e-01 -1.923504620790481567e-01 -1.736748814582824707e-01 6.946707963943481445e-01
3.584000000000000000e+03 2.792191314697265625e+01 4.408310413360595703e+00 -4.135547578334808350e-01 -1.971424371004104614e-01 -1.832091510295867920e-01 6.466494798660278320e-01
3.585000000000000000e+03 2.610938072204589844e+01 1.161023139953613281e+01 -4.073222279548645020e-01 -3.491288721561431885e-01 -2.269353270530700684e-01 6.340014934539794922e-01
3.586000000000000000e+03 6.616487121582031250e+01 -2.251608848571777344e+01 2.767517864704132080e-01 4.156472682952880859e+00 1.329967260360717773e+00 1.120943784713745117e+00
3.587000000000000000e+03 6.782945251464843750e+01 -2.426383018493652344e+01 2.551863491535186768e-01 4.821856021881103516e+00 1.523112773895263672e+00 1.043523311614990234e+00
3.588000000000000000e+03 7.015618896484375000e+01 5.977088451385498047e+00 -4.330840110778808594e-01 6.201670169830322266e+00 1.730575919151306152e+00 -1.428698897361755371e+00
3.589000000000000000e+03 6.952653503417968750e+01 -1.838763618469238281e+01 -3.589154481887817383e-01 5.946691989898681641e+00 1.676332950592041016e+00 1.475903511047363281e+00
3.590000000000000000e+03 6.822274017333984375e+01 -2.043085479736328125e+01 -2.186351642012596130e-02 5.079965591430664062e+00 1.517430663108825684e+00 1.336695909500122070e+00
3.591000000000000000e+03 6.839759826660156250e+01 9.299473762512207031e+00 9.783998131752014160e-03 5.041876792907714844e+00 1.515498280525207520e+00 -1.297102808952331543e+00
3.592000000000000000e+03 6.714308166503906250e+01 -2.613033866882324219e+01 3.633922934532165527e-01 4.549779415130615234e+00 1.473951458930969238e+00 9.139812588691711426e-01
3.593000000000000000e+03 3.345499038696289062e+01 -1.558289718627929688e+01 -5.155846476554870605e-01 -7.954538613557815552e-02 -1.785390079021453857e-01 -4.783321917057037354e-01
3.594000000000000000e+03 3.260345077514648438e+01 -1.564840602874755859e+01 -4.925665557384490967e-01 -7.784105092287063599e-02 -1.711222827434539795e-01 -4.726723730564117432e-01
3.595000000000000000e+03 1.336436557769775391e+01 -2.929217529296875000e+01 8.170277625322341919e-02 -3.173843622207641602e-01 -7.070448249578475952e-02 -2.142315655946731567e-01
3.596000000000000000e+03 2.222383689880371094e+01 -2.274781227111816406e+01 -6.604244560003280640e-02 -1.960378289222717285e-01 -7.862408459186553955e-02 -3.417539298534393311e-01
3.597000000000000000e+03 2.304639816284179688e+01 -1.984282302856445312e+01 -1.917003244161605835e-01 -1.324473768472671509e-01 -9.724431484937667847e-02 -3.682955205440521240e-01
3.598000000000000000e+03 2.759020996093750000e+01 -1.634287643432617188e+01 -3.683093190193176270e-01 -7.506290078163146973e-02 -1.330116689205169678e-01 -4.234950542449951172e-01
3.599000000000000000e+03 6.615192413330078125e+01 1.872882652282714844e+01 3.910519182682037354e-01 4.254536151885986328e+00 1.393676519393920898e+00 -8.530273437500000000e-01
3.600000000000000000e+03 6.783371734619140625e+01 1.864911842346191406e+01 3.134109079837799072e-01 4.745421409606933594e+00 1.517649650573730469e+00 -8.587511181831359863e-01
3.601000000000000000e+03 2.454321098327636719e+01 1.828448295593261719e+01 -2.079756259918212891e-01 -4.938408136367797852e-01 -2.105449289083480835e-01 4.135207831859588623e-01
3.602000000000000000e+03 2.345790481567382812e+01 2.008236503601074219e+01 -1.335390657186508179e-01 -5.565457940101623535e-01 -2.070254534482955933e-01 3.647101521492004395e-01
3.603000000000000000e+03 2.330108261108398438e+01 1.855039215087890625e+01 -2.216769307851791382e-01 -5.638517737388610840e-01 -2.356586158275604248e-01 4.007633626461029053e-01
3.604000000000000000e+03 2.238551330566406250e+01 2.301806640625000000e+01 4.674668237566947937e-02 -6.317166686058044434e-01 -1.754909902811050415e-01 3.026694953441619873e-01
3.605000000000000000e+03 1.576035976409912109e+01 2.895752716064453125e+01 2.337821125984191895e-01 -7.507492899894714355e-01 -1.550901532173156738e-01 3.190022706985473633e-01
3.606000000000000000e+03 1.634493255615234375e+01 2.695915222167968750e+01 1.749774217605590820e-01 -7.855088114738464355e-01 -1.831594109535217285e-01 3.433141410350799561e-01
3.607000000000000000e+03 2.324558448791503906e+01 -1.701974678039550781e+01 -2.961624860763549805e-01 -8.346755802631378174e-02 -1.138890162110328674e-01 -3.616245388984680176e-01
3.608000000000000000e+03 7.233818054199218750e+01 -3.586828613281250000e+01 2.284534573554992676e-01 6.078809261322021484e+00 1.892178773880004883e+00 3.683762848377227783e-01
3.609000000000000000e+03 7.158876800537109375e+01 3.338584518432617188e+01 1.470873653888702393e-01 5.341508865356445312e+00 1.646578907966613770e+00 -2.838137149810791016e-01
3.610000000000000000e+03 6.882098388671875000e+01 -1.058125495910644531e+01 -2.030026763677597046e-01 5.211767196655273438e+00 1.502629280090332031e+00 3.598520994186401367e+00
3.611000000000000000e+03 7.004085540771484375e+01 -2.661303281784057617e+00 -7.333762049674987793e-01 8.345292091369628906e+00 2.283574819564819336e+00 -4.155786991119384766e+00
3.612000000000000000e+03 7.084044647216796875e+01 -2.101879119873046875e+00 -1.489337801933288574e+00 1.045705795288085938e+01 2.690315961837768555e+00 -3.224298477172851562e+00
3.613000000000000000e+03 7.087879180908203125e+01 -2.705604314804077148e+00 -1.409614920616149902e+00 1.095227336883544922e+01 2.862797498703002930e+00 -3.479213953018188477e+00
3.614000000000000000e+03 7.182591247558593750e+01 -2.036069869995117188e+00 -1.830104470252990723e+00 1.193556785583496094e+01 3.031639099121093750e+00 -1.846372127532958984e+00
3.615000000000000000e+03 6.977902984619140625e+01 -2.519503831863403320e+00 -5.941329598426818848e-01 7.585926532745361328e+00 2.097538232803344727e+00 -4.086061954498291016e+00
3.616000000000000000e+03 7.085079956054687500e+01 -1.064112758636474609e+01 -1.447079539299011230e+00 1.034382534027099609e+01 2.669023752212524414e+00 3.210421800613403320e+00
3.617000000000000000e+03 7.048631286621093750e+01 -1.077289676666259766e+01 -1.212442278861999512e+00 9.303244590759277344e+00 2.427240610122680664e+00 3.490335464477539062e+00
3.618000000000000000e+03 7.012454223632812500e+01 -1.081032085418701172e+01 -1.004368901252746582e+00 8.407184600830078125e+00 2.220844745635986328e+00 3.641070604324340820e+00
3.619000000000000000e+03 7.185283660888671875e+01 -1.152583312988281250e+01 -1.804195880889892578e+00 1.094227695465087891e+01 2.741424322128295898e+00 1.724164247512817383e+00
3.620000000000000000e+03 7.215230560302734375e+01 -2.173125743865966797e+00 -1.812989592552185059e+00 1.240922832489013672e+01 3.178871631622314453e+00 -1.345773696899414062e+00
3.621000000000000000e+03 7.274433135986328125e+01 -1.947434186935424805e+00 -1.722629904747009277e+00 1.230855751037597656e+01 3.175778388977050781e+00 -5.252936482429504395e-01
3.622000000000000000e+03 6.797722625732421875e+01 -1.152462577819824219e+01 -2.404766231775283813e-01 4.157781600952148438e+00 1.175191521644592285e+00 2.895147323608398438e+00
3.623000000000000000e+03 6.851441192626953125e+01 -2.610781431198120117e+00 -8.207874745130538940e-02 4.216715812683105469e+00 1.240391135215759277e+00 -3.445901155471801758e+00
3.624000000000000000e+03 7.161405944824218750e+01 -1.054052352905273438e+01 -1.762856483459472656e+00 1.198427486419677734e+01 3.066425561904907227e+00 2.286792516708374023e+00
3.625000000000000000e+03 6.542730712890625000e+01 8.800178766250610352e-02 -2.745934128761291504e-01 2.227793693542480469e+00 5.859600901603698730e-01 -1.761023163795471191e+00
3.626000000000000000e+03 6.664659118652343750e+01 1.021978855133056641e+00 -2.342682629823684692e-01 3.429884433746337891e+00 9.586848616600036621e-01 -2.165016412734985352e+00
3.627000000000000000e+03 7.296176910400390625e+01 -1.379294753074645996e+00 -1.740980148315429688e+00 1.166934108734130859e+01 2.978508234024047852e+00 -4.362716972827911377e-01
3.628000000000000000e+03 7.193515014648437500e+01 -1.160482883453369141e+00 -1.818563342094421387e+00 1.089064311981201172e+01 2.721623897552490234e+00 -1.649665474891662598e+00
3.629000000000000000e+03 7.275712585449218750e+01 -1.140727901458740234e+01 -1.791659355163574219e+00 1.172433376312255859e+01 2.979802370071411133e+00 6.174408793449401855e-01
3.630000000000000000e+03 6.839169311523437500e+01 -2.217365503311157227e+00 -1.609303355216979980e-01 4.274446487426757812e+00 1.234054803848266602e+00 -3.310993909835815430e+00
3.631000000000000000e+03 7.156033325195312500e+01 -1.122773075103759766e+01 -1.752782702445983887e+00 1.094523906707763672e+01 2.757736921310424805e+00 2.105948209762573242e+00
3.632000000000000000e+03 7.180659484863281250e+01 -1.090966892242431641e+01 -1.837473034858703613e+00 1.163509559631347656e+01 2.939286708831787109e+00 1.878226995468139648e+00
3.633000000000000000e+03 6.918668365478515625e+01 -1.071671485900878906e+01 -3.788700103759765625e-01 6.077507495880126953e+00 1.709591269493103027e+00 3.681383609771728516e+00
3.634000000000000000e+03 7.406944274902343750e+01 -1.030249404907226562e+01 -8.938489556312561035e-01 1.219690895080566406e+01 3.390918016433715820e+00 -1.199314594268798828e+00
3.635000000000000000e+03 7.169911193847656250e+01 1.703436613082885742e+00 -1.289631247520446777e+00 8.448268890380859375e+00 2.147591352462768555e+00 -1.437745094299316406e+00
3.636000000000000000e+03 6.625720977783203125e+01 -4.510524570941925049e-01 -2.714816629886627197e-01 2.586215257644653320e+00 6.944200396537780762e-01 -2.064766168594360352e+00
3.637000000000000000e+03 7.039895629882812500e+01 -1.031503772735595703e+01 -1.044070482254028320e+00 9.383383750915527344e+00 2.501793861389160156e+00 3.917948961257934570e+00
3.638000000000000000e+03 6.689644622802734375e+01 -1.216726016998291016e+01 -1.904361248016357422e-01 3.080593824386596680e+00 8.670473098754882812e-01 2.303890228271484375e+00
3.639000000000000000e+03 7.126672363281250000e+01 -1.435156059265136719e+01 -1.232062578201293945e+00 8.238473892211914062e+00 2.101923465728759766e+00 1.624827504158020020e+00
3.640000000000000000e+03 6.649404144287109375e+01 -8.425229191780090332e-01 -2.474529445171356201e-01 2.585532903671264648e+00 7.014239430427551270e-01 -2.159160852432250977e+00
3.641000000000000000e+03 6.491949462890625000e+01 1.258566379547119141e+00 -1.886784732341766357e-01 2.334833621978759766e+00 6.438465714454650879e-01 -1.624316096305847168e+00
3.642000000000000000e+03 7.273532867431640625e+01 -1.365187168121337891e+01 -1.505701422691345215e+00 9.578503608703613281e+00 2.421840667724609375e+00 8.559925556182861328e-01
3.643000000000000000e+03 7.177557373046875000e+01 1.065319299697875977e+00 -1.426790595054626465e+00 8.860838890075683594e+00 2.230214357376098633e+00 -1.470339894294738770e+00
3.644000000000000000e+03 7.057094573974609375e+01 -1.710519045591354370e-01 -1.312917470932006836e+00 8.335157394409179688e+00 2.106671810150146484e+00 -2.481489658355712891e+00
3.645000000000000000e+03 7.385176849365234375e+01 -1.060981845855712891e+01 -1.218084692955017090e+00 1.217550277709960938e+01 3.287225484848022461e+00 -8.039100170135498047e-01
3.646000000000000000e+03 7.300730895996093750e+01 -7.187591195106506348e-01 -1.734838962554931641e+00 1.102918338775634766e+01 2.788303375244140625e+00 -4.965838491916656494e-01
3.647000000000000000e+03 7.260893249511718750e+01 -1.244344902038574219e+01 -1.717668890953063965e+00 1.047424697875976562e+01 2.626973628997802734e+00 9.081372618675231934e-01
3.648000000000000000e+03 7.326845550537109375e+01 -1.083838939666748047e+01 -1.550913453102111816e+00 1.225016593933105469e+01 3.209775924682617188e+00 -1.398701071739196777e-01
3.649000000000000000e+03 3.143486022949218750e+01 2.667338848114013672e+00 -5.446161031723022461e-01 -7.543937116861343384e-02 -1.860166341066360474e-01 6.407369375228881836e-01
3.650000000000000000e+03 6.763732147216796875e+01 -1.120801067352294922e+01 -1.367503851652145386e-01 3.450785875320434570e+00 9.942106604576110840e-01 2.773694515228271484e+00
3.651000000000000000e+03 3.452433013916015625e+01 4.731290340423583984e+00 -5.377198457717895508e-01 -3.352336958050727844e-02 -1.713729649782180786e-01 7.074515819549560547e-01
3.652000000000000000e+03 3.559179306030273438e+01 2.648486137390136719e+00 -6.721155643463134766e-01 -1.570237986743450165e-02 -2.063453793525695801e-01 6.659126281738281250e-01
3.653000000000000000e+03 6.602307891845703125e+01 -1.366719627380371094e+01 -1.328802555799484253e-01 2.928337812423706055e+00 8.386372923851013184e-01 1.925301074981689453e+00
3.654000000000000000e+03 6.624843597412109375e+01 -1.318195819854736328e+01 -1.385720819234848022e-01 2.960067749023437500e+00 8.464486598968505859e-01 2.007111310958862305e+00
3.655000000000000000e+03 6.556291961669921875e+01 -1.259843921661376953e+01 -1.843347251415252686e-01 2.177070379257202148e+00 5.978207588195800781e-01 1.739739656448364258e+00
3.656000000000000000e+03 5.739414978027343750e+01 -1.538925838470458984e+01 -3.969379067420959473e-01 4.985120892524719238e-01 3.047225065529346466e-02 3.188850358128547668e-02
3.657000000000000000e+03 5.828296661376953125e+01 -1.686666488647460938e+01 -4.953778162598609924e-02 8.355023860931396484e-01 2.357893735170364380e-01 2.437281906604766846e-01
3.658000000000000000e+03 7.297331237792968750e+01 -1.230673313140869141e+01 -1.695044636726379395e+00 1.073731708526611328e+01 2.712681770324707031e+00 5.479804873466491699e-01
3.659000000000000000e+03 5.648478317260742188e+01 -1.755405426025390625e+01 -3.983295708894729614e-02 6.336184740066528320e-01 1.781356483697891235e-01 5.053900554776191711e-02
3.660000000000000000e+03 3.317152404785156250e+01 2.175252199172973633e+00 -6.182703971862792969e-01 -4.137836396694183350e-02 -1.978946328163146973e-01 6.402120590209960938e-01
3.661000000000000000e+03 5.260975265502929688e+01 -1.610810661315917969e+01 -5.003237724304199219e-01 1.816950142383575439e-01 -9.558862447738647461e-02 -3.310071229934692383e-01
3.662000000000000000e+03 3.627095031738281250e+01 3.631108522415161133e+00 -6.273863315582275391e-01 -9.551772847771644592e-03 -1.910814344882965088e-01 6.922673583030700684e-01
3.663000000000000000e+03 3.539226531982421875e+01 3.588682651519775391e+00 -6.115458607673645020e-01 -2.007954195141792297e-02 -1.894876211881637573e-01 6.906779408454895020e-01
3.664000000000000000e+03 5.710182189941406250e+01 3.883673429489135742e+00 -2.908987402915954590e-01 6.390746831893920898e-01 1.044527888298034668e-01 -1.465287655591964722e-01
3.665000000000000000e+03 5.553667449951171875e+01 3.773568391799926758e+00 -4.193636476993560791e-01 4.625058770179748535e-01 1.294267084449529648e-02 4.323935881257057190e-02
3.666000000000000000e+03 7.276974487304687500e+01 -1.288247871398925781e+01 -1.639874577522277832e+00 1.021628570556640625e+01 2.572923183441162109e+00 7.705860137939453125e-01
3.667000000000000000e+03 5.788742446899414062e+01 3.017310619354248047e+00 -4.069286286830902100e-01 6.226719021797180176e-01 6.472299247980117798e-02 -1.909590363502502441e-01
3.668000000000000000e+03 4.317791366577148438e+01 3.330229997634887695e+00 -7.664863467216491699e-01 4.041762277483940125e-02 -2.178206145763397217e-01 6.375265121459960938e-01
3.669000000000000000e+03 5.001470565795898438e+01 3.712990760803222656e+00 -6.578663587570190430e-01 1.521763354539871216e-01 -1.517070084810256958e-01 4.388464093208312988e-01
3.670000000000000000e+03 7.158130645751953125e+01 -1.656471443176269531e+01 -8.477368950843811035e-01 7.557637214660644531e+00 2.012970209121704102e+00 1.241137623786926270e+00
3.671000000000000000e+03 7.004189300537109375e+01 -1.756135368347167969e+01 -5.249478220939636230e-01 6.388092041015625000e+00 1.758943319320678711e+00 1.502061247825622559e+00
3.672000000000000000e+03 4.239294433593750000e+01 3.816303491592407227e+00 -7.004486322402954102e-01 4.591234773397445679e-02 -1.963608860969543457e-01 6.558543443679809570e-01
3.673000000000000000e+03 4.224491500854492188e+01 2.514342784881591797e+00 -8.460877537727355957e-01 2.711683139204978943e-02 -2.456912696361541748e-01 6.379665136337280273e-01
3.674000000000000000e+03 4.112623977661132812e+01 3.456538915634155273e+00 -7.251293659210205078e-01 3.097024932503700256e-02 -2.082477360963821411e-01 6.700122356414794922e-01
3.675000000000000000e+03 7.245757293701171875e+01 -6.744595170021057129e-01 -1.776606917381286621e+00 1.077419376373291016e+01 2.699276208877563477e+00 -1.058258414268493652e+00
3.676000000000000000e+03 4.830784606933593750e+01 2.430757761001586914e+00 -9.141576290130615234e-01 7.944035530090332031e-02 -2.504151761531829834e-01 5.243521332740783691e-01
3.677000000000000000e+03 4.686835098266601562e+01 1.930994153022766113e+00 -9.920596480369567871e-01 5.061756074428558350e-02 -2.824326157569885254e-01 5.531179904937744141e-01
3.678000000000000000e+03 6.150197601318359375e+01 3.235963344573974609e+00 -1.222313269972801208e-01 1.402681827545166016e+00 3.841351568698883057e-01 -8.209598660469055176e-01
3.679000000000000000e+03 5.927635192871093750e+01 2.198904991149902344e+00 -4.674488902091979980e-01 7.072474956512451172e-01 7.193958759307861328e-02 -3.430173397064208984e-01
3.680000000000000000e+03 5.800146484375000000e+01 3.715049982070922852e+00 -2.687405049800872803e-01 7.480015754699707031e-01 1.437783241271972656e-01 -2.610175311565399170e-01
3.681000000000000000e+03 6.311007690429687500e+01 -1.779759216308593750e+01 2.026485204696655273e-01 2.310837268829345703e+00 7.540457248687744141e-01 1.094151973724365234e+00
3.682000000000000000e+03 5.330717086791992188e+01 2.396754503250122070e+00 -8.191603422164916992e-01 2.025539427995681763e-01 -1.849819123744964600e-01 2.945866584777832031e-01
3.683000000000000000e+03 6.289549636840820312e+01 3.960766077041625977e+00 2.251377515494823456e-02 1.992788195610046387e+00 6.045905947685241699e-01 -1.147885322570800781e+00
3.684000000000000000e+03 6.420880126953125000e+01 1.178848028182983398e+00 -2.116109132766723633e-01 1.890935897827148438e+00 5.037974715232849121e-01 -1.393211245536804199e+00
3.685000000000000000e+03 6.337932205200195312e+01 2.164036750793457031e+00 -1.505978256464004517e-01 1.818283438682556152e+00 5.003056526184082031e-01 -1.216764450073242188e+00
3.686000000000000000e+03 3.257308578491210938e+01 1.230652213096618652e+00 -6.262370944023132324e-01 -4.292843863368034363e-02 -2.007496654987335205e-01 5.989136099815368652e-01
3.687000000000000000e+03 4.004355239868164062e+01 2.810676813125610352e+00 -7.722916603088378906e-01 1.741560734808444977e-02 -2.264628261327743530e-01 6.653501987457275391e-01
3.688000000000000000e+03 6.443379974365234375e+01 -1.421457290649414062e+01 -1.016847565770149231e-01 2.053982734680175781e+00 5.856893658638000488e-01 1.422908186912536621e+00
3.689000000000000000e+03 5.258155441284179688e+01 -1.508234596252441406e+01 -7.134671211242675781e-01 1.260471343994140625e-01 -1.762259900569915771e-01 -3.677511811256408691e-01
3.690000000000000000e+03 5.395004272460937500e+01 -1.706664848327636719e+01 -2.601885497570037842e-01 3.227825462818145752e-01 1.877820119261741638e-02 -2.028208523988723755e-01
3.691000000000000000e+03 5.984088516235351562e+01 3.305868148803710938e+00 -2.229529768228530884e-01 9.971963167190551758e-01 2.322729974985122681e-01 -5.139414668083190918e-01
3.692000000000000000e+03 2.881305885314941406e+01 5.745429992675781250e+00 -4.286755621433258057e-01 -1.770396679639816284e-01 -1.817145645618438721e-01 6.861550211906433105e-01
3.693000000000000000e+03 6.576708984375000000e+01 9.040072560310363770e-01 -1.878779679536819458e-01 2.762000799179077148e+00 7.722368240356445312e-01 -1.901542901992797852e+00
3.694000000000000000e+03 6.393606185913085938e+01 1.957958817481994629e+00 -1.668934077024459839e-01 1.972159981727600098e+00 5.415799617767333984e-01 -1.351040124893188477e+00
3.695000000000000000e+03 5.112622070312500000e+01 3.752530336380004883e+00 -6.182224750518798828e-01 2.036180496215820312e-01 -1.243813335895538330e-01 3.820085823535919189e-01
3.696000000000000000e+03 4.995800399780273438e+01 -1.660192680358886719e+01 -4.701142311096191406e-01 1.015447154641151428e-01 -1.105708554387092590e-01 -4.272487759590148926e-01
3.697000000000000000e+03 7.052964019775390625e+01 -1.183519172668457031e+01 -1.344642639160156250e+00 8.822152137756347656e+00 2.243252992630004883e+00 2.785649776458740234e+00
3.698000000000000000e+03 6.995179748535156250e+01 3.497925996780395508e+00 -7.198181152343750000e-01 6.444671154022216797e+00 1.717455983161926270e+00 -1.773746848106384277e+00
3.699000000000000000e+03 5.569585418701171875e+01 2.920935392379760742e+00 -5.753135085105895996e-01 3.950785994529724121e-01 -5.407048016786575317e-02 7.879900187253952026e-02
3.700000000000000000e+03 5.465931320190429688e+01 3.718796968460083008e+00 -4.751375317573547363e-01 3.768164813518524170e-01 -2.949631027877330780e-02 1.178454831242561340e-01
3.701000000000000000e+03 7.100886535644531250e+01 -1.665471839904785156e+01 -7.855085134506225586e-01 7.194213390350341797e+00 1.922611474990844727e+00 1.410579085350036621e+00
3.702000000000000000e+03 3.451527786254882812e+01 3.418560981750488281e+00 -5.995957851409912109e-01 -2.982810884714126587e-02 -1.888271719217300415e-01 6.836243867874145508e-01
3.703000000000000000e+03 3.219544219970703125e+01 2.770348548889160156e+00 -5.626107454299926758e-01 -6.249104440212249756e-02 -1.875305324792861938e-01 6.536847352981567383e-01
3.704000000000000000e+03 6.901802062988281250e+01 -1.137032270431518555e+00 -5.870378613471984863e-01 5.943732261657714844e+00 1.607008218765258789e+00 -3.260480880737304688e+00
3.705000000000000000e+03 6.841471862792968750e+01 6.856117725372314453e+00 -1.754613369703292847e-01 5.181948184967041016e+00 1.501946091651916504e+00 -1.510440587997436523e+00
3.706000000000000000e+03 6.202198028564453125e+01 -1.624812507629394531e+01 5.187019333243370056e-02 1.596526741981506348e+00 4.945190548896789551e-01 8.625501990318298340e-01
3.707000000000000000e+03 5.211963272094726562e+01 4.030330657958984375e+00 -5.369091629981994629e-01 2.718420624732971191e-01 -7.952012866735458374e-02 3.088579773902893066e-01
3.708000000000000000e+03 5.274752426147460938e+01 3.184988498687744141e+00 -6.671969294548034668e-01 2.348709106445312500e-01 -1.296978145837783813e-01 3.016878962516784668e-01
3.709000000000000000e+03 2.502742958068847656e+01 -1.727347373962402344e+01 -2.927189171314239502e-01 -8.677437156438827515e-02 -1.138479858636856079e-01 -3.960427939891815186e-01
3.710000000000000000e+03 2.975043296813964844e+01 -1.877223014831542969e+01 -2.422867566347122192e-01 -1.112569496035575867e-01 -1.060631126165390015e-01 -4.719537496566772461e-01
3.711000000000000000e+03 3.961922073364257812e+01 5.015487194061279297e+00 -5.587221980094909668e-01 3.050145320594310760e-02 -1.584662348031997681e-01 6.953802704811096191e-01
3.712000000000000000e+03 4.158425521850585938e+01 2.474539518356323242e+00 -8.403004407882690430e-01 2.091040462255477905e-02 -2.458170056343078613e-01 6.428252458572387695e-01
3.713000000000000000e+03 5.844308853149414062e+01 2.903154134750366211e+00 -3.880754113197326660e-01 7.021422982215881348e-01 9.422007203102111816e-02 -2.582871019840240479e-01
3.714000000000000000e+03 5.850858306884765625e+01 2.411649703979492188e+00 -4.905158877372741699e-01 6.311265230178833008e-01 4.218319058418273926e-02 -2.298231124877929688e-01
3.715000000000000000e+03 5.869995880126953125e+01 -1.754679679870605469e+01 5.790608376264572144e-02 9.971279501914978027e-01 3.165102005004882812e-01 3.410362601280212402e-01
3.716000000000000000e+03 5.942733383178710938e+01 -1.689754104614257812e+01 8.840916678309440613e-03 1.021923303604125977e+00 3.092292547225952148e-01 4.240630269050598145e-01
3.717000000000000000e+03 7.080168151855468750e+01 2.942828416824340820e+00 -9.521737694740295410e-01 7.266928195953369141e+00 1.894426226615905762e+00 -1.650495648384094238e+00
3.718000000000000000e+03 6.653230285644531250e+01 3.235519170761108398e+00 -1.961325407028198242e-01 3.903517961502075195e+00 1.112215638160705566e+00 -1.874025583267211914e+00
3.719000000000000000e+03 4.427776718139648438e+01 -1.677375602722167969e+01 -5.175983905792236328e-01 -2.484584040939807892e-02 -1.627332717180252075e-01 -5.373663902282714844e-01
3.720000000000000000e+03 4.699137496948242188e+01 -1.713986778259277344e+01 -4.279563426971435547e-01 3.943615034222602844e-02 -1.165560558438301086e-01 -4.957576096057891846e-01
3.721000000000000000e+03 2.453317832946777344e+01 -1.964329338073730469e+01 -2.018007040023803711e-01 -1.258116066455841064e-01 -9.828369319438934326e-02 -3.933779597282409668e-01
3.722000000000000000e+03 6.778431701660156250e+01 8.315728187561035156e+00 -5.462725530378520489e-04 4.770043849945068359e+00 1.430849313735961914e+00 -1.398444294929504395e+00
3.723000000000000000e+03 6.892356109619140625e+01 7.860938072204589844e+00 -1.283689439296722412e-01 5.382030963897705078e+00 1.576098680496215820e+00 -1.385752201080322266e+00
3.724000000000000000e+03 2.988358497619628906e+01 2.215610980987548828e+00 -4.949854016304016113e-01 -1.028983667492866516e-01 -1.793651282787322998e-01 6.045771241188049316e-01
3.725000000000000000e+03 2.955638122558593750e+01 3.001921892166137695e+00 -4.744395017623901367e-01 -1.210328638553619385e-01 -1.786417067050933838e-01 6.288264393806457520e-01
3.726000000000000000e+03 6.534337615966796875e+01 1.289096164703369141e+01 3.313803970813751221e-01 3.876938819885253906e+00 1.262495756149291992e+00 -1.089414715766906738e+00
3.727000000000000000e+03 6.471188354492187500e+01 -1.509360218048095703e+01 -1.381973922252655029e-02 2.451236963272094727e+00 7.312251925468444824e-01 1.491047501564025879e+00
3.728000000000000000e+03 6.739021301269531250e+01 -1.960673141479492188e+01 -1.602113246917724609e-03 4.620236873626708984e+00 1.385590434074401855e+00 1.419515490531921387e+00
3.729000000000000000e+03 2.591569900512695312e+01 1.788193511962890625e+01 -1.883733868598937988e-01 -4.093883931636810303e-01 -1.793285310268402100e-01 4.380110502243041992e-01
3.730000000000000000e+03 4.787659072875976562e+01 3.307949304580688477e+00 -7.669638395309448242e-01 9.912294149398803711e-02 -2.003522664308547974e-01 5.255644321441650391e-01
3.731000000000000000e+03 2.787202644348144531e+01 1.039332675933837891e+01 -3.882995545864105225e-01 -2.538907825946807861e-01 -1.926570981740951538e-01 6.682411432266235352e-01
3.732000000000000000e+03 4.548651504516601562e+01 3.267274141311645508e+00 -7.733587622642517090e-01 6.494385004043579102e-02 -2.125244736671447754e-01 5.953069329261779785e-01
3.733000000000000000e+03 3.461636734008789062e+01 -1.639244461059570312e+01 -4.669804871082305908e-01 -8.715172111988067627e-02 -1.662396639585494995e-01 -5.040635466575622559e-01
3.734000000000000000e+03 4.322356033325195312e+01 -1.559790134429931641e+01 -6.801337003707885742e-01 -3.851957246661186218e-02 -2.155959904193878174e-01 -5.366461277008056641e-01
3.735000000000000000e+03 4.145606613159179688e+01 -1.741778373718261719e+01 -4.185126423835754395e-01 -5.519471690058708191e-02 -1.421122103929519653e-01 -5.496816635131835938e-01
3.736000000000000000e+03 6.639465332031250000e+01 -2.403177642822265625e+01 3.341711163520812988e-01 4.285328388214111328e+00 1.385849833488464355e+00 1.062718510627746582e+00
3.737000000000000000e+03 6.628096771240234375e+01 -2.793108749389648438e+01 4.843095541000366211e-01 4.298029422760009766e+00 1.434701681137084961e+00 8.092129826545715332e-01
3.738000000000000000e+03 3.863122558593750000e+01 -1.685374069213867188e+01 -4.677407443523406982e-01 -7.530833780765533447e-02 -1.629147231578826904e-01 -5.425744652748107910e-01
3.739000000000000000e+03 4.032632064819335938e+01 -1.676031684875488281e+01 -4.918313324451446533e-01 -6.266919523477554321e-02 -1.663501560688018799e-01 -5.446464419364929199e-01
3.740000000000000000e+03 3.011274719238281250e+01 -1.742525672912597656e+01 -3.340330421924591064e-01 -9.322997927665710449e-02 -1.281789094209671021e-01 -4.721633195877075195e-01
3.741000000000000000e+03 3.156813049316406250e+01 -1.656110954284667969e+01 -4.091002941131591797e-01 -8.589047938585281372e-02 -1.484972238540649414e-01 -4.771777093410491943e-01
3.742000000000000000e+03 6.737262725830078125e+01 -2.987426757812500000e+01 4.510196447372436523e-01 4.651435375213623047e+00 1.530736565589904785e+00 6.773937344551086426e-01
3.743000000000000000e+03 6.846291351318359375e+01 -2.695232582092285156e+01 3.218120336532592773e-01 5.028885364532470703e+00 1.605209231376647949e+00 8.616324663162231445e-01
3.744000000000000000e+03 2.502340888977050781e+01 1.240210151672363281e+01 -4.212138354778289795e-01 -4.224433600902557373e-01 -2.530971467494964600e-01 6.041030287742614746e-01
3.745000000000000000e+03 2.655256271362304688e+01 -1.649536705017089844e+01 -3.512727320194244385e-01 -7.343184202909469604e-02 -1.274113655090332031e-01 -4.130912721157073975e-01
3.746000000000000000e+03 6.640878295898437500e+01 1.493675804138183594e+01 3.357687294483184814e-01 4.298493862152099609e+00 1.390278816223144531e+00 -1.012847900390625000e+00
3.747000000000000000e+03 6.803289031982421875e+01 3.282285690307617188e+01 2.647430896759033203e-01 4.716351032257080078e+00 1.494328260421752930e+00 -3.494338691234588623e-01
3.748000000000000000e+03 2.866596603393554688e+01 7.589351177215576172e+00 -4.088474512100219727e-01 -1.991077363491058350e-01 -1.823865473270416260e-01 7.010198831558227539e-01
3.749000000000000000e+03 6.799363708496093750e+01 1.515810966491699219e+01 2.671424448490142822e-01 4.801428794860839844e+00 1.520571351051330566e+00 -1.011224389076232910e+00
3.750000000000000000e+03 6.989853668212890625e+01 3.501922225952148438e+01 2.035249322652816772e-01 4.991292953491210938e+00 1.558445334434509277e+00 -2.607844769954681396e-01
3.751000000000000000e+03 1.827706909179687500e+01 2.734529304504394531e+01 2.163175642490386963e-01 -7.459362149238586426e-01 -1.588855981826782227e-01 3.041233718395233154e-01
3.752000000000000000e+03 1.866984558105468750e+01 2.513967514038085938e+01 1.239610463380813599e-01 -7.745001316070556641e-01 -1.951617300510406494e-01 3.179207444190979004e-01
3.753000000000000000e+03 6.574703216552734375e+01 -2.553729629516601562e+01 4.344583749771118164e-01 4.046308040618896484e+00 1.344229936599731445e+00 9.580480456352233887e-01
3.754000000000000000e+03 2.449098968505859375e+01 -2.139724540710449219e+01 -1.188128218054771423e-01 -1.575301438570022583e-01 -8.290289342403411865e-02 -3.897285759449005127e-01
3.755000000000000000e+03 7.058643341064453125e+01 -2.033873319625854492e+00 -1.279420137405395508e+00 9.468873023986816406e+00 2.456835746765136719e+00 -3.424859046936035156e+00
3.756000000000000000e+03 7.025331878662109375e+01 -2.051586389541625977e+00 -1.087242364883422852e+00 8.750016212463378906e+00 2.298831939697265625e+00 -3.659331321716308594e+00
3.757000000000000000e+03 7.184990692138671875e+01 4.690260291099548340e-01 -1.559113860130310059e+00 9.325681686401367188e+00 2.329970121383666992e+00 -1.508859634399414062e+00
3.758000000000000000e+03 7.093039703369140625e+01 -1.104562282562255859e+01 -1.507808685302734375e+00 1.010421943664550781e+01 2.578923225402832031e+00 2.932848930358886719e+00
3.759000000000000000e+03 7.123884582519531250e+01 -1.102406215667724609e+01 -1.652511358261108398e+00 1.072898769378662109e+01 2.722942829132080078e+00 2.551718473434448242e+00
3.760000000000000000e+03 6.784537506103515625e+01 -1.403988242149353027e+00 -2.500278651714324951e-01 3.837558746337890625e+00 1.076259255409240723e+00 -2.880341529846191406e+00
3.761000000000000000e+03 7.150772094726562500e+01 -2.037438392639160156e+00 -1.776444435119628906e+00 1.153017234802246094e+01 2.926118135452270508e+00 -2.401081085205078125e+00
3.762000000000000000e+03 7.231332397460937500e+01 -1.736829161643981934e+00 -1.835376381874084473e+00 1.185550212860107422e+01 3.006037712097167969e+00 -1.171912550926208496e+00
3.763000000000000000e+03 6.681600952148437500e+01 -5.339998006820678711e-01 -2.529997825622558594e-01 3.031016826629638672e+00 8.334051370620727539e-01 -2.304431200027465820e+00
3.764000000000000000e+03 6.622052764892578125e+01 6.607377529144287109e-01 -2.243842929601669312e-01 3.015122175216674805e+00 8.372213244438171387e-01 -2.051961421966552734e+00
3.765000000000000000e+03 6.703075408935546875e+01 5.716380476951599121e-01 -2.797280550003051758e-01 3.659894704818725586e+00 1.014050006866455078e+00 -2.309159040451049805e+00
3.766000000000000000e+03 7.190696716308593750e+01 -1.010468080639839172e-01 -1.663968801498413086e+00 9.838615417480468750e+00 2.452394008636474609e+00 -1.533312201499938965e+00
3.767000000000000000e+03 7.242620849609375000e+01 -1.234207868576049805e+00 -1.836691021919250488e+00 1.134543418884277344e+01 2.852622747421264648e+00 -1.075548887252807617e+00
3.768000000000000000e+03 6.829853820800781250e+01 -1.804133892059326172e+00 -2.341103702783584595e-01 4.398559570312500000e+00 1.249334812164306641e+00 -3.195236921310424805e+00
3.769000000000000000e+03 6.897016906738281250e+01 -1.117127418518066406e+01 -4.644495248794555664e-01 5.739962100982666016e+00 1.582653760910034180e+00 3.398812055587768555e+00
3.770000000000000000e+03 7.223010253906250000e+01 -1.231770133972167969e+01 -1.740694403648376465e+00 1.045337390899658203e+01 2.613803863525390625e+00 1.264388203620910645e+00
3.771000000000000000e+03 6.755027770996093750e+01 -1.170975494384765625e+01 -2.147495895624160767e-01 3.688558578491210938e+00 1.042142748832702637e+00 2.651385545730590820e+00
3.772000000000000000e+03 6.681449890136718750e+01 -1.276743698120117188e+01 -1.851171553134918213e-01 3.267539739608764648e+00 9.247267842292785645e-01 2.244887828826904297e+00
3.773000000000000000e+03 7.076657867431640625e+01 -1.539217281341552734e+01 -9.549384117126464844e-01 7.414654731750488281e+00 1.937914967536926270e+00 1.657169818878173828e+00
3.774000000000000000e+03 6.744187164306640625e+01 -1.226563692092895508e+00 -2.370054572820663452e-01 3.419194698333740234e+00 9.546567797660827637e-01 -2.663164615631103516e+00
3.775000000000000000e+03 6.952149200439453125e+01 -1.702204513549804688e+01 -5.156939625740051270e-01 6.117087841033935547e+00 1.680418133735656738e+00 1.665464162826538086e+00
3.776000000000000000e+03 7.094095611572265625e+01 -1.723287010192871094e+01 -6.709950566291809082e-01 6.994662284851074219e+00 1.897100210189819336e+00 1.348285794258117676e+00
3.777000000000000000e+03 6.497552490234375000e+01 -1.447617435455322266e+01 -6.380520761013031006e-02 2.463217973709106445e+00 7.198238372802734375e-01 1.567606568336486816e+00
3.778000000000000000e+03 6.577092742919921875e+01 -1.420737075805664062e+01 -9.895327687263488770e-02 2.913045644760131836e+00 8.442276716232299805e-01 1.821514248847961426e+00
3.779000000000000000e+03 6.416500091552734375e+01 -1.472340011596679688e+01 -3.068568184971809387e-02 2.099801063537597656e+00 6.207345724105834961e-01 1.370020270347595215e+00
3.780000000000000000e+03 6.444704437255859375e+01 1.661352753639221191e+00 -1.757617890834808350e-01 2.160451650619506836e+00 5.954069495201110840e-01 -1.463683009147644043e+00
3.781000000000000000e+03 7.253939056396484375e+01 -1.204184341430664062e+01 -1.801074624061584473e+00 1.099715900421142578e+01 2.758825302124023438e+00 9.545924663543701172e-01
3.782000000000000000e+03 3.369571304321289062e+01 3.163020610809326172e+00 -5.940488576889038086e-01 -4.008585587143898010e-02 -1.902404129505157471e-01 6.728164553642272949e-01
3.783000000000000000e+03 5.106039047241210938e+01 5.324700832366943359e+00 -3.762925565242767334e-01 2.861941456794738770e-01 -2.702952548861503601e-02 3.323042094707489014e-01
3.784000000000000000e+03 4.705511093139648438e+01 4.367105007171630859e+00 -6.086186170578002930e-01 1.237964853644371033e-01 -1.454466283321380615e-01 5.463331341743469238e-01
3.785000000000000000e+03 4.233868789672851562e+01 6.175778388977050781e+00 -4.420661628246307373e-01 8.785102516412734985e-02 -1.062645465135574341e-01 6.511757373809814453e-01
3.786000000000000000e+03 4.293031692504882812e+01 4.688029766082763672e+00 -5.924648642539978027e-01 6.825791299343109131e-02 -1.572620868682861328e-01 6.476479172706604004e-01
3.787000000000000000e+03 5.718308639526367188e+01 4.637444019317626953e+00 -2.038297355175018311e-01 7.307676672935485840e-01 1.580813676118850708e-01 -2.007316201925277710e-01
3.788000000000000000e+03 4.150623703002929688e+01 4.296413421630859375e+00 -6.354326009750366211e-01 4.304545745253562927e-02 -1.777161508798599243e-01 6.701752543449401855e-01
3.789000000000000000e+03 6.357679367065429688e+01 2.839209318161010742e+00 -8.361122757196426392e-02 2.090708017349243164e+00 6.021290421485900879e-01 -1.271568417549133301e+00
3.790000000000000000e+03 6.248778533935546875e+01 3.453903436660766602e+00 -3.830619156360626221e-02 1.782711625099182129e+00 5.233216285705566406e-01 -1.072538256645202637e+00
3.791000000000000000e+03 5.961494445800781250e+01 2.679123401641845703e+00 -3.496842682361602783e-01 8.336378335952758789e-01 1.451860666275024414e-01 -4.232947528362274170e-01
3.792000000000000000e+03 6.255947875976562500e+01 -1.669172286987304688e+01 1.132870838046073914e-01 1.888216972351074219e+00 6.004512310028076172e-01 9.842186570167541504e-01
3.793000000000000000e+03 6.669876098632812500e+01 -1.869167709350585938e+01 2.446402981877326965e-02 4.193415641784667969e+00 1.265363812446594238e+00 1.503981828689575195e+00
3.794000000000000000e+03 5.162720489501953125e+01 4.810323715209960938e+00 -4.219512939453125000e-01 3.070811331272125244e-01 -3.446104004979133606e-02 3.157794475555419922e-01
3.795000000000000000e+03 5.091263198852539062e+01 4.590450286865234375e+00 -4.794815778732299805e-01 2.338325381278991699e-01 -7.369471341371536255e-02 3.656120598316192627e-01
3.796000000000000000e+03 5.885659408569335938e+01 2.638992547988891602e+00 -4.086705446243286133e-01 7.371535897254943848e-01 9.854491055011749268e-02 -3.153086602687835693e-01
3.797000000000000000e+03 6.585446929931640625e+01 1.649817943572998047e+00 -1.870108097791671753e-01 3.006127357482910156e+00 8.457349538803100586e-01 -1.875473856925964355e+00
3.798000000000000000e+03 6.962775421142578125e+01 5.234822750091552734e+00 -4.639882147312164307e-01 6.021580219268798828e+00 1.667277693748474121e+00 -1.567522764205932617e+00
3.799000000000000000e+03 6.525436401367187500e+01 2.504325866699218750e+00 -1.099146902561187744e-01 2.848707675933837891e+00 8.216379284858703613e-01 -1.704353809356689453e+00
3.800000000000000000e+03 6.188023757934570312e+01 4.073690891265869141e+00 1.535559725016355515e-02 1.719006896018981934e+00 5.203087329864501953e-01 -9.448126554489135742e-01
3.801000000000000000e+03 7.188340759277343750e+01 -1.277390003204345703e+01 -1.619195818901062012e+00 9.755727767944335938e+00 2.440959692001342773e+00 1.508739471435546875e+00
3.802000000000000000e+03 3.294004440307617188e+01 2.941823959350585938e+00 -5.812085866928100586e-01 -4.939053580164909363e-02 -1.891797333955764771e-01 6.634151339530944824e-01
3.803000000000000000e+03 6.303284835815429688e+01 3.019884109497070312e+00 -7.230728119611740112e-02 1.830739736557006836e+00 5.275297164916992188e-01 -1.152824282646179199e+00
3.804000000000000000e+03 5.730160140991210938e+01 -1.628474235534667969e+01 -2.270492166280746460e-01 5.916090607643127441e-01 1.093679592013359070e-01 7.253453880548477173e-02
3.805000000000000000e+03 6.052068328857421875e+01 -1.702067947387695312e+01 9.317423403263092041e-02 1.323515176773071289e+00 4.250068068504333496e-01 6.174079775810241699e-01
3.806000000000000000e+03 5.158411407470703125e+01 -1.621624374389648438e+01 -5.190731287002563477e-01 1.356175243854522705e-01 -1.150366812944412231e-01 -3.776833713054656982e-01
3.807000000000000000e+03 5.841571807861328125e+01 -1.903221511840820312e+01 2.437048703432083130e-01 1.170419216156005859e+00 4.242372512817382812e-01 3.635268211364746094e-01
3.808000000000000000e+03 5.278565597534179688e+01 4.590982913970947266e+00 -4.124442636966705322e-01 3.332068026065826416e-01 -2.377123385667800903e-02 2.436246722936630249e-01
3.809000000000000000e+03 6.830142211914062500e+01 -1.726484107971191406e+01 -2.857833206653594971e-01 5.203707218170166016e+00 1.475377202033996582e+00 1.711865901947021484e+00
3.810000000000000000e+03 6.388676452636718750e+01 -1.524575901031494141e+01 -8.512864005751907825e-04 2.143013715744018555e+00 6.426487565040588379e-01 1.296385526657104492e+00
3.811000000000000000e+03 7.088795471191406250e+01 -1.605914688110351562e+01 -8.686431050300598145e-01 7.327562808990478516e+00 1.937675952911376953e+00 1.514280796051025391e+00
3.812000000000000000e+03 7.147384643554687500e+01 -1.508314228057861328e+01 -1.122055888175964355e+00 8.081026077270507812e+00 2.087691068649291992e+00 1.425959825515747070e+00
3.813000000000000000e+03 7.231558990478515625e+01 -1.325540637969970703e+01 -1.575861692428588867e+00 9.705845832824707031e+00 2.438995361328125000e+00 1.113361835479736328e+00
3.814000000000000000e+03 6.523570251464843750e+01 1.814956426620483398e+00 -1.559764444828033447e-01 2.646455526351928711e+00 7.471437454223632812e-01 -1.727905869483947754e+00
3.815000000000000000e+03 6.421039581298828125e+01 2.667488098144531250e+00 -8.497711271047592163e-02 2.302133560180664062e+00 6.651468873023986816e-01 -1.441826224327087402e+00
3.816000000000000000e+03 3.383916854858398438e+01 4.835284233093261719e+00 -5.176135301589965820e-01 -4.216875880956649780e-02 -1.679346859455108643e-01 7.071434855461120605e-01
3.817000000000000000e+03 3.332188415527343750e+01 3.971808195114135742e+00 -5.504921078681945801e-01 -4.937849938869476318e-02 -1.799611747264862061e-01 6.917372941970825195e-01
3.818000000000000000e+03 7.052038574218750000e+01 4.346342563629150391e+00 -6.962959170341491699e-01 6.724611759185791016e+00 1.808494687080383301e+00 -1.542369842529296875e+00
3.819000000000000000e+03 7.019173431396484375e+01 4.850406169891357422e+00 -5.760437250137329102e-01 6.371045589447021484e+00 1.738500475883483887e+00 -1.544271469116210938e+00
3.820000000000000000e+03 6.737173461914062500e+01 2.033926993608474731e-01 -3.201749920845031738e-01 3.960025072097778320e+00 1.091955065727233887e+00 -2.483309984207153320e+00
3.821000000000000000e+03 2.927107048034667969e+01 3.855358362197875977e+00 -4.551051855087280273e-01 -1.420627534389495850e-01 -1.791503876447677612e-01 6.517912149429321289e-01
3.822000000000000000e+03 6.014044189453125000e+01 -1.641963577270507812e+01 -1.973785087466239929e-02 1.088120579719543457e+00 3.205148279666900635e-01 5.059738755226135254e-01
3.823000000000000000e+03 6.367790985107421875e+01 -1.935824966430664062e+01 2.798472940921783447e-01 2.814623117446899414e+00 9.283411502838134766e-01 1.165007710456848145e+00
3.824000000000000000e+03 5.368680572509765625e+01 3.513009548187255859e+00 -5.610882639884948730e-01 3.119817972183227539e-01 -7.473193109035491943e-02 2.153609097003936768e-01
3.825000000000000000e+03 5.629031372070312500e+01 3.827651500701904297e+00 -3.457353115081787109e-01 5.695584416389465332e-01 6.714694201946258545e-02 -5.705640092492103577e-02
3.826000000000000000e+03 3.114363861083984375e+01 4.197252750396728516e+00 -4.958557784557342529e-01 -9.529312700033187866e-02 -1.773446798324584961e-01 6.813960671424865723e-01
3.827000000000000000e+03 5.223905563354492188e+01 5.333168983459472656e+00 -3.173075616359710693e-01 3.514512777328491211e-01 1.024311780929565430e-02 2.478339374065399170e-01
3.828000000000000000e+03 4.912253952026367188e+01 -1.772521209716796875e+01 -3.165258765220642090e-01 1.006739288568496704e-01 -6.475558876991271973e-02 -4.376665651798248291e-01
3.829000000000000000e+03 4.843473052978515625e+01 -1.726082611083984375e+01 -3.972771763801574707e-01 7.634562253952026367e-02 -9.627946466207504272e-02 -4.631683528423309326e-01
3.830000000000000000e+03 6.888206481933593750e+01 -1.785155296325683594e+01 -3.246321380138397217e-01 5.563041210174560547e+00 1.571522712707519531e+00 1.616717219352722168e+00
3.831000000000000000e+03 4.056763458251953125e+01 4.674474239349365234e+00 -5.948565602302551270e-01 3.726647794246673584e-02 -1.672770231962203979e-01 6.829031109809875488e-01
3.832000000000000000e+03 3.022435569763183594e+01 4.093330383300781250e+00 -4.779808223247528076e-01 -1.166584268212318420e-01 -1.783917695283889771e-01 6.699994206428527832e-01
3.833000000000000000e+03 4.852959823608398438e+01 -1.866569900512695312e+01 -1.646156311035156250e-01 1.209835261106491089e-01 -1.308963261544704437e-02 -4.243232011795043945e-01
3.834000000000000000e+03 5.165530776977539062e+01 -1.745294189453125000e+01 -2.731010913848876953e-01 2.093524485826492310e-01 -1.912459544837474823e-02 -3.285446166992187500e-01
3.835000000000000000e+03 5.812947463989257812e+01 4.465243339538574219e+00 -1.551939398050308228e-01 8.683689236640930176e-01 2.139524966478347778e-01 -3.217578530311584473e-01
3.836000000000000000e+03 6.078227615356445312e+01 3.710609436035156250e+00 -8.933556824922561646e-02 1.289089083671569824e+00 3.599260449409484863e-01 -7.178872227668762207e-01
3.837000000000000000e+03 5.998090744018554688e+01 4.093489170074462891e+00 -8.388692885637283325e-02 1.157202124595642090e+00 3.219945430755615234e-01 -5.954700708389282227e-01
3.838000000000000000e+03 3.500373077392578125e+01 -1.757541656494140625e+01 -3.694443404674530029e-01 -9.803386777639389038e-02 -1.402434557676315308e-01 -5.239194631576538086e-01
3.839000000000000000e+03 3.774419403076171875e+01 -1.766379928588867188e+01 -3.797911405563354492e-01 -8.632607758045196533e-02 -1.398351639509201050e-01 -5.432999730110168457e-01
3.840000000000000000e+03 6.731050872802734375e+01 7.177258968353271484e+00 -3.144076839089393616e-02 4.550796985626220703e+00 1.355806827545166016e+00 -1.486484885215759277e+00
3.841000000000000000e+03 6.619426727294921875e+01 1.018300914764404297e+01 1.935700029134750366e-01 4.094180107116699219e+00 1.286325097084045410e+00 -1.248175621032714844e+00
3.842000000000000000e+03 5.412315368652343750e+01 5.197828769683837891e+00 -2.431109249591827393e-01 4.927533268928527832e-01 7.489272207021713257e-02 9.959924966096878052e-02
3.843000000000000000e+03 5.923412704467773438e+01 -1.827691841125488281e+01 1.884251534938812256e-01 1.204407334327697754e+00 4.178497493267059326e-01 4.678151607513427734e-01
3.844000000000000000e+03 5.993391036987304688e+01 -1.759879112243652344e+01 1.328014582395553589e-01 1.265627264976501465e+00 4.195286333560943604e-01 5.476405024528503418e-01
3.845000000000000000e+03 3.699196243286132812e+01 -1.658387374877929688e+01 -4.792896807193756104e-01 -8.381908386945724487e-02 -1.689326316118240356e-01 -5.285972356796264648e-01
3.846000000000000000e+03 6.646337890625000000e+01 -2.047466468811035156e+01 1.465501636266708374e-01 4.140490055084228516e+00 1.286112070083618164e+00 1.306328415870666504e+00
3.847000000000000000e+03 6.819428253173828125e+01 -1.871878814697265625e+01 -1.535228043794631958e-01 5.100630760192871094e+00 1.484132289886474609e+00 1.517309308052062988e+00
3.848000000000000000e+03 6.226652145385742188e+01 -1.735459709167480469e+01 1.630101948976516724e-01 1.911992907524108887e+00 6.225009560585021973e-01 9.468609690666198730e-01
3.849000000000000000e+03 6.156221389770507812e+01 -1.680091857910156250e+01 9.168156236410140991e-02 1.546250462532043457e+00 4.913796186447143555e-01 7.931213974952697754e-01
3.850000000000000000e+03 4.699581146240234375e+01 3.427838325500488281e+00 -7.551826834678649902e-01 8.611869812011718750e-02 -2.007192075252532959e-01 5.554374456405639648e-01
3.851000000000000000e+03 4.575856781005859375e+01 4.524911403656005859e+00 -6.066106557846069336e-01 9.901103377342224121e-02 -1.522798836231231689e-01 5.835833549499511719e-01
3.852000000000000000e+03 3.263191986083984375e+01 -1.792580604553222656e+01 -3.232153654098510742e-01 -1.023053303360939026e-01 -1.276562064886093140e-01 -5.042411088943481445e-01
3.853000000000000000e+03 3.698760986328125000e+01 4.585000038146972656e+00 -5.727000236511230469e-01 -1.880817813798785210e-03 -1.723742485046386719e-01 7.065017819404602051e-01
3.854000000000000000e+03 3.200489425659179688e+01 3.476153612136840820e+00 -5.377278923988342285e-01 -7.267973572015762329e-02 -1.831222921609878540e-01 6.689821481704711914e-01
3.855000000000000000e+03 3.932696151733398438e+01 4.002494812011718750e+00 -6.479061841964721680e-01 1.859851367771625519e-02 -1.887922883033752441e-01 6.899421811103820801e-01
3.856000000000000000e+03 6.676191711425781250e+01 1.325228595733642578e+01 2.723754048347473145e-01 4.385854721069335938e+00 1.397469162940979004e+00 -1.099100828170776367e+00
3.857000000000000000e+03 6.801078033447265625e+01 1.158504676818847656e+01 1.520607918500900269e-01 4.848141193389892578e+00 1.500060558319091797e+00 -1.169462800025939941e+00
3.858000000000000000e+03 5.745843887329101562e+01 -1.721165847778320312e+01 -4.768285155296325684e-02 7.285563349723815918e-01 2.042620331048965454e-01 1.527414023876190186e-01
3.859000000000000000e+03 4.278005599975585938e+01 -1.791673469543457031e+01 -3.509082496166229248e-01 -3.328064829111099243e-02 -1.152566745877265930e-01 -5.458143949508666992e-01
3.860000000000000000e+03 3.449795532226562500e+01 5.563325881958007812e+00 -4.954355657100677490e-01 -3.400150313973426819e-02 -1.588311195373535156e-01 7.166301012039184570e-01
3.861000000000000000e+03 3.616085052490234375e+01 4.577275753021240234e+00 -5.672641992568969727e-01 -1.197029557079076767e-02 -1.737703531980514526e-01 7.073488235473632812e-01
3.862000000000000000e+03 5.512326049804687500e+01 -1.667337989807128906e+01 -2.764627635478973389e-01 3.909101486206054688e-01 3.433421626687049866e-02 -1.305625289678573608e-01
3.863000000000000000e+03 3.386051177978515625e+01 -1.784866523742675781e+01 -3.374136686325073242e-01 -1.014555692672729492e-01 -1.316607743501663208e-01 -5.140647292137145996e-01
3.864000000000000000e+03 4.455722427368164062e+01 5.011446475982666016e+00 -5.594716072082519531e-01 9.363263845443725586e-02 -1.397516876459121704e-01 6.082655191421508789e-01
3.865000000000000000e+03 2.695008277893066406e+01 1.220919322967529297e+01 -3.702325224876403809e-01 -3.082019984722137451e-01 -2.035303562879562378e-01 6.233950257301330566e-01
3.866000000000000000e+03 2.612446022033691406e+01 1.253568744659423828e+01 -3.822514712810516357e-01 -3.539413809776306152e-01 -2.208578437566757202e-01 6.084803938865661621e-01
3.867000000000000000e+03 4.579368209838867188e+01 -1.788131713867187500e+01 -3.327579200267791748e-01 2.429684624075889587e-02 -9.253831952810287476e-02 -5.099892020225524902e-01
3.868000000000000000e+03 4.763870620727539062e+01 -1.802156639099121094e+01 -3.037340939044952393e-01 6.813820451498031616e-02 -7.067876309156417847e-02 -4.732244908809661865e-01
3.869000000000000000e+03 2.901152610778808594e+01 1.107702064514160156e+01 -3.471804261207580566e-01 -2.019531279802322388e-01 -1.647400557994842529e-01 6.651617288589477539e-01
3.870000000000000000e+03 6.390239715576171875e+01 -2.303890037536621094e+01 4.353365302085876465e-01 3.222020864486694336e+00 1.097207188606262207e+00 9.948782920837402344e-01
3.871000000000000000e+03 4.081949234008789062e+01 -1.865453338623046875e+01 -2.748214900493621826e-01 -6.024087592959403992e-02 -1.005187109112739563e-01 -5.457286238670349121e-01
3.872000000000000000e+03 3.669195556640625000e+01 -1.837649345397949219e+01 -3.069896399974822998e-01 -9.734452515840530396e-02 -1.213002428412437439e-01 -5.412060618400573730e-01
3.873000000000000000e+03 6.752999114990234375e+01 9.803895950317382812e+00 9.574726223945617676e-02 4.671989917755126953e+00 1.430321216583251953e+00 -1.290634989738464355e+00
3.874000000000000000e+03 2.718019866943359375e+01 1.420091915130615234e+01 -3.155256807804107666e-01 -3.091639876365661621e-01 -1.874068975448608398e-01 5.726135373115539551e-01
3.875000000000000000e+03 2.550092124938964844e+01 1.438934707641601562e+01 -3.613588511943817139e-01 -4.060038626194000244e-01 -2.302088141441345215e-01 5.515830516815185547e-01
3.876000000000000000e+03 6.505312347412109375e+01 -2.441434097290039062e+01 4.309385418891906738e-01 3.735013723373413086e+00 1.249785661697387695e+00 9.816782474517822266e-01
3.877000000000000000e+03 2.795590019226074219e+01 -1.757023429870605469e+01 -3.003876209259033203e-01 -9.529715031385421753e-02 -1.187054291367530823e-01 -4.420156776905059814e-01
3.878000000000000000e+03 2.624311065673828125e+01 -1.956028366088867188e+01 -2.018240392208099365e-01 -1.226274296641349792e-01 -9.733543545007705688e-02 -4.230519533157348633e-01
3.879000000000000000e+03 3.112695312500000000e+01 6.059676170349121094e+00 -4.495700597763061523e-01 -1.084714978933334351e-01 -1.674124598503112793e-01 7.080659866333007812e-01
3.880000000000000000e+03 3.017040634155273438e+01 2.001554870605468750e+01 5.879721418023109436e-02 -1.993187516927719116e-01 -4.215646162629127502e-02 3.965657651424407959e-01
3.881000000000000000e+03 2.489022064208984375e+01 2.006275558471679688e+01 -9.621710330247879028e-02 -4.792816042900085449e-01 -1.726496219635009766e-01 3.659656643867492676e-01
3.882000000000000000e+03 6.643181610107421875e+01 2.258168411254882812e+01 3.684225082397460938e-01 4.388471603393554688e+00 1.427068233489990234e+00 -6.880225539207458496e-01
3.883000000000000000e+03 6.448592376708984375e+01 1.878525924682617188e+01 4.499129354953765869e-01 3.801166772842407227e+00 1.275323987007141113e+00 -8.203387260437011719e-01
3.884000000000000000e+03 6.449388122558593750e+01 1.662284088134765625e+01 4.406720995903015137e-01 3.743327856063842773e+00 1.255200028419494629e+00 -9.010891914367675781e-01
3.885000000000000000e+03 6.481755828857421875e+01 1.460593318939208984e+01 3.979500234127044678e-01 3.769567489624023438e+00 1.250255227088928223e+00 -9.914954900741577148e-01
3.886000000000000000e+03 2.422926902770996094e+01 -2.328581428527832031e+01 -2.341319806873798370e-02 -1.955279707908630371e-01 -6.568235158920288086e-02 -3.737765848636627197e-01
3.887000000000000000e+03 2.846987152099609375e+01 -1.873073768615722656e+01 -2.545953691005706787e-01 -1.094143614172935486e-01 -1.092029213905334473e-01 -4.544407725334167480e-01
3.888000000000000000e+03 3.112983894348144531e+01 -2.092472457885742188e+01 -1.101320162415504456e-01 -1.345782727003097534e-01 -7.341308891773223877e-02 -4.937019050121307373e-01
3.889000000000000000e+03 2.498888587951660156e+01 2.218478393554687500e+01 2.954165451228618622e-02 -4.845445454120635986e-01 -1.365008652210235596e-01 3.165476918220520020e-01
3.890000000000000000e+03 6.575416564941406250e+01 1.143720626831054688e+01 2.738451063632965088e-01 3.980078220367431641e+00 1.276177048683166504e+00 -1.154356598854064941e+00
3.891000000000000000e+03 6.985003662109375000e+01 -2.135847568511962891e+00 -7.977838516235351562e-01 7.708711147308349609e+00 2.073278188705444336e+00 -3.829484701156616211e+00
3.892000000000000000e+03 6.769144439697265625e+01 -7.691124081611633301e-01 -3.028994500637054443e-01 4.030237674713134766e+00 1.118201494216918945e+00 -2.744474172592163086e+00
3.893000000000000000e+03 6.907196807861328125e+01 -1.542452573776245117e+00 -5.314441323280334473e-01 5.974631786346435547e+00 1.632956266403198242e+00 -3.432346343994140625e+00
3.894000000000000000e+03 7.148780822753906250e+01 -1.607502818107604980e+00 -1.762414693832397461e+00 1.084959983825683594e+01 2.726155519485473633e+00 -2.296462535858154297e+00
3.895000000000000000e+03 6.833930969238281250e+01 -1.116870212554931641e+01 -2.603179514408111572e-01 4.565454006195068359e+00 1.291540741920471191e+00 3.145629167556762695e+00
3.896000000000000000e+03 6.975519561767578125e+01 -1.179242324829101562e+01 -9.353142380714416504e-01 7.349041461944580078e+00 1.924118161201477051e+00 3.141546726226806641e+00
3.897000000000000000e+03 6.957817840576171875e+01 -1.098664379119873047e+01 -6.771903634071350098e-01 7.032900810241699219e+00 1.906713128089904785e+00 3.616404056549072266e+00
3.898000000000000000e+03 6.878073120117187500e+01 -2.068474769592285156e+00 -2.957451641559600830e-01 5.193459510803222656e+00 1.469314336776733398e+00 -3.521135091781616211e+00
3.899000000000000000e+03 7.147183227539062500e+01 -1.152875185012817383e+00 -1.724488735198974609e+00 1.034838581085205078e+01 2.587169170379638672e+00 -2.138506889343261719e+00
3.900000000000000000e+03 7.194007873535156250e+01 -6.488192081451416016e-01 -1.745375514030456543e+00 1.035935020446777344e+01 2.584192514419555664e+00 -1.580527067184448242e+00
3.901000000000000000e+03 7.135015869140625000e+01 -1.161161041259765625e+01 -1.643439769744873047e+00 1.009705066680908203e+01 2.536083459854125977e+00 2.248739480972290039e+00
3.902000000000000000e+03 6.747878265380859375e+01 -1.229510211944580078e+01 -2.353150546550750732e-01 3.827593803405761719e+00 1.077683568000793457e+00 2.562472581863403320e+00
3.903000000000000000e+03 6.955599212646484375e+01 -2.052255630493164062e+00 -6.156779527664184570e-01 6.950383186340332031e+00 1.900411605834960938e+00 -3.839945554733276367e+00
3.904000000000000000e+03 7.144879913330078125e+01 -6.643956303596496582e-01 -1.666556358337402344e+00 9.901738166809082031e+00 2.470554351806640625e+00 -2.045454740524291992e+00
3.905000000000000000e+03 7.189160156250000000e+01 -1.627189755439758301e+00 -1.857895016670227051e+00 1.144963836669921875e+01 2.877523183822631836e+00 -1.725954771041870117e+00
3.906000000000000000e+03 7.111048889160156250e+01 -1.654721975326538086e+00 -1.619501233100891113e+00 1.029044055938720703e+01 2.601281642913818359e+00 -2.689796924591064453e+00
3.907000000000000000e+03 7.140748596191406250e+01 -1.463863700628280640e-01 -1.576117038726806641e+00 9.383308410644531250e+00 2.342157602310180664e+00 -1.970989584922790527e+00
3.908000000000000000e+03 6.739097595214843750e+01 -4.995526671409606934e-01 -2.868139445781707764e-01 3.727427959442138672e+00 1.032184243202209473e+00 -2.589721918106079102e+00
3.909000000000000000e+03 7.031327056884765625e+01 -1.149553298950195312e+01 -1.188457846641540527e+00 8.508437156677246094e+00 2.195993661880493164e+00 3.150752067565917969e+00
3.910000000000000000e+03 6.799698638916015625e+01 -9.416570663452148438e-01 -3.414286375045776367e-01 4.314294815063476562e+00 1.191859960556030273e+00 -2.894243001937866211e+00
3.911000000000000000e+03 7.090557861328125000e+01 2.217433452606201172e+00 -1.082286834716796875e+00 7.617521762847900391e+00 1.960570454597473145e+00 -1.729716897010803223e+00
3.912000000000000000e+03 6.906308746337890625e+01 -1.191664981842041016e+01 -6.308277845382690430e-01 6.058073997497558594e+00 1.628173828125000000e+00 3.135656595230102539e+00
3.913000000000000000e+03 7.167406463623046875e+01 -1.188902473449707031e+01 -1.706376314163208008e+00 1.030595302581787109e+01 2.579873085021972656e+00 1.868643164634704590e+00
3.914000000000000000e+03 7.117276000976562500e+01 9.275869727134704590e-01 -1.351818919181823730e+00 8.437734603881835938e+00 2.125774621963500977e+00 -1.846000432968139648e+00
3.915000000000000000e+03 6.941649627685546875e+01 -1.455830287933349609e+01 -7.647122144699096680e-01 6.423217296600341797e+00 1.697551608085632324e+00 2.174860239028930664e+00
3.916000000000000000e+03 6.668075561523437500e+01 -1.333707523345947266e+01 -1.790309548377990723e-01 3.365290641784667969e+00 9.558779001235961914e-01 2.135892152786254883e+00
3.917000000000000000e+03 6.552185058593750000e+01 -1.482361602783203125e+01 -6.163045391440391541e-02 2.932868957519531250e+00 8.613715767860412598e-01 1.724920272827148438e+00
3.918000000000000000e+03 6.364436721801757812e+01 -1.582244682312011719e+01 4.395198822021484375e-02 2.143637180328369141e+00 6.562767624855041504e-01 1.230257272720336914e+00
3.919000000000000000e+03 5.719497680664062500e+01 5.360452651977539062e+00 -6.218147650361061096e-02 8.538693785667419434e-01 2.375063598155975342e-01 -2.501886785030364990e-01
3.920000000000000000e+03 6.591291046142578125e+01 3.230978965759277344e+00 -1.147519871592521667e-01 3.445932865142822266e+00 9.993543028831481934e-01 -1.788987517356872559e+00
3.921000000000000000e+03 7.006183624267578125e+01 -1.570376396179199219e+01 -7.680251598358154297e-01 6.720105171203613281e+00 1.785624027252197266e+00 1.788505434989929199e+00
3.922000000000000000e+03 7.019705200195312500e+01 -1.640758705139160156e+01 -6.968536972999572754e-01 6.681094646453857422e+00 1.795272350311279297e+00 1.654053568840026855e+00
3.923000000000000000e+03 6.590243530273437500e+01 2.464996099472045898e+00 -1.581370681524276733e-01 3.276171207427978516e+00 9.354102611541748047e-01 -1.838622212409973145e+00
3.924000000000000000e+03 5.157305908203125000e+01 6.131336688995361328e+00 -2.235333323478698730e-01 3.793721199035644531e-01 4.675164073705673218e-02 2.610981762409210205e-01
3.925000000000000000e+03 6.742781829833984375e+01 9.851779341697692871e-01 -3.440296053886413574e-01 4.239493846893310547e+00 1.168639183044433594e+00 -2.347842216491699219e+00
3.926000000000000000e+03 6.341068267822265625e+01 3.448421239852905273e+00 -2.331949956715106964e-02 2.126831054687500000e+00 6.310534477233886719e-01 -1.245474219322204590e+00
3.927000000000000000e+03 6.330017852783203125e+01 -1.688000679016113281e+01 1.249542683362960815e-01 2.230350017547607422e+00 7.065913081169128418e-01 1.142553091049194336e+00
3.928000000000000000e+03 3.262974929809570312e+01 3.694745063781738281e+00 -5.442931652069091797e-01 -5.943688377737998962e-02 -1.811190098524093628e-01 6.827057600021362305e-01
3.929000000000000000e+03 3.530269241333007812e+01 4.583630084991455078e+00 -5.535675287246704102e-01 -2.155674993991851807e-02 -1.725372821092605591e-01 7.072244882583618164e-01
3.930000000000000000e+03 5.603024673461914062e+01 6.143686294555664062e+00 -3.283430263400077820e-02 7.708483338356018066e-01 2.214042097330093384e-01 -1.449048370122909546e-01
3.931000000000000000e+03 5.578178405761718750e+01 4.560708522796630859e+00 -2.635111808776855469e-01 5.711398124694824219e-01 9.228859096765518188e-02 -3.946080803871154785e-02
3.932000000000000000e+03 3.411499023437500000e+01 4.188045024871826172e+00 -5.559652447700500488e-01 -3.581795841455459595e-02 -1.775349676609039307e-01 7.001971006393432617e-01
3.933000000000000000e+03 6.504341125488281250e+01 -1.694036102294921875e+01 7.258789241313934326e-02 3.048306703567504883e+00 9.362683892250061035e-01 1.489895462989807129e+00
3.934000000000000000e+03 6.401205444335937500e+01 7.559256076812744141e+00 2.061693519353866577e-01 3.043258190155029297e+00 9.748283028602600098e-01 -1.248201370239257812e+00
3.935000000000000000e+03 3.548357009887695312e+01 -1.892982101440429688e+01 -2.582336962223052979e-01 -1.067150533199310303e-01 -1.094846278429031372e-01 -5.338397622108459473e-01
3.936000000000000000e+03 3.869295883178710938e+01 -1.882877159118652344e+01 -2.630147933959960938e-01 -7.937085628509521484e-02 -1.027157008647918701e-01 -5.498846769332885742e-01
3.937000000000000000e+03 5.299597930908203125e+01 5.807460308074951172e+00 -2.200706750154495239e-01 4.499105215072631836e-01 6.895195692777633667e-02 1.604746282100677490e-01
3.938000000000000000e+03 7.067588806152343750e+01 3.673374176025390625e+00 -8.041656613349914551e-01 6.965888023376464844e+00 1.848516702651977539e+00 -1.573358654975891113e+00
3.939000000000000000e+03 4.388625717163085938e+01 4.043845176696777344e+00 -6.720154285430908203e-01 6.351613253355026245e-02 -1.825497895479202271e-01 6.279810070991516113e-01
3.940000000000000000e+03 4.089716720581054688e+01 5.649401187896728516e+00 -5.021733641624450684e-01 5.581844598054885864e-02 -1.339064836502075195e-01 6.798608899116516113e-01
3.941000000000000000e+03 5.914153671264648438e+01 3.561596155166625977e+00 -2.278617471456527710e-01 8.943884372711181641e-01 1.999580115079879761e-01 -4.159576296806335449e-01
3.942000000000000000e+03 6.111488723754882812e+01 -1.753991699218750000e+01 1.584615856409072876e-01 1.544101715087890625e+00 5.107690095901489258e-01 7.299005389213562012e-01
3.943000000000000000e+03 5.908776855468750000e+01 4.317381858825683594e+00 -1.101984679698944092e-01 1.014104127883911133e+00 2.711716890335083008e-01 -4.581572413444519043e-01
3.944000000000000000e+03 5.794321060180664062e+01 6.218471050262451172e+00 7.474212348461151123e-02 1.077789425849914551e+00 3.457594811916351318e-01 -3.857515454292297363e-01
3.945000000000000000e+03 3.711864089965820312e+01 3.681432723999023438e+00 -6.445823311805725098e-01 -3.020207164809107780e-03 -1.942807585000991821e-01 6.931148171424865723e-01
3.946000000000000000e+03 3.608026504516601562e+01 5.582680225372314453e+00 -5.013078451156616211e-01 -1.163730211555957794e-02 -1.538835465908050537e-01 7.153449654579162598e-01
3.947000000000000000e+03 5.004020309448242188e+01 -1.815022659301757812e+01 -2.181083410978317261e-01 1.669379621744155884e-01 -1.535111200064420700e-02 -3.844182789325714111e-01
3.948000000000000000e+03 5.336538696289062500e+01 5.012592315673828125e+00 -2.965489923954010010e-01 4.228535294532775879e-01 3.789136558771133423e-02 1.697928756475448608e-01
3.949000000000000000e+03 5.493626022338867188e+01 5.073262691497802734e+00 -2.356888800859451294e-01 5.503532290458679199e-01 9.439931064844131470e-02 2.181156724691390991e-02
3.950000000000000000e+03 5.540205001831054688e+01 -1.793711853027343750e+01 -3.165491670370101929e-02 5.390144586563110352e-01 1.522078663110733032e-01 -3.628787770867347717e-02
3.951000000000000000e+03 5.688393020629882812e+01 -1.870648384094238281e+01 1.518584340810775757e-01 8.202297687530517578e-01 2.916264533996582031e-01 1.501374095678329468e-01
3.952000000000000000e+03 4.430540466308593750e+01 -1.819602394104003906e+01 -3.062529861927032471e-01 -5.870243068784475327e-03 -9.363696724176406860e-02 -5.300437808036804199e-01
3.953000000000000000e+03 2.903140258789062500e+01 4.763756752014160156e+00 -4.418655037879943848e-01 -1.577155441045761108e-01 -1.798743158578872681e-01 6.737765669822692871e-01
3.954000000000000000e+03 6.567630004882812500e+01 -1.934882736206054688e+01 1.578969061374664307e-01 3.675812244415283203e+00 1.150112748146057129e+00 1.376466512680053711e+00
3.955000000000000000e+03 5.499713134765625000e+01 6.090494632720947266e+00 -8.612550795078277588e-02 6.521916389465332031e-01 1.698198467493057251e-01 -3.419195115566253662e-02
3.956000000000000000e+03 5.394816589355468750e+01 6.065548419952392578e+00 -1.517890393733978271e-01 5.517372488975524902e-01 1.199844703078269958e-01 7.782529294490814209e-02
3.957000000000000000e+03 5.279577255249023438e+01 -1.732436561584472656e+01 -2.543330788612365723e-01 2.713277637958526611e-01 5.098405294120311737e-03 -2.668988406658172607e-01
3.958000000000000000e+03 5.423044204711914062e+01 -1.834010696411132812e+01 -2.432749792933464050e-02 4.465932250022888184e-01 1.266797184944152832e-01 -1.241428107023239136e-01
3.959000000000000000e+03 6.440879058837890625e+01 -1.560129928588867188e+01 2.469321899116039276e-02 2.430881738662719727e+00 7.366724610328674316e-01 1.428212881088256836e+00
3.960000000000000000e+03 4.503894424438476562e+01 6.171343326568603516e+00 -4.140302836894989014e-01 1.350996345281600952e-01 -8.367919176816940308e-02 5.809659361839294434e-01
3.961000000000000000e+03 4.546800613403320312e+01 -1.657737541198730469e+01 -5.383142232894897461e-01 -9.578819386661052704e-03 -1.643679141998291016e-01 -5.265688896179199219e-01
3.962000000000000000e+03 6.108440017700195312e+01 4.651240348815917969e+00 3.863284736871719360e-02 1.565407752990722656e+00 4.812121689319610596e-01 -8.269591927528381348e-01
3.963000000000000000e+03 6.009079360961914062e+01 5.062143802642822266e+00 3.566009551286697388e-02 1.358459711074829102e+00 4.182359576225280762e-01 -6.648460626602172852e-01
3.964000000000000000e+03 3.986544036865234375e+01 6.035490989685058594e+00 -4.740389585494995117e-01 4.406153783202171326e-02 -1.289932280778884888e-01 6.910440921783447266e-01
3.965000000000000000e+03 3.750054550170898438e+01 -1.976945495605468750e+01 -1.835168004035949707e-01 -9.628999233245849609e-02 -8.394203335046768188e-02 -5.447950363159179688e-01
3.966000000000000000e+03 5.910676574707031250e+01 -1.981645965576171875e+01 3.469360172748565674e-01 1.405387043952941895e+00 5.256969332695007324e-01 4.940248727798461914e-01
3.967000000000000000e+03 6.054314804077148438e+01 -1.825230598449707031e+01 2.192892730236053467e-01 1.529137730598449707e+00 5.245280861854553223e-01 6.570270657539367676e-01
3.968000000000000000e+03 6.705447387695312500e+01 1.058955383300781250e+01 1.585588157176971436e-01 4.454741001129150391e+00 1.383990049362182617e+00 -1.267933487892150879e+00
3.969000000000000000e+03 2.750868415832519531e+01 1.622163009643554688e+01 -2.296936661005020142e-01 -3.118464648723602295e-01 -1.624620407819747925e-01 5.074427127838134766e-01
3.970000000000000000e+03 6.807746124267578125e+01 5.858376026153564453e+00 -2.197083979845046997e-01 4.989982604980468750e+00 1.431082248687744141e+00 -1.634293198585510254e+00
3.971000000000000000e+03 6.932369995117187500e+01 3.230172634124755859e+00 -6.460129618644714355e-01 6.066856861114501953e+00 1.626253128051757812e+00 -1.914926171302795410e+00
3.972000000000000000e+03 6.924645233154296875e+01 4.447124004364013672e+00 -5.193762779235839844e-01 5.858407020568847656e+00 1.601709246635437012e+00 -1.732074141502380371e+00
3.973000000000000000e+03 6.546606445312500000e+01 -2.127604293823242188e+01 2.672971189022064209e-01 3.761701822280883789e+00 1.208699703216552734e+00 1.210980057716369629e+00
3.974000000000000000e+03 3.042258262634277344e+01 3.260585546493530273e+00 -4.982466697692871094e-01 -1.032005622982978821e-01 -1.804341673851013184e-01 6.486971378326416016e-01
3.975000000000000000e+03 2.787737274169921875e+01 1.307717132568359375e+01 -3.286798000335693359e-01 -2.665077745914459229e-01 -1.785562634468078613e-01 6.020646095275878906e-01
3.976000000000000000e+03 2.745566940307617188e+01 1.133332633972167969e+01 -3.760879635810852051e-01 -2.749964296817779541e-01 -1.953253149986267090e-01 6.486064791679382324e-01
3.977000000000000000e+03 2.777374839782714844e+01 -1.979639244079589844e+01 -1.901636719703674316e-01 -1.273759901523590088e-01 -9.526190161705017090e-02 -4.511117935180664062e-01
3.978000000000000000e+03 3.692658233642578125e+01 5.574661254882812500e+00 -5.078158974647521973e-01 5.246306536719202995e-04 -1.521873772144317627e-01 7.121243476867675781e-01
3.979000000000000000e+03 3.870263290405273438e+01 5.319025039672851562e+00 -5.337132811546325684e-01 1.915236003696918488e-02 -1.543682664632797241e-01 7.031084299087524414e-01
3.980000000000000000e+03 4.884963226318359375e+01 5.004306316375732422e+00 -4.870338439941406250e-01 1.915390938520431519e-01 -8.864842355251312256e-02 4.628590941429138184e-01
3.981000000000000000e+03 4.994265747070312500e+01 4.664803504943847656e+00 -5.098503828048706055e-01 1.950531452894210815e-01 -9.443916380405426025e-02 4.158273339271545410e-01
3.982000000000000000e+03 6.520587921142578125e+01 -1.813243865966796875e+01 1.295864582061767578e-01 3.335362672805786133e+00 1.039484739303588867e+00 1.419857859611511230e+00
3.983000000000000000e+03 5.173397064208984375e+01 -1.885275650024414062e+01 -5.105382576584815979e-02 2.938016057014465332e-01 7.282433658838272095e-02 -2.754396200180053711e-01
3.984000000000000000e+03 4.228239822387695312e+01 -1.934177017211914062e+01 -1.962955147027969360e-01 -3.946109116077423096e-02 -7.072698324918746948e-02 -5.385364294052124023e-01
3.985000000000000000e+03 4.613441085815429688e+01 5.735723018646240234e+00 -4.405035376548767090e-01 1.446473747491836548e-01 -8.875685185194015503e-02 5.525120496749877930e-01
3.986000000000000000e+03 6.452179718017578125e+01 -2.203124046325683594e+01 3.763146400451660156e-01 3.389897108078002930e+00 1.129863500595092773e+00 1.081668138504028320e+00
3.987000000000000000e+03 6.361175918579101562e+01 -2.459219169616699219e+01 5.164688229560852051e-01 3.267380952835083008e+00 1.135154962539672852e+00 8.939628005027770996e-01
3.988000000000000000e+03 3.130192375183105469e+01 7.187035560607910156e+00 -4.229594469070434570e-01 -1.103104054927825928e-01 -1.599809527397155762e-01 7.131821513175964355e-01
3.989000000000000000e+03 2.993800544738769531e+01 6.092270374298095703e+00 -4.377468228340148926e-01 -1.448203027248382568e-01 -1.747701466083526611e-01 7.000203728675842285e-01
3.990000000000000000e+03 6.279491424560546875e+01 1.670101737976074219e+01 4.924855828285217285e-01 3.303640365600585938e+00 1.138837814331054688e+00 -8.381599187850952148e-01
3.991000000000000000e+03 6.363921737670898438e+01 1.000365257263183594e+01 3.260622024536132812e-01 3.148200511932373047e+00 1.042278766632080078e+00 -1.115167856216430664e+00
3.992000000000000000e+03 4.918296813964843750e+01 -2.030230522155761719e+01 6.400311738252639771e-02 2.114039361476898193e-01 8.262211829423904419e-02 -3.572814166545867920e-01
3.993000000000000000e+03 6.682269287109375000e+01 9.075745582580566406e+00 1.088000759482383728e-01 4.351084709167480469e+00 1.337965369224548340e+00 -1.343040466308593750e+00
3.994000000000000000e+03 3.414464950561523438e+01 -1.926970481872558594e+01 -2.268906086683273315e-01 -1.139572262763977051e-01 -1.022543534636497498e-01 -5.263944268226623535e-01
3.995000000000000000e+03 6.454341888427734375e+01 2.095810699462890625e+01 4.582103490829467773e-01 3.854678869247436523e+00 1.293866753578186035e+00 -7.512691020965576172e-01
3.996000000000000000e+03 6.287475204467773438e+01 1.884495925903320312e+01 4.988102316856384277e-01 3.409731626510620117e+00 1.172562479972839355e+00 -7.793880701065063477e-01
3.997000000000000000e+03 3.006429481506347656e+01 7.384456634521484375e+00 -4.178547859191894531e-01 -1.460897773504257202e-01 -1.691833734512329102e-01 7.077392339706420898e-01
3.998000000000000000e+03 2.167024040222167969e+01 -2.494917106628417969e+01 1.984499208629131317e-02 -2.336156666278839111e-01 -6.413120031356811523e-02 -3.225517570972442627e-01
3.999000000000000000e+03 6.867713165283203125e+01 -1.156758880615234375e+01 -4.270958602428436279e-01 5.353081226348876953e+00 1.477795720100402832e+00 3.182792663574218750e+00
4.000000000000000000e+03 7.102275848388671875e+01 -1.206817388534545898e+00 -1.570837497711181641e+00 9.732287406921386719e+00 2.448435068130493164e+00 -2.598204612731933594e+00
4.001000000000000000e+03 7.076748657226562500e+01 -1.766696214675903320e+00 -1.465372443199157715e+00 9.836602210998535156e+00 2.511368989944458008e+00 -3.126096487045288086e+00
4.002000000000000000e+03 6.826292419433593750e+01 -1.335639095306396484e+01 -4.662262201309204102e-01 5.060241699218750000e+00 1.378204584121704102e+00 2.556049346923828125e+00
4.003000000000000000e+03 7.036103057861328125e+01 1.305531978607177734e+00 -1.096392989158630371e+00 7.432680130004882812e+00 1.900886058807373047e+00 -2.137753725051879883e+00
4.004000000000000000e+03 7.082679748535156250e+01 -1.159445476531982422e+01 -1.471415400505065918e+00 9.385454177856445312e+00 2.374211788177490234e+00 2.695348024368286133e+00
4.005000000000000000e+03 6.912680053710937500e+01 -1.928272724151611328e+00 -4.448361992835998535e-01 5.961828231811523438e+00 1.655097723007202148e+00 -3.609696865081787109e+00
4.006000000000000000e+03 7.097269439697265625e+01 -7.095127105712890625e-01 -1.515674233436584473e+00 9.264835357666015625e+00 2.324748516082763672e+00 -2.444823026657104492e+00
4.007000000000000000e+03 6.865032196044921875e+01 -1.294591069221496582e+00 -4.253477752208709717e-01 5.212950229644775391e+00 1.436280846595764160e+00 -3.217565298080444336e+00
4.008000000000000000e+03 6.870378112792968750e+01 -1.676418900489807129e+00 -3.572708666324615479e-01 5.179144859313964844e+00 1.446562290191650391e+00 -3.347468614578247070e+00
4.009000000000000000e+03 6.731265258789062500e+01 -1.291199970245361328e+01 -2.490242272615432739e-01 3.859167575836181641e+00 1.083042979240417480e+00 2.407484054565429688e+00
4.010000000000000000e+03 6.801467132568359375e+01 -1.251396751403808594e+01 -3.437514007091522217e-01 4.573947906494140625e+00 1.269058942794799805e+00 2.711909532546997070e+00
4.011000000000000000e+03 6.626053619384765625e+01 -1.446188926696777344e+01 -1.221480667591094971e-01 3.329982519149780273e+00 9.623503088951110840e-01 1.935927510261535645e+00
4.012000000000000000e+03 7.143386077880859375e+01 -1.328445625305175781e+01 -1.449332833290100098e+00 8.924409866333007812e+00 2.242523193359375000e+00 1.772477626800537109e+00
4.013000000000000000e+03 7.108693695068359375e+01 -1.196898269653320312e+01 -1.535148620605468750e+00 9.498407363891601562e+00 2.388977527618408203e+00 2.363192319869995117e+00
4.014000000000000000e+03 6.812937164306640625e+01 8.490842580795288086e-01 -4.875715970993041992e-01 4.992009639739990234e+00 1.351331472396850586e+00 -2.559325933456420898e+00
4.015000000000000000e+03 6.793091583251953125e+01 -3.685103058815002441e-01 -3.950022757053375244e-01 4.479733467102050781e+00 1.225419282913208008e+00 -2.762407064437866211e+00
4.016000000000000000e+03 6.819672393798828125e+01 -5.471973419189453125e-01 -4.231333732604980469e-01 4.773078918457031250e+00 1.304983615875244141e+00 -2.884204387664794922e+00
4.017000000000000000e+03 6.924556732177734375e+01 -5.007368326187133789e-01 -7.749460339546203613e-01 6.372273921966552734e+00 1.679198265075683594e+00 -3.021787405014038086e+00
4.018000000000000000e+03 7.018931579589843750e+01 2.005967617034912109e+00 -9.684957861900329590e-01 7.063598632812500000e+00 1.828530788421630859e+00 -2.027700185775756836e+00
4.019000000000000000e+03 6.280532836914062500e+01 7.419501781463623047e+00 2.435609698295593262e-01 2.527265310287475586e+00 8.312478661537170410e-01 -1.113402128219604492e+00
4.020000000000000000e+03 6.251084136962890625e+01 4.643440246582031250e+00 7.824174314737319946e-02 2.016178846359252930e+00 6.283261775970458984e-01 -1.081127405166625977e+00
4.021000000000000000e+03 7.202161407470703125e+01 -1.189532756805419922e+01 -1.736141800880432129e+00 1.056775665283203125e+01 2.649484395980834961e+00 1.506162643432617188e+00
4.022000000000000000e+03 6.648332214355468750e+01 -1.389624500274658203e+01 -1.558619439601898193e-01 3.376856803894042969e+00 9.662984609603881836e-01 2.026978731155395508e+00
4.023000000000000000e+03 7.092823791503906250e+01 -1.371718883514404297e+01 -1.274163365364074707e+00 8.240908622741699219e+00 2.090023517608642578e+00 1.942398071289062500e+00
4.024000000000000000e+03 7.004101562500000000e+01 4.289858937263488770e-01 -1.084146499633789062e+00 7.421674251556396484e+00 1.901258349418640137e+00 -2.485932350158691406e+00
4.025000000000000000e+03 6.756243133544921875e+01 -1.800002670288085938e+01 -1.302637010812759399e-01 4.717400074005126953e+00 1.376140832901000977e+00 1.610711455345153809e+00
4.026000000000000000e+03 6.707406616210937500e+01 1.465196371078491211e+00 -2.930830717086791992e-01 3.997306585311889648e+00 1.111267089843750000e+00 -2.215528249740600586e+00
4.027000000000000000e+03 5.700458145141601562e+01 6.246398448944091797e+00 2.940503321588039398e-02 9.364525079727172852e-01 2.897572517395019531e-01 -2.671643197536468506e-01
4.028000000000000000e+03 6.601589202880859375e+01 3.959354400634765625e+00 -1.020745709538459778e-01 3.578527927398681641e+00 1.042935967445373535e+00 -1.720701217651367188e+00
4.029000000000000000e+03 6.475991058349609375e+01 2.226866245269775391e+00 -1.182342916727066040e-01 2.479313135147094727e+00 7.083236575126647949e-01 -1.558741569519042969e+00
4.030000000000000000e+03 7.010624694824218750e+01 2.755027532577514648e+00 -8.472003936767578125e-01 6.744595050811767578e+00 1.769218444824218750e+00 -1.896365761756896973e+00
4.031000000000000000e+03 6.451937103271484375e+01 3.494496107101440430e+00 -3.432834893465042114e-02 2.647511243820190430e+00 7.839548587799072266e-01 -1.500084161758422852e+00
4.032000000000000000e+03 6.615793609619140625e+01 7.240985393524169922e+00 6.660460680723190308e-02 4.012406349182128906e+00 1.223703265190124512e+00 -1.450350403785705566e+00
4.033000000000000000e+03 6.524097442626953125e+01 3.292174577713012695e+00 -6.713368743658065796e-02 2.989610910415649414e+00 8.767431974411010742e-01 -1.660354256629943848e+00
4.034000000000000000e+03 3.111047744750976562e+01 5.066030979156494141e+00 -4.735214710235595703e-01 -1.049434542655944824e-01 -1.735394746065139771e-01 6.969008445739746094e-01
4.035000000000000000e+03 6.130868148803710938e+01 5.720075607299804688e+00 1.294075995683670044e-01 1.785933494567871094e+00 5.746023654937744141e-01 -8.955948948860168457e-01
4.036000000000000000e+03 6.653692626953125000e+01 1.667765140533447266e+00 -2.296766489744186401e-01 3.552771091461181641e+00 9.969283342361450195e-01 -2.081527471542358398e+00
4.037000000000000000e+03 3.378950119018554688e+01 5.520123481750488281e+00 -4.916839301586151123e-01 -4.818585142493247986e-02 -1.619609296321868896e-01 7.135081887245178223e-01
4.038000000000000000e+03 3.687240600585937500e+01 6.654731750488281250e+00 -4.396176040172576904e-01 4.331125877797603607e-03 -1.305859386920928955e-01 7.135565876960754395e-01
4.039000000000000000e+03 3.429330062866210938e+01 6.419567584991455078e+00 -4.491381943225860596e-01 -4.098898544907569885e-02 -1.470381617546081543e-01 7.199085354804992676e-01
4.040000000000000000e+03 5.586338424682617188e+01 7.344491958618164062e+00 1.038272604346275330e-01 8.953424096107482910e-01 2.997508943080902100e-01 -1.841768622398376465e-01
4.041000000000000000e+03 5.642606735229492188e+01 5.145386219024658203e+00 -1.505047082901000977e-01 7.152000069618225098e-01 1.694085896015167236e-01 -1.330085396766662598e-01
4.042000000000000000e+03 3.125161361694335938e+01 3.409265279769897461e+00 -5.212607979774475098e-01 -8.489402383565902710e-02 -1.818464547395706177e-01 6.618341803550720215e-01
4.043000000000000000e+03 7.039220428466796875e+01 -1.405799579620361328e+01 -1.071275115013122559e+00 7.522546768188476562e+00 1.935381412506103516e+00 2.072427034378051758e+00
4.044000000000000000e+03 7.061696624755859375e+01 -1.471212291717529297e+01 -1.020948529243469238e+00 7.478483200073242188e+00 1.937260389328002930e+00 1.829176306724548340e+00
4.045000000000000000e+03 5.906943130493164062e+01 5.262137413024902344e+00 7.178769912570714951e-03 1.162336826324462891e+00 3.508546948432922363e-01 -5.102548003196716309e-01
4.046000000000000000e+03 5.247007751464843750e+01 6.799449443817138672e+00 -1.075130403041839600e-01 4.816007316112518311e-01 1.122263073921203613e-01 1.709576100111007690e-01
4.047000000000000000e+03 3.776995086669921875e+01 4.597737789154052734e+00 -5.779485106468200684e-01 6.911623291671276093e-03 -1.713110655546188354e-01 7.030049562454223633e-01
4.048000000000000000e+03 5.579703140258789062e+01 -1.925339889526367188e+01 1.766228079795837402e-01 7.174834012985229492e-01 2.682318687438964844e-01 5.930489301681518555e-02
4.049000000000000000e+03 6.895380401611328125e+01 -1.647456932067871094e+01 -4.817270338535308838e-01 5.766390323638916016e+00 1.585398912429809570e+00 1.825282931327819824e+00
4.050000000000000000e+03 6.652948760986328125e+01 -1.523561763763427734e+01 -1.431363075971603394e-01 3.686130523681640625e+00 1.062898278236389160e+00 1.893941402435302734e+00
4.051000000000000000e+03 6.464712524414062500e+01 -2.019692230224609375e+01 2.697243094444274902e-01 3.299169778823852539e+00 1.070668220520019531e+00 1.215485215187072754e+00
4.052000000000000000e+03 4.153503799438476562e+01 -2.092631340026855469e+01 -2.631783485412597656e-02 -4.461098462343215942e-02 -2.127864584326744080e-02 -5.232405066490173340e-01
4.053000000000000000e+03 5.364383316040039062e+01 7.130483150482177734e+00 -1.266427058726549149e-02 6.270934343338012695e-01 1.843287497758865356e-01 5.168763175606727600e-02
4.054000000000000000e+03 6.861356353759765625e+01 4.798959732055664062e+00 -3.910492658615112305e-01 5.422624588012695312e+00 1.509472608566284180e+00 -1.743912100791931152e+00
4.055000000000000000e+03 6.710590362548828125e+01 5.961697101593017578e+00 -9.637041389942169189e-02 4.408833980560302734e+00 1.293739080429077148e+00 -1.615542769432067871e+00
4.056000000000000000e+03 4.399280929565429688e+01 -1.985209655761718750e+01 -1.077861860394477844e-01 1.061018649488687515e-02 -2.915279939770698547e-02 -5.107718706130981445e-01
4.057000000000000000e+03 4.344600677490234375e+01 5.629681587219238281e+00 -4.948335886001586914e-01 9.507688134908676147e-02 -1.199270114302635193e-01 6.307382583618164062e-01
4.058000000000000000e+03 3.884063720703125000e+01 6.359526634216308594e+00 -4.537540376186370850e-01 3.129220008850097656e-02 -1.267385482788085938e-01 7.004518508911132812e-01
4.059000000000000000e+03 6.030168151855468750e+01 6.090169429779052734e+00 1.374903023242950439e-01 1.563881874084472656e+00 5.104116201400756836e-01 -7.259865403175354004e-01
4.060000000000000000e+03 5.457821273803710938e+01 -1.974681091308593750e+01 1.862730830907821655e-01 6.095507144927978516e-01 2.387471348047256470e-01 -2.796240523457527161e-02
4.061000000000000000e+03 6.585293579101562500e+01 8.455631256103515625e+00 1.352761387825012207e-01 3.933949708938598633e+00 1.220767736434936523e+00 -1.353466510772705078e+00
4.062000000000000000e+03 6.515980529785156250e+01 6.084388732910156250e+00 8.841418474912643433e-02 3.416241168975830078e+00 1.051396608352661133e+00 -1.447952151298522949e+00
4.063000000000000000e+03 6.055533599853515625e+01 -1.966320228576660156e+01 3.457166552543640137e-01 1.752293944358825684e+00 6.294031739234924316e-01 6.771574616432189941e-01
4.064000000000000000e+03 5.986447525024414062e+01 -1.897572135925292969e+01 2.762273848056793213e-01 1.453256845474243164e+00 5.188452601432800293e-01 5.738243460655212402e-01
4.065000000000000000e+03 4.272928619384765625e+01 7.178646087646484375e+00 -3.435371518135070801e-01 1.173870190978050232e-01 -6.784503906965255737e-02 6.277099251747131348e-01
4.066000000000000000e+03 4.549821853637695312e+01 7.365404129028320312e+00 -2.634954750537872314e-01 1.942323595285415649e-01 -2.077893912792205811e-02 5.372092723846435547e-01
4.067000000000000000e+03 6.372623443603515625e+01 -2.125633239746093750e+01 3.799667656421661377e-01 3.016935825347900391e+00 1.019070863723754883e+00 1.068723201751708984e+00
4.068000000000000000e+03 6.183027267456054688e+01 -1.812757110595703125e+01 2.287603616714477539e-01 1.885993480682373047e+00 6.344261169433593750e-01 8.717737793922424316e-01
4.069000000000000000e+03 3.007584190368652344e+01 5.014404296875000000e+00 -4.584461152553558350e-01 -1.301421523094177246e-01 -1.765764802694320679e-01 6.854966878890991211e-01
4.070000000000000000e+03 3.057690811157226562e+01 8.879858970642089844e+00 -3.726665675640106201e-01 -1.338760256767272949e-01 -1.519627869129180908e-01 7.065998315811157227e-01
4.071000000000000000e+03 6.620351409912109375e+01 -1.772338104248046875e+01 1.976448856294155121e-02 3.856602191925048828e+00 1.162909984588623047e+00 1.567043781280517578e+00
4.072000000000000000e+03 6.647766876220703125e+01 -1.579445552825927734e+01 -1.095420792698860168e-01 3.796463489532470703e+00 1.106076478958129883e+00 1.804714679718017578e+00
4.073000000000000000e+03 6.668338012695312500e+01 -1.646933746337890625e+01 -1.000473648309707642e-01 4.033135890960693359e+00 1.179926514625549316e+00 1.763110041618347168e+00
4.074000000000000000e+03 4.661283874511718750e+01 -1.906367492675781250e+01 -1.563250720500946045e-01 6.344074755907058716e-02 -2.786529995501041412e-02 -4.751815199851989746e-01
4.075000000000000000e+03 6.284820556640625000e+01 -2.246817207336425781e+01 4.659485220909118652e-01 2.833222389221191406e+00 9.897512197494506836e-01 9.088210463523864746e-01
4.076000000000000000e+03 3.269650650024414062e+01 -1.936280059814453125e+01 -2.128479331731796265e-01 -1.176514700055122375e-01 -9.914982318878173828e-02 -5.116048455238342285e-01
4.077000000000000000e+03 3.450160598754882812e+01 -2.090309333801269531e+01 -9.669338166713714600e-02 -1.281547695398330688e-01 -6.745444983243942261e-02 -5.242685675621032715e-01
4.078000000000000000e+03 4.011729049682617188e+01 7.109578132629394531e+00 -3.843624889850616455e-01 6.407400220632553101e-02 -9.608654677867889404e-02 6.789045333862304688e-01
4.079000000000000000e+03 3.783326721191406250e+01 6.571373462677001953e+00 -4.412912428379058838e-01 1.640752516686916351e-02 -1.274651139974594116e-01 7.084713578224182129e-01
4.080000000000000000e+03 6.525421142578125000e+01 9.640011787414550781e+00 2.380269318819046021e-01 3.730228900909423828e+00 1.190476775169372559e+00 -1.236802697181701660e+00
4.081000000000000000e+03 6.363987350463867188e+01 5.061054229736328125e+00 1.040396243333816528e-01 2.517470836639404297e+00 7.864531278610229492e-01 -1.274165630340576172e+00
4.082000000000000000e+03 2.782285308837890625e+01 -2.140908622741699219e+01 -9.853908419609069824e-02 -1.547477245330810547e-01 -7.598604261875152588e-02 -4.375394284725189209e-01
4.083000000000000000e+03 5.023390579223632812e+01 5.604619979858398438e+00 -3.519990146160125732e-01 2.643115520477294922e-01 -2.630623430013656616e-02 3.687380552291870117e-01
4.084000000000000000e+03 4.952331161499023438e+01 -1.908899688720703125e+01 -7.899657636880874634e-02 1.849241256713867188e-01 3.177826479077339172e-02 -3.733467459678649902e-01
4.085000000000000000e+03 4.720656204223632812e+01 5.437908649444580078e+00 -4.571793377399444580e-01 1.654320955276489258e-01 -8.752416819334030151e-02 5.186766386032104492e-01
4.086000000000000000e+03 4.662470245361328125e+01 6.898912429809570312e+00 -2.903563082218170166e-01 2.067419141530990601e-01 -2.508431673049926758e-02 5.053880214691162109e-01
4.087000000000000000e+03 6.462819671630859375e+01 1.086937332153320312e+01 3.048662245273590088e-01 3.536483049392700195e+00 1.152404785156250000e+00 -1.140919208526611328e+00
4.088000000000000000e+03 4.427517318725585938e+01 7.738415718078613281e+00 -2.578002214431762695e-01 1.706051379442214966e-01 -2.615852653980255127e-02 5.713505148887634277e-01
4.089000000000000000e+03 4.389426803588867188e+01 6.660850524902343750e+00 -3.746730983257293701e-01 1.271190345287322998e-01 -7.426621764898300171e-02 6.090745329856872559e-01
4.090000000000000000e+03 2.832948112487792969e+01 1.506986713409423828e+01 -2.507745325565338135e-01 -2.584840357303619385e-01 -1.527775675058364868e-01 5.528784990310668945e-01
4.091000000000000000e+03 4.786634445190429688e+01 -1.983994674682617188e+01 -2.178909443318843842e-02 1.392511129379272461e-01 3.523860499262809753e-02 -4.144183695316314697e-01
4.092000000000000000e+03 5.300019836425781250e+01 -1.866146850585937500e+01 -2.867513149976730347e-02 3.676784634590148926e-01 1.017010062932968140e-01 -2.025012224912643433e-01
4.093000000000000000e+03 3.182845687866210938e+01 8.472124099731445312e+00 -3.786764442920684814e-01 -9.685952216386795044e-02 -1.426607966423034668e-01 7.099151611328125000e-01
4.094000000000000000e+03 2.937981224060058594e+01 1.007375240325927734e+01 -3.693209886550903320e-01 -1.878692805767059326e-01 -1.671570837497711182e-01 6.806389093399047852e-01
4.095000000000000000e+03 3.852429199218750000e+01 -2.130359458923339844e+01 -2.379164285957813263e-02 -7.726085186004638672e-02 -3.031574934720993042e-02 -5.342704057693481445e-01
4.096000000000000000e+03 3.607616043090820312e+01 -2.048584175109863281e+01 -1.234401986002922058e-01 -1.119501441717147827e-01 -7.061710208654403687e-02 -5.396960377693176270e-01
4.097000000000000000e+03 6.113202667236328125e+01 1.687759399414062500e+01 5.268695950508117676e-01 2.856729745864868164e+00 1.015079736709594727e+00 -7.385433912277221680e-01
4.098000000000000000e+03 6.231297302246093750e+01 1.298092365264892578e+01 4.544507861137390137e-01 2.916054010391235352e+00 1.011151432991027832e+00 -9.169312715530395508e-01
4.099000000000000000e+03 2.394947433471679688e+01 -2.544717025756835938e+01 5.569577217102050781e-02 -2.269375771284103394e-01 -5.137253925204277039e-02 -3.514507114887237549e-01
4.100000000000000000e+03 6.559244537353515625e+01 2.561573219299316406e+01 3.941697776317596436e-01 4.209315299987792969e+00 1.381045579910278320e+00 -5.732093453407287598e-01
4.101000000000000000e+03 6.289821624755859375e+01 2.364359474182128906e+01 4.998601973056793213e-01 3.545511484146118164e+00 1.213611483573913574e+00 -6.438210606575012207e-01
4.102000000000000000e+03 6.343557739257812500e+01 1.387815856933593750e+01 4.272109270095825195e-01 3.329118251800537109e+00 1.126898765563964844e+00 -9.454732537269592285e-01
4.103000000000000000e+03 6.713872528076171875e+01 -1.351107978820800781e+01 -2.391141355037689209e-01 3.855719566345214844e+00 1.084981560707092285e+00 2.258124113082885742e+00
4.104000000000000000e+03 6.983334350585937500e+01 -1.054432868957519531e+00 -1.005262255668640137e+00 7.527787685394287109e+00 1.956757664680480957e+00 -3.190989017486572266e+00
4.105000000000000000e+03 6.832501220703125000e+01 -1.198297119140625000e+01 -3.727062046527862549e-01 4.875224590301513672e+00 1.350755453109741211e+00 2.938338994979858398e+00
4.106000000000000000e+03 7.060152435302734375e+01 -1.311597156524658203e+01 -1.258944392204284668e+00 8.145531654357910156e+00 2.065976142883300781e+00 2.275295972824096680e+00
4.107000000000000000e+03 7.144614410400390625e+01 -1.234397602081298828e+01 -1.604119658470153809e+00 9.671636581420898438e+00 2.420255184173583984e+00 1.971163153648376465e+00
4.108000000000000000e+03 7.108644104003906250e+01 -1.134403038024902344e+01 -1.591990351676940918e+00 1.003652858734130859e+01 2.533361434936523438e+00 2.576583385467529297e+00
4.109000000000000000e+03 6.993493652343750000e+01 -1.595949649810791016e+00 -9.738315343856811523e-01 7.891009807586669922e+00 2.075153589248657227e+00 -3.478524208068847656e+00
4.110000000000000000e+03 7.024501800537109375e+01 -1.593679070472717285e+00 -1.132329106330871582e+00 8.443096160888671875e+00 2.193230152130126953e+00 -3.394493579864501953e+00
4.111000000000000000e+03 6.765727233886718750e+01 -1.223191469907760620e-01 -3.512144088745117188e-01 4.224719524383544922e+00 1.162051558494567871e+00 -2.621148109436035156e+00
4.112000000000000000e+03 6.889507293701171875e+01 -7.495504021644592285e-01 -6.053946018218994141e-01 5.756017208099365234e+00 1.545186758041381836e+00 -3.073785543441772461e+00
4.113000000000000000e+03 6.937240600585937500e+01 -1.516299128532409668e+00 -6.596878767013549805e-01 6.556235313415527344e+00 1.768964171409606934e+00 -3.463816881179809570e+00
4.114000000000000000e+03 7.105467224121093750e+01 -1.276593017578125000e+01 -1.440260410308837891e+00 8.902065277099609375e+00 2.238541364669799805e+00 2.129688262939453125e+00
4.115000000000000000e+03 7.082265472412109375e+01 2.006164640188217163e-01 -1.362353086471557617e+00 8.462525367736816406e+00 2.130051851272583008e+00 -2.248309612274169922e+00
4.116000000000000000e+03 7.059201049804687500e+01 6.849325299263000488e-01 -1.246021747589111328e+00 7.973975181579589844e+00 2.018386125564575195e+00 -2.216713428497314453e+00
4.117000000000000000e+03 6.793408966064453125e+01 2.166084647178649902e-01 -4.259593784809112549e-01 4.609481811523437500e+00 1.255056738853454590e+00 -2.632673263549804688e+00
4.118000000000000000e+03 6.760739898681640625e+01 1.943632721900939941e+00 -3.856504857540130615e-01 4.555612087249755859e+00 1.250988483428955078e+00 -2.222976684570312500e+00
4.119000000000000000e+03 6.525308990478515625e+01 -1.553357505798339844e+01 -7.811931427568197250e-03 2.915501117706298828e+00 8.723067641258239746e-01 1.608651280403137207e+00
4.120000000000000000e+03 6.843709564208984375e+01 -7.134661674499511719e-01 -4.624197185039520264e-01 5.016546726226806641e+00 1.366237998008728027e+00 -3.009808540344238281e+00
4.121000000000000000e+03 6.829640197753906250e+01 -1.020082473754882812e+00 -3.886676728725433350e-01 4.679471969604492188e+00 1.287241220474243164e+00 -3.025847434997558594e+00
4.122000000000000000e+03 6.847436523437500000e+01 1.301345348358154297e+00 -5.673324465751647949e-01 5.322673797607421875e+00 1.426602482795715332e+00 -2.443283557891845703e+00
4.123000000000000000e+03 6.654299926757812500e+01 3.934666633605957031e+00 -1.552303284406661987e-01 4.009281158447265625e+00 1.156215190887451172e+00 -1.794653058052062988e+00
4.124000000000000000e+03 6.949053192138671875e+01 2.619452476501464844e+00 -7.442351579666137695e-01 6.291602611541748047e+00 1.664210200309753418e+00 -2.007861614227294922e+00
4.125000000000000000e+03 6.420043945312500000e+01 -1.615651893615722656e+01 6.831467896699905396e-02 2.482320547103881836e+00 7.651906013488769531e-01 1.355296969413757324e+00
4.126000000000000000e+03 6.322266006469726562e+01 4.506161689758300781e+00 5.700158700346946716e-02 2.279893636703491211e+00 7.010685801506042480e-01 -1.189430832862854004e+00
4.127000000000000000e+03 6.384242248535156250e+01 3.941737413406372070e+00 7.210482843220233917e-03 2.438784360885620117e+00 7.337984442710876465e-01 -1.344104886054992676e+00
4.128000000000000000e+03 6.940422058105468750e+01 1.233717322349548340e+00 -8.330342769622802734e-01 6.406206130981445312e+00 1.671951532363891602e+00 -2.370839357376098633e+00
4.129000000000000000e+03 6.873459625244140625e+01 2.016324281692504883e+00 -6.138264536857604980e-01 5.606488704681396484e+00 1.497798681259155273e+00 -2.262973308563232422e+00
4.130000000000000000e+03 6.938164520263671875e+01 -9.218065738677978516e-01 -7.721711397171020508e-01 6.606440544128417969e+00 1.750280737876892090e+00 -3.201640605926513672e+00
4.131000000000000000e+03 3.308692932128906250e+01 5.638933658599853516e+00 -4.759235382080078125e-01 -5.871841311454772949e-02 -1.603925824165344238e-01 7.133482694625854492e-01
4.132000000000000000e+03 6.941510772705078125e+01 -1.573498725891113281e+01 -6.387994885444641113e-01 6.203708648681640625e+00 1.669472813606262207e+00 1.915951013565063477e+00
4.133000000000000000e+03 7.002668762207031250e+01 -1.498224353790283203e+01 -8.579929471015930176e-01 6.886847496032714844e+00 1.808656334877014160e+00 1.977758288383483887e+00
4.134000000000000000e+03 6.589831542968750000e+01 -1.672440719604492188e+01 -1.622474635951220989e-03 3.520569801330566406e+00 1.055684208869934082e+00 1.621416449546813965e+00
4.135000000000000000e+03 6.411383819580078125e+01 -1.815865325927734375e+01 1.966902613639831543e-01 2.815266370773315430e+00 9.035869836807250977e-01 1.263306021690368652e+00
4.136000000000000000e+03 6.415988922119140625e+01 -1.700636672973632812e+01 1.138722300529479980e-01 2.628997802734375000e+00 8.228610157966613770e-01 1.322360396385192871e+00
4.137000000000000000e+03 6.793600463867187500e+01 4.918727397918701172e+00 -2.760484218597412109e-01 4.892260074615478516e+00 1.384863495826721191e+00 -1.767995834350585938e+00
4.138000000000000000e+03 6.658300018310546875e+01 2.462545633316040039e+00 -2.311611175537109375e-01 3.766628980636596680e+00 1.060640335083007812e+00 -2.005805015563964844e+00
4.139000000000000000e+03 6.881114959716796875e+01 3.698882818222045898e+00 -5.282676219940185547e-01 5.605738162994384766e+00 1.523241162300109863e+00 -1.911237955093383789e+00
4.140000000000000000e+03 6.987558746337890625e+01 -1.432977199554443359e+01 -9.100559949874877930e-01 6.934650897979736328e+00 1.807378411293029785e+00 2.150789976119995117e+00
4.141000000000000000e+03 6.902302551269531250e+01 -1.476376628875732422e+01 -6.146120429039001465e-01 5.919445514678955078e+00 1.591449975967407227e+00 2.194960355758666992e+00
4.142000000000000000e+03 6.777549743652343750e+01 -1.667021942138671875e+01 -2.489559203386306763e-01 4.869235992431640625e+00 1.386083960533142090e+00 1.806566238403320312e+00
4.143000000000000000e+03 5.783581161499023438e+01 7.233236789703369141e+00 1.727243512868881226e-01 1.208051443099975586e+00 4.142327308654785156e-01 -4.157775938510894775e-01
4.144000000000000000e+03 5.479007720947265625e+01 7.281390666961669922e+00 5.483277887105941772e-02 7.596482038497924805e-01 2.443442940711975098e-01 -6.833215802907943726e-02
4.145000000000000000e+03 6.481262969970703125e+01 4.337490558624267578e+00 1.576122594997286797e-03 3.012474775314331055e+00 9.042152762413024902e-01 -1.521101593971252441e+00
4.146000000000000000e+03 6.916163635253906250e+01 -1.402566719055175781e+01 -7.129848003387451172e-01 6.156331539154052734e+00 1.633004069328308105e+00 2.375480413436889648e+00
4.147000000000000000e+03 6.953256988525390625e+01 -1.512223720550537109e+01 -7.423881292343139648e-01 6.505195140838623047e+00 1.728842139244079590e+00 2.017981290817260742e+00
4.148000000000000000e+03 5.332221984863281250e+01 8.350646018981933594e+00 1.077422052621841431e-01 6.945042014122009277e-01 2.406739294528961182e-01 3.085121884942054749e-02
4.149000000000000000e+03 6.268224716186523438e+01 -1.873472976684570312e+01 2.632825970649719238e-01 2.303673982620239258e+00 7.700870037078857422e-01 1.017724037170410156e+00
4.150000000000000000e+03 3.596524047851562500e+01 6.644894123077392578e+00 -4.422197639942169189e-01 -8.797117508947849274e-03 -1.353050619363784790e-01 7.177445292472839355e-01
4.151000000000000000e+03 3.526393127441406250e+01 5.574734687805175781e+00 -4.986001849174499512e-01 -2.237873338162899017e-02 -1.562936753034591675e-01 7.170186042785644531e-01
4.152000000000000000e+03 5.457382965087890625e+01 8.573979377746582031e+00 1.773254871368408203e-01 8.725318908691406250e-01 3.149572014808654785e-01 -9.594228863716125488e-02
4.153000000000000000e+03 6.138198471069335938e+01 6.708366870880126953e+00 2.247160226106643677e-01 1.981678366661071777e+00 6.619183421134948730e-01 -9.242767095565795898e-01
4.154000000000000000e+03 5.502950668334960938e+01 -2.128721237182617188e+01 3.757154941558837891e-01 8.106585741043090820e-01 3.559122085571289062e-01 6.800875812768936157e-02
4.155000000000000000e+03 5.939049530029296875e+01 -2.140489768981933594e+01 4.872588217258453369e-01 1.690775156021118164e+00 6.534101963043212891e-01 5.224005579948425293e-01
4.156000000000000000e+03 6.705503082275390625e+01 -1.723729705810546875e+01 -1.052746325731277466e-01 4.339211463928222656e+00 1.270181059837341309e+00 1.699461221694946289e+00
4.157000000000000000e+03 5.325409698486328125e+01 -2.012368011474609375e+01 1.799365282058715820e-01 5.022734999656677246e-01 2.046630084514617920e-01 -1.246984526515007019e-01
4.158000000000000000e+03 6.712010955810546875e+01 4.863403320312500000e+00 -1.798837482929229736e-01 4.372102260589599609e+00 1.257665634155273438e+00 -1.736770391464233398e+00
4.159000000000000000e+03 6.638567352294921875e+01 4.583063125610351562e+00 -1.049138009548187256e-01 3.918604850769042969e+00 1.144107341766357422e+00 -1.722069025039672852e+00
4.160000000000000000e+03 5.870671081542968750e+01 7.076692104339599609e+00 1.844378560781478882e-01 1.357904791831970215e+00 4.627027809619903564e-01 -5.142158865928649902e-01
4.161000000000000000e+03 5.059679794311523438e+01 6.620965480804443359e+00 -2.000895440578460693e-01 3.607682883739471436e-01 4.820362478494644165e-02 3.083527684211730957e-01
4.162000000000000000e+03 6.203485870361328125e+01 -1.964824295043945312e+01 3.497954607009887695e-01 2.220569849014282227e+00 7.711095809936523438e-01 9.005406498908996582e-01
4.163000000000000000e+03 6.194418716430664062e+01 -2.151522254943847656e+01 4.623302519321441650e-01 2.428791284561157227e+00 8.673364520072937012e-01 8.517593741416931152e-01
4.164000000000000000e+03 5.983961105346679688e+01 -2.041200065612792969e+01 3.870329856872558594e-01 1.645082116127014160e+00 6.096345186233520508e-01 5.803488492965698242e-01
4.165000000000000000e+03 6.348460006713867188e+01 8.258080482482910156e+00 2.657775282859802246e-01 2.919961214065551758e+00 9.557216167449951172e-01 -1.165679574012756348e+00
4.166000000000000000e+03 5.188792419433593750e+01 -2.036124992370605469e+01 1.698560267686843872e-01 4.006978273391723633e-01 1.711661517620086670e-01 -2.136113047599792480e-01
4.167000000000000000e+03 3.268896102905273438e+01 7.721400260925292969e+00 -3.962177336215972900e-01 -7.636785507202148438e-02 -1.417756676673889160e-01 7.154768705368041992e-01
4.168000000000000000e+03 6.124846649169921875e+01 -1.891366958618164062e+01 2.869759798049926758e-01 1.825991511344909668e+00 6.338902711868286133e-01 7.795654535293579102e-01
4.169000000000000000e+03 5.945856094360351562e+01 6.646245956420898438e+00 1.648544669151306152e-01 1.447248339653015137e+00 4.836308360099792480e-01 -6.215217709541320801e-01
4.170000000000000000e+03 4.274761581420898438e+01 -2.310019683837890625e+01 1.790503114461898804e-01 1.655520987696945667e-03 5.421175062656402588e-02 -4.691155850887298584e-01
4.171000000000000000e+03 4.567985534667968750e+01 -2.052473640441894531e+01 -1.834514201618731022e-03 7.374981790781021118e-02 2.157459035515785217e-02 -4.663054347038269043e-01
4.172000000000000000e+03 6.484152221679687500e+01 8.026505470275878906e+00 1.879588961601257324e-01 3.434408187866210938e+00 1.086710095405578613e+00 -1.321662306785583496e+00
4.173000000000000000e+03 6.039182662963867188e+01 -2.112084960937500000e+01 4.621757268905639648e-01 1.959400773048400879e+00 7.264729142189025879e-01 6.710025668144226074e-01
4.174000000000000000e+03 6.124939727783203125e+01 -2.047726821899414062e+01 4.081985056400299072e-01 2.078317403793334961e+00 7.459547519683837891e-01 7.865625619888305664e-01
4.175000000000000000e+03 3.283254241943359375e+01 -2.101598358154296875e+01 -1.018467023968696594e-01 -1.332846879959106445e-01 -7.053942233324050903e-02 -5.092592835426330566e-01
4.176000000000000000e+03 3.116125297546386719e+01 -1.923769569396972656e+01 -2.224691361188888550e-01 -1.177375838160514832e-01 -1.020620167255401611e-01 -4.939102530479431152e-01
4.177000000000000000e+03 3.990723800659179688e+01 -2.003198242187500000e+01 -1.335941553115844727e-01 -5.938316509127616882e-02 -5.789319798350334167e-02 -5.396566390991210938e-01
4.178000000000000000e+03 5.053086853027343750e+01 -2.045400428771972656e+01 1.345515996217727661e-01 2.988308370113372803e-01 1.300147324800491333e-01 -2.854257524013519287e-01
4.179000000000000000e+03 4.571257781982421875e+01 8.634108543395996094e+00 -1.376893818378448486e-01 2.489342540502548218e-01 3.337346017360687256e-02 4.940734505653381348e-01
4.180000000000000000e+03 4.663526535034179688e+01 1.012340831756591797e+01 1.311892922967672348e-02 3.447066843509674072e-01 1.073476895689964294e-01 4.154147505760192871e-01
4.181000000000000000e+03 6.406207275390625000e+01 1.229744148254394531e+01 3.705633580684661865e-01 3.449150323867797852e+00 1.145914077758789062e+00 -1.040394067764282227e+00
4.182000000000000000e+03 6.216877365112304688e+01 8.156310081481933594e+00 2.943252921104431152e-01 2.418349504470825195e+00 8.138024806976318359e-01 -1.006889462471008301e+00
4.183000000000000000e+03 2.906059265136718750e+01 1.390942287445068359e+01 -2.734110355377197266e-01 -2.211372405290603638e-01 -1.483644843101501465e-01 5.926305651664733887e-01
4.184000000000000000e+03 4.750834655761718750e+01 6.355385303497314453e+00 -3.257463574409484863e-01 2.148626744747161865e-01 -3.326510265469551086e-02 4.849494993686676025e-01
4.185000000000000000e+03 3.220431518554687500e+01 5.896044731140136719e+00 -4.621386826038360596e-01 -8.166144788265228271e-02 -1.631400436162948608e-01 7.125857472419738770e-01
4.186000000000000000e+03 3.078816604614257812e+01 1.057884216308593750e+01 -3.240289092063903809e-01 -1.373870223760604858e-01 -1.384247839450836182e-01 6.774084568023681641e-01
4.187000000000000000e+03 6.306438064575195312e+01 -2.663532829284667969e+01 5.943856239318847656e-01 3.230496168136596680e+00 1.147464513778686523e+00 7.813565731048583984e-01
4.188000000000000000e+03 2.948391151428222656e+01 1.601276588439941406e+01 -1.661896109580993652e-01 -2.099795341491699219e-01 -1.128507480025291443e-01 5.265272259712219238e-01
4.189000000000000000e+03 2.731268692016601562e+01 1.758927154541015625e+01 -1.569806635379791260e-01 -3.359754383563995361e-01 -1.478868275880813599e-01 4.608338475227355957e-01
4.190000000000000000e+03 4.123030090332031250e+01 6.666777133941650391e+00 -4.085005223751068115e-01 7.579791545867919922e-02 -9.981077909469604492e-02 6.659483909606933594e-01
4.191000000000000000e+03 6.155130386352539062e+01 1.399744606018066406e+01 4.838807880878448486e-01 2.790982007980346680e+00 9.824588298797607422e-01 -8.409070968627929688e-01
4.192000000000000000e+03 3.032761192321777344e+01 1.467760467529296875e+01 -1.965782046318054199e-01 -1.644262671470642090e-01 -1.083013415336608887e-01 5.723985433578491211e-01
4.193000000000000000e+03 6.132220840454101562e+01 1.886890602111816406e+01 5.492236614227294922e-01 3.045715332031250000e+00 1.078481674194335938e+00 -7.039374709129333496e-01
4.194000000000000000e+03 5.055779266357421875e+01 -1.908720016479492188e+01 -5.851169303059577942e-02 2.281468212604522705e-01 5.089053884148597717e-02 -3.294152617454528809e-01
4.195000000000000000e+03 3.898711013793945312e+01 7.500534057617187500e+00 -3.670374453067779541e-01 4.586054012179374695e-02 -9.635306894779205322e-02 6.903053522109985352e-01
4.196000000000000000e+03 4.041329574584960938e+01 8.240097045898437500e+00 -2.918130755424499512e-01 8.632666617631912231e-02 -6.164592131972312927e-02 6.594014167785644531e-01
4.197000000000000000e+03 3.061069679260253906e+01 -2.440509033203125000e+01 9.832604974508285522e-02 -1.830698549747467041e-01 -2.542314119637012482e-02 -4.494023025035858154e-01
4.198000000000000000e+03 5.637199020385742188e+01 -2.064920425415039062e+01 3.537444174289703369e-01 9.361804723739624023e-01 3.869774639606475830e-01 1.687704175710678101e-01
4.199000000000000000e+03 2.521416664123535156e+01 2.474081420898437500e+01 1.781534403562545776e-01 -4.802322983741760254e-01 -9.062366187572479248e-02 2.749502658843994141e-01
4.200000000000000000e+03 6.875511169433593750e+01 -1.234548568725585938e+01 -5.640672445297241211e-01 5.682992935180664062e+00 1.535677790641784668e+00 2.900488376617431641e+00
4.201000000000000000e+03 6.779521179199218750e+01 -1.311084747314453125e+01 -3.484507799148559570e-01 4.447774887084960938e+00 1.229797244071960449e+00 2.501472949981689453e+00
4.202000000000000000e+03 7.061550903320312500e+01 -1.394294261932373047e+00 -1.374919176101684570e+00 9.151506423950195312e+00 2.332976102828979492e+00 -3.034403562545776367e+00
4.203000000000000000e+03 6.694688415527343750e+01 -1.410352897644042969e+01 -2.007956057786941528e-01 3.824609756469726562e+00 1.087144255638122559e+00 2.117102384567260742e+00
4.204000000000000000e+03 7.030204772949218750e+01 -1.252182197570800781e+01 -1.195254683494567871e+00 8.026309013366699219e+00 2.049316406250000000e+00 2.655332565307617188e+00
4.205000000000000000e+03 7.073951721191406250e+01 -1.228019905090332031e+01 -1.396310329437255859e+00 8.855734825134277344e+00 2.237827301025390625e+00 2.503089666366577148e+00
4.206000000000000000e+03 6.965267181396484375e+01 -2.794100940227508545e-01 -9.504037499427795410e-01 6.971140384674072266e+00 1.806220889091491699e+00 -2.881878376007080078e+00
4.207000000000000000e+03 7.013317871093750000e+01 -6.264765858650207520e-01 -1.149073123931884766e+00 7.852087020874023438e+00 2.010904073715209961e+00 -2.894759416580200195e+00
4.208000000000000000e+03 7.012654113769531250e+01 -1.368121653795242310e-01 -1.154812932014465332e+00 7.706583023071289062e+00 1.965531110763549805e+00 -2.694473028182983398e+00
4.209000000000000000e+03 6.948236083984375000e+01 -1.229258537292480469e+01 -8.359700441360473633e-01 6.780779838562011719e+00 1.783442974090576172e+00 2.963807821273803711e+00
4.210000000000000000e+03 7.017273712158203125e+01 -1.195309352874755859e+01 -1.140106916427612305e+00 8.013277053833007812e+00 2.061950922012329102e+00 2.966378688812255859e+00
4.211000000000000000e+03 6.914793395996093750e+01 -1.267384719848632812e+01 -7.211668491363525391e-01 6.250661373138427734e+00 1.658848404884338379e+00 2.822421550750732422e+00
4.212000000000000000e+03 6.939620208740234375e+01 7.476172447204589844e-01 -8.585860133171081543e-01 6.466989517211914062e+00 1.682521104812622070e+00 -2.637602806091308594e+00
4.213000000000000000e+03 6.844213867187500000e+01 -1.579102277755737305e-01 -5.258899927139282227e-01 5.160936355590820312e+00 1.390513896942138672e+00 -2.861533641815185547e+00
4.214000000000000000e+03 6.770851898193359375e+01 5.629884600639343262e-01 -4.102638959884643555e-01 4.448335170745849609e+00 1.211421370506286621e+00 -2.510837316513061523e+00
4.215000000000000000e+03 6.674279785156250000e+01 -1.468543529510498047e+01 -1.753856986761093140e-01 3.759328365325927734e+00 1.075182795524597168e+00 1.995168328285217285e+00
4.216000000000000000e+03 6.604074096679687500e+01 -1.507600116729736328e+01 -9.100899845361709595e-02 3.315147161483764648e+00 9.672414660453796387e-01 1.828932642936706543e+00
4.217000000000000000e+03 6.727598571777343750e+01 2.640302658081054688e+00 -3.061280846595764160e-01 4.295003414154052734e+00 1.196662545204162598e+00 -2.066516637802124023e+00
4.218000000000000000e+03 6.897238159179687500e+01 2.709253072738647461e+00 -6.239912509918212891e-01 5.815749645233154297e+00 1.557527542114257812e+00 -2.055428743362426758e+00
4.219000000000000000e+03 6.846431732177734375e+01 3.008186340332031250e+00 -5.098332762718200684e-01 5.390916347503662109e+00 1.464324951171875000e+00 -2.089990139007568359e+00
4.220000000000000000e+03 6.949652862548828125e+01 2.358592301607131958e-01 -8.798652887344360352e-01 6.651100158691406250e+00 1.731370449066162109e+00 -2.735831737518310547e+00
4.221000000000000000e+03 6.481546783447265625e+01 -1.607890129089355469e+01 3.888144716620445251e-02 2.799715757369995117e+00 8.515791893005371094e-01 1.493939995765686035e+00
4.222000000000000000e+03 6.944616699218750000e+01 1.884454488754272461e+00 -8.011035919189453125e-01 6.356735706329345703e+00 1.666689634323120117e+00 -2.204902172088623047e+00
4.223000000000000000e+03 6.804272460937500000e+01 -1.390622520446777344e+01 -4.114485681056976318e-01 4.900827884674072266e+00 1.346813678741455078e+00 2.362818002700805664e+00
4.224000000000000000e+03 7.012114715576171875e+01 -1.342114639282226562e+01 -1.079052209854125977e+00 7.499231815338134766e+00 1.926053881645202637e+00 2.368645906448364258e+00
4.225000000000000000e+03 6.903630828857421875e+01 -4.522535949945449829e-02 -7.356736660003662109e-01 6.036527633666992188e+00 1.590256214141845703e+00 -2.818868398666381836e+00
4.226000000000000000e+03 6.790362548828125000e+01 2.985809087753295898e+00 -3.920919597148895264e-01 4.902053833007812500e+00 1.352988481521606445e+00 -2.062062740325927734e+00
4.227000000000000000e+03 6.713345336914062500e+01 4.007357120513916016e+00 -2.178745865821838379e-01 4.389924526214599609e+00 1.251614928245544434e+00 -1.856132388114929199e+00
4.228000000000000000e+03 6.860313415527343750e+01 -1.538143730163574219e+01 -4.810816645622253418e-01 5.494072437286376953e+00 1.503897190093994141e+00 2.066912651062011719e+00
4.229000000000000000e+03 6.417890930175781250e+01 4.588072776794433594e+00 5.478950962424278259e-02 2.708438396453857422e+00 8.289683461189270020e-01 -1.401819825172424316e+00
4.230000000000000000e+03 6.961664581298828125e+01 -1.370267295837402344e+01 -8.713175654411315918e-01 6.755066871643066406e+00 1.765124797821044922e+00 2.409242153167724609e+00
4.231000000000000000e+03 6.827352142333984375e+01 -1.464615345001220703e+01 -4.596029818058013916e-01 5.209875583648681641e+00 1.425081729888916016e+00 2.193449258804321289e+00
4.232000000000000000e+03 6.545134735107421875e+01 4.142743110656738281e+00 -5.202885344624519348e-02 3.280161142349243164e+00 9.684396386146545410e-01 -1.651167869567871094e+00
4.233000000000000000e+03 6.581240844726562500e+01 5.011413574218750000e+00 -3.322051465511322021e-02 3.663585424423217773e+00 1.089109420776367188e+00 -1.619990468025207520e+00
4.234000000000000000e+03 6.866055297851562500e+01 -1.479946517944335938e+01 -5.268009305000305176e-01 5.573047637939453125e+00 1.513874053955078125e+00 2.199916362762451172e+00
4.235000000000000000e+03 5.685455703735351562e+01 8.633934020996093750e+00 2.539465427398681641e-01 1.188477516174316406e+00 4.327272176742553711e-01 -3.399504721164703369e-01
4.236000000000000000e+03 5.575148010253906250e+01 8.692927360534667969e+00 2.282011806964874268e-01 1.033390164375305176e+00 3.784773945808410645e-01 -2.257665097713470459e-01
4.237000000000000000e+03 3.306545257568359375e+01 4.807846546173095703e+00 -5.091426372528076172e-01 -5.904522165656089783e-02 -1.704563498497009277e-01 7.051607370376586914e-01
4.238000000000000000e+03 3.396199798583984375e+01 7.318463325500488281e+00 -4.114129245281219482e-01 -4.644824936985969543e-02 -1.373583525419235229e-01 7.203296422958374023e-01
4.239000000000000000e+03 3.510274124145507812e+01 6.563082218170166016e+00 -4.442412555217742920e-01 -2.366882748901844025e-02 -1.403730362653732300e-01 7.207004427909851074e-01
4.240000000000000000e+03 6.335136032104492188e+01 5.923031806945800781e+00 1.618050187826156616e-01 2.543916940689086914e+00 8.117166161537170410e-01 -1.215288400650024414e+00
4.241000000000000000e+03 6.430939483642578125e+01 5.247847557067871094e+00 8.464789390563964844e-02 2.916027069091796875e+00 9.002024531364440918e-01 -1.390109062194824219e+00
4.242000000000000000e+03 5.201192474365234375e+01 8.035836219787597656e+00 1.471789274364709854e-02 5.443134307861328125e-01 1.677093952894210815e-01 1.558788716793060303e-01
4.243000000000000000e+03 4.825754165649414062e+01 7.172857761383056641e+00 -2.180823981761932373e-01 2.653898298740386963e-01 1.419222354888916016e-02 4.243397116661071777e-01
4.244000000000000000e+03 5.433469772338867188e+01 9.981791496276855469e+00 2.767121791839599609e-01 9.635130167007446289e-01 3.720675706863403320e-01 -1.199094355106353760e-01
4.245000000000000000e+03 6.610015106201171875e+01 6.037710666656494141e+00 -1.021674484945833683e-03 3.908468246459960938e+00 1.172234058380126953e+00 -1.553018689155578613e+00
4.246000000000000000e+03 6.424482727050781250e+01 6.845188617706298828e+00 1.543578505516052246e-01 3.060904026031494141e+00 9.645785689353942871e-01 -1.319714546203613281e+00
4.247000000000000000e+03 5.888337707519531250e+01 8.026670455932617188e+00 2.687816917896270752e-01 1.514524340629577637e+00 5.349918007850646973e-01 -5.746546387672424316e-01
4.248000000000000000e+03 6.287053680419921875e+01 -2.045167922973632812e+01 3.719556033611297607e-01 2.667289257049560547e+00 9.117734432220458984e-01 9.977350234985351562e-01
4.249000000000000000e+03 6.234900665283203125e+01 5.715897083282470703e+00 1.443779617547988892e-01 2.142389774322509766e+00 6.860303282737731934e-01 -1.061195611953735352e+00
4.250000000000000000e+03 3.231423950195312500e+01 6.879629611968994141e+00 -4.298348128795623779e-01 -7.880233228206634521e-02 -1.525911390781402588e-01 7.159286737442016602e-01
4.251000000000000000e+03 6.139413452148437500e+01 -2.588104820251464844e+01 6.359823346138000488e-01 2.674276113510131836e+00 9.930775165557861328e-01 6.681007146835327148e-01
4.252000000000000000e+03 3.920517730712890625e+01 8.753384590148925781e+00 -2.748309671878814697e-01 6.873754411935806274e-02 -6.182802841067314148e-02 6.703619360923767090e-01
4.253000000000000000e+03 4.934626007080078125e+01 7.705460071563720703e+00 -1.274632215499877930e-01 3.511702418327331543e-01 6.711211055517196655e-02 3.431023657321929932e-01
4.254000000000000000e+03 4.334161758422851562e+01 -2.153335571289062500e+01 7.489764690399169922e-02 1.621172018349170685e-02 2.733281068503856659e-02 -4.963713288307189941e-01
4.255000000000000000e+03 4.911204147338867188e+01 9.013261795043945312e+00 2.674994291737675667e-03 4.155272245407104492e-01 1.254606693983078003e-01 3.188633024692535400e-01
4.256000000000000000e+03 4.742652130126953125e+01 7.905672073364257812e+00 -1.600653529167175293e-01 2.833465337753295898e-01 3.698435798287391663e-02 4.426300525665283203e-01
4.257000000000000000e+03 4.837843704223632812e+01 -2.358410644531250000e+01 3.825366497039794922e-01 3.052265942096710205e-01 2.063289731740951538e-01 -2.937864363193511963e-01
4.258000000000000000e+03 3.499196624755859375e+01 1.018041038513183594e+01 -2.589257955551147461e-01 -9.516239166259765625e-03 -8.053261041641235352e-02 6.787385940551757812e-01
4.259000000000000000e+03 3.079375648498535156e+01 1.311839103698730469e+01 -2.465623021125793457e-01 -1.465314328670501709e-01 -1.179281175136566162e-01 6.171161532402038574e-01
4.260000000000000000e+03 4.369946670532226562e+01 1.170194244384765625e+01 4.658061638474464417e-02 2.825581431388854980e-01 9.874162077903747559e-02 4.836563169956207275e-01
4.261000000000000000e+03 4.010034942626953125e+01 1.134695148468017578e+01 -8.804374933242797852e-02 1.393382549285888672e-01 1.538835093379020691e-02 5.958579182624816895e-01
4.262000000000000000e+03 3.785552597045898438e+01 7.779117107391357422e+00 -3.633662760257720947e-01 2.710972540080547333e-02 -1.008769646286964417e-01 6.986321806907653809e-01
4.263000000000000000e+03 4.195144271850585938e+01 8.785074234008789062e+00 -2.210626155138015747e-01 1.361372917890548706e-01 -2.547759748995304108e-02 6.165019869804382324e-01
4.264000000000000000e+03 4.345127487182617188e+01 9.229860305786132812e+00 -1.490808427333831787e-01 1.926961988210678101e-01 1.308460906147956848e-02 5.630600452423095703e-01
4.265000000000000000e+03 5.353124237060546875e+01 -2.171093177795410156e+01 3.800406455993652344e-01 6.655650138854980469e-01 3.136817216873168945e-01 -4.865759983658790588e-02
4.266000000000000000e+03 4.893105697631835938e+01 1.051940155029296875e+01 1.294442862272262573e-01 5.030990839004516602e-01 1.897629946470260620e-01 2.703924775123596191e-01
4.267000000000000000e+03 3.294440078735351562e+01 -2.295895385742187500e+01 3.413261845707893372e-02 -1.496683061122894287e-01 -3.466070815920829773e-02 -4.989498853683471680e-01
4.268000000000000000e+03 4.454260253906250000e+01 8.818369865417480469e+00 -1.566415578126907349e-01 2.123816758394241333e-01 1.672203652560710907e-02 5.385183691978454590e-01
4.269000000000000000e+03 4.440554428100585938e+01 1.072423171997070312e+01 -4.257520777173340321e-04 2.808955311775207520e-01 8.414093405008316040e-02 4.846691191196441650e-01
4.270000000000000000e+03 5.038217544555664062e+01 -2.201069259643554688e+01 2.968426346778869629e-01 3.745828270912170410e-01 2.014276385307312012e-01 -2.431943863630294800e-01
4.271000000000000000e+03 2.972410392761230469e+01 -2.281089591979980469e+01 -5.730524193495512009e-03 -1.681487709283828735e-01 -5.216379091143608093e-02 -4.543443918228149414e-01
4.272000000000000000e+03 6.104902267456054688e+01 1.518153667449951172e+01 5.325828790664672852e-01 2.762020587921142578e+00 9.883810281753540039e-01 -7.589361071586608887e-01
4.273000000000000000e+03 5.921829986572265625e+01 9.105713844299316406e+00 3.498997986316680908e-01 1.732452750205993652e+00 6.247057914733886719e-01 -6.475187540054321289e-01
4.274000000000000000e+03 6.209684753417968750e+01 9.709787368774414062e+00 3.702861070632934570e-01 2.594977617263793945e+00 8.895791172981262207e-01 -9.756696224212646484e-01
4.275000000000000000e+03 3.680044174194335938e+01 -2.227821540832519531e+01 3.075881861150264740e-02 -1.095322966575622559e-01 -2.363204397261142731e-02 -5.196920037269592285e-01
4.276000000000000000e+03 6.432099151611328125e+01 9.006486892700195312e+00 2.629638910293579102e-01 3.330837965011596680e+00 1.078140616416931152e+00 -1.214124202728271484e+00
4.277000000000000000e+03 6.291273117065429688e+01 1.180953407287597656e+01 4.014385640621185303e-01 3.028210639953613281e+00 1.028894782066345215e+00 -9.935614466667175293e-01
4.278000000000000000e+03 6.848742675781250000e+01 -1.282745647430419922e+01 -5.063739418983459473e-01 5.312737464904785156e+00 1.441909074783325195e+00 2.713521718978881836e+00
4.279000000000000000e+03 6.939646148681640625e+01 -1.311223316192626953e+01 -8.204610943794250488e-01 6.537939548492431641e+00 1.715243458747863770e+00 2.630130052566528320e+00
4.280000000000000000e+03 6.816544342041015625e+01 -1.168336952105164528e-03 -4.637551605701446533e-01 4.920089244842529297e+00 1.336900234222412109e+00 -2.741033792495727539e+00
4.281000000000000000e+03 6.791603088378906250e+01 1.336585760116577148e+00 -4.487218856811523438e-01 4.818831443786621094e+00 1.311032891273498535e+00 -2.379312038421630859e+00
4.282000000000000000e+03 6.894445800781250000e+01 -1.311123752593994141e+01 -6.672561764717102051e-01 5.956143379211425781e+00 1.586666107177734375e+00 2.646409988403320312e+00
4.283000000000000000e+03 6.585977172851562500e+01 -1.581335449218750000e+01 -4.060194641351699829e-02 3.341432809829711914e+00 9.902492761611938477e-01 1.705316662788391113e+00
4.284000000000000000e+03 6.846793365478515625e+01 -1.412859344482421875e+01 -5.215855836868286133e-01 5.382221698760986328e+00 1.458190917968750000e+00 2.345369815826416016e+00
4.285000000000000000e+03 6.882920074462890625e+01 -1.438521385192871094e+01 -6.075832843780517578e-01 5.755731582641601562e+00 1.544444441795349121e+00 2.289518833160400391e+00
4.286000000000000000e+03 6.895373535156250000e+01 9.114806652069091797e-01 -7.050577998161315918e-01 5.963359355926513672e+00 1.577490448951721191e+00 -2.498696565628051758e+00
4.287000000000000000e+03 6.733168029785156250e+01 -1.604114151000976562e+01 -2.176229357719421387e-01 4.468829154968261719e+00 1.275361895561218262e+00 1.890382170677185059e+00
4.288000000000000000e+03 6.817712402343750000e+01 2.392872571945190430e+00 -4.845342040061950684e-01 5.081938266754150391e+00 1.379221200942993164e+00 -2.215698480606079102e+00
4.289000000000000000e+03 6.765415191650390625e+01 3.677766084671020508e+00 -3.194399178028106689e-01 4.692541122436523438e+00 1.311930418014526367e+00 -1.963183522224426270e+00
4.290000000000000000e+03 6.711988067626953125e+01 3.342228651046752930e+00 -2.635307610034942627e-01 4.257651805877685547e+00 1.198236346244812012e+00 -1.980216026306152344e+00
4.291000000000000000e+03 6.769878387451171875e+01 -1.507314872741699219e+01 -3.158580660820007324e-01 4.649691581726074219e+00 1.300150156021118164e+00 2.069784164428710938e+00
4.292000000000000000e+03 5.633245849609375000e+01 1.569684410095214844e+01 5.761638879776000977e-01 1.801374435424804688e+00 7.132614850997924805e-01 -4.157660305500030518e-01
4.293000000000000000e+03 5.817432403564453125e+01 9.676748275756835938e+00 3.690418303012847900e-01 1.580018281936645508e+00 5.847180485725402832e-01 -5.275819897651672363e-01
4.294000000000000000e+03 3.352446746826171875e+01 6.188165187835693359e+00 -4.570187330245971680e-01 -5.477861315011978149e-02 -1.535392105579376221e-01 7.180031538009643555e-01
4.295000000000000000e+03 5.567263412475585938e+01 1.028768634796142578e+01 3.406431078910827637e-01 1.204840421676635742e+00 4.636450409889221191e-01 -2.691839635372161865e-01
4.296000000000000000e+03 5.271575927734375000e+01 1.108458042144775391e+01 2.970183193683624268e-01 8.587281107902526855e-01 3.467239439487457275e-01 -1.439245417714118958e-02
4.297000000000000000e+03 5.302403259277343750e+01 9.692793846130371094e+00 2.072533071041107178e-01 7.729725241661071777e-01 2.940677404403686523e-01 3.639278700575232506e-03
4.298000000000000000e+03 4.789620971679687500e+01 8.974517822265625000e+00 -4.403550922870635986e-02 3.497298955917358398e-01 9.170831739902496338e-02 3.853047490119934082e-01
4.299000000000000000e+03 6.426605224609375000e+01 6.026014804840087891e+00 1.436411589384078979e-01 3.005887746810913086e+00 9.448586702346801758e-01 -1.354465723037719727e+00
4.300000000000000000e+03 5.977156066894531250e+01 7.542164325714111328e+00 2.603587806224822998e-01 1.656703472137451172e+00 5.751186609268188477e-01 -6.969593167304992676e-01
4.301000000000000000e+03 6.013610458374023438e+01 8.509854316711425781e+00 3.248863816261291504e-01 1.893947362899780273e+00 6.656501293182373047e-01 -7.603695392608642578e-01
4.302000000000000000e+03 6.213697052001953125e+01 6.780486106872558594e+00 2.190971374511718750e-01 2.245763540267944336e+00 7.394582033157348633e-01 -1.032393813133239746e+00
4.303000000000000000e+03 6.347057723999023438e+01 6.883944034576416016e+00 1.977161169052124023e-01 2.699104309082031250e+00 8.690461516380310059e-01 -1.207783102989196777e+00
4.304000000000000000e+03 3.173983764648437500e+01 1.556018352508544922e+01 -1.163834258913993835e-01 -1.117143854498863220e-01 -6.842934340238571167e-02 5.470593571662902832e-01
4.305000000000000000e+03 4.079401016235351562e+01 9.410733222961425781e+00 -2.005124539136886597e-01 1.194730624556541443e-01 -2.431181445717811584e-02 6.294096112251281738e-01
4.306000000000000000e+03 3.406884765625000000e+01 1.112626743316650391e+01 -2.307578474283218384e-01 -3.357631713151931763e-02 -7.930024713277816772e-02 6.684878468513488770e-01
4.307000000000000000e+03 6.051215744018554688e+01 1.319386482238769531e+01 4.976744651794433594e-01 2.489829778671264648e+00 8.962512612342834473e-01 -7.777116894721984863e-01
4.308000000000000000e+03 5.172694778442382812e+01 9.435889244079589844e+00 1.388249844312667847e-01 6.332359910011291504e-01 2.316183000802993774e-01 1.213323995471000671e-01
4.309000000000000000e+03 4.560736465454101562e+01 9.890222549438476562e+00 -3.457431122660636902e-02 3.010038733482360840e-01 7.992886751890182495e-02 4.640688300132751465e-01
4.310000000000000000e+03 4.683459472656250000e+01 8.820524215698242188e+00 -9.768933057785034180e-02 2.994419932365417480e-01 6.052579730749130249e-02 4.464266300201416016e-01
4.311000000000000000e+03 3.252514648437500000e+01 1.119476413726806641e+01 -2.646693289279937744e-01 -7.883377373218536377e-02 -1.030509322881698608e-01 6.724551916122436523e-01
4.312000000000000000e+03 6.283761978149414062e+01 9.016025543212890625e+00 3.214425742626190186e-01 2.737915992736816406e+00 9.178075790405273438e-01 -1.076279520988464355e+00
4.313000000000000000e+03 4.193243789672851562e+01 1.172520637512207031e+01 -8.864402770996093750e-03 2.133251726627349854e-01 6.133823469281196594e-02 5.410050153732299805e-01
4.314000000000000000e+03 4.128818130493164062e+01 1.058094692230224609e+01 -1.063295900821685791e-01 1.602152585983276367e-01 1.616569980978965759e-02 5.900104641914367676e-01
4.315000000000000000e+03 5.043175888061523438e+01 9.226898193359375000e+00 7.406880706548690796e-02 5.183218717575073242e-01 1.777171939611434937e-01 2.180748730897903442e-01
4.316000000000000000e+03 6.279633712768554688e+01 1.067864227294921875e+01 3.794452846050262451e-01 2.929178714752197266e+00 9.925872087478637695e-01 -1.008874058723449707e+00
4.317000000000000000e+03 6.131261825561523438e+01 1.217129230499267578e+01 4.464139342308044434e-01 2.569888353347778320e+00 9.048907160758972168e-01 -8.642108440399169922e-01
4.318000000000000000e+03 4.411486053466796875e+01 -2.402873802185058594e+01 3.126177191734313965e-01 1.045934706926345825e-01 1.251633465290069580e-01 -4.188071191310882568e-01
4.319000000000000000e+03 4.497726821899414062e+01 -2.227763748168945312e+01 1.790641993284225464e-01 9.641320258378982544e-02 8.264322578907012939e-02 -4.446423947811126709e-01
4.320000000000000000e+03 3.577837371826171875e+01 7.778519153594970703e+00 -3.766851723194122314e-01 -6.418490782380104065e-03 -1.149310916662216187e-01 7.138108015060424805e-01
4.321000000000000000e+03 3.678126525878906250e+01 7.865189075469970703e+00 -3.670419752597808838e-01 1.094109006226062775e-02 -1.068302616477012634e-01 7.070455551147460938e-01
4.322000000000000000e+03 3.316440582275390625e+01 6.947823047637939453e+00 -4.269324541091918945e-01 -6.403987854719161987e-02 -1.472917050123214722e-01 7.192832231521606445e-01
4.323000000000000000e+03 3.285071945190429688e+01 9.452727317810058594e+00 -3.444350063800811768e-01 -7.643291354179382324e-02 -1.262603849172592163e-01 6.997627615928649902e-01
4.324000000000000000e+03 3.238200759887695312e+01 1.345431518554687500e+01 -1.838307380676269531e-01 -8.569784462451934814e-02 -8.085857331752777100e-02 6.112138628959655762e-01
4.325000000000000000e+03 5.196973419189453125e+01 -2.196055221557617188e+01 3.465734124183654785e-01 5.066165924072265625e-01 2.559570074081420898e-01 -1.507051736116409302e-01
4.326000000000000000e+03 5.735704040527343750e+01 -2.808848571777343750e+01 8.015825152397155762e-01 1.773499011993408203e+00 7.725244760513305664e-01 3.037866652011871338e-01
4.327000000000000000e+03 4.295064544677734375e+01 1.084425640106201172e+01 -3.960327431559562683e-02 2.231215834617614746e-01 5.505549162626266479e-02 5.346287488937377930e-01
4.328000000000000000e+03 3.063683319091796875e+01 1.718830299377441406e+01 -6.128790602087974548e-02 -1.590714007616043091e-01 -6.610779464244842529e-02 4.984002113342285156e-01
4.329000000000000000e+03 5.698764419555664062e+01 1.019948577880859375e+01 3.673274517059326172e-01 1.403513789176940918e+00 5.312523841857910156e-01 -3.985392451286315918e-01
4.330000000000000000e+03 3.965366744995117188e+01 -2.611865806579589844e+01 3.713218569755554199e-01 -4.127277061343193054e-02 9.901472181081771851e-02 -4.367042183876037598e-01
4.331000000000000000e+03 3.945946121215820312e+01 -2.297413825988769531e+01 1.338670849800109863e-01 -6.218305230140686035e-02 2.150520868599414825e-02 -5.117455124855041504e-01
4.332000000000000000e+03 5.722959899902343750e+01 -2.215492057800292969e+01 5.061378479003906250e-01 1.272836804389953613e+00 5.336923599243164062e-01 3.002060055732727051e-01
4.333000000000000000e+03 3.492381286621093750e+01 -2.286433601379394531e+01 3.793558850884437561e-02 -1.343199461698532104e-01 -2.891530655324459076e-02 -5.089967250823974609e-01
4.334000000000000000e+03 6.211213302612304688e+01 -2.898973655700683594e+01 6.828377246856689453e-01 3.112879753112792969e+00 1.138715267181396484e+00 6.140293478965759277e-01
4.335000000000000000e+03 6.212868118286132812e+01 -2.404062080383300781e+01 5.485902428627014160e-01 2.735528945922851562e+00 9.852358102798461914e-01 7.865494489669799805e-01
4.336000000000000000e+03 6.983911895751953125e+01 -1.280179977416992188e+01 -1.004914522171020508e+00 7.269772529602050781e+00 1.879457473754882812e+00 2.672780990600585938e+00
4.337000000000000000e+03 6.759619903564453125e+01 -1.370123863220214844e+01 -3.104402720928192139e-01 4.360211372375488281e+00 1.214931368827819824e+00 2.335744142532348633e+00
4.338000000000000000e+03 6.740488433837890625e+01 -1.430238914489746094e+01 -2.787095308303833008e-01 4.299958229064941406e+00 1.206374645233154297e+00 2.186649799346923828e+00
4.339000000000000000e+03 6.722609710693359375e+01 -1.493948078155517578e+01 -2.441478967666625977e-01 4.237675666809082031e+00 1.198058247566223145e+00 2.044520378112792969e+00
4.340000000000000000e+03 6.874315643310546875e+01 -1.362837600708007812e+01 -6.111390590667724609e-01 5.713948726654052734e+00 1.530842900276184082e+00 2.501534700393676758e+00
4.341000000000000000e+03 6.869306945800781250e+01 3.251017630100250244e-01 -6.223376393318176270e-01 5.536071777343750000e+00 1.474120259284973145e+00 -2.695125102996826172e+00
4.342000000000000000e+03 6.784873199462890625e+01 -1.447558975219726562e+01 -3.625070154666900635e-01 4.724984169006347656e+00 1.308743119239807129e+00 2.204310655593872070e+00
4.343000000000000000e+03 6.813276672363281250e+01 -1.518239116668701172e+01 -3.903002142906188965e-01 5.080328464508056641e+00 1.407008409500122070e+00 2.085418224334716797e+00
4.344000000000000000e+03 6.694934844970703125e+01 -1.550718402862548828e+01 -1.925542056560516357e-01 4.127228736877441406e+00 1.180402398109436035e+00 1.933397054672241211e+00
4.345000000000000000e+03 6.783931732177734375e+01 -1.561866950988769531e+01 -3.234594464302062988e-01 4.808593750000000000e+00 1.345540285110473633e+00 2.009004831314086914e+00
4.346000000000000000e+03 6.065121459960937500e+01 9.484351158142089844e+00 3.734825551509857178e-01 2.149064064025878906e+00 7.567639946937561035e-01 -8.237277269363403320e-01
4.347000000000000000e+03 6.045493698120117188e+01 1.124182319641113281e+01 4.285513460636138916e-01 2.279854059219360352e+00 8.125216364860534668e-01 -7.930078506469726562e-01
4.348000000000000000e+03 5.644365692138671875e+01 1.295120143890380859e+01 4.842039942741394043e-01 1.582404017448425293e+00 6.199824213981628418e-01 -3.937705159187316895e-01
4.349000000000000000e+03 6.145277786254882812e+01 8.817592620849609375e+00 3.337131738662719727e-01 2.303217887878417969e+00 7.910793423652648926e-01 -9.142857789993286133e-01
4.350000000000000000e+03 5.757005310058593750e+01 1.180818367004394531e+01 4.556034803390502930e-01 1.672288417816162109e+00 6.383675336837768555e-01 -4.863058328628540039e-01
4.351000000000000000e+03 4.526678848266601562e+01 1.112652492523193359e+01 5.258101224899291992e-02 3.328220248222351074e-01 1.156209111213684082e-01 4.429557621479034424e-01
4.352000000000000000e+03 5.527096176147460938e+01 1.189523410797119141e+01 4.216803014278411865e-01 1.290448069572448730e+00 5.136384963989257812e-01 -2.676014304161071777e-01
4.353000000000000000e+03 5.144631576538085938e+01 1.089121150970458984e+01 2.417802810668945312e-01 7.189198136329650879e-01 2.882100343704223633e-01 8.835014700889587402e-02
4.354000000000000000e+03 3.483088684082031250e+01 7.587530612945556641e+00 -3.946598768234252930e-01 -2.915371209383010864e-02 -1.271440684795379639e-01 7.176874876022338867e-01
4.355000000000000000e+03 3.402252960205078125e+01 9.802071571350097656e+00 -3.124777972698211670e-01 -4.150325059890747070e-02 -1.061943098902702332e-01 6.907266378402709961e-01
4.356000000000000000e+03 4.275699234008789062e+01 1.279565429687500000e+01 8.894037455320358276e-02 2.798362672328948975e-01 1.106329932808876038e-01 4.788839817047119141e-01
4.357000000000000000e+03 5.017800521850585938e+01 1.070991230010986328e+01 1.861619055271148682e-01 5.996602773666381836e-01 2.357466518878936768e-01 1.858417540788650513e-01
4.358000000000000000e+03 4.878992843627929688e+01 -2.179750633239746094e+01 2.281348854303359985e-01 2.545108199119567871e-01 1.447937190532684326e-01 -3.311678469181060791e-01
4.359000000000000000e+03 5.013195800781250000e+01 -2.583197975158691406e+01 6.118931770324707031e-01 5.566606521606445312e-01 3.505661487579345703e-01 -1.482403129339218140e-01
4.360000000000000000e+03 3.704983520507812500e+01 1.155604648590087891e+01 -1.629585176706314087e-01 4.567630589008331299e-02 -3.518466651439666748e-02 6.437275409698486328e-01
4.361000000000000000e+03 3.348622894287109375e+01 8.298646926879882812e+00 -3.743624985218048096e-01 -6.153346970677375793e-02 -1.307687908411026001e-01 7.145740389823913574e-01
4.362000000000000000e+03 5.022263717651367188e+01 -2.378685379028320312e+01 4.585344493389129639e-01 4.590849280357360840e-01 2.752858102321624756e-01 -1.997076421976089478e-01
4.363000000000000000e+03 5.872811126708984375e+01 1.097942256927490234e+01 4.294804334640502930e-01 1.833211541175842285e+00 6.788076162338256836e-01 -6.077024936676025391e-01
4.364000000000000000e+03 6.201566696166992188e+01 1.127414417266845703e+01 4.117510318756103516e-01 2.674045324325561523e+00 9.257389307022094727e-01 -9.236739873886108398e-01
4.365000000000000000e+03 3.181397438049316406e+01 1.873540687561035156e+01 5.183099582791328430e-02 -1.024103686213493347e-01 -1.517381146550178528e-02 4.514427781105041504e-01
4.366000000000000000e+03 2.785605239868164062e+01 1.924947357177734375e+01 -5.428346619009971619e-02 -3.188461959362030029e-01 -1.119388937950134277e-01 4.043920338153839111e-01
4.367000000000000000e+03 4.068560409545898438e+01 -2.423829078674316406e+01 2.703345119953155518e-01 -1.552118454128503799e-02 7.644400000572204590e-02 -4.760637581348419189e-01
4.368000000000000000e+03 2.631089591979980469e+01 -2.565905189514160156e+01 1.020577326416969299e-01 -2.208220213651657104e-01 -3.562928736209869385e-02 -3.791834712028503418e-01
4.369000000000000000e+03 3.547911071777343750e+01 8.978487014770507812e+00 -3.194539844989776611e-01 -6.867424119263887405e-03 -9.789642691612243652e-02 6.970537304878234863e-01
4.370000000000000000e+03 3.661235427856445312e+01 9.281252861022949219e+00 -2.808341383934020996e-01 1.764353923499584198e-02 -7.895717769861221313e-02 6.858996152877807617e-01
4.371000000000000000e+03 6.400654602050781250e+01 -2.976434516906738281e+01 6.218571662902832031e-01 3.624268531799316406e+00 1.273837685585021973e+00 6.874207854270935059e-01
4.372000000000000000e+03 5.844857025146484375e+01 -2.365427207946777344e+01 6.019955277442932129e-01 1.685690283775329590e+00 6.863057613372802734e-01 4.208037257194519043e-01
4.373000000000000000e+03 5.559407424926757812e+01 -2.298982620239257812e+01 5.393102169036865234e-01 1.071523904800415039e+00 4.832502305507659912e-01 1.614297181367874146e-01
4.374000000000000000e+03 5.855932235717773438e+01 1.320711326599121094e+01 5.096073746681213379e-01 2.024868488311767578e+00 7.603427171707153320e-01 -5.874730944633483887e-01
4.375000000000000000e+03 6.129835128784179688e+01 1.041622161865234375e+01 4.105306267738342285e-01 2.424601554870605469e+00 8.505396842956542969e-01 -8.829089403152465820e-01
4.376000000000000000e+03 4.462808227539062500e+01 1.240492820739746094e+01 1.256851255893707275e-01 3.542729318141937256e-01 1.439874172210693359e-01 4.255469143390655518e-01
4.377000000000000000e+03 5.245242691040039062e+01 1.252820014953613281e+01 3.822165727615356445e-01 9.462789893150329590e-01 3.985486626625061035e-01 -3.979805111885070801e-02
4.378000000000000000e+03 5.953780746459960938e+01 1.216877555847167969e+01 4.658743441104888916e-01 2.148289680480957031e+00 7.842492461204528809e-01 -6.852562427520751953e-01
4.379000000000000000e+03 3.790077590942382812e+01 9.210511207580566406e+00 -2.657015621662139893e-01 4.075941815972328186e-02 -6.748264282941818237e-02 6.787738800048828125e-01
4.380000000000000000e+03 3.759763717651367188e+01 1.275459766387939453e+01 -7.481714338064193726e-02 8.200665563344955444e-02 2.156853210180997849e-03 5.973814725875854492e-01
4.381000000000000000e+03 3.957551956176757812e+01 1.005090332031250000e+01 -1.856145411729812622e-01 9.792623668909072876e-02 -2.630648948252201080e-02 6.393954157829284668e-01
4.382000000000000000e+03 4.627729034423828125e+01 1.151737689971923828e+01 1.171465739607810974e-01 3.996595442295074463e-01 1.550418436527252197e-01 3.832926154136657715e-01
4.383000000000000000e+03 5.988666915893554688e+01 1.879450416564941406e+01 5.686727166175842285e-01 2.740921258926391602e+00 9.928781986236572266e-01 -6.381956338882446289e-01
4.384000000000000000e+03 5.966301345825195312e+01 1.720615768432617188e+01 5.609385371208190918e-01 2.571975469589233398e+00 9.398741722106933594e-01 -6.376325488090515137e-01
4.385000000000000000e+03 3.620501708984375000e+01 1.483067989349365234e+01 -4.240107722580432892e-03 5.154929682612419128e-02 1.419275719672441483e-02 5.543509721755981445e-01
4.386000000000000000e+03 3.429492187500000000e+01 1.437479114532470703e+01 -8.240879327058792114e-02 -1.064671296626329422e-02 -2.791665121912956238e-02 5.807160139083862305e-01
4.387000000000000000e+03 4.990486907958984375e+01 1.232188320159912109e+01 2.903236448764801025e-01 6.878613829612731934e-01 2.934555113315582275e-01 1.487539857625961304e-01
4.388000000000000000e+03 4.862570953369140625e+01 1.212681770324707031e+01 2.366097867488861084e-01 5.800091028213500977e-01 2.449856698513031006e-01 2.350250929594039917e-01
4.389000000000000000e+03 5.408142089843750000e+01 -2.524506759643554688e+01 6.592943668365478516e-01 9.833467006683349609e-01 4.927923083305358887e-01 8.070576190948486328e-02
4.390000000000000000e+03 5.887639999389648438e+01 -2.989323616027832031e+01 8.159950971603393555e-01 2.279211282730102539e+00 9.285619258880615234e-01 3.607488870620727539e-01
4.391000000000000000e+03 4.233727645874023438e+01 -2.696638488769531250e+01 4.986290037631988525e-01 7.814332097768783569e-02 1.730316877365112305e-01 -3.806893229484558105e-01
4.392000000000000000e+03 4.774128341674804688e+01 1.035016345977783203e+01 7.551141828298568726e-02 4.166920185089111328e-01 1.476610302925109863e-01 3.458530008792877197e-01
4.393000000000000000e+03 3.603026580810546875e+01 1.078608703613281250e+01 -2.130543440580368042e-01 1.092405244708061218e-02 -6.063908711075782776e-02 6.681563258171081543e-01
4.394000000000000000e+03 5.119825363159179688e+01 1.245291805267333984e+01 3.410618007183074951e-01 8.139285445213317871e-01 3.464970886707305908e-01 5.526865646243095398e-02
4.395000000000000000e+03 4.076591491699218750e+01 1.265895366668701172e+01 1.893522217869758606e-02 1.917974352836608887e-01 6.321980059146881104e-02 5.426613688468933105e-01
4.396000000000000000e+03 4.962169647216796875e+01 1.409941387176513672e+01 3.860498666763305664e-01 7.833757400512695312e-01 3.508276939392089844e-01 1.099126935005187988e-01
4.397000000000000000e+03 5.104736328125000000e+01 1.417044067382812500e+01 4.281768500804901123e-01 9.219660758972167969e-01 4.050428867340087891e-01 1.506213564425706863e-02
4.398000000000000000e+03 3.679307174682617188e+01 1.706664085388183594e+01 1.048207357525825500e-01 9.528980404138565063e-02 6.003316119313240051e-02 4.765388965606689453e-01
4.399000000000000000e+03 3.503418731689453125e+01 1.229802799224853516e+01 -1.625378578901290894e-01 -2.665905514732003212e-03 -4.956112802028656006e-02 6.349282860755920410e-01
4.400000000000000000e+03 5.745829391479492188e+01 1.708205223083496094e+01 5.859874486923217773e-01 2.103978872299194336e+00 8.069898486137390137e-01 -4.821016192436218262e-01
4.401000000000000000e+03 5.360762786865234375e+01 1.385418415069580078e+01 4.768403768539428711e-01 1.209539532661437988e+00 5.059139728546142578e-01 -1.691980361938476562e-01
4.402000000000000000e+03 3.261640167236328125e+01 2.085752487182617188e+01 1.661650985479354858e-01 -5.565781518816947937e-02 3.315218538045883179e-02 3.878864347934722900e-01
4.403000000000000000e+03 5.740286254882812500e+01 -2.518866157531738281e+01 6.818593144416809082e-01 1.572245240211486816e+00 6.762313246726989746e-01 3.330576121807098389e-01
4.404000000000000000e+03 5.218177032470703125e+01 -2.565253829956054688e+01 6.446084380149841309e-01 7.722879648208618164e-01 4.250689148902893066e-01 -4.110324755311012268e-02
4.405000000000000000e+03 3.884797286987304688e+01 1.209479999542236328e+01 -7.279760390520095825e-02 1.141314953565597534e-01 1.240016706287860870e-02 5.980814695358276367e-01
4.406000000000000000e+03 3.825703430175781250e+01 1.068393707275390625e+01 -1.790030449628829956e-01 6.864815205335617065e-02 -3.310646489262580872e-02 6.476435065269470215e-01
4.407000000000000000e+03 4.569677734375000000e+01 1.298687076568603516e+01 1.959346532821655273e-01 4.361332058906555176e-01 1.896203607320785522e-01 3.621251583099365234e-01
4.408000000000000000e+03 4.489299774169921875e+01 1.452184677124023438e+01 2.578169107437133789e-01 4.521083235740661621e-01 2.129775732755661011e-01 3.472591936588287354e-01
4.409000000000000000e+03 4.161176681518554688e+01 1.393847179412841797e+01 1.200543642044067383e-01 2.648566663265228271e-01 1.154733151197433472e-01 4.830390512943267822e-01
4.410000000000000000e+03 5.359795761108398438e+01 1.264486503601074219e+01 4.231064021587371826e-01 1.099191308021545410e+00 4.566892981529235840e-01 -1.335656493902206421e-01
4.411000000000000000e+03 5.537589645385742188e+01 1.426818466186523438e+01 5.151035189628601074e-01 1.512239336967468262e+00 6.082028150558471680e-01 -3.054341971874237061e-01
4.412000000000000000e+03 4.821672439575195312e+01 1.387178802490234375e+01 3.302965462207794189e-01 6.486917734146118164e-01 2.936964929103851318e-01 2.006375044584274292e-01
4.413000000000000000e+03 5.411745071411132812e+01 1.527733421325683594e+01 5.339177250862121582e-01 1.379166722297668457e+00 5.739253163337707520e-01 -2.252862602472305298e-01
4.414000000000000000e+03 5.240288162231445312e+01 1.409240055084228516e+01 4.602670371532440186e-01 1.075823426246643066e+00 4.608271420001983643e-01 -8.190019428730010986e-02
4.415000000000000000e+03 3.636486434936523438e+01 1.289285659790039062e+01 -1.087283045053482056e-01 3.778577968478202820e-02 -2.128275670111179352e-02 6.087405085563659668e-01
4.416000000000000000e+03 3.795711517333984375e+01 1.435780715942382812e+01 3.127897530794143677e-02 1.161451563239097595e-01 4.422723874449729919e-02 5.468185544013977051e-01
4.417000000000000000e+03 5.789770507812500000e+01 1.977671432495117188e+01 6.125000119209289551e-01 2.366877794265747070e+00 8.938133716583251953e-01 -4.799857139587402344e-01
4.418000000000000000e+03 5.491497421264648438e+01 1.706423759460449219e+01 5.907450318336486816e-01 1.649357795715332031e+00 6.720308661460876465e-01 -3.054806292057037354e-01
4.419000000000000000e+03 5.102728652954101562e+01 1.608877754211425781e+01 5.034015178680419922e-01 1.063177585601806641e+00 4.699737429618835449e-01 -3.408180177211761475e-02
4.420000000000000000e+03 2.636229705810546875e+01 1.977488327026367188e+01 -6.799844652414321899e-02 -4.023711681365966797e-01 -1.411108821630477905e-01 3.807027637958526611e-01
4.421000000000000000e+03 5.751148986816406250e+01 1.438456726074218750e+01 5.456992387771606445e-01 1.913961768150329590e+00 7.378982901573181152e-01 -5.058773756027221680e-01
4.422000000000000000e+03 4.387054061889648438e+01 1.611464118957519531e+01 3.029037714004516602e-01 4.494689106941223145e-01 2.257118076086044312e-01 3.320516943931579590e-01
4.423000000000000000e+03 4.131278228759765625e+01 1.652873039245605469e+01 2.429993897676467896e-01 3.246050179004669189e-01 1.702813208103179932e-01 4.120515882968902588e-01
4.424000000000000000e+03 4.933157730102539062e+01 1.606379318237304688e+01 4.605377018451690674e-01 8.704831600189208984e-01 3.993062376976013184e-01 7.327554374933242798e-02
4.425000000000000000e+03 4.689866638183593750e+01 1.348558521270751953e+01 2.653763294219970703e-01 5.366656780242919922e-01 2.406125962734222412e-01 2.854100763797760010e-01
4.426000000000000000e+03 5.120854187011718750e+01 2.039730453491210938e+01 6.104012727737426758e-01 1.316704869270324707e+00 5.781318545341491699e-01 -1.186114028096199036e-01
4.427000000000000000e+03 4.740583801269531250e+01 1.186176204681396484e+01 1.797248423099517822e-01 4.796744585037231445e-01 1.978197842836380005e-01 3.119049966335296631e-01
4.428000000000000000e+03 3.945260238647460938e+01 1.357310199737548828e+01 3.275572881102561951e-02 1.629689335823059082e-01 5.871739983558654785e-02 5.448313355445861816e-01
4.429000000000000000e+03 5.623951721191406250e+01 1.866092491149902344e+01 6.113342046737670898e-01 1.955528974533081055e+00 7.700589895248413086e-01 -3.919559121131896973e-01
4.430000000000000000e+03 5.312002563476562500e+01 1.792824172973632812e+01 5.903940200805664062e-01 1.442959547042846680e+00 6.100060939788818359e-01 -2.036622315645217896e-01
4.431000000000000000e+03 4.769309997558593750e+01 1.575429439544677734e+01 4.053882658481597900e-01 7.154773473739624023e-01 3.362596631050109863e-01 1.708817332983016968e-01
4.432000000000000000e+03 4.902534103393554688e+01 1.821675872802734375e+01 5.209460258483886719e-01 9.675492644309997559e-01 4.465485811233520508e-01 3.485798463225364685e-02
4.433000000000000000e+03 3.865196990966796875e+01 1.615163230895996094e+01 1.349831223487854004e-01 1.761676222085952759e-01 9.334522485733032227e-02 4.835520386695861816e-01
4.434000000000000000e+03 5.333270645141601562e+01 2.027679443359375000e+01 6.257188916206359863e-01 1.602405071258544922e+00 6.684371829032897949e-01 -2.332422286272048950e-01
4.435000000000000000e+03 3.972235488891601562e+01 1.794734764099121094e+01 2.454752326011657715e-01 2.614137828350067139e-01 1.520667076110839844e-01 3.989416956901550293e-01
4.436000000000000000e+03 4.419817352294921875e+01 1.879595947265625000e+01 4.205825328826904297e-01 5.659332275390625000e-01 2.959547340869903564e-01 2.427819222211837769e-01
4.437000000000000000e+03 4.264830017089843750e+01 1.510614395141601562e+01 2.134530693292617798e-01 3.541258871555328369e-01 1.702736914157867432e-01 4.088592827320098877e-01
4.438000000000000000e+03 4.595233154296875000e+01 1.958827972412109375e+01 4.878089129924774170e-01 7.532718777656555176e-01 3.723242282867431641e-01 1.567300558090209961e-01
4.439000000000000000e+03 4.620587158203125000e+01 1.520383453369140625e+01 3.342101275920867920e-01 5.729708671569824219e-01 2.721543014049530029e-01 2.666797637939453125e-01
4.440000000000000000e+03 3.793017578125000000e+01 1.921343040466308594e+01 2.582029104232788086e-01 1.912387609481811523e-01 1.348325014114379883e-01 3.894186019897460938e-01
4.441000000000000000e+03 4.531199645996093750e+01 1.697681999206542969e+01 3.796507120132446289e-01 5.768530368804931641e-01 2.869511246681213379e-01 2.554892003536224365e-01
4.442000000000000000e+03 4.902902221679687500e+01 2.049517631530761719e+01 5.808300375938415527e-01 1.086265325546264648e+00 5.001285672187805176e-01 -6.797359324991703033e-03
4.443000000000000000e+03 4.261919784545898438e+01 1.780027770996093750e+01 3.364148139953613281e-01 4.484464824199676514e-01 2.354583889245986938e-01 3.262550234794616699e-01
4.444000000000000000e+03 4.702446365356445312e+01 1.778064918518066406e+01 4.585691690444946289e-01 7.618446946144104004e-01 3.661241531372070312e-01 1.500216573476791382e-01
4.445000000000000000e+03 3.684366226196289062e+01 2.261579513549804688e+01 3.575074076652526855e-01 1.828470677137374878e-01 1.621063351631164551e-01 3.082101941108703613e-01
4.446000000000000000e+03 3.436439514160156250e+01 2.070046234130859375e+01 1.910214424133300781e-01 9.106460493057966232e-04 5.757962912321090698e-02 3.853745162487030029e-01
4.447000000000000000e+03 4.109205245971679688e+01 1.967864418029785156e+01 3.726972043514251709e-01 3.921152651309967041e-01 2.294437438249588013e-01 3.127604722976684570e-01
4.448000000000000000e+03 3.909733581542968750e+01 2.135097503662109375e+01 3.780334889888763428e-01 3.016356527805328369e-01 2.039007395505905151e-01 3.094737529754638672e-01
4.449000000000000000e+03 5.537244796752929688e+01 2.063558578491210938e+01 6.350421309471130371e-01 1.922738552093505859e+00 7.673342227935791016e-01 -3.371127545833587646e-01
4.450000000000000000e+03 6.084788131713867188e+01 -2.216709899902343750e+01 5.200094580650329590e-01 2.211002588272094727e+00 8.193035721778869629e-01 7.066851258277893066e-01
4.451000000000000000e+03 9.895513534545898438e+00 3.763246154785156250e+01 1.780334413051605225e-01 -6.727001667022705078e-01 -1.484000235795974731e-01 1.425581425428390503e-01
4.452000000000000000e+03 1.373160266876220703e+01 3.753662490844726562e+01 2.895020544528961182e-01 -6.772664785385131836e-01 -1.163293197751045227e-01 1.412985473871231079e-01
4.453000000000000000e+03 6.731278228759765625e+01 -3.469844055175781250e+01 4.916302859783172607e-01 4.554661273956298828e+00 1.513887524604797363e+00 4.433853626251220703e-01
4.454000000000000000e+03 6.790908050537109375e+01 -3.153758239746093750e+01 4.428060948848724365e-01 4.846201419830322266e+00 1.586702227592468262e+00 6.229665875434875488e-01
4.455000000000000000e+03 5.863830184936523438e+01 1.822645187377929688e+01 5.789469480514526367e-01 2.398520946502685547e+00 8.932403326034545898e-01 -5.539771914482116699e-01
4.456000000000000000e+03 5.954836273193359375e+01 2.057790756225585938e+01 5.863990783691406250e-01 2.774513006210327148e+00 1.008273601531982422e+00 -5.827473998069763184e-01
4.457000000000000000e+03 5.130594635009765625e+01 2.276500892639160156e+01 6.447837948799133301e-01 1.456954360008239746e+00 6.305214166641235352e-01 -1.436805725097656250e-01
4.458000000000000000e+03 4.578538131713867188e+01 -2.511314392089843750e+01 4.486186802387237549e-01 1.993074864149093628e-01 1.943778544664382935e-01 -3.465055525302886963e-01
4.459000000000000000e+03 2.128650474548339844e+01 -2.752767562866210938e+01 1.057912185788154602e-01 -2.690539658069610596e-01 -4.897882789373397827e-02 -2.951959967613220215e-01
4.460000000000000000e+03 2.621626091003417969e+01 -2.344416999816894531e+01 -9.217093698680400848e-03 -1.856411397457122803e-01 -5.845747143030166626e-02 -4.077174663543701172e-01
4.461000000000000000e+03 4.300994110107421875e+01 2.095582771301269531e+01 4.763609468936920166e-01 5.612721443176269531e-01 3.112899363040924072e-01 2.223770320415496826e-01
4.462000000000000000e+03 3.246747970581054688e+01 -2.805367279052734375e+01 3.108728528022766113e-01 -1.945416033267974854e-01 3.489937633275985718e-02 -3.977633118629455566e-01
4.463000000000000000e+03 4.701013565063476562e+01 2.093463134765625000e+01 5.619459748268127441e-01 9.149666428565979004e-01 4.430737793445587158e-01 7.251924276351928711e-02
4.464000000000000000e+03 2.943212699890136719e+01 2.320659446716308594e+01 1.718983501195907593e-01 -2.550478279590606689e-01 -2.494483813643455505e-02 3.107936382293701172e-01
4.465000000000000000e+03 2.853795623779296875e+01 2.109922981262207031e+01 5.781212821602821350e-02 -2.934630811214447021e-01 -7.069528847932815552e-02 3.550917506217956543e-01
4.466000000000000000e+03 6.287948989868164062e+01 2.110295486450195312e+01 5.111367106437683105e-01 3.488620042800903320e+00 1.199926972389221191e+00 -7.071735858917236328e-01
4.467000000000000000e+03 7.143067932128906250e+01 -3.801185226440429688e+01 2.866914868354797363e-01 5.796157360076904297e+00 1.824854731559753418e+00 2.552817761898040771e-01
4.468000000000000000e+03 6.899976348876953125e+01 -3.315541076660156250e+01 3.814899027347564697e-01 5.129582405090332031e+00 1.653321623802185059e+00 5.052712559700012207e-01
4.469000000000000000e+03 5.879173278808593750e+01 -2.651104354858398438e+01 7.196276187896728516e-01 2.038275957107543945e+00 8.273711204528808594e-01 4.375980198383331299e-01
4.470000000000000000e+03 3.567098236083984375e+01 -2.805066871643066406e+01 3.920193016529083252e-01 -1.326259076595306396e-01 7.781801372766494751e-02 -4.112921655178070068e-01
4.471000000000000000e+03 2.570290565490722656e+01 2.760715103149414062e+01 3.209878802299499512e-01 -4.469180405139923096e-01 -3.777904435992240906e-02 2.290934175252914429e-01
4.472000000000000000e+03 2.337567520141601562e+01 2.186440277099609375e+01 -1.284662634134292603e-02 -5.746430754661560059e-01 -1.762469112873077393e-01 3.166444897651672363e-01
4.473000000000000000e+03 5.968240356445312500e+01 -2.260994338989257812e+01 5.341087579727172852e-01 1.842611670494079590e+00 7.130161523818969727e-01 5.620834827423095703e-01
4.474000000000000000e+03 7.387343406677246094e+00 3.673559570312500000e+01 1.176179274916648865e-01 -6.575449705123901367e-01 -1.619781106710433960e-01 1.496585607528686523e-01
4.475000000000000000e+03 5.547418975830078125e+01 -2.940484809875488281e+01 8.513508439064025879e-01 1.513709306716918945e+00 7.095180749893188477e-01 1.954313069581985474e-01
4.476000000000000000e+03 5.690668487548828125e+01 -3.180336189270019531e+01 8.868743777275085449e-01 1.881134867668151855e+00 8.304027915000915527e-01 2.336060255765914917e-01
4.477000000000000000e+03 6.347790527343750000e+01 -3.275761795043945312e+01 6.707765460014343262e-01 3.606430053710937500e+00 1.283161997795104980e+00 5.093538165092468262e-01
4.478000000000000000e+03 4.660354232788085938e+01 -2.305819702148437500e+01 2.858878970146179199e-01 1.818981617689132690e-01 1.403358131647109985e-01 -3.761170208454132080e-01
4.479000000000000000e+03 1.102264022827148438e+01 -3.444868850708007812e+01 1.075769811868667603e-01 -3.410897254943847656e-01 -7.005382329225540161e-02 -1.439512223005294800e-01
4.480000000000000000e+03 1.719270515441894531e+01 -2.634228134155273438e+01 4.059445112943649292e-02 -2.864980399608612061e-01 -7.377108186483383179e-02 -2.569549083709716797e-01
4.481000000000000000e+03 1.459492397308349609e+01 -2.753240203857421875e+01 5.820759385824203491e-02 -3.070492446422576904e-01 -7.465249300003051758e-02 -2.328235208988189697e-01
4.482000000000000000e+03 1.507081985473632812e+01 -3.078588867187500000e+01 1.233189627528190613e-01 -3.258303403854370117e-01 -6.075341627001762390e-02 -2.063104659318923950e-01
4.483000000000000000e+03 7.512886047363281250e+01 -3.771548080444335938e+01 5.450486764311790466e-02 6.850730895996093750e+00 2.071570634841918945e+00 7.841773331165313721e-02
4.484000000000000000e+03 1.350575542449951172e+01 2.685995101928710938e+01 1.147745847702026367e-01 -7.593137025833129883e-01 -1.933617442846298218e-01 4.011960625648498535e-01
4.485000000000000000e+03 1.448987483978271484e+01 3.074310111999511719e+01 2.368592917919158936e-01 -7.259980440139770508e-01 -1.467416286468505859e-01 3.046196997165679932e-01
4.486000000000000000e+03 1.435815811157226562e+01 2.804407501220703125e+01 1.745205968618392944e-01 -7.624208331108093262e-01 -1.763700842857360840e-01 3.628863692283630371e-01
4.487000000000000000e+03 2.618292617797851562e+01 -2.146007537841796875e+01 -1.061246544122695923e-01 -1.565702259540557861e-01 -7.880846410989761353e-02 -4.133854806423187256e-01
4.488000000000000000e+03 8.128462791442871094e+00 -4.094449615478515625e+01 6.947463005781173706e-02 -3.696827292442321777e-01 -9.006243199110031128e-02 -2.361587993800640106e-02
4.489000000000000000e+03 1.331299591064453125e+01 -3.286224365234375000e+01 1.215281113982200623e-01 -3.355664014816284180e-01 -6.421148777008056641e-02 -1.742568016052246094e-01
4.490000000000000000e+03 1.259746742248535156e+01 3.200015640258789062e+01 2.209205180406570435e-01 -6.986388564109802246e-01 -1.433155089616775513e-01 2.962064743041992188e-01
4.491000000000000000e+03 4.513781356811523438e+01 2.136551475524902344e+01 5.254027247428894043e-01 7.462206482887268066e-01 3.814870119094848633e-01 1.531406939029693604e-01
4.492000000000000000e+03 2.052021598815917969e+01 2.779543304443359375e+01 2.576512396335601807e-01 -6.742250919342041016e-01 -1.249721497297286987e-01 2.637210190296173096e-01
4.493000000000000000e+03 6.012340927124023438e+01 3.205960083007812500e+01 5.341693758964538574e-01 3.214741706848144531e+00 1.124673366546630859e+00 -3.250873088836669922e-01
4.494000000000000000e+03 3.874037551879882812e+01 -2.870852088928222656e+01 5.021287798881530762e-01 -4.962199926376342773e-02 1.357520371675491333e-01 -3.863198459148406982e-01
4.495000000000000000e+03 4.768358230590820312e+01 -2.810962295532226562e+01 6.948214173316955566e-01 4.459103941917419434e-01 3.422195315361022949e-01 -2.048823982477188110e-01
4.496000000000000000e+03 8.371704101562500000e+00 4.081127929687500000e+01 1.376867294311523438e-01 -6.786450743675231934e-01 -1.622875034809112549e-01 4.950844123959541321e-02
4.497000000000000000e+03 1.229693603515625000e+01 -3.726250839233398438e+01 1.430530995130538940e-01 -3.529206216335296631e-01 -6.296025216579437256e-02 -9.984504431486129761e-02
4.498000000000000000e+03 2.257460212707519531e+01 -3.726679992675781250e+01 3.566193878650665283e-01 -3.371876776218414307e-01 5.829507019370794296e-03 -1.238691508769989014e-01
4.499000000000000000e+03 3.488596343994140625e+01 -3.825648117065429688e+01 7.081523537635803223e-01 -1.464131176471710205e-01 1.685217618942260742e-01 -1.139397472143173218e-01
4.500000000000000000e+03 4.349715423583984375e+01 -3.700970840454101562e+01 9.055198431015014648e-01 2.874664962291717529e-01 3.578959107398986816e-01 -1.151681914925575256e-01
4.501000000000000000e+03 5.911883163452148438e+01 -3.447448730468750000e+01 8.701155185699462891e-01 2.524882555007934570e+00 1.018499374389648438e+00 2.589864134788513184e-01
4.502000000000000000e+03 5.593803405761718750e+01 -3.651449966430664062e+01 9.518727660179138184e-01 1.965154886245727539e+00 8.751083016395568848e-01 1.327915489673614502e-01
4.503000000000000000e+03 6.817048645019531250e+01 3.733528137207031250e+01 2.656674981117248535e-01 4.659092426300048828e+00 1.477428078651428223e+00 -1.776947230100631714e-01
4.504000000000000000e+03 5.710102844238281250e+01 3.698874664306640625e+01 6.041836142539978027e-01 2.756150484085083008e+00 1.008100271224975586e+00 -1.319963485002517700e-01
4.505000000000000000e+03 4.423302459716796875e+01 3.702701950073242188e+01 7.355130314826965332e-01 9.774843454360961914e-01 5.138992071151733398e-01 4.466144833713769913e-03
4.506000000000000000e+03 3.512753677368164062e+01 3.802319335937500000e+01 6.832743287086486816e-01 1.663050353527069092e-01 2.548738121986389160e-01 3.907040506601333618e-02
4.507000000000000000e+03 1.809314346313476562e+01 3.744193267822265625e+01 4.000011086463928223e-01 -6.357995867729187012e-01 -7.073955237865447998e-02 1.212197020649909973e-01
4.508000000000000000e+03 2.247741699218750000e+01 3.754964065551757812e+01 4.990310966968536377e-01 -5.317195057868957520e-01 -9.806515648961067200e-03 9.247753024101257324e-02
4.509000000000000000e+03 5.626508331298828125e+01 -2.643082809448242188e+01 7.406558394432067871e-01 1.474243640899658203e+00 6.644698381423950195e-01 2.434781342744827271e-01
4.510000000000000000e+03 5.987882232666015625e+01 -2.490622711181640625e+01 6.511201262474060059e-01 2.208961009979248047e+00 8.580242991447448730e-01 5.554322600364685059e-01
4.511000000000000000e+03 4.569344329833984375e+01 2.618575668334960938e+01 6.481128334999084473e-01 9.769004583358764648e-01 4.875039756298065186e-01 3.993722051382064819e-02
4.512000000000000000e+03 4.910029983520507812e+01 2.529039573669433594e+01 6.613019704818725586e-01 1.299839138984680176e+00 5.883423686027526855e-01 -6.197615340352058411e-02
4.513000000000000000e+03 1.533776187896728516e+01 -3.515077590942382812e+01 1.817546337842941284e-01 -3.456653654575347900e-01 -4.917321726679801941e-02 -1.425808221101760864e-01
4.514000000000000000e+03 5.901606750488281250e+01 2.261620330810546875e+01 6.048963069915771484e-01 2.752427101135253906e+00 1.007197022438049316e+00 -4.905872046947479248e-01
4.515000000000000000e+03 1.913728713989257812e+01 -2.701149559020996094e+01 7.484970241785049438e-02 -2.775509357452392578e-01 -6.081037223339080811e-02 -2.777739167213439941e-01
4.516000000000000000e+03 2.367402267456054688e+01 -2.793714332580566406e+01 1.467449218034744263e-01 -2.601191401481628418e-01 -3.401226550340652466e-02 -3.172905743122100830e-01
4.517000000000000000e+03 1.617544174194335938e+01 3.258843231201171875e+01 3.107529580593109131e-01 -6.981087923049926758e-01 -1.162067502737045288e-01 2.418236881494522095e-01
4.518000000000000000e+03 2.877204132080078125e+01 -2.545251274108886719e+01 1.259205937385559082e-01 -2.047774046659469604e-01 -2.365704439580440521e-02 -4.177866578102111816e-01
4.519000000000000000e+03 6.307817840576171875e+01 2.679795074462890625e+01 4.767557978630065918e-01 3.676440954208374023e+00 1.245959043502807617e+00 -5.231506228446960449e-01
4.520000000000000000e+03 4.797280120849609375e+01 -2.568355560302734375e+01 5.492159724235534668e-01 3.722773492336273193e-01 2.764479815959930420e-01 -2.522246241569519043e-01
4.521000000000000000e+03 4.756484985351562500e+01 -3.089023971557617188e+01 8.241027593612670898e-01 5.354820489883422852e-01 4.078754484653472900e-01 -1.584588289260864258e-01
4.522000000000000000e+03 5.252257537841796875e+01 -2.785269165039062500e+01 7.766843438148498535e-01 9.449054002761840820e-01 5.164769291877746582e-01 2.034935913980007172e-02
4.523000000000000000e+03 5.813545227050781250e+01 2.470812988281250000e+01 6.170371174812316895e-01 2.607642173767089844e+00 9.674037694931030273e-01 -4.319795668125152588e-01
4.524000000000000000e+03 6.122175216674804688e+01 2.100254821777343750e+01 5.441213846206665039e-01 3.135734319686889648e+00 1.103956699371337891e+00 -6.572665572166442871e-01
4.525000000000000000e+03 2.925734519958496094e+01 -2.815189361572265625e+01 2.449191510677337646e-01 -2.263837903738021851e-01 5.560605786740779877e-03 -3.695949018001556396e-01
4.526000000000000000e+03 2.681945991516113281e+01 2.183987045288085938e+01 4.926014319062232971e-02 -3.835288286209106445e-01 -1.002806052565574646e-01 3.306382596492767334e-01
4.527000000000000000e+03 3.454586029052734375e+01 2.355510902404785156e+01 3.308167159557342529e-01 2.967869676649570465e-02 1.081486195325851440e-01 2.997084856033325195e-01
4.528000000000000000e+03 4.505149078369140625e+01 -2.758505630493164062e+01 5.986472368240356445e-01 2.318935692310333252e-01 2.491622418165206909e-01 -3.114641904830932617e-01
4.529000000000000000e+03 5.145794677734375000e+01 2.528163146972656250e+01 6.691162586212158203e-01 1.617367863655090332e+00 6.859452724456787109e-01 -1.574290096759796143e-01
4.530000000000000000e+03 3.105198860168457031e+01 2.186074638366699219e+01 1.600262224674224854e-01 -1.679244637489318848e-01 -2.369473455473780632e-03 3.521904051303863525e-01
4.531000000000000000e+03 5.722089767456054688e+01 2.158910751342773438e+01 6.367750763893127441e-01 2.320791721343994141e+00 8.872700333595275879e-01 -4.393044710159301758e-01
4.532000000000000000e+03 5.503552246093750000e+01 2.267904472351074219e+01 6.482852101325988770e-01 1.967435598373413086e+00 7.847162485122680664e-01 -3.173848390579223633e-01
4.533000000000000000e+03 4.096605682373046875e+01 -3.274181365966796875e+01 7.418392896652221680e-01 8.200058341026306152e-02 2.471519559621810913e-01 -2.517615556716918945e-01
4.534000000000000000e+03 4.411121749877929688e+01 -3.356783294677734375e+01 8.493216037750244141e-01 2.940702736377716064e-01 3.430175483226776123e-01 -1.880363672971725464e-01
4.535000000000000000e+03 1.898105239868164062e+01 3.389134979248046875e+01 3.836142420768737793e-01 -6.504921317100524902e-01 -8.006335794925689697e-02 1.905409395694732666e-01
4.536000000000000000e+03 2.265686035156250000e+01 3.416873550415039062e+01 4.581064879894256592e-01 -5.360666513442993164e-01 -2.338805608451366425e-02 1.549406647682189941e-01
4.537000000000000000e+03 1.979426574707031250e+01 -3.331650543212890625e+01 2.355787009000778198e-01 -3.290975093841552734e-01 -2.805564180016517639e-02 -2.029256820678710938e-01
4.538000000000000000e+03 3.453113937377929688e+01 -3.306803512573242188e+01 5.840360522270202637e-01 -1.635644882917404175e-01 1.261414736509323120e-01 -2.650319933891296387e-01
4.539000000000000000e+03 5.636592483520507812e+01 3.339158630371093750e+01 6.236574053764343262e-01 2.589406251907348633e+00 9.639191031455993652e-01 -2.011772245168685913e-01
4.540000000000000000e+03 4.097398757934570312e+01 2.526583290100097656e+01 5.507547855377197266e-01 5.217497944831848145e-01 3.217513859272003174e-01 1.831858605146408081e-01
4.541000000000000000e+03 3.995799636840820312e+01 2.350920677185058594e+01 4.754878878593444824e-01 3.976793587207794189e-01 2.619501650333404541e-01 2.387854605913162231e-01
4.542000000000000000e+03 2.302447319030761719e+01 2.789236450195312500e+01 2.965902984142303467e-01 -5.776538252830505371e-01 -8.431905508041381836e-02 2.382966876029968262e-01
4.543000000000000000e+03 2.609087371826171875e+01 3.068956184387207031e+01 4.191217720508575439e-01 -4.175631701946258545e-01 4.675828677136451006e-04 1.797592341899871826e-01
4.544000000000000000e+03 2.630391502380371094e+01 -2.812438392639160156e+01 1.859173625707626343e-01 -2.467987090349197388e-01 -1.826440356671810150e-02 -3.427833318710327148e-01
4.545000000000000000e+03 2.289503288269042969e+01 -3.384398269653320312e+01 3.071727156639099121e-01 -3.174066245555877686e-01 -3.070168197154998779e-03 -2.132111340761184692e-01
4.546000000000000000e+03 3.085830879211425781e+01 2.554082298278808594e+01 3.232195675373077393e-01 -1.727856248617172241e-01 4.513018205761909485e-02 2.632982432842254639e-01
4.547000000000000000e+03 4.900965499877929688e+01 2.807027053833007812e+01 6.904539465904235840e-01 1.388086557388305664e+00 6.235621571540832520e-01 -7.090355455875396729e-02
4.548000000000000000e+03 5.329267501831054688e+01 2.266157913208007812e+01 6.501804590225219727e-01 1.737368702888488770e+00 7.162647247314453125e-01 -2.414011359214782715e-01
4.549000000000000000e+03 6.027919769287109375e+01 2.627543640136718750e+01 5.582883954048156738e-01 3.126680135726928711e+00 1.105490565299987793e+00 -4.602480530738830566e-01
4.550000000000000000e+03 5.428683471679687500e+01 -3.319953918457031250e+01 9.364557862281799316e-01 1.506287693977355957e+00 7.328230738639831543e-01 1.313847303390502930e-01
4.551000000000000000e+03 3.547505950927734375e+01 -3.076863479614257812e+01 5.172008275985717773e-01 -1.313608884811401367e-01 1.157519817352294922e-01 -3.442282676696777344e-01
4.552000000000000000e+03 2.837811851501464844e+01 2.690949630737304688e+01 3.343159556388854980e-01 -3.060111403465270996e-01 8.491446264088153839e-03 2.357246726751327515e-01
4.553000000000000000e+03 5.436096191406250000e+01 2.744942283630371094e+01 6.675493121147155762e-01 2.121571063995361328e+00 8.367360830307006836e-01 -2.562441825866699219e-01
4.554000000000000000e+03 2.609903526306152344e+01 -3.084125518798828125e+01 2.797174751758575439e-01 -2.736732065677642822e-01 1.813280046917498112e-03 -2.979106009006500244e-01
4.555000000000000000e+03 1.836305999755859375e+01 -2.952854728698730469e+01 1.351476162672042847e-01 -3.071675300598144531e-01 -5.160597711801528931e-02 -2.446607649326324463e-01
4.556000000000000000e+03 3.255496978759765625e+01 -3.507114410400390625e+01 5.645708441734313965e-01 -2.146385759115219116e-01 1.049796864390373230e-01 -2.188828885555267334e-01
4.557000000000000000e+03 5.173300170898437500e+01 -3.725897216796875000e+01 1.016550779342651367e+00 1.227250099182128906e+00 6.731402277946472168e-01 2.353755524381995201e-03
4.558000000000000000e+03 2.988528633117675781e+01 -3.652524185180664062e+01 5.316818356513977051e-01 -2.609191238880157471e-01 8.122880756855010986e-02 -1.815842837095260620e-01
4.559000000000000000e+03 2.647537994384765625e+01 -3.717990875244140625e+01 4.633161425590515137e-01 -3.044663369655609131e-01 4.765493795275688171e-02 -1.431727111339569092e-01
4.560000000000000000e+03 4.753186416625976562e+01 -3.737596893310546875e+01 9.942848086357116699e-01 6.660771965980529785e-01 4.981085956096649170e-01 -5.271513387560844421e-02
4.561000000000000000e+03 4.777625656127929688e+01 4.082424163818359375e+01 7.506227493286132812e-01 1.419059634208679199e+00 6.509047150611877441e-01 -1.151636894792318344e-02
4.562000000000000000e+03 4.210371780395507812e+01 2.331694412231445312e+01 5.030989646911621094e-01 5.574768185615539551e-01 3.181727230548858643e-01 1.970977038145065308e-01
4.563000000000000000e+03 5.319511032104492188e+01 -3.035919380187988281e+01 8.684776425361633301e-01 1.189905047416687012e+00 6.175148487091064453e-01 8.215792477130889893e-02
4.564000000000000000e+03 5.020713806152343750e+01 -2.818708229064941406e+01 7.520896196365356445e-01 6.893544793128967285e-01 4.324332475662231445e-01 -9.407842904329299927e-02
4.565000000000000000e+03 2.942299652099609375e+01 3.011968803405761719e+01 4.564560949802398682e-01 -2.400721460580825806e-01 6.491518020629882812e-02 1.745324432849884033e-01
4.566000000000000000e+03 5.361388015747070312e+01 2.499280166625976562e+01 6.612432003021240234e-01 1.894100785255432129e+00 7.666031718254089355e-01 -2.521026730537414551e-01
4.567000000000000000e+03 5.838290023803710938e+01 2.877872467041015625e+01 5.929039716720581055e-01 2.836807250976562500e+00 1.028913378715515137e+00 -3.683883845806121826e-01
4.568000000000000000e+03 2.886628723144531250e+01 -3.092590713500976562e+01 3.470596969127655029e-01 -2.516781091690063477e-01 2.861446887254714966e-02 -3.184953927993774414e-01
4.569000000000000000e+03 4.878772735595703125e+01 3.415565872192382812e+01 7.196676135063171387e-01 1.492995738983154297e+00 6.637989878654479980e-01 -5.450118333101272583e-02
4.570000000000000000e+03 5.266104888916015625e+01 3.742332458496093750e+01 6.908669471740722656e-01 2.062481164932250977e+00 8.260044455528259277e-01 -7.361755520105361938e-02
4.571000000000000000e+03 3.009145736694335938e+01 3.669572830200195312e+01 6.110235452651977539e-01 -1.687003523111343384e-01 1.326969563961029053e-01 8.403062820434570312e-02
4.572000000000000000e+03 5.051033020019531250e+01 -3.088307762145996094e+01 8.633921742439270020e-01 8.546898961067199707e-01 5.154246091842651367e-01 -4.071281477808952332e-02
4.573000000000000000e+03 2.968847846984863281e+01 3.352829360961914062e+01 5.449228286743164062e-01 -2.089450210332870483e-01 1.007933467626571655e-01 1.248794123530387878e-01
4.574000000000000000e+03 4.902522659301757812e+01 3.105129814147949219e+01 7.124071121215820312e-01 1.469549536705017090e+00 6.545869708061218262e-01 -7.028239220380783081e-02
4.575000000000000000e+03 4.444390106201171875e+01 2.778840065002441406e+01 6.490070223808288574e-01 8.624369502067565918e-01 4.534331858158111572e-01 5.954195931553840637e-02
4.576000000000000000e+03 4.262638473510742188e+01 2.659931755065917969e+01 6.057145595550537109e-01 6.622508168220520020e-01 3.803896009922027588e-01 1.215955987572669983e-01
4.577000000000000000e+03 5.176795196533203125e+01 2.796517753601074219e+01 6.906411647796630859e-01 1.755889415740966797e+00 7.339591383934020996e-01 -1.633118838071823120e-01
4.578000000000000000e+03 3.950541687011718750e+01 3.131116485595703125e+01 6.433968544006347656e-01 4.699015021324157715e-01 3.339895009994506836e-01 9.382250905036926270e-02
4.579000000000000000e+03 4.116791152954101562e+01 2.879407501220703125e+01 6.201696991920471191e-01 5.880127549171447754e-01 3.624547123908996582e-01 1.169616132974624634e-01
4.580000000000000000e+03 4.346090316772460938e+01 3.006824302673339844e+01 6.718416213989257812e-01 8.063650131225585938e-01 4.434619843959808350e-01 5.583579465746879578e-02
4.581000000000000000e+03 4.608693313598632812e+01 3.081371688842773438e+01 7.085247039794921875e-01 1.115268468856811523e+00 5.471379756927490234e-01 -1.348259579390287399e-02
4.582000000000000000e+03 3.255857467651367188e+01 3.474797439575195312e+01 5.974766016006469727e-01 -5.111345276236534119e-02 1.639089435338973999e-01 9.547958523035049438e-02
4.583000000000000000e+03 3.755295562744140625e+01 3.431930160522460938e+01 6.844703555107116699e-01 3.547942340373992920e-01 3.117793798446655273e-01 8.337895572185516357e-02
4.584000000000000000e+03 1.759497833251953125e+01 -7.540458202362060547e+00 -1.864643022418022156e-02 -3.421766683459281921e-02 -1.585922949016094208e-02 -2.684034034609794617e-02
4.585000000000000000e+03 1.858944129943847656e+01 -3.517083883285522461e+00 -1.152091077528893948e-03 1.376167591661214828e-02 3.782875370234251022e-03 2.781475195661187172e-03
4.586000000000000000e+03 3.876510262489318848e-01 2.095229864120483398e+00 9.923484321916475892e-05 7.402070423268014565e-06 3.199107595719397068e-05 -6.592278077732771635e-05
4.587000000000000000e+03 6.817251586914062500e+01 -4.238173007965087891e+00 -2.325641512870788574e-01 1.547305941581726074e+00 3.944225311279296875e-01 -2.335705041885375977e+00
4.588000000000000000e+03 6.922931671142578125e+01 -4.761185646057128906e+00 8.803365230560302734e-01 2.678769826889038086e+00 1.067731857299804688e+00 -3.594123601913452148e+00
4.589000000000000000e+03 6.942707061767578125e+01 -4.519110202789306641e+00 1.035208225250244141e+00 4.059003829956054688e+00 1.528263568878173828e+00 -4.419953823089599609e+00
4.590000000000000000e+03 6.926483917236328125e+01 -4.518651008605957031e+00 8.929153680801391602e-01 3.358279705047607422e+00 1.275358557701110840e+00 -3.960958480834960938e+00
4.591000000000000000e+03 6.982440948486328125e+01 -4.732892036437988281e+00 1.529175043106079102e+00 5.433530807495117188e+00 2.088811635971069336e+00 -5.387649059295654297e+00
4.592000000000000000e+03 6.983238983154296875e+01 -4.394356727600097656e+00 1.002024888992309570e+00 6.426215171813964844e+00 2.228471994400024414e+00 -5.448973178863525391e+00
4.593000000000000000e+03 7.022882080078125000e+01 -4.737642288208007812e+00 1.400059580802917480e+00 8.537827491760253906e+00 2.981365919113159180e+00 -6.398128032684326172e+00
4.594000000000000000e+03 7.019704437255859375e+01 -4.146456718444824219e+00 3.364056348800659180e-01 9.049004554748535156e+00 2.815623283386230469e+00 -5.788025379180908203e+00
4.595000000000000000e+03 7.046350860595703125e+01 -4.448870182037353516e+00 4.491519927978515625e-01 1.080482482910156250e+01 3.376193046569824219e+00 -6.154940128326416016e+00
4.596000000000000000e+03 7.083184051513671875e+01 -4.498033046722412109e+00 -1.151363104581832886e-01 1.413993453979492188e+01 4.207439422607421875e+00 -5.929285049438476562e+00
4.597000000000000000e+03 7.121524047851562500e+01 -4.765855789184570312e+00 -5.564872622489929199e-01 1.831233406066894531e+01 5.326754093170166016e+00 -4.592113971710205078e+00
4.598000000000000000e+03 7.161634063720703125e+01 -4.442730426788330078e+00 -8.806996941566467285e-01 1.824251365661621094e+01 5.208544254302978516e+00 -2.345179319381713867e+00
4.599000000000000000e+03 7.203223419189453125e+01 -4.970381259918212891e+00 1.200335741043090820e+00 2.054373550415039062e+01 6.523221492767333984e+00 8.343876600265502930e-01
4.600000000000000000e+03 7.217594146728515625e+01 -4.652244567871093750e+00 4.913353919982910156e-01 1.918468093872070312e+01 5.902804851531982422e+00 6.664390563964843750e-01
4.601000000000000000e+03 7.285420227050781250e+01 -5.240085124969482422e+00 4.209069728851318359e+00 1.687046241760253906e+01 6.323860168457031250e+00 2.561430692672729492e+00
4.602000000000000000e+03 7.327467346191406250e+01 -6.184948921203613281e+00 7.201050758361816406e+00 1.440239143371582031e+01 6.481032371520996094e+00 5.993321537971496582e-01
4.603000000000000000e+03 7.263743591308593750e+01 -8.025692939758300781e+00 1.802173256874084473e+00 1.759296989440917969e+01 5.818542957305908203e+00 -1.844804167747497559e+00
4.604000000000000000e+03 7.084963989257812500e+01 -8.286308288574218750e+00 -1.885461360216140747e-01 1.441853809356689453e+01 4.268997669219970703e+00 5.783848285675048828e+00
4.605000000000000000e+03 7.042587280273437500e+01 -8.045805931091308594e+00 1.251109123229980469e+00 1.027777576446533203e+01 3.458665370941162109e+00 6.812317848205566406e+00
4.606000000000000000e+03 7.046060943603515625e+01 -8.341570854187011719e+00 4.267277717590332031e-01 1.102795696258544922e+01 3.436405420303344727e+00 6.163192749023437500e+00
4.607000000000000000e+03 7.004227447509765625e+01 -8.424700736999511719e+00 8.891984820365905762e-01 7.607827186584472656e+00 2.549107789993286133e+00 5.738055706024169922e+00
4.608000000000000000e+03 6.843688201904296875e+01 -8.640836715698242188e+00 1.008712872862815857e-01 2.041308641433715820e+00 6.426540017127990723e-01 2.804792642593383789e+00
4.609000000000000000e+03 6.825526428222656250e+01 -8.089380264282226562e+00 -5.026841163635253906e-01 1.011120676994323730e+00 1.525309830904006958e-01 1.924523472785949707e+00
4.610000000000000000e+03 1.296470522880554199e+00 2.715756416320800781e+00 -3.979105531470850110e-05 9.620981290936470032e-05 1.692562727839685977e-05 -4.902861473965458572e-05
4.611000000000000000e+03 1.813621711730957031e+01 -8.639705657958984375e+00 -9.229817241430282593e-02 -5.577190592885017395e-02 -4.442102089524269104e-02 -9.113825112581253052e-02
4.612000000000000000e+03 1.838436126708984375e+01 -7.969526290893554688e+00 -6.920631974935531616e-02 -3.611155971884727478e-02 -3.159536421298980713e-02 -5.918802693486213684e-02
4.613000000000000000e+03 1.859062957763671875e+01 -8.384035110473632812e+00 -1.083315685391426086e-01 -3.715867921710014343e-02 -4.364707320928573608e-02 -8.825227618217468262e-02
4.614000000000000000e+03 6.857532501220703125e+01 -3.952053308486938477e+00 2.240623533725738525e-01 2.727164030075073242e+00 8.853679299354553223e-01 -3.182625293731689453e+00
4.615000000000000000e+03 6.776501464843750000e+01 -3.813457965850830078e+00 -3.791085183620452881e-01 1.647053956985473633e+00 3.803836405277252197e-01 -2.234739303588867188e+00
4.616000000000000000e+03 9.885622978210449219e+00 -2.126691055297851562e+01 -1.096801310777664185e-01 -2.548367083072662354e-01 -1.093550473451614380e-01 -2.191327214241027832e-01
4.617000000000000000e+03 6.867384338378906250e+01 -8.502768516540527344e+00 3.558723330497741699e-01 2.539309263229370117e+00 8.685544729232788086e-01 3.098115205764770508e+00
4.618000000000000000e+03 1.881788635253906250e+01 -8.005050659179687500e+00 -9.744409471750259399e-02 -2.408773079514503479e-02 -3.645954653620719910e-02 -7.028221338987350464e-02
4.619000000000000000e+03 6.896362304687500000e+01 -8.611964225769042969e+00 5.927291512489318848e-01 3.252287626266479492e+00 1.153505086898803711e+00 3.706035137176513672e+00
4.620000000000000000e+03 6.890512847900390625e+01 -4.407014846801757812e+00 5.417193770408630371e-01 2.624669551849365234e+00 9.499167203903198242e-01 -3.395928859710693359e+00
4.621000000000000000e+03 6.900503540039062500e+01 -4.107401371002197266e+00 5.969506502151489258e-01 3.360716342926025391e+00 1.187300086021423340e+00 -3.786500215530395508e+00
4.622000000000000000e+03 7.061138916015625000e+01 -4.234603881835937500e+00 -1.891379654407501221e-01 1.193286800384521484e+01 3.523119211196899414e+00 -5.709933757781982422e+00
4.623000000000000000e+03 6.918603515625000000e+01 -8.286979675292968750e+00 7.435416579246520996e-01 3.103029489517211914e+00 1.153971433639526367e+00 3.722654581069946289e+00
4.624000000000000000e+03 6.957164764404296875e+01 -8.383136749267578125e+00 1.112463593482971191e+00 4.979796886444091797e+00 1.827678084373474121e+00 4.841482639312744141e+00
4.625000000000000000e+03 7.033440399169921875e+01 -8.697286605834960938e+00 9.107746928930282593e-02 9.914381980895996094e+00 3.001637935638427734e+00 5.584928035736083984e+00
4.626000000000000000e+03 7.108340454101562500e+01 -8.467689514160156250e+00 -7.081274986267089844e-01 1.550777912139892578e+01 4.439895629882812500e+00 4.725467205047607422e+00
4.627000000000000000e+03 7.222701263427734375e+01 -8.964333534240722656e+00 -1.091186523437500000e+00 1.605244827270507812e+01 4.488378524780273438e+00 5.983296036720275879e-01
4.628000000000000000e+03 7.322431945800781250e+01 -8.123914718627929688e+00 2.171368598937988281e+00 1.535420703887939453e+01 5.257672786712646484e+00 -2.260179281234741211e+00
4.629000000000000000e+03 7.374139404296875000e+01 -7.661426544189453125e+00 3.591071128845214844e+00 1.369695568084716797e+01 5.186408042907714844e+00 -2.142860174179077148e+00
4.630000000000000000e+03 7.346517944335937500e+01 -6.575135707855224609e+00 6.832998275756835938e+00 1.388889598846435547e+01 6.216568470001220703e+00 -5.525843501091003418e-01
4.631000000000000000e+03 2.285330772399902344e+00 3.681588745117187500e+01 1.982312276959419250e-02 -7.094900608062744141e-01 -2.069000899791717529e-01 6.189248338341712952e-02
4.632000000000000000e+03 6.838433074951171875e+01 -3.494941473007202148e+00 1.573217511177062988e-01 2.943350315093994141e+00 9.302015900611877441e-01 -3.221453666687011719e+00
4.633000000000000000e+03 7.325729370117187500e+01 -5.058619499206542969e+00 3.534432411193847656e+00 1.529389190673828125e+01 5.648497104644775391e+00 2.400414705276489258e+00
4.634000000000000000e+03 6.897818756103515625e+01 -8.999265670776367188e+00 4.325976073741912842e-01 3.950757265090942383e+00 1.315006494522094727e+00 3.880633592605590820e+00
4.635000000000000000e+03 6.936426544189453125e+01 -9.055458068847656250e+00 4.772695899009704590e-01 5.281385421752929688e+00 1.727596402168273926e+00 4.490087985992431641e+00
4.636000000000000000e+03 4.609678268432617188e+00 -1.286106014251708984e+01 3.629650920629501343e-03 -3.310962812975049019e-03 9.560643957229331136e-05 -1.881693955510854721e-03
4.637000000000000000e+03 5.925555706024169922e+00 3.527929687500000000e+01 7.026650756597518921e-02 -6.333472728729248047e-01 -1.689242422580718994e-01 1.698988825082778931e-01
4.638000000000000000e+03 1.555095005035400391e+01 2.135033607482910156e+01 -1.837624013423919678e-01 -9.433370828628540039e-01 -3.381298482418060303e-01 4.560360312461853027e-01
4.639000000000000000e+03 1.960500335693359375e+01 -9.151948928833007812e+00 -1.914988458156585693e-01 -2.162102237343788147e-02 -6.393595784902572632e-02 -1.316942572593688965e-01
4.640000000000000000e+03 6.733799743652343750e+01 -1.021049690246582031e+01 -1.593158990144729614e-01 2.344607591629028320e+00 6.555874943733215332e-01 2.396266460418701172e+00
4.641000000000000000e+03 6.827526092529296875e+01 -3.143285274505615234e+00 8.012899756431579590e-02 3.186287403106689453e+00 9.799249172210693359e-01 -3.221899509429931641e+00
4.642000000000000000e+03 7.076708984375000000e+01 -8.849710464477539062e+00 -7.535896301269531250e-01 1.245508384704589844e+01 3.510448217391967773e+00 4.896427631378173828e+00
4.643000000000000000e+03 7.071458435058593750e+01 -8.581087112426757812e+00 -2.893546521663665771e-01 1.264606666564941406e+01 3.707013607025146484e+00 5.508942127227783203e+00
4.644000000000000000e+03 7.100351715087890625e+01 -8.807342529296875000e+00 -9.843887090682983398e-01 1.394334411621093750e+01 3.887686729431152344e+00 4.506749153137207031e+00
4.645000000000000000e+03 7.109334564208984375e+01 -9.145197868347167969e+00 -1.233369350433349609e+00 1.333947467803955078e+01 3.631831645965576172e+00 3.995567321777343750e+00
4.646000000000000000e+03 7.394674682617187500e+01 -6.495840072631835938e+00 5.458288192749023438e+00 1.252118110656738281e+01 5.393840789794921875e+00 -2.622702419757843018e-01
4.647000000000000000e+03 7.426158905029296875e+01 -6.566982746124267578e+00 4.958733558654785156e+00 1.206277275085449219e+01 5.106451988220214844e+00 -3.346597254276275635e-01
4.648000000000000000e+03 6.932841491699218750e+01 -9.807117462158203125e+00 -7.774002104997634888e-02 6.031540393829345703e+00 1.786140084266662598e+00 4.172099590301513672e+00
4.649000000000000000e+03 7.054241943359375000e+01 -9.152283668518066406e+00 -5.785734057426452637e-01 1.068595981597900391e+01 3.032215833663940430e+00 4.932643890380859375e+00
4.650000000000000000e+03 7.051791381835937500e+01 -8.854336738586425781e+00 -3.627458512783050537e-01 1.093099784851074219e+01 3.170475721359252930e+00 5.305045604705810547e+00
4.651000000000000000e+03 7.605164337158203125e+01 -3.670518112182617188e+01 2.362929098308086395e-02 7.115370750427246094e+00 2.141700029373168945e+00 1.728223711252212524e-01
4.652000000000000000e+03 8.875308036804199219e+00 -2.240616798400878906e+01 -7.528113573789596558e-02 -2.294711470603942871e-01 -9.142568707466125488e-02 -2.149065583944320679e-01
4.653000000000000000e+03 6.961789703369140625e+01 -9.494257926940917969e+00 -4.853435605764389038e-02 6.720950603485107422e+00 2.001724958419799805e+00 4.520530700683593750e+00
4.654000000000000000e+03 7.197771453857421875e+01 -9.190725326538085938e+00 -1.452185750007629395e+00 1.535756874084472656e+01 4.171614646911621094e+00 1.451853871345520020e+00
4.655000000000000000e+03 7.385851287841796875e+01 -8.181492805480957031e+00 2.284699201583862305e+00 1.360270214080810547e+01 4.766220569610595703e+00 -2.256316661834716797e+00
4.656000000000000000e+03 3.778277206420898438e+01 2.497082710266113281e+01 4.668612778186798096e-01 2.607840597629547119e-01 2.182935923337936401e-01 2.375590354204177856e-01
4.657000000000000000e+03 3.922942352294921875e+01 2.708379936218261719e+01 5.582019090652465820e-01 4.006774425506591797e-01 2.876637876033782959e-01 1.674799323081970215e-01
4.658000000000000000e+03 3.299634933471679688e+01 -3.089453125000000000e+01 4.446080625057220459e-01 -2.053459435701370239e-01 7.177864015102386475e-02 -3.336321711540222168e-01
4.659000000000000000e+03 7.243926239013671875e+01 -4.197863578796386719e+00 -3.463720977306365967e-01 1.677210998535156250e+01 4.927721500396728516e+00 4.786117672920227051e-01
4.660000000000000000e+03 7.243300628662109375e+01 -3.770184278488159180e+00 -9.178883433341979980e-01 1.584969329833984375e+01 4.479541301727294922e+00 -5.006935819983482361e-02
4.661000000000000000e+03 7.193927764892578125e+01 -3.521327733993530273e+00 -1.572608470916748047e+00 1.520335102081298828e+01 4.089222908020019531e+00 -1.623096346855163574e+00
4.662000000000000000e+03 7.184986877441406250e+01 -3.875893115997314453e+00 -1.398658514022827148e+00 1.630180931091308594e+01 4.470945358276367188e+00 -1.674902677536010742e+00
4.663000000000000000e+03 2.044008255004882812e+01 -1.062017440795898438e+01 -2.857052981853485107e-01 -2.110691368579864502e-02 -9.204366058111190796e-02 -2.033686786890029907e-01
4.664000000000000000e+03 1.525883102416992188e+01 2.347974014282226562e+01 -1.582133397459983826e-02 -8.754251599311828613e-01 -2.673739492893218994e-01 4.214479327201843262e-01
4.665000000000000000e+03 4.130317687988281250e+00 -2.251265525817871094e+01 -3.464440628886222839e-02 -1.033736094832420349e-01 -4.140540584921836853e-02 -9.758390486240386963e-02
4.666000000000000000e+03 7.222131347656250000e+01 -9.535552024841308594e+00 -1.487792015075683594e+00 1.458768844604492188e+01 3.929968833923339844e+00 9.342262744903564453e-01
4.667000000000000000e+03 4.649500274658203125e+01 2.816436767578125000e+01 6.791735887527465820e-01 1.100156307220458984e+00 5.337989926338195801e-01 -3.236054209992289543e-03
4.668000000000000000e+03 7.418682861328125000e+01 -6.302228450775146484e+00 5.118311882019042969e+00 1.214322948455810547e+01 5.178462505340576172e+00 8.739916980266571045e-02
4.669000000000000000e+03 3.139443635940551758e+00 1.868956184387207031e+01 -2.456646226346492767e-02 -3.376963734626770020e-02 -1.750082895159721375e-02 7.612884510308504105e-03
4.670000000000000000e+03 6.952610778808593750e+01 -4.200830459594726562e+00 8.210722804069519043e-01 5.170205593109130859e+00 1.797383427619934082e+00 -4.784945487976074219e+00
4.671000000000000000e+03 9.847679138183593750e+00 -3.656561851501464844e+00 6.022420348017476499e-05 -2.205874188803136349e-04 -4.810896643903106451e-05 4.458485636860132217e-05
4.672000000000000000e+03 7.314250946044921875e+01 -3.675590276718139648e+00 -3.531555533409118652e-01 1.474431037902832031e+01 4.317346096038818359e+00 1.126807093620300293e+00
4.673000000000000000e+03 7.362000274658203125e+01 -3.827409267425537109e+00 3.770493865013122559e-01 1.395340919494628906e+01 4.299137592315673828e+00 1.744825363159179688e+00
4.674000000000000000e+03 7.142613983154296875e+01 -3.571545839309692383e+00 -1.518670916557312012e+00 1.438844108581542969e+01 3.860931158065795898e+00 -3.065620660781860352e+00
4.675000000000000000e+03 2.182056999206542969e+01 -3.168090105056762695e+00 -7.850845903158187866e-02 -7.288999855518341064e-02 -4.541953653097152710e-02 9.576311707496643066e-02
4.676000000000000000e+03 7.085031890869140625e+01 -4.220265388488769531e+00 -6.380149722099304199e-01 1.340306568145751953e+01 3.829515218734741211e+00 -5.173104763031005859e+00
4.677000000000000000e+03 4.550410747528076172e+00 3.889057159423828125e+00 -9.793527715373784304e-05 2.087126049445942044e-04 3.323319833725690842e-05 3.349641046952456236e-04
4.678000000000000000e+03 7.160145568847656250e+01 -3.268272876739501953e+00 -1.627923488616943359e+00 1.389873123168945312e+01 3.681242465972900391e+00 -2.525854110717773438e+00
4.679000000000000000e+03 7.212013244628906250e+01 -3.167248249053955078e+00 -1.646492719650268555e+00 1.438715648651123047e+01 3.822199106216430664e+00 -1.295358300209045410e+00
4.680000000000000000e+03 7.682425689697265625e+01 2.765214920043945312e+01 2.827433310449123383e-02 6.476377010345458984e+00 1.951395392417907715e+00 -2.298082262277603149e-01
4.681000000000000000e+03 7.080850219726562500e+01 -9.143445968627929688e+00 -9.582388997077941895e-01 1.232312774658203125e+01 3.409466743469238281e+00 4.528613567352294922e+00
4.682000000000000000e+03 7.075375366210937500e+01 -9.453361511230468750e+00 -1.110170483589172363e+00 1.139622211456298828e+01 3.085815429687500000e+00 4.295018672943115234e+00
4.683000000000000000e+03 7.276470947265625000e+01 -3.323501586914062500e+00 -1.039479255676269531e+00 1.455883312225341797e+01 4.055806159973144531e+00 2.805095613002777100e-01
4.684000000000000000e+03 7.307514190673828125e+01 -3.262143850326538086e+00 -8.915910720825195312e-01 1.431311798095703125e+01 4.026457786560058594e+00 7.134349942207336426e-01
4.685000000000000000e+03 6.914538574218750000e+01 -3.188989639282226562e+00 9.120289981365203857e-02 5.248958587646484375e+00 1.602048516273498535e+00 -4.116314411163330078e+00
4.686000000000000000e+03 6.900386047363281250e+01 -1.005060863494873047e+01 -1.093964651226997375e-01 5.315799236297607422e+00 1.561920881271362305e+00 3.812664747238159180e+00
4.687000000000000000e+03 6.092495727539062500e+01 2.341204071044921875e+01 5.526399016380310059e-01 3.207998752593994141e+00 1.128191590309143066e+00 -5.793007612228393555e-01
4.688000000000000000e+03 6.984025573730468750e+01 -9.808766365051269531e+00 -3.432568907737731934e-01 7.714152336120605469e+00 2.211268663406372070e+00 4.448943614959716797e+00
4.689000000000000000e+03 7.022239685058593750e+01 -9.902918815612792969e+00 -7.570763230323791504e-01 9.125042915344238281e+00 2.510389804840087891e+00 4.311554431915283203e+00
4.690000000000000000e+03 7.201208496093750000e+01 -1.057739067077636719e+01 -1.836515307426452637e+00 1.253538894653320312e+01 3.209662199020385742e+00 1.582985520362854004e+00
4.691000000000000000e+03 7.114964294433593750e+01 -3.842121124267578125e+00 -1.293534994125366211e+00 1.432997226715087891e+01 3.910931348800659180e+00 -3.988660097122192383e+00
4.692000000000000000e+03 2.287862205505371094e+01 2.512357330322265625e+01 1.655643582344055176e-01 -5.962058305740356445e-01 -1.291924417018890381e-01 2.744908928871154785e-01
4.693000000000000000e+03 2.388349151611328125e+01 1.108400344848632812e+01 -4.560565650463104248e-01 -5.051527023315429688e-01 -2.883627712726593018e-01 6.347283720970153809e-01
4.694000000000000000e+03 7.007877349853515625e+01 -3.383554935455322266e+00 -3.598427176475524902e-01 8.631480216979980469e+00 2.481491327285766602e+00 -4.778716564178466797e+00
4.695000000000000000e+03 7.076237487792968750e+01 -3.686094284057617188e+00 -9.002789258956909180e-01 1.203626346588134766e+01 3.340795516967773438e+00 -4.669342517852783203e+00
4.696000000000000000e+03 7.030265808105468750e+01 -3.173164129257202148e+00 -7.027165889739990234e-01 9.508463859558105469e+00 2.641724348068237305e+00 -4.512740135192871094e+00
4.697000000000000000e+03 7.382751464843750000e+01 -3.465813398361206055e+00 -4.723019525408744812e-02 1.334596347808837891e+01 3.989619970321655273e+00 1.635272145271301270e+00
4.698000000000000000e+03 6.184284210205078125e+00 -2.580343246459960938e+01 -7.132933940738439560e-03 -2.155051976442337036e-01 -6.679143756628036499e-02 -1.664907932281494141e-01
4.699000000000000000e+03 5.787889957427978516e+00 5.486553668975830078e+00 4.458340699784457684e-04 -4.685955063905566931e-04 -6.828428922744933516e-06 -3.476598794804885983e-05
4.700000000000000000e+03 7.308098602294921875e+01 -1.017194652557373047e+01 -1.379205822944641113e+00 1.335483169555664062e+01 3.592687845230102539e+00 -2.738201320171356201e-01
4.701000000000000000e+03 6.999002075195312500e+01 -9.388083457946777344e+00 -2.169563919305801392e-01 8.182053565979003906e+00 2.389529228210449219e+00 4.767802715301513672e+00
4.702000000000000000e+03 6.849302673339843750e+01 -1.019729232788085938e+01 -2.765678428113460541e-02 4.205999851226806641e+00 1.253502845764160156e+00 3.377199411392211914e+00
4.703000000000000000e+03 6.850385284423828125e+01 -1.058396434783935547e+01 -1.344288885593414307e-01 4.497208118438720703e+00 1.308833837509155273e+00 3.364069223403930664e+00
4.704000000000000000e+03 7.375788879394531250e+01 -9.111712455749511719e+00 1.850197464227676392e-01 1.354037952423095703e+01 4.117619514465332031e+00 -1.713975906372070312e+00
4.705000000000000000e+03 6.963945770263671875e+01 -3.292356491088867188e+00 -8.229161798954010010e-02 6.833861827850341797e+00 2.025470972061157227e+00 -4.573605537414550781e+00
4.706000000000000000e+03 7.008868408203125000e+01 -1.043716335296630859e+01 -8.168221712112426758e-01 8.454955101013183594e+00 2.291439771652221680e+00 3.967750072479248047e+00
4.707000000000000000e+03 6.994865417480468750e+01 -1.009790134429931641e+01 -6.469486355781555176e-01 8.082333564758300781e+00 2.230615377426147461e+00 4.188973426818847656e+00
4.708000000000000000e+03 7.463783264160156250e+01 -6.508493900299072266e+00 4.347152233123779297e+00 1.136900424957275391e+01 4.714847087860107422e+00 -2.567786276340484619e-01
4.709000000000000000e+03 7.496263885498046875e+01 -5.991935253143310547e+00 3.578400373458862305e+00 1.078066444396972656e+01 4.307719230651855469e+00 5.717444419860839844e-01
4.710000000000000000e+03 7.337285614013671875e+01 -3.047819137573242188e+00 -8.747549653053283691e-01 1.368981742858886719e+01 3.844518899917602539e+00 9.476950168609619141e-01
4.711000000000000000e+03 5.653380203247070312e+01 2.334377098083496094e+01 6.382966041564941406e-01 2.272060394287109375e+00 8.731070756912231445e-01 -3.939576148986816406e-01
4.712000000000000000e+03 7.438191223144531250e+01 -3.260678768157958984e+00 1.511074975132942200e-02 1.230449676513671875e+01 3.695882320404052734e+00 1.775857329368591309e+00
4.713000000000000000e+03 7.311312198638916016e+00 2.911085700988769531e+01 5.627425387501716614e-02 -5.419642925262451172e-01 -1.457070112228393555e-01 3.159666657447814941e-01
4.714000000000000000e+03 7.244978332519531250e+01 -1.089845848083496094e+01 -1.815751791000366211e+00 1.221753787994384766e+01 3.120535850524902344e+00 9.452778697013854980e-01
4.715000000000000000e+03 7.237315368652343750e+01 -1.164422035217285156e+01 -1.836876392364501953e+00 1.125840091705322266e+01 2.826457262039184570e+00 1.136222243309020996e+00
4.716000000000000000e+03 6.858314990997314453e+00 2.786893272399902344e+01 2.394926548004150391e-02 -4.965393841266632080e-01 -1.417770385742187500e-01 3.211121261119842529e-01
4.717000000000000000e+03 6.710587310791015625e+01 -8.879052400588989258e-01 -2.408649623394012451e-01 3.171224355697631836e+00 8.791078329086303711e-01 -2.454029798507690430e+00
4.718000000000000000e+03 6.709568786621093750e+01 -1.742928326129913330e-01 -2.664370238780975342e-01 3.516576051712036133e+00 9.750416874885559082e-01 -2.414074659347534180e+00
4.719000000000000000e+03 2.522306060791015625e+01 1.026387786865234375e+01 -4.310336112976074219e-01 -3.967077136039733887e-01 -2.483223974704742432e-01 6.547931432723999023e-01
4.720000000000000000e+03 2.445955467224121094e+01 1.489543342590332031e+01 -3.789670467376708984e-01 -4.763997495174407959e-01 -2.566100358963012695e-01 5.300896167755126953e-01
4.721000000000000000e+03 7.464857482910156250e+01 -3.360089111328125000e+01 1.156065762042999268e-01 6.777022838592529297e+00 2.067788839340209961e+00 3.310799002647399902e-01
4.722000000000000000e+03 7.415731811523437500e+01 -3.230879974365234375e+01 1.307515054941177368e-01 6.745328903198242188e+00 2.062824010848999023e+00 4.146007597446441650e-01
4.723000000000000000e+03 3.120096015930175781e+01 -2.271160507202148438e+01 1.304343249648809433e-02 -1.568230539560317993e-01 -4.313388466835021973e-02 -4.811051785945892334e-01
4.724000000000000000e+03 6.092654037475585938e+01 -2.213659763336181641e+00 -1.855958580970764160e+00 1.899739950895309448e-01 -4.997953772544860840e-01 -5.940110236406326294e-02
4.725000000000000000e+03 6.826746368408203125e+01 -1.393209457397460938e+00 -3.070299029350280762e-01 4.503503799438476562e+00 1.258942246437072754e+00 -3.107535123825073242e+00
4.726000000000000000e+03 1.016972160339355469e+01 2.889291954040527344e+01 1.015195474028587341e-01 -6.350456476211547852e-01 -1.600578278303146362e-01 3.671749830245971680e-01
4.727000000000000000e+03 6.855025482177734375e+01 -2.919451141357421875e+01 3.667370080947875977e-01 5.087841510772705078e+00 1.636373639106750488e+00 7.460893392562866211e-01
4.728000000000000000e+03 6.656165313720703125e+01 -2.050586640834808350e-01 -2.479309886693954468e-01 2.927723884582519531e+00 8.039378523826599121e-01 -2.208873987197875977e+00
4.729000000000000000e+03 7.271188354492187500e+01 -2.612738370895385742e+00 -1.634810805320739746e+00 1.331108856201171875e+01 3.502883434295654297e+00 -4.371661245822906494e-01
4.730000000000000000e+03 7.253187561035156250e+01 -2.906975984573364258e+00 -1.617606163024902344e+00 1.383609676361083984e+01 3.665547370910644531e+00 -6.046293973922729492e-01
4.731000000000000000e+03 7.167641448974609375e+01 -2.353236436843872070e+00 -1.785769939422607422e+00 1.223712635040283203e+01 3.135406970977783203e+00 -2.195027351379394531e+00
4.732000000000000000e+03 6.991642761230468750e+01 -3.113555192947387695e+00 -3.821089565753936768e-01 7.861923694610595703e+00 2.243944406509399414e+00 -4.505869388580322266e+00
4.733000000000000000e+03 9.136540412902832031e+00 -2.555522155761718750e+01 -5.099416710436344147e-03 -2.627217769622802734e-01 -8.034636080265045166e-02 -2.104536294937133789e-01
4.734000000000000000e+03 5.380965805053710938e+01 -2.341676139831542969e+01 5.252403020858764648e-01 8.191377520561218262e-01 4.033134281635284424e-01 1.751621812582015991e-02
4.735000000000000000e+03 5.586089706420898438e+01 -2.477583122253417969e+01 6.540478467941284180e-01 1.250311136245727539e+00 5.713076591491699219e-01 2.026446461677551270e-01
4.736000000000000000e+03 7.061260986328125000e+01 -1.121026039123535156e+01 -1.341607093811035156e+00 9.283336639404296875e+00 2.382518768310546875e+00 3.119124889373779297e+00
4.737000000000000000e+03 7.523419952392578125e+01 -6.345316886901855469e+00 3.367630720138549805e+00 1.036916065216064453e+01 4.121037483215332031e+00 5.260357633233070374e-02
4.738000000000000000e+03 7.346475219726562500e+01 -1.043962001800537109e+01 -1.331578612327575684e+00 1.263490295410156250e+01 3.390997171401977539e+00 -5.527581572532653809e-01
4.739000000000000000e+03 7.372578430175781250e+01 -1.189260864257812500e+01 -1.530789494514465332e+00 1.112481212615966797e+01 2.878206729888916016e+00 -2.031416147947311401e-01
4.740000000000000000e+03 2.610632705688476562e+01 1.356450939178466797e+01 -3.659073114395141602e-01 -3.557229638099670410e-01 -2.164890766143798828e-01 5.804650187492370605e-01
4.741000000000000000e+03 2.637551879882812500e+01 1.539206123352050781e+01 -2.936234772205352783e-01 -3.619167506694793701e-01 -1.966620683670043945e-01 5.243631005287170410e-01
4.742000000000000000e+03 6.677662658691406250e+01 1.412436813116073608e-01 -2.490132004022598267e-01 3.281899690628051758e+00 9.098659753799438477e-01 -2.279956817626953125e+00
4.743000000000000000e+03 2.236462402343750000e+01 -1.752006340026855469e+01 -2.704413533210754395e-01 -9.754695743322372437e-02 -1.103964969515800476e-01 -3.500583469867706299e-01
4.744000000000000000e+03 2.175480079650878906e+01 -2.028214836120605469e+01 -1.684517413377761841e-01 -1.528477668762207031e-01 -9.638985246419906616e-02 -3.411373198032379150e-01
4.745000000000000000e+03 7.416837310791015625e+01 -9.389822006225585938e+00 8.619445562362670898e-02 1.272518348693847656e+01 3.843413352966308594e+00 -1.746782898902893066e+00
4.746000000000000000e+03 7.246800231933593750e+01 -2.364474058151245117e+00 -1.753557324409484863e+00 1.296049404144287109e+01 3.362081050872802734e+00 -8.242543339729309082e-01
4.747000000000000000e+03 6.858616638183593750e+01 -9.534696936607360840e-01 -4.610257446765899658e-01 5.178308010101318359e+00 1.415184736251831055e+00 -3.119749069213867188e+00
4.748000000000000000e+03 4.696959304809570312e+01 2.468066978454589844e+01 6.328200101852416992e-01 1.043743848800659180e+00 5.029691457748413086e-01 1.478145923465490341e-02
4.749000000000000000e+03 2.849951362609863281e+01 1.707507133483886719e+01 -1.359695941209793091e-01 -2.609468698501586914e-01 -1.190749406814575195e-01 4.892251789569854736e-01
4.750000000000000000e+03 7.067218017578125000e+01 -2.378532886505126953e+00 -1.315099954605102539e+00 1.010242557525634766e+01 2.636197566986083984e+00 -3.508519887924194336e+00
4.751000000000000000e+03 6.939649200439453125e+01 -1.807144403457641602e+00 -5.827615261077880859e-01 6.540713310241699219e+00 1.787385463714599609e+00 -3.641839027404785156e+00
4.752000000000000000e+03 6.957920074462890625e+01 -1.647988796234130859e+00 -7.768051624298095703e-01 7.156166553497314453e+00 1.913808465003967285e+00 -3.576858758926391602e+00
4.753000000000000000e+03 7.426637268066406250e+01 -1.596478939056396484e+01 -8.784601092338562012e-01 8.823055267333984375e+00 2.383378744125366211e+00 2.359287589788436890e-01
4.754000000000000000e+03 7.494350433349609375e+01 -1.114297389984130859e+01 -8.851234316825866699e-01 1.096099090576171875e+01 3.022760152816772461e+00 -1.328598022460937500e+00
4.755000000000000000e+03 2.274632644653320312e+01 -1.108088970184326172e+01 -3.789071738719940186e-01 -4.022909328341484070e-03 -1.148790270090103149e-01 -2.428016662597656250e-01
4.756000000000000000e+03 2.235988807678222656e+01 -1.152812862396240234e+01 -3.694557249546051025e-01 -9.203176014125347137e-03 -1.135976687073707581e-01 -2.528176009654998779e-01
4.757000000000000000e+03 2.634829521179199219e+01 -6.723331809043884277e-01 -3.361161351203918457e-01 -1.216371208429336548e-01 -1.373259723186492920e-01 3.922921717166900635e-01
4.758000000000000000e+03 7.396662139892578125e+01 2.374245882034301758e+00 -1.095717072486877441e+00 9.037081718444824219e+00 2.382409572601318359e+00 -3.150604665279388428e-01
4.759000000000000000e+03 4.730029296875000000e+01 2.283695220947265625e+01 6.118624806404113770e-01 1.026340007781982422e+00 4.914607703685760498e-01 3.241464868187904358e-02
4.760000000000000000e+03 7.369869232177734375e+01 -1.142002391815185547e+01 -1.474124908447265625e+00 1.156067943572998047e+01 3.025966405868530273e+00 -4.065805971622467041e-01
4.761000000000000000e+03 7.451025390625000000e+01 -1.162561798095703125e+01 -1.198481678962707520e+00 1.098350238800048828e+01 2.935506343841552734e+00 -8.629934787750244141e-01
4.762000000000000000e+03 7.412466430664062500e+01 -1.148182010650634766e+01 -1.341958642005920410e+00 1.135482597351074219e+01 3.003860235214233398e+00 -6.845618486404418945e-01
4.763000000000000000e+03 6.409992980957031250e+01 -1.325133609771728516e+01 -2.303475588560104370e-01 1.587394118309020996e+00 4.071139693260192871e-01 1.254428505897521973e+00
4.764000000000000000e+03 2.903678321838378906e+01 -1.972467803955078125e+01 -1.814106553792953491e-01 -1.256435960531234741e-01 -9.211627393960952759e-02 -4.714938104152679443e-01
4.765000000000000000e+03 2.944535446166992188e+01 -2.110018348693847656e+01 -1.101417988538742065e-01 -1.433243155479431152e-01 -7.603983581066131592e-02 -4.697487950325012207e-01
4.766000000000000000e+03 5.871086883544921875e+01 -5.975388288497924805e-01 -1.373142123222351074e+00 2.294651865959167480e-01 -3.431030809879302979e-01 2.513511851429939270e-02
4.767000000000000000e+03 6.074732971191406250e+01 -2.343995666503906250e+01 5.537725090980529785e-01 2.268305063247680664e+00 8.466233015060424805e-01 6.847788691520690918e-01
4.768000000000000000e+03 6.997004699707031250e+01 -1.125872898101806641e+01 -9.812907576560974121e-01 8.005862236022949219e+00 2.107371568679809570e+00 3.429934024810791016e+00
4.769000000000000000e+03 6.870235443115234375e+01 -4.075074195861816406e-01 -5.633767843246459961e-01 5.428413391113281250e+00 1.459510922431945801e+00 -2.948568344116210938e+00
4.770000000000000000e+03 7.420779418945312500e+01 -1.189997386932373047e+01 -1.349341392517089844e+00 1.097311973571777344e+01 2.887133598327636719e+00 -5.967952013015747070e-01
4.771000000000000000e+03 6.977300262451171875e+01 -1.834950566291809082e+00 -8.590903878211975098e-01 7.674173355102539062e+00 2.044524908065795898e+00 -3.632769823074340820e+00
4.772000000000000000e+03 7.464716339111328125e+01 -2.574476623535156250e+01 1.736414991319179535e-02 7.312295436859130859e+00 2.198897838592529297e+00 6.110993027687072754e-01
4.773000000000000000e+03 6.973191833496093750e+01 -1.445667266845703125e+00 -8.710074424743652344e-01 7.396263122558593750e+00 1.957576632499694824e+00 -3.460718154907226562e+00
4.774000000000000000e+03 7.527755737304687500e+01 -2.812167406082153320e+00 -1.055143997073173523e-01 1.095159339904785156e+01 3.253823518753051758e+00 1.840542197227478027e+00
4.775000000000000000e+03 2.850391578674316406e+01 1.205550861358642578e+01 -3.278121054172515869e-01 -2.349007874727249146e-01 -1.688138693571090698e-01 6.351602673530578613e-01
4.776000000000000000e+03 2.960503196716308594e+01 1.276976680755615234e+01 -2.931991815567016602e-01 -1.883157640695571899e-01 -1.444544792175292969e-01 6.199551224708557129e-01
4.777000000000000000e+03 6.558795166015625000e+01 -1.337161540985107422e+01 -1.270481646060943604e-01 2.473218679428100586e+00 7.038511633872985840e-01 1.766008496284484863e+00
4.778000000000000000e+03 7.102664947509765625e+01 1.682309722900390625e+01 1.709697544574737549e-01 5.731707096099853516e+00 1.770803093910217285e+00 -8.596551418304443359e-01
4.779000000000000000e+03 6.584175872802734375e+01 3.592803180217742920e-01 -2.353452742099761963e-01 2.528654575347900391e+00 6.879927515983581543e-01 -1.928014636039733887e+00
4.780000000000000000e+03 7.296313476562500000e+01 -1.095254197716712952e-01 -1.671515464782714844e+00 1.043799495697021484e+01 2.629943847656250000e+00 -6.023273468017578125e-01
4.781000000000000000e+03 6.974654388427734375e+01 -7.166643738746643066e-01 -9.881725907325744629e-01 7.299204349517822266e+00 1.893309473991394043e+00 -3.045804023742675781e+00
4.782000000000000000e+03 5.833135604858398438e+01 -2.092485618591308594e+01 4.414773285388946533e-01 1.400137305259704590e+00 5.524843931198120117e-01 3.957786262035369873e-01
4.783000000000000000e+03 6.992699432373046875e+01 -1.320275187492370605e+00 -1.006207227706909180e+00 7.826434135437011719e+00 2.046067953109741211e+00 -3.332295179367065430e+00
4.784000000000000000e+03 7.012878417968750000e+01 -9.814582467079162598e-01 -1.153899908065795898e+00 8.017867088317871094e+00 2.059190273284912109e+00 -3.028963327407836914e+00
4.785000000000000000e+03 7.017442321777343750e+01 -1.255905270576477051e+00 -1.148270726203918457e+00 8.269529342651367188e+00 2.136377573013305664e+00 -3.172946453094482422e+00
4.786000000000000000e+03 6.954686737060546875e+01 -1.234255671501159668e+00 -8.042257428169250488e-01 6.948639869689941406e+00 1.843324303627014160e+00 -3.363481521606445312e+00
4.787000000000000000e+03 2.814590454101562500e+01 -5.016955137252807617e-01 -4.381130039691925049e-01 -8.629992604255676270e-02 -1.573238819837570190e-01 4.407665431499481201e-01
4.788000000000000000e+03 6.828000640869140625e+01 4.162721633911132812e-01 -5.243902802467346191e-01 5.073295116424560547e+00 1.364671349525451660e+00 -2.648803234100341797e+00
4.789000000000000000e+03 5.785033416748046875e+01 -1.814093017578125000e+01 1.114818602800369263e-01 9.293937683105468750e-01 3.122626841068267822e-01 2.444943934679031372e-01
4.790000000000000000e+03 3.025087165832519531e+01 1.184957504272460938e+01 -2.897103726863861084e-01 -1.595814377069473267e-01 -1.347875446081161499e-01 6.538805961608886719e-01
4.791000000000000000e+03 6.983634185791015625e+01 9.823784828186035156e-01 -9.855419397354125977e-01 6.936421871185302734e+00 1.785264015197753906e+00 -2.365705251693725586e+00
4.792000000000000000e+03 7.041374206542968750e+01 -1.069340705871582031e+00 -1.268355965614318848e+00 8.535162925720214844e+00 2.180042266845703125e+00 -2.956004619598388672e+00
4.793000000000000000e+03 5.974690628051757812e+01 1.020729351043701172e+01 4.094234406948089600e-01 1.993751406669616699e+00 7.209524512290954590e-01 -7.170749902725219727e-01
4.794000000000000000e+03 7.324545288085937500e+01 -1.380802154541015625e+01 -1.451706290245056152e+00 9.666603088378906250e+00 2.464468955993652344e+00 5.049216747283935547e-01
4.795000000000000000e+03 4.239157104492187500e+01 9.854264259338378906e+00 -1.295708268880844116e-01 1.759511977434158325e-01 1.391411013901233673e-02 5.799245834350585938e-01
4.796000000000000000e+03 3.125637626647949219e+01 -3.968096971511840820e-01 -6.079679727554321289e-01 -3.996634855866432190e-02 -1.943802833557128906e-01 5.002326965332031250e-01
4.797000000000000000e+03 3.160600090026855469e+01 1.248569786548614502e-02 -6.141539812088012695e-01 -4.286587610840797424e-02 -1.971059590578079224e-01 5.289752483367919922e-01
4.798000000000000000e+03 7.053463745117187500e+01 -6.742329001426696777e-01 -1.330520868301391602e+00 8.539846420288085938e+00 2.162797689437866211e+00 -2.745410442352294922e+00
4.799000000000000000e+03 5.453479385375976562e+01 1.316062259674072266e+01 4.730729460716247559e-01 1.290974378585815430e+00 5.292142033576965332e-01 -2.296774685382843018e-01
4.800000000000000000e+03 5.398765182495117188e+01 1.138199234008789062e+01 3.545562624931335449e-01 1.030749320983886719e+00 4.155916869640350342e-01 -1.329109519720077515e-01
4.801000000000000000e+03 7.096458435058593750e+01 -2.176270782947540283e-01 -1.467955470085144043e+00 8.945615768432617188e+00 2.243298292160034180e+00 -2.280900239944458008e+00
4.802000000000000000e+03 5.887306976318359375e+01 -1.634447288513183594e+01 -1.110031381249427795e-01 8.535039424896240234e-01 2.227502465248107910e-01 3.077790439128875732e-01
4.803000000000000000e+03 3.213004302978515625e+01 4.932241916656494141e+00 -4.939024448394775391e-01 -7.744951546192169189e-02 -1.714055836200714111e-01 7.009492516517639160e-01
4.804000000000000000e+03 7.280032348632812500e+01 -1.564624786376953125e+01 -1.079776287078857422e+00 8.545128822326660156e+00 2.239605665206909180e+00 8.191456198692321777e-01
4.805000000000000000e+03 4.157462310791015625e+01 7.711041450500488281e+00 -3.152897059917449951e-01 1.034845262765884399e-01 -6.354155391454696655e-02 6.456856131553649902e-01
4.806000000000000000e+03 6.259139251708984375e+01 -1.609673881530761719e+01 5.314448848366737366e-02 1.785159707069396973e+00 5.514912605285644531e-01 9.762996435165405273e-01
4.807000000000000000e+03 5.909210968017578125e+01 3.029247522354125977e+00 -3.204664885997772217e-01 7.972660064697265625e-01 1.430398523807525635e-01 -3.787650763988494873e-01
4.808000000000000000e+03 4.466489791870117188e+01 9.815400123596191406e+00 -6.488908827304840088e-02 2.537522017955780029e-01 5.665893107652664185e-02 5.029948353767395020e-01
4.809000000000000000e+03 5.815605926513671875e+01 -1.619134330749511719e+01 -1.897046864032745361e-01 6.941065192222595215e-01 1.513205468654632568e-01 1.772788614034652710e-01
4.810000000000000000e+03 6.088293457031250000e+01 -1.638941955566406250e+01 1.484965998679399490e-02 1.281968593597412109e+00 3.890454769134521484e-01 6.566237807273864746e-01
4.811000000000000000e+03 4.192512512207031250e+01 5.210211277008056641e+00 -5.438508391380310059e-01 6.166030466556549072e-02 -1.446571499109268188e-01 6.632916331291198730e-01
4.812000000000000000e+03 3.202052688598632812e+01 4.140255928039550781e+00 -5.168976783752441406e-01 -7.607842236757278442e-02 -1.778928339481353760e-01 6.880915164947509766e-01
4.813000000000000000e+03 5.069829177856445312e+01 -1.633609008789062500e+01 -5.020266771316528320e-01 1.171259284019470215e-01 -1.154702231287956238e-01 -4.067139029502868652e-01
4.814000000000000000e+03 6.504370117187500000e+01 5.179575920104980469e+00 4.304029420018196106e-02 3.270003318786621094e+00 9.939130544662475586e-01 -1.497929453849792480e+00
4.815000000000000000e+03 6.059001922607421875e+01 7.049875736236572266e+00 2.400953918695449829e-01 1.810628294944763184e+00 6.152171492576599121e-01 -8.064683675765991211e-01
4.816000000000000000e+03 6.093818664550781250e+01 7.943362236022949219e+00 2.971177697181701660e-01 2.045449018478393555e+00 7.027700543403625488e-01 -8.645499944686889648e-01
4.817000000000000000e+03 3.615402221679687500e+01 -1.296825027465820312e+01 -8.300345540046691895e-01 -5.244369059801101685e-02 -2.647434771060943604e-01 -4.319077730178833008e-01
4.818000000000000000e+03 6.909407806396484375e+01 -1.530967044830322266e+01 -5.954293608665466309e-01 5.947132587432861328e+00 1.605510950088500977e+00 2.028597116470336914e+00
4.819000000000000000e+03 5.488571548461914062e+01 2.832070827484130859e+00 -6.349955797195434570e-01 3.169111013412475586e-01 -9.542534500360488892e-02 1.515076160430908203e-01
4.820000000000000000e+03 6.512113952636718750e+01 7.050447940826416016e+00 1.256175935268402100e-01 3.473611354827880859e+00 1.079768657684326172e+00 -1.390342950820922852e+00
4.821000000000000000e+03 7.051131439208984375e+01 -1.695028686523437500e+01 -6.638120412826538086e-01 6.779420852661132812e+00 1.834682583808898926e+00 1.492420911788940430e+00
4.822000000000000000e+03 4.783974838256835938e+01 -1.244242858886718750e+01 -1.325780272483825684e+00 -7.964420132339000702e-03 -4.001234173774719238e-01 -4.666102230548858643e-01
4.823000000000000000e+03 3.780526733398437500e+01 5.512593269348144531e+00 -5.179818272590637207e-01 1.077739056199789047e-02 -1.521613299846649170e-01 7.088712453842163086e-01
4.824000000000000000e+03 6.892253875732421875e+01 5.600707530975341797e+00 -3.592745363712310791e-01 5.565088748931884766e+00 1.561744213104248047e+00 -1.624632358551025391e+00
4.825000000000000000e+03 6.833693695068359375e+01 -1.604511642456054688e+01 -4.006452560424804688e-01 5.265886783599853516e+00 1.459572553634643555e+00 1.948985576629638672e+00
4.826000000000000000e+03 4.859448242187500000e+01 -1.363151741027832031e+01 -1.066698431968688965e+00 8.898573927581310272e-03 -3.173399567604064941e-01 -4.871459305286407471e-01
4.827000000000000000e+03 4.222826766967773438e+01 -1.352489566802978516e+01 -9.677363634109497070e-01 -4.120006039738655090e-02 -3.026809096336364746e-01 -4.943715333938598633e-01
4.828000000000000000e+03 6.163972091674804688e+01 7.441269874572753906e+00 2.648529112339019775e-01 2.192736864089965820e+00 7.372769713401794434e-01 -9.511494636535644531e-01
4.829000000000000000e+03 3.338281631469726562e+01 1.413906812667846680e+00 -6.546204686164855957e-01 -3.291528671979904175e-02 -2.062607258558273315e-01 6.143216490745544434e-01
4.830000000000000000e+03 5.809125518798828125e+01 5.308035850524902344e+00 -3.740360960364341736e-02 9.747351408004760742e-01 2.811994552612304688e-01 -3.653830885887145996e-01
4.831000000000000000e+03 5.864312362670898438e+01 3.386903762817382812e+00 -2.838703691959381104e-01 8.110371828079223633e-01 1.581500470638275146e-01 -3.260928094387054443e-01
4.832000000000000000e+03 5.302641677856445312e+01 -1.379718875885009766e+01 -1.018016099929809570e+00 7.749152928590774536e-02 -2.821573615074157715e-01 -3.799604177474975586e-01
4.833000000000000000e+03 3.396549224853515625e+01 2.357032060623168945e+00 -6.360002756118774414e-01 -3.131527453660964966e-02 -2.001946717500686646e-01 6.522720456123352051e-01
4.834000000000000000e+03 3.849727249145507812e+01 4.368415355682373047e+00 -6.108955144882202148e-01 1.197769865393638611e-02 -1.796753406524658203e-01 6.967949867248535156e-01
4.835000000000000000e+03 4.188080596923828125e+01 3.108432054519653320e+00 -7.767225503921508789e-01 2.970233932137489319e-02 -2.241060733795166016e-01 6.533549427986145020e-01
4.836000000000000000e+03 5.884724807739257812e+01 6.204722404479980469e+00 1.080663949251174927e-01 1.255702257156372070e+00 4.091306030750274658e-01 -5.167664885520935059e-01
4.837000000000000000e+03 4.699753570556640625e+01 2.689566612243652344e+00 -8.798912167549133301e-01 5.475531890988349915e-02 -2.475407719612121582e-01 5.559524297714233398e-01
4.838000000000000000e+03 4.853622055053710938e+01 2.969891548156738281e+00 -8.072462677955627441e-01 1.093898639082908630e-01 -2.093569338321685791e-01 5.084723234176635742e-01
4.839000000000000000e+03 5.436582183837890625e+01 4.500763416290283203e+00 -3.562351167201995850e-01 4.329173564910888672e-01 2.300466969609260559e-02 1.099057495594024658e-01
4.840000000000000000e+03 5.350996017456054688e+01 4.307397842407226562e+00 -4.338633418083190918e-01 3.561311662197113037e-01 -2.331964857876300812e-02 1.985682994127273560e-01
4.841000000000000000e+03 3.795104598999023438e+01 3.814605712890625000e+00 -6.464582085609436035e-01 5.777774844318628311e-03 -1.922041177749633789e-01 6.938641667366027832e-01
4.842000000000000000e+03 4.827119064331054688e+01 4.105951309204101562e+00 -6.219785809516906738e-01 1.415821015834808350e-01 -1.441189348697662354e-01 5.007349252700805664e-01
4.843000000000000000e+03 4.809743881225585938e+01 5.698728084564208984e+00 -4.075379669666290283e-01 1.939602643251419067e-01 -6.407330930233001709e-02 4.732544124126434326e-01
4.844000000000000000e+03 4.877694320678710938e+01 6.362421989440917969e+00 -2.917353212833404541e-01 2.454939484596252441e-01 -1.387241482734680176e-02 4.180512726306915283e-01
4.845000000000000000e+03 4.937807083129882812e+01 5.855915069580078125e+00 -3.326174914836883545e-01 2.596835792064666748e-01 -2.188017405569553375e-02 4.059332907199859619e-01
4.846000000000000000e+03 4.909445571899414062e+01 3.449499130249023438e+00 -7.130098938941955566e-01 1.362098455429077148e-01 -1.730400174856185913e-01 4.777304828166961670e-01
4.847000000000000000e+03 1.488040065765380859e+01 1.046121835708618164e+00 2.552354126237332821e-04 3.464191686362028122e-04 1.804963685572147369e-04 -8.333211553690489382e-06
4.848000000000000000e+03 1.433596038818359375e+01 8.109902739524841309e-01 1.915300235850736499e-04 -1.124276750488206744e-04 2.373070492467377335e-05 2.159659634344279766e-04
4.849000000000000000e+03 1.339948463439941406e+01 9.943951964378356934e-01 8.530467312084510922e-05 -5.925574077991768718e-05 7.814679520379286259e-06 -2.264593786094337702e-05
4.850000000000000000e+03 1.399857616424560547e+01 1.078236818313598633e+00 -1.175512516056187451e-04 -1.235343515872955322e-04 -7.232568168547004461e-05 -5.777186379418708384e-05
4.851000000000000000e+03 1.342517852783203125e+01 2.516243755817413330e-01 -1.674711711530108005e-05 5.540817437577061355e-05 1.159831663244403899e-05 3.852071131404954940e-06
4.852000000000000000e+03 1.503903388977050781e+01 3.840551078319549561e-01 -1.837509262259118259e-05 -2.961571044579613954e-05 -1.439724019292043522e-05 -3.053896944038569927e-05
4.853000000000000000e+03 1.424006271362304688e+01 2.423980534076690674e-01 -2.491847044439055026e-05 -4.870644715992966667e-06 -8.936734957387670875e-06 1.475989301980007440e-05
4.854000000000000000e+03 1.447602939605712891e+01 1.142013788223266602e+00 1.285284233745187521e-04 -6.251077138585969806e-05 1.980529668799135834e-05 2.376307202212046832e-05
4.855000000000000000e+03 1.113503360748291016e+01 3.384475409984588623e-01 -9.344345744466409087e-05 -1.844210200943052769e-04 -8.335934398928657174e-05 1.029974373523145914e-05
4.856000000000000000e+03 1.115649890899658203e+01 1.078244447708129883e+00 -1.397724845446646214e-04 1.287227787543088198e-04 -3.314913101348793134e-06 -1.408178068231791258e-04
4.857000000000000000e+03 1.038435840606689453e+01 3.729175329208374023e-01 -1.614733046153560281e-04 1.881122734630480409e-04 7.991689017217140645e-06 -5.331267311703413725e-05
4.858000000000000000e+03 1.188578510284423828e+01 3.038018345832824707e-01 -7.014784205239266157e-05 1.703697053017094731e-04 3.006655970239080489e-05 -3.815273885265924037e-05
4.859000000000000000e+03 1.263660717010498047e+01 2.689834535121917725e-01 -9.922971003106795251e-06 -1.373803679598495364e-04 -4.419100150698795915e-05 -6.024204594723414630e-06
4.860000000000000000e+03 1.266393947601318359e+01 1.008509635925292969e+00 -7.671303319511935115e-05 5.186522685107775033e-05 -7.454343631252413616e-06 -9.903628961183130741e-05
4.861000000000000000e+03 1.040289020538330078e+01 1.112849831581115723e+00 -4.790015373146161437e-05 -1.108923897845670581e-04 -4.763776087202131748e-05 9.169767872663214803e-05
4.862000000000000000e+03 1.191018390655517578e+01 1.043463349342346191e+00 -3.560340701369568706e-05 -9.028082422446459532e-05 -3.776526864385232329e-05 1.346986300632124767e-05
4.863000000000000000e+03 9.630480766296386719e+00 3.871794641017913818e-01 -1.647759054321795702e-04 -1.521609374321997166e-04 -9.508104994893074036e-05 4.386579894344322383e-05
4.864000000000000000e+03 8.873666763305664062e+00 3.829238712787628174e-01 -2.195056877098977566e-04 9.421526920050382614e-05 -3.758712773560546339e-05 -8.000885281944647431e-05
4.865000000000000000e+03 9.660673141479492188e+00 1.127179503440856934e+00 -1.792799739632755518e-04 8.485215948894619942e-05 -2.832834616128820926e-05 -2.158471761504188180e-04
4.866000000000000000e+03 8.116720199584960938e+00 3.805542886257171631e-01 -2.083943836623802781e-04 -1.712177254376001656e-05 -6.765484431525692344e-05 6.959730671951547265e-05
4.867000000000000000e+03 7.360193252563476562e+00 3.795430362224578857e-01 -2.545533061493188143e-04 -5.233773481450043619e-05 -9.206731192534789443e-05 -8.788497507339343429e-05
4.868000000000000000e+03 5.847065925598144531e+00 3.768712580204010010e-01 -2.491812338121235371e-04 -1.598740927875041962e-04 -1.227165921591222286e-04 -8.664069900987669826e-05
4.869000000000000000e+03 5.091114044189453125e+00 3.758820295333862305e-01 -1.763781619956716895e-04 1.908394478959962726e-04 4.338385679147904739e-06 1.098906868719495833e-04
4.870000000000000000e+03 3.579006433486938477e+00 3.681437373161315918e-01 -9.889766079140827060e-05 1.923080708365887403e-04 2.802312337735202163e-05 1.181514380732551217e-04
4.871000000000000000e+03 2.823871612548828125e+00 3.614119887351989746e-01 -1.137348153861239552e-04 -1.712013036012649536e-04 -8.548083860659971833e-05 -7.307777559617534280e-05
4.872000000000000000e+03 2.070111274719238281e+00 3.578882515430450439e-01 -1.597579830558970571e-05 1.360013557132333517e-04 3.600767013267613947e-05 1.007221435429528356e-04
4.873000000000000000e+03 2.362852334976196289e+00 1.097888231277465820e+00 -6.286623101914301515e-05 -7.295142131624743342e-05 -4.074529715580865741e-05 -3.634251697803847492e-05
4.874000000000000000e+03 1.328713655471801758e+00 3.659794926643371582e-01 -4.250784695614129305e-05 -1.055751854437403381e-04 -4.442490899236872792e-05 -6.347364251269027591e-05
4.875000000000000000e+03 1.647709608078002930e+00 1.105979442596435547e+00 -3.158352410537190735e-05 1.628393147257156670e-05 -4.589877335092751309e-06 1.138879233621992171e-04
4.876000000000000000e+03 6.516475677490234375e-01 3.939257264137268066e-01 2.062807834590785205e-05 6.099716483731754124e-05 2.448757368256337941e-05 6.368362664943560958e-05
4.877000000000000000e+03 3.489431142807006836e-01 9.570703506469726562e-01 -5.265830623102374375e-05 -2.568953095760662109e-05 -2.350434988329652697e-05 1.475583758292486891e-05
4.878000000000000000e+03 3.090358018875122070e+00 1.101411938667297363e+00 -7.146479038055986166e-05 9.254574251826852560e-05 6.324286914605181664e-06 1.643646101001650095e-04
4.879000000000000000e+03 3.819237709045410156e+00 1.108143687248229980e+00 -1.370733516523614526e-04 -9.795546066015958786e-05 -7.050864223856478930e-05 -7.441995694534853101e-05
4.880000000000000000e+03 4.335169315338134766e+00 3.733847737312316895e-01 -1.991368335438892245e-04 -1.958796347025781870e-04 -1.185049404739402235e-04 -8.241229079430922866e-05
4.881000000000000000e+03 6.008533000946044922e+00 1.116871237754821777e+00 -1.304734032601118088e-04 1.135450147558003664e-04 -5.078517460788134485e-06 1.957287749974057078e-04
4.882000000000000000e+03 6.603851795196533203e+00 3.786112964153289795e-01 -2.159931900678202510e-04 1.200124970637261868e-04 -2.879421117540914565e-05 9.172341378871351480e-05
4.883000000000000000e+03 8.930113792419433594e+00 1.122923851013183594e+00 -1.016846508719027042e-04 -3.596879469114355743e-05 -4.129603257752023637e-05 1.697696134215220809e-04
4.884000000000000000e+03 8.199422836303710938e+00 1.120554327964782715e+00 -2.067188324872404337e-04 8.590008292230777442e-06 -5.943864744040183723e-05 -2.325698733329772949e-04
4.885000000000000000e+03 7.469150543212890625e+00 1.119543075561523438e+00 -1.282216835534200072e-04 5.328300539986230433e-05 -2.248160308226943016e-05 1.986387505894526839e-04
4.886000000000000000e+03 6.739063739776611328e+00 1.118611335754394531e+00 -2.099948324030265212e-04 -6.499467417597770691e-05 -8.249685197370126843e-05 -1.924403477460145950e-04
4.887000000000000000e+03 5.278835773468017578e+00 1.115882039070129395e+00 -1.899157650768756866e-04 -9.886657790048047900e-05 -8.663470362080261111e-05 -1.274648384423926473e-04
4.888000000000000000e+03 4.549146175384521484e+00 1.113384723663330078e+00 -1.029668346745893359e-04 1.212209244840778410e-04 5.476225851452909410e-06 1.876415626611560583e-04
4.889000000000000000e+03 9.968983530998229980e-01 1.133925795555114746e+00 9.876897820504382253e-06 -2.319415580132044852e-05 -3.995177394244819880e-06 -5.880228491150774062e-05
4.890000000000000000e+03 7.947246074676513672e+00 -3.790149092674255371e-01 -4.421094854478724301e-05 1.339424052275717258e-04 2.691943518584594131e-05 1.126325787481619045e-05
4.891000000000000000e+03 8.798082351684570312e+00 -1.121163964271545410e+00 -7.106552857294445857e-06 1.165706562460400164e-04 3.283923069830052555e-05 4.915760655421763659e-05
4.892000000000000000e+03 9.582462310791015625e+00 -3.862577378749847412e-01 -2.450791907904203981e-05 1.396332809235900640e-04 3.453761019045487046e-05 1.121983677876414731e-05
4.893000000000000000e+03 7.128131389617919922e+00 -3.778152763843536377e-01 -7.219140388770028949e-05 -1.166547299362719059e-04 -5.665384014719165862e-05 -5.494876859302166849e-06
4.894000000000000000e+03 6.302709579467773438e+00 -3.771458566188812256e-01 -6.447930354624986649e-05 9.252089512301608920e-05 8.412477654928807169e-06 1.681211142567917705e-05
4.895000000000000000e+03 5.439445972442626953e+00 -3.834656774997711182e-01 -6.283676339080557227e-05 -5.240813334239646792e-05 -3.457346974755637348e-05 -3.424188253120519221e-05
4.896000000000000000e+03 4.549984931945800781e+00 -3.402172923088073730e-01 -2.340250102861318737e-05 2.496885099390055984e-05 4.699052738033060450e-07 2.294330079166684300e-05
4.897000000000000000e+03 4.365737915039062500e+00 -8.721476197242736816e-01 -1.880411437014117837e-04 1.438198978576110676e-05 -5.209774826653301716e-05 -6.552363629452884197e-05
4.898000000000000000e+03 2.784216165542602539e+00 -7.810403704643249512e-01 -9.337912342743948102e-05 3.097694207099266350e-05 -1.872065513452980667e-05 -1.053612213581800461e-04
4.899000000000000000e+03 1.180924773216247559e+00 -3.613742887973785400e-01 4.930781506118364632e-05 -1.373585837427526712e-05 1.067158700607251376e-05 1.441761014575604349e-05
4.900000000000000000e+03 4.100910127162933350e-01 -5.529776215553283691e-01 -6.374679287546314299e-06 1.781376568033010699e-06 -1.377990770379255991e-06 -2.886836227844469249e-06
4.901000000000000000e+03 7.475960254669189453e-01 -1.101374268531799316e+00 -1.695592363830655813e-04 1.918284033308736980e-05 -4.511291990638710558e-05 -2.390963891230057925e-05
4.902000000000000000e+03 9.582078933715820312e+00 -1.126257777214050293e+00 -4.640695260604843497e-05 -1.217762910528108478e-04 -5.045497164246626198e-05 -1.067933681042632088e-05
4.903000000000000000e+03 8.013586997985839844e+00 -1.119014978408813477e+00 -6.574124563485383987e-05 -1.032965155900456011e-04 -5.071132909506559372e-05 -3.156117963953875005e-05
4.904000000000000000e+03 7.227835178375244141e+00 -1.117815256118774414e+00 -2.467225931468419731e-05 9.528040391160175204e-05 2.118244265147950500e-05 5.629786755889654160e-05
4.905000000000000000e+03 6.435775756835937500e+00 -1.117145895957946777e+00 -4.814993371837772429e-05 -7.185375579865649343e-05 -3.600110721890814602e-05 -5.526039967662654817e-05
4.906000000000000000e+03 5.605874538421630859e+00 -1.123465657234191895e+00 -7.498102058889344335e-05 5.951301864115521312e-05 -4.640401584765641019e-06 6.557281449204310775e-05
4.907000000000000000e+03 4.870606899261474609e+00 -1.221678614616394043e+00 4.900426938547752798e-05 -3.513220872264355421e-05 4.161618107900721952e-06 -7.175745849963277578e-05
4.908000000000000000e+03 4.215381145477294922e+00 -1.291930317878723145e+00 4.820499088964425027e-05 -1.290356522076763213e-05 1.059042824635980651e-05 9.235320612788200378e-05
4.909000000000000000e+03 3.483533143997192383e+00 -1.264367222785949707e+00 -1.579199160914868116e-04 2.089676127070561051e-05 -4.110694499104283750e-05 -1.620988768991082907e-04
4.910000000000000000e+03 2.720056772232055664e+00 -1.259521603584289551e+00 9.489590593148022890e-05 -4.683837744323682273e-07 2.832825521181803197e-05 1.232352515216916800e-04
4.911000000000000000e+03 1.356012225151062012e+00 -1.203287243843078613e+00 2.155138936359435320e-04 -8.302504284074530005e-06 6.216341716935858130e-05 1.457119014958152547e-05
4.912000000000000000e+03 1.973117947578430176e+00 -8.476541042327880859e-01 -5.122313450556248426e-05 -2.677615520951803774e-05 -2.339978709642309695e-05 9.585129737388342619e-05
4.913000000000000000e+03 8.765102386474609375e+00 -3.811639845371246338e-01 -5.574220995185896754e-05 -1.416709274053573608e-04 -5.922394484514370561e-05 -2.722405724853160791e-06
4.914000000000000000e+03 3.694828748703002930e+00 -2.827752828598022461e-01 -6.765600119251757860e-05 -2.372433300479315221e-05 -2.741410025919321924e-05 -2.811662670865189284e-05
4.915000000000000000e+03 2.863922595977783203e+00 -2.815187871456146240e-01 -2.505180418665986508e-06 2.392984242760576308e-05 6.427398602681932971e-06 2.113601476594340056e-05
4.916000000000000000e+03 1.994147539138793945e+00 -3.323310017585754395e-01 -2.874410165532026440e-05 -1.445709585823351517e-05 -1.296035861741984263e-05 -4.161317701800726354e-05
4.917000000000000000e+03 1.978801369667053223e+00 -1.275323033332824707e+00 -1.401273184455931187e-04 -3.660950460471212864e-05 -5.302104909787885845e-05 -1.304087636526674032e-04
4.918000000000000000e+03 3.578665971755981445e+00 -7.871425151824951172e-01 4.353969052317552269e-05 -3.962186838180059567e-06 1.187325051432708278e-05 6.850647332612425089e-05
4.919000000000000000e+03 1.511178874969482422e+01 -1.151870131492614746e+00 -4.415975490701384842e-05 -3.526311047608032823e-05 -2.382685852353461087e-05 -7.775128324283286929e-06
4.920000000000000000e+03 1.328532791137695312e+01 -1.267471551895141602e+00 2.878153100027702749e-05 5.610369044006802142e-05 2.546556606830563396e-05 2.729197694861795753e-05
4.921000000000000000e+03 1.480503654479980469e+01 -5.744030475616455078e-01 2.505240627215243876e-05 -8.422743121627718210e-06 4.988898581359535456e-06 2.050822149612940848e-05
4.922000000000000000e+03 1.453040313720703125e+01 -1.313965797424316406e+00 -1.463304579374380410e-05 7.743637252133339643e-05 1.884099765447899699e-05 -1.846983832365367562e-05
4.923000000000000000e+03 1.393833351135253906e+01 -1.278923630714416504e+00 -7.970714250404853374e-06 -5.763982335338369012e-05 -1.968316064449027181e-05 -7.250846920214826241e-06
4.924000000000000000e+03 1.336329460144042969e+01 -5.279909372329711914e-01 -1.095536026696208864e-05 -7.648888276889920235e-05 -2.623327236506156623e-05 -1.448256443836726248e-05
4.925000000000000000e+03 1.411463356018066406e+01 -5.394020080566406250e-01 7.395105967589188367e-06 5.773311568191275001e-05 1.953846549440640956e-05 8.331248864124063402e-06
4.926000000000000000e+03 1.111242771148681641e+01 -4.403275847434997559e-01 -3.743038632819661871e-06 1.134218691731803119e-04 3.290364838903769851e-05 6.573955943167675287e-06
4.927000000000000000e+03 1.260764503479003906e+01 -5.095726251602172852e-01 1.292699380428530276e-05 8.088022150332108140e-05 2.814216531987767667e-05 1.283613346458878368e-05
4.928000000000000000e+03 1.185993289947509766e+01 -4.741277396678924561e-01 -2.065469379886053503e-05 -9.424136078450828791e-05 -3.446881601121276617e-05 -9.434398293706180993e-07
4.929000000000000000e+03 1.109096240997314453e+01 -1.180124521255493164e+00 -4.108634311705827713e-05 -1.158036393462680280e-04 -4.706699473899789155e-05 1.213859286508522928e-05
4.930000000000000000e+03 1.036482620239257812e+01 -4.067706167697906494e-01 -3.233758980059064925e-05 -1.370333047816529870e-04 -5.081126801087521017e-05 2.235857436971855350e-06
4.931000000000000000e+03 1.034629440307617188e+01 -1.146702885627746582e+00 3.096346972597530112e-06 1.257855619769543409e-04 3.866457336698658764e-05 2.324314300494734198e-05
4.932000000000000000e+03 1.258031177520751953e+01 -1.249099493026733398e+00 -4.914173405268229544e-05 -7.062132499413564801e-05 -3.592891880543902516e-05 -1.185361816169461235e-05
4.933000000000000000e+03 1.183553314208984375e+01 -1.213789224624633789e+00 3.799609112320467830e-05 8.667410293128341436e-05 3.740105967153795063e-05 1.287361556023824960e-05
4.934000000000000000e+03 7.101589202880859375e+01 -6.404392719268798828e+00 3.221287155151367188e+01 6.372863292694091797e+00 1.157572078704833984e+01 1.230356025695800781e+01
4.935000000000000000e+03 7.101980590820312500e+01 -6.423464775085449219e+00 2.937518882751464844e+01 1.884896278381347656e+01 1.446724605560302734e+01 2.360686683654785156e+01
4.936000000000000000e+03 7.102735137939453125e+01 -6.441411018371582031e+00 2.692477607727050781e+01 3.109938812255859375e+01 1.740724945068359375e+01 2.753552055358886719e+01
4.937000000000000000e+03 7.103824615478515625e+01 -6.457544803619384766e+00 2.287581443786621094e+01 4.355493927001953125e+01 1.992922592163085938e+01 2.867252731323242188e+01
4.938000000000000000e+03 7.105207061767578125e+01 -6.471248626708984375e+00 1.942984580993652344e+01 5.503640747070312500e+01 2.233987617492675781e+01 2.671069335937500000e+01
4.939000000000000000e+03 7.106829833984375000e+01 -6.481997966766357422e+00 1.612423896789550781e+01 6.480737304687500000e+01 2.427948379516601562e+01 2.225457000732421875e+01
4.940000000000000000e+03 7.108631134033203125e+01 -6.489382266998291016e+00 1.444891929626464844e+01 7.188339233398437500e+01 2.589969444274902344e+01 1.597598552703857422e+01
4.941000000000000000e+03 7.110542297363281250e+01 -6.493117809295654297e+00 1.450655269622802734e+01 7.583447265625000000e+01 2.710230827331542969e+01 8.613071441650390625e+00
4.942000000000000000e+03 7.112489318847656250e+01 -6.493062496185302734e+00 1.666399574279785156e+01 7.652618408203125000e+01 2.795705413818359375e+01 1.403949379920959473e+00
4.943000000000000000e+03 7.114397430419921875e+01 -6.489218235015869141e+00 2.063108062744140625e+01 7.431037902832031250e+01 2.848243713378906250e+01 -4.837588310241699219e+00
4.944000000000000000e+03 7.116194915771484375e+01 -6.481731891632080078e+00 2.578043746948242188e+01 7.000701141357421875e+01 2.873623657226562500e+01 -9.216707229614257812e+00
4.945000000000000000e+03 7.117811584472656250e+01 -6.470890045166015625e+00 3.145290946960449219e+01 6.453113555908203125e+01 2.879521369934082031e+01 -1.143329620361328125e+01
4.946000000000000000e+03 7.119186401367187500e+01 -6.457108020782470703e+00 3.686329269409179688e+01 5.897384262084960938e+01 2.875114059448242188e+01 -1.143837451934814453e+01
4.947000000000000000e+03 7.120266723632812500e+01 -6.440912723541259766e+00 4.132024765014648438e+01 5.401461791992187500e+01 2.860046005249023438e+01 -9.585677146911621094e+00
4.948000000000000000e+03 7.121011352539062500e+01 -6.422924041748046875e+00 4.451662063598632812e+01 5.052956771850585938e+01 2.851385498046875000e+01 -6.323428630828857422e+00
4.949000000000000000e+03 7.121391296386718750e+01 -6.403830051422119141e+00 4.615478515625000000e+01 4.863118362426757812e+01 2.843579101562500000e+01 -2.196484327316284180e+00
4.950000000000000000e+03 7.121392059326171875e+01 -6.384361743927001953e+00 4.615005111694335938e+01 4.860255050659179688e+01 2.842578125000000000e+01 2.167037963867187500e+00
4.951000000000000000e+03 7.121014404296875000e+01 -6.365264415740966797e+00 4.453651809692382812e+01 5.050419616699218750e+01 2.851221275329589844e+01 6.281947612762451172e+00
4.952000000000000000e+03 7.120271301269531250e+01 -6.347268104553222656e+00 4.135879898071289062e+01 5.400933837890625000e+01 2.861044120788574219e+01 9.549959182739257812e+00
4.953000000000000000e+03 7.119192504882812500e+01 -6.331062316894531250e+00 3.688491058349609375e+01 5.894644165039062500e+01 2.874940681457519531e+01 1.142341613769531250e+01
4.954000000000000000e+03 7.117819213867187500e+01 -6.317266464233398438e+00 3.148987579345703125e+01 6.449282073974609375e+01 2.879480743408203125e+01 1.143048191070556641e+01
4.955000000000000000e+03 7.116203308105468750e+01 -6.306408882141113281e+00 2.584684181213378906e+01 6.998635864257812500e+01 2.874995803833007812e+01 9.221849441528320312e+00
4.956000000000000000e+03 7.114407348632812500e+01 -6.298904895782470703e+00 2.065679931640625000e+01 7.430480194091796875e+01 2.848848152160644531e+01 4.844357013702392578e+00
4.957000000000000000e+03 7.112498474121093750e+01 -6.295042037963867188e+00 1.671164321899414062e+01 7.653804779052734375e+01 2.797490692138671875e+01 -1.369349956512451172e+00
4.958000000000000000e+03 7.110552215576171875e+01 -6.294967651367187500e+00 1.451564979553222656e+01 7.585516357421875000e+01 2.711124420166015625e+01 -8.595872879028320312e+00
4.959000000000000000e+03 7.108641052246093750e+01 -6.298684597015380859e+00 1.451537609100341797e+01 7.195838165283203125e+01 2.594212722778320312e+01 -1.595170211791992188e+01
4.960000000000000000e+03 7.106838989257812500e+01 -6.306050777435302734e+00 1.609825897216796875e+01 6.484217071533203125e+01 2.428212928771972656e+01 -2.226770019531250000e+01
4.961000000000000000e+03 7.105214691162109375e+01 -6.316784381866455078e+00 1.947055435180664062e+01 5.514990234375000000e+01 2.238613700866699219e+01 -2.670971870422363281e+01
4.962000000000000000e+03 7.103830718994140625e+01 -6.330474853515625000e+00 2.293299484252929688e+01 4.363909912109375000e+01 1.997162818908691406e+01 -2.869317245483398438e+01
4.963000000000000000e+03 7.102739715576171875e+01 -6.346597671508789062e+00 2.696534156799316406e+01 3.113231468200683594e+01 1.742929649353027344e+01 -2.758539009094238281e+01
4.964000000000000000e+03 7.101982879638671875e+01 -6.364536762237548828e+00 2.947291946411132812e+01 1.895914840698242188e+01 1.452962017059326172e+01 -2.365578079223632812e+01
4.965000000000000000e+03 7.101590728759765625e+01 -6.383604526519775391e+00 3.233541870117187500e+01 6.389446258544921875e+00 1.161745929718017578e+01 -1.233697700500488281e+01
