# el_label, x, y, sXX, sYY, sZZ, sXY
1.000000000000000000e+00 9.702937126159667969e+00 -2.983934059739112854e-02 1.898492336273193359e+00 -2.353150367736816406e+00 -1.363973766565322876e-01 -2.093498229980468750e+00
2.000000000000000000e+00 9.504896163940429688e+00 -4.973223432898521423e-02 4.865607738494873047e+00 9.814733266830444336e-01 1.754124283790588379e+00 9.061611890792846680e-01
3.000000000000000000e+00 9.306854248046875000e+00 -6.962513178586959839e-02 3.354428291320800781e+00 -4.392671585083007812e-01 8.745483160018920898e-01 1.808310896158218384e-01
4.000000000000000000e+00 9.108813285827636719e+00 -8.951802551746368408e-02 2.785847663879394531e+00 2.528607249259948730e-01 9.116125106811523438e-01 3.460521697998046875e-01
5.000000000000000000e+00 9.714455604553222656e+00 -8.718428760766983032e-02 1.454354763031005859e+01 -2.000660896301269531e+00 3.762866020202636719e+00 2.125670909881591797e+00
6.000000000000000000e+00 9.524093627929687500e+00 -1.453071534633636475e-01 7.596236705780029297e+00 2.964114546775817871e-01 2.367794513702392578e+00 1.534211635589599609e+00
7.000000000000000000e+00 9.333730697631835938e+00 -2.034300118684768677e-01 6.951111316680908203e+00 8.798029422760009766e-01 2.349274158477783203e+00 2.135814666748046875e+00
8.000000000000000000e+00 9.143367767333984375e+00 -2.615528702735900879e-01 5.433106422424316406e+00 9.265255928039550781e-02 1.657727718353271484e+00 1.499135851860046387e+00
9.000000000000000000e+00 9.736933708190917969e+00 -1.411830335855484009e-01 1.829258346557617188e+01 2.264771699905395508e+00 6.167206764221191406e+00 8.314252853393554688e+00
1.000000000000000000e+01 9.561555862426757812e+00 -2.353050708770751953e-01 1.205029773712158203e+01 1.574688434600830078e+00 4.087495803833007812e+00 4.871119022369384766e+00
1.100000000000000000e+01 9.386178970336914062e+00 -3.294270932674407959e-01 8.694593429565429688e+00 1.806885600090026855e+00 3.150443553924560547e+00 3.941469669342041016e+00
1.200000000000000000e+01 9.210802078247070312e+00 -4.235491156578063965e-01 7.491777896881103516e+00 1.796680927276611328e+00 2.786537647247314453e+00 3.721981763839721680e+00
1.300000000000000000e+01 9.769508361816406250e+00 -1.897630989551544189e-01 1.911614227294921875e+01 8.563834190368652344e+00 8.303993225097656250e+00 1.291402626037597656e+01
1.400000000000000000e+01 9.615847587585449219e+00 -3.162718117237091064e-01 1.282580375671386719e+01 5.200147151947021484e+00 5.407785415649414062e+00 8.420987129211425781e+00
1.500000000000000000e+01 9.462185859680175781e+00 -4.427805542945861816e-01 1.014962387084960938e+01 4.358406066894531250e+00 4.352408885955810547e+00 6.622112751007080078e+00
1.600000000000000000e+01 9.308525085449218750e+00 -5.692892670631408691e-01 8.056292533874511719e+00 3.714713096618652344e+00 3.531301736831665039e+00 5.649681091308593750e+00
1.700000000000000000e+01 9.810929298400878906e+00 -2.310599088668823242e-01 1.687899780273437500e+01 1.599134445190429688e+01 9.861102104187011719e+00 1.563968181610107422e+01
1.800000000000000000e+01 9.684882164001464844e+00 -3.850998580455780029e-01 1.235248184204101562e+01 1.038108348846435547e+01 6.820069789886474609e+00 1.085349178314208984e+01
1.900000000000000000e+01 9.558835029602050781e+00 -5.391398072242736816e-01 9.473518371582031250e+00 8.061096191406250000e+00 5.260384082794189453e+00 8.645513534545898438e+00
2.000000000000000000e+01 9.432787895202636719e+00 -6.931797266006469727e-01 7.812814712524414062e+00 6.994500637054443359e+00 4.442194461822509766e+00 7.407054424285888672e+00
2.100000000000000000e+01 9.859606742858886719e+00 -2.634885013103485107e-01 1.407954883575439453e+01 2.378899955749511719e+01 1.136056423187255859e+01 1.589417552947998047e+01
2.200000000000000000e+01 9.766011238098144531e+00 -4.391474723815917969e-01 1.031424808502197266e+01 1.592994403839111328e+01 7.873257637023925781e+00 1.168878746032714844e+01
2.300000000000000000e+01 9.672415733337402344e+00 -6.148064732551574707e-01 8.198941230773925781e+00 1.272496509552001953e+01 6.277171611785888672e+00 9.546322822570800781e+00
2.400000000000000000e+01 9.578820228576660156e+00 -7.904654741287231445e-01 6.411151409149169922e+00 1.068476772308349609e+01 5.128776073455810547e+00 8.169381141662597656e+00
2.500000000000000000e+01 9.913672447204589844e+00 -2.858042120933532715e-01 1.100740528106689453e+01 3.054756164550781250e+01 1.246648979187011719e+01 1.392737579345703125e+01
2.600000000000000000e+01 9.856121063232421875e+00 -4.763403236865997314e-01 8.435649871826171875e+00 2.143547821044921875e+01 8.961338996887207031e+00 1.079930973052978516e+01
2.700000000000000000e+01 9.798569679260253906e+00 -6.668764352798461914e-01 6.292125225067138672e+00 1.708586692810058594e+01 7.013397693634033203e+00 9.044220924377441406e+00
2.800000000000000000e+01 9.741018295288085938e+00 -8.574125766754150391e-01 4.991858005523681641e+00 1.474724769592285156e+01 5.921731472015380859e+00 7.829839706420898438e+00
2.900000000000000000e+01 9.971052169799804688e+00 -2.971505522727966309e-01 9.389739036560058594e+00 3.578957748413085938e+01 1.355379486083984375e+01 1.019599151611328125e+01
3.000000000000000000e+01 9.951753616333007812e+00 -4.952509105205535889e-01 6.741194725036621094e+00 2.577218246459960938e+01 9.754013061523437500e+00 8.530693054199218750e+00
3.100000000000000000e+01 9.932455062866210938e+00 -6.933512687683105469e-01 5.013608932495117188e+00 2.101459503173828125e+01 7.808461189270019531e+00 7.220059871673583984e+00
3.200000000000000000e+01 9.913155555725097656e+00 -8.914516568183898926e-01 3.664530515670776367e+00 1.781978416442871094e+01 6.445294380187988281e+00 6.348955631256103516e+00
3.300000000000000000e+01 1.002954196929931641e+01 -2.970920503139495850e-01 9.155241966247558594e+00 3.873334503173828125e+01 1.436657619476318359e+01 5.660097599029541016e+00
3.400000000000000000e+01 1.004923725128173828e+01 -4.951534271240234375e-01 6.312442302703857422e+00 2.880555534362792969e+01 1.053539943695068359e+01 5.271777629852294922e+00
3.500000000000000000e+01 1.006893157958984375e+01 -6.932148337364196777e-01 4.392488002777099609e+00 2.355482864379882812e+01 8.384195327758789062e+00 4.601619243621826172e+00
3.600000000000000000e+01 1.008862686157226562e+01 -8.912761807441711426e-01 3.125735044479370117e+00 2.024142837524414062e+01 7.010149002075195312e+00 3.887060403823852539e+00
3.700000000000000000e+01 1.008689880371093750e+01 -2.856309711933135986e-01 1.075359630584716797e+01 3.952208328247070312e+01 1.508270454406738281e+01 1.148757576942443848e+00
3.800000000000000000e+01 1.014483070373535156e+01 -4.760516285896301270e-01 7.050012588500976562e+00 3.011565780639648438e+01 1.114970111846923828e+01 1.820663452148437500e+00
3.900000000000000000e+01 1.020276355743408203e+01 -6.664722561836242676e-01 4.942258834838867188e+00 2.479008483886718750e+01 8.919702529907226562e+00 1.495891690254211426e+00
4.000000000000000000e+01 1.026069545745849609e+01 -8.568928837776184082e-01 3.516306638717651367e+00 2.126648330688476562e+01 7.434836864471435547e+00 1.339223861694335938e+00
4.100000000000000000e+01 1.014091968536376953e+01 -2.632071673870086670e-01 1.374320125579833984e+01 3.856377410888671875e+01 1.569209194183349609e+01 -2.398054361343383789e+00
4.200000000000000000e+01 1.023486614227294922e+01 -4.386786222457885742e-01 9.002985000610351562e+00 2.978417015075683594e+01 1.163614654541015625e+01 -1.403118133544921875e+00
4.300000000000000000e+01 1.032881259918212891e+01 -6.141500473022460938e-01 6.560156345367431641e+00 2.471065521240234375e+01 9.381243705749511719e+00 -1.154449105262756348e+00
4.400000000000000000e+01 1.042275905609130859e+01 -7.896215319633483887e-01 4.914429664611816406e+00 2.100709724426269531e+01 7.776458263397216797e+00 -1.340881228446960449e+00
4.500000000000000000e+01 1.018953227996826172e+01 -2.306813150644302368e-01 1.743727684020996094e+01 3.619982147216796875e+01 1.609112930297851562e+01 -4.714692592620849609e+00
4.600000000000000000e+01 1.031588745117187500e+01 -3.844688534736633301e-01 1.190838909149169922e+01 2.843514251708984375e+01 1.210305976867675781e+01 -3.559194087982177734e+00
4.700000000000000000e+01 1.044224262237548828e+01 -5.382564067840576172e-01 8.999659538269042969e+00 2.327783966064453125e+01 9.683249473571777344e+00 -3.265925407409667969e+00
4.800000000000000000e+01 1.056859779357910156e+01 -6.920439004898071289e-01 7.006103515625000000e+00 2.010216903686523438e+01 8.132481575012207031e+00 -3.046265363693237305e+00
4.900000000000000000e+01 1.023087024688720703e+01 -1.893017292022705078e-01 2.132720565795898438e+01 3.369318389892578125e+01 1.650611686706542969e+01 -5.391260147094726562e+00
5.000000000000000000e+01 1.038478469848632812e+01 -3.155028820037841797e-01 1.516355514526367188e+01 2.602325820922851562e+01 1.235604381561279297e+01 -4.626064777374267578e+00
5.100000000000000000e+01 1.053869819641113281e+01 -4.417040348052978516e-01 1.184099197387695312e+01 2.157283592224121094e+01 1.002414894104003906e+01 -4.134107589721679688e+00
5.200000000000000000e+01 1.069261169433593750e+01 -5.679051876068115234e-01 9.601549148559570312e+00 1.804790115356445312e+01 8.294835090637207031e+00 -3.904724836349487305e+00
5.300000000000000000e+01 1.026334762573242188e+01 -1.406566202640533447e-01 2.467831611633300781e+01 3.093943786621093750e+01 1.668532562255859375e+01 -4.741788864135742188e+00
5.400000000000000000e+01 1.043891334533691406e+01 -2.344277054071426392e-01 1.825990676879882812e+01 2.389838981628417969e+01 1.264748859405517578e+01 -4.322876453399658203e+00
5.500000000000000000e+01 1.061447906494140625e+01 -3.281987905502319336e-01 1.460332107543945312e+01 1.927168655395507812e+01 1.016250228881835938e+01 -3.861221313476562500e+00
5.600000000000000000e+01 1.079004383087158203e+01 -4.219698905944824219e-01 1.206412315368652344e+01 1.638821220397949219e+01 8.535700798034667969e+00 -3.698979377746582031e+00
5.700000000000000000e+01 1.028571796417236328e+01 -8.661302924156188965e-02 2.714545059204101562e+01 2.916268157958984375e+01 1.689244079589843750e+01 -3.036107301712036133e+00
5.800000000000000000e+01 1.047619628906250000e+01 -1.443550437688827515e-01 2.059720611572265625e+01 2.185459899902343750e+01 1.273554134368896484e+01 -2.842185735702514648e+00
5.900000000000000000e+01 1.066667461395263672e+01 -2.020970582962036133e-01 1.676334190368652344e+01 1.768929672241210938e+01 1.033579158782958984e+01 -2.635617017745971680e+00
6.000000000000000000e+01 1.085715293884277344e+01 -2.598390877246856689e-01 1.401079750061035156e+01 1.468637847900390625e+01 8.609152793884277344e+00 -2.348735332489013672e+00
6.100000000000000000e+01 1.029712104797363281e+01 -2.924515865743160248e-02 2.833657836914062500e+01 2.800393676757812500e+01 1.690215492248535156e+01 -6.223968863487243652e-01
6.200000000000000000e+01 1.049520206451416016e+01 -4.874193295836448669e-02 2.188351058959960938e+01 2.093644142150878906e+01 1.284598541259765625e+01 -6.574435234069824219e-01
6.300000000000000000e+01 1.069328308105468750e+01 -6.823870539665222168e-02 1.780014419555664062e+01 1.666448211669921875e+01 1.033938789367675781e+01 -6.090772151947021484e-01
6.400000000000000000e+01 1.089136409759521484e+01 -8.773547410964965820e-02 1.515890884399414062e+01 1.376008033752441406e+01 8.675696372985839844e+00 -5.332445502281188965e-01
6.500000000000000000e+01 1.029712104797363281e+01 2.924515865743160248e-02 2.826600265502929688e+01 2.811785125732421875e+01 1.691515541076660156e+01 1.946112394332885742e+00
6.600000000000000000e+01 1.049520206451416016e+01 4.874193295836448669e-02 2.173429107666015625e+01 2.088599586486816406e+01 1.278608608245849609e+01 1.837959170341491699e+00
6.700000000000000000e+01 1.069328308105468750e+01 6.823870539665222168e-02 1.775485801696777344e+01 1.680344390869140625e+01 1.036748981475830078e+01 1.623793482780456543e+00
6.800000000000000000e+01 1.089136409759521484e+01 8.773547410964965820e-02 1.492555046081542969e+01 1.366818141937255859e+01 8.578119277954101562e+00 1.512144207954406738e+00
6.900000000000000000e+01 1.028571796417236328e+01 8.661302924156188965e-02 2.678485107421875000e+01 2.917149543762207031e+01 1.678690338134765625e+01 4.355890750885009766e+00
7.000000000000000000e+01 1.047619628906250000e+01 1.443550437688827515e-01 2.030778312683105469e+01 2.202009391784667969e+01 1.269836330413818359e+01 3.970055818557739258e+00
7.100000000000000000e+01 1.066667461395263672e+01 2.020970582962036133e-01 1.643104362487792969e+01 1.778376197814941406e+01 1.026444149017333984e+01 3.613440275192260742e+00
7.200000000000000000e+01 1.085715293884277344e+01 2.598390877246856689e-01 1.383842754364013672e+01 1.469266796112060547e+01 8.559329032897949219e+00 3.344079732894897461e+00
7.300000000000000000e+01 1.026334762573242188e+01 1.406566202640533447e-01 2.411090278625488281e+01 3.109568977355957031e+01 1.656197738647460938e+01 6.035701751708984375e+00
7.400000000000000000e+01 1.043891334533691406e+01 2.344277054071426392e-01 1.773884773254394531e+01 2.402846717834472656e+01 1.253019428253173828e+01 5.324466228485107422e+00
7.500000000000000000e+01 1.061447906494140625e+01 3.281987905502319336e-01 1.418346691131591797e+01 1.945503807067871094e+01 1.009155178070068359e+01 4.834108352661132812e+00
7.600000000000000000e+01 1.079004383087158203e+01 4.219698905944824219e-01 1.187594223022460938e+01 1.643622016906738281e+01 8.493648529052734375e+00 4.436330795288085938e+00
7.700000000000000000e+01 1.023087024688720703e+01 1.893017292022705078e-01 2.054527282714843750e+01 3.380435943603515625e+01 1.630488967895507812e+01 6.578306198120117188e+00
7.800000000000000000e+01 1.038478469848632812e+01 3.155028820037841797e-01 1.445405387878417969e+01 2.626254844665527344e+01 1.221498107910156250e+01 5.553408145904541016e+00
7.900000000000000000e+01 1.053869819641113281e+01 4.417040348052978516e-01 1.139591979980468750e+01 2.162978553771972656e+01 9.907711029052734375e+00 4.902753353118896484e+00
8.000000000000000000e+01 1.069261169433593750e+01 5.679051876068115234e-01 9.229172706604003906e+00 1.827109336853027344e+01 8.250080108642578125e+00 4.601880073547363281e+00
8.100000000000000000e+01 1.018953227996826172e+01 2.306813150644302368e-01 1.637382888793945312e+01 3.643168640136718750e+01 1.584165477752685547e+01 5.757077217102050781e+00
8.200000000000000000e+01 1.031588745117187500e+01 3.844688534736633301e-01 1.117263412475585938e+01 2.850187492370605469e+01 1.190235233306884766e+01 4.359277725219726562e+00
8.300000000000000000e+01 1.044224262237548828e+01 5.382564067840576172e-01 8.380346298217773438e+00 2.346088218688964844e+01 9.552369117736816406e+00 3.906258583068847656e+00
8.400000000000000000e+01 1.056859779357910156e+01 6.920439004898071289e-01 6.653815746307373047e+00 2.009348678588867188e+01 8.024190902709960938e+00 3.589619398117065430e+00
8.500000000000000000e+01 1.014091968536376953e+01 2.632071673870086670e-01 1.258191490173339844e+01 3.869231033325195312e+01 1.538226699829101562e+01 3.297297000885009766e+00
8.600000000000000000e+01 1.023486614227294922e+01 4.386786222457885742e-01 8.127023696899414062e+00 2.982462882995605469e+01 1.138549613952636719e+01 2.032753705978393555e+00
8.700000000000000000e+01 1.032881259918212891e+01 6.141500473022460938e-01 5.993253231048583984e+00 2.468574523925781250e+01 9.203699111938476562e+00 1.749315500259399414e+00
8.800000000000000000e+01 1.042275905609130859e+01 7.896215319633483887e-01 4.377803325653076172e+00 2.115898513793945312e+01 7.661036491394042969e+00 1.771395087242126465e+00
8.900000000000000000e+01 1.008689880371093750e+01 2.856309711933135986e-01 9.372045516967773438e+00 3.951765441894531250e+01 1.466691017150878906e+01 -4.504183232784271240e-01
9.000000000000000000e+01 1.014483070373535156e+01 4.760516285896301270e-01 6.281142234802246094e+00 3.001080513000488281e+01 1.088758468627929688e+01 -1.245525002479553223e+00
9.100000000000000000e+01 1.020276355743408203e+01 6.664722561836242676e-01 4.218983650207519531e+00 2.466709518432617188e+01 8.665823936462402344e+00 -1.025063753128051758e+00
9.200000000000000000e+01 1.026069545745849609e+01 8.568928837776184082e-01 3.126997470855712891e+00 2.116907310485839844e+01 7.288821220397949219e+00 -8.327466249465942383e-01
9.300000000000000000e+01 1.002954196929931641e+01 2.970920503139495850e-01 7.971674442291259766e+00 3.858991622924804688e+01 1.396847724914550781e+01 -5.066371440887451172e+00
9.400000000000000000e+01 1.004923725128173828e+01 4.951534271240234375e-01 5.307027339935302734e+00 2.850266456604003906e+01 1.014290809631347656e+01 -4.777836322784423828e+00
9.500000000000000000e+01 1.006893157958984375e+01 6.932148337364196777e-01 3.890604257583618164e+00 2.332154083251953125e+01 8.163643836975097656e+00 -4.096858024597167969e+00
9.600000000000000000e+01 1.008862686157226562e+01 8.912761807441711426e-01 2.483590841293334961e+00 1.993793487548828125e+01 6.726457595825195312e+00 -3.519141912460327148e+00
9.700000000000000000e+01 9.971052169799804688e+00 2.971505522727966309e-01 7.940792083740234375e+00 3.531243133544921875e+01 1.297596645355224609e+01 -9.713375091552734375e+00
9.800000000000000000e+01 9.951753616333007812e+00 4.952509105205535889e-01 5.990290641784667969e+00 2.540649032592773438e+01 9.419034004211425781e+00 -7.951503753662109375e+00
9.900000000000000000e+01 9.932455062866210938e+00 6.933512687683105469e-01 4.211726665496826172e+00 2.057385253906250000e+01 7.435673713684082031e+00 -6.796339511871337891e+00
1.000000000000000000e+02 9.913155555725097656e+00 8.914516568183898926e-01 3.259642601013183594e+00 1.756213760375976562e+01 6.246534347534179688e+00 -5.828416824340820312e+00
1.010000000000000000e+02 9.913672447204589844e+00 2.858042120933532715e-01 9.788457870483398438e+00 3.000751495361328125e+01 1.193879127502441406e+01 -1.328878402709960938e+01
1.020000000000000000e+02 9.856121063232421875e+00 4.763403236865997314e-01 7.389887809753417969e+00 2.083852958679199219e+01 8.468524932861328125e+00 -1.028668403625488281e+01
1.030000000000000000e+02 9.798569679260253906e+00 6.668764352798461914e-01 5.659707069396972656e+00 1.668973731994628906e+01 6.704833507537841797e+00 -8.451033592224121094e+00
1.040000000000000000e+02 9.741018295288085938e+00 8.574125766754150391e-01 4.353145122528076172e+00 1.422973728179931641e+01 5.574864864349365234e+00 -7.363580226898193359e+00
1.050000000000000000e+02 9.859606742858886719e+00 2.634885013103485107e-01 1.258183956146240234e+01 2.296379661560058594e+01 1.066369056701660156e+01 -1.522127723693847656e+01
1.060000000000000000e+02 9.766011238098144531e+00 4.391474723815917969e-01 9.310804367065429688e+00 1.546577739715576172e+01 7.432974815368652344e+00 -1.102088737487792969e+01
1.070000000000000000e+02 9.672415733337402344e+00 6.148064732551574707e-01 7.348454475402832031e+00 1.214137172698974609e+01 5.846947669982910156e+00 -9.006953239440917969e+00
1.080000000000000000e+02 9.578820228576660156e+00 7.904654741287231445e-01 5.807651519775390625e+00 1.023683071136474609e+01 4.813344478607177734e+00 -7.583137035369873047e+00
1.090000000000000000e+02 9.810929298400878906e+00 2.310599088668823242e-01 1.529876041412353516e+01 1.537170314788818359e+01 9.201139450073242188e+00 -1.474247741699218750e+01
1.100000000000000000e+02 9.684882164001464844e+00 3.850998580455780029e-01 1.103626060485839844e+01 9.773108482360839844e+00 6.242810726165771484e+00 -1.021922111511230469e+01
1.110000000000000000e+02 9.558835029602050781e+00 5.391398072242736816e-01 8.586718559265136719e+00 7.677583694458007812e+00 4.879290580749511719e+00 -8.013572692871093750e+00
1.120000000000000000e+02 9.432787895202636719e+00 6.931797266006469727e-01 7.024156570434570312e+00 6.521989345550537109e+00 4.063843727111816406e+00 -6.915739059448242188e+00
1.130000000000000000e+02 9.769508361816406250e+00 1.897630989551544189e-01 1.706510162353515625e+01 7.892844200134277344e+00 7.487383842468261719e+00 -1.200723648071289062e+01
1.140000000000000000e+02 9.615847587585449219e+00 3.162718117237091064e-01 1.138815116882324219e+01 4.875942707061767578e+00 4.879228115081787109e+00 -7.717600822448730469e+00
1.150000000000000000e+02 9.462185859680175781e+00 4.427805542945861816e-01 8.953146934509277344e+00 3.899112701416015625e+00 3.855677843093872070e+00 -6.081656455993652344e+00
1.160000000000000000e+02 9.308525085449218750e+00 5.692892670631408691e-01 7.170697212219238281e+00 3.605544805526733398e+00 3.232872486114501953e+00 -5.089407444000244141e+00
1.170000000000000000e+02 9.736933708190917969e+00 1.411830335855484009e-01 1.591042232513427734e+01 2.047812938690185547e+00 5.387470722198486328e+00 -7.410083293914794922e+00
1.180000000000000000e+02 9.561555862426757812e+00 2.353050708770751953e-01 1.026162147521972656e+01 1.159933686256408691e+00 3.426466464996337891e+00 -4.293283462524414062e+00
1.190000000000000000e+02 9.386178970336914062e+00 3.294270932674407959e-01 7.335055351257324219e+00 1.697415947914123535e+00 2.709741353988647461e+00 -3.408763647079467773e+00
1.200000000000000000e+02 9.210802078247070312e+00 4.235491156578063965e-01 6.318991184234619141e+00 1.590007543563842773e+00 2.372699499130249023e+00 -3.234082937240600586e+00
1.210000000000000000e+02 9.714455604553222656e+00 8.718428760766983032e-02 1.167824649810791016e+01 -2.196336030960083008e+00 2.844573259353637695e+00 -1.443113803863525391e+00
1.220000000000000000e+02 9.524093627929687500e+00 1.453071534633636475e-01 5.576552867889404297e+00 2.106440067291259766e-01 1.736159086227416992e+00 -1.085997939109802246e+00
1.230000000000000000e+02 9.333730697631835938e+00 2.034300118684768677e-01 5.315279960632324219e+00 7.187120318412780762e-01 1.810197591781616211e+00 -1.759533882141113281e+00
1.240000000000000000e+02 9.143367767333984375e+00 2.615528702735900879e-01 4.146573543548583984e+00 1.130643337965011597e-01 1.277891397476196289e+00 -1.133455634117126465e+00
1.250000000000000000e+02 9.702937126159667969e+00 2.983934059739112854e-02 -1.352188825607299805e+00 -2.276253700256347656e+00 -1.088532805442810059e+00 2.379995346069335938e+00
1.260000000000000000e+02 9.504896163940429688e+00 4.973223432898521423e-02 2.599493741989135742e+00 8.817651271820068359e-01 1.044377684593200684e+00 -6.809241175651550293e-01
1.270000000000000000e+02 9.306854248046875000e+00 6.962513178586959839e-02 1.576982021331787109e+00 -4.012517333030700684e-01 3.527190685272216797e-01 -3.347225859761238098e-02
1.280000000000000000e+02 9.108813285827636719e+00 8.951802551746368408e-02 1.312248110771179199e+00 2.179525643587112427e-01 4.590601921081542969e-01 -1.978368312120437622e-01
1.290000000000000000e+02 1.158342361450195312e-01 -9.552106857299804688e-01 1.277910079807043076e-02 -3.665844351053237915e-02 -7.163802627474069595e-03 -8.145125582814216614e-03
1.300000000000000000e+02 9.452310949563980103e-02 -5.196542143821716309e-01 9.178810752928256989e-03 -5.792604759335517883e-03 1.015861635096371174e-03 -7.491515716537833214e-04
1.310000000000000000e+02 8.047272264957427979e-02 -3.348883092403411865e-01 -6.844161543995141983e-03 -2.295271493494510651e-03 -2.741829957813024521e-03 -2.586030168458819389e-03
1.320000000000000000e+02 6.704595088958740234e-01 -1.189597725868225098e+00 -1.216919394209980965e-03 -7.493111491203308105e-02 -2.284440957009792328e-02 -8.509413897991180420e-02
1.330000000000000000e+02 4.989198446273803711e-01 -1.392871141433715820e+00 1.737571321427822113e-03 -1.029439717531204224e-01 -3.036192059516906738e-02 -7.995540648698806763e-02
1.340000000000000000e+02 6.919136643409729004e-01 -1.388064265251159668e+00 -2.530576288700103760e-02 -7.530903816223144531e-02 -3.018444031476974487e-02 -7.093558460474014282e-02
1.350000000000000000e+02 2.494502544403076172e+00 -1.354987144470214844e+00 -5.036012455821037292e-02 1.768175140023231506e-02 -9.803512133657932281e-03 -1.362806856632232666e-01
1.360000000000000000e+02 2.919969081878662109e+00 -1.376239299774169922e+00 -4.648270457983016968e-02 4.731585085391998291e-02 2.499441907275468111e-04 -1.172173097729682922e-01
1.370000000000000000e+02 2.470916032791137695e+00 -1.059127449989318848e+00 -1.138479709625244141e-01 9.794495999813079834e-04 -3.386055678129196167e-02 -1.304612457752227783e-01
1.380000000000000000e+02 2.876306295394897461e+00 -9.978117346763610840e-01 -1.329769492149353027e-01 2.044089324772357941e-02 -3.376081585884094238e-02 -1.095333546400070190e-01
1.390000000000000000e+02 2.802544832229614258e+00 -6.208453774452209473e-01 -2.214901894330978394e-01 1.133494358509778976e-02 -6.304657459259033203e-02 -9.278735518455505371e-02
1.400000000000000000e+02 3.299050569534301758e+00 -1.486306041479110718e-01 -4.616656005382537842e-01 5.945072043687105179e-03 -1.367161571979522705e-01 -2.741969190537929535e-02
1.410000000000000000e+02 3.092912435531616211e+00 -1.450943201780319214e-01 -4.280482530593872070e-01 -2.448126208037137985e-03 -1.291489154100418091e-01 -2.986503019928932190e-02
1.420000000000000000e+02 3.699659109115600586e+00 -1.269613206386566162e-01 -5.266441702842712402e-01 6.061743944883346558e-03 -1.561747193336486816e-01 -2.650008536875247955e-02
1.430000000000000000e+02 3.894185304641723633e+00 -1.247326359152793884e-01 -5.572876334190368652e-01 1.831603236496448517e-03 -1.666368097066879272e-01 -1.783465966582298279e-02
1.440000000000000000e+02 5.521253585815429688e+00 -1.368425250053405762e+00 4.271217882633209229e-01 2.380098998546600342e-01 1.995394974946975708e-01 4.194745421409606934e-01
1.450000000000000000e+02 5.718832492828369141e+00 -1.378246426582336426e+00 5.391013026237487793e-01 2.730365693569183350e-01 2.436413615942001343e-01 4.841697812080383301e-01
1.460000000000000000e+02 5.892667293548583984e+00 -1.387828886508941650e-01 -5.308437943458557129e-01 4.039424471557140350e-03 -1.580413132905960083e-01 1.878462173044681549e-02
1.470000000000000000e+02 5.484801769256591797e+00 -1.456770151853561401e-01 -5.916565060615539551e-01 6.170642562210559845e-03 -1.756457686424255371e-01 7.905219681560993195e-03
1.480000000000000000e+02 6.314941406250000000e+00 -1.399257540702819824e+00 8.619324564933776855e-01 4.272152483463287354e-01 3.867443203926086426e-01 8.186638951301574707e-01
1.490000000000000000e+02 6.297612190246582031e+00 -1.303483098745346069e-01 -4.347318410873413086e-01 4.563738591969013214e-03 -1.290504336357116699e-01 3.090050257742404938e-02
1.500000000000000000e+02 6.114730358123779297e+00 -1.392511487007141113e+00 7.499140501022338867e-01 3.287595808506011963e-01 3.236020803451538086e-01 6.557729244232177734e-01
1.510000000000000000e+02 6.672454357147216797e+00 -1.408431291580200195e+00 1.117135643959045410e+00 5.339052081108093262e-01 4.953122437000274658e-01 1.056551694869995117e+00
1.520000000000000000e+02 7.689256191253662109e+00 -1.350958108901977539e+00 2.293683767318725586e+00 1.071389198303222656e+00 1.009521842002868652e+00 2.019465923309326172e+00
1.530000000000000000e+02 8.410909652709960938e+00 -3.483122587203979492e-01 2.458220243453979492e+00 9.850024431943893433e-02 7.670161128044128418e-01 8.472713828086853027e-01
1.540000000000000000e+02 8.302818298339843750e+00 -1.324055194854736328e+00 3.242797136306762695e+00 2.061389923095703125e+00 1.591256022453308105e+00 3.217646360397338867e+00
1.550000000000000000e+02 9.688844680786132812e+00 -1.044457077980041504e+00 3.854857683181762695e+00 1.297316074371337891e+01 5.048405647277832031e+00 6.959416389465332031e+00
1.560000000000000000e+02 1.025903892517089844e+01 -1.133519649505615234e+00 1.989452481269836426e+00 1.793577003479003906e+01 5.977566719055175781e+00 1.843311071395874023e+00
1.570000000000000000e+02 1.073481464385986328e+01 -1.144141316413879395e+00 3.207784891128540039e+00 1.539352607727050781e+01 5.580393314361572266e+00 -2.096583127975463867e+00
1.580000000000000000e+02 1.108393096923828125e+01 -2.791437804698944092e-01 1.203262233734130859e+01 1.202842426300048828e+01 7.218314170837402344e+00 -2.103794336318969727e+00
1.590000000000000000e+02 1.110609245300292969e+01 -8.639926463365554810e-02 1.294576358795166016e+01 1.141135025024414062e+01 7.307134151458740234e+00 -3.126263022422790527e-01
1.600000000000000000e+02 1.125073242187500000e+01 3.355023860931396484e-01 1.056492137908935547e+01 1.023163032531738281e+01 6.238965511322021484e+00 2.529442071914672852e+00
1.610000000000000000e+02 1.096120643615722656e+01 5.763402581214904785e-01 9.435778617858886719e+00 1.422527885437011719e+01 7.098317146301269531e+00 4.288705825805664062e+00
1.620000000000000000e+02 1.065928459167480469e+01 8.806247115135192871e-01 4.705111026763916016e+00 1.775420188903808594e+01 6.737793922424316406e+00 3.097836971282958984e+00
1.630000000000000000e+02 9.162257194519042969e+00 1.101857781410217285e+00 4.478975296020507812e+00 5.464632511138916016e+00 2.983082532882690430e+00 -5.314599037170410156e+00
1.640000000000000000e+02 8.909451484680175781e+00 1.364026308059692383e+00 3.432400941848754883e+00 4.527992725372314453e+00 2.388118028640747070e+00 -4.496874809265136719e+00
1.650000000000000000e+02 8.948912620544433594e+00 3.158051371574401855e-01 3.505427360534667969e+00 3.505786359310150146e-01 1.156801819801330566e+00 -1.177135348320007324e+00
1.660000000000000000e+02 8.910804748535156250e+00 1.078275069594383240e-01 1.004417896270751953e+00 -1.193251386284828186e-01 2.655278146266937256e-01 -1.408337652683258057e-01
1.670000000000000000e+02 8.536369323730468750e+00 3.947198987007141113e-01 2.300835847854614258e+00 2.598722875118255615e-01 7.682124376296997070e-01 -8.181029558181762695e-01
1.680000000000000000e+02 9.712758064270019531e+00 1.387733101844787598e+00 1.831318378448486328e+00 1.194865608215332031e+01 4.133992195129394531e+00 -4.926607131958007812e+00
1.690000000000000000e+02 9.905720710754394531e+00 1.375819563865661621e+00 1.311158418655395508e+00 1.362260150909423828e+01 4.480127811431884766e+00 -3.995808601379394531e+00
1.700000000000000000e+02 8.702444076538085938e+00 1.370556354522705078e+00 3.467739820480346680e+00 3.431249856948852539e+00 2.069696903228759766e+00 -3.954377889633178711e+00
1.710000000000000000e+02 8.508754730224609375e+00 1.347165107727050781e-01 5.347058773040771484e-01 -1.262814924120903015e-02 1.566233187913894653e-01 -1.306581199169158936e-01
1.720000000000000000e+02 8.101596832275390625e+00 1.356433868408203125e+00 2.636495113372802734e+00 1.528151750564575195e+00 1.249394059181213379e+00 -2.344991683959960938e+00
1.730000000000000000e+02 8.103774070739746094e+00 1.460121721029281616e-01 1.770105212926864624e-01 2.849826356396079063e-03 5.395810678601264954e-02 -1.223316788673400879e-01
1.740000000000000000e+02 5.695895671844482422e+00 1.386821031570434570e+00 4.982404410839080811e-01 1.825491935014724731e-01 2.042368948459625244e-01 -3.512173295021057129e-01
1.750000000000000000e+02 5.114307403564453125e+00 1.096266388893127441e+00 1.375654935836791992e-01 8.117753267288208008e-02 6.562291085720062256e-02 -1.175813078880310059e-01
1.760000000000000000e+02 5.508736133575439453e+00 1.152617573738098145e+00 2.917490601539611816e-01 1.102167665958404541e-01 1.205897480249404907e-01 -2.053242027759552002e-01
1.770000000000000000e+02 3.705371618270874023e+00 1.385451078414916992e+00 3.629109263420104980e-02 5.808389559388160706e-02 2.831249684095382690e-02 2.150621078908443451e-02
1.780000000000000000e+02 3.707933187484741211e+00 1.598374396562576294e-01 -4.459268450736999512e-01 8.315072627738118172e-04 -1.335286051034927368e-01 2.424462884664535522e-02
1.790000000000000000e+02 4.129785537719726562e+00 8.771088123321533203e-01 -1.230825036764144897e-01 2.693752013146877289e-02 -2.884349599480628967e-02 2.689361758530139923e-02
1.800000000000000000e+02 3.529339075088500977e+00 6.908538937568664551e-01 -2.096870541572570801e-01 7.743979804217815399e-03 -6.058292463421821594e-02 6.221223250031471252e-02
1.810000000000000000e+02 3.317279100418090820e+00 1.370108008384704590e+00 -7.349319756031036377e-03 2.787157893180847168e-02 6.156677380204200745e-03 6.044472754001617432e-02
1.820000000000000000e+02 3.117893695831298828e+00 1.336868524551391602e+00 6.779742543585598469e-04 4.100053012371063232e-02 1.250355131924152374e-02 8.411118388175964355e-02
1.830000000000000000e+02 3.043033838272094727e+00 8.875674605369567871e-01 -1.220978051424026489e-01 2.075710147619247437e-02 -3.040221147239208221e-02 8.711639046669006348e-02
1.840000000000000000e+02 2.487853288650512695e+00 1.092489838600158691e+00 -6.521675735712051392e-02 6.171775981783866882e-03 -1.771349459886550903e-02 1.061662659049034119e-01
1.850000000000000000e+02 2.895749568939208984e+00 1.686940938234329224e-01 -3.268011808395385742e-01 -6.674108561128377914e-03 -1.000425890088081360e-01 2.855310030281543732e-02
1.860000000000000000e+02 2.300387144088745117e+00 1.371603012084960938e+00 -1.955870911478996277e-02 1.142101828008890152e-02 -2.441307529807090759e-03 1.081084534525871277e-01
1.870000000000000000e+02 9.027634263038635254e-01 1.380576014518737793e+00 -3.015406616032123566e-02 -6.335953623056411743e-02 -2.805408090353012085e-02 6.780045479536056519e-02
1.880000000000000000e+02 7.064817547798156738e-01 1.379356741905212402e+00 -2.208124287426471710e-02 -4.546456038951873779e-02 -2.026374079287052155e-02 5.860733985900878906e-02
1.890000000000000000e+02 5.074881911277770996e-01 1.412107199430465698e-01 -9.121624752879142761e-03 -4.355025943368673325e-03 -4.042995162308216095e-03 4.995549563318490982e-03
1.900000000000000000e+02 1.111962795257568359e+00 1.164401471614837646e-01 -5.312649905681610107e-02 4.125345498323440552e-02 -3.561913501471281052e-03 1.606944017112255096e-02
1.910000000000000000e+02 3.042126297950744629e-01 1.387158036231994629e+00 2.104909718036651611e-02 -8.753792941570281982e-02 -1.994664967060089111e-02 2.389832027256488800e-02
1.920000000000000000e+02 1.001381948590278625e-01 9.661881327629089355e-01 -5.879766121506690979e-02 -3.943897783756256104e-02 -2.947099134325981140e-02 1.945774443447589874e-02
1.930000000000000000e+02 9.696643054485321045e-02 7.573472261428833008e-01 3.962575271725654602e-02 -1.893379911780357361e-02 6.207586266100406647e-03 -1.856961054727435112e-03
1.940000000000000000e+02 9.930790960788726807e-02 3.400205671787261963e-01 9.552595205605030060e-03 -1.862091448856517673e-04 2.809915924444794655e-03 -1.683676033280789852e-03
1.950000000000000000e+02 9.669021517038345337e-02 5.493029952049255371e-01 -2.533133700489997864e-02 -9.251516312360763550e-03 -1.037485618144273758e-02 1.042137015610933304e-02
1.960000000000000000e+02 3.021513521671295166e-01 1.321522593498229980e-01 -5.255736759863793850e-04 -7.583950355183333158e-05 -1.804239582270383835e-04 1.030599465593695641e-03
1.970000000000000000e+02 9.223401546478271484e-01 1.477951705455780029e-01 -2.950738184154033661e-02 -2.494849078357219696e-02 -1.633676141500473022e-02 1.573537103831768036e-02
1.980000000000000000e+02 1.470306277275085449e+00 1.393156498670578003e-01 -1.026391163468360901e-01 5.438168998807668686e-03 -2.916028350591659546e-02 1.864537410438060760e-02
1.990000000000000000e+02 1.504559159278869629e+00 1.359539151191711426e+00 -1.706729643046855927e-02 -2.537800371646881104e-02 -1.273359078913927078e-02 1.085757538676261902e-01
2.000000000000000000e+02 1.882001399993896484e+00 1.690664887428283691e-01 -1.649171859025955200e-01 3.943661227822303772e-03 -4.829205572605133057e-02 2.481891587376594543e-02
2.010000000000000000e+02 1.675266385078430176e+00 1.561140567064285278e-01 -1.363658159971237183e-01 -8.631675504148006439e-03 -4.349924623966217041e-02 2.356444671750068665e-02
2.020000000000000000e+02 2.088147163391113281e+00 1.728044748306274414e-01 -1.979887336492538452e-01 -7.494964636862277985e-03 -6.164510920643806458e-02 2.760001271963119507e-02
2.030000000000000000e+02 1.910987615585327148e+00 1.378558754920959473e+00 -1.837985962629318237e-02 -1.282356563024222851e-03 -5.898664705455303192e-03 1.165200844407081604e-01
2.040000000000000000e+02 3.938179492950439453e+00 4.657450318336486816e-01 -3.204922974109649658e-01 4.439229145646095276e-03 -9.481591731309890747e-02 4.235164076089859009e-02
2.050000000000000000e+02 4.308200359344482422e+00 1.459887772798538208e-01 -5.198239684104919434e-01 -4.358045698609203100e-04 -1.560779362916946411e-01 2.002944424748420715e-02
2.060000000000000000e+02 5.096124649047851562e+00 1.248127669095993042e-01 -5.772005319595336914e-01 -2.403048565611243248e-03 -1.738810837268829346e-01 8.953840471804141998e-03
2.070000000000000000e+02 6.690669059753417969e+00 1.378771901130676270e+00 1.078412175178527832e+00 4.151208400726318359e-01 4.480598866939544678e-01 -7.924190163612365723e-01
2.080000000000000000e+02 7.113923072814941406e+00 3.806204199790954590e-01 1.864876598119735718e-01 2.871721796691417694e-02 6.456146389245986938e-02 -1.608479619026184082e-01
2.090000000000000000e+02 7.700154304504394531e+00 1.426025778055191040e-01 -8.910362422466278076e-02 -6.477782968431711197e-03 -2.867442183196544647e-02 -7.006666064262390137e-02
2.100000000000000000e+02 7.701015472412109375e+00 6.891489624977111816e-01 1.433545231819152832e+00 1.902852207422256470e-01 4.871491491794586182e-01 -6.802154183387756348e-01
2.110000000000000000e+02 9.123010635375976562e+00 7.135878205299377441e-01 5.877484798431396484e+00 3.050559997558593750e+00 2.678413391113281250e+00 -4.507131099700927734e+00
2.120000000000000000e+02 9.280339241027832031e+00 8.688903450965881348e-01 5.674357414245605469e+00 5.596930027008056641e+00 3.381386280059814453e+00 -5.790273189544677734e+00
2.130000000000000000e+02 1.029301166534423828e+01 1.328771829605102539e+00 9.748623967170715332e-01 1.604482841491699219e+01 5.105907440185546875e+00 -1.163970351219177246e+00
2.140000000000000000e+02 1.085127162933349609e+01 -7.153082489967346191e-01 7.734135627746582031e+00 1.583734798431396484e+01 7.071444988250732422e+00 -3.806446790695190430e+00
2.150000000000000000e+02 1.038669395446777344e+01 -1.044695854187011719e+00 2.729494333267211914e+00 1.857421302795410156e+01 6.391112327575683594e+00 3.899450302124023438e-01
2.160000000000000000e+02 1.023865318298339844e+01 -1.373344063758850098e+00 9.886339306831359863e-01 1.558252620697021484e+01 4.971348285675048828e+00 2.214603424072265625e+00
2.170000000000000000e+02 8.705793380737304688e+00 -4.061450958251953125e-01 3.896778821945190430e+00 3.659998774528503418e-01 1.278833627700805664e+00 1.468099236488342285e+00
2.180000000000000000e+02 7.281956672668457031e+00 -1.351641416549682617e+00 1.782118201255798340e+00 7.036896944046020508e-01 7.457423806190490723e-01 1.493419528007507324e+00
2.190000000000000000e+02 6.853759765625000000e+00 -1.359755992889404297e+00 1.287769913673400879e+00 5.468209981918334961e-01 5.503772497177124023e-01 1.134679436683654785e+00
2.200000000000000000e+02 6.702738761901855469e+00 -1.331013590097427368e-01 -2.902196943759918213e-01 1.287290733307600021e-02 -8.320403844118118286e-02 5.218338593840599060e-02
2.210000000000000000e+02 5.115441322326660156e+00 -1.330337047576904297e+00 2.359777092933654785e-01 1.899275183677673340e-01 1.277715712785720825e-01 2.629705667495727539e-01
2.220000000000000000e+02 2.153861999511718750e+00 -1.689965426921844482e-01 -2.287642210721969604e-01 1.277572847902774811e-02 -6.479654461145401001e-02 -3.688732907176017761e-02
2.230000000000000000e+02 2.294748306274414062e+00 -1.361813902854919434e+00 -5.683253705501556396e-02 -1.829159795306622982e-03 -1.759850978851318359e-02 -1.360720545053482056e-01
2.240000000000000000e+02 1.729924559593200684e+00 -4.902286231517791748e-01 -1.328921169042587280e-01 -1.482641790062189102e-02 -4.431556165218353271e-02 -7.646173983812332153e-02
2.250000000000000000e+02 1.307962417602539062e+00 -1.655665636062622070e-01 -8.763962239027023315e-02 -5.814155098050832748e-03 -2.803613245487213135e-02 -2.276262640953063965e-02
2.260000000000000000e+02 1.026552543044090271e-01 -1.392542600631713867e+00 2.823615260422229767e-02 -6.543891876935958862e-02 -1.116083096712827682e-02 1.425106544047594070e-03
2.270000000000000000e+02 9.305203437805175781e+00 -8.744363784790039062e-01 6.295805454254150391e+00 6.183981418609619141e+00 3.743936061859130859e+00 6.590372562408447266e+00
2.280000000000000000e+02 1.704760074615478516e+00 -1.067720770835876465e+00 -8.413541316986083984e-02 -2.897605299949645996e-02 -3.393343836069107056e-02 -1.302251964807510376e-01
2.290000000000000000e+02 3.718739748001098633e+00 4.421119987964630127e-01 -3.079898357391357422e-01 7.649929728358983994e-03 -9.010197222232818604e-02 5.314789712429046631e-02
2.300000000000000000e+02 9.469409942626953125e+00 9.639760851860046387e-01 4.876337528228759766e+00 9.008641242980957031e+00 4.165493488311767578e+00 -6.781842708587646484e+00
2.310000000000000000e+02 3.109212875366210938e+00 -1.420225858688354492e+00 -4.746827110648155212e-02 4.403324425220489502e-02 -1.030508545227348804e-03 -8.987578749656677246e-02
2.320000000000000000e+02 3.673345804214477539e+00 -1.356542825698852539e+00 -5.853316280990839005e-03 9.152840822935104370e-02 2.570252679288387299e-02 -4.307499527931213379e-02
2.330000000000000000e+02 9.901885986328125000e+00 -1.074750423431396484e+00 2.766745090484619141e+00 1.607141876220703125e+01 5.651449203491210938e+00 5.564055919647216797e+00
2.340000000000000000e+02 1.107758998870849609e+01 1.039674431085586548e-01 1.320538806915283203e+01 1.164424228668212891e+01 7.454889297485351562e+00 1.364376902580261230e+00
2.350000000000000000e+02 1.089429092407226562e+01 9.207270741462707520e-01 5.320059776306152344e+00 1.501117706298828125e+01 6.099370956420898438e+00 3.899297475814819336e+00
2.360000000000000000e+02 1.080690765380859375e+01 1.168788671493530273e+00 2.861209392547607422e+00 1.460935115814208984e+01 5.241168022155761719e+00 2.760398387908935547e+00
2.370000000000000000e+02 1.065894412994384766e+01 1.228479743003845215e+00 2.058258295059204102e+00 1.586885929107666016e+01 5.378135204315185547e+00 1.836967587471008301e+00
2.380000000000000000e+02 1.009926033020019531e+01 1.109326839447021484e+00 1.808381319046020508e+00 1.749231910705566406e+01 5.790210247039794922e+00 -3.116665363311767578e+00
2.390000000000000000e+02 9.517053604125976562e+00 1.392658829689025879e+00 2.707306623458862305e+00 9.743414878845214844e+00 3.735216379165649414e+00 -5.542813301086425781e+00
2.400000000000000000e+02 7.899786949157714844e+00 1.355904221534729004e+00 2.445996522903442383e+00 1.179322719573974609e+00 1.087595820426940918e+00 -2.024871349334716797e+00
2.410000000000000000e+02 7.492914676666259766e+00 1.346846580505371094e+00 1.849031448364257812e+00 7.730648517608642578e-01 7.866289019584655762e-01 -1.431783199310302734e+00
2.420000000000000000e+02 6.091519355773925781e+00 1.358504295349121094e+00 6.857429742813110352e-01 2.419235408306121826e-01 2.782999575138092041e-01 -4.782499074935913086e-01
2.430000000000000000e+02 4.462540626525878906e+00 1.066448926925659180e+00 2.151402086019515991e-02 5.268505215644836426e-02 2.225972153246402740e-02 -1.670397259294986725e-02
2.440000000000000000e+02 4.094229698181152344e+00 1.372979164123535156e+00 7.107011973857879639e-02 7.600440829992294312e-02 4.412235692143440247e-02 -2.683789469301700592e-02
2.450000000000000000e+02 1.286486506462097168e+00 1.162464618682861328e+00 -3.209077566862106323e-02 -2.465581893920898438e-02 -1.702397875487804413e-02 9.825056046247482300e-02
2.460000000000000000e+02 1.014702394604682922e-01 1.391971230506896973e+00 -1.057685315608978271e-01 -9.338629245758056641e-02 -5.974644795060157776e-02 3.417652100324630737e-02
2.470000000000000000e+02 1.003239825367927551e-01 1.273108571767807007e-01 -2.828015014529228210e-03 -6.549931131303310394e-04 -1.044902368448674679e-03 8.067415328696370125e-04
2.480000000000000000e+02 7.329292297363281250e-01 4.319826960563659668e-01 -4.927708208560943604e-02 -3.304963558912277222e-02 -2.469801530241966248e-02 3.533828258514404297e-02
2.490000000000000000e+02 1.386239290237426758e+00 3.766362667083740234e-01 -9.614223241806030273e-02 -2.365391701459884644e-02 -3.593884408473968506e-02 5.031786113977432251e-02
2.500000000000000000e+02 2.292985677719116211e+00 1.655435413122177124e-01 -2.284444272518157959e-01 6.377224810421466827e-03 -6.662016361951828003e-02 2.742310985922813416e-02
2.510000000000000000e+02 2.695286035537719727e+00 1.684379279613494873e-01 -2.933384776115417480e-01 3.510224865749478340e-03 -8.694847673177719116e-02 2.682967297732830048e-02
2.520000000000000000e+02 3.501118183135986328e+00 4.493677020072937012e-01 -2.988849878311157227e-01 -1.500913989730179310e-03 -9.011577069759368896e-02 5.438895151019096375e-02
2.530000000000000000e+02 4.504174232482910156e+00 1.370491534471511841e-01 -5.415117144584655762e-01 3.718893509358167648e-03 -1.613378375768661499e-01 1.729954779148101807e-02
2.540000000000000000e+02 5.468919277191162109e+00 4.039701819419860840e-01 -3.171243965625762939e-01 1.274934783577919006e-02 -9.131251275539398193e-02 -1.578470505774021149e-02
2.550000000000000000e+02 5.696718215942382812e+00 1.538996994495391846e-01 -5.629098415374755859e-01 5.220479331910610199e-03 -1.673068106174468994e-01 7.299701683223247528e-04
2.560000000000000000e+02 6.107610225677490234e+00 1.532623320817947388e-01 -5.370054841041564941e-01 2.898248843848705292e-03 -1.602321714162826538e-01 -7.226672954857349396e-03
2.570000000000000000e+02 6.509176254272460938e+00 1.416981220245361328e-01 -4.948144257068634033e-01 7.001019082963466644e-03 -1.463440209627151489e-01 -1.201097946614027023e-02
2.580000000000000000e+02 6.906415462493896484e+00 1.331113576889038086e-01 -4.151139259338378906e-01 -6.911247037351131439e-03 -1.266075521707534790e-01 -2.494838088750839233e-02
2.590000000000000000e+02 8.711063385009765625e+00 1.229138299822807312e-01 7.525495886802673340e-01 6.984519958496093750e-02 2.467184364795684814e-01 -1.647502779960632324e-01
2.600000000000000000e+02 1.103953266143798828e+01 2.695617675781250000e-01 1.250229930877685547e+01 1.252638816833496094e+01 7.508605957031250000e+00 3.013054370880126953e+00
2.610000000000000000e+02 1.114456081390380859e+01 7.576981186866760254e-01 7.211480140686035156e+00 1.223693275451660156e+01 5.834524154663085938e+00 4.063521862030029297e+00
2.620000000000000000e+02 1.048062229156494141e+01 1.001647591590881348e+00 3.082701683044433594e+00 1.849921035766601562e+01 6.474573612213134766e+00 1.285390377044677734e+00
2.630000000000000000e+02 8.897590637207031250e+00 -1.108529567718505859e-01 2.212101697921752930e+00 -1.499664634466171265e-01 6.186405420303344727e-01 2.971820533275604248e-01
2.640000000000000000e+02 9.020002365112304688e+00 -6.818686127662658691e-01 6.383461952209472656e+00 2.257884502410888672e+00 2.592403888702392578e+00 4.102966785430908203e+00
2.650000000000000000e+02 9.486912727355957031e+00 -9.693363308906555176e-01 5.355638027191162109e+00 9.545662879943847656e+00 4.470390319824218750e+00 7.230571269989013672e+00
2.660000000000000000e+02 1.111808109283447266e+01 -4.630428850650787354e-01 1.018460750579833984e+01 1.202830505371093750e+01 6.663873672485351562e+00 -2.854557991027832031e+00
2.670000000000000000e+02 8.106524467468261719e+00 -1.612324267625808716e-01 8.721702098846435547e-01 -9.244547784328460693e-02 2.339174151420593262e-01 2.049084603786468506e-01
2.680000000000000000e+02 6.295588970184326172e+00 -3.674811720848083496e-01 -9.906134754419326782e-02 2.140879817306995392e-02 -2.329576574265956879e-02 1.228410825133323669e-01
2.690000000000000000e+02 5.241594791412353516e+00 -4.145678877830505371e-01 -3.366817235946655273e-01 1.904747821390628815e-02 -9.529027342796325684e-02 3.928532078862190247e-02
2.700000000000000000e+02 4.866126537322998047e+00 -3.414294123649597168e-01 -4.539099633693695068e-01 6.601942237466573715e-03 -1.341924071311950684e-01 -9.606760577298700809e-04
2.710000000000000000e+02 2.643744945526123047e+00 -3.284434974193572998e-01 -2.781744003295898438e-01 3.620530333137139678e-05 -8.344145864248275757e-02 -6.256198137998580933e-02
2.720000000000000000e+02 2.499970436096191406e+00 -9.817486256361007690e-02 -3.231213986873626709e-01 -4.286063776817172766e-04 -9.706500917673110962e-02 -1.983907260000705719e-02
2.730000000000000000e+02 1.716540455818176270e+00 -1.788551807403564453e-01 -1.536926627159118652e-01 -7.031561806797981262e-03 -4.821726679801940918e-02 -3.164051100611686707e-02
2.740000000000000000e+02 9.602549672126770020e-02 -1.283648163080215454e-01 1.575269619934260845e-03 9.115267312154173851e-04 7.460389169864356518e-04 4.539520305115729570e-04
2.750000000000000000e+02 1.071215724945068359e+01 -8.493782281875610352e-01 5.824094295501708984e+00 1.710159111022949219e+01 6.877705574035644531e+00 -3.092708826065063477e+00
2.760000000000000000e+02 8.993978500366210938e+00 -1.087878465652465820e+00 4.897595405578613281e+00 4.375081062316894531e+00 2.781802892684936523e+00 5.186720371246337891e+00
2.770000000000000000e+02 1.125597381591796875e+01 -6.092246174812316895e-01 8.392924308776855469e+00 1.063506984710693359e+01 5.708398342132568359e+00 -3.320587873458862305e+00
2.780000000000000000e+02 9.019884109497070312e+00 5.161942839622497559e-01 5.146219730377197266e+00 1.031739115715026855e+00 1.853387594223022461e+00 -2.581273794174194336e+00
2.790000000000000000e+02 1.082630920410156250e+01 7.334623932838439941e-01 7.377301692962646484e+00 1.596531867980957031e+01 7.002786159515380859e+00 4.230359077453613281e+00
2.800000000000000000e+02 9.552035331726074219e+00 1.194209575653076172e+00 3.229797601699829102e+00 1.014335155487060547e+01 4.011944770812988281e+00 -6.016372203826904297e+00
2.810000000000000000e+02 1.088972091674804688e+01 -1.027581930160522461e+00 4.654200077056884766e+00 1.490346527099609375e+01 5.867299556732177734e+00 -3.047420740127563477e+00
2.820000000000000000e+02 1.125513172149658203e+01 5.939059853553771973e-01 8.652782440185546875e+00 1.085188102722167969e+01 5.851398944854736328e+00 3.850673198699951172e+00
2.830000000000000000e+02 1.131819057464599609e+01 -4.570733904838562012e-01 9.591164588928222656e+00 9.578196525573730469e+00 5.750808238983154297e+00 -2.552768707275390625e+00
2.840000000000000000e+02 1.102915954589843750e+01 -8.932558894157409668e-01 6.201381206512451172e+00 1.341143703460693359e+01 5.883845329284667969e+00 -3.486735820770263672e+00
2.850000000000000000e+02 1.134174919128417969e+01 -2.807932198047637939e-01 1.012021446228027344e+01 8.975979804992675781e+00 5.728858470916748047e+00 -1.539035797119140625e+00
2.860000000000000000e+02 1.139057826995849609e+01 2.890876829624176025e-01 1.003553295135498047e+01 9.048984527587890625e+00 5.725355625152587891e+00 2.166434049606323242e+00
2.870000000000000000e+02 1.119312572479248047e+01 1.874526739120483398e-01 1.180325126647949219e+01 1.042926502227783203e+01 6.669754981994628906e+00 1.859789967536926270e+00
2.880000000000000000e+02 1.041065502166748047e+01 -1.317460656166076660e+00 1.315320134162902832e+00 1.606927680969238281e+01 5.215379238128662109e+00 4.881683588027954102e-01
2.890000000000000000e+02 1.009277725219726562e+01 -1.060697197914123535e+00 2.287334680557250977e+00 1.817865943908691406e+01 6.139798164367675781e+00 3.574502468109130859e+00
2.900000000000000000e+02 9.907473564147949219e+00 1.121070504188537598e+00 2.152021884918212891e+00 1.540163040161132812e+01 5.266095638275146484e+00 -4.962773799896240234e+00
2.910000000000000000e+02 1.048631954193115234e+01 1.271646022796630859e+00 1.381475567817687988e+00 1.614611625671386719e+01 5.258277416229248047e+00 4.693981111049652100e-01
2.920000000000000000e+02 1.057286930084228516e+01 -1.239858627319335938e+00 1.966864466667175293e+00 1.596098136901855469e+01 5.378353595733642578e+00 -8.008790016174316406e-01
2.930000000000000000e+02 8.883888125419616699e-01 -1.356295228004455566e+00 -1.024318486452102661e-02 -7.505215704441070557e-02 -2.558860182762145996e-02 -1.006964370608329773e-01
2.940000000000000000e+02 3.040100336074829102e-01 -1.391423225402832031e+00 -1.343357842415571213e-02 -1.250435113906860352e-01 -4.154312983155250549e-02 -3.742118179798126221e-02
2.950000000000000000e+02 1.093045949935913086e+00 -1.335810899734497070e+00 -3.363543376326560974e-02 -6.390269845724105835e-02 -2.926144003868103027e-02 -1.081779971718788147e-01
2.960000000000000000e+02 1.500203132629394531e+00 -1.350065231323242188e+00 -5.088438838720321655e-02 -4.741179198026657104e-02 -2.948885411024093628e-02 -1.288365721702575684e-01
2.970000000000000000e+02 2.097192764282226562e+00 -1.366299629211425781e+00 -5.183221027255058289e-02 -1.135162636637687683e-02 -1.895515061914920807e-02 -1.458731740713119507e-01
2.980000000000000000e+02 2.692356586456298828e+00 -1.078049063682556152e+00 -1.052899062633514404e-01 1.440068613737821579e-02 -2.726676501333713531e-02 -1.274501979351043701e-01
2.990000000000000000e+02 3.324770212173461914e+00 -1.174355626106262207e+00 -9.525146335363388062e-02 3.872562199831008911e-02 -1.695775240659713745e-02 -8.896591514348983765e-02
3.000000000000000000e+02 4.124855041503906250e+00 -1.150144219398498535e+00 -4.418051615357398987e-02 6.729906797409057617e-02 6.935564801096916199e-03 7.970649749040603638e-03
3.010000000000000000e+02 4.673169612884521484e+00 -1.339155793190002441e+00 1.135860458016395569e-01 1.508724093437194824e-01 7.933753728866577148e-02 1.386332064867019653e-01
3.020000000000000000e+02 6.360189914703369141e+00 -1.196414113044738770e+00 8.390828967094421387e-01 2.874728143215179443e-01 3.379667103290557861e-01 6.611710190773010254e-01
3.030000000000000000e+02 8.068883895874023438e+00 -1.039474606513977051e+00 3.003628492355346680e+00 1.057716965675354004e+00 1.218403697013854980e+00 2.206783056259155273e+00
3.040000000000000000e+02 8.091531753540039062e+00 -1.341143488883972168e+00 2.861826181411743164e+00 1.650508880615234375e+00 1.353700518608093262e+00 2.722738981246948242e+00
3.050000000000000000e+02 8.518143653869628906e+00 -1.328126549720764160e+00 3.591546535491943359e+00 2.676300048828125000e+00 1.880354046821594238e+00 3.734000205993652344e+00
3.060000000000000000e+02 9.530289649963378906e+00 -1.405190467834472656e+00 2.591987848281860352e+00 1.006749725341796875e+01 3.797845602035522461e+00 5.802659511566162109e+00
3.070000000000000000e+02 9.200761795043945312e+00 -1.108575105667114258e+00 4.915297508239746094e+00 6.204964637756347656e+00 3.336078643798828125e+00 5.947238445281982422e+00
3.080000000000000000e+02 9.713594436645507812e+00 -1.432682633399963379e+00 2.017023324966430664e+00 1.183630084991455078e+01 4.155997276306152344e+00 5.341968059539794922e+00
3.090000000000000000e+02 1.005361557006835938e+01 -1.406605482101440430e+00 1.112971067428588867e+00 1.434307384490966797e+01 4.636813640594482422e+00 3.319557189941406250e+00
3.100000000000000000e+02 8.696110725402832031e+00 1.115810751914978027e+00 3.885181188583374023e+00 2.439263582229614258e+00 1.897333383560180664e+00 -3.476893424987792969e+00
3.110000000000000000e+02 8.318943977355957031e+00 1.107985258102416992e+00 3.098144531250000000e+00 1.306386113166809082e+00 1.321359157562255859e+00 -2.350510358810424805e+00
3.120000000000000000e+02 8.301010131835937500e+00 1.368102073669433594e+00 2.928136110305786133e+00 1.965453028678894043e+00 1.468076705932617188e+00 -2.808301448822021484e+00
3.130000000000000000e+02 7.696302413940429688e+00 1.353312492370605469e+00 2.075440645217895508e+00 9.066942334175109863e-01 8.946404457092285156e-01 -1.664296269416809082e+00
3.140000000000000000e+02 7.086571216583251953e+00 1.363262772560119629e+00 1.465918302536010742e+00 5.294553041458129883e-01 5.986120700836181641e-01 -1.065747499465942383e+00
3.150000000000000000e+02 6.295311927795410156e+00 1.356781244277954102e+00 7.816736698150634766e-01 2.547421455383300781e-01 3.109247386455535889e-01 -5.423800945281982422e-01
3.160000000000000000e+02 6.853132724761962891e+00 1.123047709465026855e+00 1.055606245994567871e+00 2.974105477333068848e-01 4.059050679206848145e-01 -6.805836558341979980e-01
3.170000000000000000e+02 5.500124454498291016e+00 1.383009076118469238e+00 4.339509010314941406e-01 1.613209545612335205e-01 1.785815507173538208e-01 -2.993832230567932129e-01
3.180000000000000000e+02 5.101686954498291016e+00 1.365977764129638672e+00 3.020879626274108887e-01 1.312217712402343750e-01 1.299929171800613403e-01 -1.922342330217361450e-01
3.190000000000000000e+02 4.679098129272460938e+00 1.089977860450744629e+00 3.821707144379615784e-02 6.502309441566467285e-02 3.097205050289630890e-02 -5.356845632195472717e-02
3.200000000000000000e+02 4.692054748535156250e+00 1.359875679016113281e+00 1.871746480464935303e-01 1.059983298182487488e-01 8.795189857482910156e-02 -1.037145480513572693e-01
3.210000000000000000e+02 4.073109626770019531e+00 1.115261077880859375e+00 -8.189525455236434937e-03 4.948946461081504822e-02 1.238998211920261383e-02 1.805386878550052643e-02
3.220000000000000000e+02 4.261375904083251953e+00 1.089777827262878418e+00 -1.625975780189037323e-02 5.197913199663162231e-02 1.071581244468688965e-02 -4.696181043982505798e-03
3.230000000000000000e+02 3.370482921600341797e+00 1.137103438377380371e+00 -3.953883424401283264e-02 3.734826296567916870e-02 -6.571713602170348167e-04 7.022780179977416992e-02
3.240000000000000000e+02 3.355420589447021484e+00 8.239315748214721680e-01 -1.498245447874069214e-01 1.815944351255893707e-02 -3.949952870607376099e-02 8.007110655307769775e-02
3.250000000000000000e+02 2.907274961471557617e+00 1.331713795661926270e+00 -3.039160743355751038e-02 1.827754825353622437e-02 -3.634217660874128342e-03 8.852792531251907349e-02
3.260000000000000000e+02 2.497857809066772461e+00 1.363923430442810059e+00 -2.803127281367778778e-02 7.705983705818653107e-03 -6.097586359828710556e-03 9.263470023870468140e-02
3.270000000000000000e+02 1.712112069129943848e+00 1.357282161712646484e+00 -3.758881613612174988e-02 -2.725390717387199402e-02 -1.945281773805618286e-02 1.003079637885093689e-01
3.280000000000000000e+02 5.158184766769409180e-01 1.148278355598449707e+00 -3.847992047667503357e-03 -4.498939588665962219e-02 -1.465121656656265259e-02 4.141805693507194519e-02
3.290000000000000000e+02 5.066074728965759277e-01 1.382435321807861328e+00 -3.963003307580947876e-02 -8.586739748716354370e-02 -3.764922916889190674e-02 8.034459501504898071e-02
3.300000000000000000e+02 1.299041390419006348e+00 -1.344434380531311035e+00 -2.570051141083240509e-02 -4.668961465358734131e-02 -2.171703800559043884e-02 -1.237456873059272766e-01
3.310000000000000000e+02 1.699975848197937012e+00 -1.355569839477539062e+00 -2.440863475203514099e-02 -2.745207212865352631e-02 -1.555821206420660019e-02 -1.331335008144378662e-01
3.320000000000000000e+02 1.902339577674865723e+00 -1.086406946182250977e+00 -6.108937785029411316e-02 -1.587433926761150360e-02 -2.308911457657814026e-02 -1.260778158903121948e-01
3.330000000000000000e+02 3.901492595672607422e+00 -1.116383552551269531e+00 -6.429442763328552246e-02 8.003678172826766968e-02 4.722706507891416550e-03 -3.343006223440170288e-02
3.340000000000000000e+02 4.295088768005371094e+00 -1.396833062171936035e+00 5.610237643122673035e-02 1.465052068233489990e-01 6.078227236866950989e-02 8.998915553092956543e-02
3.350000000000000000e+02 4.898310184478759766e+00 -1.326452493667602539e+00 1.597898304462432861e-01 1.561207175254821777e-01 9.477316588163375854e-02 1.841100156307220459e-01
3.360000000000000000e+02 5.189235210418701172e+00 -1.027584314346313477e+00 1.098500490188598633e-01 1.183526739478111267e-01 6.846081465482711792e-02 1.670926362276077271e-01
3.370000000000000000e+02 5.320949077606201172e+00 -1.354625225067138672e+00 3.397143781185150146e-01 2.150708287954330444e-01 1.664355695247650146e-01 3.311778604984283447e-01
3.380000000000000000e+02 5.764801025390625000e+00 -1.137822866439819336e+00 4.178547561168670654e-01 1.853891760110855103e-01 1.809731721878051758e-01 3.913750350475311279e-01
3.390000000000000000e+02 7.065707683563232422e+00 -1.340578079223632812e+00 1.526106119155883789e+00 6.134695410728454590e-01 6.418727040290832520e-01 1.305673360824584961e+00
3.400000000000000000e+02 7.867691516876220703e+00 -1.045733809471130371e+00 2.593878269195556641e+00 7.723932862281799316e-01 1.009881496429443359e+00 1.829057693481445312e+00
3.410000000000000000e+02 8.726363182067871094e+00 -1.351821899414062500e+00 3.856060266494750977e+00 3.614727973937988281e+00 2.241236448287963867e+00 4.509591102600097656e+00
3.420000000000000000e+02 9.130440711975097656e+00 -1.369238615036010742e+00 3.488999128341674805e+00 6.439064979553222656e+00 2.978419303894042969e+00 5.579975605010986328e+00
3.430000000000000000e+02 9.318794250488281250e+00 1.382393121719360352e+00 3.042909383773803711e+00 7.775125503540039062e+00 3.245410442352294922e+00 -5.412353992462158203e+00
3.440000000000000000e+02 9.116800308227539062e+00 1.368067383766174316e+00 3.296060323715209961e+00 5.971837997436523438e+00 2.780369520187377930e+00 -4.938584804534912109e+00
3.450000000000000000e+02 7.289333343505859375e+00 1.351579427719116211e+00 1.677176833152770996e+00 5.862072110176086426e-01 6.790152192115783691e-01 -1.223746061325073242e+00
3.460000000000000000e+02 6.666684150695800781e+00 1.139312386512756348e+00 9.074381589889526367e-01 2.458535432815551758e-01 3.459874987602233887e-01 -5.882805585861206055e-01
3.470000000000000000e+02 5.690845012664794922e+00 1.169502496719360352e+00 3.985489606857299805e-01 1.250387579202651978e-01 1.570763140916824341e-01 -2.526364326477050781e-01
3.480000000000000000e+02 4.897675514221191406e+00 1.088674783706665039e+00 1.004012152552604675e-01 7.314702868461608887e-02 5.206447467207908630e-02 -8.030987530946731567e-02
3.490000000000000000e+02 3.899146795272827148e+00 1.380541920661926270e+00 6.338869035243988037e-02 7.984967529773712158e-02 4.297151044011116028e-02 1.085749175399541855e-02
3.500000000000000000e+02 3.887932062149047852e+00 1.137910962104797363e+00 -2.307516150176525116e-02 4.918184131383895874e-02 7.832003757357597351e-03 2.140938304364681244e-02
3.510000000000000000e+02 1.941070795059204102e+00 1.156734108924865723e+00 -5.700507387518882751e-02 -2.101321890950202942e-02 -2.340548671782016754e-02 1.024707779288291931e-01
3.520000000000000000e+02 9.954800605773925781e+00 -1.239313125610351562e+00 1.879684805870056152e+00 1.519253540039062500e+01 5.121665954589843750e+00 4.585962772369384766e+00
3.530000000000000000e+02 5.880936145782470703e+00 -3.953866362571716309e-01 -2.123880088329315186e-01 1.654908247292041779e-02 -5.875167995691299438e-02 8.319929242134094238e-02
3.540000000000000000e+02 7.868466854095458984e+00 -4.396730363368988037e-01 1.482547760009765625e+00 6.822107732295989990e-02 4.652306437492370605e-01 5.280475616455078125e-01
3.550000000000000000e+02 8.323198318481445312e+00 4.218527972698211670e-01 1.826035976409912109e+00 1.222460716962814331e-01 5.844846367835998535e-01 -6.225994229316711426e-01
3.560000000000000000e+02 7.904225349426269531e+00 4.247169494628906250e-01 1.102134704589843750e+00 9.499964118003845215e-02 3.591403067111968994e-01 -4.297780394554138184e-01
3.570000000000000000e+02 4.701137542724609375e+00 1.260974556207656860e-01 -5.570330023765563965e-01 -1.318567199632525444e-03 -1.675054728984832764e-01 1.517868321388959885e-02
3.580000000000000000e+02 7.303282260894775391e+00 1.354932188987731934e-01 -2.883699834346771240e-01 7.433945313096046448e-03 -8.428081125020980835e-02 -5.415157601237297058e-02
3.590000000000000000e+02 7.303153038024902344e+00 -1.278868615627288818e-01 1.482494641095399857e-02 -5.349941086024045944e-03 2.842501504346728325e-03 8.826772123575210571e-02
3.600000000000000000e+02 6.533110141754150391e+00 4.080563485622406006e-01 -5.884832143783569336e-02 2.588820084929466248e-02 -9.888036176562309265e-03 -9.709283709526062012e-02
3.610000000000000000e+02 7.104721069335937500e+00 1.325948536396026611e-01 -3.608302772045135498e-01 1.964557543396949768e-02 -1.023554056882858276e-01 -3.298149257898330688e-02
3.620000000000000000e+02 8.112528800964355469e+00 4.328442811965942383e-01 1.469650387763977051e+00 1.035355776548385620e-01 4.719558060169219971e-01 -5.107845664024353027e-01
3.630000000000000000e+02 8.929835319519042969e+00 -3.179746866226196289e-01 4.531022071838378906e+00 4.315342605113983154e-01 1.488766908645629883e+00 1.436915397644042969e+00
3.640000000000000000e+02 8.596513748168945312e+00 -2.476141005754470825e-01 2.324585199356079102e+00 2.016039043664932251e-01 7.578567266464233398e-01 5.082182884216308594e-01
3.650000000000000000e+02 8.319588661193847656e+00 -1.394328922033309937e-01 1.072380304336547852e+00 4.878050182014703751e-03 3.231775164604187012e-01 1.383834332227706909e-01
3.660000000000000000e+02 7.896694183349609375e+00 -1.483428627252578735e-01 6.175861358642578125e-01 1.104630082845687866e-01 2.184147536754608154e-01 1.965729296207427979e-01
3.670000000000000000e+02 4.690986156463623047e+00 -1.297260075807571411e-01 -6.208235025405883789e-01 3.211041213944554329e-03 -1.852837353944778442e-01 -1.010384596884250641e-02
3.680000000000000000e+02 2.994648516178131104e-01 3.495013415813446045e-01 -1.234843861311674118e-02 -1.546777505427598953e-02 -8.344864472746849060e-03 1.446128450334072113e-02
3.690000000000000000e+02 2.688107252120971680e+00 -1.198066771030426025e-01 -3.583599328994750977e-01 -1.134129241108894348e-03 -1.078482195734977722e-01 -2.011418715119361877e-02
3.700000000000000000e+02 3.072667360305786133e+00 -4.050358831882476807e-01 -3.205453157424926758e-01 7.233353331685066223e-03 -9.399358928203582764e-02 -6.663519144058227539e-02
3.710000000000000000e+02 3.301852226257324219e+00 -4.238827824592590332e-01 -3.440390527248382568e-01 1.372381811961531639e-03 -1.027999967336654663e-01 -6.499966233968734741e-02
3.720000000000000000e+02 3.299222469329833984e+00 1.583903282880783081e-01 -3.893374800682067871e-01 -3.752789692953228951e-03 -1.179270818829536438e-01 2.397070080041885376e-02
3.730000000000000000e+02 3.911753177642822266e+00 1.607409417629241943e-01 -4.705609381198883057e-01 -1.793816220015287399e-03 -1.417064219713211060e-01 2.459116093814373016e-02
3.740000000000000000e+02 2.494956493377685547e+00 1.634936779737472534e-01 -2.642195522785186768e-01 -4.980540834367275238e-03 -8.076002448797225952e-02 2.624592557549476624e-02
3.750000000000000000e+02 3.097318887710571289e+00 1.619818061590194702e-01 -3.567695617675781250e-01 7.826497778296470642e-03 -1.046829223632812500e-01 2.739370428025722504e-02
3.760000000000000000e+02 3.199888706207275391e+00 6.661611199378967285e-01 -2.094415426254272461e-01 -1.356660970486700535e-03 -6.323945522308349609e-02 7.288850098848342896e-02
3.770000000000000000e+02 3.502358675003051758e+00 -1.408780515193939209e-01 -4.941228628158569336e-01 -5.902463104575872421e-03 -1.500075906515121460e-01 -2.585332095623016357e-02
3.780000000000000000e+02 2.450752735137939453e+00 -2.514180839061737061e-01 -2.737158536911010742e-01 -6.837676279246807098e-03 -8.416606485843658447e-02 -4.455911740660667419e-02
3.790000000000000000e+02 1.939509868621826172e+00 -1.946533620357513428e-01 -1.930746883153915405e-01 -2.988367108628153801e-03 -5.881891772150993347e-02 -3.707586228847503662e-02
3.800000000000000000e+02 1.963103652000427246e+00 -5.278034210205078125e-01 -1.480554342269897461e-01 5.688003730028867722e-03 -4.271022975444793701e-02 -7.803181558847427368e-02
3.810000000000000000e+02 6.975221633911132812e-01 -1.828634589910507202e-01 -1.962430030107498169e-02 -4.932690877467393875e-03 -7.367097772657871246e-03 -1.175823248922824860e-02
3.820000000000000000e+02 2.311627268791198730e-01 -3.789996504783630371e-01 -2.859467407688498497e-03 -1.043194090016186237e-03 -1.170798554085195065e-03 -3.668250283226370811e-03
3.830000000000000000e+02 4.852280616760253906e-01 -1.750710308551788330e-01 -7.106333971023559570e-03 -3.627436002716422081e-03 -3.220130922272801399e-03 -7.504099514335393906e-03
3.840000000000000000e+02 1.108332395553588867e+00 -1.638900786638259888e-01 -6.224691122770309448e-02 1.159808089141733944e-04 -1.863927952945232391e-02 -1.892640069127082825e-02
3.850000000000000000e+02 5.902637958526611328e+00 1.572605222463607788e-01 -5.511508584022521973e-01 2.005002927035093307e-03 -1.647437661886215210e-01 -3.934815991669893265e-03
3.860000000000000000e+02 6.129099369049072266e+00 4.393589794635772705e-01 -1.416491419076919556e-01 1.668724603950977325e-02 -3.748856857419013977e-02 -6.207967922091484070e-02
3.870000000000000000e+02 4.142144203186035156e+00 4.426609277725219727e-01 -3.277570009231567383e-01 5.494520999491214752e-03 -9.667874872684478760e-02 3.891694918274879456e-02
3.880000000000000000e+02 6.708186626434326172e+00 1.365282684564590454e-01 -4.593051970005035400e-01 8.327820338308811188e-03 -1.352932155132293701e-01 -2.310976199805736542e-02
3.890000000000000000e+02 7.697260856628417969e+00 -1.324286907911300659e-01 3.879527747631072998e-01 -2.053960412740707397e-02 1.102239564061164856e-01 1.309730410575866699e-01
3.900000000000000000e+02 7.104060173034667969e+00 -1.367662101984024048e-01 -1.102178320288658142e-01 3.115754760801792145e-02 -2.371808700263500214e-02 6.841944903135299683e-02
3.910000000000000000e+02 5.630605220794677734e+00 -8.765625953674316406e-01 1.690163910388946533e-01 9.734465181827545166e-02 7.990831136703491211e-02 2.285280227661132812e-01
3.920000000000000000e+02 5.046647071838378906e+00 -3.743271827697753906e-01 -4.070303738117218018e-01 1.732958666980266571e-02 -1.169102340936660767e-01 1.363790687173604965e-02
3.930000000000000000e+02 4.523074150085449219e+00 3.954443335533142090e-01 -3.668168783187866211e-01 -1.144166220910847187e-03 -1.103883087635040283e-01 2.617684565484523773e-02
3.940000000000000000e+02 4.711832046508789062e+00 3.474344015121459961e-01 -4.038487672805786133e-01 9.380815550684928894e-03 -1.183403879404067993e-01 2.205729298293590546e-02
3.950000000000000000e+02 7.698516368865966797e+00 4.180117547512054443e-01 7.522937059402465820e-01 9.284790605306625366e-02 2.535424828529357910e-01 -3.290313184261322021e-01
3.960000000000000000e+02 6.700313091278076172e+00 -3.808155059814453125e-01 1.644883751869201660e-01 3.524457290768623352e-02 5.991988256573677063e-02 1.804111897945404053e-01
3.970000000000000000e+02 6.088542938232421875e+00 -3.830642998218536377e-01 -1.665701866149902344e-01 2.785702794790267944e-02 -4.161394760012626648e-02 1.036082357168197632e-01
3.980000000000000000e+02 4.089779376983642578e+00 -1.334567815065383911e-01 -5.782699584960937500e-01 -4.415669012814760208e-03 -1.748056858777999878e-01 -2.103945426642894745e-02
3.990000000000000000e+02 1.088611483573913574e-01 -1.175893902778625488e+00 -1.512666046619415283e-02 -5.657327175140380859e-02 -2.150997892022132874e-02 -1.076636277139186859e-02
4.000000000000000000e+02 1.197042241692543030e-01 -7.250900864601135254e-01 -1.249673124402761459e-02 -2.087548375129699707e-02 -1.001166459172964096e-02 -1.069881767034530640e-02
4.010000000000000000e+02 3.080295920372009277e-01 1.164847373962402344e+00 -4.581731185317039490e-02 -7.714951038360595703e-02 -3.689004480838775635e-02 5.344826355576515198e-02
4.020000000000000000e+02 3.398019671440124512e-01 -9.332243800163269043e-01 -1.861509494483470917e-02 -4.929187521338462830e-02 -2.037209086120128632e-02 -2.987271174788475037e-02
4.030000000000000000e+02 1.505174279212951660e+00 -1.053133010864257812e+00 -5.274329334497451782e-02 -2.502832189202308655e-02 -2.333148382604122162e-02 -1.178520172834396362e-01
4.040000000000000000e+02 9.072464108467102051e-01 -1.675877422094345093e-01 -3.628122434020042419e-02 -3.171202028170228004e-03 -1.183572877198457718e-02 -1.758552156388759613e-02
4.050000000000000000e+02 3.997492194175720215e-01 -4.502246081829071045e-01 -1.977002061903476715e-02 -1.779420673847198486e-02 -1.126926764845848083e-02 -1.637782528996467590e-02
4.060000000000000000e+02 6.008073329925537109e+00 -9.523974061012268066e-01 4.007309675216674805e-01 1.274913400411605835e-01 1.584666967391967773e-01 3.667462170124053955e-01
4.070000000000000000e+02 8.651900291442871094e+00 8.789014220237731934e-01 3.945863962173461914e+00 1.588520765304565430e+00 1.660315394401550293e+00 -2.782189369201660156e+00
4.080000000000000000e+02 1.731535434722900391e+00 7.469242811203002930e-01 -7.695870846509933472e-02 5.759037565439939499e-03 -2.135990187525749207e-02 8.449909836053848267e-02
4.090000000000000000e+02 3.018066883087158203e-01 9.518908262252807617e-01 3.471811488270759583e-02 -4.270419105887413025e-02 -2.395822899416089058e-03 1.014098525047302246e-02
4.100000000000000000e+02 6.622801303863525391e+00 9.074098467826843262e-01 6.512972116470336914e-01 1.378437429666519165e-01 2.367422878742218018e-01 -3.950340151786804199e-01
4.110000000000000000e+02 5.909246444702148438e+00 4.538686871528625488e-01 -1.761997342109680176e-01 1.611918956041336060e-02 -4.802416265010833740e-02 -4.839904606342315674e-02
4.120000000000000000e+02 6.162439823150634766e+00 7.207787036895751953e-01 2.002204060554504395e-01 6.090487912297248840e-02 7.833758741617202759e-02 -1.810672283172607422e-01
4.130000000000000000e+02 6.994360446929931641e+00 8.569750189781188965e-01 9.254024028778076172e-01 1.757462173700332642e-01 3.303445875644683838e-01 -5.131323933601379395e-01
4.140000000000000000e+02 5.450508117675781250e+00 -8.567239046096801758e-01 8.858198672533035278e-02 9.717772156000137329e-02 5.572791397571563721e-02 1.741973310708999634e-01
4.150000000000000000e+02 2.871636390686035156e+00 7.811645865440368652e-01 -1.649784594774246216e-01 -1.659591100178658962e-03 -4.999141395092010498e-02 9.275414794683456421e-02
4.160000000000000000e+02 5.379126071929931641e+00 -1.084372639656066895e+00 2.157041877508163452e-01 1.337104737758636475e-01 1.048243939876556396e-01 2.509905695915222168e-01
4.170000000000000000e+02 1.398319959640502930e+00 7.668839693069458008e-01 -4.437392204999923706e-02 -1.693235523998737335e-02 -1.839188300073146820e-02 9.570314735174179077e-02
4.180000000000000000e+02 6.539139270782470703e+00 -7.426691055297851562e-01 5.523003935813903809e-01 1.220694184303283691e-01 2.023109346628189087e-01 3.983963429927825928e-01
4.190000000000000000e+02 8.926049232482910156e+00 1.086104631423950195e+00 4.426782608032226562e+00 3.624620914459228516e+00 2.415421009063720703e+00 -4.388511657714843750e+00
4.200000000000000000e+02 8.306077003479003906e+00 -5.263161063194274902e-01 2.918315649032592773e+00 2.538075447082519531e-01 9.516369104385375977e-01 1.167313218116760254e+00
4.210000000000000000e+02 7.307789921760559082e-01 8.630416393280029297e-01 -2.942596003413200378e-02 -1.969662867486476898e-02 -1.473677717149257660e-02 4.977110400795936584e-02
4.220000000000000000e+02 1.100474834442138672e+00 1.160607099533081055e+00 -3.726854920387268066e-02 -5.130279809236526489e-02 -2.657140418887138367e-02 7.479619234800338745e-02
4.230000000000000000e+02 7.306941032409667969e+00 3.945715725421905518e-01 3.527534902095794678e-01 6.444592773914337158e-02 1.251598298549652100e-01 -1.964478492736816406e-01
4.240000000000000000e+02 7.039049625396728516e+00 -1.044562935829162598e+00 1.292118310928344727e+00 3.509028851985931396e-01 4.929063618183135986e-01 9.261798858642578125e-01
4.250000000000000000e+02 1.023482680320739746e-01 1.177505373954772949e+00 7.532916218042373657e-02 -5.682266131043434143e-02 5.551951471716165543e-03 -2.011582953855395317e-03
4.260000000000000000e+02 2.894755125045776367e+00 4.842920303344726562e-01 -2.297229915857315063e-01 6.262531504034996033e-03 -6.703814119100570679e-02 6.370569765567779541e-02
4.270000000000000000e+02 2.489332199096679688e+00 -7.762782573699951172e-01 -1.627073734998703003e-01 1.096575707197189331e-02 -4.552248492836952209e-02 -1.109861657023429871e-01
4.280000000000000000e+02 2.900695800781250000e-01 7.499809861183166504e-01 -3.747458755970001221e-02 -2.942461334168910980e-02 -2.006976120173931122e-02 4.136247187852859497e-02
4.290000000000000000e+02 5.359550952911376953e+00 8.854522109031677246e-01 7.653839886188507080e-02 5.576090514659881592e-02 3.968979045748710632e-02 -9.860792011022567749e-02
4.300000000000000000e+02 5.542640686035156250e+00 9.272234439849853516e-01 1.779395937919616699e-01 7.436173409223556519e-02 7.569039613008499146e-02 -1.440225690603256226e-01
4.310000000000000000e+02 2.289767265319824219e+00 4.532178044319152832e-01 -1.751781404018402100e-01 -5.689748562872409821e-03 -5.426036566495895386e-02 6.388688832521438599e-02
4.320000000000000000e+02 5.462149143218994141e+00 -6.578353047370910645e-01 -7.431085407733917236e-02 5.721105635166168213e-02 -5.129939410835504532e-03 1.195963770151138306e-01
4.330000000000000000e+02 2.269171953201293945e+00 -1.086358547210693359e+00 -1.021791771054267883e-01 -4.480071831494569778e-03 -3.199777379631996155e-02 -1.391451060771942139e-01
4.340000000000000000e+02 2.378907203674316406e+00 6.428192853927612305e-01 -1.742773354053497314e-01 -3.940845374017953873e-03 -5.346545204520225525e-02 7.984722405672073364e-02
4.350000000000000000e+02 6.141150951385498047e+00 -8.237398862838745117e-01 3.730651140213012695e-01 1.249125078320503235e-01 1.493932902812957764e-01 3.300332427024841309e-01
4.360000000000000000e+02 6.323180675506591797e+00 1.092329025268554688e+00 6.262790560722351074e-01 1.506733447313308716e-01 2.330857217311859131e-01 -4.057243764400482178e-01
4.370000000000000000e+02 1.305986762046813965e+00 -1.038612484931945801e+00 -5.738930404186248779e-02 -4.362606257200241089e-02 -3.030460886657238007e-02 -1.071275249123573303e-01
4.380000000000000000e+02 8.587377548217773438e+00 -7.035877108573913574e-01 4.316044330596923828e+00 8.647373914718627930e-01 1.554234504699707031e+00 2.395397424697875977e+00
4.390000000000000000e+02 8.888291358947753906e+00 8.244770765304565430e-01 4.810604095458984375e+00 2.268103361129760742e+00 2.123612165451049805e+00 -3.537027359008789062e+00
4.400000000000000000e+02 9.206407070159912109e-01 -9.558174610137939453e-01 -3.955796733498573303e-02 -5.751382932066917419e-02 -2.912153862416744232e-02 -8.032816648483276367e-02
4.410000000000000000e+02 7.071588516235351562e+00 -7.870962619781494141e-01 1.091146826744079590e+00 1.874610781669616699e-01 3.835823833942413330e-01 6.688510775566101074e-01
4.420000000000000000e+02 6.807122230529785156e+00 8.832761049270629883e-01 7.569519281387329102e-01 1.528372764587402344e-01 2.729367613792419434e-01 -4.406214356422424316e-01
4.430000000000000000e+02 2.893933951854705811e-01 5.528285503387451172e-01 1.365439873188734055e-02 -8.496208116412162781e-03 1.547457068227231503e-03 -5.275150761008262634e-03
4.440000000000000000e+02 8.357096672058105469e+00 7.064750790596008301e-01 2.909776210784912109e+00 6.143305301666259766e-01 1.057232022285461426e+00 -1.526573657989501953e+00
4.450000000000000000e+02 8.270479202270507812e+00 -1.023632287979125977e+00 3.477964878082275391e+00 1.234857082366943359e+00 1.413846611976623535e+00 2.570044517517089844e+00
4.460000000000000000e+02 7.560356140136718750e+00 -5.348212122917175293e-01 1.312134981155395508e+00 1.675254255533218384e-01 4.438981413841247559e-01 5.723275542259216309e-01
4.470000000000000000e+02 7.259362220764160156e+00 1.051796913146972656e+00 1.368350386619567871e+00 3.550956547260284424e-01 5.170338153839111328e-01 -8.586156964302062988e-01
4.480000000000000000e+02 7.634734630584716797e+00 -7.674847245216369629e-01 1.834259390830993652e+00 2.701367437839508057e-01 6.313188076019287109e-01 9.823318719863891602e-01
4.490000000000000000e+02 7.500674247741699219e+00 -1.233047172427177429e-01 1.839873045682907104e-01 4.161991924047470093e-02 6.768216937780380249e-02 1.159655526280403137e-01
4.500000000000000000e+02 8.504671096801757812e+00 -5.204694271087646484e-01 3.508915662765502930e+00 6.266975998878479004e-01 1.240684032440185547e+00 1.554312348365783691e+00
4.510000000000000000e+02 8.111049652099609375e+00 1.055274009704589844e+00 2.716934680938720703e+00 9.721574187278747559e-01 1.106727600097656250e+00 -1.879491567611694336e+00
4.520000000000000000e+02 7.257553100585937500e+00 -1.072890400886535645e+00 1.611790776252746582e+00 4.781310260295867920e-01 6.269765496253967285e-01 1.181793212890625000e+00
4.530000000000000000e+02 7.485047340393066406e+00 1.028296947479248047e+00 1.650487661361694336e+00 3.919342458248138428e-01 6.127265691757202148e-01 -1.003552079200744629e+00
4.540000000000000000e+02 7.503221988677978516e+00 -3.444402813911437988e-01 6.901040673255920410e-01 1.370552554726600647e-02 2.111428827047348022e-01 2.793262302875518799e-01
4.550000000000000000e+02 7.271910309791564941e-01 -4.768870770931243896e-01 -3.039742633700370789e-02 -1.839714311063289642e-02 -1.463837083429098129e-02 -3.648512065410614014e-02
4.560000000000000000e+02 5.073539614677429199e-01 3.733407557010650635e-01 -1.128767803311347961e-02 1.132064405828714371e-02 9.889853572531137615e-06 7.646508049219846725e-03
4.570000000000000000e+02 5.345447063446044922e-01 -5.940663814544677734e-01 -1.418018992990255356e-02 -1.849512383341789246e-02 -9.802594780921936035e-03 -2.538903988897800446e-02
4.580000000000000000e+02 8.786366462707519531e+00 -1.085190057754516602e+00 4.488883495330810547e+00 3.154855012893676758e+00 2.293121576309204102e+00 4.270862102508544922e+00
4.590000000000000000e+02 8.593629837036132812e+00 -1.034714937210083008e+00 4.283400058746337891e+00 1.949678540229797363e+00 1.869923591613769531e+00 3.521956682205200195e+00
4.600000000000000000e+02 6.814255237579345703e+00 -9.600764513015747070e-01 1.017599105834960938e+00 2.548781633377075195e-01 3.817431628704071045e-01 7.351228594779968262e-01
4.610000000000000000e+02 6.570720672607421875e+00 6.667274236679077148e-01 3.326544463634490967e-01 5.986790359020233154e-02 1.177567094564437866e-01 -2.175070941448211670e-01
4.620000000000000000e+02 1.317675113677978516e+00 -7.443127632141113281e-01 -6.629858911037445068e-02 -1.839277334511280060e-02 -2.540740743279457092e-02 -8.869464695453643799e-02
4.630000000000000000e+02 1.223283410072326660e+00 8.314480781555175781e-01 -9.070007503032684326e-02 -1.306384336203336716e-02 -3.112917579710483551e-02 7.858680188655853271e-02
4.640000000000000000e+02 1.124009132385253906e+00 9.628332853317260742e-01 -3.328768908977508545e-02 -3.151587210595607758e-03 -1.093178335577249527e-02 7.820035517215728760e-02
4.650000000000000000e+02 1.105970025062561035e+00 -1.018557906150817871e+00 -3.413007408380508423e-02 -3.577221184968948364e-02 -2.097068540751934052e-02 -9.723423421382904053e-02
4.660000000000000000e+02 6.378637790679931641e+00 -9.857322573661804199e-01 6.767398715019226074e-01 1.917895823717117310e-01 2.605588436126708984e-01 5.289881229400634766e-01
4.670000000000000000e+02 5.866957187652587891e+00 1.163851737976074219e+00 4.627796411514282227e-01 1.402447670698165894e-01 1.809073239564895630e-01 -3.006899952888488770e-01
4.680000000000000000e+02 1.514773011207580566e+00 -7.613509893417358398e-01 -9.146244823932647705e-02 -2.472264878451824188e-02 -3.485552966594696045e-02 -9.807733446359634399e-02
4.690000000000000000e+02 1.444802045822143555e+00 9.431028366088867188e-01 -6.747427582740783691e-02 -5.913437809795141220e-03 -2.201631292700767517e-02 8.447276055812835693e-02
4.700000000000000000e+02 5.619352817535400391e+00 7.003617882728576660e-01 -1.930296979844570160e-02 3.679241985082626343e-02 5.246835760772228241e-03 -8.372239768505096436e-02
4.710000000000000000e+02 5.872273445129394531e+00 -6.479326486587524414e-01 6.475696712732315063e-02 6.668175756931304932e-02 3.943161666393280029e-02 1.855660229921340942e-01
4.720000000000000000e+02 1.927343726158142090e+00 -8.159897327423095703e-01 -1.312492042779922485e-01 -1.741382852196693420e-02 -4.459890723228454590e-02 -1.230562850832939148e-01
4.730000000000000000e+02 1.836697220802307129e+00 4.731300473213195801e-01 -1.311995387077331543e-01 -1.582340337336063385e-02 -4.410688206553459167e-02 6.326167285442352295e-02
4.740000000000000000e+02 4.484950065612792969e+00 -4.092569947242736816e-01 -4.135582447052001953e-01 1.287429034709930420e-02 -1.202051863074302673e-01 -1.674267463386058807e-02
4.750000000000000000e+02 5.682041645050048828e+00 4.423465132713317871e-01 -2.295915782451629639e-01 1.044375263154506683e-02 -6.574434787034988403e-02 -3.803232312202453613e-02
4.760000000000000000e+02 2.226099729537963867e+00 -6.453637480735778809e-01 -1.778190135955810547e-01 -1.308759860694408417e-02 -5.727198347449302673e-02 -1.030876412987709045e-01
4.770000000000000000e+02 2.478810548782348633e+00 4.491901397705078125e-01 -1.939022392034530640e-01 5.145083181560039520e-03 -5.662714689970016479e-02 6.656982749700546265e-02
4.780000000000000000e+02 5.702065944671630859e+00 9.720186591148376465e-01 2.233862131834030151e-01 7.923284918069839478e-02 9.078571945428848267e-02 -1.781338304281234741e-01
4.790000000000000000e+02 9.861344695091247559e-01 4.200553297996520996e-01 -5.903436988592147827e-02 1.142014283686876297e-03 -1.736770756542682648e-02 3.304713219404220581e-02
4.800000000000000000e+02 6.865882396697998047e+00 -6.946779489517211914e-01 7.777158617973327637e-01 1.259083598852157593e-01 2.710872590541839600e-01 4.768950045108795166e-01
4.810000000000000000e+02 2.091331005096435547e+00 -1.111598134040832520e+00 -8.971836417913436890e-02 -1.255813241004943848e-02 -3.068294934928417206e-02 -1.311686187982559204e-01
4.820000000000000000e+02 7.375257492065429688e+00 -5.870767831802368164e-01 1.156530737876892090e+00 1.047215536236763000e-01 3.783756792545318604e-01 5.563456416130065918e-01
4.830000000000000000e+02 8.118208885192871094e+00 7.375722527503967285e-01 2.321402311325073242e+00 4.242897927761077881e-01 8.237075805664062500e-01 -1.206716537475585938e+00
4.840000000000000000e+02 7.182654380798339844e+00 8.083785176277160645e-01 1.041031718254089355e+00 1.672075539827346802e-01 3.624717891216278076e-01 -5.326239466667175293e-01
4.850000000000000000e+02 8.061659812927246094e+00 -7.544200420379638672e-01 2.748157978057861328e+00 4.318000376224517822e-01 9.539873600006103516e-01 1.449624776840209961e+00
4.860000000000000000e+02 2.288366317749023438e+00 1.105708003044128418e+00 -6.944644451141357422e-02 -4.184507764875888824e-03 -2.208928577601909637e-02 1.026363745331764221e-01
4.870000000000000000e+02 1.893611550331115723e+00 8.765718936920166016e-01 -9.871385246515274048e-02 -2.251905016601085663e-02 -3.636987134814262390e-02 9.910421073436737061e-02
4.880000000000000000e+02 5.572792530059814453e+00 -1.114845037460327148e+00 3.245777189731597900e-01 1.679911613464355469e-01 1.477706581354141235e-01 3.097336888313293457e-01
4.890000000000000000e+02 3.494744300842285156e+00 -7.762568593025207520e-01 -2.232837378978729248e-01 8.504858240485191345e-03 -6.443366408348083496e-02 -7.208061963319778442e-02
4.900000000000000000e+02 4.491045475006103516e+00 -1.396871507167816162e-01 -6.120779514312744141e-01 6.990928086452186108e-04 -1.834136545658111572e-01 -1.433244720101356506e-02
4.910000000000000000e+02 6.093074798583984375e+00 -6.247726082801818848e-01 1.452767550945281982e-01 5.344275757670402527e-02 5.961585417389869690e-02 2.099745720624923706e-01
4.920000000000000000e+02 1.616156101226806641e+00 4.187647104263305664e-01 -1.061668619513511658e-01 1.103539671748876572e-02 -2.853943966329097748e-02 5.424319207668304443e-02
4.930000000000000000e+02 8.265336036682128906e+00 -7.771984934806823730e-01 3.228123188018798828e+00 6.890140175819396973e-01 1.175141215324401855e+00 1.860551953315734863e+00
4.940000000000000000e+02 3.040254831314086914e+00 -6.597338318824768066e-01 -2.329410314559936523e-01 -4.878925625234842300e-03 -7.134599238634109497e-02 -9.631165117025375366e-02
4.950000000000000000e+02 3.182293653488159180e+00 -1.286990880966186523e+00 -4.736229032278060913e-02 5.628292635083198547e-02 2.676191274076700211e-03 -9.509833902120590210e-02
4.960000000000000000e+02 3.700124979019165039e+00 -8.394787311553955078e-01 -1.936681866645812988e-01 3.823206201195716858e-02 -4.663083702325820923e-02 -6.685059517621994019e-02
4.970000000000000000e+02 3.234292745590209961e+00 -8.975617885589599609e-01 -1.768068075180053711e-01 9.121228009462356567e-03 -5.030567198991775513e-02 -9.135203808546066284e-02
4.980000000000000000e+02 4.274090766906738281e+00 6.616340279579162598e-01 -2.020964324474334717e-01 1.777382940053939819e-02 -5.529678240418434143e-02 3.340664878487586975e-02
4.990000000000000000e+02 4.685798168182373047e+00 8.589065670967102051e-01 -4.644248634576797485e-02 4.373516142368316650e-02 -8.121972787193953991e-04 -1.225814037024974823e-02
5.000000000000000000e+02 4.787053108215332031e+00 -5.285969376564025879e-01 -2.979949116706848145e-01 2.217526547610759735e-02 -8.274589478969573975e-02 1.635130867362022400e-02
5.010000000000000000e+02 5.083986759185791016e+00 3.485971391201019287e-01 -4.010321497917175293e-01 1.492611132562160492e-02 -1.158318147063255310e-01 3.748147515580058098e-03
5.020000000000000000e+02 3.631146907806396484e+00 8.523319959640502930e-01 -1.227045804262161255e-01 1.625122502446174622e-02 -3.193600475788116455e-02 7.244063168764114380e-02
5.030000000000000000e+02 4.899170875549316406e+00 1.217303648591041565e-01 -5.721589326858520508e-01 5.217820871621370316e-03 -1.700823307037353516e-01 1.129604037851095200e-02
5.040000000000000000e+02 4.058701515197753906e+00 -3.757579624652862549e-01 -4.321160018444061279e-01 3.807584755122661591e-03 -1.284925192594528198e-01 -3.523756936192512512e-02
5.050000000000000000e+02 4.264520168304443359e+00 -4.013584554195404053e-01 -4.112541675567626953e-01 1.161187607795000076e-02 -1.198926866054534912e-01 -2.795713581144809723e-02
5.060000000000000000e+02 3.877544403076171875e+00 -3.376358151435852051e-01 -4.346950948238372803e-01 8.838379755616188049e-03 -1.277570128440856934e-01 -4.886149615049362183e-02
5.070000000000000000e+02 3.712341070175170898e+00 1.157479882240295410e+00 -1.870208792388439178e-02 4.895649477839469910e-02 9.076321497559547424e-03 4.501279816031455994e-02
5.080000000000000000e+02 4.289303779602050781e+00 -1.402549445629119873e-01 -5.993599891662597656e-01 5.501196719706058502e-03 -1.781576275825500488e-01 -1.819235086441040039e-02
5.090000000000000000e+02 7.154691219329833984e-01 1.531558632850646973e-01 -1.380619965493679047e-02 4.382890649139881134e-03 -2.826992888003587723e-03 5.377374123781919479e-03
5.100000000000000000e+02 1.283971667289733887e+00 1.132958233356475830e-01 -8.229868859052658081e-02 -3.236332163214683533e-02 -3.439860418438911438e-02 5.026057828217744827e-03
5.110000000000000000e+02 1.194373726844787598e+00 2.879570126533508301e-01 -5.938306078314781189e-02 1.292129699140787125e-02 -1.393852941691875458e-02 3.830370679497718811e-02
5.120000000000000000e+02 1.338330149650573730e+00 5.902330279350280762e-01 -6.528493016958236694e-02 -1.538904965855181217e-03 -2.004715055227279663e-02 5.482295900583267212e-02
5.130000000000000000e+02 2.866396605968475342e-01 -1.433311402797698975e-01 -1.813014736399054527e-03 -3.752738935872912407e-03 -1.669726101681590080e-03 -1.515815616585314274e-03
5.140000000000000000e+02 9.295687675476074219e-01 -4.499128460884094238e-01 -5.154864117503166199e-02 -1.032391190528869629e-02 -1.856176555156707764e-02 -4.128849133849143982e-02
5.150000000000000000e+02 1.123660087585449219e+00 -4.487942457199096680e-01 -6.106819212436676025e-02 -1.097748801112174988e-02 -2.161370404064655304e-02 -5.335277318954467773e-02
5.160000000000000000e+02 1.509488821029663086e+00 -1.704776585102081299e-01 -1.204112768173217773e-01 -1.167950220406055450e-03 -3.647376596927642822e-02 -2.667580917477607727e-02
5.170000000000000000e+02 1.318691968917846680e+00 -4.570011496543884277e-01 -8.807053416967391968e-02 -1.103972829878330231e-02 -2.973307855427265167e-02 -5.960502848029136658e-02
5.180000000000000000e+02 1.519290566444396973e+00 -4.702608585357666016e-01 -1.048051416873931885e-01 -8.302844129502773285e-03 -3.393239527940750122e-02 -6.823034584522247314e-02
5.190000000000000000e+02 2.330801010131835938e+00 -1.092834845185279846e-01 -2.810065150260925293e-01 2.878795494325459003e-04 -8.421558886766433716e-02 -1.872424408793449402e-02
5.200000000000000000e+02 2.330002546310424805e+00 -4.076521396636962891e-01 -2.100111991167068481e-01 3.903522854670882225e-03 -6.183230504393577576e-02 -7.578708231449127197e-02
5.210000000000000000e+02 2.854635238647460938e+00 -3.763575851917266846e-01 -3.076311051845550537e-01 -8.050467818975448608e-03 -9.470447152853012085e-02 -7.051555067300796509e-02
5.220000000000000000e+02 2.888637542724609375e+00 -1.353092640638351440e-01 -3.901000618934631348e-01 -4.518783185631036758e-03 -1.183856502175331116e-01 -2.584829181432723999e-02
5.230000000000000000e+02 3.525556325912475586e+00 -4.008805751800537109e-01 -3.763587176799774170e-01 4.988190717995166779e-03 -1.114111542701721191e-01 -6.000781804323196411e-02
5.240000000000000000e+02 3.712824344635009766e+00 -3.425129950046539307e-01 -4.204192757606506348e-01 5.663207732141017914e-03 -1.244268193840980530e-01 -4.219156876206398010e-02
5.250000000000000000e+02 3.153147101402282715e-01 -1.170158624649047852e+00 2.079894393682479858e-02 -7.077768445014953613e-02 -1.499362289905548096e-02 -2.976074069738388062e-02
5.260000000000000000e+02 1.098998665809631348e+00 1.383973240852355957e+00 -2.255720552057027817e-03 -4.828241840004920959e-02 -1.516144163906574249e-02 9.411389380693435669e-02
5.270000000000000000e+02 9.132696986198425293e-01 1.139184236526489258e+00 -6.120971869677305222e-03 -3.242373839020729065e-02 -1.156341284513473511e-02 7.698743790388107300e-02
5.280000000000000000e+02 1.297700524330139160e+00 1.380959510803222656e+00 -2.177759446203708649e-02 -4.513759538531303406e-02 -2.007455751299858093e-02 9.000193327665328979e-02
5.290000000000000000e+02 2.104677677154541016e+00 1.142934083938598633e+00 -5.643369629979133606e-02 -1.484955078922212124e-03 -1.737559400498867035e-02 1.086821481585502625e-01
5.300000000000000000e+02 2.105922222137451172e+00 1.380057573318481445e+00 -3.127495199441909790e-02 -1.223077811300754547e-02 -1.305171940475702286e-02 1.052256971597671509e-01
5.310000000000000000e+02 2.472120761871337891e+00 8.260114192962646484e-01 -1.199688315391540527e-01 -2.326242858543992043e-03 -3.668852150440216064e-02 9.256712347269058228e-02
5.320000000000000000e+02 2.684350728988647461e+00 1.070449829101562500e+00 -7.960123568773269653e-02 7.018479984253644943e-03 -2.177482843399047852e-02 1.008017733693122864e-01
5.330000000000000000e+02 5.014388561248779297e-01 -1.180073738098144531e+00 -1.824994198977947235e-02 -8.297646790742874146e-02 -3.036792390048503876e-02 -5.491567403078079224e-02
5.340000000000000000e+02 1.898589730262756348e+00 -1.361667275428771973e+00 -6.109964475035667419e-02 -2.578057348728179932e-02 -2.606406621634960175e-02 -1.417252123355865479e-01
5.350000000000000000e+02 2.706937789916992188e+00 -1.351746082305908203e+00 -6.488993018865585327e-02 1.800987496972084045e-02 -1.406401675194501877e-02 -1.234230399131774902e-01
5.360000000000000000e+02 3.278998136520385742e+00 -1.419653534889221191e+00 -3.569391742348670959e-02 7.905311882495880127e-02 1.300776097923517227e-02 -8.827762305736541748e-02
5.370000000000000000e+02 3.459973573684692383e+00 -1.375302791595458984e+00 -2.493773028254508972e-02 7.453107088804244995e-02 1.487800292670726776e-02 -4.857620224356651306e-02
5.380000000000000000e+02 3.894383430480957031e+00 -1.369561672210693359e+00 8.266068063676357269e-03 9.369741380214691162e-02 3.058904409408569336e-02 9.076352231204509735e-03
5.390000000000000000e+02 4.101588249206542969e+00 -1.380870103836059570e+00 6.357840448617935181e-02 1.194863244891166687e-01 5.491941794753074646e-02 2.603595517575740814e-02
5.400000000000000000e+02 4.473862648010253906e+00 -1.373406052589416504e+00 1.035035476088523865e-01 1.332035362720489502e-01 7.101212441921234131e-02 1.044560745358467102e-01
5.410000000000000000e+02 4.413926601409912109e+00 -9.825900197029113770e-01 -7.567004859447479248e-02 6.152107194066047668e-02 -4.244691692292690277e-03 3.189818933606147766e-02
5.420000000000000000e+02 4.651007652282714844e+00 -1.034792780876159668e+00 8.456585928797721863e-03 8.737818896770477295e-02 2.875043265521526337e-02 7.568775117397308350e-02
5.430000000000000000e+02 2.698109626770019531e+00 1.353659868240356445e+00 -4.075322300195693970e-03 1.601294428110122681e-02 3.581286640837788582e-03 9.286786615848541260e-02
5.440000000000000000e+02 3.203837871551513672e+00 1.046766161918640137e+00 -9.113562107086181641e-02 6.725078914314508438e-03 -2.532316185534000397e-02 7.576020061969757080e-02
5.450000000000000000e+02 3.536650180816650391e+00 1.156954050064086914e+00 -3.549398109316825867e-02 2.962982468307018280e-02 -1.759247388690710068e-03 5.877509340643882751e-02
5.460000000000000000e+02 3.511688947677612305e+00 1.383489131927490234e+00 2.487431466579437256e-02 6.508808583021163940e-02 2.698872052133083344e-02 4.429446533322334290e-02
5.470000000000000000e+02 4.290624618530273438e+00 1.364819407463073730e+00 1.227231621742248535e-01 8.098267018795013428e-02 6.111174821853637695e-02 -4.138059914112091064e-02
5.480000000000000000e+02 4.488964080810546875e+00 1.358513236045837402e+00 1.227089166641235352e-01 1.003459021449089050e-01 6.691644340753555298e-02 -7.586916536092758179e-02
5.490000000000000000e+02 4.898042678833007812e+00 1.361506700515747070e+00 2.183375358581542969e-01 1.252238303422927856e-01 1.030684113502502441e-01 -1.507896780967712402e-01
5.500000000000000000e+02 5.317640781402587891e+00 1.127145648002624512e+00 2.402581274509429932e-01 9.353789687156677246e-02 1.001388058066368103e-01 -1.677295416593551636e-01
5.510000000000000000e+02 5.302229404449462891e+00 1.374965667724609375e+00 3.307151496410369873e-01 1.509553641080856323e-01 1.445011496543884277e-01 -2.373408526182174683e-01
5.520000000000000000e+02 6.038267612457275391e+00 1.127481818199157715e+00 5.255839824676513672e-01 1.570855230093002319e-01 2.048008590936660767e-01 -3.446485698223114014e-01
5.530000000000000000e+02 5.891308784484863281e+00 1.382144212722778320e+00 6.093748211860656738e-01 2.372657060623168945e-01 2.539921700954437256e-01 -4.224556982517242432e-01
5.540000000000000000e+02 5.990163803100585938e+00 9.407597780227661133e-01 3.279589414596557617e-01 8.140733838081359863e-02 1.228098869323730469e-01 -2.175037413835525513e-01
5.550000000000000000e+02 6.492058277130126953e+00 1.148414731025695801e+00 8.154240250587463379e-01 2.280181944370269775e-01 3.130326569080352783e-01 -5.193592309951782227e-01
5.560000000000000000e+02 6.495021343231201172e+00 1.377065539360046387e+00 9.059421420097351074e-01 3.193988204002380371e-01 3.676022887229919434e-01 -6.596329212188720703e-01
5.570000000000000000e+02 6.886942863464355469e+00 1.372913599014282227e+00 1.233121991157531738e+00 4.616408646106719971e-01 5.084288120269775391e-01 -9.248134493827819824e-01
5.580000000000000000e+02 7.049162387847900391e+00 1.097934365272521973e+00 1.174450039863586426e+00 3.257812261581420898e-01 4.500693678855895996e-01 -7.659003734588623047e-01
5.590000000000000000e+02 7.699464797973632812e+00 1.070272088050842285e+00 1.979187965393066406e+00 5.856372117996215820e-01 7.694475650787353516e-01 -1.270782709121704102e+00
5.600000000000000000e+02 7.895280361175537109e+00 1.076510429382324219e+00 2.316267251968383789e+00 7.124963402748107910e-01 9.086290597915649414e-01 -1.540689706802368164e+00
5.610000000000000000e+02 8.438706398010253906e+00 9.416235089302062988e-01 3.361603975296020508e+00 1.214170455932617188e+00 1.372732281684875488e+00 -2.303895711898803711e+00
5.620000000000000000e+02 8.499334335327148438e+00 1.141542434692382812e+00 3.525100946426391602e+00 2.016968727111816406e+00 1.662620902061462402e+00 -3.004097700119018555e+00
5.630000000000000000e+02 8.500323295593261719e+00 1.375605583190917969e+00 3.196871995925903320e+00 2.496766090393066406e+00 1.708091378211975098e+00 -3.286348581314086914e+00
5.640000000000000000e+02 9.372192382812500000e+00 1.157221794128417969e+00 3.979443311691284180e+00 8.096235275268554688e+00 3.622703552246093750e+00 -5.960884571075439453e+00
5.650000000000000000e+02 1.009897041320800781e+01 1.360965251922607422e+00 8.554645180702209473e-01 1.502149677276611328e+01 4.763088226318359375e+00 -2.726410865783691406e+00
5.660000000000000000e+02 1.029183864593505859e+01 1.070809483528137207e+00 1.882858991622924805e+00 1.841670417785644531e+01 6.089869022369384766e+00 -9.416595101356506348e-01
5.670000000000000000e+02 1.094621753692626953e+01 1.065440058708190918e+00 3.900309324264526367e+00 1.401825714111328125e+01 5.375569820404052734e+00 3.238768815994262695e+00
5.680000000000000000e+02 1.105038261413574219e+01 9.287655949592590332e-01 5.802529811859130859e+00 1.331991291046142578e+01 5.736732959747314453e+00 4.149942398071289062e+00
5.690000000000000000e+02 1.134867191314697266e+01 4.438386559486389160e-01 9.367711067199707031e+00 9.512175559997558594e+00 5.663965702056884766e+00 3.077831506729125977e+00
5.700000000000000000e+02 1.137658119201660156e+01 1.111932620406150818e-01 1.090245437622070312e+01 9.070272445678710938e+00 5.991817951202392578e+00 1.091729760169982910e+00
5.710000000000000000e+02 1.135768222808837891e+01 -8.660465478897094727e-02 1.085138225555419922e+01 8.945316314697265625e+00 5.939009666442871094e+00 -1.889105290174484253e-01
5.720000000000000000e+02 1.114956474304199219e+01 -7.495307922363281250e-01 7.268576145172119141e+00 1.171831798553466797e+01 5.696068286895751953e+00 -3.566918134689331055e+00
5.730000000000000000e+02 1.055389499664306641e+01 -9.605528712272644043e-01 3.969763040542602539e+00 1.848226165771484375e+01 6.735607624053955078e+00 -1.525721907615661621e+00
5.740000000000000000e+02 9.789915084838867188e+00 -1.310788512229919434e+00 2.115803718566894531e+00 1.322589206695556641e+01 4.602508544921875000e+00 5.403673648834228516e+00
5.750000000000000000e+02 9.878663063049316406e+00 -1.433499455451965332e+00 1.271879911422729492e+00 1.364939785003662109e+01 4.476383209228515625e+00 4.442697525024414062e+00
5.760000000000000000e+02 9.613013267517089844e+00 -1.223307251930236816e+00 3.220895767211914062e+00 1.162421131134033203e+01 4.453532218933105469e+00 6.283664703369140625e+00
5.770000000000000000e+02 9.401084899902343750e+00 -1.164552330970764160e+00 4.269969940185546875e+00 8.694478034973144531e+00 3.889334201812744141e+00 6.620511054992675781e+00
5.780000000000000000e+02 9.330183982849121094e+00 -1.384363412857055664e+00 3.232343912124633789e+00 8.310057640075683594e+00 3.462720632553100586e+00 5.905884742736816406e+00
5.790000000000000000e+02 8.930303573608398438e+00 -1.360448479652404785e+00 3.725074529647827148e+00 4.953010082244873047e+00 2.603425502777099609e+00 4.985973834991455078e+00
5.800000000000000000e+02 8.432847976684570312e+00 -8.934742808341979980e-01 3.775635004043579102e+00 1.293323636054992676e+00 1.520687580108642578e+00 2.540575504302978516e+00
5.810000000000000000e+02 7.889681339263916016e+00 -1.347106099128723145e+00 2.585039138793945312e+00 1.366128444671630859e+00 1.185350298881530762e+00 2.398801565170288086e+00
5.820000000000000000e+02 7.666182994842529297e+00 -1.057257175445556641e+00 2.277531862258911133e+00 6.663187146186828613e-01 8.831551671028137207e-01 1.604482769966125488e+00
5.830000000000000000e+02 7.463826179504394531e+00 -1.071149468421936035e+00 1.921585917472839355e+00 5.052013397216796875e-01 7.280361652374267578e-01 1.305426716804504395e+00
5.840000000000000000e+02 7.487630367279052734e+00 -1.353373289108276367e+00 2.047192335128784180e+00 8.981148004531860352e-01 8.835921287536621094e-01 1.806023001670837402e+00
5.850000000000000000e+02 6.558133602142333984e+00 -1.260167956352233887e+00 1.004512667655944824e+00 3.769772052764892578e-01 4.144469499588012695e-01 8.549009561538696289e-01
5.860000000000000000e+02 6.502818107604980469e+00 -1.416561841964721680e+00 9.808415770530700684e-01 4.834602475166320801e-01 4.392905533313751221e-01 9.080550074577331543e-01
5.870000000000000000e+02 5.915615558624267578e+00 -1.386669874191284180e+00 6.379267573356628418e-01 2.852470576763153076e-01 2.769521474838256836e-01 5.743663907051086426e-01
5.880000000000000000e+02 6.147385597229003906e+00 -1.184150934219360352e+00 6.562961339950561523e-01 2.341693937778472900e-01 2.671396434307098389e-01 5.565426349639892578e-01
5.890000000000000000e+02 5.952733516693115234e+00 -1.164222836494445801e+00 5.307546854019165039e-01 2.082491964101791382e-01 2.217011600732803345e-01 4.591472148895263672e-01
5.900000000000000000e+02 2.070889949798583984e+00 4.941557049751281738e-01 -1.455033123493194580e-01 2.080529229715466499e-03 -4.302683472633361816e-02 6.746751070022583008e-02
5.910000000000000000e+02 4.889294624328613281e+00 -1.243731975555419922e-01 -6.222261190414428711e-01 6.909118965268135071e-04 -1.864605545997619629e-01 -7.633996196091175079e-03
5.920000000000000000e+02 5.086661815643310547e+00 -1.319323629140853882e-01 -6.193184852600097656e-01 3.428404917940497398e-03 -1.847670227289199829e-01 -2.911061514168977737e-03
5.930000000000000000e+02 5.283787727355957031e+00 -1.421496123075485229e-01 -6.083196997642517090e-01 2.338669262826442719e-03 -1.817943155765533447e-01 6.583250942640006542e-04
5.940000000000000000e+02 5.454619407653808594e+00 -4.220358133316040039e-01 -2.849931716918945312e-01 1.601738110184669495e-02 -8.069273829460144043e-02 5.019379034638404846e-02
5.950000000000000000e+02 5.032251358032226562e+00 -9.147278070449829102e-01 1.525063347071409225e-02 6.764949113130569458e-02 2.487003803253173828e-02 1.181666404008865356e-01
5.960000000000000000e+02 5.672704696655273438e+00 -4.032779037952423096e-01 -2.541129887104034424e-01 2.315131947398185730e-02 -6.928849965333938599e-02 6.800965964794158936e-02
5.970000000000000000e+02 5.689333438873291016e+00 -1.425580382347106934e-01 -5.645719170570373535e-01 2.702022437006235123e-03 -1.685609668493270874e-01 1.317322533577680588e-02
5.980000000000000000e+02 6.094984531402587891e+00 -1.345948725938796997e-01 -4.871885776519775391e-01 3.964822739362716675e-03 -1.449671238660812378e-01 2.380513586103916168e-02
5.990000000000000000e+02 6.499288082122802734e+00 -3.624794781208038330e-01 3.161241766065359116e-03 2.763870917260646820e-02 9.239984676241874695e-03 1.499056369066238403e-01
6.000000000000000000e+02 6.500439167022705078e+00 -1.290287375450134277e-01 -3.691275417804718018e-01 5.376777146011590958e-03 -1.091252267360687256e-01 3.759687766432762146e-02
6.010000000000000000e+02 6.907692909240722656e+00 -4.148274362087249756e-01 3.735428750514984131e-01 5.204868689179420471e-02 1.276774704456329346e-01 2.578844130039215088e-01
6.020000000000000000e+02 6.903815746307373047e+00 -1.389468610286712646e-01 -2.027675211429595947e-01 -9.092875756323337555e-03 -6.355811655521392822e-02 5.421956628561019897e-02
6.030000000000000000e+02 7.121029853820800781e+00 -4.067460894584655762e-01 5.302447080612182617e-01 2.835516445338726044e-02 1.675799489021301270e-01 2.741000950336456299e-01
6.040000000000000000e+02 7.673297882080078125e+00 -3.812748491764068604e-01 1.079322218894958496e+00 1.328402310609817505e-01 3.636487424373626709e-01 4.623608589172363281e-01
6.050000000000000000e+02 8.090831756591796875e+00 -4.654213786125183105e-01 2.123929023742675781e+00 1.854908317327499390e-01 6.928259134292602539e-01 7.987214922904968262e-01
6.060000000000000000e+02 8.513357162475585938e+00 -9.385216236114501953e-02 1.277581214904785156e+00 -4.745397716760635376e-02 3.690381944179534912e-01 1.089108586311340332e-01
6.070000000000000000e+02 8.694006919860839844e+00 -9.929644316434860229e-02 1.763553380966186523e+00 2.016399353742599487e-01 5.895580053329467773e-01 2.981091737747192383e-01
6.080000000000000000e+02 8.780900955200195312e+00 -5.805974006652832031e-01 4.983184814453125000e+00 1.072337388992309570e+00 1.816656708717346191e+00 2.426523685455322266e+00
6.090000000000000000e+02 9.002408027648925781e+00 -5.003924965858459473e-01 6.033338546752929688e+00 1.104452967643737793e+00 2.141337633132934570e+00 2.989514112472534180e+00
6.100000000000000000e+02 2.677865982055664062e+00 4.797182679176330566e-01 -2.171860039234161377e-01 -5.284678656607866287e-03 -6.674120575189590454e-02 6.799694150686264038e-02
6.110000000000000000e+02 3.502223491668701172e+00 1.595564931631088257e-01 -4.157142937183380127e-01 7.774118566885590553e-04 -1.244810596108436584e-01 2.593781985342502594e-02
6.120000000000000000e+02 4.110939979553222656e+00 1.544675827026367188e-01 -4.976965188980102539e-01 4.025457892566919327e-03 -1.481013149023056030e-01 2.307198382914066315e-02
6.130000000000000000e+02 4.331385135650634766e+00 4.170958399772644043e-01 -3.552047610282897949e-01 1.062771119177341461e-02 -1.033731177449226379e-01 2.956943586468696594e-02
6.140000000000000000e+02 4.723761558532714844e+00 6.832276582717895508e-01 -1.826435774564743042e-01 2.845507115125656128e-02 -4.625655338168144226e-02 -1.411987235769629478e-03
6.150000000000000000e+02 5.272310256958007812e+00 3.729754388332366943e-01 -3.617042601108551025e-01 6.549454294145107269e-03 -1.065464392304420471e-01 -1.912996871396899223e-03
6.160000000000000000e+02 5.293497562408447266e+00 1.325630992650985718e-01 -5.780457258224487305e-01 9.161017835140228271e-03 -1.706654131412506104e-01 2.530083525925874710e-03
6.170000000000000000e+02 5.232282638549804688e+00 6.048842072486877441e-01 -1.800259649753570557e-01 2.309796027839183807e-02 -4.707840457558631897e-02 -2.794183231890201569e-02
6.180000000000000000e+02 8.746415138244628906e+00 3.600572347640991211e-01 2.863024473190307617e+00 1.615978181362152100e-01 9.073866605758666992e-01 -9.468658566474914551e-01
6.190000000000000000e+02 8.305797576904296875e+00 1.427644640207290649e-01 3.514349162578582764e-01 1.298090349882841110e-02 1.093247458338737488e-01 -1.305476874113082886e-01
6.200000000000000000e+02 7.901810646057128906e+00 1.449706256389617920e-01 2.903516218066215515e-02 4.032463207840919495e-02 2.080793865025043488e-02 -9.213242679834365845e-02
6.210000000000000000e+02 7.500181674957275391e+00 4.128713011741638184e-01 5.182234048843383789e-01 2.632611058652400970e-02 1.633648574352264404e-01 -2.438811808824539185e-01
6.220000000000000000e+02 7.501165390014648438e+00 1.396588683128356934e-01 -1.913811266422271729e-01 1.155509147793054581e-02 -5.394781008362770081e-02 -6.710667163133621216e-02
6.230000000000000000e+02 6.921849727630615234e+00 3.830473423004150391e-01 6.295765191316604614e-02 2.869217656552791595e-02 2.749494835734367371e-02 -1.361626386642456055e-01
6.240000000000000000e+02 6.729214191436767578e+00 3.933477997779846191e-01 -1.219512149691581726e-02 2.291579730808734894e-02 3.216202836483716965e-03 -1.044648513197898865e-01
6.250000000000000000e+02 6.333845615386962891e+00 4.256263971328735352e-01 -1.121718585491180420e-01 1.986032165586948395e-02 -2.769345976412296295e-02 -8.039920777082443237e-02
6.260000000000000000e+02 6.309340953826904297e+00 1.476686298847198486e-01 -5.164113640785217285e-01 -1.173955621197819710e-03 -1.552755981683731079e-01 -8.477756753563880920e-03
6.270000000000000000e+02 5.493331432342529297e+00 1.431408077478408813e-01 -5.690317749977111816e-01 -5.784286186099052429e-03 -1.724448204040527344e-01 8.135929238051176071e-04
6.280000000000000000e+02 8.807046890258789062e+00 5.908421874046325684e-01 4.325905799865722656e+00 9.682944416999816895e-01 1.588260054588317871e+00 -2.246849298477172852e+00
6.290000000000000000e+02 9.641102790832519531e+00 1.027891039848327637e+00 3.746967315673828125e+00 1.209652328491210938e+01 4.753046989440917969e+00 -6.550769805908203125e+00
6.300000000000000000e+02 9.723552703857421875e+00 1.164067268371582031e+00 2.792552709579467773e+00 1.293652820587158203e+01 4.718724250793457031e+00 -5.844593524932861328e+00
6.310000000000000000e+02 9.169920921325683594e+00 -7.426183819770812988e-01 6.674337387084960938e+00 3.873780965805053711e+00 3.164435625076293945e+00 5.299509525299072266e+00
6.320000000000000000e+02 9.013514518737792969e+00 -8.671277761459350586e-01 5.709164142608642578e+00 3.618130445480346680e+00 2.798188447952270508e+00 4.922185420989990234e+00
6.330000000000000000e+02 1.013618946075439453e+01 -1.204873919486999512e+00 1.708645343780517578e+00 1.649816322326660156e+01 5.462042331695556641e+00 2.984358310699462891e+00
6.340000000000000000e+02 1.096621036529541016e+01 -5.681729912757873535e-01 9.774237632751464844e+00 1.397879791259765625e+01 7.125910282135009766e+00 -3.584269285202026367e+00
6.350000000000000000e+02 1.110134124755859375e+01 4.364140033721923828e-01 1.056768417358398438e+01 1.232871913909912109e+01 6.868921279907226562e+00 3.513299226760864258e+00
6.360000000000000000e+02 1.073451900482177734e+01 1.042677521705627441e+00 3.753241777420043945e+00 1.619339942932128906e+01 5.983992576599121094e+00 2.699348449707031250e+00
6.370000000000000000e+02 7.196813225746154785e-01 1.133157849311828613e+00 -2.920236065983772278e-02 -6.495662033557891846e-02 -2.824769541621208191e-02 7.917928695678710938e-02
6.380000000000000000e+02 5.095959901809692383e-01 9.234093427658081055e-01 -2.750635519623756409e-02 -4.835533723235130310e-02 -2.275850810110569000e-02 5.137655884027481079e-02
6.390000000000000000e+02 9.473596811294555664e-01 8.759135007858276367e-01 -6.006221473217010498e-02 -5.287887528538703918e-02 -3.388232737779617310e-02 6.764433532953262329e-02
6.400000000000000000e+02 8.585849761962890625e+00 6.451504826545715332e-01 3.566618680953979492e+00 6.945540904998779297e-01 1.278351783752441406e+00 -1.786874055862426758e+00
6.410000000000000000e+02 3.430184721946716309e-01 -6.891425848007202148e-01 6.628701463341712952e-03 -2.722498029470443726e-02 -6.178883370012044907e-03 -2.448910474777221680e-02
6.420000000000000000e+02 8.211489915847778320e-01 -1.136243939399719238e+00 -2.066922187805175781e-02 -4.437100887298583984e-02 -1.951207034289836884e-02 -8.442927151918411255e-02
6.430000000000000000e+02 7.618465423583984375e-01 -8.771122694015502930e-01 -1.922614499926567078e-02 -3.445012494921684265e-02 -1.610288023948669434e-02 -5.665347352623939514e-02
6.440000000000000000e+02 1.128251910209655762e+00 -7.265512347221374512e-01 -6.322377920150756836e-02 -2.798925340175628662e-02 -2.736390940845012665e-02 -7.541980594396591187e-02
6.450000000000000000e+02 7.798145771026611328e+00 8.820459842681884766e-01 1.944989562034606934e+00 4.133902788162231445e-01 7.075139880180358887e-01 -1.103839516639709473e+00
6.460000000000000000e+02 7.292043209075927734e+00 6.492977738380432129e-01 8.612014055252075195e-01 1.234328821301460266e-01 2.953902781009674072e-01 -4.437229037284851074e-01
6.470000000000000000e+02 7.491149425506591797e+00 7.071627378463745117e-01 1.200230956077575684e+00 1.842434108257293701e-01 4.153423309326171875e-01 -5.910863876342773438e-01
6.480000000000000000e+02 7.897399425506591797e+00 6.969326734542846680e-01 1.805581450462341309e+00 3.036562800407409668e-01 6.327713131904602051e-01 -8.770226240158081055e-01
6.490000000000000000e+02 7.121828079223632812e+00 6.090865731239318848e-01 5.685960650444030762e-01 9.021292626857757568e-02 1.976426839828491211e-01 -3.201682865619659424e-01
6.500000000000000000e+02 6.947204589843750000e+00 6.253395080566406250e-01 4.899744987487792969e-01 7.402975857257843018e-02 1.692012697458267212e-01 -2.689360678195953369e-01
6.510000000000000000e+02 6.761960983276367188e+00 6.432615518569946289e-01 4.174789786338806152e-01 6.988821923732757568e-02 1.462101638317108154e-01 -2.488647699356079102e-01
6.520000000000000000e+02 6.371105194091796875e+00 7.061058282852172852e-01 2.860147655010223389e-01 5.789418146014213562e-02 1.031726822257041931e-01 -2.042824178934097290e-01
6.530000000000000000e+02 5.778918266296386719e+00 8.067899346351623535e-01 1.194239109754562378e-01 5.856901034712791443e-02 5.339787527918815613e-02 -1.338325887918472290e-01
6.540000000000000000e+02 5.950025081634521484e+00 7.224904298782348633e-01 1.061930507421493530e-01 4.903487861156463623e-02 4.656837880611419678e-02 -1.475800126791000366e-01
6.550000000000000000e+02 5.419727802276611328e+00 6.486015915870666504e-01 -1.008786857128143311e-01 2.620008587837219238e-02 -2.240357920527458191e-02 -4.911035671830177307e-02
6.560000000000000000e+02 5.058570861816406250e+00 5.610458850860595703e-01 -2.224454879760742188e-01 2.268793061375617981e-02 -5.992726609110832214e-02 -8.266714401543140411e-03
6.570000000000000000e+02 6.443637371063232422e+00 9.457973241806030273e-01 5.670100450515747070e-01 1.316905319690704346e-01 2.096101641654968262e-01 -3.595471978187561035e-01
6.580000000000000000e+02 8.837642669677734375e+00 -7.290750741958618164e-01 5.382081985473632812e+00 1.592757344245910645e+00 2.092451810836791992e+00 3.312539339065551758e+00
6.590000000000000000e+02 8.703968048095703125e+00 -8.356453180313110352e-01 4.728196144104003906e+00 1.804325819015502930e+00 1.959756612777709961e+00 3.192666053771972656e+00
6.600000000000000000e+02 8.839380264282226562e+00 -8.827289342880249023e-01 5.356988430023193359e+00 2.465456008911132812e+00 2.346733331680297852e+00 4.137052059173583984e+00
6.610000000000000000e+02 7.849783420562744141e+00 -7.420578598976135254e-01 2.253546476364135742e+00 3.788456916809082031e-01 7.897176742553710938e-01 1.179039955139160156e+00
6.620000000000000000e+02 7.432171344757080078e+00 -8.125846982002258301e-01 1.581070065498352051e+00 3.384664654731750488e-01 5.758609175682067871e-01 9.655846357345581055e-01
6.630000000000000000e+02 7.247812271118164062e+00 -8.348821401596069336e-01 1.386473059654235840e+00 2.631055712699890137e-01 4.948735833168029785e-01 8.185025453567504883e-01
6.640000000000000000e+02 6.707566261291503906e+00 -1.137985229492187500e+00 1.086341023445129395e+00 3.441230356693267822e-01 4.291391968727111816e-01 8.269333839416503906e-01
6.650000000000000000e+02 6.152390956878662109e+00 9.818547368049621582e-01 4.645160734653472900e-01 1.277098655700683594e-01 1.776677817106246948e-01 -3.062725961208343506e-01
6.660000000000000000e+02 5.166089534759521484e+00 8.400604128837585449e-01 1.158611383289098740e-02 4.339331015944480896e-02 1.649382710456848145e-02 -6.187829747796058655e-02
6.670000000000000000e+02 4.488036632537841797e+00 7.870783209800720215e-01 -1.444154232740402222e-01 2.704635076224803925e-02 -3.521072119474411011e-02 5.749863572418689728e-03
6.680000000000000000e+02 3.789488315582275391e+00 9.651583433151245117e-01 -9.603039175271987915e-02 2.608336694538593292e-02 -2.098410762846469879e-02 4.731860756874084473e-02
6.690000000000000000e+02 3.485383033752441406e+00 9.789987802505493164e-01 -1.078261584043502808e-01 2.193036861717700958e-02 -2.576873637735843658e-02 6.399720162153244019e-02
6.700000000000000000e+02 3.102208375930786133e+00 4.528451859951019287e-01 -2.553992271423339844e-01 -3.041360760107636452e-03 -7.753217965364456177e-02 5.936497077345848083e-02
6.710000000000000000e+02 2.668821096420288086e+00 7.853702306747436523e-01 -1.366731822490692139e-01 5.412732716649770737e-03 -3.937813639640808105e-02 8.910650014877319336e-02
6.720000000000000000e+02 2.879905700683593750e+00 1.040180444717407227e+00 -6.285530328750610352e-02 7.613756228238344193e-03 -1.657246425747871399e-02 9.053321182727813721e-02
6.730000000000000000e+02 2.283032178878784180e+00 8.337278962135314941e-01 -9.770311415195465088e-02 2.888946095481514931e-03 -2.844425104558467865e-02 9.805849939584732056e-02
6.740000000000000000e+02 2.023591279983520508e+00 9.913223981857299805e-01 -5.094181746244430542e-02 -3.450754331424832344e-03 -1.631777174770832062e-02 1.006079167127609253e-01
6.750000000000000000e+02 1.773169398307800293e+00 1.094848155975341797e+00 -3.929421305656433105e-02 1.314535271376371384e-03 -1.139390375465154648e-02 1.078038960695266724e-01
6.760000000000000000e+02 1.610540509223937988e+00 9.875396490097045898e-01 -6.449810415506362915e-02 -3.778594359755516052e-02 -3.068521432578563690e-02 9.528301656246185303e-02
6.770000000000000000e+02 7.322433948516845703e+00 -3.674551546573638916e-01 6.181232929229736328e-01 7.214523851871490479e-02 2.070805579423904419e-01 2.778226435184478760e-01
6.780000000000000000e+02 7.189186573028564453e+00 -6.365131139755249023e-01 1.004107952117919922e+00 1.560843884944915771e-01 3.480576872825622559e-01 5.588198900222778320e-01
6.790000000000000000e+02 6.494585990905761719e+00 -5.667870044708251953e-01 2.598060071468353271e-01 4.380458965897560120e-02 9.108317643404006958e-02 2.450080066919326782e-01
6.800000000000000000e+02 6.665716648101806641e+00 -6.086487770080566406e-01 4.688252210617065430e-01 9.256530553102493286e-02 1.684171557426452637e-01 3.535903692245483398e-01
6.810000000000000000e+02 5.662438392639160156e+00 -6.451626420021057129e-01 -2.512198872864246368e-02 4.580259695649147034e-02 6.204182282090187073e-03 1.430712491273880005e-01
6.820000000000000000e+02 5.153976440429687500e+00 -6.769131422042846680e-01 -1.253817230463027954e-01 5.872482433915138245e-02 -1.999706774950027466e-02 7.889857888221740723e-02
6.830000000000000000e+02 4.689115524291992188e+00 -3.678166568279266357e-01 -4.344902634620666504e-01 6.435442715883255005e-03 -1.284164488315582275e-01 -1.017769053578376770e-02
6.840000000000000000e+02 4.881676197052001953e+00 -8.163195252418518066e-01 -9.842466562986373901e-02 6.507354974746704102e-02 -1.000533439218997955e-02 6.868656724691390991e-02
6.850000000000000000e+02 4.461433410644531250e+00 -6.964415907859802246e-01 -2.211491167545318604e-01 3.464287891983985901e-02 -5.595187097787857056e-02 -1.942153787240386009e-03
6.860000000000000000e+02 4.224597930908203125e+00 -6.622968316078186035e-01 -2.641482949256896973e-01 2.402993664145469666e-02 -7.203550636768341064e-02 -2.184168249368667603e-02
6.870000000000000000e+02 3.801926136016845703e+00 -5.143706202507019043e-01 -3.401928246021270752e-01 -5.561372963711619377e-04 -1.022246852517127991e-01 -5.176807940006256104e-02
6.880000000000000000e+02 3.630661249160766602e+00 -6.272665858268737793e-01 -2.785089313983917236e-01 2.227252349257469177e-02 -7.687092572450637817e-02 -6.999332457780838013e-02
6.890000000000000000e+02 2.568556547164916992e+00 -5.380747914314270020e-01 -2.325278073549270630e-01 -1.035115681588649750e-02 -7.286369055509567261e-02 -9.657325595617294312e-02
6.900000000000000000e+02 1.276379942893981934e+00 9.805626869201660156e-01 -3.552230075001716614e-02 -3.834065422415733337e-02 -2.215888537466526031e-02 9.166317433118820190e-02
6.910000000000000000e+02 1.473438262939453125e+00 1.130170464515686035e+00 -3.505861386656761169e-02 -1.964436285197734833e-02 -1.641089282929897308e-02 1.035639569163322449e-01
6.920000000000000000e+02 6.174290180206298828e+00 -9.929761886596679688e-01 5.578294992446899414e-01 1.848299205303192139e-01 2.227978259325027466e-01 4.482226371765136719e-01
6.930000000000000000e+02 5.829972267150878906e+00 -8.968052864074707031e-01 2.808371782302856445e-01 1.152139604091644287e-01 1.188153401017189026e-01 2.862613499164581299e-01
6.940000000000000000e+02 5.305361270904541016e+00 -7.824894189834594727e-01 -2.576014213263988495e-02 4.607184976339340210e-02 6.093512289226055145e-03 1.234675422310829163e-01
6.950000000000000000e+02 4.869118213653564453e+00 -1.037578105926513672e+00 4.864672571420669556e-02 1.014409065246582031e-01 4.502629116177558899e-02 1.145884096622467041e-01
6.960000000000000000e+02 4.970853805541992188e+00 -6.024886965751647949e-01 -2.266287356615066528e-01 2.647254616022109985e-02 -6.004685536026954651e-02 3.616129979491233826e-02
6.970000000000000000e+02 6.597208976745605469e+00 -9.410620927810668945e-01 7.894006967544555664e-01 1.909257173538208008e-01 2.940979301929473877e-01 5.689797401428222656e-01
6.980000000000000000e+02 1.099483966827392578e+00 6.637505888938903809e-01 -2.092291973531246185e-02 -1.483100932091474533e-02 -1.072617806494235992e-02 6.731383502483367920e-02
6.990000000000000000e+02 4.873821258544921875e+00 8.694833517074584961e-01 -2.989506721496582031e-02 4.611751437187194824e-02 4.866734147071838379e-03 -2.787262760102748871e-02
7.000000000000000000e+02 4.735702037811279297e+00 5.310602784156799316e-01 -2.885705530643463135e-01 3.287995699793100357e-03 -8.558476716279983521e-02 4.349324852228164673e-03
7.010000000000000000e+02 4.781222641468048096e-01 7.325435876846313477e-01 8.937104605138301849e-03 -4.155962914228439331e-02 -9.786757640540599823e-03 7.597201038151979446e-03
7.020000000000000000e+02 6.524793505668640137e-01 6.480366587638854980e-01 1.800401322543621063e-02 -6.816660985350608826e-03 3.356205765157938004e-03 3.946471959352493286e-02
7.030000000000000000e+02 5.329104065895080566e-01 -9.645437002182006836e-01 5.788187263533473015e-04 -3.905422985553741455e-02 -1.154262386262416840e-02 -5.009013041853904724e-02
7.040000000000000000e+02 7.783585786819458008e-01 -7.012048959732055664e-01 -3.291408717632293701e-02 -2.894676476716995239e-02 -1.855825632810592651e-02 -5.273412168025970459e-02
7.050000000000000000e+02 6.917028427124023438e-01 -1.030764341354370117e+00 -2.952493540942668915e-02 -6.693287193775177002e-02 -2.893734350800514221e-02 -7.780695706605911255e-02
7.060000000000000000e+02 6.293925642967224121e-01 -7.808761000633239746e-01 -2.817016094923019409e-02 -4.727720469236373901e-02 -2.263421006500720978e-02 -4.964350536465644836e-02
7.070000000000000000e+02 9.472883939743041992e-01 -7.062159180641174316e-01 -3.666303306818008423e-02 -2.434478513896465302e-02 -1.830234564840793610e-02 -6.731601804494857788e-02
7.080000000000000000e+02 4.776030778884887695e-01 5.666073560714721680e-01 -3.740543499588966370e-02 -3.343209251761436462e-02 -2.125125750899314880e-02 5.560062825679779053e-02
7.090000000000000000e+02 1.538459300994873047e+00 6.425859332084655762e-01 -8.794777095317840576e-02 -3.415612503886222839e-02 -3.663116693496704102e-02 7.453396916389465332e-02
7.100000000000000000e+02 5.843770027160644531e+00 9.733428359031677246e-01 2.947761416435241699e-01 9.059429913759231567e-02 1.156111359596252441e-01 -2.076555192470550537e-01
7.110000000000000000e+02 4.688058853149414062e+00 -7.520776391029357910e-01 -1.844103485345840454e-01 3.754629939794540405e-02 -4.405921325087547302e-02 2.175130136311054230e-02
7.120000000000000000e+02 1.718168497085571289e+00 -7.818244099617004395e-01 -9.456090629100799561e-02 -8.214928209781646729e-03 -3.083275072276592255e-02 -1.010588780045509338e-01
7.130000000000000000e+02 2.141017913818359375e+00 -8.937534093856811523e-01 -1.024655774235725403e-01 7.038324256427586079e-04 -3.052852302789688110e-02 -1.216674447059631348e-01
7.140000000000000000e+02 3.295278072357177734e+00 4.408143162727355957e-01 -2.780035436153411865e-01 7.837774232029914856e-03 -8.104972541332244873e-02 6.180687248706817627e-02
7.150000000000000000e+02 3.908945798873901367e+00 7.542336583137512207e-01 -1.720949560403823853e-01 1.759542524814605713e-02 -4.634986072778701782e-02 5.273969098925590515e-02
7.160000000000000000e+02 4.898604869842529297e+00 3.364383876323699951e-01 -4.103586673736572266e-01 3.704833332449197769e-03 -1.219961494207382202e-01 1.701566204428672791e-02
7.170000000000000000e+02 4.172647476196289062e+00 -9.147674441337585449e-01 -1.317858994007110596e-01 5.809256806969642639e-02 -2.210799790918827057e-02 -1.694172061979770660e-02
7.180000000000000000e+02 4.341487407684326172e+00 -1.208051443099975586e+00 4.058477655053138733e-02 1.108891293406486511e-01 4.544217139482498169e-02 4.417361691594123840e-02
7.190000000000000000e+02 3.930785894393920898e+00 -8.624976873397827148e-01 -1.843005567789077759e-01 3.336239606142044067e-02 -4.528144747018814087e-02 -4.072729870676994324e-02
7.200000000000000000e+02 3.666007995605468750e+00 -1.085257411003112793e+00 -1.068512871861457825e-01 3.970066830515861511e-02 -2.014518715441226959e-02 -5.233185365796089172e-02
7.210000000000000000e+02 3.434339046478271484e+00 -1.001948237419128418e+00 -1.361019611358642578e-01 5.136216059327125549e-02 -2.542193792760372162e-02 -8.578405529260635376e-02
7.220000000000000000e+02 3.152985572814941406e+00 -1.041568875312805176e+00 -1.169014796614646912e-01 3.085184469819068909e-02 -2.581489086151123047e-02 -1.038870364427566528e-01
7.230000000000000000e+02 3.014698266983032227e+00 -1.173652768135070801e+00 -1.029052510857582092e-01 2.255666069686412811e-02 -2.410457842051982880e-02 -1.109151989221572876e-01
7.240000000000000000e+02 3.278838396072387695e+00 -6.853585243225097656e-01 -2.374628186225891113e-01 2.361444383859634399e-02 -6.415451318025588989e-02 -9.058408439159393311e-02
7.250000000000000000e+02 5.003881931304931641e+00 7.624759674072265625e-01 -8.302887529134750366e-02 3.292451426386833191e-02 -1.503130793571472168e-02 -4.020498692989349365e-02
7.260000000000000000e+02 4.868101119995117188e+00 7.044153809547424316e-01 -1.461252719163894653e-01 2.294453047215938568e-02 -3.695422410964965820e-02 -2.046045288443565369e-02
7.270000000000000000e+02 2.721965551376342773e+00 -8.490000367164611816e-01 -1.765892654657363892e-01 -3.879397874698042870e-03 -5.414059758186340332e-02 -1.228112056851387024e-01
7.280000000000000000e+02 6.305780887603759766e+00 -5.861872434616088867e-01 2.013461589813232422e-01 6.170007213950157166e-02 7.891386747360229492e-02 2.288643419742584229e-01
7.290000000000000000e+02 6.341193199157714844e+00 -7.839299440383911133e-01 4.547487795352935791e-01 9.895848482847213745e-02 1.661121845245361328e-01 3.664990365505218506e-01
7.300000000000000000e+02 2.076251029968261719e+00 7.923982143402099609e-01 -1.106020733714103699e-01 -7.284325547516345978e-03 -3.536592051386833191e-02 9.416603296995162964e-02
7.310000000000000000e+02 3.048688173294067383e+00 -8.854083418846130371e-01 -1.752728074789047241e-01 1.858062297105789185e-02 -4.700765758752822876e-02 -1.085220724344253540e-01
7.320000000000000000e+02 3.992599487304687500e+00 -6.138769388198852539e-01 -2.861807644367218018e-01 2.521672844886779785e-02 -7.828920334577560425e-02 -4.480355605483055115e-02
7.330000000000000000e+02 4.893347263336181641e+00 5.319082140922546387e-01 -2.726599872112274170e-01 2.047803811728954315e-02 -7.565458863973617554e-02 1.958204200491309166e-03
7.340000000000000000e+02 4.594274997711181641e+00 5.978508591651916504e-01 -2.416035234928131104e-01 2.406932599842548370e-02 -6.526026129722595215e-02 2.006433345377445221e-02
7.350000000000000000e+02 3.709774494171142578e+00 6.789032220840454102e-01 -2.299571931362152100e-01 5.261243786662817001e-03 -6.740878522396087646e-02 5.136946216225624084e-02
7.360000000000000000e+02 1.285976886749267578e+01 -6.119564056396484375e+00 -1.595822930335998535e+00 -1.442324638366699219e+00 -9.114443063735961914e-01 -1.712949872016906738e+00
7.370000000000000000e+02 4.671267867088317871e-01 -1.032975673675537109e+01 -4.362534359097480774e-02 -2.122413873672485352e+00 -6.498118042945861816e-01 -2.241067141294479370e-01
7.380000000000000000e+02 7.399343490600585938e+00 -1.377032661437988281e+01 1.781283736228942871e+00 1.124700260162353516e+01 3.908485889434814453e+00 2.874213457107543945e+00
7.390000000000000000e+02 8.094448089599609375e+00 -1.269985008239746094e+01 1.701812386512756348e+00 7.202610492706298828e+00 2.671326875686645508e+00 3.526077508926391602e+00
7.400000000000000000e+02 8.861702919006347656e+00 -1.160512638092041016e+01 1.539611697196960449e+00 5.211896896362304688e+00 2.025452613830566406e+00 2.614440679550170898e+00
7.410000000000000000e+02 1.126587009429931641e+01 -8.298580169677734375e+00 -3.703300654888153076e-01 1.175486683845520020e+00 2.415470033884048462e-01 3.107692599296569824e-01
7.420000000000000000e+02 1.199679756164550781e+01 -5.650330066680908203e+00 -2.222121715545654297e+00 1.301369547843933105e+00 -2.762256860733032227e-01 -1.449364185333251953e+00
7.430000000000000000e+02 1.504381299018859863e+00 -1.150766277313232422e+01 -7.662075012922286987e-02 -1.266845226287841797e+00 -4.030398130416870117e-01 -7.693053483963012695e-01
7.440000000000000000e+02 3.849811077117919922e+00 -1.473022460937500000e+01 1.197361469268798828e+00 2.245355367660522461e+00 1.032815098762512207e+00 -4.458571970462799072e-01
7.450000000000000000e+02 7.193128466606140137e-01 -1.724327850341796875e+01 1.009168326854705811e-01 -3.467310905456542969e+00 -1.009918212890625000e+00 3.390555679798126221e-01
7.460000000000000000e+02 6.505825996398925781e+00 -1.453590393066406250e+01 2.025099039077758789e+00 1.087826919555664062e+01 3.871010303497314453e+00 8.303934931755065918e-01
7.470000000000000000e+02 7.156965255737304688e+00 -1.693032836914062500e+01 2.294778347015380859e+00 1.196326637268066406e+01 4.277413368225097656e+00 -2.959567785263061523e+00
7.480000000000000000e+02 6.674354672431945801e-01 -2.420069313049316406e+01 2.822958305478096008e-02 4.255047738552093506e-01 1.361203044652938843e-01 2.230632305145263672e-01
7.490000000000000000e+02 8.327564239501953125e+00 -2.946468353271484375e+01 -3.134611845016479492e-01 3.532810449600219727e+00 9.658047556877136230e-01 4.841949045658111572e-01
7.500000000000000000e+02 1.778693389892578125e+01 -4.032906341552734375e+01 -5.800884962081909180e-01 5.262845516204833984e+00 1.404827117919921875e+00 8.684217184782028198e-02
7.510000000000000000e+02 2.272262954711914062e+01 -4.062110519409179688e+01 -7.344713211059570312e-01 6.110720634460449219e+00 1.612874865531921387e+00 2.872925996780395508e-02
7.520000000000000000e+02 2.759219360351562500e+01 -4.074453735351562500e+01 -8.032246828079223633e-01 6.725720405578613281e+00 1.776748776435852051e+00 1.988313160836696625e-02
7.530000000000000000e+02 2.841395187377929688e+01 -3.027213668823242188e+01 -7.277385592460632324e-01 7.038450241088867188e+00 1.893213510513305664e+00 3.947144001722335815e-02
7.540000000000000000e+02 2.879660224914550781e+01 -2.204632949829101562e+01 -4.585420489311218262e-01 7.529442310333251953e+00 2.121270179748535156e+00 -6.525410711765289307e-02
7.550000000000000000e+02 3.365603256225585938e+01 -1.633365631103515625e+01 7.178187370300292969e-02 7.861826419830322266e+00 2.380082368850708008e+00 -4.143980145454406738e-01
7.560000000000000000e+02 3.671174240112304688e+01 -1.216514587402343750e+01 4.690464437007904053e-01 7.864497661590576172e+00 2.500063180923461914e+00 -4.757948219776153564e-01
7.570000000000000000e+02 3.444179916381835938e+01 -1.647067546844482422e+00 1.205015897750854492e+00 8.034585952758789062e+00 2.771880626678466797e+00 -8.685651421546936035e-02
7.580000000000000000e+02 3.531743240356445312e+01 2.498422145843505859e+00 1.128078222274780273e+00 7.969468593597412109e+00 2.729264020919799805e+00 8.442784845829010010e-02
7.590000000000000000e+02 3.417930221557617188e+01 9.201450347900390625e+00 8.950752615928649902e-01 8.045233726501464844e+00 2.682092666625976562e+00 3.087189197540283203e-01
7.600000000000000000e+02 3.629644775390625000e+01 1.854386520385742188e+01 7.853037863969802856e-02 7.842734813690185547e+00 2.376379489898681641e+00 4.373116493225097656e-01
7.610000000000000000e+02 3.438810348510742188e+01 2.427366828918457031e+01 -3.404879271984100342e-01 7.742098331451416016e+00 2.220483303070068359e+00 3.250136375427246094e-01
7.620000000000000000e+02 3.468507385253906250e+01 3.195767593383789062e+01 -6.690552234649658203e-01 7.590077877044677734e+00 2.076306819915771484e+00 1.792036294937133789e-01
7.630000000000000000e+02 3.742572784423828125e+01 4.013844680786132812e+01 -7.458824515342712402e-01 7.637708663940429688e+00 2.067547798156738281e+00 4.787701740860939026e-02
7.640000000000000000e+02 3.237751007080078125e+01 4.055187225341796875e+01 -8.352901339530944824e-01 7.344927787780761719e+00 1.952891349792480469e+00 2.547548152506351471e-02
7.650000000000000000e+02 3.187475013732910156e+01 3.672708892822265625e+01 -8.129646182060241699e-01 7.343101024627685547e+00 1.959040999412536621e+00 5.268012732267379761e-02
7.660000000000000000e+02 3.108012390136718750e+01 3.306194305419921875e+01 -7.424080371856689453e-01 7.361095428466796875e+00 1.985606193542480469e+00 9.623108804225921631e-02
7.670000000000000000e+02 2.758525085449218750e+01 2.365305709838867188e+01 -3.945404291152954102e-01 7.510174751281738281e+00 2.134690284729003906e+00 3.613051772117614746e-02
7.680000000000000000e+02 2.507382011413574219e+01 1.679043197631835938e+01 2.035631835460662842e-01 8.030123710632324219e+00 2.470106124877929688e+00 -1.172726303339004517e-01
7.690000000000000000e+02 3.103465270996093750e+01 6.894252300262451172e+00 1.095879077911376953e+00 8.297192573547363281e+00 2.817921638488769531e+00 1.840763092041015625e-01
7.700000000000000000e+02 2.934134101867675781e+01 2.688100337982177734e+00 1.310787439346313477e+00 8.742534637451171875e+00 3.015996694564819336e+00 4.631051048636436462e-02
7.710000000000000000e+02 2.873917198181152344e+01 -8.608950972557067871e-01 1.378327131271362305e+00 8.846269607543945312e+00 3.067378997802734375e+00 -2.183835953474044800e-03
7.720000000000000000e+02 2.613907241821289062e+01 -1.557460784912109375e+01 2.495496999472379684e-03 7.971335887908935547e+00 2.392149448394775391e+00 -2.470220671966671944e-03
7.730000000000000000e+02 2.134174537658691406e+01 -2.323302268981933594e+01 -4.876714646816253662e-01 6.484765529632568359e+00 1.799128174781799316e+00 5.988320112228393555e-01
7.740000000000000000e+02 2.422875785827636719e+01 -3.324110031127929688e+01 -7.243189811706542969e-01 6.412921428680419922e+00 1.706580758094787598e+00 1.631294190883636475e-01
7.750000000000000000e+02 2.501463890075683594e+01 -2.991225242614746094e+01 -6.973044872283935547e-01 6.637602806091308594e+00 1.782089471817016602e+00 2.034185528755187988e-01
7.760000000000000000e+02 2.813071060180664062e+01 -3.365266036987304688e+01 -7.722426652908325195e-01 6.883254051208496094e+00 1.833303332328796387e+00 5.042482912540435791e-02
7.770000000000000000e+02 2.269405364990234375e+00 -2.721887588500976562e+01 -1.114548966288566589e-01 1.699285268783569336e+00 4.763491153717041016e-01 4.259102940559387207e-01
7.780000000000000000e+02 6.516686677932739258e-01 -3.095110130310058594e+01 -1.825019344687461853e-02 1.832660675048828125e+00 5.443231463432312012e-01 7.453953474760055542e-02
7.790000000000000000e+02 8.773379325866699219e+00 -3.752383041381835938e+01 -2.282578200101852417e-01 3.632230758666992188e+00 1.021191835403442383e+00 1.881429105997085571e-01
7.800000000000000000e+02 1.482914209365844727e+00 -3.563235855102539062e+01 1.036538649350404739e-02 2.363955259323120117e+00 7.122961878776550293e-01 1.003373712301254272e-01
7.810000000000000000e+02 7.397257685661315918e-01 -3.744066619873046875e+01 9.017561562359333038e-03 2.374351263046264648e+00 7.150106430053710938e-01 5.035431683063507080e-02
7.820000000000000000e+02 4.912482738494873047e+00 -4.009234237670898438e+01 -9.041767567396163940e-02 2.944931507110595703e+00 8.563541173934936523e-01 2.865687198936939240e-02
7.830000000000000000e+02 2.586737155914306641e+00 -3.793517303466796875e+01 -4.846421536058187485e-03 2.556516885757446289e+00 7.655011415481567383e-01 1.448458433151245117e-01
7.840000000000000000e+02 4.232208251953125000e+01 -4.050836563110351562e+01 -6.511285901069641113e-01 7.694214820861816406e+00 2.112926006317138672e+00 -4.685698449611663818e-02
7.850000000000000000e+02 3.737548065185546875e+01 -4.065816116333007812e+01 -7.480838298797607422e-01 7.502857685089111328e+00 2.026432037353515625e+00 -2.609613165259361267e-02
7.860000000000000000e+02 3.634905242919921875e+01 -3.333435821533203125e+01 -6.987276673316955566e-01 7.511205196380615234e+00 2.043743133544921875e+00 -1.371614485979080200e-01
7.870000000000000000e+02 3.745882034301757812e+01 -2.583296203613281250e+01 -4.647710025310516357e-01 7.688571453094482422e+00 2.167140007019042969e+00 -3.160778284072875977e-01
7.880000000000000000e+02 4.118852233886718750e+01 -1.628110313415527344e+01 1.462467461824417114e-01 7.771234989166259766e+00 2.375244379043579102e+00 -4.846917986869812012e-01
7.890000000000000000e+02 4.267016601562500000e+01 -7.258776187896728516e+00 6.343639492988586426e-01 7.694436073303222656e+00 2.498640060424804688e+00 -3.294093906879425049e-01
7.900000000000000000e+02 4.173738098144531250e+01 -4.245466232299804688e+00 7.910008430480957031e-01 7.702459812164306641e+00 2.548038244247436523e+00 -2.318420708179473877e-01
7.910000000000000000e+02 4.058384704589843750e+01 1.603777647018432617e+00 9.030238389968872070e-01 7.724822998046875000e+00 2.588354110717773438e+00 2.570145577192306519e-02
7.920000000000000000e+02 4.174967956542968750e+01 1.115391445159912109e+01 5.428437590599060059e-01 7.742410182952880859e+00 2.485576152801513672e+00 3.707250654697418213e-01
7.930000000000000000e+02 4.174934005737304688e+01 1.981229972839355469e+01 2.957306988537311554e-02 7.804211616516113281e+00 2.350135564804077148e+00 4.455172717571258545e-01
7.940000000000000000e+02 4.311911773681640625e+01 2.511032867431640625e+01 -2.217375934123992920e-01 7.818433284759521484e+00 2.279008626937866211e+00 3.941694200038909912e-01
7.950000000000000000e+02 4.014685821533203125e+01 3.348196029663085938e+01 -6.015624403953552246e-01 7.754102706909179688e+00 2.145761966705322266e+00 2.038800269365310669e-01
7.960000000000000000e+02 4.260533523559570312e+01 4.019058227539062500e+01 -6.394076943397521973e-01 7.786232471466064453e+00 2.144047498703002930e+00 6.506258249282836914e-02
7.970000000000000000e+02 4.364969253540039062e+01 -3.036126518249511719e+01 -4.839416444301605225e-01 7.758714675903320312e+00 2.182431936264038086e+00 -2.704162597656250000e-01
7.980000000000000000e+02 4.394404983520507812e+01 -2.396276092529296875e+01 -2.523528337478637695e-01 7.776485443115234375e+00 2.257239818572998047e+00 -4.036887884140014648e-01
7.990000000000000000e+02 5.149942016601562500e+01 -1.726675796508789062e+01 7.449347525835037231e-02 7.730010986328125000e+00 2.341351270675659180e+00 -4.011775851249694824e-01
8.000000000000000000e+02 5.410782241821289062e+01 -9.637210845947265625e+00 2.895635068416595459e-01 7.644195079803466797e+00 2.380127668380737305e+00 -2.886815369129180908e-01
8.010000000000000000e+02 4.921798706054687500e+01 -6.197046756744384766e+00 4.755888581275939941e-01 7.622245311737060547e+00 2.429350376129150391e+00 -2.513265013694763184e-01
8.020000000000000000e+02 5.102675628662109375e+01 7.817432880401611328e+00 4.322825372219085693e-01 7.626796722412109375e+00 2.417723894119262695e+00 1.982530504465103149e-01
8.030000000000000000e+02 4.883815002441406250e+01 1.063062191009521484e+01 4.051167368888854980e-01 7.663806438446044922e+00 2.420676946640014648e+00 2.869275808334350586e-01
8.040000000000000000e+02 4.711276245117187500e+01 1.616842842102050781e+01 2.030356377363204956e-01 7.732440948486328125e+00 2.380643129348754883e+00 3.955639600753784180e-01
8.050000000000000000e+02 4.795477676391601562e+01 2.529827880859375000e+01 -1.700547784566879272e-01 7.814028739929199219e+00 2.293192148208618164e+00 3.684023022651672363e-01
8.060000000000000000e+02 5.271319580078125000e+01 3.452616882324218750e+01 -3.347315490245819092e-01 7.863128662109375000e+00 2.258519172668457031e+00 1.787340044975280762e-01
8.070000000000000000e+02 5.260883712768554688e+01 3.761323165893554688e+01 -3.663921058177947998e-01 7.874258041381835938e+00 2.252359867095947266e+00 1.060790792107582092e-01
8.080000000000000000e+02 5.252079010009765625e+01 4.086104202270507812e+01 -3.823735713958740234e-01 7.875002861022949219e+00 2.247788906097412109e+00 3.699119016528129578e-02
8.090000000000000000e+02 4.731057739257812500e+01 -4.045908737182617188e+01 -5.399754047393798828e-01 7.796171188354492188e+00 2.176858663558959961e+00 -4.578056558966636658e-02
8.100000000000000000e+02 5.202989196777343750e+01 -3.660767745971679688e+01 -3.946494460105895996e-01 7.847719669342041016e+00 2.235921144485473633e+00 -1.391511112451553345e-01
8.110000000000000000e+02 5.174233245849609375e+01 -2.913946723937988281e+01 -2.870251536369323730e-01 7.820139408111572266e+00 2.259934186935424805e+00 -2.971000671386718750e-01
8.120000000000000000e+02 4.904272842407226562e+01 -2.233599281311035156e+01 -1.173371672630310059e-01 7.784243583679199219e+00 2.300071954727172852e+00 -4.082230329513549805e-01
8.130000000000000000e+02 6.006879806518554688e+01 -1.849815368652343750e+01 2.016106434166431427e-02 7.741714000701904297e+00 2.328562498092651367e+00 -3.135578036308288574e-01
8.140000000000000000e+02 5.371762084960937500e+01 -7.744622230529785156e+00 3.336742818355560303e-01 7.627188682556152344e+00 2.388258934020996094e+00 -2.550860643386840820e-01
8.150000000000000000e+02 5.955794906616210938e+01 -4.343077659606933594e+00 2.530326545238494873e-01 7.609408378601074219e+00 2.358732223510742188e+00 -1.388003528118133545e-01
8.160000000000000000e+02 5.633620452880859375e+01 6.844465255737304688e+00 3.126681745052337646e-01 7.614240646362304688e+00 2.378072738647460938e+00 1.365695446729660034e-01
8.170000000000000000e+02 5.388692092895507812e+01 1.847515869140625000e+01 8.605077117681503296e-02 7.729249477386474609e+00 2.344589948654174805e+00 3.314415514469146729e-01
8.180000000000000000e+02 5.481091308593750000e+01 2.647475051879882812e+01 -1.442873328924179077e-01 7.808731079101562500e+00 2.299333095550537109e+00 3.025356233119964600e-01
8.190000000000000000e+02 6.027883148193359375e+01 3.336713409423828125e+01 -1.765605062246322632e-01 7.844235420227050781e+00 2.300302505493164062e+00 1.635061949491500854e-01
8.200000000000000000e+02 5.739271545410156250e+01 4.084736251831054688e+01 -2.742748260498046875e-01 7.872022151947021484e+00 2.279324293136596680e+00 3.289364650845527649e-02
8.210000000000000000e+02 6.225124740600585938e+01 -4.073553085327148438e+01 -2.039215117692947388e-01 7.901298046112060547e+00 2.309212923049926758e+00 -3.453440964221954346e-02
8.220000000000000000e+02 5.731991195678710938e+01 -4.057944488525390625e+01 -3.003765940666198730e-01 7.883033752441406250e+00 2.274797201156616211e+00 -3.925016894936561584e-02
8.230000000000000000e+02 5.977043151855468750e+01 -3.125747871398925781e+01 -1.879819184541702271e-01 7.857125282287597656e+00 2.300743103027343750e+00 -2.118577659130096436e-01
8.240000000000000000e+02 5.631143951416015625e+01 -2.209567642211914062e+01 -6.242490559816360474e-02 7.773822307586669922e+00 2.313419342041015625e+00 -3.463246226310729980e-01
8.250000000000000000e+02 6.464385223388671875e+01 -1.934507369995117188e+01 6.519807036966085434e-03 7.752374649047851562e+00 2.327668428421020508e+00 -2.619843780994415283e-01
8.260000000000000000e+02 6.685568237304687500e+01 -1.070319843292236328e+01 8.018127828836441040e-02 7.654067993164062500e+00 2.320274829864501953e+00 -1.854989677667617798e-01
8.270000000000000000e+02 6.807047271728515625e+01 -6.699231624603271484e+00 8.878782391548156738e-02 7.616844177246093750e+00 2.311689615249633789e+00 -1.282288730144500732e-01
8.280000000000000000e+02 6.662152099609375000e+01 4.514274597167968750e+00 1.226608902215957642e-01 7.594379901885986328e+00 2.315112352371215820e+00 4.478605091571807861e-02
8.290000000000000000e+02 6.559568786621093750e+01 1.216961860656738281e+01 9.510208666324615479e-02 7.642120838165283203e+00 2.321166753768920898e+00 1.623580008745193481e-01
8.300000000000000000e+02 6.670839691162109375e+01 2.119506645202636719e+01 6.684120278805494308e-03 7.724642753601074219e+00 2.319397926330566406e+00 2.046139538288116455e-01
8.310000000000000000e+02 6.594438171386718750e+01 2.599536895751953125e+01 -4.565470665693283081e-02 7.776913166046142578e+00 2.319377660751342773e+00 1.976936310529708862e-01
8.320000000000000000e+02 6.659778594970703125e+01 3.305809402465820312e+01 -9.132351726293563843e-02 7.835898876190185547e+00 2.323372602462768555e+00 1.288699358701705933e-01
8.330000000000000000e+02 6.226279067993164062e+01 4.073596191406250000e+01 -1.814400106668472290e-01 7.864125251770019531e+00 2.304805517196655273e+00 3.049191460013389587e-02
8.340000000000000000e+02 6.218851089477539062e+01 -2.921734046936035156e+01 -1.245546191930770874e-01 7.849104881286621094e+00 2.317365169525146484e+00 -2.231233716011047363e-01
8.350000000000000000e+02 6.547467803955078125e+01 -2.120406150817871094e+01 -1.502270903438329697e-02 7.775671482086181641e+00 2.328194618225097656e+00 -2.509963512420654297e-01
8.360000000000000000e+02 7.137453460693359375e+01 -1.810657691955566406e+01 8.608793839812278748e-03 7.737781047821044922e+00 2.323916912078857422e+00 -1.733648478984832764e-01
8.370000000000000000e+02 7.116243743896484375e+01 -1.040989017486572266e+01 4.178359732031822205e-02 7.635714054107666016e+00 2.303249359130859375e+00 -1.390970945358276367e-01
8.380000000000000000e+02 7.015709686279296875e+01 -5.898077487945556641e+00 6.327080726623535156e-02 7.600350856781005859e+00 2.299086570739746094e+00 -1.025805026292800903e-01
8.390000000000000000e+02 7.270851898193359375e+01 4.394350051879882812e+00 4.230401292443275452e-02 7.547498226165771484e+00 2.276940584182739258e+00 2.731664665043354034e-02
8.400000000000000000e+02 7.251463317871093750e+01 1.105889892578125000e+01 3.187018632888793945e-02 7.590011596679687500e+00 2.286564588546752930e+00 9.128493070602416992e-02
8.410000000000000000e+02 7.240593719482421875e+01 1.799821281433105469e+01 1.469635777175426483e-02 7.667748451232910156e+00 2.304733514785766602e+00 1.300782710313796997e-01
8.420000000000000000e+02 7.183252716064453125e+01 2.526600646972656250e+01 -1.652594096958637238e-02 7.764583587646484375e+00 2.324417352676391602e+00 1.413694918155670166e-01
8.430000000000000000e+02 7.113183593750000000e+01 3.156293678283691406e+01 -4.345993697643280029e-02 7.831326961517333984e+00 2.336360216140747070e+00 1.121405512094497681e-01
8.440000000000000000e+02 7.359492492675781250e+01 3.692611312866210938e+01 -3.117717616260051727e-02 7.884679317474365234e+00 2.356050729751586914e+00 4.865999892354011536e-02
8.450000000000000000e+02 7.042491912841796875e+01 3.717765045166015625e+01 -5.760726332664489746e-02 7.866986274719238281e+00 2.342813730239868164e+00 6.181608140468597412e-02
8.460000000000000000e+02 6.704650115966796875e+01 -4.095088195800781250e+01 -1.173691451549530029e-01 7.929477691650390625e+00 2.343632459640502930e+00 -2.353399805724620819e-02
8.470000000000000000e+02 7.277761077880859375e+01 -3.080645942687988281e+01 -3.485943749547004700e-02 7.925926685333251953e+00 2.367320060729980469e+00 -1.113172024488449097e-01
8.480000000000000000e+02 7.129061889648437500e+01 -2.308063316345214844e+01 -1.312424801290035248e-02 7.810400009155273438e+00 2.339182853698730469e+00 -1.735904961824417114e-01
8.490000000000000000e+02 7.935765838623046875e+01 -2.225787162780761719e+01 1.243683160282671452e-03 7.836722373962402344e+00 2.351389646530151367e+00 -1.846067979931831360e-02
8.500000000000000000e+02 7.805860900878906250e+01 -1.662784957885742188e+01 9.573414718033745885e-05 7.694520950317382812e+00 2.308384895324707031e+00 -4.949866607785224915e-02
8.510000000000000000e+02 7.934602355957031250e+01 -1.250688171386718750e+01 -4.109472502022981644e-04 7.585180282592773438e+00 2.275430679321289062e+00 -1.599204912781715393e-02
8.520000000000000000e+02 7.804357910156250000e+01 -9.645920753479003906e+00 3.737667575478553772e-03 7.549423694610595703e+00 2.265948295593261719e+00 -3.814381733536720276e-02
8.530000000000000000e+02 7.935442352294921875e+01 -5.533474445343017578e+00 1.658523688092827797e-03 7.454880714416503906e+00 2.236961841583251953e+00 -9.529992006719112396e-03
8.540000000000000000e+02 7.805873870849609375e+01 -2.668931722640991211e+00 3.069002879783511162e-03 7.459091186523437500e+00 2.238647937774658203e+00 -1.612835191190242767e-02
8.550000000000000000e+02 7.807236480712890625e+01 4.307326316833496094e+00 4.761163145303726196e-03 7.446996688842773438e+00 2.235527276992797852e+00 8.681046776473522186e-03
8.560000000000000000e+02 7.806335449218750000e+01 1.125015544891357422e+01 1.732968259602785110e-03 7.512526512145996094e+00 2.254277944564819336e+00 3.018529526889324188e-02
8.570000000000000000e+02 7.799465942382812500e+01 1.961083412170410156e+01 -2.511127677280455828e-04 7.662835121154785156e+00 2.298775196075439453e+00 4.560504481196403503e-02
8.580000000000000000e+02 7.655117797851562500e+01 2.241986846923828125e+01 1.929905847646296024e-04 7.722154140472412109e+00 2.316704034805297852e+00 7.306907325983047485e-02
8.590000000000000000e+02 7.931608581542968750e+01 3.210572433471679688e+01 -1.444887137040495872e-03 7.917535305023193359e+00 2.374827146530151367e+00 1.023391820490360260e-02
8.600000000000000000e+02 7.729146575927734375e+01 3.888089370727539062e+01 -7.410500198602676392e-03 7.954097270965576172e+00 2.384006023406982422e+00 1.319009158760309219e-02
8.610000000000000000e+02 7.912564849853515625e+01 3.751732635498046875e+01 -3.621018026024103165e-03 7.971421241760253906e+00 2.390340089797973633e+00 1.851450302638113499e-03
8.620000000000000000e+02 7.791950988769531250e+01 -4.162510299682617188e+01 2.982785459607839584e-03 8.115144729614257812e+00 2.435438156127929688e+00 8.421866223216056824e-04
8.630000000000000000e+02 7.783884429931640625e+01 -3.682863616943359375e+01 -3.300060750916600227e-03 8.083709716796875000e+00 2.424122810363769531e+00 -1.641324907541275024e-02
8.640000000000000000e+02 7.787375640869140625e+01 -3.046602058410644531e+01 -5.539400503039360046e-03 8.001417160034179688e+00 2.398763179779052734e+00 -4.065024480223655701e-02
8.650000000000000000e+02 7.805833435058593750e+01 -2.357454872131347656e+01 4.949753638356924057e-04 7.859873771667480469e+00 2.358110666275024414e+00 -5.038209632039070129e-02
8.660000000000000000e+02 7.934366607666015625e+01 -2.643020439147949219e+01 -1.672402257099747658e-03 7.944764137268066406e+00 2.382927656173706055e+00 -1.722140051424503326e-02
8.670000000000000000e+02 1.774236869812011719e+01 4.080325317382812500e+01 -6.701119542121887207e-01 5.380341529846191406e+00 1.413068890571594238e+00 -6.094796583056449890e-02
8.680000000000000000e+02 2.261212158203125000e+01 4.079973220825195312e+01 -8.073499202728271484e-01 6.237911701202392578e+00 1.629168629646301270e+00 -3.057288378477096558e-02
8.690000000000000000e+02 2.221864509582519531e+01 1.465430450439453125e+01 5.602784156799316406e-01 8.273796081542968750e+00 2.650222539901733398e+00 -6.047512292861938477e-01
8.700000000000000000e+02 2.084551429748535156e+01 1.002674198150634766e+01 1.202913880348205566e+00 9.824982643127441406e+00 3.308368921279907227e+00 -1.255839347839355469e+00
8.710000000000000000e+02 2.149469757080078125e+01 5.377088546752929688e+00 9.323616027832031250e-01 1.096085166931152344e+01 3.567964076995849609e+00 -8.155405521392822266e-01
8.720000000000000000e+02 2.243333244323730469e+01 -3.253399848937988281e+00 1.253629326820373535e+00 1.087668704986572266e+01 3.639095067977905273e+00 6.380094289779663086e-01
8.730000000000000000e+02 1.990192604064941406e+01 -1.346955394744873047e+01 2.446288615465164185e-01 7.787429332733154297e+00 2.409617424011230469e+00 1.284499764442443848e+00
8.740000000000000000e+02 1.477304935455322266e+01 -1.557143688201904297e+01 6.169753670692443848e-01 4.299182891845703125e+00 1.474847435951232910e+00 1.862787008285522461e+00
8.750000000000000000e+02 1.871336364746093750e+01 -2.470155143737792969e+01 -3.888187110424041748e-01 5.781405925750732422e+00 1.617776155471801758e+00 6.654053926467895508e-01
8.760000000000000000e+02 1.485921096801757812e+01 -2.950079727172851562e+01 -3.803004622459411621e-01 4.806323528289794922e+00 1.327806830406188965e+00 4.594306647777557373e-01
8.770000000000000000e+02 2.036301422119140625e+01 2.989152717590332031e+01 -5.756560564041137695e-01 6.130688190460205078e+00 1.666509628295898438e+00 -3.466193675994873047e-01
8.780000000000000000e+02 1.726014328002929688e+01 2.211581039428710938e+01 4.160554334521293640e-02 5.667594432830810547e+00 1.712760090827941895e+00 -1.020753860473632812e+00
8.790000000000000000e+02 1.300776863098144531e+01 1.733775520324707031e+01 1.236369609832763672e+00 1.897204399108886719e+00 9.400721788406372070e-01 -1.634722471237182617e+00
8.800000000000000000e+02 1.601044082641601562e+01 1.603280258178710938e+01 1.215077042579650879e+00 5.853179454803466797e+00 2.120476961135864258e+00 -2.186384201049804688e+00
8.810000000000000000e+02 1.584811115264892578e+01 1.419718456268310547e+01 2.178532123565673828e+00 6.749519348144531250e+00 2.678415536880493164e+00 -3.319619655609130859e+00
8.820000000000000000e+02 1.654648399353027344e+01 1.297181034088134766e+01 1.610533237457275391e+00 7.828745841979980469e+00 2.831783771514892578e+00 -3.427612304687500000e+00
8.830000000000000000e+02 1.977801895141601562e+01 8.036132812500000000e+00 1.030400514602661133e+00 1.117651462554931641e+01 3.662074565887451172e+00 -1.748179316520690918e+00
8.840000000000000000e+02 1.895613861083984375e+01 3.489636659622192383e+00 3.511043787002563477e-01 1.309110069274902344e+01 4.032661437988281250e+00 -6.897457242012023926e-01
8.850000000000000000e+02 1.901479148864746094e+01 7.418493032455444336e-01 1.175690516829490662e-01 1.231295871734619141e+01 3.729158401489257812e+00 -3.234695643186569214e-02
8.860000000000000000e+02 1.926470756530761719e+01 -4.580545425415039062e+00 1.068929433822631836e+00 1.428945541381835938e+01 4.607515335083007812e+00 1.572262287139892578e+00
8.870000000000000000e+02 1.996835327148437500e+01 -5.792329788208007812e+00 1.927982807159423828e+00 1.269356536865234375e+01 4.386464595794677734e+00 1.867498636245727539e+00
8.880000000000000000e+02 1.813943672180175781e+01 -7.914167881011962891e+00 1.894444823265075684e+00 1.047080516815185547e+01 3.709574937820434570e+00 3.953426122665405273e+00
8.890000000000000000e+02 1.747107315063476562e+01 -9.099365234375000000e+00 1.946199297904968262e+00 8.529417991638183594e+00 3.142685174942016602e+00 3.755803108215332031e+00
8.900000000000000000e+02 1.264674377441406250e+01 -1.584026527404785156e+01 8.951632976531982422e-01 2.130007266998291016e+00 9.075511693954467773e-01 1.473593473434448242e+00
8.910000000000000000e+02 1.070304393768310547e+01 -1.784641838073730469e+01 5.125271677970886230e-01 9.171655178070068359e-01 4.289078116416931152e-01 5.997703075408935547e-01
8.920000000000000000e+02 7.129450321197509766e+00 -1.815937995910644531e+01 1.827269196510314941e+00 7.723984241485595703e+00 2.865375995635986328e+00 -1.507728934288024902e+00
8.930000000000000000e+02 8.520384788513183594e+00 -1.842452239990234375e+01 2.203918457031250000e+00 3.700613021850585938e+00 1.771359443664550781e+00 -2.176443815231323242e+00
8.940000000000000000e+02 7.005259990692138672e+00 -2.408650779724121094e+01 -5.430037379264831543e-01 3.668831586837768555e+00 9.377483725547790527e-01 5.041977167129516602e-01
8.950000000000000000e+02 6.119946956634521484e+00 -2.343745803833007812e+01 -4.126364886760711670e-01 3.453406095504760742e+00 9.122308492660522461e-01 5.885416865348815918e-01
8.960000000000000000e+02 1.293667507171630859e+01 4.086504745483398438e+01 -4.751894474029541016e-01 4.441424846649169922e+00 1.189870595932006836e+00 -7.033307850360870361e-02
8.970000000000000000e+02 7.212430000305175781e+00 3.534081649780273438e+01 -2.441579699516296387e-01 3.142195463180541992e+00 8.694112896919250488e-01 -3.260710239410400391e-01
8.980000000000000000e+02 6.163478374481201172e+00 3.222546386718750000e+01 -2.464212924242019653e-01 2.827831745147705078e+00 7.744231820106506348e-01 -4.793510138988494873e-01
8.990000000000000000e+02 6.401330471038818359e+00 2.322991943359375000e+01 -3.616319000720977783e-01 3.734734296798706055e+00 1.011930704116821289e+00 -4.857834875583648682e-01
9.000000000000000000e+02 9.083389282226562500e+00 2.069436073303222656e+01 3.742141723632812500e-01 4.247012138366699219e+00 1.386367917060852051e+00 1.136251568794250488e+00
9.010000000000000000e+02 1.183221435546875000e+01 1.817796134948730469e+01 8.405139446258544922e-01 1.086841225624084473e+00 5.782065391540527344e-01 -7.660682201385498047e-01
9.020000000000000000e+02 2.044290781021118164e+00 4.162593078613281250e+01 -9.687075763940811157e-02 2.212485074996948242e+00 6.346843242645263672e-01 -2.766226418316364288e-02
9.030000000000000000e+02 4.797498226165771484e+00 3.731447982788085938e+01 -7.938458025455474854e-02 2.553572177886962891e+00 7.422562837600708008e-01 -1.492393314838409424e-01
9.040000000000000000e+02 2.164243221282958984e+00 3.575673294067382812e+01 -1.534481346607208252e-02 2.024649620056152344e+00 6.027914285659790039e-01 -1.747298538684844971e-01
9.050000000000000000e+02 2.038212776184082031e+00 2.903443145751953125e+01 -7.893104851245880127e-02 1.357727527618408203e+00 3.836389482021331787e-01 -3.748334348201751709e-01
9.060000000000000000e+02 2.197974681854248047e+00 2.307143974304199219e+01 -1.467994004487991333e-01 3.269018530845642090e-01 5.403073877096176147e-02 -1.001945137977600098e+00
9.070000000000000000e+02 3.828756093978881836e+00 1.534727573394775391e+01 1.061086058616638184e+00 1.505577087402343750e+00 7.699989080429077148e-01 7.777504920959472656e-01
9.080000000000000000e+02 1.614783048629760742e+00 1.166680145263671875e+01 -1.080323606729507446e-01 -5.957558751106262207e-01 -2.111364752054214478e-01 8.008579611778259277e-01
9.090000000000000000e+02 1.584834754467010498e-01 2.389676809310913086e+00 5.086921900510787964e-02 -1.770580559968948364e-01 -3.785665333271026611e-02 2.520087175071239471e-02
9.100000000000000000e+02 1.472614097595214844e+01 5.470424175262451172e+00 -1.486160606145858765e-01 -2.639597177505493164e+00 -8.364639878273010254e-01 9.676512479782104492e-01
9.110000000000000000e+02 1.399579048156738281e+01 7.992086410522460938e+00 -2.469784915447235107e-01 -3.456914424896240234e-01 -1.778009831905364990e-01 4.685120284557342529e-01
9.120000000000000000e+02 1.140963459014892578e+01 1.072940158843994141e+01 -2.370646297931671143e-01 1.824919939041137695e+00 4.763565957546234131e-01 -5.510910153388977051e-01
9.130000000000000000e+02 1.213799285888671875e+01 1.146926021575927734e+01 1.602142155170440674e-01 1.154538989067077637e+00 3.944259583950042725e-01 -5.849912166595458984e-01
9.140000000000000000e+02 9.791980743408203125e+00 1.254402446746826172e+01 1.765729635953903198e-01 2.895573854446411133e+00 9.216440320014953613e-01 -1.335006833076477051e+00
9.150000000000000000e+02 8.477416038513183594e+00 1.523564243316650391e+01 2.410009622573852539e+00 7.417907714843750000e+00 2.948375225067138672e+00 -3.454077482223510742e+00
9.160000000000000000e+02 1.834404468536376953e+00 1.998131942749023438e+01 1.094812676310539246e-01 -1.041932106018066406e+00 -2.797352671623229980e-01 -8.193042874336242676e-01
9.170000000000000000e+02 2.049072980880737305e+00 2.145209121704101562e+01 9.181588143110275269e-02 -3.238787651062011719e-01 -6.961886584758758545e-02 -9.732606410980224609e-01
9.180000000000000000e+02 7.632446289062500000e+00 1.719485473632812500e+01 3.802726268768310547e+00 1.461741256713867188e+01 5.526041507720947266e+00 2.798875272274017334e-01
9.190000000000000000e+02 1.111459445953369141e+01 1.301374554634094238e+00 2.738340139389038086e+00 1.202390861511230469e+01 4.428674697875976562e+00 3.258514404296875000e+00
9.200000000000000000e+02 1.169918918609619141e+01 3.359560370445251465e-01 8.457154273986816406e+00 6.554010391235351562e+00 4.503349304199218750e+00 2.081063270568847656e+00
9.210000000000000000e+02 1.134008884429931641e+01 -1.143323183059692383e+00 4.301057815551757812e+00 1.017481422424316406e+01 4.342761516571044922e+00 -3.599790096282958984e+00
9.220000000000000000e+02 5.656968593597412109e+00 -1.789965438842773438e+01 8.554809689521789551e-01 6.422842025756835938e+00 2.183496952056884766e+00 9.838581681251525879e-01
9.230000000000000000e+02 1.050253677368164062e+01 1.887361717224121094e+01 1.147532820701599121e+00 3.882917165756225586e-01 4.607473611831665039e-01 -1.175993829965591431e-01
9.240000000000000000e+02 1.513901901245117188e+01 -2.444866561889648438e+01 -1.169576197862625122e-01 4.759688377380371094e+00 1.392819166183471680e+00 7.492640018463134766e-01
9.250000000000000000e+02 2.836249160766601562e+01 -1.534883880615234375e+01 5.953728035092353821e-02 8.042737960815429688e+00 2.430682420730590820e+00 -1.949779093265533447e-01
9.260000000000000000e+02 2.860678672790527344e+01 -2.715253639221191406e+01 -6.543755531311035156e-01 7.186682701110839844e+00 1.959692120552062988e+00 3.241567686200141907e-02
9.270000000000000000e+02 2.361075592041015625e+01 -2.367309761047363281e+01 -5.529740452766418457e-01 6.880910396575927734e+00 1.898380875587463379e+00 3.678802847862243652e-01
9.280000000000000000e+02 3.141503715515136719e+01 -1.687294769287109375e+01 -4.213941283524036407e-03 7.911523818969726562e+00 2.372193098068237305e+00 -3.497987091541290283e-01
9.290000000000000000e+02 4.120225524902343750e+01 -1.886276245117187500e+01 -4.520887136459350586e-02 7.777228355407714844e+00 2.319605827331542969e+00 -4.763118922710418701e-01
9.300000000000000000e+02 5.350624847412109375e+01 -1.709748649597167969e+01 7.117167860269546509e-02 7.726751327514648438e+00 2.339376926422119141e+00 -3.802650272846221924e-01
9.310000000000000000e+02 6.579644775390625000e+01 -1.688271522521972656e+01 3.194495663046836853e-02 7.723810672760009766e+00 2.326726675033569336e+00 -2.432467788457870483e-01
9.320000000000000000e+02 7.271869659423828125e+01 -1.931876564025878906e+01 1.625824719667434692e-03 7.758756160736083984e+00 2.328114748001098633e+00 -1.548882275819778442e-01
9.330000000000000000e+02 3.470765304565429688e+01 -2.654414749145507812e+01 -5.426214933395385742e-01 7.579959392547607422e+00 2.111201286315917969e+00 -2.390462458133697510e-01
9.340000000000000000e+02 4.128393554687500000e+01 -2.758304214477539062e+01 -4.530233442783355713e-01 7.730505466461181641e+00 2.183244705200195312e+00 -3.285716474056243896e-01
9.350000000000000000e+02 5.154714202880859375e+01 -2.258272361755371094e+01 -1.024205312132835388e-01 7.778902530670166016e+00 2.302944660186767578e+00 -3.857194781303405762e-01
9.360000000000000000e+02 5.937303161621093750e+01 -2.409076690673828125e+01 -8.585672080516815186e-02 7.796855926513671875e+00 2.313299655914306641e+00 -3.028399348258972168e-01
9.370000000000000000e+02 6.470524597167968750e+01 -2.413531303405761719e+01 -4.853192344307899475e-02 7.806922912597656250e+00 2.327517271041870117e+00 -2.476406097412109375e-01
9.380000000000000000e+02 7.270592498779296875e+01 -2.195042037963867188e+01 -5.754117388278245926e-03 7.797583103179931641e+00 2.337548732757568359e+00 -1.552849113941192627e-01
9.390000000000000000e+02 6.227118968963623047e+00 -3.499205780029296875e+01 -1.325122565031051636e-01 3.104080200195312500e+00 8.914703726768493652e-01 2.495424747467041016e-01
9.400000000000000000e+02 4.050722122192382812e+01 -3.243806076049804688e+01 -5.948802828788757324e-01 7.684005737304687500e+00 2.126737594604492188e+00 -2.158223539590835571e-01
9.410000000000000000e+02 5.184957504272460938e+01 -3.279730987548828125e+01 -3.600269556045532227e-01 7.840596199035644531e+00 2.244170665740966797e+00 -2.210174649953842163e-01
9.420000000000000000e+02 7.431142425537109375e+01 -3.285273742675781250e+01 -2.683409675955772400e-02 7.970339298248291016e+00 2.383051395416259766e+00 -7.755406945943832397e-02
9.430000000000000000e+02 7.929793548583984375e+01 -3.335708999633789062e+01 3.649021091405302286e-04 8.080743789672851562e+00 2.424332618713378906e+00 -1.043123006820678711e-02
9.440000000000000000e+02 7.237756347656250000e+01 -1.214626598358154297e+01 2.571708522737026215e-02 7.652104854583740234e+00 2.303346633911132812e+00 -1.363401710987091064e-01
9.450000000000000000e+02 6.608076477050781250e+01 -9.445672988891601562e+00 9.666685760021209717e-02 7.644541740417480469e+00 2.322362661361694336e+00 -1.782666742801666260e-01
9.460000000000000000e+02 5.935361862182617188e+01 -1.107857894897460938e+01 1.682383418083190918e-01 7.659562587738037109e+00 2.348340272903442383e+00 -2.647843062877655029e-01
9.470000000000000000e+02 4.790932083129882812e+01 -1.091317844390869141e+01 3.689335286617279053e-01 7.668469429016113281e+00 2.411220788955688477e+00 -3.754435181617736816e-01
9.480000000000000000e+02 2.773192787170410156e+01 -1.311093235015869141e+01 3.654325604438781738e-01 8.186284065246582031e+00 2.565515041351318359e+00 -1.909479945898056030e-01
9.490000000000000000e+02 2.215599060058593750e+01 -1.586781501770019531e+01 -1.289452463388442993e-01 7.652398109436035156e+00 2.257035970687866211e+00 6.635993123054504395e-01
9.500000000000000000e+02 7.276324462890625000e+01 -5.313834667205810547e+00 3.809041902422904968e-02 7.573101043701171875e+00 2.283357381820678711e+00 -7.667032629251480103e-02
9.510000000000000000e+02 6.859521484375000000e+01 -5.708709716796875000e+00 8.492703735828399658e-02 7.608357429504394531e+00 2.307985305786132812e+00 -1.115061268210411072e-01
9.520000000000000000e+02 5.919583511352539062e+01 -6.209213733673095703e+00 2.430959194898605347e-01 7.620947360992431641e+00 2.359212875366210938e+00 -1.833658367395401001e-01
9.530000000000000000e+02 2.662559890747070312e+01 -5.327431678771972656e+00 1.388295531272888184e+00 8.959838867187500000e+00 3.104440212249755859e+00 1.268386244773864746e-01
9.540000000000000000e+02 3.057018280029296875e+01 -1.052160382270812988e+00 1.321340203285217285e+00 8.476067543029785156e+00 2.939222335815429688e+00 -3.134253202006220818e-03
9.550000000000000000e+02 1.932586479187011719e+01 -1.202850818634033203e+01 5.749547481536865234e-01 8.044850349426269531e+00 2.585941553115844727e+00 1.602137684822082520e+00
9.560000000000000000e+02 1.877218818664550781e+01 -9.941228866577148438e+00 1.023571729660034180e+00 8.986905097961425781e+00 3.003143072128295898e+00 2.423597097396850586e+00
9.570000000000000000e+02 7.935581970214843750e+01 2.831083536148071289e+00 1.742953201755881310e-03 7.405678272247314453e+00 2.222226381301879883e+00 1.160997897386550903e-03
9.580000000000000000e+02 7.123126220703125000e+01 6.421731114387512207e-01 6.181330606341362000e-02 7.560328483581542969e+00 2.286642551422119141e+00 -1.452356204390525818e-02
9.590000000000000000e+02 6.483590698242187500e+01 3.716316699981689453e+00 1.559407263994216919e-01 7.599711894989013672e+00 2.326695919036865234e+00 3.615992143750190735e-02
9.600000000000000000e+02 5.842542648315429688e+01 3.861506938934326172e+00 2.957193553447723389e-01 7.599419593811035156e+00 2.368541717529296875e+00 5.105592310428619385e-02
9.610000000000000000e+02 5.314491653442382812e+01 4.800695419311523438e+00 4.244962930679321289e-01 7.602910041809082031e+00 2.408221960067749023e+00 9.803237020969390869e-02
9.620000000000000000e+02 4.208369827270507812e+01 7.033026218414306641e-01 8.478936553001403809e-01 7.680703639984130859e+00 2.558579206466674805e+00 -7.871343754231929779e-03
9.630000000000000000e+02 2.700048828125000000e+01 7.807011604309082031e-01 1.314230561256408691e+00 9.331954956054687500e+00 3.193855762481689453e+00 2.947909012436866760e-02
9.640000000000000000e+02 2.063504600524902344e+01 -2.832370758056640625e+00 7.981165051460266113e-01 1.231757545471191406e+01 3.934707641601562500e+00 1.152260422706604004e+00
9.650000000000000000e+02 7.936064910888671875e+01 8.402655601501464844e+00 1.583106233738362789e-03 7.445189476013183594e+00 2.234031677246093750e+00 7.821466773748397827e-03
9.660000000000000000e+02 7.267670440673828125e+01 6.953787326812744141e+00 4.002370312809944153e-02 7.558453083038330078e+00 2.279543161392211914e+00 5.293274298310279846e-02
9.670000000000000000e+02 6.461856842041015625e+01 1.054217910766601562e+01 1.209502816200256348e-01 7.630099773406982422e+00 2.325314998626708984e+00 1.460403501987457275e-01
9.680000000000000000e+02 5.867247772216796875e+01 1.130249691009521484e+01 1.930127143859863281e-01 7.647613525390625000e+00 2.352187871932983398e+00 2.067578583955764771e-01
9.690000000000000000e+02 5.368060302734375000e+01 7.444911479949951172e+00 3.660205602645874023e-01 7.615732192993164062e+00 2.394525766372680664e+00 1.689072847366333008e-01
9.700000000000000000e+02 2.757049179077148438e+01 1.137500762939453125e+01 8.390954732894897461e-01 8.455444335937500000e+00 2.788362026214599609e+00 4.654045403003692627e-02
9.710000000000000000e+02 3.676797103881835938e+01 1.038995552062988281e+01 7.225615382194519043e-01 7.881454944610595703e+00 2.581204891204833984e+00 3.656147122383117676e-01
9.720000000000000000e+02 2.021573257446289062e+01 3.703178405761718750e+00 6.378338336944580078e-01 1.193331146240234375e+01 3.771343469619750977e+00 -7.931207418441772461e-01
9.730000000000000000e+02 7.934205627441406250e+01 1.676118087768554688e+01 1.463901833631098270e-03 7.590177059173583984e+00 2.277492284774780273e+00 1.484730094671249390e-02
9.740000000000000000e+02 7.248348236083984375e+01 1.663339424133300781e+01 1.533356588333845139e-02 7.652776718139648438e+00 2.300432920455932617e+00 1.269569694995880127e-01
9.750000000000000000e+02 6.569754028320312500e+01 1.972683143615722656e+01 1.997425779700279236e-02 7.711676120758056641e+00 2.319495201110839844e+00 2.103415131568908691e-01
9.760000000000000000e+02 5.568241119384765625e+01 1.492698955535888672e+01 1.649172902107238770e-01 7.686034679412841797e+00 2.355285644531250000e+00 2.846045494079589844e-01
9.770000000000000000e+02 5.260219573974609375e+01 1.661003112792968750e+01 1.453515291213989258e-01 7.710403919219970703e+00 2.356726646423339844e+00 3.304041028022766113e-01
9.780000000000000000e+02 4.179233932495117188e+01 1.376748847961425781e+01 3.998067677021026611e-01 7.766576290130615234e+00 2.449914932250976562e+00 4.159582853317260742e-01
9.790000000000000000e+02 2.585236167907714844e+01 1.840272331237792969e+01 -1.880216225981712341e-02 7.855194091796875000e+00 2.350917577743530273e+00 -4.512758925557136536e-02
9.800000000000000000e+02 2.027198410034179688e+01 1.151892852783203125e+01 1.033889532089233398e+00 9.305191993713378906e+00 3.101724386215209961e+00 -1.408467650413513184e+00
9.810000000000000000e+02 1.814694595336914062e+01 9.046344757080078125e+00 1.107379794120788574e+00 1.187707233428955078e+01 3.895335674285888672e+00 -2.702255725860595703e+00
9.820000000000000000e+02 7.931523895263671875e+01 2.372889137268066406e+01 -7.142880931496620178e-04 7.750022888183593750e+00 2.324792623519897461e+00 1.668555848300457001e-02
9.830000000000000000e+02 7.237599182128906250e+01 2.218015289306640625e+01 -4.045843612402677536e-03 7.725211620330810547e+00 2.316349744796752930e+00 1.408208906650543213e-01
9.840000000000000000e+02 6.232552337646484375e+01 2.273403739929199219e+01 -2.037093043327331543e-02 7.751729011535644531e+00 2.319407463073730469e+00 2.482344359159469604e-01
9.850000000000000000e+02 5.246227645874023438e+01 2.519922447204589844e+01 -1.204368248581886292e-01 7.802019596099853516e+00 2.304474830627441406e+00 3.309163153171539307e-01
9.860000000000000000e+02 4.065730285644531250e+01 2.290333938598632812e+01 -1.546248346567153931e-01 7.806598186492919922e+00 2.295592069625854492e+00 4.200265407562255859e-01
9.870000000000000000e+02 2.714430236816406250e+01 2.666446495056152344e+01 -5.842665433883666992e-01 7.259984016418457031e+00 2.002715349197387695e+00 -1.927362941205501556e-02
9.880000000000000000e+02 3.674836349487304688e+01 2.318773460388183594e+01 -2.293765246868133545e-01 7.794956207275390625e+00 2.269673824310302734e+00 3.850630521774291992e-01
9.890000000000000000e+02 1.917841529846191406e+01 1.947117805480957031e+01 8.839081972837448120e-03 6.662703514099121094e+00 2.001462936401367188e+00 -1.032053828239440918e+00
9.900000000000000000e+02 7.930204010009765625e+01 2.931474113464355469e+01 -1.069876365363597870e-03 7.870433330535888672e+00 2.360809087753295898e+00 1.434190198779106140e-02
9.910000000000000000e+02 7.360176849365234375e+01 3.094103431701660156e+01 -2.418153919279575348e-02 7.836833477020263672e+00 2.343795537948608398e+00 9.366548061370849609e-02
9.920000000000000000e+02 6.064711761474609375e+01 2.860554504394531250e+01 -1.185249090194702148e-01 7.810604572296142578e+00 2.307623863220214844e+00 2.246374189853668213e-01
9.930000000000000000e+02 5.836962127685546875e+01 3.030318450927734375e+01 -1.702152341604232788e-01 7.829365253448486328e+00 2.297744989395141602e+00 2.246742695569992065e-01
9.940000000000000000e+02 5.270671081542968750e+01 3.178967285156250000e+01 -2.903256714344024658e-01 7.848824977874755859e+00 2.267549753189086914e+00 2.298484295606613159e-01
9.950000000000000000e+02 4.051165008544921875e+01 2.783704757690429688e+01 -4.110800921916961670e-01 7.789896965026855469e+00 2.213644981384277344e+00 3.320785760879516602e-01
9.960000000000000000e+02 3.033895492553710938e+01 2.963652229309082031e+01 -6.617407202720642090e-01 7.392714023590087891e+00 2.019291877746582031e+00 9.529545903205871582e-02
9.970000000000000000e+02 2.029668617248535156e+01 2.717793655395507812e+01 -5.048285722732543945e-01 6.263994693756103516e+00 1.727749705314636230e+00 -4.390020370483398438e-01
9.980000000000000000e+02 1.723759460449218750e+01 2.442935562133789062e+01 -1.286628395318984985e-01 5.560664653778076172e+00 1.629600644111633301e+00 -7.309336662292480469e-01
9.990000000000000000e+02 1.923961067199707031e+01 3.347618865966796875e+01 -6.479963064193725586e-01 5.766912460327148438e+00 1.535674810409545898e+00 -2.801908552646636963e-01
1.000000000000000000e+03 6.771350383758544922e+00 3.355944824218750000e+01 -2.058514803647994995e-01 3.068092584609985352e+00 8.586723208427429199e-01 -3.949450850486755371e-01
1.001000000000000000e+03 2.009734869003295898e+00 3.177240180969238281e+01 -4.279234632849693298e-02 1.698774337768554688e+00 4.967946112155914307e-01 -2.435345947742462158e-01
1.002000000000000000e+03 1.463184833526611328e+00 8.898097038269042969e+00 -1.055622026324272156e-01 -5.540412664413452148e-02 -4.828989878296852112e-02 2.999340891838073730e-01
1.003000000000000000e+03 9.237830162048339844e+00 1.165942764282226562e+01 -6.727026104927062988e-01 3.891054391860961914e+00 9.655055403709411621e-01 -1.134873151779174805e+00
1.004000000000000000e+03 1.357442378997802734e+01 -1.479171371459960938e+01 1.353039503097534180e+00 2.949366331100463867e+00 1.290721774101257324e+00 1.911300659179687500e+00
1.005000000000000000e+03 1.551236361265182495e-01 -2.011959075927734375e+00 -7.551008835434913635e-03 -1.954881399869918823e-01 -6.091174483299255371e-02 -1.704861223697662354e-02
1.006000000000000000e+03 9.064668416976928711e-01 -1.631304860115051270e+00 -3.717547655105590820e-02 -1.010890975594520569e-01 -4.147937148809432983e-02 -8.643925189971923828e-02
1.007000000000000000e+03 2.488038301467895508e+00 -1.634217381477355957e+00 -2.686191909015178680e-02 1.271186769008636475e-02 -4.245015326887369156e-03 -1.350457668304443359e-01
1.008000000000000000e+03 2.896945476531982422e+00 -1.695661306381225586e+00 -7.306280080229043961e-03 6.160799786448478699e-02 1.629051566123962402e-02 -9.158878773450851440e-02
1.009000000000000000e+03 2.018353700637817383e+00 -4.162203598022460938e+01 -8.551321923732757568e-02 2.571200609207153320e+00 7.457062005996704102e-01 2.344834059476852417e-02
1.010000000000000000e+03 1.306114315986633301e+00 -4.007349395751953125e+01 3.436810895800590515e-02 2.539102077484130859e+00 7.720410823822021484e-01 7.653570920228958130e-02
1.011000000000000000e+03 5.361605882644653320e-01 -3.622190093994140625e+01 5.882172379642724991e-03 2.278358221054077148e+00 6.852721571922302246e-01 3.321429342031478882e-02
1.012000000000000000e+03 5.640641450881958008e-01 -3.503701019287109375e+01 -1.566354418173432350e-03 2.182659149169921875e+00 6.543278694152832031e-01 2.609412185847759247e-02
1.013000000000000000e+03 2.410853147506713867e+00 -3.484126663208007812e+01 -3.867262601852416992e-02 2.424012422561645508e+00 7.156019806861877441e-01 1.485029458999633789e-01
1.014000000000000000e+03 6.674488186836242676e-01 -3.370834732055664062e+01 -1.979661546647548676e-02 2.102048158645629883e+00 6.246754527091979980e-01 5.037247017025947571e-02
1.015000000000000000e+03 6.846134066581726074e-01 -2.960800743103027344e+01 4.928502719849348068e-03 1.664599895477294922e+00 5.008584856986999512e-01 8.589302748441696167e-02
1.016000000000000000e+03 7.209982275962829590e-01 -2.827541351318359375e+01 -3.341645747423171997e-02 1.459642529487609863e+00 4.278677999973297119e-01 1.189488172531127930e-01
1.017000000000000000e+03 7.293564677238464355e-01 -2.693164443969726562e+01 1.077364082448184490e-03 1.210920572280883789e+00 3.635993897914886475e-01 1.426217108964920044e-01
1.018000000000000000e+03 6.490406394004821777e-01 -2.282367324829101562e+01 -9.914758801460266113e-02 -1.746607273817062378e-01 -8.214249461889266968e-02 3.253530859947204590e-01
1.019000000000000000e+03 6.613921523094177246e-01 -2.143470573425292969e+01 -9.363560937345027924e-03 -9.791889786720275879e-01 -2.965657413005828857e-01 4.221097230911254883e-01
1.020000000000000000e+03 1.932623505592346191e+00 -2.167641258239746094e+01 -2.499332129955291748e-01 4.913847744464874268e-01 7.243546843528747559e-02 9.693667292594909668e-01
1.021000000000000000e+03 7.104234695434570312e-01 -1.864703941345214844e+01 1.313584670424461365e-02 -2.726370334625244141e+00 -8.139703273773193359e-01 4.575638473033905029e-01
1.022000000000000000e+03 7.189810872077941895e-01 -1.583808231353759766e+01 1.086329370737075806e-01 -3.887537240982055664e+00 -1.133671283721923828e+00 1.426149010658264160e-01
1.023000000000000000e+03 6.631144881248474121e-01 -1.443373966217041016e+01 1.090655699372291565e-01 -3.930608987808227539e+00 -1.146463036537170410e+00 -6.833186745643615723e-02
1.024000000000000000e+03 1.971086382865905762e+00 -1.426921081542968750e+01 4.329828619956970215e-01 -1.022907018661499023e+00 -1.769772320985794067e-01 -3.520359694957733154e-01
1.025000000000000000e+03 5.778592824935913086e-01 -1.304400253295898438e+01 2.848336473107337952e-02 -3.574117183685302734e+00 -1.063690185546875000e+00 -2.258786708116531372e-01
1.026000000000000000e+03 4.424822628498077393e-01 -8.992613792419433594e+00 1.717469654977321625e-02 -1.470406651496887207e+00 -4.359695911407470703e-01 -1.738562136888504028e-01
1.027000000000000000e+03 4.303848445415496826e-01 -7.663408756256103516e+00 -5.392399430274963379e-02 -9.852493405342102051e-01 -3.117519915103912354e-01 -1.119120717048645020e-01
1.028000000000000000e+03 1.321947216987609863e+00 -6.474838256835937500e+00 -1.018234565854072571e-01 -2.574548125267028809e-01 -1.077834814786911011e-01 -1.926998794078826904e-01
1.029000000000000000e+03 1.097736477851867676e+00 -1.635411143302917480e+00 -4.626270849257707596e-03 -8.855532109737396240e-02 -2.795447781682014465e-02 -1.100247800350189209e-01
1.030000000000000000e+03 7.467863464355468750e+01 -4.022175598144531250e+01 -1.671767421066761017e-02 8.031402587890625000e+00 2.404405355453491211e+00 -2.435106411576271057e-02
1.031000000000000000e+03 5.232335281372070312e+01 -4.052323913574218750e+01 -4.170651733875274658e-01 7.855706691741943359e+00 2.231592416763305664e+00 -5.278003588318824768e-02
1.032000000000000000e+03 3.237147521972656250e+01 -3.722177886962890625e+01 -7.927833199501037598e-01 7.208034992218017578e+00 1.924575567245483398e+00 -2.845225483179092407e-02
1.033000000000000000e+03 1.280383300781250000e+01 -4.043265533447265625e+01 -4.001929759979248047e-01 4.435489654541015625e+00 1.210588932037353516e+00 8.429864794015884399e-02
1.034000000000000000e+03 7.886073303222656250e+01 4.011767959594726562e+01 -6.848829798400402069e-03 7.976480007171630859e+00 2.390889406204223633e+00 -5.306521779857575893e-04
1.035000000000000000e+03 7.909756469726562500e+01 3.885889434814453125e+01 4.605064634233713150e-03 7.975124359130859375e+00 2.393918991088867188e+00 3.593829926103353500e-03
1.036000000000000000e+03 7.567806243896484375e+01 3.606711959838867188e+01 -1.502295210957527161e-02 7.907148361206054688e+00 2.367637634277343750e+00 4.030553251504898071e-02
1.037000000000000000e+03 7.935210418701171875e+01 3.483590698242187500e+01 -1.711984165012836456e-03 7.952991008758544922e+00 2.385383605957031250e+00 7.646327838301658630e-03
1.038000000000000000e+03 7.798567199707031250e+01 3.359363937377929688e+01 -4.233119077980518341e-03 7.916687488555908203e+00 2.373736381530761719e+00 2.355134859681129456e-02
1.039000000000000000e+03 7.933959960937500000e+01 3.347881317138671875e+01 3.920490271411836147e-04 7.936139106750488281e+00 2.380959510803222656e+00 8.860344998538494110e-03
1.040000000000000000e+03 7.930511474609375000e+01 3.071437835693359375e+01 -7.985779666341841221e-04 7.895862102508544922e+00 2.368519067764282227e+00 1.231018826365470886e-02
1.041000000000000000e+03 7.646151733398437500e+01 2.809011840820312500e+01 -4.423405509442090988e-03 7.818153381347656250e+00 2.344118833541870117e+00 6.622117012739181519e-02
1.042000000000000000e+03 7.930552673339843750e+01 2.651799583435058594e+01 -7.709635538049042225e-04 7.812688350677490234e+00 2.343575239181518555e+00 1.603551954030990601e-02
1.043000000000000000e+03 7.645776367187500000e+01 2.525176239013671875e+01 -2.199581125751137733e-03 7.772305488586425781e+00 2.331031799316406250e+00 7.182838767766952515e-02
1.044000000000000000e+03 7.931062316894531250e+01 2.512326240539550781e+01 4.219100519549101591e-04 7.781746387481689453e+00 2.334650516510009766e+00 1.618924923241138458e-02
1.045000000000000000e+03 7.932933807373046875e+01 2.094319152832031250e+01 -7.528537535108625889e-04 7.685250759124755859e+00 2.305349349975585938e+00 1.662185229361057281e-02
1.046000000000000000e+03 7.933336639404296875e+01 1.954960441589355469e+01 1.100022229366004467e-03 7.652879714965820312e+00 2.296194076538085938e+00 1.602138020098209381e-02
1.047000000000000000e+03 7.933755493164062500e+01 1.815564346313476562e+01 -7.337666465900838375e-04 7.621035099029541016e+00 2.286090373992919922e+00 1.587321981787681580e-02
1.048000000000000000e+03 7.935001373291015625e+01 1.397563648223876953e+01 1.593467779457569122e-03 7.532981872558593750e+00 2.260372638702392578e+00 1.299113128334283829e-02
1.049000000000000000e+03 7.935260009765625000e+01 1.258057689666748047e+01 -5.115621606819331646e-04 7.507319927215576172e+00 2.252042531967163086e+00 1.206634845584630966e-02
1.050000000000000000e+03 7.935546112060546875e+01 1.118706226348876953e+01 1.614925917237997055e-03 7.483954429626464844e+00 2.245670795440673828e+00 1.063968334347009659e-02
1.051000000000000000e+03 7.936226654052734375e+01 7.011527538299560547e+00 -1.671713253017514944e-04 7.430181503295898438e+00 2.229004383087158203e+00 6.486955098807811737e-03
1.052000000000000000e+03 7.936211395263671875e+01 5.619539737701416016e+00 1.686081523075699806e-03 7.418509006500244141e+00 2.226058483123779297e+00 4.595630336552858353e-03
1.053000000000000000e+03 7.935951232910156250e+01 4.226222038269042969e+00 -1.396383158862590790e-04 7.410302639007568359e+00 2.223048925399780273e+00 3.125694580376148224e-03
1.054000000000000000e+03 7.935326385498046875e+01 4.520103335380554199e-02 1.777338911779224873e-03 7.407307624816894531e+00 2.222725391387939453e+00 -2.428667852655053139e-03
1.055000000000000000e+03 7.935279846191406250e+01 -1.349124312400817871e+00 -6.231436418602243066e-05 7.413680076599121094e+00 2.224085330963134766e+00 -4.076908342540264130e-03
1.056000000000000000e+03 7.806445312500000000e+01 -4.064077377319335938e+00 4.771707113832235336e-03 7.471199512481689453e+00 2.242791414260864258e+00 -2.133153937757015228e-02
1.057000000000000000e+03 7.935457611083984375e+01 -4.138546466827392578e+00 -1.131434910348616540e-04 7.437579631805419922e+00 2.231240034103393555e+00 -7.676423527300357819e-03
1.058000000000000000e+03 7.935053253173828125e+01 -8.321529388427734375e+00 1.580142532475292683e-03 7.499010562896728516e+00 2.250177145004272461e+00 -1.255201548337936401e-02
1.059000000000000000e+03 7.803787994384765625e+01 -1.104521656036376953e+01 1.614069682545959949e-03 7.575276374816894531e+00 2.273066997528076172e+00 -4.138527810573577881e-02
1.060000000000000000e+03 7.934585571289062500e+01 -1.111197090148925781e+01 1.368478755466639996e-03 7.554192543029785156e+00 2.266668319702148438e+00 -1.511809322983026505e-02
1.061000000000000000e+03 7.935039520263671875e+01 -1.529365730285644531e+01 -6.234073662199079990e-04 7.652409553527832031e+00 2.295535802841186523e+00 -1.741188764572143555e-02
1.062000000000000000e+03 7.806638336181640625e+01 -1.802164649963378906e+01 1.716579427011311054e-03 7.727176189422607422e+00 2.318667888641357422e+00 -5.087437480688095093e-02
1.063000000000000000e+03 7.935613250732421875e+01 -1.808149147033691406e+01 -9.346203296445310116e-04 7.724736690521240234e+00 2.317140579223632812e+00 -1.819853670895099640e-02
1.064000000000000000e+03 7.935500335693359375e+01 -2.364937400817871094e+01 -1.510019763372838497e-03 7.873603343963623047e+00 2.361628055572509766e+00 -1.797916926443576813e-02
1.065000000000000000e+03 7.804671478271484375e+01 -2.495584487915039062e+01 -2.431738423183560371e-03 7.891781806945800781e+00 2.366805076599121094e+00 -4.905499890446662903e-02
1.066000000000000000e+03 7.935078430175781250e+01 -2.504020881652832031e+01 1.253018039278686047e-03 7.909650802612304688e+00 2.373270988464355469e+00 -1.788420416414737701e-02
1.067000000000000000e+03 7.931848907470703125e+01 -2.921190261840820312e+01 -1.555495429784059525e-03 8.009172439575195312e+00 2.402285099029541016e+00 -1.563986390829086304e-02
1.068000000000000000e+03 7.782331085205078125e+01 -3.183872795104980469e+01 -4.524431657046079636e-03 8.024312973022460938e+00 2.405936479568481445e+00 -3.607702627778053284e-02
1.069000000000000000e+03 7.929299163818359375e+01 -3.198016548156738281e+01 -1.939109060913324356e-03 8.060652732849121094e+00 2.417614221572875977e+00 -1.174602378159761429e-02
1.070000000000000000e+03 7.932500457763671875e+01 -3.607394409179687500e+01 1.122813438996672630e-03 8.108709335327148438e+00 2.432949542999267578e+00 -5.823865998536348343e-03
1.071000000000000000e+03 7.921470642089843750e+01 -3.738816070556640625e+01 -3.155589336529374123e-03 8.115528106689453125e+00 2.433711767196655273e+00 -2.631350187584757805e-03
1.072000000000000000e+03 7.896131134033203125e+01 -3.868491744995117188e+01 4.730797081720083952e-04 8.117888450622558594e+00 2.435508489608764648e+00 -1.661995775066316128e-03
1.073000000000000000e+03 7.857280731201171875e+01 -4.004299163818359375e+01 -4.086806904524564743e-03 8.116359710693359375e+00 2.433681726455688477e+00 1.866251812316477299e-03
1.074000000000000000e+03 4.764143753051757812e+01 4.067688369750976562e+01 -5.015448331832885742e-01 7.863116264343261719e+00 2.208471298217773438e+00 4.267769306898117065e-02
1.075000000000000000e+03 6.706816101074218750e+01 4.069398117065429688e+01 -1.098901927471160889e-01 7.865087509155273438e+00 2.326559305191040039e+00 2.303176000714302063e-02
1.076000000000000000e+03 4.517579555511474609e+00 1.678040981292724609e+00 2.657611072063446045e-01 1.564404368400573730e-01 1.266604661941528320e-01 -1.420354694128036499e-01
1.077000000000000000e+03 1.276834249496459961e+00 6.051617145538330078e+00 5.648356862366199493e-03 7.216326426714658737e-03 3.859404940158128738e-03 -6.666606757789850235e-03
1.078000000000000000e+03 4.927093088626861572e-01 9.146353721618652344e+00 -4.040805995464324951e-02 -5.655544400215148926e-01 -1.817887425422668457e-01 9.957711398601531982e-02
1.079000000000000000e+03 5.347322821617126465e-01 1.196009349822998047e+01 1.637948490679264069e-02 -1.745253920555114746e+00 -5.186623334884643555e-01 2.467298209667205811e-01
1.080000000000000000e+03 5.692280530929565430e-01 1.757208442687988281e+01 1.878630816936492920e-01 -3.793848037719726562e+00 -1.081795454025268555e+00 -1.028601527214050293e-01
1.081000000000000000e+03 7.390248298645019531e+00 1.580602645874023438e+01 2.095220327377319336e+00 1.032246971130371094e+01 3.725306987762451172e+00 -9.408928155899047852e-01
1.082000000000000000e+03 4.106360435485839844e+00 1.926101303100585938e+01 7.635145783424377441e-01 2.272222757339477539e+00 9.107212424278259277e-01 -1.163788557052612305e+00
1.083000000000000000e+03 6.903597116470336914e-01 2.182482337951660156e+01 -4.108932986855506897e-02 -1.825007915496826172e+00 -5.598291754722595215e-01 -4.148206710815429688e-01
1.084000000000000000e+03 7.360376119613647461e-01 2.329670524597167969e+01 2.396400319412350655e-03 -1.062045216560363770e+00 -3.178946375846862793e-01 -3.871091902256011963e-01
1.085000000000000000e+03 7.342429757118225098e-01 2.477057075500488281e+01 -4.370222985744476318e-02 -3.700332343578338623e-01 -1.241206377744674683e-01 -3.443558514118194580e-01
1.086000000000000000e+03 6.802446842193603516e-01 2.904758071899414062e+01 -2.903381921350955963e-02 9.394589066505432129e-01 2.731275260448455811e-01 -1.367106139659881592e-01
1.087000000000000000e+03 6.707575917243957520e-01 3.045252990722656250e+01 -1.465967390686273575e-03 1.195420622825622559e+00 3.581864237785339355e-01 -1.067247316241264343e-01
1.088000000000000000e+03 1.998609304428100586e+00 3.040804100036621094e+01 -4.711488261818885803e-02 1.537072420120239258e+00 4.469872713088989258e-01 -2.979733049869537354e-01
1.089000000000000000e+03 6.727769374847412109e-01 3.185486984252929688e+01 -1.627868413925170898e-02 1.399778485298156738e+00 4.150499403476715088e-01 -8.642884343862533569e-02
1.090000000000000000e+03 7.232858538627624512e-01 3.600896835327148438e+01 -9.177977219223976135e-03 1.835674285888671875e+00 5.479488968849182129e-01 -5.568792298436164856e-02
1.091000000000000000e+03 3.425928354263305664e+00 3.693432998657226562e+01 -3.405717760324478149e-02 2.259153127670288086e+00 6.675287485122680664e-01 -2.093397378921508789e-01
1.092000000000000000e+03 9.635914564132690430e-01 3.870670318603515625e+01 -8.624983951449394226e-03 2.070981740951538086e+00 6.187070608139038086e-01 -6.683634221553802490e-02
1.093000000000000000e+03 1.346220254898071289e+00 4.005752182006835938e+01 2.367976307868957520e-02 2.173140048980712891e+00 6.590459346771240234e-01 -8.494266867637634277e-02
1.094000000000000000e+03 2.876973390579223633e+00 1.657603979110717773e+00 4.687166959047317505e-02 4.380026087164878845e-02 2.720157988369464874e-02 6.348667293787002563e-02
1.095000000000000000e+03 2.125586986541748047e+00 1.655887246131896973e+00 1.723661459982395172e-02 1.069199875928461552e-03 5.491744261234998703e-03 1.070691496133804321e-01
1.096000000000000000e+03 1.916433334350585938e+00 1.658922433853149414e+00 -5.790174473077058792e-03 -1.706520467996597290e-02 -6.856613792479038239e-03 9.552567452192306519e-02
1.097000000000000000e+03 1.518722772598266602e+00 1.648722052574157715e+00 -1.866800710558891296e-02 -2.915411628782749176e-02 -1.434663776308298111e-02 9.607347100973129272e-02
1.098000000000000000e+03 1.134390354156494141e+00 1.690541386604309082e+00 -1.089520379900932312e-02 -5.249271914362907410e-02 -1.901637762784957886e-02 9.751169383525848389e-02
1.099000000000000000e+03 9.237922430038452148e-01 1.677572607994079590e+00 2.267368882894515991e-02 -8.349421620368957520e-02 -1.824615709483623505e-02 9.683743864297866821e-02
1.100000000000000000e+03 5.523149371147155762e-01 1.681455850601196289e+00 -1.656418293714523315e-02 -9.074927121400833130e-02 -3.219403699040412903e-02 1.122011896222829819e-02
1.101000000000000000e+03 3.679048418998718262e-01 1.691329717636108398e+00 -6.707639247179031372e-02 -7.781157642602920532e-02 -4.346639290452003479e-02 5.171299725770950317e-02
1.102000000000000000e+03 1.116434097290039062e+01 -1.314899086952209473e+00 3.213200330734252930e+00 1.105996131896972656e+01 4.281948566436767578e+00 -3.148789644241333008e+00
1.103000000000000000e+03 1.151322841644287109e+01 -7.255902886390686035e-01 7.036781311035156250e+00 8.426247596740722656e+00 4.638908386230468750e+00 -3.248075723648071289e+00
1.104000000000000000e+03 1.157261466979980469e+01 -5.280046463012695312e-01 8.047157287597656250e+00 7.488756179809570312e+00 4.660774230957031250e+00 -2.521619319915771484e+00
1.105000000000000000e+03 1.496729850769042969e+01 1.517969250679016113e+00 1.313384473323822021e-01 -1.010616397857666016e+01 -2.992447614669799805e+00 7.973211407661437988e-01
1.106000000000000000e+03 1.092624950408935547e+01 1.423050761222839355e+00 1.837589621543884277e+00 1.300192832946777344e+01 4.451855659484863281e+00 2.576113462448120117e+00
1.107000000000000000e+03 1.073289394378662109e+01 1.518098473548889160e+00 8.157474994659423828e-01 1.377914810180664062e+01 4.378468990325927734e+00 1.569332599639892578e+00
1.108000000000000000e+03 1.053681182861328125e+01 1.589797496795654297e+00 3.386924564838409424e-01 1.382278060913085938e+01 4.248441696166992188e+00 3.768212199211120605e-01
1.109000000000000000e+03 1.501744747161865234e+01 1.533843803405761719e+01 2.108282566070556641e+00 4.874070167541503906e+00 2.094705820083618164e+00 -3.069165945053100586e+00
1.110000000000000000e+03 1.772196006774902344e+01 1.040081882476806641e+01 1.396192312240600586e+00 1.081744480133056641e+01 3.664091110229492188e+00 -3.310234069824218750e+00
1.111000000000000000e+03 1.845128059387207031e+01 7.666925430297851562e+00 5.429324507713317871e-01 1.201528072357177734e+01 3.767463922500610352e+00 -2.195510864257812500e+00
1.112000000000000000e+03 1.868920326232910156e+01 6.277167320251464844e+00 5.471184253692626953e-01 1.249394989013671875e+01 3.912320613861083984e+00 -1.797425866127014160e+00
1.113000000000000000e+03 1.886050796508789062e+01 4.881754398345947266e+00 3.762319982051849365e-01 1.305254077911376953e+01 4.028631687164306641e+00 -1.316264271736145020e+00
1.114000000000000000e+03 1.903940963745117188e+01 -6.116219758987426758e-01 -3.771236166357994080e-02 1.232161045074462891e+01 3.685169458389282227e+00 2.277809940278530121e-02
1.115000000000000000e+03 1.914903259277343750e+01 -3.298878192901611328e+00 7.090619206428527832e-02 1.337826728820800781e+01 4.034752368927001953e+00 4.690121114253997803e-01
1.116000000000000000e+03 1.876809501647949219e+01 -6.738858699798583984e+00 1.849129080772399902e+00 1.307045173645019531e+01 4.475874423980712891e+00 3.243103265762329102e+00
1.117000000000000000e+03 1.528223800659179688e+01 -1.258679676055908203e+01 1.745471239089965820e+00 5.073015213012695312e+00 2.045545816421508789e+00 2.789463281631469727e+00
1.118000000000000000e+03 1.446351909637451172e+01 -1.371330547332763672e+01 1.590209722518920898e+00 3.994801282882690430e+00 1.675503253936767578e+00 2.439693450927734375e+00
1.119000000000000000e+03 9.851783752441406250e+00 -1.912377738952636719e+01 1.305505156517028809e+00 1.534571051597595215e+00 8.520228862762451172e-01 -4.547567367553710938e-01
1.120000000000000000e+03 9.639162063598632812e+00 -1.049650669097900391e+01 9.529745578765869141e-01 3.579590320587158203e+00 1.359769463539123535e+00 2.033669948577880859e+00
1.121000000000000000e+03 1.043482208251953125e+01 -9.385377883911132812e+00 4.448324441909790039e-01 2.450735569000244141e+00 8.686704039573669434e-01 1.108923554420471191e+00
1.122000000000000000e+03 9.998332023620605469e+00 -2.002064466476440430e+00 -3.068440556526184082e-01 1.122429656982421875e+01 3.275235891342163086e+00 2.845155000686645508e+00
1.123000000000000000e+03 1.129352092742919922e+01 1.157399654388427734e+00 4.146101474761962891e+00 1.066077423095703125e+01 4.442062854766845703e+00 3.685390710830688477e+00
1.124000000000000000e+03 1.443032932281494141e+01 6.750020027160644531e+00 -3.316121995449066162e-01 -1.260570645332336426e+00 -4.776548743247985840e-01 7.166141867637634277e-01
1.125000000000000000e+03 1.283938312530517578e+01 1.036220169067382812e+01 5.495429039001464844e-03 8.428635001182556152e-01 2.545076608657836914e-01 -2.132984399795532227e-01
1.126000000000000000e+03 9.444342613220214844e+00 1.438964557647705078e+01 1.626634478569030762e+00 2.883672237396240234e+00 1.353092074394226074e+00 -2.375065088272094727e+00
1.127000000000000000e+03 1.155075550079345703e+01 7.788080573081970215e-01 6.617144107818603516e+00 8.390686988830566406e+00 4.502349376678466797e+00 3.636049985885620117e+00
1.128000000000000000e+03 1.411639976501464844e+01 -3.763607263565063477e+00 -1.598901033401489258e+00 -5.460972785949707031e+00 -2.117962121963500977e+00 -3.277577161788940430e+00
1.129000000000000000e+03 1.053757572174072266e+01 -1.567357301712036133e+00 5.727060437202453613e-01 1.395933437347412109e+01 4.359611988067626953e+00 7.975444942712783813e-02
1.130000000000000000e+03 1.460216617584228516e+01 -2.545197248458862305e+00 -3.889566361904144287e-01 -7.025860786437988281e+00 -2.224445104598999023e+00 -2.897169113159179688e+00
1.131000000000000000e+03 1.145514297485351562e+01 9.910141229629516602e-01 5.482490062713623047e+00 9.305341720581054688e+00 4.436349868774414062e+00 3.805565834045410156e+00
1.132000000000000000e+03 1.094251823425292969e+01 -1.417330145835876465e+00 2.034855604171752930e+00 1.250425052642822266e+01 4.361731529235839844e+00 -2.228076219558715820e+00
1.133000000000000000e+03 1.162936687469482422e+01 -3.317227363586425781e-01 8.524592399597167969e+00 6.891637325286865234e+00 4.624868869781494141e+00 -1.546439886093139648e+00
1.134000000000000000e+03 1.205114078521728516e+01 4.904300868511199951e-01 6.870748996734619141e+00 4.648218631744384766e+00 3.455690383911132812e+00 2.400362730026245117e+00
1.135000000000000000e+03 1.160769653320312500e+01 5.519887804985046387e-01 7.958710193634033203e+00 7.418828964233398438e+00 4.613261699676513672e+00 3.052610874176025391e+00
1.136000000000000000e+03 1.482051753997802734e+01 -1.228584170341491699e+00 5.389856100082397461e-01 -8.944095611572265625e+00 -2.521532773971557617e+00 -1.526372432708740234e+00
1.137000000000000000e+03 1.173400020599365234e+01 1.002258211374282837e-01 8.534852981567382812e+00 6.161857128143310547e+00 4.409013271331787109e+00 9.932637810707092285e-01
1.138000000000000000e+03 1.073841094970703125e+01 -1.500099301338195801e+00 1.254730582237243652e+00 1.343927383422851562e+01 4.408201217651367188e+00 -1.280163645744323730e+00
1.139000000000000000e+03 9.932804107666015625e+00 1.705414175987243652e+00 3.875432014465332031e-01 1.208746814727783203e+01 3.742503404617309570e+00 -3.152828454971313477e+00
1.140000000000000000e+03 1.364996242523193359e+01 -2.344114065170288086e+00 1.209565252065658569e-01 -3.668087720870971680e+00 -1.064139366149902344e+00 -3.213315486907958984e+00
1.141000000000000000e+03 4.076993763446807861e-01 -1.749864459037780762e+00 1.051353011280298233e-02 -1.588059067726135254e-01 -4.448771476745605469e-02 -6.679025292396545410e-02
1.142000000000000000e+03 7.401381731033325195e-01 -2.072554826736450195e+00 4.005270451307296753e-02 -1.185218617320060730e-01 -2.354074642062187195e-02 -1.078280359506607056e-01
1.143000000000000000e+03 5.723729133605957031e-01 -1.624091148376464844e+00 -1.339563634246587753e-02 -7.286135107278823853e-02 -2.587709575891494751e-02 -9.547788649797439575e-02
1.144000000000000000e+03 7.788397669792175293e-01 -1.755396008491516113e+00 -4.222167283296585083e-02 -8.848714083433151245e-02 -3.921264410018920898e-02 -9.978672862052917480e-02
1.145000000000000000e+03 5.480970144271850586e-01 -2.667852401733398438e+00 -4.047476127743721008e-02 -2.448358237743377686e-01 -8.559317886829376221e-02 -4.760302603244781494e-02
1.146000000000000000e+03 4.802820384502410889e-01 -4.993931293487548828e+00 -3.522169217467308044e-02 -4.906884431838989258e-01 -1.577730476856231689e-01 -4.262090101838111877e-02
1.147000000000000000e+03 1.280539751052856445e+00 -1.596881508827209473e+00 -2.617087028920650482e-02 -6.257256865501403809e-02 -2.662303112447261810e-02 -1.231370717287063599e-01
1.148000000000000000e+03 2.626007318496704102e+00 -1.933281540870666504e+00 1.366350054740905762e-02 3.537806123495101929e-02 1.471246872097253799e-02 -1.125607118010520935e-01
1.149000000000000000e+03 1.571482896804809570e+00 -2.146693944931030273e+00 -7.095203269273042679e-03 -6.381382048130035400e-02 -2.127270773053169250e-02 -1.477768272161483765e-01
1.150000000000000000e+03 1.897368073463439941e+00 -1.713747262954711914e+00 -1.080501917749643326e-02 -2.116947434842586517e-02 -9.592347778379917145e-03 -1.513827294111251831e-01
1.151000000000000000e+03 2.113709926605224609e+00 -1.666375279426574707e+00 -2.270495146512985229e-02 -5.626163911074399948e-04 -6.980270612984895706e-03 -1.427169740200042725e-01
1.152000000000000000e+03 2.687378883361816406e+00 -1.654519557952880859e+00 -6.787166930735111237e-03 5.739010870456695557e-02 1.518088206648826599e-02 -1.219886690378189087e-01
1.153000000000000000e+03 4.370163381099700928e-01 -6.335716724395751953e+00 2.519356459379196167e-02 -6.741072535514831543e-01 -1.946741193532943726e-01 -6.984370201826095581e-02
1.154000000000000000e+03 3.391183137893676758e+00 -1.831934213638305664e+00 4.720671847462654114e-02 1.146477386355400085e-01 4.855633899569511414e-02 -4.180137440562248230e-02
1.155000000000000000e+03 1.429143548011779785e+00 -5.275625228881835938e+00 9.373862994834780693e-04 -9.125656634569168091e-02 -2.709575369954109192e-02 -1.278828382492065430e-01
1.156000000000000000e+03 1.331196784973144531e+00 -8.940247535705566406e+00 -1.350077986717224121e-01 -6.812444329261779785e-01 -2.448756694793701172e-01 -4.938298761844635010e-01
1.157000000000000000e+03 3.483775377273559570e+00 -1.621762990951538086e+00 3.212139010429382324e-02 1.325322389602661133e-01 4.939608648419380188e-02 -4.544795304536819458e-02
1.158000000000000000e+03 3.861061334609985352e+00 -1.677648067474365234e+00 8.035059273242950439e-02 1.663327664136886597e-01 7.400500774383544922e-02 2.764052525162696838e-02
1.159000000000000000e+03 3.665082454681396484e+00 -1.657826542854309082e+00 5.144602060317993164e-02 1.190172284841537476e-01 5.113897472620010376e-02 2.780011622235178947e-03
1.160000000000000000e+03 4.265960216522216797e+00 -1.703082561492919922e+00 1.579536795616149902e-01 1.980191171169281006e-01 1.067918390035629272e-01 1.159695461392402649e-01
1.161000000000000000e+03 4.697988986968994141e+00 -1.730547070503234863e+00 2.696188390254974365e-01 2.685091793537139893e-01 1.614384055137634277e-01 2.482631951570510864e-01
1.162000000000000000e+03 5.229495048522949219e+00 -1.957337617874145508e+00 4.614329338073730469e-01 4.500268697738647461e-01 2.734379470348358154e-01 5.080340504646301270e-01
1.163000000000000000e+03 5.317123889923095703e+00 -1.627608180046081543e+00 4.225810468196868896e-01 3.229026496410369873e-01 2.236451059579849243e-01 4.446079432964324951e-01
1.164000000000000000e+03 5.127061843872070312e+00 -1.661882638931274414e+00 3.830134868621826172e-01 2.885192334651947021e-01 2.014598101377487183e-01 3.745985627174377441e-01
1.165000000000000000e+03 5.505380630493164062e+00 -1.615757465362548828e+00 5.082771182060241699e-01 3.309291899204254150e-01 2.517618834972381592e-01 5.133290290832519531e-01
1.166000000000000000e+03 5.696639537811279297e+00 -1.627256155014038086e+00 5.754763484001159668e-01 3.590410649776458740e-01 2.803552150726318359e-01 6.024834513664245605e-01
1.167000000000000000e+03 5.895198822021484375e+00 -1.669255733489990234e+00 6.909329295158386230e-01 4.510617852210998535e-01 3.425984084606170654e-01 7.095957994461059570e-01
1.168000000000000000e+03 6.105226993560791016e+00 -1.682288765907287598e+00 7.964786887168884277e-01 5.210754871368408203e-01 3.952662646770477295e-01 8.464552760124206543e-01
1.169000000000000000e+03 6.312555313110351562e+00 -1.652218222618103027e+00 9.264997839927673340e-01 5.764831304550170898e-01 4.508948624134063721e-01 9.500278234481811523e-01
1.170000000000000000e+03 6.509341716766357422e+00 -1.637426018714904785e+00 1.067918300628662109e+00 6.331217885017395020e-01 5.103120207786560059e-01 1.101220488548278809e+00
1.171000000000000000e+03 6.702849864959716797e+00 -1.632875442504882812e+00 1.245105743408203125e+00 6.644116044044494629e-01 5.728551745414733887e-01 1.221514701843261719e+00
1.172000000000000000e+03 7.066314220428466797e+00 -1.662302970886230469e+00 1.513352632522583008e+00 9.843095541000366211e-01 7.492986321449279785e-01 1.629222869873046875e+00
1.173000000000000000e+03 6.889894962310791016e+00 -1.625362515449523926e+00 1.391330599784851074e+00 7.399411797523498535e-01 6.393815279006958008e-01 1.394840240478515625e+00
1.174000000000000000e+03 7.261718750000000000e+00 -1.706471085548400879e+00 1.709560632705688477e+00 1.110777258872985840e+00 8.461014032363891602e-01 1.885856747627258301e+00
1.175000000000000000e+03 7.663685321807861328e+00 -2.054822921752929688e+00 1.739904880523681641e+00 2.158735752105712891e+00 1.169592142105102539e+00 2.717355012893676758e+00
1.176000000000000000e+03 7.685243129730224609e+00 -1.692551016807556152e+00 2.065958976745605469e+00 1.652588009834289551e+00 1.115564107894897461e+00 2.471970558166503906e+00
1.177000000000000000e+03 7.889648437500000000e+00 -1.693531036376953125e+00 2.271857500076293945e+00 1.973764896392822266e+00 1.273686766624450684e+00 2.785231113433837891e+00
1.178000000000000000e+03 8.509902000427246094e+00 -1.705076813697814941e+00 2.629741191864013672e+00 3.659784793853759766e+00 1.886857748031616211e+00 4.048250675201416016e+00
1.179000000000000000e+03 8.752848625183105469e+00 -2.082632064819335938e+00 1.574552416801452637e+00 5.383262634277343750e+00 2.087344646453857422e+00 4.363355636596679688e+00
1.180000000000000000e+03 8.300115585327148438e+00 -2.099141359329223633e+00 1.724785089492797852e+00 3.669115781784057617e+00 1.618170261383056641e+00 3.676815032958984375e+00
1.181000000000000000e+03 8.724924087524414062e+00 -1.703473329544067383e+00 2.608852386474609375e+00 4.517453193664550781e+00 2.137891769409179688e+00 4.416876316070556641e+00
1.182000000000000000e+03 9.517438888549804688e+00 -1.675488591194152832e+00 1.657106995582580566e+00 9.517130851745605469e+00 3.352271318435668945e+00 5.009233951568603516e+00
1.183000000000000000e+03 9.930780410766601562e+00 -1.667523741722106934e+00 6.077884435653686523e-01 1.254388809204101562e+01 3.945502996444702148e+00 3.641640424728393555e+00
1.184000000000000000e+03 9.719829559326171875e+00 1.723012804985046387e+00 8.355442881584167480e-01 1.075167560577392578e+01 3.476166009902954102e+00 -3.995828628540039062e+00
1.185000000000000000e+03 9.496229171752929688e+00 1.733872532844543457e+00 1.313734173774719238e+00 9.123063087463378906e+00 3.131039381027221680e+00 -4.447184085845947266e+00
1.186000000000000000e+03 8.897007942199707031e+00 1.622476100921630859e+00 2.685583353042602539e+00 4.989284515380859375e+00 2.302460432052612305e+00 -4.298453330993652344e+00
1.187000000000000000e+03 8.630405426025390625e+00 1.829651713371276855e+00 2.331757545471191406e+00 4.091339111328125000e+00 1.926928877830505371e+00 -3.758745670318603516e+00
1.188000000000000000e+03 8.514436721801757812e+00 1.630486726760864258e+00 2.765639305114746094e+00 3.202092885971069336e+00 1.790319681167602539e+00 -3.564442396163940430e+00
1.189000000000000000e+03 8.320254325866699219e+00 1.638930082321166992e+00 2.633855581283569336e+00 2.633264064788818359e+00 1.580135941505432129e+00 -3.156955242156982422e+00
1.190000000000000000e+03 8.128771781921386719e+00 1.652079463005065918e+00 2.438030719757080078e+00 2.136035919189453125e+00 1.372219920158386230e+00 -2.721837043762207031e+00
1.191000000000000000e+03 7.508068561553955078e+00 1.687267780303955078e+00 1.865248918533325195e+00 1.160882830619812012e+00 9.078395366668701172e-01 -1.790809512138366699e+00
1.192000000000000000e+03 7.292258739471435547e+00 1.692620992660522461e+00 1.669047117233276367e+00 1.003212928771972656e+00 8.016780018806457520e-01 -1.574754834175109863e+00
1.193000000000000000e+03 6.797846794128417969e+00 1.845925092697143555e+00 1.282140851020812988e+00 7.774806618690490723e-01 6.178864836692810059e-01 -1.237779021263122559e+00
1.194000000000000000e+03 6.708901405334472656e+00 1.626616477966308594e+00 1.167906165122985840e+00 5.607614517211914062e-01 5.186002850532531738e-01 -9.744951725006103516e-01
1.195000000000000000e+03 6.281302452087402344e+00 1.714318037033081055e+00 9.230887293815612793e-01 4.504069089889526367e-01 4.120486974716186523e-01 -7.618170380592346191e-01
1.196000000000000000e+03 6.057890892028808594e+00 1.690959572792053223e+00 8.094719648361206055e-01 4.004304707050323486e-01 3.629707098007202148e-01 -6.485580801963806152e-01
1.197000000000000000e+03 5.699181556701660156e+00 1.605805993080139160e+00 5.856403708457946777e-01 2.636257112026214600e-01 2.547798156738281250e-01 -4.507620036602020264e-01
1.198000000000000000e+03 4.912350654602050781e+00 1.651108860969543457e+00 3.649545907974243164e-01 1.831557303667068481e-01 1.644330918788909912e-01 -2.287607043981552124e-01
1.199000000000000000e+03 1.440006136894226074e+00 7.461634159088134766e+00 -1.041690558195114136e-01 7.165887206792831421e-02 -9.753054939210414886e-03 6.813929975032806396e-02
1.200000000000000000e+03 4.315037250518798828e+00 1.690366148948669434e+00 1.974032968282699585e-01 1.448641866445541382e-01 1.026802435517311096e-01 -1.067398563027381897e-01
1.201000000000000000e+03 3.908648490905761719e+00 1.676085829734802246e+00 1.444881856441497803e-01 1.081275045871734619e-01 7.578470557928085327e-02 -4.642376303672790527e-02
1.202000000000000000e+03 2.674063920974731445e+00 1.643328428268432617e+00 -3.209866350516676903e-03 2.550268732011318207e-02 6.687846500426530838e-03 8.177269995212554932e-02
1.203000000000000000e+03 2.686370849609375000e+00 2.385711669921875000e+00 9.420712292194366455e-02 7.749955356121063232e-02 5.151200294494628906e-02 3.931429237127304077e-02
1.204000000000000000e+03 2.315161705017089844e+00 1.601773858070373535e+00 5.788627080619335175e-03 1.032081246376037598e-02 4.832831677049398422e-03 9.543917328119277954e-02
1.205000000000000000e+03 1.715821623802185059e+00 1.653052210807800293e+00 8.980873040854930878e-03 -2.348919771611690521e-02 -4.352497868239879608e-03 1.048080101609230042e-01
1.206000000000000000e+03 1.457694172859191895e+00 1.875995874404907227e+00 2.836032398045063019e-02 -2.367527969181537628e-02 1.405513263307511806e-03 1.205984279513359070e-01
1.207000000000000000e+03 6.595236659049987793e-01 2.044034242630004883e+00 5.909687280654907227e-02 -1.390885561704635620e-01 -2.399750612676143646e-02 7.975777983665466309e-02
1.208000000000000000e+03 7.332072257995605469e-01 1.656407356262207031e+00 2.133366465568542480e-02 -9.245374053716659546e-02 -2.133602276444435120e-02 5.398833751678466797e-02
1.209000000000000000e+03 2.117754518985748291e-01 1.754747748374938965e+00 -2.735604345798492432e-02 -1.598110198974609375e-01 -5.615011602640151978e-02 -1.656827516853809357e-02
1.210000000000000000e+03 1.033724212646484375e+01 -1.618628382682800293e+00 2.597224712371826172e-01 1.395041751861572266e+01 4.263041973114013672e+00 1.309816241264343262e+00
1.211000000000000000e+03 7.949404239654541016e+00 -1.998098754882812500e+01 -2.823577225208282471e-01 5.189738750457763672e+00 1.472214341163635254e+00 -9.314572215080261230e-01
1.212000000000000000e+03 1.204963779449462891e+01 -1.889879035949707031e+01 8.667339086532592773e-01 2.664131164550781250e+00 1.059259533882141113e+00 1.012345314025878906e+00
1.213000000000000000e+03 7.690970897674560547e+00 1.876378822326660156e+01 2.093576669692993164e+00 9.726647377014160156e+00 3.546067237854003906e+00 1.539597392082214355e+00
1.214000000000000000e+03 5.612123608589172363e-01 1.616698646545410156e+01 -4.682335257530212402e-02 -3.769700288772583008e+00 -1.144957065582275391e+00 1.506558358669281006e-01
1.215000000000000000e+03 9.059015274047851562e+00 1.894298171997070312e+01 3.326150894165039062e+00 3.876995325088500977e+00 2.160943746566772461e+00 3.029040813446044922e+00
1.216000000000000000e+03 6.960864067077636719e+00 -1.574486255645751953e+01 1.553962469100952148e+00 1.469310474395751953e+01 4.874120235443115234e+00 -2.096911072731018066e-01
1.217000000000000000e+03 6.938162446022033691e-01 -2.004373168945312500e+01 -2.228225022554397583e-02 -1.864876508712768555e+00 -5.661476254463195801e-01 4.534804821014404297e-01
1.218000000000000000e+03 1.286042594909667969e+01 1.918749237060546875e+01 8.698319196701049805e-01 2.510946273803710938e+00 1.014233469963073730e+00 -1.533926129341125488e+00
1.219000000000000000e+03 4.027755737304687500e+00 -3.735357666015625000e+01 -2.620155178010463715e-02 2.695457935333251953e+00 8.007768988609313965e-01 1.007865667343139648e-01
1.220000000000000000e+03 2.173663139343261719e+00 -1.579422950744628906e+01 5.861443877220153809e-01 -6.830356717109680176e-01 -2.906738594174385071e-02 2.258754372596740723e-01
1.221000000000000000e+03 2.253188133239746094e+00 -2.856425666809082031e+01 -5.848493054509162903e-02 1.889287948608398438e+00 5.492408871650695801e-01 3.292965590953826904e-01
1.222000000000000000e+03 2.114452362060546875e+00 -3.674847412109375000e+01 -4.094173666089773178e-03 2.437429666519165039e+00 7.300006151199340820e-01 1.064959317445755005e-01
1.223000000000000000e+03 9.562872052192687988e-01 -3.874147033691406250e+01 -7.495326455682516098e-03 2.451070785522460938e+00 7.330726385116577148e-01 4.515173286199569702e-02
1.224000000000000000e+03 3.326159477233886719e+00 -3.897266387939453125e+01 -2.227431163191795349e-02 2.604185581207275391e+00 7.745733857154846191e-01 1.003048345446586609e-01
1.225000000000000000e+03 1.909981727600097656e+00 -3.371550369262695312e+01 -5.455190781503915787e-03 2.275673627853393555e+00 6.810654997825622559e-01 1.394676417112350464e-01
1.226000000000000000e+03 6.390375494956970215e-01 -3.230671691894531250e+01 7.793936878442764282e-03 1.980306029319763184e+00 5.964300036430358887e-01 6.112953275442123413e-02
1.227000000000000000e+03 2.110078573226928711e+00 -2.984048461914062500e+01 -5.386688560247421265e-02 2.009104728698730469e+00 5.865713357925415039e-01 2.660644352436065674e-01
1.228000000000000000e+03 1.924284338951110840e+00 -3.242413711547851562e+01 -3.462746366858482361e-02 2.181065082550048828e+00 6.439312696456909180e-01 1.476029455661773682e-01
1.229000000000000000e+03 3.112169265747070312e+00 -2.196331596374511719e+01 -2.617914080619812012e-01 1.604403376579284668e+00 4.027836024761199951e-01 1.077494144439697266e+00
1.230000000000000000e+03 7.042440176010131836e-01 -2.556963920593261719e+01 -5.992688238620758057e-02 8.613579273223876953e-01 2.404293268918991089e-01 2.104966938495635986e-01
1.231000000000000000e+03 1.895545959472656250e+00 -2.307245445251464844e+01 -1.053254008293151855e-01 7.768557071685791016e-01 2.014590948820114136e-01 7.509797811508178711e-01
1.232000000000000000e+03 2.149047613143920898e+00 -2.582803726196289062e+01 -7.714293152093887329e-02 1.501211762428283691e+00 4.272206723690032959e-01 4.648542106151580811e-01
1.233000000000000000e+03 4.007331848144531250e+00 -1.682265663146972656e+01 1.225935935974121094e+00 2.664012432098388672e+00 1.166984558105468750e+00 7.247125506401062012e-01
1.234000000000000000e+03 2.068769216537475586e+00 -2.025228118896484375e+01 2.526296861469745636e-02 1.614801883697509766e-01 5.602294579148292542e-02 1.165545821189880371e+00
1.235000000000000000e+03 3.894203424453735352e+00 -1.963166236877441406e+01 2.370439842343330383e-02 2.685558080673217773e+00 8.127787113189697266e-01 1.429407954216003418e+00
1.236000000000000000e+03 1.690921068191528320e+00 -1.284672451019287109e+01 2.157508283853530884e-01 -1.338987469673156738e+00 -3.369709849357604980e-01 -7.578478455543518066e-01
1.237000000000000000e+03 5.094785690307617188e-01 -1.167852878570556641e+01 9.209544397890567780e-03 -2.888495206832885742e+00 -8.637857437133789062e-01 -2.728010118007659912e-01
1.238000000000000000e+03 2.295224189758300781e+00 -1.006975555419921875e+01 -2.422200292348861694e-01 1.640060245990753174e-01 -2.346420101821422577e-02 -8.908201456069946289e-01
1.239000000000000000e+03 2.298268795013427734e+00 -1.623901605606079102e+00 -1.504949014633893967e-02 7.749815005809068680e-03 -2.189902588725090027e-03 -1.397586166858673096e-01
1.240000000000000000e+03 4.689628481864929199e-01 -3.672160863876342773e+00 3.234940394759178162e-02 -3.582654893398284912e-01 -9.777482599020004272e-02 -4.854310676455497742e-02
1.241000000000000000e+03 6.976068019866943359e+00 1.446359920501708984e+01 3.316505551338195801e-01 5.758871555328369141e+00 1.827156662940979004e+00 2.842579483985900879e-01
1.242000000000000000e+03 1.386006832122802734e+01 -1.667484092712402344e+01 5.623763799667358398e-01 3.558095455169677734e+00 1.236141562461853027e+00 1.608917355537414551e+00
1.243000000000000000e+03 1.169697761535644531e+01 -1.687719726562500000e+01 6.605483293533325195e-01 1.573466181755065918e+00 6.702043414115905762e-01 9.790219068527221680e-01
1.244000000000000000e+03 1.130519962310791016e+01 1.249336910247802734e+01 5.710815787315368652e-01 1.528867721557617188e+00 6.299847960472106934e-01 -1.026045680046081543e+00
1.245000000000000000e+03 1.207398509979248047e+01 9.742950439453125000e+00 -4.872615635395050049e-01 1.497388720512390137e+00 3.030381500720977783e-01 -1.396627724170684814e-01
1.246000000000000000e+03 2.098966789245605469e+01 -3.954223632812500000e+00 1.376566290855407715e+00 1.123669338226318359e+01 3.783977746963500977e+00 1.371990442276000977e+00
1.247000000000000000e+03 1.488907909393310547e+01 1.594534367322921753e-01 5.373312234878540039e-01 -1.066420269012451172e+01 -3.038061380386352539e+00 -2.215127795934677124e-01
1.248000000000000000e+03 1.379274749755859375e+01 -1.235411524772644043e+00 1.802815914154052734e+00 -4.585665225982666016e+00 -8.348548412322998047e-01 -2.430191755294799805e+00
1.249000000000000000e+03 1.943424415588378906e+01 9.491664886474609375e+00 1.219391107559204102e+00 1.044778442382812500e+01 3.500152587890625000e+00 -1.976783752441406250e+00
1.250000000000000000e+03 1.400547599792480469e+01 1.819575881958007812e+01 9.095320701599121094e-01 3.482593059539794922e+00 1.317637562751770020e+00 -1.755118727684020996e+00
1.251000000000000000e+03 1.406000709533691406e+01 1.638168144226074219e+01 1.894284844398498535e+00 3.169014692306518555e+00 1.518989920616149902e+00 -2.222058296203613281e+00
1.252000000000000000e+03 1.717187881469726562e+01 1.170799160003662109e+01 1.632102251052856445e+00 9.125337600708007812e+00 3.227231979370117188e+00 -3.434851169586181641e+00
1.253000000000000000e+03 1.766082191467285156e+01 1.359437465667724609e+01 1.396085619926452637e+00 7.983991622924804688e+00 2.814023256301879883e+00 -2.495194673538208008e+00
1.254000000000000000e+03 1.899518203735351562e+01 2.107810258865356445e+00 9.011359512805938721e-02 1.266066360473632812e+01 3.825233221054077148e+00 -2.648473978042602539e-01
1.255000000000000000e+03 1.675986099243164062e+01 -1.026070880889892578e+01 1.781403064727783203e+00 6.884693145751953125e+00 2.599828958511352539e+00 3.386313676834106445e+00
1.256000000000000000e+03 9.198590278625488281e+00 -2.069508361816406250e+01 7.464030385017395020e-01 3.895479917526245117e+00 1.392564892768859863e+00 -1.078080534934997559e+00
1.257000000000000000e+03 1.294078159332275391e+01 -1.778722381591796875e+01 3.815679252147674561e-01 2.959832191467285156e+00 1.002420067787170410e+00 1.412491559982299805e+00
1.258000000000000000e+03 1.498162078857421875e+01 2.846389770507812500e+00 6.504642963409423828e-02 -7.283644199371337891e+00 -2.165579319000244141e+00 1.124851942062377930e+00
1.259000000000000000e+03 1.490079021453857422e+01 4.162660598754882812e+00 -1.965091526508331299e-01 -4.655125617980957031e+00 -1.455490350723266602e+00 1.132266521453857422e+00
1.260000000000000000e+03 1.064550495147705078e+01 1.166443729400634766e+01 -1.453650742769241333e-01 2.525084495544433594e+00 7.139158248901367188e-01 -9.618492722511291504e-01
1.261000000000000000e+03 1.352673816680908203e+01 -4.958790302276611328e+00 -1.663793444633483887e+00 -3.300724983215332031e+00 -1.489355564117431641e+00 -2.699245929718017578e+00
1.262000000000000000e+03 1.209726238250732422e+01 -7.225306034088134766e+00 -1.047016382217407227e+00 1.251117698848247528e-02 -3.103515803813934326e-01 -7.461705207824707031e-01
1.263000000000000000e+03 1.603523826599121094e+01 -1.142611694335937500e+01 1.686563968658447266e+00 5.931159496307373047e+00 2.285316944122314453e+00 3.076533794403076172e+00
1.264000000000000000e+03 1.802108573913574219e+01 -1.104461765289306641e+01 1.043434381484985352e+00 7.958118438720703125e+00 2.700465917587280273e+00 2.567843914031982422e+00
1.265000000000000000e+03 2.000259780883789062e+01 6.570352554321289062e+00 7.360046505928039551e-01 1.155809497833251953e+01 3.688229799270629883e+00 -1.341816782951354980e+00
1.266000000000000000e+03 1.725180244445800781e+01 -1.215172672271728516e+01 1.100801587104797363e+00 6.712581157684326172e+00 2.344014883041381836e+00 2.496283292770385742e+00
1.267000000000000000e+03 1.648732948303222656e+01 -1.330136203765869141e+01 1.001880407333374023e+00 5.827320575714111328e+00 2.048760175704956055e+00 2.247351646423339844e+00
1.268000000000000000e+03 1.834996223449707031e+01 1.228952217102050781e+01 1.099058747291564941e+00 9.103165626525878906e+00 3.060667276382446289e+00 -2.352799654006958008e+00
1.269000000000000000e+03 2.008780288696289062e+01 -7.701891422271728516e+00 1.473980903625488281e+00 1.053688144683837891e+01 3.603258848190307617e+00 1.203518629074096680e+00
1.270000000000000000e+03 1.566065406799316406e+01 -1.444673156738281250e+01 8.938537836074829102e-01 5.068398475646972656e+00 1.788675785064697266e+00 2.025058031082153320e+00
1.271000000000000000e+03 1.505010700225830078e+01 1.714892387390136719e+01 8.807014226913452148e-01 4.656972408294677734e+00 1.661302208900451660e+00 -2.176197528839111328e+00
1.272000000000000000e+03 1.265799808502197266e+01 8.694917678833007812e+00 -5.678983330726623535e-01 1.065719723701477051e+00 1.493464112281799316e-01 2.890710532665252686e-01
1.273000000000000000e+03 1.345542812347412109e+01 9.196763038635253906e+00 -2.364179939031600952e-01 3.275712728500366211e-01 2.734598331153392792e-02 8.484341949224472046e-02
1.274000000000000000e+03 1.143961334228515625e+01 -9.267120361328125000e-01 5.685179233551025391e+00 9.347266197204589844e+00 4.509733676910400391e+00 -3.513287067413330078e+00
1.275000000000000000e+03 1.039490985870361328e+01 1.346645355224609375e+01 1.037792563438415527e+00 2.398040056228637695e+00 1.030749797821044922e+00 -1.549388170242309570e+00
1.276000000000000000e+03 8.922815322875976562e+00 -9.942480087280273438e+00 1.432447135448455811e-02 4.398078441619873047e+00 1.323720812797546387e+00 1.329098939895629883e+00
1.277000000000000000e+03 1.047199153900146484e+01 -7.721028327941894531e+00 -1.279841899871826172e+00 2.794912099838256836e+00 4.545210599899291992e-01 2.431075274944305420e-01
1.278000000000000000e+03 9.650823593139648438e+00 -8.815093040466308594e+00 -6.976673603057861328e-01 3.361307859420776367e+00 7.990921139717102051e-01 8.991549611091613770e-01
1.279000000000000000e+03 2.041346359252929688e+01 -3.128583133220672607e-01 3.250130712985992432e-01 1.210120487213134766e+01 3.727865457534790039e+00 2.073024213314056396e-01
1.280000000000000000e+03 2.013843727111816406e+01 5.121502399444580078e+00 8.456399440765380859e-01 1.177161598205566406e+01 3.785176753997802734e+00 -1.005706667900085449e+00
1.281000000000000000e+03 1.168577194213867188e+01 -1.287902891635894775e-01 8.451462745666503906e+00 6.361642837524414062e+00 4.443932056427001953e+00 -3.425583541393280029e-01
1.282000000000000000e+03 2.027228927612304688e+01 2.322397470474243164e+00 5.221098065376281738e-01 1.202790164947509766e+01 3.765003442764282227e+00 -4.908979833126068115e-01
1.283000000000000000e+03 2.195687675476074219e+01 -2.319798469543457031e+00 1.029927849769592285e+00 1.099189853668212891e+01 3.606547832489013672e+00 7.717851996421813965e-01
1.284000000000000000e+03 8.175477027893066406e+00 -1.097998523712158203e+01 2.922986745834350586e-01 5.311782836914062500e+00 1.681224465370178223e+00 1.791714191436767578e+00
1.285000000000000000e+03 7.937510013580322266e+00 1.397717285156250000e+01 -5.625469088554382324e-01 6.413403987884521484e+00 1.755257010459899902e+00 -6.272336244583129883e-01
1.286000000000000000e+03 1.130786228179931641e+01 -6.704860210418701172e+00 -1.919614791870117188e+00 1.876784682273864746e+00 -1.284901890903711319e-02 -4.553699791431427002e-01
1.287000000000000000e+03 2.047405815124511719e+01 -1.595638275146484375e+00 2.366758584976196289e-01 1.221362590789794922e+01 3.735090494155883789e+00 4.129951000213623047e-01
1.288000000000000000e+03 1.907377243041992188e+01 -1.960897922515869141e+00 2.015394866466522217e-01 1.262176036834716797e+01 3.846990108489990234e+00 2.414295375347137451e-01
1.289000000000000000e+03 7.791577911376953125e+01 3.224097442626953125e+01 -4.035452846437692642e-03 7.899291515350341797e+00 2.368576765060424805e+00 2.998753823339939117e-02
1.290000000000000000e+03 7.927472686767578125e+01 3.617862319946289062e+01 -2.358543715672567487e-04 7.965960025787353516e+00 2.389717340469360352e+00 5.441648885607719421e-03
1.291000000000000000e+03 7.933291625976562500e+01 -2.782107925415039062e+01 8.597446721978485584e-04 7.977977752685546875e+00 2.393651247024536133e+00 -1.654429361224174500e-02
1.292000000000000000e+03 7.717478179931640625e+01 -3.778939819335937500e+01 -9.896008297801017761e-03 8.075907707214355469e+00 2.419803619384765625e+00 -1.564228907227516174e-02
1.293000000000000000e+03 7.932081604003906250e+01 -3.472462463378906250e+01 -3.147520124912261963e-03 8.096650123596191406e+00 2.428050994873046875e+00 -7.154979277402162552e-03
1.294000000000000000e+03 7.935851287841796875e+01 -2.086677551269531250e+01 -1.270901411771774292e-03 7.799448966979980469e+00 2.339453458786010742e+00 -1.832773722708225250e-02
1.295000000000000000e+03 7.802613830566406250e+01 -2.633273887634277344e+01 -2.380997466389089823e-04 7.921869754791259766e+00 2.376489639282226562e+00 -4.797552898526191711e-02
1.296000000000000000e+03 7.930266571044921875e+01 -3.059832191467285156e+01 -1.679285633144900203e-04 8.037039756774902344e+00 2.411061525344848633e+00 -1.399408373981714249e-02
1.297000000000000000e+03 7.792251586914062500e+01 -3.456009292602539062e+01 -3.936841618269681931e-03 8.061964035034179688e+00 2.417408227920532227e+00 -2.435268834233283997e-02
1.298000000000000000e+03 7.782174682617187500e+01 -3.320981597900390625e+01 -6.157229654490947723e-03 8.043719291687011719e+00 2.411268711090087891e+00 -2.916715294122695923e-02
1.299000000000000000e+03 7.472067260742187500e+01 -3.727145767211914062e+01 -2.287380211055278778e-02 8.018192291259765625e+00 2.398595571517944336e+00 -4.668193310499191284e-02
1.300000000000000000e+03 7.620118713378906250e+01 -3.889472961425781250e+01 -1.140355039387941360e-02 8.071769714355468750e+00 2.418109893798828125e+00 -2.212197706103324890e-02
1.301000000000000000e+03 7.804753112792968750e+01 1.403929805755615234e+01 1.117755193263292313e-03 7.556441307067871094e+00 2.267267704010009766e+00 3.682405874133110046e-02
1.302000000000000000e+03 7.934654998779296875e+01 1.536832237243652344e+01 -6.676087505184113979e-04 7.560730457305908203e+00 2.268018722534179688e+00 1.424212288111448288e-02
1.303000000000000000e+03 7.797634124755859375e+01 2.100554084777832031e+01 1.149945775978267193e-03 7.691615104675292969e+00 2.307829380035400391e+00 4.574160650372505188e-02
1.304000000000000000e+03 7.932271575927734375e+01 2.233565139770507812e+01 7.702714647166430950e-04 7.717833518981933594e+00 2.315581083297729492e+00 1.641715690493583679e-02
1.305000000000000000e+03 7.789547729492187500e+01 3.083766174316406250e+01 -5.056326277554035187e-03 7.877094745635986328e+00 2.361611604690551758e+00 3.560674190521240234e-02
1.306000000000000000e+03 7.789420318603515625e+01 2.800307273864746094e+01 -2.984518418088555336e-03 7.829304695129394531e+00 2.347896099090576172e+00 4.274342209100723267e-02
1.307000000000000000e+03 7.930200958251953125e+01 2.791462326049804688e+01 6.344485882436856627e-05 7.842359542846679688e+00 2.352726936340332031e+00 1.514113321900367737e-02
1.308000000000000000e+03 7.790824127197265625e+01 2.519618606567382812e+01 -1.631937921047210693e-03 7.776378631591796875e+00 2.332424163818359375e+00 4.596085846424102783e-02
1.309000000000000000e+03 7.792672729492187500e+01 2.379636192321777344e+01 8.207843347918242216e-05 7.748803615570068359e+00 2.324665784835815430e+00 4.608882218599319458e-02
1.310000000000000000e+03 7.800962829589843750e+01 1.821577835083007812e+01 2.284290036186575890e-03 7.634593009948730469e+00 2.291063070297241211e+00 4.346434026956558228e-02
1.311000000000000000e+03 7.802363586425781250e+01 1.682086563110351562e+01 4.784012271557003260e-04 7.607242584228515625e+00 2.282316207885742188e+00 4.213722795248031616e-02
1.312000000000000000e+03 7.805513000488281250e+01 1.264241790771484375e+01 3.659010631963610649e-03 7.533359050750732422e+00 2.261105537414550781e+00 3.342020884156227112e-02
1.313000000000000000e+03 7.675486755371093750e+01 1.127378082275390625e+01 8.182756602764129639e-03 7.536779403686523438e+00 2.263488769531250000e+00 4.737650230526924133e-02
1.314000000000000000e+03 7.807886505126953125e+01 8.472894668579101562e+00 2.194039756432175636e-03 7.477909564971923828e+00 2.244030952453613281e+00 2.242561802268028259e-02
1.315000000000000000e+03 7.935827636718750000e+01 9.794318199157714844e+00 -3.033205575775355101e-04 7.463160991668701172e+00 2.238857269287109375e+00 9.436418302357196808e-03
1.316000000000000000e+03 7.935795593261718750e+01 -1.947469711303710938e+01 1.174394157715141773e-03 7.761979103088378906e+00 2.328946113586425781e+00 -1.859814487397670746e-02
1.317000000000000000e+03 7.934779357910156250e+01 -1.390050029754638672e+01 1.189698581583797932e-03 7.618011951446533203e+00 2.285760402679443359e+00 -1.694936864078044891e-02
1.318000000000000000e+03 7.935308074951171875e+01 -6.927492141723632812e+00 -2.165884798159822822e-04 7.475447654724121094e+00 2.242569446563720703e+00 -1.091160718351602554e-02
1.319000000000000000e+03 7.805075073242187500e+01 1.263422966003417969e-01 3.135893959552049637e-03 7.444587707519531250e+00 2.234317064285278320e+00 -5.881065037101507187e-03
1.320000000000000000e+03 7.935384368896484375e+01 1.437540769577026367e+00 -1.037272377288900316e-04 7.404655456542968750e+00 2.221365451812744141e+00 -4.077436751686036587e-04
1.321000000000000000e+03 7.678917694091796875e+01 7.128561019897460938e+00 7.539816200733184814e-03 7.493952751159667969e+00 2.250447750091552734e+00 2.875450626015663147e-02
1.322000000000000000e+03 7.789497375488281250e+01 2.941862678527832031e+01 -2.421556739136576653e-03 7.853951454162597656e+00 2.355458974838256836e+00 3.891043737530708313e-02
1.323000000000000000e+03 7.724566650390625000e+01 3.720773696899414062e+01 -5.725902505218982697e-03 7.944624900817871094e+00 2.381669759750366211e+00 1.956066489219665527e-02
1.324000000000000000e+03 7.696063995361328125e+01 3.516533279418945312e+01 -7.516826968640089035e-03 7.920882701873779297e+00 2.374009847640991211e+00 2.887983620166778564e-02
1.325000000000000000e+03 7.807184600830078125e+01 9.860979080200195312e+00 4.074366297572851181e-03 7.493968009948730469e+00 2.249412775039672852e+00 2.618675678968429565e-02
1.326000000000000000e+03 7.671589660644531250e+01 1.788964271545410156e-01 1.142687071114778519e-02 7.476943492889404297e+00 2.246511220932006836e+00 -9.449699893593788147e-03
1.327000000000000000e+03 7.805930328369140625e+01 2.908933639526367188e+00 2.989545231685042381e-03 7.443131923675537109e+00 2.233836412429809570e+00 4.174909088760614395e-03
1.328000000000000000e+03 7.673568725585937500e+01 -1.217073082923889160e+00 9.453450329601764679e-03 7.481534004211425781e+00 2.247296333312988281e+00 -1.717911660671234131e-02
1.329000000000000000e+03 7.935353088378906250e+01 -2.744090318679809570e+00 1.751248724758625031e-03 7.423786640167236328e+00 2.227661371231079102e+00 -6.095082033425569534e-03
1.330000000000000000e+03 7.806453704833984375e+01 -5.458880424499511719e+00 2.528650453314185143e-03 7.486588001251220703e+00 2.246734857559204102e+00 -2.560520544648170471e-02
1.331000000000000000e+03 7.934757995605468750e+01 -9.716923713684082031e+00 -2.646458160597831011e-04 7.525382518768310547e+00 2.257535457611083984e+00 -1.379755139350891113e-02
1.332000000000000000e+03 7.804161071777343750e+01 -1.383991527557373047e+01 8.863959228619933128e-04 7.632077217102050781e+00 2.289889097213745117e+00 -4.644902423024177551e-02
1.333000000000000000e+03 7.803713226318359375e+01 -1.244443893432617188e+01 2.943839645013213158e-03 7.602929115295410156e+00 2.281761884689331055e+00 -4.440193995833396912e-02
1.334000000000000000e+03 7.935329437255859375e+01 -1.668781280517578125e+01 1.153574557974934578e-03 7.688079357147216797e+00 2.306769847869873047e+00 -1.811268553137779236e-02
1.335000000000000000e+03 7.806998443603515625e+01 -2.080198860168457031e+01 9.881253354251384735e-04 7.793983459472656250e+00 2.338491439819335938e+00 -5.144178867340087891e-02
1.336000000000000000e+03 7.807003784179687500e+01 -1.941342163085937500e+01 -8.088510367088019848e-04 7.760599136352539062e+00 2.327937126159667969e+00 -5.093934759497642517e-02
1.337000000000000000e+03 7.795696258544921875e-01 3.737178802490234375e+01 1.557955890893936157e-02 1.955332279205322266e+00 5.912735462188720703e-01 -6.626408547163009644e-02
1.338000000000000000e+03 7.012188434600830078e-01 3.463533782958984375e+01 -4.165483638644218445e-03 1.712320685386657715e+00 5.124465227127075195e-01 -6.899285316467285156e-02
1.339000000000000000e+03 6.844834089279174805e-01 3.325046539306640625e+01 1.440788037143647671e-03 1.566741228103637695e+00 4.704546034336090088e-01 -7.304867357015609741e-02
1.340000000000000000e+03 6.983731389045715332e-01 2.764023971557617188e+01 -9.991372004151344299e-03 6.161037683486938477e-01 1.818337142467498779e-01 -1.780282407999038696e-01
1.341000000000000000e+03 7.183890938758850098e-01 2.621866989135742188e+01 -5.839112773537635803e-02 1.958175152540206909e-01 4.122791439294815063e-02 -2.440458089113235474e-01
1.342000000000000000e+03 3.611159324645996094e+00 2.626343154907226562e+01 -2.431414127349853516e-01 1.775029301643371582e+00 4.595663845539093018e-01 -7.424758672714233398e-01
1.343000000000000000e+03 3.616865396499633789e+00 2.471366882324218750e+01 -3.883765339851379395e-01 1.694988369941711426e+00 3.919835388660430908e-01 -9.464893937110900879e-01
1.344000000000000000e+03 2.122947454452514648e+00 3.445498657226562500e+01 -1.915398985147476196e-02 1.928949832916259766e+00 5.729387402534484863e-01 -1.758681684732437134e-01
1.345000000000000000e+03 2.063302516937255859e+00 3.312391281127929688e+01 -2.750657685101032257e-02 1.832925319671630859e+00 5.416256189346313477e-01 -2.064674645662307739e-01
1.346000000000000000e+03 2.584560871124267578e+00 3.801409530639648438e+01 2.038008242379873991e-04 2.218111038208007812e+00 6.654944419860839844e-01 -1.604018062353134155e-01
1.347000000000000000e+03 3.545696258544921875e+00 3.897917175292968750e+01 -4.050087183713912964e-02 2.297621965408325195e+00 6.771363019943237305e-01 -1.253155618906021118e-01
1.348000000000000000e+03 6.250665783882141113e-01 2.038685035705566406e+01 1.259779930114746094e-01 -2.684897661209106445e+00 -7.676758766174316406e-01 -3.713155388832092285e-01
1.349000000000000000e+03 5.879855155944824219e-01 1.897527885437011719e+01 -3.812182322144508362e-02 -3.401139974594116211e+00 -1.031778573989868164e+00 -2.108206152915954590e-01
1.350000000000000000e+03 5.570377707481384277e-01 1.476085186004638672e+01 1.387366950511932373e-01 -3.294414043426513672e+00 -9.467031955718994141e-01 2.033033370971679688e-01
1.351000000000000000e+03 5.501623153686523438e-01 1.335954284667968750e+01 -7.108536362648010254e-02 -2.583537817001342773e+00 -7.963869571685791016e-01 3.500476181507110596e-01
1.352000000000000000e+03 4.723326265811920166e-01 7.736276626586914062e+00 7.970365695655345917e-03 -3.349613547325134277e-01 -9.809730201959609985e-02 3.948048502206802368e-02
1.353000000000000000e+03 4.145877361297607422e-01 6.337079524993896484e+00 -4.358829930424690247e-02 -2.613766789436340332e-01 -9.148948639631271362e-02 -3.700790693983435631e-03
1.354000000000000000e+03 3.212547600269317627e-01 4.957952022552490234e+00 5.111260339617729187e-02 -2.815829515457153320e-01 -6.914110481739044189e-02 -1.288481801748275757e-02
1.355000000000000000e+03 1.528469562530517578e+00 1.028804397583007812e+01 -1.652247905731201172e-01 -2.084662765264511108e-01 -1.121073216199874878e-01 4.798528552055358887e-01
1.356000000000000000e+03 5.116921663284301758e-01 1.055636692047119141e+01 -4.280173778533935547e-02 -1.073077201843261719e+00 -3.347636759281158447e-01 2.239524722099304199e-01
1.357000000000000000e+03 1.661987423896789551e+00 1.304698848724365234e+01 9.802314452826976776e-03 -9.220983386039733887e-01 -2.736888229846954346e-01 7.778884768486022949e-01
1.358000000000000000e+03 1.666522026062011719e+00 1.444188404083251953e+01 1.087940111756324768e-01 -1.365893244743347168e+00 -3.771297633647918701e-01 7.932659387588500977e-01
1.359000000000000000e+03 1.673122286796569824e+00 1.583707809448242188e+01 3.663077652454376221e-01 -1.705626964569091797e+00 -4.017957448959350586e-01 3.554503321647644043e-01
1.360000000000000000e+03 2.179128885269165039e+00 2.469560813903808594e+01 -1.484456062316894531e-01 7.094925045967102051e-01 1.683140695095062256e-01 -7.660567164421081543e-01
1.361000000000000000e+03 8.555628061294555664e-01 1.935518980026245117e+00 -9.679459035396575928e-03 -1.336779445409774780e-01 -4.300721734762191772e-02 7.136881351470947266e-02
1.362000000000000000e+03 2.728651285171508789e+00 -1.252308750152587891e+01 1.086370274424552917e-01 4.681888222694396973e-01 1.730477511882781982e-01 -1.032251000404357910e+00
1.363000000000000000e+03 9.312585830688476562e+00 -1.668927669525146484e+00 2.079354047775268555e+00 8.038154602050781250e+00 3.035252571105957031e+00 5.238429069519042969e+00
1.364000000000000000e+03 7.252097725868225098e-01 -1.586503505706787109e+00 -1.362515520304441452e-02 -8.942254632711410522e-02 -3.091431036591529846e-02 -8.527945727109909058e-02
1.365000000000000000e+03 4.715761661529541016e+00 1.663277626037597656e+00 2.892364263534545898e-01 1.772111654281616211e-01 1.399342864751815796e-01 -1.899334639310836792e-01
1.366000000000000000e+03 3.560599565505981445e+00 -1.989878416061401367e+00 9.954812377691268921e-02 2.137043923139572144e-01 9.397575259208679199e-02 1.578917726874351501e-02
1.367000000000000000e+03 4.063253879547119141e+00 -1.689297676086425781e+00 1.006874665617942810e-01 1.811756491661071777e-01 8.455893397331237793e-02 9.420400857925415039e-02
1.368000000000000000e+03 4.475214481353759766e+00 -1.710979700088500977e+00 1.914558112621307373e-01 2.193924337625503540e-01 1.232544779777526855e-01 1.805860996246337891e-01
1.369000000000000000e+03 4.921782493591308594e+00 -1.715630412101745605e+00 3.293672204017639160e-01 2.990735769271850586e-01 1.885322481393814087e-01 3.220615983009338379e-01
1.370000000000000000e+03 7.459368228912353516e+00 -2.102341413497924805e+00 1.510878801345825195e+00 1.940055727958679199e+00 1.035280346870422363e+00 2.449639558792114258e+00
1.371000000000000000e+03 8.094948768615722656e+00 -1.697362422943115234e+00 2.493889570236206055e+00 2.368818998336791992e+00 1.458812594413757324e+00 3.201781034469604492e+00
1.372000000000000000e+03 8.302373886108398438e+00 -1.702383518218994141e+00 2.597342014312744141e+00 2.980166912078857422e+00 1.673252701759338379e+00 3.593106269836425781e+00
1.373000000000000000e+03 1.116151523590087891e+01 -5.230429172515869141e+00 -2.738442659378051758e+00 3.405788660049438477e+00 2.002038061618804932e-01 -7.087917923927307129e-01
1.374000000000000000e+03 1.013566684722900391e+01 -1.651268720626831055e+00 3.291159570217132568e-01 1.342138385772705078e+01 4.125149726867675781e+00 2.642096281051635742e+00
1.375000000000000000e+03 1.014044475555419922e+01 1.685137510299682617e+00 1.809561848640441895e-01 1.314315032958984375e+01 3.997231721878051758e+00 -2.088316679000854492e+00
1.376000000000000000e+03 9.079867362976074219e+00 1.624617695808410645e+00 2.428920984268188477e+00 6.126301288604736328e+00 2.566566705703735352e+00 -4.589529514312744141e+00
1.377000000000000000e+03 8.704868316650390625e+00 1.623980045318603516e+00 2.733766078948974609e+00 4.105291366577148438e+00 2.051717281341552734e+00 -4.010799884796142578e+00
1.378000000000000000e+03 8.270481109619140625e+00 1.873084068298339844e+00 2.267025232315063477e+00 2.910284996032714844e+00 1.553193092346191406e+00 -3.154700279235839844e+00
1.379000000000000000e+03 7.929272651672363281e+00 1.673104763031005859e+00 2.235961198806762695e+00 1.762883067131042480e+00 1.199653267860412598e+00 -2.414554357528686523e+00
1.380000000000000000e+03 7.716568946838378906e+00 1.663725376129150391e+00 2.101207256317138672e+00 1.433901667594909668e+00 1.060532689094543457e+00 -2.096334218978881836e+00
1.381000000000000000e+03 6.997748374938964844e+00 1.973266124725341797e+00 1.434129357337951660e+00 9.974512457847595215e-01 7.294741868972778320e-01 -1.473234295845031738e+00
1.382000000000000000e+03 6.510270595550537109e+00 1.671555399894714355e+00 1.063216209411621094e+00 5.016987919807434082e-01 4.694745242595672607e-01 -8.757847547531127930e-01
1.383000000000000000e+03 5.750408649444580078e+00 1.798194169998168945e+00 6.804011464118957520e-01 3.313374519348144531e-01 3.035215735435485840e-01 -5.279257297515869141e-01
1.384000000000000000e+03 5.872379779815673828e+00 1.619155645370483398e+00 6.566578149795532227e-01 2.995615303516387939e-01 2.868658006191253662e-01 -5.177985429763793945e-01
1.385000000000000000e+03 5.509407043457031250e+00 1.628552436828613281e+00 5.073961615562438965e-01 2.375388592481613159e-01 2.234805226325988770e-01 -3.730247020721435547e-01
1.386000000000000000e+03 5.110794067382812500e+00 1.647251248359680176e+00 3.881395161151885986e-01 2.078671306371688843e-01 1.788019835948944092e-01 -2.782038748264312744e-01
1.387000000000000000e+03 4.110434055328369141e+00 1.692082643508911133e+00 1.887680888175964355e-01 1.248711198568344116e-01 9.409175813198089600e-02 -6.071505323052406311e-02
1.388000000000000000e+03 3.706821918487548828e+00 1.668626308441162109e+00 1.184149533510208130e-01 1.070062369108200073e-01 6.762635707855224609e-02 -6.766861304640769958e-03
1.389000000000000000e+03 3.501481771469116211e+00 1.686195254325866699e+00 8.842256665229797363e-02 8.057790249586105347e-02 5.070014297962188721e-02 1.337923388928174973e-02
1.390000000000000000e+03 3.720290184020996094e+00 1.957537293434143066e+00 1.645585596561431885e-01 1.180337667465209961e-01 8.477769792079925537e-02 -4.466210678219795227e-02
1.391000000000000000e+03 3.283311128616333008e+00 1.715255856513977051e+00 8.355194330215454102e-02 7.500001043081283569e-02 4.756558686494827271e-02 3.797738999128341675e-02
1.392000000000000000e+03 2.919334173202514648e+00 1.935879468917846680e+00 8.568982779979705811e-02 6.567345559597015381e-02 4.540898650884628296e-02 7.144413888454437256e-02
1.393000000000000000e+03 1.390525102615356445e+00 2.646665096282958984e+00 2.793720550835132599e-02 -5.982158333063125610e-02 -9.565313346683979034e-03 5.580743029713630676e-02
1.394000000000000000e+03 1.842526078224182129e+00 1.906884193420410156e+00 4.285931959748268127e-02 -9.719535708427429199e-03 9.941935539245605469e-03 1.178042516112327576e-01
1.395000000000000000e+03 1.034023094177246094e+01 1.648089170455932617e+00 6.613849103450775146e-02 1.359812068939208984e+01 4.099277973175048828e+00 -9.385278224945068359e-01
1.396000000000000000e+03 1.063938713073730469e+01 -1.866154670715332031e+00 -1.438566893339157104e-01 1.214841747283935547e+01 3.601368188858032227e+00 -1.784624010324478149e-01
1.397000000000000000e+03 1.239433479309082031e+01 3.294123113155364990e-01 5.752192020416259766e+00 2.672360897064208984e+00 2.527365922927856445e+00 1.464074730873107910e+00
1.398000000000000000e+03 1.224685287475585938e+01 -1.039140462875366211e+00 4.267575263977050781e+00 3.525205135345458984e+00 2.337834119796752930e+00 -2.949749231338500977e+00
1.399000000000000000e+03 1.385294437408447266e+01 5.306872367858886719e+00 -6.370240449905395508e-01 -1.074346303939819336e+00 -5.134111046791076660e-01 1.711309790611267090e+00
1.400000000000000000e+03 1.187390041351318359e+01 1.320841431617736816e+00 3.266118764877319336e+00 6.372207164764404297e+00 2.891497850418090820e+00 3.556603193283081055e+00
1.401000000000000000e+03 1.191781520843505859e+01 6.726586222648620605e-01 6.997353553771972656e+00 5.831964969635009766e+00 3.848795652389526367e+00 3.068437099456787109e+00
1.402000000000000000e+03 1.234471797943115234e+01 -1.399572491645812988e+00 2.990495681762695312e+00 3.041175365447998047e+00 1.809501290321350098e+00 -3.229053974151611328e+00
1.403000000000000000e+03 1.410250282287597656e+01 2.944169282913208008e+00 -1.213845685124397278e-01 -3.693896055221557617e+00 -1.144584178924560547e+00 2.569896459579467773e+00
1.404000000000000000e+03 1.259341049194335938e+01 -2.695831954479217529e-01 4.682663440704345703e+00 8.945702314376831055e-01 1.673170208930969238e+00 -9.339354038238525391e-01
1.405000000000000000e+03 1.290553951263427734e+01 1.118565797805786133e-01 3.876614093780517578e+00 -4.169582426548004150e-01 1.037896752357482910e+00 2.101214975118637085e-01
1.406000000000000000e+03 1.209150505065917969e+01 -5.883750915527343750e-01 6.029445171356201172e+00 4.442607402801513672e+00 3.141615867614746094e+00 -2.204124927520751953e+00
1.407000000000000000e+03 1.111026000976562500e+01 -1.775812029838562012e+00 9.421063065528869629e-01 1.052857303619384766e+01 3.441203832626342773e+00 -2.203440904617309570e+00
1.408000000000000000e+03 1.140673828125000000e+01 -1.731497883796691895e+00 1.534729361534118652e+00 8.884695053100585938e+00 3.125827312469482422e+00 -2.916195631027221680e+00
1.409000000000000000e+03 1.276894950866699219e+01 1.390164256095886230e+00 2.409678697586059570e+00 1.426002025604248047e+00 1.150704264640808105e+00 3.000276803970336914e+00
1.410000000000000000e+03 1.403481006622314453e+01 4.127592563629150391e+00 -3.851727545261383057e-01 -2.341782093048095703e+00 -8.180864453315734863e-01 2.198271274566650391e+00
1.411000000000000000e+03 1.069025516510009766e+00 2.271345853805541992e+00 2.719783596694469452e-02 -6.528290361166000366e-02 -1.142552029341459274e-02 9.720759093761444092e-02
1.412000000000000000e+03 2.122176933288574219e+01 8.465613365173339844e+00 1.120684266090393066e+00 1.020579528808593750e+01 3.397943973541259766e+00 -1.162556648254394531e+00
1.413000000000000000e+03 1.675156712532043457e+00 -2.596518993377685547e+00 3.625939041376113892e-02 -1.923036389052867889e-02 5.108708050101995468e-03 -1.431300342082977295e-01
1.414000000000000000e+03 1.895132064819335938e+01 1.091679954528808594e+01 1.324276566505432129e+00 9.861139297485351562e+00 3.355624675750732422e+00 -2.038490533828735352e+00
1.415000000000000000e+03 2.140900039672851562e+01 6.888533115386962891e+00 1.097139000892639160e+00 1.065540981292724609e+01 3.525764465332031250e+00 -1.002574443817138672e+00
1.416000000000000000e+03 1.003449630737304688e+01 1.089691829681396484e+01 -5.954654216766357422e-01 2.834796428680419922e+00 6.717993021011352539e-01 -7.006353139877319336e-01
1.417000000000000000e+03 8.380378723144531250e+00 1.231519794464111328e+01 -9.085839986801147461e-01 4.509335517883300781e+00 1.080225348472595215e+00 -4.984575510025024414e-01
1.418000000000000000e+03 1.260503482818603516e+01 -4.528150558471679688e+00 -2.334830045700073242e+00 4.045965671539306641e-01 -5.790700316429138184e-01 -2.389572858810424805e+00
1.419000000000000000e+03 1.319577884674072266e+01 -3.412452220916748047e+00 -1.260985136032104492e+00 -1.094038248062133789e+00 -7.065070271492004395e-01 -3.066451072692871094e+00
1.420000000000000000e+03 1.347838020324707031e+01 -3.435904979705810547e-01 2.689114809036254883e+00 -3.358297824859619141e+00 -2.007549107074737549e-01 -1.026453375816345215e+00
1.421000000000000000e+03 1.191728496551513672e+01 -4.284824430942535400e-01 6.952728748321533203e+00 5.182781219482421875e+00 3.640652894973754883e+00 -1.717751860618591309e+00
1.422000000000000000e+03 8.875455856323242188e+00 1.332863426208496094e+01 1.399256885051727295e-01 4.999379634857177734e+00 1.541791677474975586e+00 -2.023698568344116211e+00
1.423000000000000000e+03 2.784111022949218750e+00 1.277309608459472656e+01 -1.095811873674392700e-01 5.688676238059997559e-01 1.377859264612197876e-01 1.218137145042419434e+00
1.424000000000000000e+03 3.951282739639282227e+00 2.165252494812011719e+01 -1.106512546539306641e-01 1.925449728965759277e+00 5.444395542144775391e-01 -1.377810716629028320e+00
1.425000000000000000e+03 9.524938583374023438e+00 8.977939605712890625e+00 -1.450503706932067871e+00 3.463926553726196289e+00 6.040268540382385254e-01 -3.277063071727752686e-01
1.426000000000000000e+03 1.059630107879638672e+01 -6.198350429534912109e+00 -2.270056962966918945e+00 3.413111448287963867e+00 3.429163098335266113e-01 -1.140899732708930969e-01
1.427000000000000000e+03 1.402304458618164062e+01 1.745612740516662598e+00 6.645142436027526855e-01 -4.487147331237792969e+00 -1.146790027618408203e+00 2.366741180419921875e+00
1.428000000000000000e+03 1.848167228698730469e+01 -1.294564247131347656e+01 5.202096700668334961e-01 7.271056652069091797e+00 2.337379932403564453e+00 1.848232388496398926e+00
1.429000000000000000e+03 6.364807605743408203e+00 1.745501899719238281e+01 3.666774034500122070e+00 5.295917510986328125e+00 2.688807487487792969e+00 -3.729195892810821533e-01
1.430000000000000000e+03 1.508949184417724609e+01 -1.750072860717773438e+01 1.872882246971130371e-01 4.539689540863037109e+00 1.418093323707580566e+00 1.582810759544372559e+00
1.431000000000000000e+03 1.600178527832031250e+01 -1.638594627380371094e+01 3.129124641418457031e-01 5.158246040344238281e+00 1.641347646713256836e+00 1.661517739295959473e+00
1.432000000000000000e+03 4.519444465637207031e+00 -3.131895256042480469e+01 -1.160980165004730225e-01 2.713796854019165039e+00 7.793096303939819336e-01 3.893640339374542236e-01
1.433000000000000000e+03 4.025350570678710938e+00 -2.901739501953125000e+01 -1.635877937078475952e-01 2.443246126174926758e+00 6.838974952697753906e-01 4.521024823188781738e-01
1.434000000000000000e+03 1.392789244651794434e+00 -1.020799636840820312e+01 -5.927989725023508072e-03 -1.003794074058532715e+00 -3.029166162014007568e-01 -6.509039998054504395e-01
1.435000000000000000e+03 2.129681587219238281e+00 -1.731041336059570312e+01 4.203156530857086182e-01 -5.561113953590393066e-01 -4.073871672153472900e-02 8.015418052673339844e-01
1.436000000000000000e+03 2.104171991348266602e+00 -1.878495407104492188e+01 5.184163898229598999e-02 -2.289108037948608398e-01 -5.312074720859527588e-02 1.098098278045654297e+00
1.437000000000000000e+03 3.191853046417236328e+00 -2.451727104187011719e+01 -2.138248085975646973e-01 1.847237229347229004e+00 4.900237321853637695e-01 7.554299235343933105e-01
1.438000000000000000e+03 4.032970428466796875e+00 -2.743344688415527344e+01 -2.066678404808044434e-01 2.415263891220092773e+00 6.625788211822509766e-01 5.316138267517089844e-01
1.439000000000000000e+03 6.712555885314941406e+00 -1.946375274658203125e+01 -3.672657310962677002e-01 5.456728458404541016e+00 1.526838898658752441e+00 9.180409461259841919e-02
1.440000000000000000e+03 5.750703811645507812e+00 -1.346485233306884766e+01 1.141674160957336426e+00 6.133468627929687500e+00 2.182542800903320312e+00 -4.029873609542846680e-01
1.441000000000000000e+03 1.303005576133728027e+00 -7.699361324310302734e+00 -4.349499568343162537e-02 -4.274848997592926025e-01 -1.412939727306365967e-01 -3.262073993682861328e-01
1.442000000000000000e+03 2.199030399322509766e+00 -7.747723579406738281e+00 -2.575192749500274658e-01 2.573167979717254639e-01 -6.074345947126857936e-05 -4.608248174190521240e-01
1.443000000000000000e+03 2.229957342147827148e+00 -8.888078689575195312e+00 -1.718041300773620605e-01 2.181648463010787964e-01 1.390821207314729691e-02 -6.366583108901977539e-01
1.444000000000000000e+03 4.473503589630126953e+00 -1.547214412689208984e+01 2.122233152389526367e+00 3.746220350265502930e+00 1.760536074638366699e+00 1.782868355512619019e-01
1.445000000000000000e+03 3.481065988540649414e+00 -1.574573707580566406e+01 1.159136772155761719e+00 1.671723484992980957e+00 8.492580652236938477e-01 3.391364812850952148e-01
1.446000000000000000e+03 1.981716871261596680e+00 -2.444807052612304688e+01 -1.742585003376007080e-01 1.177285313606262207e+00 3.009080290794372559e-01 6.282436847686767578e-01
1.447000000000000000e+03 3.017090082168579102e+00 -2.324515151977539062e+01 -3.599871098995208740e-01 1.657982110977172852e+00 3.893985152244567871e-01 9.572839140892028809e-01
1.448000000000000000e+03 1.978320479393005371e+00 -3.112013053894042969e+01 -2.871749736368656158e-02 2.117464542388916016e+00 6.266241073608398438e-01 1.946518868207931519e-01
1.449000000000000000e+03 3.631134510040283203e+00 -3.027500343322753906e+01 -1.283033043146133423e-01 2.432377338409423828e+00 6.912222504615783691e-01 3.501734435558319092e-01
1.450000000000000000e+03 3.672474622726440430e+00 -2.588442230224609375e+01 -2.988047003746032715e-01 2.191213130950927734e+00 5.677225589752197266e-01 6.900196671485900879e-01
1.451000000000000000e+03 4.301696777343750000e+00 -1.875427818298339844e+01 3.974778652191162109e-01 3.604524135589599609e+00 1.200600624084472656e+00 1.543620109558105469e+00
1.452000000000000000e+03 7.399227619171142578e+00 -1.194108295440673828e+01 2.864962816238403320e-01 7.334251880645751953e+00 2.286224365234375000e+00 1.478186488151550293e+00
1.453000000000000000e+03 2.451187133789062500e+00 -1.128672885894775391e+01 2.824074588716030121e-02 2.117446064949035645e-01 7.199560850858688354e-02 -9.820803999900817871e-01
1.454000000000000000e+03 3.068108558654785156e+00 -3.390028381347656250e+01 -3.287575766444206238e-02 2.490420579910278320e+00 7.372634410858154297e-01 2.032132297754287720e-01
1.455000000000000000e+03 3.247967004776000977e+00 -3.263322448730468750e+01 -5.085528641939163208e-02 2.454047203063964844e+00 7.209575772285461426e-01 2.484629005193710327e-01
1.456000000000000000e+03 4.403105258941650391e+00 -3.455673980712890625e+01 -9.917444735765457153e-02 2.783722400665283203e+00 8.053643703460693359e-01 2.301301509141921997e-01
1.457000000000000000e+03 9.570294380187988281e+00 2.628810167312622070e+00 -5.843766331672668457e-01 7.957721710205078125e+00 2.212003469467163086e+00 -2.559086799621582031e+00
1.458000000000000000e+03 6.601690769195556641e+00 -1.278160953521728516e+01 4.552582502365112305e-01 7.312632083892822266e+00 2.330367088317871094e+00 1.581048965454101562e-01
1.459000000000000000e+03 1.387054061889648438e+01 5.288103818893432617e-01 1.864739179611206055e+00 -4.551443099975585938e+00 -8.060111403465270996e-01 7.396748661994934082e-01
1.460000000000000000e+03 7.526307678222656250e+01 1.957272720336914062e+01 2.169981598854064941e-03 7.676931858062744141e+00 2.303730487823486328e+00 9.533158689737319946e-02
1.461000000000000000e+03 7.803663635253906250e+01 1.542940330505371094e+01 3.144267946481704712e-03 7.580981731414794922e+00 2.275237798690795898e+00 3.922980278730392456e-02
1.462000000000000000e+03 7.292833709716796875e+01 -3.789752578735351562e+01 -4.172423109412193298e-02 7.982370376586914062e+00 2.382193803787231445e+00 -4.844489321112632751e-02
1.463000000000000000e+03 7.455218505859375000e+01 -3.134477996826171875e+01 -1.988198235630989075e-02 7.957584857940673828e+00 2.381310939788818359e+00 -8.512389659881591797e-02
1.464000000000000000e+03 7.697960662841796875e+01 -3.593285369873046875e+01 -1.035307906568050385e-02 8.056229591369628906e+00 2.413763046264648438e+00 -2.859656326472759247e-02
1.465000000000000000e+03 7.542021179199218750e+01 -2.206977844238281250e+01 -3.565067658200860023e-03 7.811816692352294922e+00 2.342475414276123047e+00 -1.074412912130355835e-01
1.466000000000000000e+03 7.793853759765625000e+01 -2.909193229675292969e+01 -1.693767146207392216e-03 7.977310657501220703e+00 2.392685174942016602e+00 -4.346394166350364685e-02
1.467000000000000000e+03 7.810314941406250000e+01 3.483129501342773438e+01 2.511563652660697699e-04 7.928884506225585938e+00 2.378740787506103516e+00 2.077984251081943512e-02
1.468000000000000000e+03 7.645213317871093750e+01 3.241483306884765625e+01 -1.170892640948295593e-02 7.880623817443847656e+00 2.360674381256103516e+00 4.994513839483261108e-02
1.469000000000000000e+03 7.806646728515625000e+01 -2.218849563598632812e+01 -1.670906785875558853e-03 7.827345371246337891e+00 2.347702503204345703e+00 -5.063671991229057312e-02
1.470000000000000000e+03 7.673976135253906250e+01 -2.350628852844238281e+01 -3.203219035640358925e-03 7.848195552825927734e+00 2.353497743606567383e+00 -7.890588790178298950e-02
1.471000000000000000e+03 7.638386535644531250e+01 -3.027603530883789062e+01 -8.253609761595726013e-03 7.970152378082275391e+00 2.388569593429565430e+00 -6.561744213104248047e-02
1.472000000000000000e+03 7.799131011962890625e+01 -2.771158981323242188e+01 -3.727295901626348495e-03 7.951151847839355469e+00 2.384227275848388672e+00 -4.616795107722282410e-02
1.473000000000000000e+03 7.653615570068359375e+01 -2.892226219177246094e+01 -9.529553353786468506e-03 7.950444698333740234e+00 2.382274627685546875e+00 -6.960317492485046387e-02
1.474000000000000000e+03 7.664080810546875000e+01 -2.757109451293945312e+01 -4.285703878849744797e-03 7.926730632781982422e+00 2.376733541488647461e+00 -7.290075719356536865e-02
1.475000000000000000e+03 7.672127532958984375e+01 -2.487163543701171875e+01 -1.581408083438873291e-03 7.875527858734130859e+00 2.362183809280395508e+00 -7.782242447137832642e-02
1.476000000000000000e+03 7.538672637939453125e+01 -2.344265747070312500e+01 -3.488745074719190598e-03 7.837888717651367188e+00 2.350320100784301758e+00 -1.063765063881874084e-01
1.477000000000000000e+03 7.615831756591796875e+01 -3.312924957275390625e+01 -1.383884064853191376e-02 8.008910179138183594e+00 2.398521423339843750e+00 -5.400184169411659241e-02
1.478000000000000000e+03 7.642445373535156250e+01 -3.462496185302734375e+01 -1.414270885288715363e-02 8.030790328979492188e+00 2.404994249343872070e+00 -4.195551201701164246e-02
1.479000000000000000e+03 7.795262145996093750e+01 2.239896392822265625e+01 -9.858848061412572861e-04 7.720207691192626953e+00 2.315766572952270508e+00 4.688002169132232666e-02
1.480000000000000000e+03 7.664132690429687500e+01 1.962147521972656250e+01 2.903749467805027962e-03 7.670653343200683594e+00 2.302067041397094727e+00 7.056856900453567505e-02
1.481000000000000000e+03 7.513076782226562500e+01 2.239200973510742188e+01 -2.175498753786087036e-03 7.723247051239013672e+00 2.316321372985839844e+00 9.908806532621383667e-02
1.482000000000000000e+03 7.660177612304687500e+01 2.101839828491210938e+01 -3.705086419358849525e-04 7.696303367614746094e+00 2.308779954910278320e+00 7.339380681514739990e-02
1.483000000000000000e+03 7.674355316162109375e+01 1.266471290588378906e+01 5.177767015993595123e-03 7.555445194244384766e+00 2.268186807632446289e+00 5.303082615137100220e-02
1.484000000000000000e+03 7.544931793212890625e+01 8.492387771606445312e+00 1.427285280078649521e-02 7.529680728912353516e+00 2.263185977935791016e+00 4.697552695870399475e-02
1.485000000000000000e+03 7.673096466064453125e+01 1.405856895446777344e+01 6.927193142473697662e-03 7.575706481933593750e+00 2.274790048599243164e+00 5.761421471834182739e-02
1.486000000000000000e+03 7.649745941162109375e+01 2.383245658874511719e+01 -2.594252815470099449e-03 7.747407913208007812e+00 2.323444128036499023e+00 7.398129999637603760e-02
1.487000000000000000e+03 7.789727020263671875e+01 2.659782028198242188e+01 -7.713466184213757515e-04 7.803272247314453125e+00 2.340750217437744141e+00 4.427394643425941467e-02
1.488000000000000000e+03 7.675676727294921875e+01 -2.212728881835937500e+01 -3.037407586816698313e-04 7.819048404693603516e+00 2.345623493194580078e+00 -8.067216724157333374e-02
1.489000000000000000e+03 7.644712066650390625e+01 2.667299461364746094e+01 -4.597556777298450470e-03 7.795553684234619141e+00 2.337286710739135742e+00 6.999461352825164795e-02
1.490000000000000000e+03 7.541784667968750000e+01 -1.654795646667480469e+01 4.165426362305879593e-03 7.705038070678710938e+00 2.312761068344116211e+00 -1.040552556514739990e-01
1.491000000000000000e+03 7.676615142822265625e+01 -2.074591445922851562e+01 -1.409674645401537418e-03 7.789394378662109375e+00 2.336395502090454102e+00 -8.076458424329757690e-02
1.492000000000000000e+03 7.544978332519531250e+01 -8.106163978576660156e+00 1.369100529700517654e-02 7.568092346191406250e+00 2.274534940719604492e+00 -7.063393294811248779e-02
1.493000000000000000e+03 7.804970550537109375e+01 -1.523292160034179688e+01 2.283855341374874115e-03 7.662667751312255859e+00 2.299485445022583008e+00 -4.857457429170608521e-02
1.494000000000000000e+03 7.537832641601562500e+01 -1.216722249984741211e+00 2.145048789680004120e-02 7.508860588073730469e+00 2.259093284606933594e+00 -2.386486716568470001e-02
1.495000000000000000e+03 7.805222320556640625e+01 -8.247117042541503906e+00 2.214222447946667671e-03 7.525864124298095703e+00 2.258423566818237305e+00 -3.410801663994789124e-02
1.496000000000000000e+03 7.808116912841796875e+01 5.699111461639404297e+00 2.766109304502606392e-03 7.454205989837646484e+00 2.237091541290283203e+00 1.382151711732149124e-02
1.497000000000000000e+03 7.673146057128906250e+01 2.956282138824462891e+00 1.103861257433891296e-02 7.475432395935058594e+00 2.245941162109375000e+00 6.260503083467483521e-03
1.498000000000000000e+03 7.789917755126953125e+01 3.594530105590820312e+01 -8.917770348489284515e-03 7.935791492462158203e+00 2.378062248229980469e+00 1.834275759756565094e-02
1.499000000000000000e+03 7.808300018310546875e+01 7.086487770080566406e+00 4.372552037239074707e-03 7.464704513549804688e+00 2.240723133087158203e+00 1.791473850607872009e-02
1.500000000000000000e+03 7.678520202636718750e+01 5.750013828277587891e+00 1.007818244397640228e-02 7.485107421875000000e+00 2.248555660247802734e+00 2.147352136671543121e-02
1.501000000000000000e+03 7.805319213867187500e+01 -1.269529461860656738e+00 5.069232080131769180e-03 7.450220108032226562e+00 2.236586809158325195e+00 -1.133882906287908554e-02
1.502000000000000000e+03 7.675686645507812500e+01 -2.620383739471435547e+00 1.121458970010280609e-02 7.489315509796142578e+00 2.250159025192260742e+00 -2.579431608319282532e-02
1.503000000000000000e+03 7.673793029785156250e+01 -9.579660415649414062e+00 6.233890075236558914e-03 7.570074081420898438e+00 2.272892236709594727e+00 -5.952543392777442932e-02
1.504000000000000000e+03 7.675470733642578125e+01 -1.658067131042480469e+01 3.666405566036701202e-03 7.699982166290283203e+00 2.311094522476196289e+00 -7.861257344484329224e-02
1.505000000000000000e+03 7.656681823730468750e+01 3.385584640502929688e+01 -9.672740474343299866e-03 7.902076244354248047e+00 2.367721080780029297e+00 4.136069864034652710e-02
1.506000000000000000e+03 7.497580718994140625e+01 3.423919677734375000e+01 -1.973974704742431641e-02 7.879799365997314453e+00 2.358017921447753906e+00 5.619977414608001709e-02
1.507000000000000000e+03 7.645781707763671875e+01 3.096167373657226562e+01 -8.641093038022518158e-03 7.862389087677001953e+00 2.356124401092529297e+00 5.533427745103836060e-02
1.508000000000000000e+03 7.666918182373046875e+01 1.822620010375976562e+01 1.683376613073050976e-03 7.645682334899902344e+00 2.294209718704223633e+00 6.937967240810394287e-02
1.509000000000000000e+03 7.669207763671875000e+01 1.683318138122558594e+01 5.240898579359054565e-03 7.621025562286376953e+00 2.287879943847656250e+00 6.550295650959014893e-02
1.510000000000000000e+03 7.676852416992187500e+01 9.889376640319824219e+00 6.546048913151025772e-03 7.520193099975585938e+00 2.258021831512451172e+00 4.173352196812629700e-02
1.511000000000000000e+03 7.673711395263671875e+01 -1.518549442291259766e+01 2.683022292330861092e-03 7.671543598175048828e+00 2.302268028259277344e+00 -7.580133527517318726e-02
1.512000000000000000e+03 7.805989837646484375e+01 -6.852530479431152344e+00 4.263896960765123367e-03 7.504753589630126953e+00 2.252705335617065430e+00 -3.019246086478233337e-02
1.513000000000000000e+03 7.675311279296875000e+01 -8.177133560180664062e+00 8.772651664912700653e-03 7.548576831817626953e+00 2.267204999923706055e+00 -5.360856652259826660e-02
1.514000000000000000e+03 7.805105590820312500e+01 1.514935016632080078e+00 4.986797925084829330e-03 7.442284584045410156e+00 2.234181404113769531e+00 -1.145651214756071568e-03
1.515000000000000000e+03 7.676226043701171875e+01 4.358270168304443359e+00 8.858209475874900818e-03 7.478805541992187500e+00 2.246299028396606445e+00 1.463065203279256821e-02
1.516000000000000000e+03 7.676518249511718750e+01 -6.783282279968261719e+00 7.352679502218961716e-03 7.529843807220458984e+00 2.261158943176269531e+00 -4.673811048269271851e-02
1.517000000000000000e+03 7.677095794677734375e+01 -4.010881900787353516e+00 8.246910758316516876e-03 7.500127792358398438e+00 2.252512454986572266e+00 -3.287069499492645264e-02
1.518000000000000000e+03 7.543596649169921875e+01 -2.611442327499389648e+00 1.734043285250663757e-02 7.515675067901611328e+00 2.259904623031616211e+00 -3.411404043436050415e-02
1.519000000000000000e+03 7.671760559082031250e+01 -1.239236164093017578e+01 4.506101831793785095e-03 7.618228435516357422e+00 2.286820411682128906e+00 -6.952343136072158813e-02
1.520000000000000000e+03 7.672422027587890625e+01 -1.098636245727539062e+01 7.077337242662906647e-03 7.593321323394775391e+00 2.280119657516479492e+00 -6.512593477964401245e-02
1.521000000000000000e+03 7.676596069335937500e+01 -1.797420120239257812e+01 7.750166696496307850e-04 7.729526996612548828e+00 2.319090604782104492e+00 -7.952527701854705811e-02
1.522000000000000000e+03 7.676871490478515625e+01 -1.936301231384277344e+01 1.808273955248296261e-03 7.759180068969726562e+00 2.328296422958374023e+00 -8.106695115566253662e-02
1.523000000000000000e+03 2.086108398437500000e+01 -9.578949928283691406e+00 9.666824340820312500e-01 9.276948928833007812e+00 3.073089361190795898e+00 9.656655788421630859e-01
1.524000000000000000e+03 1.945758628845214844e+01 -8.781035423278808594e+00 1.116147279739379883e+00 1.042457008361816406e+01 3.462215185165405273e+00 1.961598277091979980e+00
1.525000000000000000e+03 6.611701488494873047e+00 1.327522277832031250e+01 -6.547128558158874512e-01 5.195971012115478516e+00 1.362377524375915527e+00 2.485387027263641357e-01
1.526000000000000000e+03 8.180825233459472656e+00 -9.429557800292968750e+00 -7.582353353500366211e-01 4.494010448455810547e+00 1.120732545852661133e+00 9.082098007202148438e-01
1.527000000000000000e+03 9.969563484191894531e-01 4.723278045654296875e+00 4.834576509892940521e-03 -9.871049225330352783e-02 -2.816277556121349335e-02 -1.734816096723079681e-02
1.528000000000000000e+03 2.100101947784423828e+00 2.764370536804199219e+01 -8.805248141288757324e-02 1.158241748809814453e+00 3.210567831993103027e-01 -4.766505062580108643e-01
1.529000000000000000e+03 3.286810636520385742e+00 3.040951538085937500e+01 -1.350875198841094971e-01 1.930408954620361328e+00 5.385963916778564453e-01 -4.346434772014617920e-01
1.530000000000000000e+03 2.150555133819580078e+00 2.620599937438964844e+01 -1.724240928888320923e-01 9.271392226219177246e-01 2.264145314693450928e-01 -6.248888373374938965e-01
1.531000000000000000e+03 3.533087253570556641e+00 2.773141670227050781e+01 -2.418634742498397827e-01 1.795713901519775391e+00 4.661551117897033691e-01 -6.556993722915649414e-01
1.532000000000000000e+03 6.114166259765625000e+00 2.990649986267089844e+01 -2.827141582965850830e-01 2.832287788391113281e+00 7.648721337318420410e-01 -5.390998721122741699e-01
1.533000000000000000e+03 3.308516740798950195e+00 3.168502998352050781e+01 -8.198742568492889404e-02 2.034314870834350586e+00 5.856982469558715820e-01 -3.558369576930999756e-01
1.534000000000000000e+03 3.395081758499145508e+00 2.910566902160644531e+01 -1.345893144607543945e-01 1.860771536827087402e+00 5.178546905517578125e-01 -5.164105296134948730e-01
1.535000000000000000e+03 3.592629671096801758e+00 3.427919769287109375e+01 -6.256019324064254761e-02 2.246081590652465820e+00 6.550563573837280273e-01 -2.589825093746185303e-01
1.536000000000000000e+03 3.450577974319458008e+00 3.297097015380859375e+01 -8.847071975469589233e-02 2.146249055862426758e+00 6.173334717750549316e-01 -3.090294003486633301e-01
1.537000000000000000e+03 3.643325805664062500e+00 2.308037376403808594e+01 -2.403964847326278687e-01 1.814222335815429688e+00 4.721477627754211426e-01 -1.097222566604614258e+00
1.538000000000000000e+03 3.197478532791137695e+00 2.088877105712890625e+01 1.096026971936225891e-01 1.127904415130615234e+00 3.712521493434906006e-01 -1.266571760177612305e+00
1.539000000000000000e+03 1.744821310043334961e+00 1.859341239929199219e+01 3.781266212463378906e-01 -1.589985013008117676e+00 -3.635575175285339355e-01 -4.837487041950225830e-01
1.540000000000000000e+03 3.766796827316284180e+00 1.277729892730712891e+01 -2.885332703590393066e-01 1.813099861145019531e+00 4.573699831962585449e-01 1.072103142738342285e+00
1.541000000000000000e+03 3.271230220794677734e+00 8.515883445739746094e+00 -3.917720913887023926e-01 1.032682061195373535e+00 1.922729909420013428e-01 2.874891161918640137e-01
1.542000000000000000e+03 4.734811305999755859e+00 1.388581466674804688e+01 6.318992376327514648e-02 3.334221124649047852e+00 1.019223332405090332e+00 1.189815521240234375e+00
1.543000000000000000e+03 1.696509122848510742e+00 1.721958732604980469e+01 2.504465878009796143e-01 -1.749827146530151367e+00 -4.498142004013061523e-01 -2.647195383906364441e-02
1.544000000000000000e+03 4.019060134887695312e+00 1.795468521118164062e+01 1.459406614303588867e+00 1.633794188499450684e+00 9.279602169990539551e-01 -5.014621615409851074e-01
1.545000000000000000e+03 2.522579193115234375e+00 1.000722980499267578e+01 -2.998465895652770996e-01 5.240736007690429688e-01 6.726811081171035767e-02 6.340796947479248047e-01
1.546000000000000000e+03 2.721948146820068359e+00 1.135725116729736328e+01 -3.654475212097167969e-01 7.492812275886535645e-01 1.151501014828681946e-01 8.538832068443298340e-01
1.547000000000000000e+03 7.953338146209716797e+00 1.135763740539550781e+01 -9.197591543197631836e-01 4.048555374145507812e+00 9.386388659477233887e-01 -5.102323889732360840e-01
1.548000000000000000e+03 2.739333391189575195e+00 1.419739246368408203e+01 3.083683848381042480e-01 2.306561172008514404e-01 1.617073565721511841e-01 9.868041276931762695e-01
1.549000000000000000e+03 6.199981212615966797e+00 1.611387443542480469e+01 2.805396556854248047e+00 6.351698398590087891e+00 2.747128486633300781e+00 1.413155078887939453e+00
1.550000000000000000e+03 5.261523723602294922e+00 1.905542373657226562e+01 1.576401472091674805e+00 3.687878131866455078e+00 1.579283952713012695e+00 -9.882509112358093262e-01
1.551000000000000000e+03 2.809619903564453125e+00 1.691002464294433594e+01 8.852291107177734375e-01 -1.156791821122169495e-01 2.308649867773056030e-01 3.462439402937889099e-02
1.552000000000000000e+03 1.882464027404785156e+01 1.428341865539550781e+01 8.274348974227905273e-01 8.035452842712402344e+00 2.658866167068481445e+00 -1.686398148536682129e+00
1.553000000000000000e+03 1.711834526062011719e+01 1.676721191406250000e+01 5.643046498298645020e-01 6.396446704864501953e+00 2.088225364685058594e+00 -1.792962670326232910e+00
1.554000000000000000e+03 1.688453483581542969e+01 1.484346580505371094e+01 1.290238022804260254e+00 6.861271381378173828e+00 2.445452690124511719e+00 -2.389206886291503906e+00
1.555000000000000000e+03 1.620618057250976562e+01 1.793858528137207031e+01 5.319723486900329590e-01 5.543525218963623047e+00 1.822649359703063965e+00 -1.726251125335693359e+00
1.556000000000000000e+03 2.153209877014160156e+01 3.940614461898803711e+00 9.367912411689758301e-01 1.116794490814208984e+01 3.631420850753784180e+00 -6.309847831726074219e-01
1.557000000000000000e+03 1.419308567047119141e+01 -1.863806533813476562e+01 4.307410717010498047e-01 3.939421415328979492e+00 1.311048746109008789e+00 1.439082860946655273e+00
1.558000000000000000e+03 1.958704376220703125e+01 1.294749450683593750e+01 1.052010178565979004e+00 8.717044830322265625e+00 2.930716514587402344e+00 -1.535156726837158203e+00
1.559000000000000000e+03 1.778925895690917969e+01 -1.408822727203369141e+01 5.253527164459228516e-01 6.601489067077636719e+00 2.138052463531494141e+00 1.826781392097473145e+00
1.560000000000000000e+03 1.631809234619140625e+01 -1.836112976074218750e+01 1.163288727402687073e-01 5.207853794097900391e+00 1.597254872322082520e+00 1.433093547821044922e+00
1.561000000000000000e+03 2.163428688049316406e+01 -5.046782493591308594e+00 1.657106161117553711e+00 1.068932342529296875e+01 3.703928947448730469e+00 9.449772834777832031e-01
1.562000000000000000e+03 1.799580001831054688e+01 1.554799079895019531e+01 8.437399864196777344e-01 7.227480888366699219e+00 2.421366214752197266e+00 -1.732241511344909668e+00
1.563000000000000000e+03 3.698923110961914062e+00 -1.209685802459716797e+01 2.383659034967422485e-01 2.221602201461791992e+00 7.379904389381408691e-01 -1.019899845123291016e+00
1.564000000000000000e+03 2.034192466735839844e+01 9.864383339881896973e-01 2.437628209590911865e-01 1.201915168762207031e+01 3.678874254226684570e+00 -2.002901434898376465e-01
1.565000000000000000e+03 2.158539581298828125e+01 2.580807924270629883e+00 7.153879404067993164e-01 1.129189586639404297e+01 3.602185249328613281e+00 -4.648439884185791016e-01
1.566000000000000000e+03 1.316175937652587891e+01 2.124279403686523438e+01 8.201688528060913086e-01 3.637891292572021484e+00 1.337418079376220703e+00 -8.510829210281372070e-01
1.567000000000000000e+03 1.163172435760498047e+01 2.017598915100097656e+01 1.788676977157592773e+00 1.965851426124572754e+00 1.126358509063720703e+00 -3.536006510257720947e-01
1.568000000000000000e+03 3.349148988723754883e+00 -1.102698421478271484e+01 -2.028624117374420166e-01 1.487195611000061035e+00 3.852999508380889893e-01 -1.114162564277648926e+00
1.569000000000000000e+03 5.967555522918701172e+00 -1.190422534942626953e+01 1.922713518142700195e-01 5.489003181457519531e+00 1.704382300376892090e+00 -1.619310826063156128e-01
1.570000000000000000e+03 5.845324516296386719e+00 -1.686384773254394531e+01 2.226676464080810547e+00 6.637820243835449219e+00 2.659348964691162109e+00 1.214842438697814941e+00
1.571000000000000000e+03 5.409851074218750000e+00 -1.499442577362060547e+01 2.027189016342163086e+00 6.421617507934570312e+00 2.534641981124877930e+00 -5.222490429878234863e-01
1.572000000000000000e+03 5.151754379272460938e+00 4.020146942138671875e+01 -1.312719732522964478e-01 2.699037790298461914e+00 7.703297734260559082e-01 -4.281032457947731018e-02
1.573000000000000000e+03 5.344152927398681641e+00 2.557077646255493164e+00 5.534544587135314941e-01 6.316066980361938477e-01 3.555183410644531250e-01 -6.781719923019409180e-01
1.574000000000000000e+03 5.880850315093994141e+00 1.997219920158386230e+00 7.833060026168823242e-01 4.762157201766967773e-01 3.778565227985382080e-01 -7.149767279624938965e-01
1.575000000000000000e+03 6.315196990966796875e+00 2.130733728408813477e+00 9.822024703025817871e-01 7.259240150451660156e-01 5.124379396438598633e-01 -1.021539330482482910e+00
1.576000000000000000e+03 6.587753295898437500e+00 2.004059314727783203e+00 1.139316082000732422e+00 7.945796251296997070e-01 5.801687240600585938e-01 -1.153549194335937500e+00
1.577000000000000000e+03 7.231694698333740234e+00 2.042557954788208008e+00 1.501519203186035156e+00 1.281289219856262207e+00 8.348425030708312988e-01 -1.731385469436645508e+00
1.578000000000000000e+03 6.131857395172119141e+00 -2.533123731613159180e+00 7.304043769836425781e-01 1.100327610969543457e+00 5.492196083068847656e-01 1.275194168090820312e+00
1.579000000000000000e+03 7.745737075805664062e+00 1.945862174034118652e+00 1.863586306571960449e+00 1.817165136337280273e+00 1.104225397109985352e+00 -2.316395044326782227e+00
1.580000000000000000e+03 7.718397617340087891e+00 2.153070211410522461e+00 1.754319548606872559e+00 2.128566503524780273e+00 1.164865732192993164e+00 -2.453423976898193359e+00
1.581000000000000000e+03 5.824694156646728516e+00 -1.931623220443725586e+00 7.020072340965270996e-01 5.265471935272216797e-01 3.685663044452667236e-01 7.924635410308837891e-01
1.582000000000000000e+03 5.707429885864257812e+00 -2.289188861846923828e+00 6.093930006027221680e-01 7.427323460578918457e-01 4.056376218795776367e-01 8.620491623878479004e-01
1.583000000000000000e+03 5.502251148223876953e+00 -1.997381567955017090e+00 6.142626404762268066e-01 5.084679126739501953e-01 3.368191719055175781e-01 6.702682375907897949e-01
1.584000000000000000e+03 8.826376914978027344e+00 1.994160652160644531e+00 1.715614438056945801e+00 5.199016094207763672e+00 2.074389219284057617e+00 -3.937273979187011719e+00
1.585000000000000000e+03 9.784540176391601562e+00 2.164348840713500977e+00 -2.493424564599990845e-01 9.924393653869628906e+00 2.902515411376953125e+00 -2.858226060867309570e+00
1.586000000000000000e+03 8.491247177124023438e+00 2.028926610946655273e+00 1.834089398384094238e+00 3.991032838821411133e+00 1.747536659240722656e+00 -3.519093513488769531e+00
1.587000000000000000e+03 8.508328437805175781e+00 -2.551362752914428711e+00 7.194197773933410645e-01 4.766915321350097656e+00 1.645900487899780273e+00 3.651123523712158203e+00
1.588000000000000000e+03 9.156796455383300781e+00 1.970321893692016602e+00 1.370634317398071289e+00 7.037023544311523438e+00 2.522297382354736328e+00 -4.186276435852050781e+00
1.589000000000000000e+03 4.188543796539306641e+00 -2.110975027084350586e+00 2.026022076606750488e-01 2.870655059814453125e-01 1.469003111124038696e-01 1.925190240144729614e-01
1.590000000000000000e+03 1.001175308227539062e+01 2.099899053573608398e+00 -4.227500855922698975e-01 1.066803741455078125e+01 3.073586225509643555e+00 -2.323914051055908203e+00
1.591000000000000000e+03 3.771451473236083984e+00 -2.041593074798583984e+00 1.311685144901275635e-01 2.192745059728622437e-01 1.051329076290130615e-01 7.403769344091415405e-02
1.592000000000000000e+03 3.980971097946166992e+00 -2.049856424331665039e+00 1.800603866577148438e-01 2.691693305969238281e-01 1.347689181566238403e-01 1.045007184147834778e-01
1.593000000000000000e+03 8.781804084777832031e+00 -2.656579256057739258e+00 3.230809271335601807e-01 5.650399208068847656e+00 1.792043924331665039e+00 3.623030185699462891e+00
1.594000000000000000e+03 9.074928283691406250e+00 -1.917096972465515137e+00 1.559392452239990234e+00 6.674810409545898438e+00 2.470260858535766602e+00 4.714863300323486328e+00
1.595000000000000000e+03 8.925637245178222656e+00 -1.666698336601257324e+00 2.576031446456909180e+00 5.547649860382080078e+00 2.437104463577270508e+00 4.817617416381835938e+00
1.596000000000000000e+03 4.936675548553466797e+00 1.932740688323974609e+00 4.261035621166229248e-01 2.623496949672698975e-01 2.065359801054000854e-01 -3.221431672573089600e-01
1.597000000000000000e+03 4.524815559387207031e+00 2.340922594070434570e+00 4.032210111618041992e-01 3.345707058906555176e-01 2.213375121355056763e-01 -2.872974872589111328e-01
1.598000000000000000e+03 4.116428852081298828e+00 2.101046085357666016e+00 2.504197359085083008e-01 2.090155333280563354e-01 1.378305852413177490e-01 -1.658752262592315674e-01
1.599000000000000000e+03 9.091263771057128906e+00 -2.401169538497924805e+00 3.716195821762084961e-01 6.792800426483154297e+00 2.149326086044311523e+00 3.932854175567626953e+00
1.600000000000000000e+03 1.301757240295410156e+01 5.152352809906005859e+00 -1.079318761825561523e+00 7.806481122970581055e-01 -8.960118144750595093e-02 2.010594129562377930e+00
1.601000000000000000e+03 1.168041419982910156e+01 -4.207020282745361328e+00 -2.456465244293212891e+00 3.653569698333740234e+00 3.591313660144805908e-01 -1.567702174186706543e+00
1.602000000000000000e+03 1.044446754455566406e+01 2.017632722854614258e+00 -5.642985701560974121e-01 1.174638366699218750e+01 3.354625463485717773e+00 -3.100557327270507812e-01
1.603000000000000000e+03 1.319908046722412109e+01 4.101091384887695312e+00 -8.871540427207946777e-01 2.617418766021728516e-01 -1.876236498355865479e-01 2.686096429824829102e+00
1.604000000000000000e+03 1.134766483306884766e+01 1.667048573493957520e+00 1.503389716148376465e+00 9.693161964416503906e+00 3.358965635299682617e+00 3.180769443511962891e+00
1.605000000000000000e+03 1.160906600952148438e+01 1.517876148223876953e+00 2.189882040023803711e+00 8.152569770812988281e+00 3.102735757827758789e+00 3.583760738372802734e+00
1.606000000000000000e+03 1.063977432250976562e+01 2.248992204666137695e+00 -8.100931048393249512e-01 1.085268497467041016e+01 3.012777328491210938e+00 4.480205178260803223e-01
1.607000000000000000e+03 1.193860626220703125e+01 -2.187622308731079102e+00 2.697151005268096924e-01 5.463047504425048828e+00 1.719828844070434570e+00 -3.031093597412109375e+00
1.608000000000000000e+03 1.185862350463867188e+01 -6.034877896308898926e-01 6.961157321929931641e+00 5.772011756896972656e+00 3.819950819015502930e+00 -2.576030492782592773e+00
1.609000000000000000e+03 1.225595855712890625e+01 1.744773864746093750e+00 1.575826644897460938e+00 4.382423400878906250e+00 1.787474989891052246e+00 3.618940353393554688e+00
1.610000000000000000e+03 1.180505943298339844e+01 -1.735935926437377930e+00 2.080849409103393555e+00 6.784623146057128906e+00 2.659641742706298828e+00 -3.479641437530517578e+00
1.611000000000000000e+03 1.150299453735351562e+01 -2.188808202743530273e+00 1.320457668043673038e-04 7.427904129028320312e+00 2.228410720825195312e+00 -2.620543003082275391e+00
1.612000000000000000e+03 1.188556075096130371e+00 -2.157327890396118164e+00 -2.328842505812644958e-02 -1.128456220030784607e-01 -4.084021598100662231e-02 -1.328496485948562622e-01
1.613000000000000000e+03 2.568261146545410156e+00 1.868278384208679199e+00 9.266453981399536133e-02 2.805118821561336517e-02 3.621472045779228210e-02 1.090772524476051331e-01
1.614000000000000000e+03 2.025100708007812500e+00 -2.916246891021728516e+00 1.129197515547275543e-02 3.231279924511909485e-02 1.308143232017755508e-02 -8.987427502870559692e-02
1.615000000000000000e+03 1.239562988281250000e+00 -1.784652829170227051e+00 3.654650598764419556e-02 -8.514004200696945190e-02 -1.457806024700403214e-02 -1.122625172138214111e-01
1.616000000000000000e+03 1.279538750648498535e+00 2.038923501968383789e+00 2.187819033861160278e-02 -7.903864234685897827e-02 -1.714813522994518280e-02 7.620311528444290161e-02
1.617000000000000000e+03 2.675001382827758789e+00 2.052941560745239258e+00 9.453050792217254639e-02 5.493943765759468079e-02 4.484098404645919800e-02 4.452151060104370117e-02
1.618000000000000000e+03 1.815370917320251465e+00 2.364234447479248047e+00 3.015774674713611603e-02 -1.878734183264896274e-04 8.990962058305740356e-03 9.283453971147537231e-02
1.619000000000000000e+03 3.526102781295776367e+00 -2.663526058197021484e+00 1.591293364763259888e-01 3.380590677261352539e-01 1.491565257310867310e-01 9.021119773387908936e-02
1.620000000000000000e+03 1.970356464385986328e+00 -3.583402156829833984e+00 7.197854667901992798e-02 8.568471670150756836e-02 4.729897901415824890e-02 -9.499794244766235352e-02
1.621000000000000000e+03 1.139575600624084473e+00 3.145107507705688477e+00 5.051192268729209900e-02 -6.022926792502403259e-02 -2.915203105658292770e-03 5.338260531425476074e-02
1.622000000000000000e+03 2.061851263046264648e+00 2.167973995208740234e+00 4.429270699620246887e-02 -5.629519000649452209e-03 1.159895677119493484e-02 7.154707610607147217e-02
1.623000000000000000e+03 1.767725348472595215e+00 -4.336238861083984375e+00 -4.722120240330696106e-02 1.307867094874382019e-02 -1.024275925010442734e-02 -7.132389396429061890e-02
1.624000000000000000e+03 1.286455631256103516e+01 -2.155648946762084961e+00 6.051337122917175293e-01 5.916009545326232910e-01 3.590204119682312012e-01 -3.256159782409667969e+00
1.625000000000000000e+03 1.231190967559814453e+01 -4.752486944198608398e-01 5.360129833221435547e+00 2.758767604827880859e+00 2.435669183731079102e+00 -1.591833114624023438e+00
1.626000000000000000e+03 7.501030921936035156e+00 1.284915447235107422e+01 -3.897498250007629395e-01 4.704954147338867188e+00 1.294561266899108887e+00 -4.035808444023132324e-01
1.627000000000000000e+03 3.753541231155395508e+00 1.404877758026123047e+01 3.912293910980224609e-01 1.625075697898864746e+00 6.048914790153503418e-01 1.423562526702880859e+00
1.628000000000000000e+03 9.492113113403320312e+00 1.020046997070312500e+01 -1.096733808517456055e+00 3.462395668029785156e+00 7.096985578536987305e-01 -6.372247338294982910e-01
1.629000000000000000e+03 1.251222515106201172e+01 7.228143215179443359e-01 4.891317367553710938e+00 2.455618619918823242e+00 2.204080820083618164e+00 2.360203981399536133e+00
1.630000000000000000e+03 1.189219093322753906e+01 8.227603912353515625e+00 -1.039335727691650391e+00 1.904881358146667480e+00 2.596636712551116943e-01 3.304324448108673096e-01
1.631000000000000000e+03 1.011386203765869141e+01 9.471575736999511719e+00 -1.078324675559997559e+00 2.915885210037231445e+00 5.512681603431701660e-01 -3.061334490776062012e-01
1.632000000000000000e+03 1.073538398742675781e+01 1.006288337707519531e+01 -8.065508008003234863e-01 2.604632616043090820e+00 5.394245386123657227e-01 -4.462699294090270996e-01
1.633000000000000000e+03 1.117495632171630859e+01 -2.152849912643432617e+00 -2.306140065193176270e-01 9.026330947875976562e+00 2.638715028762817383e+00 -1.789553403854370117e+00
1.634000000000000000e+03 1.250513458251953125e+01 -2.980186462402343750e+00 -1.040470004081726074e+00 2.007254600524902344e+00 2.900353670120239258e-01 -3.091737747192382812e+00
1.635000000000000000e+03 1.326761531829833984e+01 3.067924737930297852e+00 -3.583147823810577393e-01 -2.030158191919326782e-01 -1.683991849422454834e-01 3.194574356079101562e+00
1.636000000000000000e+03 8.643743515014648438e+00 -3.583132982254028320e+00 -9.418685436248779297e-01 5.304559707641601562e+00 1.308807373046875000e+00 2.661171913146972656e+00
1.637000000000000000e+03 1.124217224121093750e+01 -2.013155746459960938e+01 8.764640092849731445e-01 2.806625127792358398e+00 1.104926824569702148e+00 4.592415392398834229e-01
1.638000000000000000e+03 3.382797956466674805e+00 -2.067069244384765625e+01 -3.453875482082366943e-01 1.972542047500610352e+00 4.881463646888732910e-01 1.367376089096069336e+00
1.639000000000000000e+03 6.282321453094482422e+00 1.218190670013427734e+01 -7.346011400222778320e-01 3.853845357894897461e+00 9.357732534408569336e-01 4.509682655334472656e-01
1.640000000000000000e+03 3.331537008285522461e+00 -1.756510353088378906e+01 5.429138541221618652e-01 1.359034895896911621e+00 5.705845952033996582e-01 1.047018051147460938e+00
1.641000000000000000e+03 4.590180873870849609e+00 -2.123624801635742188e+01 -4.188970029354095459e-01 3.269287347793579102e+00 8.551170825958251953e-01 9.627141952514648438e-01
1.642000000000000000e+03 5.440020561218261719e+00 -1.905489158630371094e+01 3.403604030609130859e-01 5.236645221710205078e+00 1.673101782798767090e+00 8.375374078750610352e-01
1.643000000000000000e+03 4.207249641418457031e+00 -2.233374214172363281e+01 -5.166456699371337891e-01 2.618614912033081055e+00 6.305907368659973145e-01 1.084128260612487793e+00
1.644000000000000000e+03 6.014915943145751953e+00 -2.765350341796875000e+01 -3.117049336433410645e-01 2.998365879058837891e+00 8.059982657432556152e-01 5.798683762550354004e-01
1.645000000000000000e+03 5.690046310424804688e+00 -2.179212188720703125e+01 -5.350415110588073730e-01 3.721217393875122070e+00 9.558527469635009766e-01 7.439498305320739746e-01
1.646000000000000000e+03 5.043425083160400391e+00 -2.015876960754394531e+01 -6.189497113227844238e-01 4.043381214141845703e+00 1.027329444885253906e+00 1.072282671928405762e+00
1.647000000000000000e+03 3.291146993637084961e+00 -3.137115287780761719e+01 -6.691570580005645752e-02 2.379723072052001953e+00 6.938422322273254395e-01 2.655338346958160400e-01
1.648000000000000000e+03 4.143185615539550781e+00 -2.432518196105957031e+01 -4.465663731098175049e-01 2.349450349807739258e+00 5.708652138710021973e-01 8.411015868186950684e-01
1.649000000000000000e+03 3.968864202499389648e+00 -2.336970710754394531e+01 -3.509612381458282471e-01 2.295864582061767578e+00 5.834710001945495605e-01 8.863627910614013672e-01
1.650000000000000000e+03 6.162715911865234375e+00 -2.610889816284179688e+01 -4.346517920494079590e-01 3.152468681335449219e+00 8.153450489044189453e-01 5.978925228118896484e-01
1.651000000000000000e+03 5.199316024780273438e+00 -2.282899093627929688e+01 -5.849382877349853516e-01 3.317895174026489258e+00 8.198870420455932617e-01 7.339631915092468262e-01
1.652000000000000000e+03 4.192206382751464844e+00 -1.312308979034423828e+01 7.028694748878479004e-01 3.151196241378784180e+00 1.156219720840454102e+00 -1.026553273200988770e+00
1.653000000000000000e+03 3.160015821456909180e+00 -1.378784275054931641e+01 9.349756240844726562e-01 1.169456362724304199e+00 6.313295960426330566e-01 -6.615029573440551758e-01
1.654000000000000000e+03 3.152980566024780273e+00 -9.945712089538574219e+00 -2.699487507343292236e-01 1.262787818908691406e+00 2.978517413139343262e-01 -8.917715549468994141e-01
1.655000000000000000e+03 6.151390075683593750e+00 -3.297947692871093750e+01 -1.730283349752426147e-01 3.121346235275268555e+00 8.844953775405883789e-01 2.979992032051086426e-01
1.656000000000000000e+03 7.502093315124511719e+00 -1.035510826110839844e+01 -5.012321472167968750e-01 5.510400772094726562e+00 1.502750515937805176e+00 8.246113061904907227e-01
1.657000000000000000e+03 4.808237075805664062e+00 -1.406056499481201172e+01 1.627678036689758301e+00 4.823175430297851562e+00 1.935256004333496094e+00 -5.978305339813232422e-01
1.658000000000000000e+03 5.119738101959228516e+00 -1.252927207946777344e+01 3.995921015739440918e-01 4.805621623992919922e+00 1.561564087867736816e+00 -6.813144683837890625e-01
1.659000000000000000e+03 2.204755067825317383e+00 -6.642862319946289062e+00 -1.453525573015213013e-01 3.397583365440368652e-01 5.832173675298690796e-02 -2.623827159404754639e-01
1.660000000000000000e+03 4.452661037445068359e+00 -4.018175601959228516e+00 -1.959288679063320160e-02 1.086038947105407715e+00 3.199338316917419434e-01 4.914942383766174316e-01
1.661000000000000000e+03 9.849506378173828125e+00 -7.029490947723388672e+00 -1.930062294006347656e+00 3.628234624862670898e+00 5.094516873359680176e-01 3.630526065826416016e-01
1.662000000000000000e+03 6.447277545928955078e+00 1.889447021484375000e+01 1.628834843635559082e+00 6.580931186676025391e+00 2.462929964065551758e+00 -1.390975594520568848e+00
1.663000000000000000e+03 2.876976728439331055e+00 1.824554252624511719e+01 6.212077736854553223e-01 2.186268866062164307e-01 2.519504129886627197e-01 -5.316493511199951172e-01
1.664000000000000000e+03 2.306195497512817383e+00 -5.624696254730224609e+00 -1.449077576398849487e-01 3.326389789581298828e-01 5.631935968995094299e-02 -1.299793571233749390e-01
1.665000000000000000e+03 2.184608221054077148e+00 -2.199154138565063477e+00 4.304751381278038025e-02 1.771603897213935852e-02 1.822906546294689178e-02 -1.180568337440490723e-01
1.666000000000000000e+03 7.537711334228515625e+01 1.402674961090087891e+01 9.325332939624786377e-03 7.592462539672851562e+00 2.280536413192749023e+00 7.720521092414855957e-02
1.667000000000000000e+03 7.530329895019531250e+01 1.769404411315917969e-01 1.899979263544082642e-02 7.505422592163085938e+00 2.257326841354370117e+00 -1.212199404835700989e-02
1.668000000000000000e+03 7.398548126220703125e+01 -1.307908415794372559e+00 3.091497905552387238e-02 7.533380031585693359e+00 2.269288539886474609e+00 -3.014791570603847504e-02
1.669000000000000000e+03 7.545912170410156250e+01 -3.979797363281250000e+00 1.820840686559677124e-02 7.524643421173095703e+00 2.262855529785156250e+00 -4.380453377962112427e-02
1.670000000000000000e+03 7.677225494384765625e+01 -5.395798206329345703e+00 9.720649570226669312e-03 7.513489723205566406e+00 2.256963014602661133e+00 -4.020663350820541382e-02
1.671000000000000000e+03 7.412845611572265625e+01 -5.297618389129638672e+00 2.764267288148403168e-02 7.555547237396240234e+00 2.274956941604614258e+00 -6.485193222761154175e-02
1.672000000000000000e+03 7.671192169189453125e+01 1.562873125076293945e+00 9.248284623026847839e-03 7.475129127502441406e+00 2.245313167572021484e+00 -1.167529844678938389e-03
1.673000000000000000e+03 7.529154205322265625e+01 1.566255211830139160e+00 2.053190022706985474e-02 7.503820419311523438e+00 2.257305622100830078e+00 -2.395120216533541679e-03
1.674000000000000000e+03 7.545977783203125000e+01 7.121347904205322266e+00 1.728378236293792725e-02 7.519313335418701172e+00 2.260979175567626953e+00 3.774281218647956848e-02
1.675000000000000000e+03 7.311692047119140625e+01 3.241960906982421875e+01 -3.530606999993324280e-02 7.851223468780517578e+00 2.344775199890136719e+00 8.440297842025756836e-02
1.676000000000000000e+03 7.501316070556640625e+01 3.103745269775390625e+01 -2.016804367303848267e-02 7.850093364715576172e+00 2.348977565765380859e+00 7.553572952747344971e-02
1.677000000000000000e+03 7.541905975341796875e+01 4.377882003784179688e+00 1.903399266302585602e-02 7.506338596343994141e+00 2.257611751556396484e+00 1.912226341664791107e-02
1.678000000000000000e+03 7.545722961425781250e+01 5.759514331817626953e+00 1.592547819018363953e-02 7.511135578155517578e+00 2.258118391036987305e+00 2.903411351144313812e-02
1.679000000000000000e+03 7.393601989746093750e+01 2.997646808624267578e+00 3.242970257997512817e-02 7.527891635894775391e+00 2.268096446990966797e+00 1.104618608951568604e-02
1.680000000000000000e+03 7.409840393066406250e+01 -1.930648994445800781e+01 3.330782521516084671e-03 7.757308959960937500e+00 2.328191995620727539e+00 -1.328050792217254639e-01
1.681000000000000000e+03 7.409312438964843750e+01 -9.425805091857910156e+00 2.062823809683322906e-02 7.601659297943115234e+00 2.286686420440673828e+00 -9.620048105716705322e-02
1.682000000000000000e+03 7.672197723388671875e+01 -1.379137420654296875e+01 5.208956077694892883e-03 7.644517421722412109e+00 2.294918060302734375e+00 -7.349569350481033325e-02
1.683000000000000000e+03 7.535427093505859375e+01 -1.374681663513183594e+01 7.709516212344169617e-03 7.654795169830322266e+00 2.298751354217529297e+00 -9.781459718942642212e-02
1.684000000000000000e+03 7.678112030029296875e+01 8.507206916809082031e+00 9.171416051685810089e-03 7.505878925323486328e+00 2.254515171051025391e+00 3.507988154888153076e-02
1.685000000000000000e+03 7.542967224121093750e+01 9.868703842163085938e+00 1.570383831858634949e-02 7.542499542236328125e+00 2.267461061477661133e+00 5.525463446974754333e-02
1.686000000000000000e+03 7.520877075195312500e+01 2.097331809997558594e+01 2.406415995210409164e-03 7.699669837951660156e+00 2.310622930526733398e+00 9.600361436605453491e-02
1.687000000000000000e+03 7.671270751953125000e+01 1.544469833374023438e+01 3.593957051634788513e-03 7.597976684570312500e+00 2.280471086502075195e+00 6.245405972003936768e-02
1.688000000000000000e+03 7.536088562011718750e+01 1.541424083709716797e+01 1.058982033282518387e-02 7.611627101898193359e+00 2.286665201187133789e+00 8.243117481470108032e-02
1.689000000000000000e+03 7.544026184082031250e+01 -2.069716072082519531e+01 4.445500962901860476e-04 7.784884929656982422e+00 2.335598707199096680e+00 -1.084383726119995117e-01
1.690000000000000000e+03 7.544593811035156250e+01 -1.932460784912109375e+01 4.175692738499492407e-04 7.758446693420410156e+00 2.327659130096435547e+00 -1.075825691223144531e-01
1.691000000000000000e+03 7.539031219482421875e+01 -1.092687225341796875e+01 1.095733977854251862e-02 7.608755111694335938e+00 2.285913705825805664e+00 -8.631223440170288086e-02
1.692000000000000000e+03 7.536285400390625000e+01 -1.234120655059814453e+01 1.085476018488407135e-02 7.631480693817138672e+00 2.292700529098510742e+00 -9.298281371593475342e-02
1.693000000000000000e+03 7.542349243164062500e+01 -9.511396408081054688e+00 1.407531462609767914e-02 7.587282180786132812e+00 2.280407190322875977e+00 -7.901113480329513550e-02
1.694000000000000000e+03 7.540657806396484375e+01 1.124854278564453125e+01 1.211414393037557602e-02 7.557321071624755859e+00 2.270830631256103516e+00 6.346724182367324829e-02
1.695000000000000000e+03 7.403148651123046875e+01 9.791117668151855469e+00 2.262223698198795319e-02 7.561450004577636719e+00 2.275221824645996094e+00 6.792965531349182129e-02
1.696000000000000000e+03 7.393395233154296875e+01 1.672586822509765625e+01 1.377311721444129944e-02 7.642042636871337891e+00 2.296744585037231445e+00 1.070181354880332947e-01
1.697000000000000000e+03 7.533242797851562500e+01 1.679631233215332031e+01 5.944055039435625076e-03 7.633042335510253906e+00 2.291695833206176758e+00 8.807842433452606201e-02
1.698000000000000000e+03 7.513877868652343750e+01 -2.867694854736328125e+01 -1.225505769252777100e-02 7.925603389739990234e+00 2.374004602432250977e+00 -9.393259882926940918e-02
1.699000000000000000e+03 7.406282043457031250e+01 -2.200959777832031250e+01 -3.123098285868763924e-03 7.804663658142089844e+00 2.340462207794189453e+00 -1.329122334718704224e-01
1.700000000000000000e+03 7.535571289062500000e+01 -2.479331970214843750e+01 -6.704810075461864471e-03 7.862627029418945312e+00 2.356776714324951172e+00 -1.028953269124031067e-01
1.701000000000000000e+03 7.669370269775390625e+01 -2.622212791442871094e+01 -5.522181745618581772e-03 7.902533054351806641e+00 2.369103431701660156e+00 -7.531122118234634399e-02
1.702000000000000000e+03 7.533512878417968750e+01 -2.610884284973144531e+01 -5.829416681081056595e-03 7.884171009063720703e+00 2.363502502441406250e+00 -1.008906587958335876e-01
1.703000000000000000e+03 7.336747741699218750e+01 2.688751029968261719e+01 -1.405809912830591202e-02 7.787354946136474609e+00 2.331989049911499023e+00 1.129929199814796448e-01
1.704000000000000000e+03 7.356189727783203125e+01 2.378190803527832031e+01 -7.316985167562961578e-03 7.745793819427490234e+00 2.321542978286743164e+00 1.218428462743759155e-01
1.705000000000000000e+03 7.494549560546875000e+01 2.676170539855957031e+01 -7.133392151445150375e-03 7.790565967559814453e+00 2.335029840469360352e+00 9.200312942266464233e-02
1.706000000000000000e+03 7.499974822998046875e+01 2.819697380065917969e+01 -1.050222199410200119e-02 7.810277462005615234e+00 2.339932441711425781e+00 8.730604499578475952e-02
1.707000000000000000e+03 7.647362518310546875e+01 2.951774787902832031e+01 -9.088045917451381683e-03 7.841198921203613281e+00 2.349633216857910156e+00 6.235879287123680115e-02
1.708000000000000000e+03 7.506394958496093750e+01 2.960744285583496094e+01 -1.161860022693872452e-02 7.828938484191894531e+00 2.345196008682250977e+00 8.201664686203002930e-02
1.709000000000000000e+03 7.329425811767578125e+01 -2.943711090087890625e+01 -2.428200654685497284e-02 7.915888309478759766e+00 2.367481946945190430e+00 -1.151357069611549377e-01
1.710000000000000000e+03 7.214651489257812500e+01 -3.581524276733398438e+01 -4.540893062949180603e-02 7.965343952178955078e+00 2.375980615615844727e+00 -7.014040648937225342e-02
1.711000000000000000e+03 7.624005889892578125e+01 -3.166278648376464844e+01 -1.381340902298688889e-02 7.987837314605712891e+00 2.392207145690917969e+00 -6.129320338368415833e-02
1.712000000000000000e+03 7.485131835937500000e+01 -2.996713447570800781e+01 -1.946748048067092896e-02 7.942381381988525391e+00 2.376874208450317383e+00 -9.041544795036315918e-02
1.713000000000000000e+03 7.597117614746093750e+01 -3.654806137084960938e+01 -1.582017168402671814e-02 8.047080039978027344e+00 2.409378051757812500e+00 -3.392762318253517151e-02
1.714000000000000000e+03 1.418831253051757812e+01 2.014928627014160156e+01 8.703361153602600098e-01 3.821465253829956055e+00 1.407540440559387207e+00 -1.398270845413208008e+00
1.715000000000000000e+03 5.149599075317382812e+00 2.179320335388183594e+01 -3.083197474479675293e-01 3.603803157806396484e+00 9.886450171470642090e-01 -1.062622547149658203e+00
1.716000000000000000e+03 2.759790420532226562e+00 1.556793880462646484e+01 5.974161624908447266e-01 2.300157584249973297e-02 1.861253231763839722e-01 7.545564770698547363e-01
1.717000000000000000e+03 2.972658395767211914e+00 1.957657432556152344e+01 5.436253547668457031e-01 3.537256419658660889e-01 2.692053020000457764e-01 -9.097491502761840820e-01
1.718000000000000000e+03 5.268543720245361328e+00 2.042438697814941406e+01 3.620232939720153809e-01 3.845296859741210938e+00 1.262196063995361328e+00 -1.484509944915771484e+00
1.719000000000000000e+03 5.076349735260009766e+00 2.476198005676269531e+01 -4.179097414016723633e-01 2.739848375320434570e+00 6.965816020965576172e-01 -7.987909913063049316e-01
1.720000000000000000e+03 4.751048564910888672e+00 2.934937477111816406e+01 -2.438479661941528320e-01 2.324699163436889648e+00 6.242553591728210449e-01 -5.883592367172241211e-01
1.721000000000000000e+03 4.187683105468750000e+00 2.048657035827636719e+01 5.174949169158935547e-01 2.311750173568725586e+00 8.487734794616699219e-01 -1.227185726165771484e+00
1.722000000000000000e+03 6.364613533020019531e+00 2.181461143493652344e+01 -6.048511266708374023e-01 4.274699687957763672e+00 1.100954532623291016e+00 -4.956706166267395020e-01
1.723000000000000000e+03 5.153496265411376953e+00 2.637704086303710938e+01 -4.289824664592742920e-01 2.566275835037231445e+00 6.411879658699035645e-01 -7.683121562004089355e-01
1.724000000000000000e+03 5.046320915222167969e+00 2.322764587402343750e+01 -5.189942121505737305e-01 2.937916040420532227e+00 7.256765961647033691e-01 -9.722669720649719238e-01
1.725000000000000000e+03 4.516867160797119141e+00 3.155136680603027344e+01 -1.829815357923507690e-01 2.367275953292846680e+00 6.552882790565490723e-01 -4.405954182147979736e-01
1.726000000000000000e+03 5.240053176879882812e+00 3.557406997680664062e+01 -1.340935677289962769e-01 2.688846588134765625e+00 7.664258480072021484e-01 -2.507029175758361816e-01
1.727000000000000000e+03 3.630849361419677734e+00 3.561356735229492188e+01 -4.034882411360740662e-02 2.267105340957641602e+00 6.680269837379455566e-01 -2.115527689456939697e-01
1.728000000000000000e+03 4.831609249114990234e+00 3.272061157226562500e+01 -1.343939602375030518e-01 2.488966703414916992e+00 7.063718438148498535e-01 -3.829064369201660156e-01
1.729000000000000000e+03 4.491594314575195312e+00 3.050988197326660156e+01 -1.659594625234603882e-01 2.309548616409301758e+00 6.430767178535461426e-01 -4.938247501850128174e-01
1.730000000000000000e+03 8.103258132934570312e+00 9.195801734924316406e+00 -1.516564846038818359e+00 3.655637502670288086e+00 6.417217850685119629e-01 -2.126109600067138672e-01
1.731000000000000000e+03 2.390953302383422852e+00 8.696752548217773438e+00 -3.129386007785797119e-01 5.461856722831726074e-01 6.997411698102951050e-02 2.738376259803771973e-01
1.732000000000000000e+03 2.397104501724243164e+00 7.368037700653076172e+00 -1.440094411373138428e-01 5.037932991981506348e-01 1.079351529479026794e-01 1.162145212292671204e-01
1.733000000000000000e+03 4.078741550445556641e+00 7.450855731964111328e+00 -4.607742130756378174e-01 1.481036901473999023e+00 3.060787916183471680e-01 -1.422853302210569382e-02
1.734000000000000000e+03 2.094669818878173828e+00 5.511130332946777344e+00 -3.169564530253410339e-02 3.118036389350891113e-01 8.403240144252777100e-02 -5.078015103936195374e-02
1.735000000000000000e+03 3.278836488723754883e+00 7.436606407165527344e+00 -3.519061207771301270e-01 1.016003251075744629e+00 1.992291361093521118e-01 1.319320779293775558e-02
1.736000000000000000e+03 8.960912704467773438e+00 -7.423710823059082031e+00 -1.759961724281311035e+00 4.080826759338378906e+00 6.962595582008361816e-01 6.691998839378356934e-01
1.737000000000000000e+03 8.762197494506835938e+00 -8.402691841125488281e+00 -1.224673986434936523e+00 4.217372417449951172e+00 8.978095650672912598e-01 6.996986269950866699e-01
1.738000000000000000e+03 1.542646980285644531e+01 -1.948713874816894531e+01 1.183837577700614929e-01 4.682708740234375000e+00 1.440327763557434082e+00 1.274417996406555176e+00
1.739000000000000000e+03 1.750656700134277344e+01 -1.933367347717285156e+01 -1.541732549667358398e-01 5.722522735595703125e+00 1.670504927635192871e+00 1.199571728706359863e+00
1.740000000000000000e+03 1.924172401428222656e+01 -1.492687606811523438e+01 6.584402918815612793e-02 7.218484401702880859e+00 2.185298681259155273e+00 1.290791034698486328e+00
1.741000000000000000e+03 5.610241413116455078e+00 -9.778930664062500000e+00 -8.322328329086303711e-01 3.999266624450683594e+00 9.501101970672607422e-01 -4.211997985839843750e-01
1.742000000000000000e+03 2.140242958068847656e+01 -8.245985031127929688e+00 1.363556027412414551e+00 9.912064552307128906e+00 3.382686138153076172e+00 9.856648445129394531e-01
1.743000000000000000e+03 2.261223411560058594e+01 -6.292329788208007812e+00 1.732574343681335449e+00 1.015332603454589844e+01 3.565770149230957031e+00 6.894266605377197266e-01
1.744000000000000000e+03 1.691972541809082031e+01 -1.524423980712890625e+01 3.494390249252319336e-01 5.882526397705078125e+00 1.869589567184448242e+00 1.748255610466003418e+00
1.745000000000000000e+03 2.167399215698242188e+01 1.226087188720703125e+01 9.616297483444213867e-01 8.878515243530273438e+00 2.952043294906616211e+00 -8.519085645675659180e-01
1.746000000000000000e+03 2.290753173828125000e+01 4.150767803192138672e+00 1.006258010864257812e+00 1.053913116455078125e+01 3.463616609573364258e+00 -4.748189151287078857e-01
1.747000000000000000e+03 2.293462753295898438e+01 5.607601642608642578e+00 1.140455722808837891e+00 1.029165458679199219e+01 3.429632902145385742e+00 -5.686783790588378906e-01
1.748000000000000000e+03 1.255188179016113281e+01 -2.098052406311035156e+01 5.033335089683532715e-01 3.458045959472656250e+00 1.188413858413696289e+00 7.186221480369567871e-01
1.749000000000000000e+03 8.676751136779785156e+00 2.222818756103515625e+01 2.488776892423629761e-01 4.126855850219726562e+00 1.312720060348510742e+00 3.808798789978027344e-01
1.750000000000000000e+03 2.310619926452636719e+01 -4.247779846191406250e+00 1.448345303535461426e+00 1.032484722137451172e+01 3.531957626342773438e+00 7.428042888641357422e-01
1.751000000000000000e+03 2.301281356811523438e+01 -1.521647810935974121e+00 1.031139969825744629e+00 1.074801349639892578e+01 3.533746242523193359e+00 3.269276022911071777e-01
1.752000000000000000e+03 2.022440338134765625e+01 -1.096923065185546875e+01 5.906746983528137207e-01 8.951015472412109375e+00 2.862507104873657227e+00 1.312852263450622559e+00
1.753000000000000000e+03 6.167469978332519531e+00 -1.046547031402587891e+01 -5.283551812171936035e-01 4.814666748046875000e+00 1.285893440246582031e+00 -6.353700906038284302e-02
1.754000000000000000e+03 4.952303886413574219e+00 -1.634804344177246094e+01 1.615112185478210449e+00 4.861436367034912109e+00 1.942964553833007812e+00 4.785157740116119385e-01
1.755000000000000000e+03 2.292280578613281250e+01 7.186695575714111328e+00 1.139298677444458008e+00 9.951840400695800781e+00 3.327341556549072266e+00 -6.393356323242187500e-01
1.756000000000000000e+03 2.374027442932128906e+01 -2.398830413818359375e+00 1.244544029235839844e+00 1.024176597595214844e+01 3.445893049240112305e+00 5.458157062530517578e-01
1.757000000000000000e+03 1.724170684814453125e+01 -1.727182960510253906e+01 -8.121550083160400391e-03 5.780013084411621094e+00 1.731567502021789551e+00 1.455737352371215820e+00
1.758000000000000000e+03 7.513717651367187500e+01 3.984089279174804688e+01 -1.546277105808258057e-02 7.922821998596191406e+00 2.372207880020141602e+00 2.272524498403072357e-02
1.759000000000000000e+03 1.333667659759521484e+01 -1.978531074523925781e+01 4.860616624355316162e-01 3.562226533889770508e+00 1.214486479759216309e+00 1.094283103942871094e+00
1.760000000000000000e+03 1.458960723876953125e+01 -2.065403938293457031e+01 2.194594740867614746e-01 4.280737400054931641e+00 1.350059032440185547e+00 1.092463731765747070e+00
1.761000000000000000e+03 1.916743850708007812e+01 1.629839134216308594e+01 3.810972273349761963e-01 7.449908733367919922e+00 2.349301815032958984e+00 -1.272194743156433105e+00
1.762000000000000000e+03 1.668980789184570312e+01 1.993543243408203125e+01 2.665949463844299316e-01 5.536378383636474609e+00 1.740892052650451660e+00 -1.381216406822204590e+00
1.763000000000000000e+03 2.457940292358398438e+01 9.055248260498046875e+00 1.108370304107666016e+00 9.143490791320800781e+00 3.075558423995971680e+00 -3.326847851276397705e-01
1.764000000000000000e+03 1.523685455322265625e+01 1.906134796142578125e+01 4.148692488670349121e-01 4.711013793945312500e+00 1.537764906883239746e+00 -1.762681603431701660e+00
1.765000000000000000e+03 2.173368453979492188e+01 1.296982884407043457e+00 7.012161612510681152e-01 1.139283752441406250e+01 3.628216266632080078e+00 -1.581258177757263184e-01
1.766000000000000000e+03 5.954617023468017578e+00 1.482666969299316406e+01 7.950019836425781250e-01 5.694359779357910156e+00 1.946808457374572754e+00 9.173804521560668945e-01
1.767000000000000000e+03 5.053036689758300781e+00 1.638819694519042969e+01 2.251881361007690430e+00 3.129348039627075195e+00 1.614368796348571777e+00 2.658895552158355713e-01
1.768000000000000000e+03 4.761851310729980469e+00 1.980559468269348145e+00 4.104234278202056885e-01 2.357623279094696045e-01 1.938557326793670654e-01 -2.860537469387054443e-01
1.769000000000000000e+03 7.864324569702148438e+00 -2.066388368606567383e+00 1.818925738334655762e+00 2.446744203567504883e+00 1.279700994491577148e+00 2.991152286529541016e+00
1.770000000000000000e+03 6.715009212493896484e+00 -1.895777821540832520e+00 1.223963856697082520e+00 9.446299672126770020e-01 6.505781412124633789e-01 1.481107831001281738e+00
1.771000000000000000e+03 5.048971176147460938e+00 -2.095218896865844727e+00 4.048714041709899902e-01 4.338093996047973633e-01 2.516042292118072510e-01 4.822895228862762451e-01
1.772000000000000000e+03 4.870398044586181641e+00 -2.332221269607543945e+00 3.817504346370697021e-01 5.252944231033325195e-01 2.721134424209594727e-01 4.543147385120391846e-01
1.773000000000000000e+03 5.674785137176513672e+00 -1.845938563346862793e+00 6.401048898696899414e-01 4.371118545532226562e-01 3.231650292873382568e-01 6.661597490310668945e-01
1.774000000000000000e+03 8.389344215393066406e+00 2.281090974807739258e+00 1.463745355606079102e+00 3.933784246444702148e+00 1.619258880615234375e+00 -3.237253904342651367e+00
1.775000000000000000e+03 7.942951202392578125e+00 1.987025976181030273e+00 2.029851913452148438e+00 2.250138044357299805e+00 1.283996939659118652e+00 -2.660745382308959961e+00
1.776000000000000000e+03 6.364207267761230469e+00 -1.924839377403259277e+00 9.576002955436706543e-01 8.052566647529602051e-01 5.288571119308471680e-01 1.175779700279235840e+00
1.777000000000000000e+03 9.941644668579101562e+00 -5.741171360015869141e+00 -2.561011791229248047e+00 4.374828338623046875e+00 5.441449284553527832e-01 3.615673482418060303e-01
1.778000000000000000e+03 7.574954509735107422e+00 1.989944458007812500e+00 1.709854722023010254e+00 1.663053750991821289e+00 1.011872529983520508e+00 -2.105747699737548828e+00
1.779000000000000000e+03 6.922599315643310547e+00 -1.858608126640319824e+00 1.396753549575805664e+00 1.021351933479309082e+00 7.254316210746765137e-01 1.638453483581542969e+00
1.780000000000000000e+03 6.696697235107421875e+00 2.319977760314941406e+00 1.155701398849487305e+00 1.082376599311828613e+00 6.714234352111816406e-01 -1.418660283088684082e+00
1.781000000000000000e+03 7.218653202056884766e+00 -2.146390199661254883e+00 1.340670943260192871e+00 1.653548717498779297e+00 8.982658982276916504e-01 2.096495628356933594e+00
1.782000000000000000e+03 7.141098976135253906e+00 -2.566606283187866211e+00 1.022317171096801758e+00 1.998836278915405273e+00 9.063460230827331543e-01 2.250421762466430664e+00
1.783000000000000000e+03 3.488656997680664062e+00 6.480272293090820312e+00 -2.189371436834335327e-01 1.003107547760009766e+00 2.352511435747146606e-01 -1.039599701762199402e-01
1.784000000000000000e+03 6.446635246276855469e+00 2.518022060394287109e+00 9.632478952407836914e-01 1.091084480285644531e+00 6.162996888160705566e-01 -1.275772094726562500e+00
1.785000000000000000e+03 8.262600898742675781e+00 -5.157439231872558594e+00 -1.724371910095214844e+00 4.563260078430175781e+00 8.516663908958435059e-01 1.523035883903503418e+00
1.786000000000000000e+03 5.657165527343750000e+00 2.524679899215698242e+00 7.112450599670410156e-01 6.866948008537292480e-01 4.193819463253021240e-01 -8.109139204025268555e-01
1.787000000000000000e+03 5.128386497497558594e+00 1.937365174293518066e+00 5.196400880813598633e-01 2.773972153663635254e-01 2.391111850738525391e-01 -3.647146224975585938e-01
1.788000000000000000e+03 8.984286308288574219e+00 -4.072239875793457031e+00 -1.693444609642028809e+00 5.579179286956787109e+00 1.165720462799072266e+00 2.042835474014282227e+00
1.789000000000000000e+03 7.586553096771240234e+00 -2.380395412445068359e+00 1.268774867057800293e+00 2.395521402359008789e+00 1.099288940429687500e+00 2.689851522445678711e+00
1.790000000000000000e+03 9.551959991455078125e+00 -2.030673742294311523e+00 4.193297922611236572e-01 9.214663505554199219e+00 2.890197992324829102e+00 4.198319435119628906e+00
1.791000000000000000e+03 4.069632053375244141e+00 2.540947914123535156e+00 3.117786347866058350e-01 3.257305920124053955e-01 1.912527680397033691e-01 -2.077986747026443481e-01
1.792000000000000000e+03 1.018623352050781250e+01 2.439236640930175781e+00 -1.039597272872924805e+00 9.873354911804199219e+00 2.650127172470092773e+00 -1.230065107345581055e+00
1.793000000000000000e+03 1.085544776916503906e+01 1.877741694450378418e+00 1.875526271760463715e-02 1.175766563415527344e+01 3.532926082611083984e+00 1.456408739089965820e+00
1.794000000000000000e+03 1.007804107666015625e+01 -2.330427169799804688e+00 -9.491769075393676758e-01 1.020553970336914062e+01 2.776908874511718750e+00 2.043950319290161133e+00
1.795000000000000000e+03 1.128182411193847656e+01 -3.211490154266357422e+00 -2.156631708145141602e+00 6.270164966583251953e+00 1.234059929847717285e+00 -1.204255104064941406e+00
1.796000000000000000e+03 1.109558391571044922e+01 1.789726734161376953e+00 5.242538452148437500e-01 1.094745540618896484e+01 3.441512823104858398e+00 2.333500862121582031e+00
1.797000000000000000e+03 1.199639415740966797e+01 2.446810245513916016e+00 -3.878350183367729187e-02 5.438305854797363281e+00 1.619856715202331543e+00 3.203503370285034180e+00
1.798000000000000000e+03 1.086263751983642578e+01 -2.362549781799316406e+00 -1.051029920578002930e+00 9.541449546813964844e+00 2.547125816345214844e+00 -5.574318170547485352e-01
1.799000000000000000e+03 1.053094863891601562e+01 -2.230142354965209961e+00 -9.774440526962280273e-01 1.090063285827636719e+01 2.976956605911254883e+00 4.372223913669586182e-01
1.800000000000000000e+03 1.092396450042724609e+01 2.260175943374633789e+00 -7.043837308883666992e-01 1.016727924346923828e+01 2.838868618011474609e+00 1.256470680236816406e+00
1.801000000000000000e+03 1.131681346893310547e+01 2.547898530960083008e+00 -8.115526437759399414e-01 8.064728736877441406e+00 2.175952672958374023e+00 2.200023174285888672e+00
1.802000000000000000e+03 3.013834953308105469e+00 2.280366897583007812e+00 1.343869864940643311e-01 1.142961755394935608e-01 7.460495084524154663e-02 6.239859387278556824e-03
1.803000000000000000e+03 1.190286397933959961e+00 -2.792586565017700195e+00 3.005714714527130127e-02 -1.524934917688369751e-01 -3.673090040683746338e-02 -1.093542948365211487e-01
1.804000000000000000e+03 3.341710805892944336e+00 -2.280406236648559570e+00 9.090363234281539917e-02 1.973044425249099731e-01 8.646242320537567139e-02 -4.229574115015566349e-04
1.805000000000000000e+03 2.821261405944824219e+00 -2.062315702438354492e+00 5.431978404521942139e-02 1.066456809639930725e-01 4.828963801264762878e-02 -9.592328965663909912e-02
1.806000000000000000e+03 3.446230649948120117e+00 -3.606935024261474609e+00 9.532566368579864502e-02 5.549578666687011719e-01 1.950850486755371094e-01 1.357716917991638184e-01
1.807000000000000000e+03 3.814942359924316406e+00 -2.337066411972045898e+00 1.705751270055770874e-01 2.607898712158203125e-01 1.294095069169998169e-01 1.311151385307312012e-01
1.808000000000000000e+03 9.041957855224609375e+00 -3.199472427368164062e+00 -8.835480809211730957e-01 6.244481563568115234e+00 1.608279943466186523e+00 2.921121835708618164e+00
1.809000000000000000e+03 1.875211834907531738e+00 -2.173573017120361328e+00 -5.103340372443199158e-03 -7.292824797332286835e-03 -3.718849504366517067e-03 -1.268036812543869019e-01
1.810000000000000000e+03 9.842878341674804688e+00 -2.367189168930053711e+00 -7.519564032554626465e-01 9.462851524353027344e+00 2.613268375396728516e+00 2.888488292694091797e+00
1.811000000000000000e+03 2.463390588760375977e+00 -2.116399765014648438e+00 4.508590698242187500e-02 4.611501842737197876e-02 2.736027725040912628e-02 -1.189650520682334900e-01
1.812000000000000000e+03 4.743093013763427734e+00 2.869307279586791992e+00 4.811996519565582275e-01 5.413743853569030762e-01 3.067722022533416748e-01 -4.806263446807861328e-01
1.813000000000000000e+03 3.319950103759765625e+00 2.154760122299194336e+00 1.402825564146041870e-01 1.261207312345504761e-01 7.992098480463027954e-02 -1.217334344983100891e-02
1.814000000000000000e+03 2.301815509796142578e+00 -2.571198940277099609e+00 5.970047786831855774e-02 5.456821247935295105e-02 3.428060561418533325e-02 -1.298933774232864380e-01
1.815000000000000000e+03 3.062814474105834961e+00 -2.267522573471069336e+00 6.896519660949707031e-02 1.431175619363784790e-01 6.362482160329818726e-02 -3.603630512952804565e-02
1.816000000000000000e+03 1.031334304809570312e+01 -2.292932033538818359e+00 -1.060744404792785645e+00 1.066177368164062500e+01 2.880308866500854492e+00 1.325756907463073730e+00
1.817000000000000000e+03 2.681174755096435547e+00 2.834797382354736328e+00 1.356126964092254639e-01 1.466955542564392090e-01 8.469247072935104370e-02 3.509777132421731949e-03
1.818000000000000000e+03 7.106854319572448730e-01 3.522367954254150391e+00 1.398550625890493393e-02 -1.749119907617568970e-01 -4.827794432640075684e-02 1.583107747137546539e-02
1.819000000000000000e+03 1.316632938385009766e+01 2.079893112182617188e+00 8.485110402107238770e-01 3.112812899053096771e-02 2.638917565345764160e-01 3.220774412155151367e+00
1.820000000000000000e+03 1.306115150451660156e+01 7.585679292678833008e-01 3.552519559860229492e+00 -5.013816952705383301e-01 9.153413176536560059e-01 1.813806176185607910e+00
1.821000000000000000e+03 1.219375419616699219e+01 2.412476809695363045e-03 6.340635299682617188e+00 3.485482931137084961e+00 2.947835445404052734e+00 3.324421644210815430e-01
1.822000000000000000e+03 1.285028338432312012e+00 -3.644483327865600586e+00 1.303062122315168381e-02 -1.359988003969192505e-01 -3.689045086503028870e-02 -1.091600507497787476e-01
1.823000000000000000e+03 2.604776144027709961e+00 -3.490602970123291016e+00 5.745516717433929443e-02 2.502523064613342285e-01 9.231223911046981812e-02 -2.873732708394527435e-02
1.824000000000000000e+03 1.152471542358398438e+01 2.836403846740722656e+00 -9.972304105758666992e-01 7.006239891052246094e+00 1.802702784538269043e+00 2.329912424087524414e+00
1.825000000000000000e+03 1.191942214965820312e+01 -3.372249841690063477e+00 -2.049000024795532227e+00 3.630967140197753906e+00 4.745901525020599365e-01 -2.200646877288818359e+00
1.826000000000000000e+03 1.067300128936767578e+01 -2.536062479019165039e+00 -1.424451708793640137e+00 9.652502059936523438e+00 2.468415260314941406e+00 1.512392312288284302e-01
1.827000000000000000e+03 1.316056251525878906e+01 7.598890304565429688e+00 -7.130378484725952148e-01 5.613743066787719727e-01 -4.549907147884368896e-02 6.893105506896972656e-01
1.828000000000000000e+03 5.420478820800781250e+00 -1.108526420593261719e+01 -3.763857781887054443e-01 4.440853595733642578e+00 1.219340324401855469e+00 -5.839524269104003906e-01
1.829000000000000000e+03 6.760775089263916016e+00 -1.118491363525390625e+01 -2.874539196491241455e-01 5.641808032989501953e+00 1.606306195259094238e+00 2.139237970113754272e-01
1.830000000000000000e+03 8.753123283386230469e+00 1.082608890533447266e+01 -1.130281686782836914e+00 3.732547760009765625e+00 7.806798815727233887e-01 -3.795060217380523682e-01
1.831000000000000000e+03 1.154804897308349609e+01 4.868484497070312500e+00 -1.876192092895507812e+00 3.967732667922973633e+00 6.274622082710266113e-01 1.432532191276550293e+00
1.832000000000000000e+03 8.363602638244628906e+00 1.001314926147460938e+01 -1.215694546699523926e+00 3.676279067993164062e+00 7.381753325462341309e-01 -4.475323259830474854e-01
1.833000000000000000e+03 1.356264972686767578e+01 6.467957973480224609e+00 -6.342458128929138184e-01 -1.502710878849029541e-01 -2.353550642728805542e-01 1.189168691635131836e+00
1.834000000000000000e+03 3.145905494689941406e+00 -8.865214347839355469e+00 -4.665130078792572021e-01 1.184764146804809570e+00 2.154753506183624268e-01 -7.229123115539550781e-01
1.835000000000000000e+03 3.127172946929931641e+00 -7.789366245269775391e+00 -3.905811011791229248e-01 1.139202833175659180e+00 2.245865315198898315e-01 -4.316100776195526123e-01
1.836000000000000000e+03 1.033617019653320312e+01 -4.966873645782470703e+00 -2.680711269378662109e+00 5.001143932342529297e+00 6.961298584938049316e-01 1.951628476381301880e-01
1.837000000000000000e+03 9.404732704162597656e+00 -6.355015754699707031e+00 -2.177179574966430664e+00 4.331469535827636719e+00 6.462869644165039062e-01 5.989332795143127441e-01
1.838000000000000000e+03 8.120420455932617188e+00 -7.323019981384277344e+00 -1.642323851585388184e+00 4.388639926910400391e+00 8.238949179649353027e-01 6.815518736839294434e-01
1.839000000000000000e+03 2.728530406951904297e+00 6.200314998626708984e+00 -1.453009545803070068e-01 5.484182834625244141e-01 1.209352016448974609e-01 -9.937067329883575439e-02
1.840000000000000000e+03 7.878999710083007812e+00 -8.111584663391113281e+00 -1.451402068138122559e+00 4.305218219757080078e+00 8.561447858810424805e-01 6.610230207443237305e-01
1.841000000000000000e+03 1.093124103546142578e+01 -3.829547643661499023e+00 -2.570211887359619141e+00 5.881504058837890625e+00 9.933876395225524902e-01 -5.249863266944885254e-01
1.842000000000000000e+03 9.725762367248535156e+00 3.570250272750854492e+00 -1.450120806694030762e+00 6.740550041198730469e+00 1.587128758430480957e+00 -1.283676028251647949e+00
1.843000000000000000e+03 1.134578227996826172e+01 9.173892974853515625e+00 -8.387126326560974121e-01 2.123860836029052734e+00 3.855444788932800293e-01 -7.030045986175537109e-02
1.844000000000000000e+03 4.071840286254882812e+00 8.328688621520996094e+00 -6.484736204147338867e-01 1.651694893836975098e+00 3.009663820266723633e-01 1.532338410615921021e-01
1.845000000000000000e+03 7.435099601745605469e+00 -8.955103874206542969e+00 -1.177564740180969238e+00 4.701082229614257812e+00 1.057055234909057617e+00 4.973374605178833008e-01
1.846000000000000000e+03 5.102010250091552734e+00 -8.036702156066894531e+00 -8.860477209091186523e-01 2.943048954010009766e+00 6.171003580093383789e-01 -1.285602599382400513e-01
1.847000000000000000e+03 3.925809860229492188e+00 1.664396095275878906e+01 1.308005809783935547e+00 1.769937753677368164e+00 9.233830571174621582e-01 3.365644514560699463e-01
1.848000000000000000e+03 5.177023887634277344e+00 1.770188331604003906e+01 1.925758838653564453e+00 4.021235466003417969e+00 1.784098267555236816e+00 -4.490330517292022705e-01
1.849000000000000000e+03 7.125350952148437500e+00 1.180763912200927734e+01 -1.216456174850463867e+00 4.410668373107910156e+00 9.582636356353759766e-01 6.122211366891860962e-02
1.850000000000000000e+03 3.816976785659790039e+00 1.088847732543945312e+01 -5.415029525756835938e-01 1.621094822883605957e+00 3.238775730133056641e-01 8.158636093139648438e-01
1.851000000000000000e+03 3.088150978088378906e+00 -5.865549087524414062e+00 -2.073524445295333862e-01 8.571381568908691406e-01 1.949357092380523682e-01 -6.967770308256149292e-02
1.852000000000000000e+03 1.720254778861999512e+00 4.452034950256347656e+00 6.005202233791351318e-02 5.223177000880241394e-02 3.368513658642768860e-02 -2.737988345324993134e-02
1.853000000000000000e+03 1.672363638877868652e+00 3.507862806320190430e+00 3.077247180044651031e-02 -2.648824593052268028e-03 8.437094278633594513e-03 2.722553163766860962e-02
1.854000000000000000e+03 6.844985961914062500e+00 -9.753033638000488281e+00 -8.777954578399658203e-01 4.711328029632568359e+00 1.150059819221496582e+00 1.664264649152755737e-01
1.855000000000000000e+03 4.630786895751953125e+00 -3.286692428588867188e+01 -1.004307046532630920e-01 2.809223175048828125e+00 8.126377463340759277e-01 3.134541511535644531e-01
1.856000000000000000e+03 6.178410530090332031e+00 -2.951458549499511719e+01 -2.436078339815139771e-01 3.062140941619873047e+00 8.455599546432495117e-01 4.793713688850402832e-01
1.857000000000000000e+03 6.211537837982177734e+00 -2.068110275268554688e+01 -4.875400066375732422e-01 4.643959522247314453e+00 1.246925830841064453e+00 2.250949144363403320e-01
1.858000000000000000e+03 7.355340480804443359e+00 -2.130018997192382812e+01 -1.767058521509170532e-01 4.314266681671142578e+00 1.241268277168273926e+00 -3.103108331561088562e-02
1.859000000000000000e+03 8.535804748535156250e+00 -2.209663009643554688e+01 -3.196878135204315186e-01 4.059995651245117188e+00 1.122092366218566895e+00 -8.266395330429077148e-02
1.860000000000000000e+03 6.735809326171875000e+00 -2.242920684814453125e+01 -6.464847326278686523e-01 4.058042526245117188e+00 1.023467421531677246e+00 3.426548540592193604e-01
1.861000000000000000e+03 4.402035713195800781e+00 -1.776379394531250000e+01 1.151786923408508301e+00 3.703372478485107422e+00 1.456547856330871582e+00 1.350711107254028320e+00
1.862000000000000000e+03 4.860398769378662109e+00 -2.536413764953613281e+01 -3.184018433094024658e-01 2.677580118179321289e+00 7.077534794807434082e-01 6.894394159317016602e-01
1.863000000000000000e+03 5.541554450988769531e+00 -2.440817260742187500e+01 -5.532602071762084961e-01 3.190614461898803711e+00 7.912063002586364746e-01 7.166353464126586914e-01
1.864000000000000000e+03 4.748077869415283203e+00 -2.374567604064941406e+01 -4.194175601005554199e-01 2.763603687286376953e+00 7.032558917999267578e-01 8.267968297004699707e-01
1.865000000000000000e+03 6.132558345794677734e+00 -3.129579734802246094e+01 -1.918464750051498413e-01 3.075769186019897461e+00 8.651767969131469727e-01 4.160083830356597900e-01
1.866000000000000000e+03 4.598112106323242188e+00 -1.162091827392578125e+01 -2.663134073372930288e-04 3.450722932815551758e+00 1.035137057304382324e+00 -9.283125996589660645e-01
1.867000000000000000e+03 7.898540496826171875e+00 -2.768705749511718750e+01 -3.240126967430114746e-01 3.510142803192138672e+00 9.558390378952026367e-01 4.770423173904418945e-01
1.868000000000000000e+03 7.669942855834960938e+00 2.041730117797851562e+01 -1.994138956069946289e-01 5.367581844329833984e+00 1.550450444221496582e+00 6.094419360160827637e-01
1.869000000000000000e+03 7.488741302490234375e+01 3.255473327636718750e+01 -1.737116836011409760e-02 7.866696357727050781e+00 2.354797601699829102e+00 6.479090452194213867e-02
1.870000000000000000e+03 7.348271942138671875e+01 2.839410400390625000e+01 -1.518881320953369141e-02 7.805614471435546875e+00 2.337127685546875000e+00 1.053400635719299316e-01
1.871000000000000000e+03 2.112730979919433594e+01 -6.987337112426757812e+00 1.676896929740905762e+00 1.019786739349365234e+01 3.562429189682006836e+00 1.019910216331481934e+00
1.872000000000000000e+03 7.529689788818359375e+01 -2.740134048461914062e+01 -1.197133213281631470e-02 7.906877517700195312e+00 2.368471860885620117e+00 -9.696727246046066284e-02
1.873000000000000000e+03 7.381581115722656250e+01 -2.830906677246093750e+01 -2.224371023476123810e-02 7.905937194824218750e+00 2.365108013153076172e+00 -1.151230633258819580e-01
1.874000000000000000e+03 4.006238460540771484e+00 -7.659927368164062500e+00 -5.828793048858642578e-01 1.822323083877563477e+00 3.718331456184387207e-01 -3.281092643737792969e-01
1.875000000000000000e+03 7.372171020507812500e+01 2.231577491760253906e+01 -3.496313875075429678e-04 7.724202632904052734e+00 2.317156076431274414e+00 1.191391870379447937e-01
1.876000000000000000e+03 7.503481292724609375e+01 2.383187866210937500e+01 -3.110076999291777611e-03 7.747054100036621094e+00 2.323183298110961914e+00 9.747011959552764893e-02
1.877000000000000000e+03 7.400004577636718750e+01 -2.337764739990234375e+01 -8.151779882609844208e-03 7.828605175018310547e+00 2.346136093139648438e+00 -1.310449838638305664e-01
1.878000000000000000e+03 7.538886260986328125e+01 1.263578224182128906e+01 1.339610200375318527e-02 7.573910713195800781e+00 2.276192188262939453e+00 7.046877592802047729e-02
1.879000000000000000e+03 7.396927642822265625e+01 1.535275936126708984e+01 1.314616110175848007e-02 7.624290466308593750e+00 2.291230916976928711e+00 1.018095985054969788e-01
1.880000000000000000e+03 7.406504058837890625e+01 8.418892860412597656e+00 2.639673836529254913e-02 7.549889564514160156e+00 2.272885799407958984e+00 5.703930929303169250e-02
1.881000000000000000e+03 7.341480255126953125e+01 2.531275939941406250e+01 -1.038668770343065262e-02 7.768352985382080078e+00 2.327389955520629883e+00 1.176012083888053894e-01
1.882000000000000000e+03 7.495861816406250000e+01 2.529388427734375000e+01 -6.711906287819147110e-03 7.768974304199218750e+00 2.328678846359252930e+00 9.663212299346923828e-02
1.883000000000000000e+03 7.546280670166015625e+01 -6.715643882751464844e+00 1.662953197956085205e-02 7.550687313079833984e+00 2.270195007324218750e+00 -6.212269887328147888e-02
1.884000000000000000e+03 7.414555358886718750e+01 -8.027936935424804688e+00 2.384485676884651184e-02 7.583671092987060547e+00 2.282254695892333984e+00 -8.608783036470413208e-02
1.885000000000000000e+03 7.408443450927734375e+01 -1.793655204772949219e+01 4.195082467049360275e-03 7.733912944793701172e+00 2.321432352066040039e+00 -1.309446394443511963e-01
1.886000000000000000e+03 7.408856201171875000e+01 -2.065595436096191406e+01 -1.740113599225878716e-03 7.781325340270996094e+00 2.333875656127929688e+00 -1.328650563955307007e-01
1.887000000000000000e+03 7.405546569824218750e+01 4.385560512542724609e+00 2.773326076567173004e-02 7.528887748718261719e+00 2.266986370086669922e+00 2.398318238556385040e-02
1.888000000000000000e+03 7.373103332519531250e+01 8.301621675491333008e-02 3.578151389956474304e-02 7.531926155090332031e+00 2.270312309265136719e+00 -1.714217104017734528e-02
1.889000000000000000e+03 7.371278381347656250e+01 1.540908575057983398e+00 3.360844030976295471e-02 7.530564785003662109e+00 2.269252061843872070e+00 -3.025014186277985573e-03
1.890000000000000000e+03 7.535095214843750000e+01 2.970728397369384766e+00 1.891148462891578674e-02 7.504061698913574219e+00 2.256891965866088867e+00 9.159769862890243530e-03
1.891000000000000000e+03 7.399363708496093750e+01 1.117249870300292969e+01 2.331511303782463074e-02 7.575017929077148438e+00 2.279499769210815430e+00 7.779732346534729004e-02
1.892000000000000000e+03 7.408358764648437500e+01 -2.654816150665283203e+00 3.026259131729602814e-02 7.537575721740722656e+00 2.270351648330688477e+00 -4.255495965480804443e-02
1.893000000000000000e+03 7.409854888916015625e+01 -3.970966815948486328e+00 2.635940350592136383e-02 7.545404911041259766e+00 2.271529436111450195e+00 -5.339721962809562683e-02
1.894000000000000000e+03 7.415396118164062500e+01 -6.653913497924804688e+00 2.397424541413784027e-02 7.568772792816162109e+00 2.277824163436889648e+00 -7.558517903089523315e-02
1.895000000000000000e+03 7.546511077880859375e+01 -5.340316295623779297e+00 1.530185341835021973e-02 7.536436080932617188e+00 2.265521287918090820e+00 -5.263652652502059937e-02
1.896000000000000000e+03 7.544167327880859375e+01 -1.794113922119140625e+01 4.403211176395416260e-03 7.731215476989746094e+00 2.320685625076293945e+00 -1.069417819380760193e-01
1.897000000000000000e+03 7.402217864990234375e+01 -1.654565811157226562e+01 9.350207634270191193e-03 7.709229469299316406e+00 2.315573930740356445e+00 -1.299927532672882080e-01
1.898000000000000000e+03 7.401049804687500000e+01 -1.084438896179199219e+01 1.986763440072536469e-02 7.621490478515625000e+00 2.292407512664794922e+00 -1.063401103019714355e-01
1.899000000000000000e+03 7.392930603027343750e+01 -1.226990509033203125e+01 1.591157354414463043e-02 7.642592906951904297e+00 2.297551393508911133e+00 -1.146492213010787964e-01
1.900000000000000000e+03 7.530078125000000000e+01 1.818171310424804688e+01 6.878902669996023178e-03 7.654036521911621094e+00 2.298274755477905273e+00 9.085280448198318481e-02
1.901000000000000000e+03 7.388902282714843750e+01 1.809637832641601562e+01 7.165824063122272491e-03 7.662430763244628906e+00 2.300879001617431641e+00 1.130241826176643372e-01
1.902000000000000000e+03 7.371392059326171875e+01 2.971522140502929688e+01 -1.908518373966217041e-02 7.822214126586914062e+00 2.340938806533813477e+00 9.772464632987976074e-02
1.903000000000000000e+03 7.391276550292968750e+01 -2.604303359985351562e+01 -1.288453210145235062e-02 7.872109413146972656e+00 2.357767343521118164e+00 -1.226098686456680298e-01
1.904000000000000000e+03 7.408819580078125000e+01 7.064978122711181641e+00 2.525359578430652618e-02 7.540342330932617188e+00 2.269678831100463867e+00 4.631397873163223267e-02
1.905000000000000000e+03 7.293215179443359375e+01 3.442528915405273438e+01 -3.050680458545684814e-02 7.865853309631347656e+00 2.350603818893432617e+00 6.848572939634323120e-02
1.906000000000000000e+03 7.537744903564453125e+01 -1.514848518371582031e+01 7.577515207231044769e-03 7.679571628570556641e+00 2.306144714355468750e+00 -1.022560298442840576e-01
1.907000000000000000e+03 7.390189361572265625e+01 -1.369889831542968750e+01 1.453853677958250046e-02 7.664386272430419922e+00 2.303677320480346680e+00 -1.217532679438591003e-01
1.908000000000000000e+03 7.397587585449218750e+01 1.396401691436767578e+01 1.898864842951297760e-02 7.605939865112304688e+00 2.287478446960449219e+00 9.455600380897521973e-02
1.909000000000000000e+03 7.382283782958984375e+01 2.088903045654296875e+01 1.167295617051422596e-03 7.702370643615722656e+00 2.311061382293701172e+00 1.195069849491119385e-01
1.910000000000000000e+03 7.386209869384765625e+01 1.948470497131347656e+01 7.266879081726074219e-03 7.681062698364257812e+00 2.306499004364013672e+00 1.145899891853332520e-01
1.911000000000000000e+03 7.394401550292968750e+01 -1.513030624389648438e+01 1.050634030252695084e-02 7.686089038848876953e+00 2.308978557586669922e+00 -1.258136183023452759e-01
1.912000000000000000e+03 7.399771881103515625e+01 -2.725158691406250000e+01 -1.333253085613250732e-02 7.887972354888916016e+00 2.362391948699951172e+00 -1.188511326909065247e-01
1.913000000000000000e+03 7.634576797485351562e+00 3.220894622802734375e+01 -2.953359782695770264e-01 3.262947559356689453e+00 8.902834653854370117e-01 -4.339432716369628906e-01
1.914000000000000000e+03 5.032866001129150391e+00 2.795536041259765625e+01 -2.845945060253143311e-01 2.489386320114135742e+00 6.614375114440917969e-01 -6.198586225509643555e-01
1.915000000000000000e+03 6.376358509063720703e+00 2.850163269042968750e+01 -3.259627521038055420e-01 2.949887990951538086e+00 7.871775627136230469e-01 -6.099602580070495605e-01
1.916000000000000000e+03 1.230187034606933594e+01 2.242421531677246094e+01 7.799664735794067383e-01 3.367802858352661133e+00 1.244330763816833496e+00 -5.157240629196166992e-01
1.917000000000000000e+03 1.110344886779785156e+01 2.639702987670898438e+01 -1.125298812985420227e-01 4.057406425476074219e+00 1.183462977409362793e+00 -3.608052730560302734e-01
1.918000000000000000e+03 7.646361827850341797e+00 3.034693145751953125e+01 -3.239361941814422607e-01 3.297493696212768555e+00 8.920672535896301270e-01 -5.173951387405395508e-01
1.919000000000000000e+03 5.543179035186767578e+00 3.105137062072753906e+01 -2.184810489416122437e-01 2.648245811462402344e+00 7.289294004440307617e-01 -5.062072277069091797e-01
1.920000000000000000e+03 4.895135402679443359e+00 1.511611747741699219e+01 1.377935528755187988e+00 3.343026161193847656e+00 1.416288495063781738e+00 1.483062505722045898e+00
1.921000000000000000e+03 4.827694892883300781e+00 9.608011245727539062e+00 -8.289055228233337402e-01 2.264102935791015625e+00 4.305591881275177002e-01 4.378199875354766846e-01
1.922000000000000000e+03 3.494812726974487305e+00 9.656447410583496094e+00 -6.015278100967407227e-01 1.388401269912719727e+00 2.360620498657226562e-01 4.898347854614257812e-01
1.923000000000000000e+03 5.735582351684570312e+00 1.029800987243652344e+01 -9.453879594802856445e-01 2.947340011596679688e+00 6.005855798721313477e-01 3.382349312305450439e-01
1.924000000000000000e+03 4.800551414489746094e+00 7.461175918579101562e+00 -7.128703594207763672e-01 1.982169747352600098e+00 3.807898461818695068e-01 -1.816877424716949463e-01
1.925000000000000000e+03 4.835659503936767578e+00 1.050024223327636719e+01 -9.179829359054565430e-01 2.598502874374389648e+00 5.041559934616088867e-01 4.919392168521881104e-01
1.926000000000000000e+03 1.465306377410888672e+01 2.220500946044921875e+01 4.622520506381988525e-01 4.399510860443115234e+00 1.458528876304626465e+00 -1.009960412979125977e+00
1.927000000000000000e+03 9.655452728271484375e+00 2.459831047058105469e+01 -1.536286436021327972e-02 3.900494337081909180e+00 1.165539503097534180e+00 -1.547199189662933350e-01
1.928000000000000000e+03 2.004112052917480469e+01 1.506479167938232422e+01 6.282687783241271973e-01 8.006386756896972656e+00 2.590396642684936523e+00 -1.134665608406066895e+00
1.929000000000000000e+03 2.088170051574707031e+01 1.372252845764160156e+01 7.048311829566955566e-01 8.479605674743652344e+00 2.755331039428710938e+00 -1.018823385238647461e+00
1.930000000000000000e+03 2.375486946105957031e+01 -1.087503337860107422e+01 7.220180630683898926e-01 8.714010238647460938e+00 2.830808401107788086e+00 2.149632126092910767e-01
1.931000000000000000e+03 5.692224502563476562e+00 1.362035751342773438e+01 -1.926403492689132690e-01 4.146436214447021484e+00 1.186138749122619629e+00 1.020839214324951172e+00
1.932000000000000000e+03 2.444661712646484375e+01 -9.767774581909179688e+00 9.313076138496398926e-01 8.800791740417480469e+00 2.919629812240600586e+00 2.021188139915466309e-01
1.933000000000000000e+03 2.405703353881835938e+01 -5.334424972534179688e+00 1.519460201263427734e+00 9.570178985595703125e+00 3.326891899108886719e+00 4.751821458339691162e-01
1.934000000000000000e+03 2.443103027343750000e+01 -3.363059043884277344e+00 1.410857915878295898e+00 9.799519538879394531e+00 3.363113164901733398e+00 3.639164865016937256e-01
1.935000000000000000e+03 2.286851882934570312e+01 8.949220657348632812e+00 1.167166113853454590e+00 9.564183235168457031e+00 3.219404935836791992e+00 -6.584742665290832520e-01
1.936000000000000000e+03 2.890997695922851562e+01 1.044267463684082031e+01 9.151746630668640137e-01 8.423071861267089844e+00 2.801473855972290039e+00 1.568470448255538940e-01
1.937000000000000000e+03 2.448568916320800781e+01 7.344801902770996094e+00 1.211114883422851562e+00 9.488595008850097656e+00 3.209912776947021484e+00 -3.775863945484161377e-01
1.938000000000000000e+03 1.756440734863281250e+01 1.873342895507812500e+01 1.318725496530532837e-01 6.209460258483886719e+00 1.902399778366088867e+00 -1.443558931350708008e+00
1.939000000000000000e+03 2.316249084472656250e+01 1.768040418624877930e+00 9.167321920394897461e-01 1.063298892974853516e+01 3.464916229248046875e+00 -1.643767207860946655e-01
1.940000000000000000e+03 2.192515754699707031e+01 1.527415961027145386e-02 6.170903444290161133e-01 1.131861114501953125e+01 3.580710411071777344e+00 8.952641487121582031e-02
1.941000000000000000e+03 2.424912071228027344e+01 -4.402741491794586182e-01 1.130342841148376465e+00 1.018331909179687500e+01 3.394098520278930664e+00 2.229674756526947021e-01
1.942000000000000000e+03 2.563714599609375000e+01 -2.524353027343750000e+00 1.354347944259643555e+00 9.532792091369628906e+00 3.266141891479492188e+00 2.779972255229949951e-01
1.943000000000000000e+03 1.660020065307617188e+01 -2.031932449340820312e+01 -3.342447802424430847e-02 5.187462329864501953e+00 1.546211361885070801e+00 1.153784632682800293e+00
1.944000000000000000e+03 2.244761657714843750e+01 1.069930553436279297e+01 1.007398247718811035e+00 9.202141761779785156e+00 3.062862157821655273e+00 -7.191125750541687012e-01
1.945000000000000000e+03 2.309530067443847656e+01 1.321117782592773438e+01 6.923750638961791992e-01 8.578471183776855469e+00 2.781253814697265625e+00 -4.909197390079498291e-01
1.946000000000000000e+03 2.513988685607910156e+01 -1.419890761375427246e+00 1.297907352447509766e+00 9.830824851989746094e+00 3.338619709014892578e+00 1.878802329301834106e-01
1.947000000000000000e+03 2.354499053955078125e+01 6.125648021697998047e-01 9.999817013740539551e-01 1.064279556274414062e+01 3.492833137512207031e+00 9.970987588167190552e-02
1.948000000000000000e+03 7.166548156738281250e+01 4.066913986206054688e+01 -4.730610921978950500e-02 7.883877277374267578e+00 2.350971460342407227e+00 2.194035798311233521e-02
1.949000000000000000e+03 2.032469177246093750e+01 1.709636497497558594e+01 2.568724751472473145e-01 7.549304962158203125e+00 2.341853141784667969e+00 -9.165869951248168945e-01
1.950000000000000000e+03 5.448996067047119141e+00 -2.754858493804931641e+00 4.460061788558959961e-01 9.427351355552673340e-01 4.166224002838134766e-01 8.642936348915100098e-01
1.951000000000000000e+03 5.666703701019287109e+00 -3.733030796051025391e+00 8.073095977306365967e-02 1.666693568229675293e+00 5.242273211479187012e-01 1.088645219802856445e+00
1.952000000000000000e+03 9.242037773132324219e+00 2.647063970565795898e+00 -5.171895772218704224e-02 6.906217098236083984e+00 2.056349277496337891e+00 -3.043436527252197266e+00
1.953000000000000000e+03 8.282581329345703125e+00 2.582333564758300781e+00 9.843898415565490723e-01 3.867215394973754883e+00 1.455481648445129395e+00 -2.973498582839965820e+00
1.954000000000000000e+03 8.059708595275878906e+00 2.380585193634033203e+00 1.346967816352844238e+00 3.087295055389404297e+00 1.330278873443603516e+00 -2.768051624298095703e+00
1.955000000000000000e+03 7.211889266967773438e+00 2.595043420791625977e+00 1.122327804565429688e+00 1.774444699287414551e+00 8.690317273139953613e-01 -1.884170889854431152e+00
1.956000000000000000e+03 6.934144973754882812e+00 2.287183523178100586e+00 1.230486869812011719e+00 1.248118042945861816e+00 7.435814738273620605e-01 -1.601921319961547852e+00
1.957000000000000000e+03 6.442545413970947266e+00 3.451056718826293945e+00 4.612863957881927490e-01 1.725048661231994629e+00 6.559005379676818848e-01 -1.452848553657531738e+00
1.958000000000000000e+03 1.176081752777099609e+01 4.081609725952148438e+00 -1.770995855331420898e+00 4.520277023315429688e+00 8.247843384742736816e-01 1.968736290931701660e+00
1.959000000000000000e+03 1.251964378356933594e+01 3.154220581054687500e+00 -7.802880406379699707e-01 3.068872213363647461e+00 6.865752339363098145e-01 3.090842723846435547e+00
1.960000000000000000e+03 4.677303314208984375e+00 -3.079887866973876953e+00 2.490985393524169922e-01 8.195203542709350586e-01 3.205856680870056152e-01 5.435393452644348145e-01
1.961000000000000000e+03 1.097174835205078125e+01 2.716528415679931641e+00 -1.183229446411132812e+00 8.528120994567871094e+00 2.203467369079589844e+00 1.168266534805297852e+00
1.962000000000000000e+03 3.753360986709594727e+00 2.519322395324707031e+00 2.306573092937469482e-01 2.359898984432220459e-01 1.399941593408584595e-01 -1.295772343873977661e-01
1.963000000000000000e+03 1.147412967681884766e+01 -2.677525281906127930e+00 -1.092842936515808105e+00 6.537014007568359375e+00 1.633251309394836426e+00 -2.034635305404663086e+00
1.964000000000000000e+03 1.042038726806640625e+01 -2.623008489608764648e+00 -1.546412110328674316e+00 9.559676170349121094e+00 2.403979063034057617e+00 7.655705213546752930e-01
1.965000000000000000e+03 1.152591991424560547e+01 2.057463645935058594e+00 3.416331708431243896e-01 7.992767810821533203e+00 2.500320196151733398e+00 2.974027633666992188e+00
1.966000000000000000e+03 1.249824428558349609e+01 2.356718540191650391e+00 5.489445924758911133e-01 3.463119745254516602e+00 1.203619241714477539e+00 3.525433301925659180e+00
1.967000000000000000e+03 4.808020114898681641e+00 2.464085578918457031e+00 4.227104783058166504e-01 4.097301661968231201e-01 2.497321963310241699e-01 -4.340501427650451660e-01
1.968000000000000000e+03 4.008266925811767578e+00 -4.793891429901123047e+00 -1.859454661607742310e-01 1.122050762176513672e+00 2.808316051959991455e-01 2.597483098506927490e-01
1.969000000000000000e+03 3.841990709304809570e+00 -6.779862403869628906e+00 -4.982754290103912354e-01 1.561542749404907227e+00 3.189802169799804688e-01 -1.221660152077674866e-01
1.970000000000000000e+03 9.718065261840820312e+00 -2.800751209259033203e+00 -1.225759625434875488e+00 8.254773139953613281e+00 2.108704090118408203e+00 2.603637456893920898e+00
1.971000000000000000e+03 9.908318519592285156e+00 2.616414785385131836e+00 -8.947457075119018555e-01 8.920185089111328125e+00 2.407631874084472656e+00 -1.843342781066894531e+00
1.972000000000000000e+03 2.842948913574218750e+00 -2.656575441360473633e+00 9.481659531593322754e-02 1.768933534622192383e-01 8.151298761367797852e-02 -4.901315644383430481e-02
1.973000000000000000e+03 4.381331443786621094e+00 2.715265274047851562e+00 3.526041507720947266e-01 3.927610814571380615e-01 2.236095666885375977e-01 -3.627163171768188477e-01
1.974000000000000000e+03 9.412590980529785156e+00 -2.838473558425903320e+00 -9.126347899436950684e-01 7.491466999053955078e+00 1.973649740219116211e+00 2.941858291625976562e+00
1.975000000000000000e+03 3.069500684738159180e+00 2.759176731109619141e+00 1.539655029773712158e-01 1.912428736686706543e-01 1.035625115036964417e-01 -5.421441793441772461e-02
1.976000000000000000e+03 1.110990238189697266e+01 -2.532955646514892578e+00 -1.219062089920043945e+00 8.227770805358886719e+00 2.102612495422363281e+00 -1.273374438285827637e+00
1.977000000000000000e+03 1.241947650909423828e+01 4.068504810333251953e+00 -1.347145795822143555e+00 2.735194683074951172e+00 4.164146780967712402e-01 2.527208089828491211e+00
1.978000000000000000e+03 1.192668151855468750e+01 3.057823657989501953e+00 -9.570092558860778809e-01 5.260385036468505859e+00 1.291012644767761230e+00 2.718654632568359375e+00
1.979000000000000000e+03 1.224601364135742188e+01 5.013633251190185547e+00 -1.583923816680908203e+00 2.514506578445434570e+00 2.791748642921447754e-01 1.840977787971496582e+00
1.980000000000000000e+03 2.713469743728637695e+00 3.348150968551635742e+00 1.192732602357864380e-01 2.051080614328384399e-01 9.731439501047134399e-02 -5.502051860094070435e-02
1.981000000000000000e+03 2.344528675079345703e+00 2.371816873550415039e+00 1.201389580965042114e-01 5.264591053128242493e-02 5.183545872569084167e-02 6.339696049690246582e-02
1.982000000000000000e+03 1.184007930755615234e+01 -1.054690599441528320e+00 4.632561683654785156e+00 6.316944599151611328e+00 3.284851789474487305e+00 -3.253358840942382812e+00
1.983000000000000000e+03 9.309739112854003906e+00 -5.359919071197509766e+00 -2.307772874832153320e+00 5.033277988433837891e+00 8.176515698432922363e-01 1.027592539787292480e+00
1.984000000000000000e+03 8.817911148071289062e+00 -6.708768367767333984e+00 -2.047365427017211914e+00 4.250073432922363281e+00 6.608123779296875000e-01 7.100594043731689453e-01
1.985000000000000000e+03 1.196983146667480469e+01 -2.732899188995361328e+00 -8.078067302703857422e-01 4.840712070465087891e+00 1.209871530532836914e+00 -2.877032041549682617e+00
1.986000000000000000e+03 1.227212047576904297e+01 -1.907743930816650391e+00 1.453743100166320801e+00 3.780004739761352539e+00 1.570124268531799316e+00 -3.308970451354980469e+00
1.987000000000000000e+03 3.050467014312744141e+00 -6.766875743865966797e+00 -3.474118709564208984e-01 9.158571958541870117e-01 1.705335974693298340e-01 -2.440639436244964600e-01
1.988000000000000000e+03 4.220521450042724609e+00 6.639492034912109375e+00 -4.155445694923400879e-01 1.432263731956481934e+00 3.050157427787780762e-01 -2.540294229984283447e-01
1.989000000000000000e+03 4.459057807922363281e+00 -8.453430175781250000e+00 -7.990130782127380371e-01 2.436898708343505859e+00 4.913657307624816895e-01 -4.565481543540954590e-01
1.990000000000000000e+03 1.527794361114501953e+00 2.298058271408081055e+00 6.300140917301177979e-02 -1.758348383009433746e-02 1.362537592649459839e-02 1.123735383152961731e-01
1.991000000000000000e+03 2.546880006790161133e+00 -4.746386051177978516e+00 -2.149436995387077332e-02 3.916276693344116211e-01 1.110399886965751648e-01 -5.178768560290336609e-02
1.992000000000000000e+03 1.051453876495361328e+01 -3.005379438400268555e+00 -2.028359651565551758e+00 8.158943176269531250e+00 1.839174866676330566e+00 5.123381018638610840e-01
1.993000000000000000e+03 1.036759567260742188e+01 -4.234508514404296875e+00 -2.619528532028198242e+00 5.785388469696044922e+00 9.497579932212829590e-01 3.499176204204559326e-01
1.994000000000000000e+03 9.987001419067382812e+00 -3.143582582473754883e+00 -1.843547463417053223e+00 7.931520462036132812e+00 1.826391935348510742e+00 1.654891848564147949e+00
1.995000000000000000e+03 8.035031318664550781e+00 8.416611671447753906e+00 -1.360459685325622559e+00 3.489131450653076172e+00 6.386015415191650391e-01 -3.553950190544128418e-01
1.996000000000000000e+03 8.868223190307617188e+00 8.903981208801269531e+00 -1.387682318687438965e+00 3.535589933395385742e+00 6.443722844123840332e-01 -3.829191923141479492e-01
1.997000000000000000e+03 1.197230815887451172e+01 5.955970287322998047e+00 -1.537469029426574707e+00 2.493291616439819336e+00 2.867467999458312988e-01 1.286398291587829590e+00
1.998000000000000000e+03 1.273835372924804688e+01 6.200032711029052734e+00 -1.172653555870056152e+00 1.192425012588500977e+00 5.931420717388391495e-03 1.362133264541625977e+00
1.999000000000000000e+03 1.236285400390625000e+01 7.230967521667480469e+00 -1.063548088073730469e+00 1.542007923126220703e+00 1.435379385948181152e-01 8.248280286788940430e-01
2.000000000000000000e+03 5.429280757904052734e+00 1.250145530700683594e+01 -6.811619997024536133e-01 3.655919313430786133e+00 8.924272060394287109e-01 7.460756897926330566e-01
2.001000000000000000e+03 5.122882843017578125e+00 1.149244785308837891e+01 -7.672482132911682129e-01 2.765452146530151367e+00 5.994611978530883789e-01 7.364934086799621582e-01
2.002000000000000000e+03 7.601417541503906250e+00 1.044143390655517578e+01 -1.387049794197082520e+00 3.872388839721679688e+00 7.456017136573791504e-01 -7.256335020065307617e-02
2.003000000000000000e+03 7.316485881805419922e+00 9.582348823547363281e+00 -1.225809335708618164e+00 3.479730367660522461e+00 6.761763095855712891e-01 -2.295747548341751099e-01
2.004000000000000000e+03 1.065645980834960938e+01 8.661813735961914062e+00 -1.285687088966369629e+00 2.861027956008911133e+00 4.726022779941558838e-01 -7.303465902805328369e-02
2.005000000000000000e+03 4.941653251647949219e+00 -1.030397891998291016e+01 -4.904122054576873779e-01 3.494196414947509766e+00 9.011352658271789551e-01 -6.419682502746582031e-01
2.006000000000000000e+03 4.781689643859863281e+00 8.195228576660156250e+00 -7.223429083824157715e-01 2.062191963195800781e+00 4.019546806812286377e-01 4.194223135709762573e-02
2.007000000000000000e+03 5.538088321685791016e+00 -3.232762575149536133e+00 3.272817432880401611e-01 1.278723716735839844e+00 4.818016588687896729e-01 1.018201708793640137e+00
2.008000000000000000e+03 2.762707471847534180e+00 4.839264392852783203e+00 4.158305749297142029e-02 4.273928701877593994e-01 1.406927704811096191e-01 -1.608817130327224731e-01
2.009000000000000000e+03 3.235488414764404297e+00 -5.107975959777832031e+00 -1.664968580007553101e-01 7.679067254066467285e-01 1.804229617118835449e-01 3.913684189319610596e-02
2.010000000000000000e+03 1.110716152191162109e+01 -2.584978675842285156e+01 -1.248446479439735413e-01 4.024007797241210938e+00 1.169748902320861816e+00 3.028809726238250732e-01
2.011000000000000000e+03 1.931190109252929688e+01 -1.700794029235839844e+01 -1.594940572977066040e-01 6.773286342620849609e+00 1.984137654304504395e+00 1.162930130958557129e+00
2.012000000000000000e+03 2.187402534484863281e+01 -1.179510402679443359e+01 5.089021325111389160e-01 8.478015899658203125e+00 2.696075439453125000e+00 7.418210506439208984e-01
2.013000000000000000e+03 7.075524139404296875e+01 -2.439881134033203125e+01 -1.917934231460094452e-02 7.827403068542480469e+00 2.342467069625854492e+00 -1.767061501741409302e-01
2.014000000000000000e+03 7.026490783691406250e+01 -3.168428993225097656e+01 -6.133816391229629517e-02 7.910048961639404297e+00 2.354613304138183594e+00 -1.299284994602203369e-01
2.015000000000000000e+03 8.793094635009765625e+00 -2.433181953430175781e+01 -2.917833030223846436e-01 3.742556810379028320e+00 1.035232067108154297e+00 2.734969556331634521e-01
2.016000000000000000e+03 6.215329647064208984e+00 -9.176144599914550781e+00 -9.906504750251770020e-01 4.241482257843017578e+00 9.752494692802429199e-01 4.348343703895807266e-03
2.017000000000000000e+03 3.913205385208129883e+00 -9.853897094726562500e+00 -4.871661663055419922e-01 2.077624559402465820e+00 4.771375656127929688e-01 -8.724720478057861328e-01
2.018000000000000000e+03 6.507783412933349609e+00 -2.495293998718261719e+01 -3.962879180908203125e-01 3.288595914840698242e+00 8.676923513412475586e-01 5.953551530838012695e-01
2.019000000000000000e+03 7.205610656738281250e+01 -3.397505569458007812e+01 -4.714450240135192871e-02 7.947740554809570312e+00 2.370178699493408203e+00 -9.046920388936996460e-02
2.020000000000000000e+03 1.069481372833251953e+01 2.143364334106445312e+01 1.261149406433105469e+00 3.295946836471557617e+00 1.367128849029541016e+00 6.817598938941955566e-01
2.021000000000000000e+03 7.260890960693359375e+01 -2.328606605529785156e+01 -9.774309583008289337e-03 7.820204257965087891e+00 2.343128919601440430e+00 -1.552286595106124878e-01
2.022000000000000000e+03 7.392559051513671875e+01 -2.473032569885253906e+01 -9.369119070470333099e-03 7.851246833801269531e+00 2.352563381195068359e+00 -1.287025064229965210e-01
2.023000000000000000e+03 7.682692527770996094e+00 -3.249902343750000000e+01 -2.560713589191436768e-01 3.399151563644409180e+00 9.429240822792053223e-01 4.149141907691955566e-01
2.024000000000000000e+03 9.960952758789062500e+00 -2.878089141845703125e+01 -2.924547195434570312e-01 3.905500411987304688e+00 1.083913683891296387e+00 4.337979555130004883e-01
2.025000000000000000e+03 7.241571044921875000e+01 -2.465739250183105469e+01 -1.661214977502822876e-02 7.840731143951416016e+00 2.347235679626464844e+00 -1.520788073539733887e-01
2.026000000000000000e+03 1.111454582214355469e+01 2.502723121643066406e+01 -2.175128273665904999e-02 4.065347671508789062e+00 1.213078856468200684e+00 -2.593107223510742188e-01
2.027000000000000000e+03 9.692045211791992188e+00 3.237733078002929688e+01 -3.519530296325683594e-01 3.783694982528686523e+00 1.029522657394409180e+00 -4.489374458789825439e-01
2.028000000000000000e+03 7.210650634765625000e+01 2.364097023010253906e+01 -6.689704023301601410e-03 7.744837284088134766e+00 2.321444272994995117e+00 1.390668898820877075e-01
2.029000000000000000e+03 7.076289367675781250e+01 1.787800979614257812e+01 1.796269975602626801e-02 7.675310611724853516e+00 2.307981967926025391e+00 1.522376537322998047e-01
2.030000000000000000e+03 7.254894256591796875e+01 1.528385066986083984e+01 2.423927932977676392e-02 7.633250236511230469e+00 2.297246932983398438e+00 1.188925579190254211e-01
2.031000000000000000e+03 7.108582305908203125e+01 9.480044364929199219e+00 4.965386912226676941e-02 7.590366363525390625e+00 2.292006015777587891e+00 8.846814185380935669e-02
2.032000000000000000e+03 7.262597656250000000e+01 8.284340858459472656e+00 3.672404959797859192e-02 7.566814899444580078e+00 2.281061649322509766e+00 6.605044007301330566e-02
2.033000000000000000e+03 7.287076568603515625e+01 -7.947614669799804688e+00 3.211824223399162292e-02 7.596242427825927734e+00 2.288508176803588867e+00 -9.884612262248992920e-02
2.034000000000000000e+03 7.277012634277343750e+01 -9.298867225646972656e+00 3.187149390578269958e-02 7.612005710601806641e+00 2.293163299560546875e+00 -1.115404441952705383e-01
2.035000000000000000e+03 7.258063507080078125e+01 -1.069912242889404297e+01 2.851014398038387299e-02 7.631324768066406250e+00 2.297950506210327148e+00 -1.244372725486755371e-01
2.036000000000000000e+03 7.142026519775390625e+01 3.275659322738647461e+00 5.740783736109733582e-02 7.560719013214111328e+00 2.285438060760498047e+00 1.781692728400230408e-02
2.037000000000000000e+03 7.220249176025390625e+01 1.804400682449340820e+00 5.033476278185844421e-02 7.550282001495361328e+00 2.280184984207153320e+00 -1.253780093975365162e-03
2.038000000000000000e+03 7.264871215820312500e+01 -1.565216541290283203e+00 4.446819424629211426e-02 7.549455165863037109e+00 2.278177022933959961e+00 -3.712796792387962341e-02
2.039000000000000000e+03 7.268222045898437500e+01 -2.713482379913330078e+00 4.248901829123497009e-02 7.556555747985839844e+00 2.279713392257690430e+00 -5.112440139055252075e-02
2.040000000000000000e+03 7.260760498046875000e+01 -3.983879566192626953e+00 4.293176531791687012e-02 7.564312934875488281e+00 2.282173395156860352e+00 -6.382822990417480469e-02
2.041000000000000000e+03 7.039920806884765625e+01 3.103992462158203125e+00 7.104244828224182129e-02 7.569703102111816406e+00 2.292223691940307617e+00 1.690859533846378326e-02
2.042000000000000000e+03 7.257107543945312500e+01 -1.660838890075683594e+01 1.126122940331697464e-02 7.714365482330322266e+00 2.317687988281250000e+00 -1.528878509998321533e-01
2.043000000000000000e+03 7.270428466796875000e+01 -1.798422241210937500e+01 8.091771043837070465e-03 7.735421657562255859e+00 2.323054075241088867e+00 -1.550613343715667725e-01
2.044000000000000000e+03 7.409595489501953125e+01 5.731635093688964844e+00 2.825357019901275635e-02 7.533606052398681641e+00 2.268557786941528320e+00 3.480388969182968140e-02
2.045000000000000000e+03 7.139039611816406250e+01 4.349476337432861328e+00 5.449331924319267273e-02 7.561894416809082031e+00 2.284916400909423828e+00 3.121379017829895020e-02
2.046000000000000000e+03 7.397589111328125000e+01 1.256748485565185547e+01 1.834589987993240356e-02 7.590058326721191406e+00 2.282521247863769531e+00 8.695383369922637939e-02
2.047000000000000000e+03 7.256939697265625000e+01 9.657325744628906250e+00 3.721940144896507263e-02 7.577493667602539062e+00 2.284414052963256836e+00 7.890056818723678589e-02
2.048000000000000000e+03 7.169442749023437500e+01 2.704720115661621094e+01 -2.342986501753330231e-02 7.788808822631835938e+00 2.329613685607910156e+00 1.325064450502395630e-01
2.049000000000000000e+03 7.240855407714843750e+01 -1.515994739532470703e+01 1.803914271295070648e-02 7.692626953125000000e+00 2.313199758529663086e+00 -1.505823880434036255e-01
2.050000000000000000e+03 7.235101318359375000e+01 -2.614048767089843750e+01 -1.873407512903213501e-02 7.860065460205078125e+00 2.352399349212646484e+00 -1.471969336271286011e-01
2.051000000000000000e+03 7.278401947021484375e+01 -2.750533294677734375e+01 -2.326534502208232880e-02 7.881504535675048828e+00 2.357471704483032227e+00 -1.366949081420898438e-01
2.052000000000000000e+03 1.333550834655761719e+01 -2.286660385131835938e+01 1.679925322532653809e-01 4.041148185729980469e+00 1.262742161750793457e+00 6.689519286155700684e-01
2.053000000000000000e+03 1.377708816528320312e+01 -2.170842170715332031e+01 3.035280704498291016e-01 4.090730667114257812e+00 1.318277716636657715e+00 8.770833015441894531e-01
2.054000000000000000e+03 6.706676959991455078e+00 2.628646278381347656e+01 -3.957818448543548584e-01 3.251303434371948242e+00 8.566564321517944336e-01 -5.685303807258605957e-01
2.055000000000000000e+03 6.542493820190429688e+00 2.470968055725097656e+01 -5.386008024215698242e-01 3.358676195144653320e+00 8.460226058959960938e-01 -6.454906463623046875e-01
2.056000000000000000e+03 2.516016960144042969e+01 8.841788768768310547e-01 1.216915965080261230e+00 9.779839515686035156e+00 3.299026727676391602e+00 2.274041995406150818e-02
2.057000000000000000e+03 2.406645965576171875e+01 2.772469520568847656e+00 1.097916603088378906e+00 1.020453929901123047e+01 3.390736579895019531e+00 -1.802035123109817505e-01
2.058000000000000000e+03 6.436037540435791016e+00 2.038160514831542969e+01 1.579789817333221436e-01 5.941599369049072266e+00 1.829873442649841309e+00 -6.119847893714904785e-01
2.059000000000000000e+03 7.143930435180664062e+00 2.766394424438476562e+01 -4.326941668987274170e-01 3.251883268356323242e+00 8.457567691802978516e-01 -5.997195839881896973e-01
2.060000000000000000e+03 4.869622230529785156e+00 8.899221420288085938e+00 -9.058760404586791992e-01 2.306182146072387695e+00 4.200918078422546387e-01 1.060897633433341980e-01
2.061000000000000000e+03 6.101632118225097656e+00 8.652089118957519531e+00 -1.205355167388916016e+00 2.979574441909790039e+00 5.322657823562622070e-01 -8.827181905508041382e-02
2.062000000000000000e+03 5.980746746063232422e+00 1.118543052673339844e+01 -1.152594804763793945e+00 3.597000122070312500e+00 7.333215475082397461e-01 3.767574727535247803e-01
2.063000000000000000e+03 2.175613594055175781e+01 -1.369421195983886719e+01 1.351657062768936157e-01 8.109896659851074219e+00 2.473518610000610352e+00 7.233117818832397461e-01
2.064000000000000000e+03 2.541049385070800781e+01 -8.698655128479003906e+00 1.096746444702148438e+00 8.826126098632812500e+00 2.976861715316772461e+00 2.071739733219146729e-02
2.065000000000000000e+03 1.054297542572021484e+01 -2.157576942443847656e+01 6.354960203170776367e-01 3.002972126007080078e+00 1.091540455818176270e+00 -6.266176234930753708e-03
2.066000000000000000e+03 9.832334518432617188e+00 -2.313170242309570312e+01 6.012250855565071106e-02 3.933698177337646484e+00 1.198146224021911621e+00 -1.233541220426559448e-01
2.067000000000000000e+03 2.551834487915039062e+01 2.536701679229736328e+00 1.232991814613342285e+00 9.700460433959960938e+00 3.280035734176635742e+00 -7.131636887788772583e-02
2.068000000000000000e+03 2.602875328063964844e+01 5.850528717041015625e+00 1.241472721099853516e+00 9.263931274414062500e+00 3.151621103286743164e+00 -1.663554757833480835e-01
2.069000000000000000e+03 6.993939208984375000e+01 2.957337760925292969e+01 -4.571656137704849243e-02 7.812100887298583984e+00 2.329915285110473633e+00 1.364429295063018799e-01
2.070000000000000000e+03 1.741621398925781250e+01 -2.238752746582031250e+01 -2.222581952810287476e-01 5.431673049926757812e+00 1.562824487686157227e+00 8.904154300689697266e-01
2.071000000000000000e+03 1.852407455444335938e+01 -1.828893661499023438e+01 -1.268580704927444458e-01 6.190617084503173828e+00 1.819127678871154785e+00 1.203726768493652344e+00
2.072000000000000000e+03 8.074007987976074219e+00 2.452510833740234375e+01 -3.240762650966644287e-01 3.902122974395751953e+00 1.073414087295532227e+00 -2.142477631568908691e-01
2.073000000000000000e+03 1.376412677764892578e+01 2.336334419250488281e+01 3.555123209953308105e-01 4.374251365661621094e+00 1.418929100036621094e+00 -6.567322015762329102e-01
2.074000000000000000e+03 1.818001937866210938e+01 -1.610758590698242188e+01 7.835448533296585083e-02 6.355894565582275391e+00 1.930274724960327148e+00 1.419614315032958984e+00
2.075000000000000000e+03 1.834748268127441406e+01 1.750839805603027344e+01 3.307299315929412842e-01 6.780924320220947266e+00 2.133496284484863281e+00 -1.346574068069458008e+00
2.076000000000000000e+03 1.567600536346435547e+01 2.108527565002441406e+01 2.892504632472991943e-01 4.959712982177734375e+00 1.574689030647277832e+00 -1.251574158668518066e+00
2.077000000000000000e+03 2.250343322753906250e+01 1.722199630737304688e+01 1.293655037879943848e-01 7.805469989776611328e+00 2.380450487136840820e+00 -4.750187397003173828e-01
2.078000000000000000e+03 1.585616493225097656e+01 -2.166922378540039062e+01 -7.125780917704105377e-03 4.897809982299804688e+00 1.467205166816711426e+00 1.023461461067199707e+00
2.079000000000000000e+03 1.967639923095703125e+01 -2.082329940795898438e+01 -3.535059094429016113e-01 6.258045196533203125e+00 1.771361827850341797e+00 8.560914993286132812e-01
2.080000000000000000e+03 7.230836486816406250e+01 -1.364772415161132812e+01 2.062689885497093201e-02 7.671463489532470703e+00 2.307627201080322266e+00 -1.439164876937866211e-01
2.081000000000000000e+03 1.606810188293457031e+01 2.322378540039062500e+01 6.505695730447769165e-02 5.171932697296142578e+00 1.571096897125244141e+00 -9.007699489593505859e-01
2.082000000000000000e+03 7.286172485351562500e+01 -6.631031513214111328e+00 3.573916852474212646e-02 7.583263397216796875e+00 2.285700798034667969e+00 -8.791641891002655029e-02
2.083000000000000000e+03 7.766888141632080078e+00 -2.617042160034179688e+01 -3.763532340526580811e-01 3.502613067626953125e+00 9.378779530525207520e-01 4.469601511955261230e-01
2.084000000000000000e+03 7.252849578857421875e+01 1.389883422851562500e+01 2.399850822985172272e-02 7.618335247039794922e+00 2.292700290679931641e+00 1.109519153833389282e-01
2.085000000000000000e+03 7.123487091064453125e+01 2.080630683898925781e+01 3.461100393906235695e-03 7.708601951599121094e+00 2.313618898391723633e+00 1.549199670553207397e-01
2.086000000000000000e+03 7.096862792968750000e+01 1.645116615295410156e+01 2.843115665018558502e-02 7.656896114349365234e+00 2.305598258972167969e+00 1.435125619173049927e-01
2.087000000000000000e+03 7.537568092346191406e+00 2.181539916992187500e+01 -1.141565442085266113e-01 4.613976955413818359e+00 1.349946022033691406e+00 2.731197476387023926e-01
2.088000000000000000e+03 7.186040496826171875e+01 2.882369804382324219e+01 -2.519204840064048767e-02 7.806268215179443359e+00 2.334322929382324219e+00 1.205627247691154480e-01
2.089000000000000000e+03 8.585839271545410156e+00 2.706962585449218750e+00 6.633148789405822754e-01 4.767424583435058594e+00 1.629221916198730469e+00 -3.064238309860229492e+00
2.090000000000000000e+03 6.135212898254394531e+00 2.740931987762451172e+00 8.048372864723205566e-01 1.045302391052246094e+00 5.550419092178344727e-01 -1.161319017410278320e+00
2.091000000000000000e+03 7.342314720153808594e+00 2.430824041366577148e+00 1.281111240386962891e+00 1.822465181350708008e+00 9.310729503631591797e-01 -2.026242017745971680e+00
2.092000000000000000e+03 9.572126388549804688e+00 3.023717403411865234e+00 -8.823866844177246094e-01 7.412804126739501953e+00 1.959125161170959473e+00 -2.160361766815185547e+00
2.093000000000000000e+03 7.870632171630859375e+00 2.473002433776855469e+00 1.321387767791748047e+00 2.847331523895263672e+00 1.250615715980529785e+00 -2.619860887527465820e+00
2.094000000000000000e+03 7.822338581085205078e+00 2.782684326171875000e+00 8.804275393486022949e-01 3.023648738861083984e+00 1.171222925186157227e+00 -2.523808002471923828e+00
2.095000000000000000e+03 6.923283100128173828e+00 2.941878318786621094e+00 8.403421044349670410e-01 1.826478719711303711e+00 8.000462651252746582e-01 -1.715216517448425293e+00
2.096000000000000000e+03 8.486781120300292969e+00 7.606849193572998047e+00 -1.543216347694396973e+00 3.662009954452514648e+00 6.356380581855773926e-01 -4.717987179756164551e-01
2.097000000000000000e+03 9.923646926879882812e+00 3.105352401733398438e+00 -1.388046860694885254e+00 7.965256214141845703e+00 1.973162770271301270e+00 -1.397974133491516113e+00
2.098000000000000000e+03 4.035414695739746094e+00 -2.502732515335083008e+00 2.330563366413116455e-01 3.871016502380371094e-01 1.860473901033401489e-01 1.941845864057540894e-01
2.099000000000000000e+03 3.823130130767822266e+00 -2.900797128677368164e+00 1.401651501655578613e-01 4.428831040859222412e-01 1.749144792556762695e-01 1.879035234451293945e-01
2.100000000000000000e+03 5.134847164154052734e+00 -2.637583017349243164e+00 3.905628621578216553e-01 7.612771391868591309e-01 3.455519974231719971e-01 6.971174478530883789e-01
2.101000000000000000e+03 9.760998725891113281e+00 -4.249000072479248047e+00 -2.351198434829711914e+00 5.932096481323242188e+00 1.074269413948059082e+00 1.228067278861999512e+00
2.102000000000000000e+03 1.083527469635009766e+01 3.607463359832763672e+00 -1.894566297531127930e+00 6.814694404602050781e+00 1.476038336753845215e+00 6.314856410026550293e-01
2.103000000000000000e+03 1.119612598419189453e+01 3.171043395996093750e+00 -1.538109660148620605e+00 7.122284889221191406e+00 1.675252556800842285e+00 1.536136865615844727e+00
2.104000000000000000e+03 3.129362821578979492e+00 -3.091541290283203125e+00 9.305706620216369629e-02 3.066383600234985352e-01 1.199086308479309082e-01 4.961383715271949768e-02
2.105000000000000000e+03 3.536074876785278320e+00 3.193378686904907227e+00 2.184637784957885742e-01 3.574784100055694580e-01 1.727826595306396484e-01 -1.906934678554534912e-01
2.106000000000000000e+03 5.131825447082519531e+00 2.830009698867797852e+00 5.013712048530578613e-01 6.527473330497741699e-01 3.462355434894561768e-01 -6.142120957374572754e-01
2.107000000000000000e+03 2.240231752395629883e+00 3.476067543029785156e+00 9.570682793855667114e-02 1.178476288914680481e-01 6.406633555889129639e-02 -9.177964180707931519e-03
2.108000000000000000e+03 8.068662643432617188e+00 -5.888117790222167969e+00 -1.883374810218811035e+00 4.322845935821533203e+00 7.318412661552429199e-01 1.170840024948120117e+00
2.109000000000000000e+03 8.741020202636718750e+00 -5.131083488464355469e+00 -1.975742101669311523e+00 4.850801944732666016e+00 8.625180125236511230e-01 1.465487957000732422e+00
2.110000000000000000e+03 5.810227394104003906e+00 -2.689256906509399414e+00 5.826461315155029297e-01 1.084986686706542969e+00 5.002898573875427246e-01 1.096275687217712402e+00
2.111000000000000000e+03 6.925677299499511719e+00 -2.841988563537597656e+00 7.342516183853149414e-01 2.104444503784179688e+00 8.516088724136352539e-01 2.081613540649414062e+00
2.112000000000000000e+03 1.015255546569824219e+01 -2.900704622268676758e+00 -1.796556711196899414e+00 8.671734809875488281e+00 2.062553405761718750e+00 1.492286801338195801e+00
2.113000000000000000e+03 8.713929176330566406e+00 -3.108477115631103516e+00 -3.964434862136840820e-01 5.422949790954589844e+00 1.507951974868774414e+00 3.160756587982177734e+00
2.114000000000000000e+03 2.965157032012939453e+00 -4.083653450012207031e+00 -1.553735788911581039e-02 4.167716205120086670e-01 1.203702837228775024e-01 4.693996533751487732e-02
2.115000000000000000e+03 1.186265754699707031e+01 1.936401605606079102e+00 1.131893754005432129e+00 6.488083839416503906e+00 2.285993337631225586e+00 3.561829566955566406e+00
2.116000000000000000e+03 3.417185306549072266e+00 2.642254590988159180e+00 2.074781060218811035e-01 2.065933346748352051e-01 1.242214292287826538e-01 -9.474498778581619263e-02
2.117000000000000000e+03 3.123927593231201172e+00 3.300695419311523438e+00 1.993936002254486084e-01 3.090944588184356689e-01 1.525464206933975220e-01 -1.160307824611663818e-01
2.118000000000000000e+03 9.361076354980468750e+00 -3.711234331130981445e+00 -1.807271122932434082e+00 6.302538871765136719e+00 1.348580360412597656e+00 2.028757810592651367e+00
2.119000000000000000e+03 1.011505603790283203e+01 -3.725931882858276367e+00 -2.424295425415039062e+00 6.914041519165039062e+00 1.346923828125000000e+00 8.606936335563659668e-01
2.120000000000000000e+03 7.404618263244628906e+00 -7.048302650451660156e+00 -1.573991060256958008e+00 4.056001663208007812e+00 7.446031570434570312e-01 7.632465362548828125e-01
2.121000000000000000e+03 8.517477989196777344e+00 -6.265091896057128906e+00 -1.935979247093200684e+00 4.402168273925781250e+00 7.398566603660583496e-01 8.947821855545043945e-01
2.122000000000000000e+03 9.606719970703125000e+00 -4.780844211578369141e+00 -2.362095117568969727e+00 5.386384963989257812e+00 9.072869420051574707e-01 1.136142849922180176e+00
2.123000000000000000e+03 7.134951114654541016e+00 -7.765410900115966797e+00 -1.423717975616455078e+00 4.270275115966796875e+00 8.539671301841735840e-01 4.985470473766326904e-01
2.124000000000000000e+03 8.700704574584960938e+00 -4.614074230194091797e+00 -1.794523715972900391e+00 5.060896396636962891e+00 9.799118638038635254e-01 1.734025716781616211e+00
2.125000000000000000e+03 8.940274238586425781e+00 -5.881250381469726562e+00 -2.254387617111206055e+00 4.547322750091552734e+00 6.878805756568908691e-01 9.180054068565368652e-01
2.126000000000000000e+03 3.809510707855224609e+00 -6.004031658172607422e+00 -3.712649345397949219e-01 1.313406109809875488e+00 2.826423645019531250e-01 2.296032570302486420e-02
2.127000000000000000e+03 7.669028282165527344e+00 -6.389202117919921875e+00 -1.670235395431518555e+00 4.280257225036621094e+00 7.830065488815307617e-01 9.427655935287475586e-01
2.128000000000000000e+03 3.817158937454223633e+00 5.690482616424560547e+00 -1.787674427032470703e-01 1.000129461288452148e+00 2.464086264371871948e-01 -3.078134059906005859e-01
2.129000000000000000e+03 1.162058639526367188e+01 6.894958496093750000e+00 -1.518646359443664551e+00 2.575974464416503906e+00 3.171984553337097168e-01 7.337154150009155273e-01
2.130000000000000000e+03 9.976102828979492188e+00 8.197122573852539062e+00 -1.453338265419006348e+00 3.244939804077148438e+00 5.374804735183715820e-01 -9.805647283792495728e-02
2.131000000000000000e+03 8.751910209655761719e+00 8.176859855651855469e+00 -1.596677064895629883e+00 3.621605634689331055e+00 6.074785590171813965e-01 -2.703531384468078613e-01
2.132000000000000000e+03 3.257349014282226562e+00 5.349717140197753906e+00 -2.150784432888031006e-02 7.239455580711364746e-01 2.107313126325607300e-01 -1.786327213048934937e-01
2.133000000000000000e+03 4.186455726623535156e+00 3.203199625015258789e+00 3.273799717426300049e-01 5.250686407089233398e-01 2.557345926761627197e-01 -3.402068316936492920e-01
2.134000000000000000e+03 3.963479518890380859e+00 -9.058079719543457031e+00 -5.255418419837951660e-01 2.066492557525634766e+00 4.622851908206939697e-01 -6.239049434661865234e-01
2.135000000000000000e+03 4.740774631500244141e+00 -7.395931243896484375e+00 -8.293460011482238770e-01 2.512580871582031250e+00 5.049704909324645996e-01 -9.861238300800323486e-02
2.136000000000000000e+03 5.625781059265136719e+00 -8.612148284912109375e+00 -1.070269703865051270e+00 3.533824205398559570e+00 7.390663027763366699e-01 -1.939863711595535278e-01
2.137000000000000000e+03 5.618934631347656250e+00 -7.655351638793945312e+00 -1.097115397453308105e+00 3.241636514663696289e+00 6.433563232421875000e-01 5.516747385263442993e-02
2.138000000000000000e+03 1.117394542694091797e+01 7.801565647125244141e+00 -1.317533254623413086e+00 2.590866804122924805e+00 3.820000886917114258e-01 3.003132641315460205e-01
2.139000000000000000e+03 9.348058700561523438e+00 6.534876346588134766e+00 -1.784992814064025879e+00 4.100352287292480469e+00 6.946078538894653320e-01 -4.110852181911468506e-01
2.140000000000000000e+03 2.395246982574462891e+00 4.168989181518554688e+00 8.068145811557769775e-02 2.679560184478759766e-01 1.045912429690361023e-01 -6.937898695468902588e-02
2.141000000000000000e+03 6.531010627746582031e+00 7.966990947723388672e+00 -1.222725749015808105e+00 3.059960126876831055e+00 5.511703491210937500e-01 -3.196332752704620361e-01
2.142000000000000000e+03 6.539209842681884766e+00 9.997463226318359375e+00 -1.336260437965393066e+00 3.493345499038696289e+00 6.471254825592041016e-01 1.023879572749137878e-01
2.143000000000000000e+03 7.108244323730468750e+01 -1.681274604797363281e+01 1.513841003179550171e-02 7.721105098724365234e+00 2.320873022079467773e+00 -1.747524291276931763e-01
2.144000000000000000e+03 5.590014457702636719e+00 9.512004852294921875e+00 -1.137590885162353516e+00 2.895563125610351562e+00 5.273916721343994141e-01 1.676360070705413818e-01
2.145000000000000000e+03 7.779566764831542969e+00 -2.323069572448730469e+01 -2.478713393211364746e-01 3.891888856887817383e+00 1.093205213546752930e+00 1.376482099294662476e-01
2.146000000000000000e+03 7.152708435058593750e+01 -9.103502273559570312e+00 4.100978747010231018e-02 7.619399070739746094e+00 2.298122644424438477e+00 -1.228328049182891846e-01
2.147000000000000000e+03 7.258901977539062500e+01 3.116987228393554688e+00 4.280775412917137146e-02 7.545377254486083984e+00 2.276455402374267578e+00 1.553096249699592590e-02
2.148000000000000000e+03 7.076062011718750000e+01 -1.280718922615051270e+00 7.030789554119110107e-02 7.570892333984375000e+00 2.292360067367553711e+00 -4.213720187544822693e-02
2.149000000000000000e+03 7.155844879150390625e+01 -2.255362272262573242e+00 5.487858876585960388e-02 7.567661762237548828e+00 2.286762237548828125e+00 -5.145864933729171753e-02
2.150000000000000000e+03 6.806305885314941406e+00 1.084641075134277344e+01 -1.017422318458557129e+00 3.606168508529663086e+00 7.766238451004028320e-01 3.887979686260223389e-02
2.151000000000000000e+03 6.740311622619628906e+00 -8.495799064636230469e+00 -1.261311411857604980e+00 4.156140804290771484e+00 8.684488534927368164e-01 2.314363569021224976e-01
2.152000000000000000e+03 7.271246337890625000e+01 5.663154125213623047e+00 3.873956203460693359e-02 7.551411151885986328e+00 2.277045249938964844e+00 4.062916710972785950e-02
2.153000000000000000e+03 6.986935424804687500e+01 5.291143417358398438e+00 7.190486043691635132e-02 7.578773498535156250e+00 2.295203447341918945e+00 4.643435776233673096e-02
2.154000000000000000e+03 7.141521453857421875e+01 -5.501661300659179688e+00 5.111487582325935364e-02 7.587348937988281250e+00 2.291539192199707031e+00 -8.891396224498748779e-02
2.155000000000000000e+03 7.249971008300781250e+01 1.248393917083740234e+01 3.098255023360252380e-02 7.603528976440429688e+00 2.290353536605834961e+00 1.018552482128143311e-01
2.156000000000000000e+03 7.098616027832031250e+01 1.092610168457031250e+01 4.817916452884674072e-02 7.602596282958984375e+00 2.295232772827148438e+00 1.034357920289039612e-01
2.157000000000000000e+03 7.105934143066406250e+01 -4.287673473358154297e+00 5.801660194993019104e-02 7.581588745117187500e+00 2.291881561279296875e+00 -7.729576528072357178e-02
2.158000000000000000e+03 7.066993713378906250e+01 -1.189192485809326172e+01 3.798107802867889404e-02 7.656998157501220703e+00 2.308493852615356445e+00 -1.565748900175094604e-01
2.159000000000000000e+03 7.095984649658203125e+01 1.241808032989501953e+01 4.022996127605438232e-02 7.615746498107910156e+00 2.296792984008789062e+00 1.163885518908500671e-01
2.160000000000000000e+03 7.129269409179687500e+01 -1.930854225158691406e+01 4.189424216747283936e-03 7.757123470306396484e+00 2.328393936157226562e+00 -1.778276413679122925e-01
2.161000000000000000e+03 7.269506835937500000e+01 -2.063270950317382812e+01 2.494264626875519753e-04 7.777190685272216797e+00 2.333231925964355469e+00 -1.554169952869415283e-01
2.162000000000000000e+03 7.248223876953125000e+01 2.080486488342285156e+01 5.979145877063274384e-03 7.704241275787353516e+00 2.313066005706787109e+00 1.362828016281127930e-01
2.163000000000000000e+03 7.096893310546875000e+01 1.947175216674804688e+01 1.321145705878734589e-02 7.692562103271484375e+00 2.311732053756713867e+00 1.527519524097442627e-01
2.164000000000000000e+03 7.564871788024902344e+00 2.886042022705078125e+01 -3.280912637710571289e-01 3.356831312179565430e+00 9.086220264434814453e-01 -5.062006711959838867e-01
2.165000000000000000e+03 1.122268295288085938e+01 2.970871925354003906e+01 -3.650423884391784668e-01 4.109445095062255859e+00 1.123320698738098145e+00 -5.022865533828735352e-01
2.166000000000000000e+03 4.187641620635986328e+00 -1.071871948242187500e+01 -3.211216330528259277e-01 2.723417043685913086e+00 7.206886410713195801e-01 -9.065706133842468262e-01
2.167000000000000000e+03 7.177371978759765625e+01 -2.853985595703125000e+01 -3.304001688957214355e-02 7.886156082153320312e+00 2.355934858322143555e+00 -1.416714340448379517e-01
2.168000000000000000e+03 6.977003479003906250e+01 -3.354218673706054688e+01 -6.875827163457870483e-02 7.921972751617431641e+00 2.355964422225952148e+00 -1.116743907332420349e-01
2.169000000000000000e+03 6.989572143554687500e+01 2.714304161071777344e+01 -3.379573673009872437e-02 7.784109115600585938e+00 2.325093984603881836e+00 1.573035567998886108e-01
2.170000000000000000e+03 2.444183921813964844e+01 5.755969047546386719e+00 1.179907083511352539e+00 9.702327728271484375e+00 3.264670610427856445e+00 -3.415208458900451660e-01
2.171000000000000000e+03 2.579642105102539062e+01 -1.086074638366699219e+01 6.816198825836181641e-01 8.498128890991210938e+00 2.753924608230590820e+00 -8.462262153625488281e-02
2.172000000000000000e+03 1.005773735046386719e+01 2.297374725341796875e+01 1.057700812816619873e-01 3.994139194488525391e+00 1.229972720146179199e+00 1.338670402765274048e-01
2.173000000000000000e+03 7.167884826660156250e+01 -7.879169464111328125e+00 4.392554238438606262e-02 7.605301380157470703e+00 2.294768095016479492e+00 -1.102497503161430359e-01
2.174000000000000000e+03 7.130648040771484375e+01 5.525862216949462891e+00 5.608672276139259338e-02 7.567287921905517578e+00 2.287012338638305664e+00 4.418445378541946411e-02
2.175000000000000000e+03 6.964682769775390625e+01 9.265747070312500000e+00 6.925137341022491455e-02 7.598673343658447266e+00 2.300377368927001953e+00 9.543053060770034790e-02
2.176000000000000000e+03 2.113877868652343750e+01 1.822678184509277344e+01 -6.541473325341939926e-03 7.430896282196044922e+00 2.227306604385375977e+00 -7.135168313980102539e-01
2.177000000000000000e+03 2.128880691528320312e+01 1.600430107116699219e+01 3.019106090068817139e-01 7.923707008361816406e+00 2.467685222625732422e+00 -7.845847010612487793e-01
2.178000000000000000e+03 2.287476348876953125e+01 2.852584838867187500e+00 9.937088489532470703e-01 1.071788597106933594e+01 3.513478517532348633e+00 -3.293435275554656982e-01
2.179000000000000000e+03 2.295380973815917969e+01 -8.811800956726074219e+00 1.140698075294494629e+00 9.296884536743164062e+00 3.131274938583374023e+00 3.847330212593078613e-01
2.180000000000000000e+03 2.536199188232421875e+01 -4.345921039581298828e+00 1.476989626884460449e+00 9.437786102294921875e+00 3.274432659149169922e+00 2.673261761665344238e-01
2.181000000000000000e+03 2.450556564331054688e+01 1.430887508392333984e+01 5.437363386154174805e-01 8.359690666198730469e+00 2.671027898788452148e+00 -2.117325216531753540e-01
2.182000000000000000e+03 1.533198451995849609e+01 -2.679905319213867188e+01 -2.618626058101654053e-01 4.958790302276611328e+00 1.409078240394592285e+00 5.345148444175720215e-01
2.183000000000000000e+03 7.104302978515625000e+01 1.389032268524169922e+01 3.699477761983871460e-02 7.629029273986816406e+00 2.299807310104370117e+00 1.266608089208602905e-01
2.184000000000000000e+03 2.433250999450683594e+01 4.227838993072509766e+00 1.174358248710632324e+00 9.950408935546875000e+00 3.337430238723754883e+00 -2.684689760208129883e-01
2.185000000000000000e+03 2.609407424926757812e+01 7.429558277130126953e+00 1.172968268394470215e+00 9.045203208923339844e+00 3.065451383590698242e+00 -1.459710896015167236e-01
2.186000000000000000e+03 6.867964172363281250e+01 -1.392688369750976562e+01 4.057752341032028198e-02 7.686950206756591797e+00 2.318258285522460938e+00 -1.934087872505187988e-01
2.187000000000000000e+03 7.078019714355468750e+01 -1.531169509887695312e+01 2.169196866452693939e-02 7.701555728912353516e+00 2.316974401473999023e+00 -1.748176962137222290e-01
2.188000000000000000e+03 1.967237854003906250e+01 1.815482521057128906e+01 4.052447155117988586e-02 7.122316360473632812e+00 2.148852348327636719e+00 -1.019319176673889160e+00
2.189000000000000000e+03 9.438408851623535156e+00 -3.150584411621093750e+01 -2.836287915706634521e-01 3.784430980682373047e+00 1.050240635871887207e+00 4.231000840663909912e-01
2.190000000000000000e+03 1.085429477691650391e+01 -2.758515167236328125e+01 -2.973752617835998535e-01 4.014505386352539062e+00 1.115139126777648926e+00 4.576024711132049561e-01
2.191000000000000000e+03 2.174853515625000000e+01 -2.110444450378417969e+01 -4.475612640380859375e-01 6.799960136413574219e+00 1.905719757080078125e+00 6.025446653366088867e-01
2.192000000000000000e+03 2.036786270141601562e+01 -1.608393096923828125e+01 -8.437841385602951050e-02 7.232553005218505859e+00 2.144452333450317383e+00 9.620308279991149902e-01
2.193000000000000000e+03 7.118299102783203125e+01 -2.063821220397949219e+01 -2.305816393345594406e-03 7.775298118591308594e+00 2.331897735595703125e+00 -1.778396070003509521e-01
2.194000000000000000e+03 2.052597999572753906e+01 -1.751209831237792969e+01 -2.121474295854568481e-01 7.044136047363281250e+00 2.049596548080444336e+00 9.243825674057006836e-01
2.195000000000000000e+03 9.882506370544433594e+00 3.496823501586914062e+01 -3.439388573169708252e-01 3.771636962890625000e+00 1.028309464454650879e+00 -3.305110335350036621e-01
2.196000000000000000e+03 5.134055614471435547e+00 3.405251312255859375e+01 -1.429881602525711060e-01 2.613476753234863281e+00 7.411465644836425781e-01 -3.425784409046173096e-01
2.197000000000000000e+03 1.792746162414550781e+01 -2.068111038208007812e+01 -1.886065304279327393e-01 5.779298305511474609e+00 1.677207589149475098e+00 1.045761108398437500e+00
2.198000000000000000e+03 8.490736961364746094e+00 -3.477472686767578125e+01 -2.369444966316223145e-01 3.658744573593139648e+00 1.026540040969848633e+00 3.035170137882232666e-01
2.199000000000000000e+03 7.247915649414062500e+01 3.025373840332031250e+01 -2.696069702506065369e-02 7.820135593414306641e+00 2.337952375411987305e+00 1.089370325207710266e-01
2.200000000000000000e+03 7.096308135986328125e+01 -3.004014205932617188e+01 -4.462917149066925049e-02 7.898147583007812500e+00 2.356055498123168945e+00 -1.405261456966400146e-01
2.201000000000000000e+03 8.193560600280761719e+00 2.609323883056640625e+01 -3.649394810199737549e-01 3.620306253433227539e+00 9.766100049018859863e-01 -4.906906485557556152e-01
2.202000000000000000e+03 5.718585491180419922e+00 4.142672061920166016e+00 2.167468070983886719e-01 1.532395243644714355e+00 5.247426033020019531e-01 -1.054142475128173828e+00
2.203000000000000000e+03 4.593138217926025391e+00 3.801259756088256836e+00 2.793269157409667969e-01 7.979733943939208984e-01 3.231900930404663086e-01 -5.772242546081542969e-01
2.204000000000000000e+03 8.534136772155761719e+00 3.140890359878540039e+00 3.357339277863502502e-02 4.788669586181640625e+00 1.446672916412353516e+00 -2.692122936248779297e+00
2.205000000000000000e+03 8.156124114990234375e+00 2.960028886795043945e+00 6.035211086273193359e-01 3.755982160568237305e+00 1.307850956916809082e+00 -2.638818025588989258e+00
2.206000000000000000e+03 8.371858596801757812e+00 3.608957767486572266e+00 -2.756293118000030518e-01 4.484255790710449219e+00 1.262587904930114746e+00 -2.291567325592041016e+00
2.207000000000000000e+03 9.773155212402343750e+00 4.289941310882568359e+00 -1.745557308197021484e+00 5.787037372589111328e+00 1.212444067001342773e+00 -7.554447054862976074e-01
2.208000000000000000e+03 6.421236038208007812e+00 4.252046585083007812e+00 9.087040275335311890e-02 2.114396333694458008e+00 6.615800261497497559e-01 -1.343649029731750488e+00
2.209000000000000000e+03 1.094813728332519531e+01 6.594976902008056641e+00 -1.705840945243835449e+00 3.303594112396240234e+00 4.793259203433990479e-01 5.052359700202941895e-01
2.210000000000000000e+03 7.402037620544433594e+00 -2.750655174255371094e+00 8.318266868591308594e-01 2.604761362075805664e+00 1.030976414680480957e+00 2.503470659255981445e+00
2.211000000000000000e+03 4.597911834716796875e+00 3.346071243286132812e+00 3.105408549308776855e-01 6.795070767402648926e-01 2.970143854618072510e-01 -5.257200598716735840e-01
2.212000000000000000e+03 1.054351902008056641e+01 2.693137645721435547e+00 -1.342405915260314941e+00 9.184008598327636719e+00 2.352480888366699219e+00 -3.624528646469116211e-02
2.213000000000000000e+03 5.139476299285888672e+00 -3.329176664352416992e+00 2.429044842720031738e-01 1.100068211555480957e+00 4.028918147087097168e-01 7.779457569122314453e-01
2.214000000000000000e+03 3.805703639984130859e+00 3.693974733352661133e+00 2.185832858085632324e-01 5.189594626426696777e-01 2.212628275156021118e-01 -3.448889553546905518e-01
2.215000000000000000e+03 5.335284709930419922e+00 -4.598427772521972656e+00 -2.435313314199447632e-01 1.867388010025024414e+00 4.871570169925689697e-01 8.241799473762512207e-01
2.216000000000000000e+03 1.036951446533203125e+01 3.276822566986083984e+00 -1.647468209266662598e+00 7.739078998565673828e+00 1.827483177185058594e+00 -3.172995746135711670e-01
2.217000000000000000e+03 8.931094169616699219e+00 3.155170917510986328e+00 -3.096961677074432373e-01 5.741783142089843750e+00 1.629626154899597168e+00 -2.642001152038574219e+00
2.218000000000000000e+03 3.887222528457641602e+00 2.910119295120239258e+00 2.809313833713531494e-01 3.566284775733947754e-01 1.912679523229598999e-01 -2.544356584548950195e-01
2.219000000000000000e+03 2.926594734191894531e+00 3.793131589889526367e+00 1.353537142276763916e-01 3.173116743564605713e-01 1.357996165752410889e-01 -1.545384377241134644e-01
2.220000000000000000e+03 5.749720096588134766e+00 2.957077503204345703e+00 6.139128804206848145e-01 9.484745860099792480e-01 4.687162339687347412e-01 -9.302866458892822266e-01
2.221000000000000000e+03 8.422239303588867188e+00 -3.009366750717163086e+00 1.664171554148197174e-02 4.835514545440673828e+00 1.455646872520446777e+00 3.197627544403076172e+00
2.222000000000000000e+03 4.160744190216064453e+00 4.138811588287353516e+00 1.630776226520538330e-01 8.097570538520812988e-01 2.918503880500793457e-01 -4.078165292739868164e-01
2.223000000000000000e+03 3.856635570526123047e+00 -3.309458494186401367e+00 1.390045434236526489e-01 5.563809275627136230e-01 2.086156457662582397e-01 2.648326754570007324e-01
2.224000000000000000e+03 9.137493133544921875e+00 -4.471494197845458984e+00 -2.020263195037841797e+00 5.497669219970703125e+00 1.043221712112426758e+00 1.645548820495605469e+00
2.225000000000000000e+03 3.808290004730224609e+00 -4.040498256683349609e+00 -2.083818055689334869e-02 7.766905426979064941e-01 2.267557084560394287e-01 2.535935342311859131e-01
2.226000000000000000e+03 3.488879203796386719e+00 -4.503761291503906250e+00 -3.619816526770591736e-02 7.954411506652832031e-01 2.277728915214538574e-01 1.441974639892578125e-01
2.227000000000000000e+03 9.746131896972656250e+00 -3.794216394424438477e+00 -2.198385477066040039e+00 6.457490921020507812e+00 1.277731657028198242e+00 1.530404567718505859e+00
2.228000000000000000e+03 9.410168647766113281e+00 -3.283262729644775391e+00 -1.411511540412902832e+00 6.887888431549072266e+00 1.642912983894348145e+00 2.462219238281250000e+00
2.229000000000000000e+03 8.157667160034179688e+00 -4.622609615325927734e+00 -1.377247452735900879e+00 4.486778259277343750e+00 9.328592419624328613e-01 1.912810683250427246e+00
2.230000000000000000e+03 1.126563930511474609e+01 5.732491970062255859e+00 -1.904908537864685059e+00 3.666878461837768555e+00 5.285909771919250488e-01 8.990811109542846680e-01
2.231000000000000000e+03 5.420408248901367188e+00 8.126899719238281250e+00 -9.622907638549804688e-01 2.487581729888916016e+00 4.575872719287872314e-01 -1.589353382587432861e-01
2.232000000000000000e+03 5.997205734252929688e+00 8.063663482666015625e+00 -9.701734185218811035e-01 2.683681249618530273e+00 5.140523910522460938e-01 -2.132235020399093628e-01
2.233000000000000000e+03 7.242095947265625000e+00 -5.443145751953125000e+00 -1.289440393447875977e+00 3.872568845748901367e+00 7.749385833740234375e-01 1.351134300231933594e+00
2.234000000000000000e+03 6.109939575195312500e+00 -4.690105915069580078e+00 -4.519519209861755371e-01 2.485282897949218750e+00 6.099992990493774414e-01 1.193228960037231445e+00
2.235000000000000000e+03 5.952630519866943359e+00 -3.187008857727050781e+00 3.950601816177368164e-01 1.503141283988952637e+00 5.694604516029357910e-01 1.296481728553771973e+00
2.236000000000000000e+03 3.307253122329711914e+00 4.230231285095214844e+00 1.166818439960479736e-01 5.480445623397827148e-01 1.994179189205169678e-01 -2.099971771240234375e-01
2.237000000000000000e+03 7.420167922973632812e+00 8.348295211791992188e+00 -1.427743077278137207e+00 3.486040353775024414e+00 6.174892187118530273e-01 -3.874051272869110107e-01
2.238000000000000000e+03 8.047206878662109375e+00 7.794180870056152344e+00 -1.561735987663269043e+00 3.589462757110595703e+00 6.083180308341979980e-01 -4.121257960796356201e-01
2.239000000000000000e+03 8.169496536254882812e+00 -4.032924175262451172e+00 -9.931061863899230957e-01 4.556674003601074219e+00 1.069070339202880859e+00 2.286793708801269531e+00
2.240000000000000000e+03 4.425678730010986328e+00 5.924125671386718750e+00 -2.422742843627929688e-01 1.388111352920532227e+00 3.437511026859283447e-01 -3.693655729293823242e-01
2.241000000000000000e+03 3.869629383087158203e+00 -5.343031406402587891e+00 -2.441541105508804321e-01 1.245866417884826660e+00 3.005137145519256592e-01 1.659461855888366699e-01
2.242000000000000000e+03 4.488465785980224609e+00 -6.052270889282226562e+00 -5.448147654533386230e-01 1.902109146118164062e+00 4.071883261203765869e-01 1.829401254653930664e-01
2.243000000000000000e+03 4.567951202392578125e+00 -6.704890727996826172e+00 -6.453751921653747559e-01 2.079272270202636719e+00 4.301691651344299316e-01 4.738555848598480225e-02
2.244000000000000000e+03 9.102162361145019531e+00 3.599064588546752930e+00 -9.258529543876647949e-01 5.795009613037109375e+00 1.460746884346008301e+00 -2.006879091262817383e+00
2.245000000000000000e+03 1.051235008239746094e+01 7.404235363006591797e+00 -1.664752602577209473e+00 3.326196670532226562e+00 4.984332323074340820e-01 1.476580053567886353e-01
2.246000000000000000e+03 4.947997093200683594e+00 6.732915878295898438e+00 -5.260186195373535156e-01 1.885040044784545898e+00 4.077064096927642822e-01 -3.346039354801177979e-01
2.247000000000000000e+03 5.432846069335937500e+00 7.496691226959228516e+00 -7.766936421394348145e-01 2.309655189514160156e+00 4.598884582519531250e-01 -2.411397844552993774e-01
2.248000000000000000e+03 6.977871894836425781e+00 8.912836074829101562e+00 -1.370587944984436035e+00 3.372314214706420898e+00 6.005178689956665039e-01 -1.010758876800537109e-01
2.249000000000000000e+03 5.493134498596191406e+00 8.795641899108886719e+00 -9.085023403167724609e-01 2.500792741775512695e+00 4.776871502399444580e-01 6.554426997900009155e-02
2.250000000000000000e+03 5.348502159118652344e+00 -7.189138412475585938e+00 -9.111943244934082031e-01 2.858283519744873047e+00 5.841267704963684082e-01 1.915434896945953369e-01
2.251000000000000000e+03 1.192263698577880859e+01 -2.235621643066406250e+01 3.882107138633728027e-01 3.752007007598876953e+00 1.242065310478210449e+00 4.032415449619293213e-01
2.252000000000000000e+03 1.140362262725830078e+01 -2.399419975280761719e+01 8.088111132383346558e-02 3.762595653533935547e+00 1.153043031692504883e+00 3.426771163940429688e-01
2.253000000000000000e+03 6.124617576599121094e+00 -8.059319496154785156e+00 -1.163428306579589844e+00 3.790982961654663086e+00 7.882664203643798828e-01 1.512133032083511353e-01
2.254000000000000000e+03 6.482775211334228516e+00 -7.427329540252685547e+00 -1.302369952201843262e+00 3.701780080795288086e+00 7.198230624198913574e-01 4.021353721618652344e-01
2.255000000000000000e+03 7.045145416259765625e+01 -6.911522865295410156e+00 5.690631270408630371e-02 7.606435298919677734e+00 2.299002647399902344e+00 -1.116090863943099976e-01
2.256000000000000000e+03 7.008129119873046875e+01 4.125080585479736328e+00 7.405731081962585449e-02 7.575112819671630859e+00 2.294751167297363281e+00 3.070996329188346863e-02
2.257000000000000000e+03 9.352521896362304688e+00 -2.582799148559570312e+01 -2.833486795425415039e-01 3.832427024841308594e+00 1.064723491668701172e+00 3.514861762523651123e-01
2.258000000000000000e+03 7.028782653808593750e+01 -2.237899398803710938e+01 -1.144486013799905777e-02 7.798772811889648438e+00 2.336198329925537109e+00 -1.881176978349685669e-01
2.259000000000000000e+03 7.059067535400390625e+01 -2.602824401855468750e+01 -2.899585664272308350e-02 7.847409725189208984e+00 2.345524311065673828e+00 -1.707735955715179443e-01
2.260000000000000000e+03 6.989405059814453125e+01 -9.832093238830566406e+00 5.223255977034568787e-02 7.636569023132324219e+00 2.306640386581420898e+00 -1.457920223474502563e-01
2.261000000000000000e+03 6.909641265869140625e+01 -1.108080387115478516e+01 5.412564054131507874e-02 7.654850006103515625e+00 2.312692642211914062e+00 -1.678731292486190796e-01
2.262000000000000000e+03 7.021264648437500000e+01 -1.864536666870117188e+01 7.415521889925003052e-03 7.748060703277587891e+00 2.326642990112304688e+00 -1.907598674297332764e-01
2.263000000000000000e+03 6.936155700683593750e+01 1.240674495697021484e+01 5.851479992270469666e-02 7.625861644744873047e+00 2.305312871932983398e+00 1.307326108217239380e-01
2.264000000000000000e+03 6.941226959228515625e+01 1.076223659515380859e+01 6.195003911852836609e-02 7.612861156463623047e+00 2.302443265914916992e+00 1.152276247739791870e-01
2.265000000000000000e+03 7.036821746826171875e+01 -3.178563356399536133e+00 6.982783973217010498e-02 7.580455303192138672e+00 2.295084953308105469e+00 -6.670592725276947021e-02
2.266000000000000000e+03 6.907956695556640625e+01 -6.414565563201904297e+00 7.457692176103591919e-02 7.612507343292236328e+00 2.306125164031982422e+00 -1.177066192030906677e-01
2.267000000000000000e+03 6.949256896972656250e+01 1.989974212646484375e+01 1.114387065172195435e-02 7.703773975372314453e+00 2.314475297927856445e+00 1.737511008977890015e-01
2.268000000000000000e+03 6.901816558837890625e+01 1.806379890441894531e+01 2.581221051514148712e-02 7.683292865753173828e+00 2.312731504440307617e+00 1.701949834823608398e-01
2.269000000000000000e+03 2.401545906066894531e+01 1.176407814025878906e+01 9.181209802627563477e-01 8.805657386779785156e+00 2.917133569717407227e+00 -3.446142971515655518e-01
2.270000000000000000e+03 7.162054443359375000e+01 -6.696882724761962891e+00 4.532551392912864685e-02 7.595324516296386719e+00 2.292195081710815430e+00 -9.880375862121582031e-02
2.271000000000000000e+03 6.795144653320312500e+01 -9.815621376037597656e+00 7.282571494579315186e-02 7.645189762115478516e+00 2.315404653549194336e+00 -1.671698242425918579e-01
2.272000000000000000e+03 6.801507568359375000e+01 1.023799228668212891e+01 8.189377188682556152e-02 7.616260528564453125e+00 2.309446334838867188e+00 1.204939559102058411e-01
2.273000000000000000e+03 7.116363525390625000e+01 8.096219062805175781e+00 5.407635867595672607e-02 7.580490589141845703e+00 2.290370225906372070e+00 7.299371808767318726e-02
2.274000000000000000e+03 7.748456001281738281e+00 2.307330703735351562e+01 -4.250433743000030518e-01 4.048704624176025391e+00 1.087098360061645508e+00 -2.719804346561431885e-01
2.275000000000000000e+03 9.630673408508300781e+00 2.618665313720703125e+01 -3.233748972415924072e-01 3.974506616592407227e+00 1.095339536666870117e+00 -3.353767096996307373e-01
2.276000000000000000e+03 6.960640716552734375e+01 -1.726219558715820312e+01 1.472946442663669586e-02 7.730251312255859375e+00 2.323494195938110352e+00 -1.975862085819244385e-01
2.277000000000000000e+03 7.117145538330078125e+01 1.523619365692138672e+01 2.698653005063533783e-02 7.642745971679687500e+00 2.300919771194458008e+00 1.337937563657760620e-01
2.278000000000000000e+03 2.587169265747070312e+01 4.221588611602783203e+00 1.232572793960571289e+00 9.426395416259765625e+00 3.197690486907958984e+00 -1.453411132097244263e-01
2.279000000000000000e+03 6.961087799072265625e+01 -2.105568313598632812e+01 -5.051761865615844727e-03 7.779245853424072266e+00 2.332258224487304688e+00 -1.988995075225830078e-01
2.280000000000000000e+03 7.214205169677734375e+01 -4.091782867908477783e-01 4.919859394431114197e-02 7.553120613098144531e+00 2.280695915222167969e+00 -2.565843239426612854e-02
2.281000000000000000e+03 7.123089599609375000e+01 6.777495384216308594e+00 5.266105756163597107e-02 7.572659969329833984e+00 2.287596225738525391e+00 5.847265943884849548e-02
2.282000000000000000e+03 1.613899040222167969e+01 3.221939849853515625e+01 -5.187816023826599121e-01 5.195365905761718750e+00 1.402975320816040039e+00 -3.570459187030792236e-01
2.283000000000000000e+03 9.407965660095214844e+00 3.018584442138671875e+01 -3.516561686992645264e-01 3.786590099334716797e+00 1.030480265617370605e+00 -4.720076918601989746e-01
2.284000000000000000e+03 9.578170776367187500e+00 2.766710281372070312e+01 -2.950589358806610107e-01 3.815574169158935547e+00 1.056154608726501465e+00 -4.429665505886077881e-01
2.285000000000000000e+03 1.307924270629882812e+01 -2.637540817260742188e+01 -1.530844122171401978e-01 4.315375804901123047e+00 1.248687386512756348e+00 5.142576694488525391e-01
2.286000000000000000e+03 7.114729309082031250e+01 2.195958328247070312e+01 1.471487688831984997e-03 7.723830699920654297e+00 2.317590713500976562e+00 1.535924971103668213e-01
2.287000000000000000e+03 7.014702606201171875e+01 2.130980491638183594e+01 4.003659123554825783e-04 7.718377113342285156e+00 2.315633296966552734e+00 1.659234017133712769e-01
2.288000000000000000e+03 7.140740966796875000e+01 -2.193687057495117188e+01 -5.562317557632923126e-03 7.793908119201660156e+00 2.336503744125366211e+00 -1.747580021619796753e-01
2.289000000000000000e+03 7.022070312500000000e+01 2.507089996337890625e+01 -1.659977622330188751e-02 7.761633396148681641e+00 2.323510169982910156e+00 1.583384573459625244e-01
2.290000000000000000e+03 7.067900848388671875e+01 2.332487297058105469e+01 -1.149869244545698166e-02 7.741659641265869141e+00 2.319048166275024414e+00 1.596372425556182861e-01
2.291000000000000000e+03 2.529674148559570312e+01 -6.460791587829589844e+00 1.494312644004821777e+00 9.157068252563476562e+00 3.195414304733276367e+00 1.787329912185668945e-01
2.292000000000000000e+03 2.523561096191406250e+01 1.068733596801757812e+01 9.332980513572692871e-01 8.798990249633789062e+00 2.919686555862426758e+00 -2.140769809484481812e-01
2.293000000000000000e+03 9.447634696960449219e+00 -2.741357803344726562e+01 -2.946212291717529297e-01 3.768429040908813477e+00 1.042142271995544434e+00 4.200482666492462158e-01
2.294000000000000000e+03 6.715250396728515625e+01 -3.271940231323242188e+01 -1.012397035956382751e-01 7.896287441253662109e+00 2.338514328002929688e+00 -1.443689912557601929e-01
2.295000000000000000e+03 6.916304779052734375e+01 -2.902934455871582031e+01 -5.406011268496513367e-02 7.873960971832275391e+00 2.345970153808593750e+00 -1.647771596908569336e-01
2.296000000000000000e+03 2.759535026550292969e+01 4.301575660705566406e+00 1.291599035263061523e+00 9.043609619140625000e+00 3.100562572479248047e+00 -2.218778058886528015e-02
2.297000000000000000e+03 6.776568603515625000e+01 -2.474546432495117188e+01 -3.634201362729072571e-02 7.820861816406250000e+00 2.335355997085571289e+00 -2.110612094402313232e-01
2.298000000000000000e+03 6.957336425781250000e+01 1.405150032043457031e+01 4.348881170153617859e-02 7.642595767974853516e+00 2.305825471878051758e+00 1.454831510782241821e-01
2.299000000000000000e+03 1.837258338928222656e+01 2.086280822753906250e+01 -6.618861109018325806e-02 6.221769332885742188e+00 1.846674203872680664e+00 -1.070861458778381348e+00
2.300000000000000000e+03 6.893543243408203125e+01 -2.638222503662109375e+01 -3.872027248144149780e-02 7.841263294219970703e+00 2.340762853622436523e+00 -1.886561661958694458e-01
2.301000000000000000e+03 6.921910858154296875e+01 -2.347845649719238281e+01 -2.042846009135246277e-02 7.809641361236572266e+00 2.336763858795166016e+00 -1.979747414588928223e-01
2.302000000000000000e+03 1.886404228210449219e+01 2.342430114746093750e+01 -2.657672166824340820e-01 6.148959159851074219e+00 1.764957547187805176e+00 -7.777986526489257812e-01
2.303000000000000000e+03 8.829317092895507812e+00 2.861260604858398438e+01 -3.885530233383178711e-01 3.642698287963867188e+00 9.762435555458068848e-01 -5.464583039283752441e-01
2.304000000000000000e+03 8.361129760742187500e+00 2.742498588562011719e+01 -3.774211108684539795e-01 3.586957693099975586e+00 9.628610014915466309e-01 -4.779721498489379883e-01
2.305000000000000000e+03 7.234632873535156250e+01 -3.232963943481445312e+01 -3.986989334225654602e-02 7.937513351440429688e+00 2.369292974472045898e+00 -1.028154939413070679e-01
2.306000000000000000e+03 5.965760231018066406e+00 -3.744087982177734375e+01 -1.242808625102043152e-01 3.150639057159423828e+00 9.079074263572692871e-01 1.580267995595932007e-01
2.307000000000000000e+03 1.094622707366943359e+01 -3.385104370117187500e+01 -3.418839275836944580e-01 4.065996646881103516e+00 1.117233872413635254e+00 3.760133087635040283e-01
2.308000000000000000e+03 2.394360542297363281e+01 -7.545728206634521484e+00 1.378969192504882812e+00 9.249255180358886719e+00 3.188467264175415039e+00 3.153998255729675293e-01
2.309000000000000000e+03 6.860168457031250000e+01 2.463403320312500000e+01 -2.453698590397834778e-02 7.758977890014648438e+00 2.320332288742065430e+00 1.799522340297698975e-01
2.310000000000000000e+03 5.081933498382568359e+00 6.054801464080810547e+00 -4.749711155891418457e-01 1.847226500511169434e+00 4.116766154766082764e-01 -5.391882658004760742e-01
2.311000000000000000e+03 7.992217540740966797e+00 3.365465164184570312e+00 1.926681697368621826e-01 3.703255891799926758e+00 1.168777227401733398e+00 -2.395506858825683594e+00
2.312000000000000000e+03 9.273029327392578125e+00 3.039530754089355469e+00 -6.150836348533630371e-01 6.627510547637939453e+00 1.803728103637695312e+00 -2.438641548156738281e+00
2.313000000000000000e+03 4.953382492065429688e+00 3.527616024017333984e+00 3.551720976829528809e-01 9.029679298400878906e-01 3.774420022964477539e-01 -6.642811894416809082e-01
2.314000000000000000e+03 5.325257301330566406e+00 3.207533836364746094e+00 5.024330615997314453e-01 8.690227866172790527e-01 4.114367663860321045e-01 -8.109409213066101074e-01
2.315000000000000000e+03 4.642761230468750000e+00 5.316093444824218750e+00 -1.852844059467315674e-01 1.363687396049499512e+00 3.535209000110626221e-01 -5.459412932395935059e-01
2.316000000000000000e+03 1.009947013854980469e+01 3.824783563613891602e+00 -1.824384331703186035e+00 6.567646503448486328e+00 1.422978639602661133e+00 -6.154305338859558105e-01
2.317000000000000000e+03 5.013162612915039062e+00 -3.991797208786010742e+00 8.732596761547029018e-04 1.341820120811462402e+00 4.028080105781555176e-01 7.215771079063415527e-01
2.318000000000000000e+03 8.302747726440429688e+00 -3.489837169647216797e+00 -5.335615873336791992e-01 4.641337871551513672e+00 1.232332825660705566e+00 2.779509305953979492e+00
2.319000000000000000e+03 5.288065910339355469e+00 -3.779225349426269531e+00 9.367200732231140137e-02 1.441635370254516602e+00 4.605922400951385498e-01 8.852899670600891113e-01
2.320000000000000000e+03 6.403937339782714844e+00 -2.793932437896728516e+00 6.936373114585876465e-01 1.541319131851196289e+00 6.704869270324707031e-01 1.574265599250793457e+00
2.321000000000000000e+03 8.612355232238769531e+00 -4.086581230163574219e+00 -1.398506045341491699e+00 5.146477699279785156e+00 1.124391436576843262e+00 2.237347126007080078e+00
2.322000000000000000e+03 7.211077690124511719e+00 3.591371059417724609e+00 2.399981915950775146e-01 2.682008504867553711e+00 8.766020536422729492e-01 -1.873263835906982422e+00
2.323000000000000000e+03 6.993796825408935547e+00 -4.427328109741210938e+00 -6.856780052185058594e-01 3.281790018081665039e+00 7.788335680961608887e-01 1.683952331542968750e+00
2.324000000000000000e+03 3.717846155166625977e+00 4.684977531433105469e+00 4.818913713097572327e-02 7.278367877006530762e-01 2.328077852725982666e-01 -3.540263473987579346e-01
2.325000000000000000e+03 6.704477310180664062e+00 -6.726930618286132812e+00 -1.343959927558898926e+00 3.820687532424926758e+00 7.430182695388793945e-01 6.643797755241394043e-01
2.326000000000000000e+03 5.969754219055175781e+00 -6.570208549499511719e+00 -1.069696784019470215e+00 3.172595977783203125e+00 6.308697462081909180e-01 5.702167749404907227e-01
2.327000000000000000e+03 5.577075958251953125e+00 6.881021499633789062e+00 -7.638502120971679688e-01 2.311909198760986328e+00 4.644176661968231201e-01 -4.991870820522308350e-01
2.328000000000000000e+03 4.159292697906494141e+00 5.046196460723876953e+00 3.483915003016591072e-03 1.035954952239990234e+00 3.118316531181335449e-01 -3.944078981876373291e-01
2.329000000000000000e+03 4.392416477203369141e+00 -3.144489288330078125e+00 1.801607161760330200e-01 7.263473868370056152e-01 2.719524204730987549e-01 4.386481046676635742e-01
2.330000000000000000e+03 7.000022888183593750e+00 -6.048516273498535156e+00 -1.385544538497924805e+00 3.713082790374755859e+00 6.982614398002624512e-01 1.018240451812744141e+00
2.331000000000000000e+03 6.639676094055175781e+00 8.433963775634765625e+00 -1.166537880897521973e+00 3.080070734024047852e+00 5.740599036216735840e-01 -2.677719295024871826e-01
2.332000000000000000e+03 7.778905391693115234e+00 -5.363745212554931641e+00 -1.506224751472473145e+00 4.211945056915283203e+00 8.117160797119140625e-01 1.470198988914489746e+00
2.333000000000000000e+03 5.899581909179687500e+00 -7.184498786926269531e+00 -1.147358417510986328e+00 3.442912101745605469e+00 6.886660456657409668e-01 3.103802502155303955e-01
2.334000000000000000e+03 4.505897998809814453e+00 -4.973457813262939453e+00 -2.567254900932312012e-01 1.533300399780273438e+00 3.829724490642547607e-01 4.270082414150238037e-01
2.335000000000000000e+03 5.255699634552001953e+00 -6.616974830627441406e+00 -8.662050962448120117e-01 2.688419580459594727e+00 5.466643571853637695e-01 2.471575289964675903e-01
2.336000000000000000e+03 4.466171264648437500e+00 -5.473908901214599609e+00 -3.874277770519256592e-01 1.638150572776794434e+00 3.752168416976928711e-01 3.113259077072143555e-01
2.337000000000000000e+03 5.146250724792480469e+00 -6.031157970428466797e+00 -7.037985920906066895e-01 2.370892763137817383e+00 5.001282691955566406e-01 4.020361900329589844e-01
2.338000000000000000e+03 6.149170875549316406e+00 -4.236592292785644531e+00 -2.631522119045257568e-01 2.383964061737060547e+00 6.362435817718505859e-01 1.300966024398803711e+00
2.339000000000000000e+03 7.639528751373291016e+00 7.298496246337890625e+00 -1.477596163749694824e+00 3.527005672454833984e+00 6.148228645324707031e-01 -5.457162261009216309e-01
2.340000000000000000e+03 1.097308826446533203e+01 4.563878059387207031e+00 -2.053490400314331055e+00 5.281173229217529297e+00 9.683048725128173828e-01 7.960132360458374023e-01
2.341000000000000000e+03 1.051388740539550781e+01 4.152021408081054688e+00 -1.979060292243957520e+00 6.131189346313476562e+00 1.245638728141784668e+00 1.031309589743614197e-01
2.342000000000000000e+03 9.392064094543457031e+00 7.675550937652587891e+00 -1.667774081230163574e+00 3.706462383270263672e+00 6.116064786911010742e-01 -2.838617861270904541e-01
2.343000000000000000e+03 6.750173187255859375e+01 -1.626119232177734375e+01 2.883433736860752106e-02 7.717354774475097656e+00 2.323856830596923828e+00 -2.203657925128936768e-01
2.344000000000000000e+03 6.786140441894531250e+01 -1.219142532348632812e+01 5.907368659973144531e-02 7.668320655822753906e+00 2.318218231201171875e+00 -1.898848414421081543e-01
2.345000000000000000e+03 6.785834503173828125e+01 1.270403766632080078e+01 6.809569150209426880e-02 7.635026931762695312e+00 2.310936689376831055e+00 1.468569785356521606e-01
2.346000000000000000e+03 6.987702941894531250e+01 -3.031567931175231934e-01 7.979764789342880249e-02 7.574656963348388672e+00 2.296336412429809570e+00 -3.117422014474868774e-02
2.347000000000000000e+03 6.948845672607421875e+01 -2.187217473983764648e+00 8.190163969993591309e-02 7.583404541015625000e+00 2.299591779708862305e+00 -5.866426602005958557e-02
2.348000000000000000e+03 6.809341430664062500e+01 -2.197192382812500000e+01 -1.547523960471153259e-02 7.788295269012451172e+00 2.331845998764038086e+00 -2.191414386034011841e-01
2.349000000000000000e+03 2.755482864379882812e+01 9.177754402160644531e+00 1.022978305816650391e+00 8.653244018554687500e+00 2.902866601943969727e+00 1.503043714910745621e-02
2.350000000000000000e+03 6.802251434326171875e+01 2.040587234497070312e+01 1.197967585176229477e-02 7.711781501770019531e+00 2.317128181457519531e+00 1.862338930368423462e-01
2.351000000000000000e+03 6.649668121337890625e+01 1.684012413024902344e+01 4.551119357347488403e-02 7.679479598999023438e+00 2.317497253417968750e+00 1.896061003208160400e-01
2.352000000000000000e+03 2.675219535827636719e+01 1.411259746551513672e+01 5.737628340721130371e-01 8.301742553710937500e+00 2.662651777267456055e+00 5.456702783703804016e-02
2.353000000000000000e+03 2.539808273315429688e+01 1.304203987121582031e+01 6.656004190444946289e-01 8.440365791320800781e+00 2.731789827346801758e+00 -9.934920817613601685e-02
2.354000000000000000e+03 2.660154724121093750e+01 1.007040119171142578e+01 9.850723147392272949e-01 8.722756385803222656e+00 2.912348747253417969e+00 -2.382555790245532990e-02
2.355000000000000000e+03 7.063047027587890625e+01 -7.878072261810302734e+00 5.185075849294662476e-02 7.612763881683349609e+00 2.299384355545043945e+00 -1.178321167826652527e-01
2.356000000000000000e+03 1.263989448547363281e+01 2.867576789855957031e+01 -2.785460948944091797e-01 4.444622993469238281e+00 1.249823093414306641e+00 -4.142208397388458252e-01
2.357000000000000000e+03 2.214863777160644531e+01 -1.772083282470703125e+01 -2.522182166576385498e-01 7.340260505676269531e+00 2.126412630081176758e+00 5.898162722587585449e-01
2.358000000000000000e+03 6.913975524902343750e+01 -1.568955230712890625e+01 2.720912173390388489e-02 7.708872318267822266e+00 2.320824384689331055e+00 -1.977809518575668335e-01
2.359000000000000000e+03 7.051647186279296875e+01 -1.360505390167236328e+01 3.271995112299919128e-02 7.678355216979980469e+00 2.313322544097900391e+00 -1.696973145008087158e-01
2.360000000000000000e+03 6.885903930664062500e+01 -1.950386619567871094e+01 2.627498470246791840e-03 7.758489608764648438e+00 2.328335046768188477e+00 -2.102449238300323486e-01
2.361000000000000000e+03 6.992387390136718750e+01 1.557961368560791016e+01 3.267650678753852844e-02 7.654594421386718750e+00 2.306181430816650391e+00 1.479349136352539062e-01
2.362000000000000000e+03 1.304220962524414062e+01 2.462215995788574219e+01 2.290125340223312378e-01 4.110098838806152344e+00 1.301733493804931641e+00 -5.529077053070068359e-01
2.363000000000000000e+03 1.445334148406982422e+01 2.549724006652832031e+01 3.384707868099212646e-02 4.729406833648681641e+00 1.428976178169250488e+00 -5.255315899848937988e-01
2.364000000000000000e+03 1.504193496704101562e+01 2.425519752502441406e+01 1.413855105638504028e-01 4.720576763153076172e+00 1.458588719367980957e+00 -7.690179944038391113e-01
2.365000000000000000e+03 2.376045417785644531e+01 -1.375828647613525391e+01 1.809304058551788330e-01 8.148141860961914062e+00 2.498721599578857422e+00 3.443683385848999023e-01
2.366000000000000000e+03 2.568959617614746094e+01 -1.349800491333007812e+01 2.503060698509216309e-01 8.268303871154785156e+00 2.555583000183105469e+00 -2.186253108084201813e-02
2.367000000000000000e+03 2.029321670532226562e+01 2.192700195312500000e+01 -2.282507270574569702e-01 6.648120403289794922e+00 1.925960898399353027e+00 -7.089918255805969238e-01
2.368000000000000000e+03 1.255054759979248047e+01 -2.843226432800292969e+01 -2.701850831508636475e-01 4.345697879791259766e+00 1.222653865814208984e+00 4.454587996006011963e-01
2.369000000000000000e+03 2.736540222167968750e+01 2.562679529190063477e+00 1.288290739059448242e+00 9.125547409057617188e+00 3.124151229858398438e+00 -9.399977512657642365e-03
2.370000000000000000e+03 6.795382690429687500e+01 2.687870025634765625e+01 -3.560167923569679260e-02 7.780839443206787109e+00 2.323571443557739258e+00 1.737175434827804565e-01
2.371000000000000000e+03 6.929757690429687500e+01 2.269353866577148438e+01 -2.804829739034175873e-03 7.734391689300537109e+00 2.319476127624511719e+00 1.756840944290161133e-01
2.372000000000000000e+03 2.822843551635742188e+01 -6.437987804412841797e+00 1.287284255027770996e+00 8.620395660400390625e+00 2.972303867340087891e+00 -1.023915633559226990e-01
2.373000000000000000e+03 2.641034317016601562e+01 -3.337808609008789062e+00 1.384450674057006836e+00 9.197889328002929688e+00 3.174701929092407227e+00 2.049171477556228638e-01
2.374000000000000000e+03 2.902860641479492188e+01 8.452638983726501465e-01 1.336348891258239746e+00 8.743287086486816406e+00 3.023890733718872070e+00 3.927563875913619995e-02
2.375000000000000000e+03 3.162584114074707031e+01 5.098896503448486328e+00 1.185747146606445312e+00 8.331099510192871094e+00 2.855053901672363281e+00 1.582663655281066895e-01
2.376000000000000000e+03 1.106224632263183594e+01 2.797519111633300781e+01 -3.062590956687927246e-01 4.126523494720458984e+00 1.146079301834106445e+00 -4.482767283916473389e-01
2.377000000000000000e+03 2.937816429138183594e+01 6.157286167144775391e+00 1.209645748138427734e+00 8.627358436584472656e+00 2.951101303100585938e+00 7.101470977067947388e-02
2.378000000000000000e+03 2.769462585449218750e+01 5.981058120727539062e+00 1.207691907882690430e+00 8.858320236206054688e+00 3.019803762435913086e+00 -1.185636874288320541e-02
2.379000000000000000e+03 6.791445732116699219e+00 4.105361461639404297e+00 6.618148088455200195e-02 2.453766822814941406e+00 7.559845447540283203e-01 -1.547317743301391602e+00
2.380000000000000000e+03 7.174897193908691406e+00 2.979875802993774414e+00 7.828340530395507812e-01 2.170210123062133789e+00 8.859132528305053711e-01 -1.936803936958312988e+00
2.381000000000000000e+03 5.571509838104248047e+00 3.655941247940063477e+00 3.659504354000091553e-01 1.259934306144714355e+00 4.877654314041137695e-01 -9.493510127067565918e-01
2.382000000000000000e+03 7.683929443359375000e+00 -3.040894269943237305e+00 4.194734394550323486e-01 3.268738508224487305e+00 1.106463551521301270e+00 2.712125062942504883e+00
2.383000000000000000e+03 6.645005702972412109e+00 -3.040624141693115234e+00 5.271692276000976562e-01 1.946491599082946777e+00 7.420982718467712402e-01 1.798399209976196289e+00
2.384000000000000000e+03 6.084641456604003906e+00 -3.716813325881958008e+00 4.864445701241493225e-02 2.012506961822509766e+00 6.183453798294067383e-01 1.371068954467773438e+00
2.385000000000000000e+03 5.939455986022949219e+00 3.405441045761108398e+00 5.037217736244201660e-01 1.301713347434997559e+00 5.416305065155029297e-01 -1.158721566200256348e+00
2.386000000000000000e+03 6.096997737884521484e+00 4.165509223937988281e+00 1.096245571970939636e-01 1.822680592536926270e+00 5.796915292739868164e-01 -1.205464601516723633e+00
2.387000000000000000e+03 9.421676635742187500e+00 3.339563131332397461e+00 -1.057143568992614746e+00 6.761886119842529297e+00 1.711422681808471680e+00 -2.041448593139648438e+00
2.388000000000000000e+03 5.190946102142333984e+00 3.882399082183837891e+00 2.959438264369964600e-01 1.101907134056091309e+00 4.193553030490875244e-01 -8.247372508049011230e-01
2.389000000000000000e+03 4.705962181091308594e+00 -3.736801147460937500e+00 1.186684146523475647e-01 1.096999287605285645e+00 3.647003173828125000e-01 5.763704776763916016e-01
2.390000000000000000e+03 4.949309349060058594e+00 -4.610935688018798828e+00 -2.266974300146102905e-01 1.657863497734069824e+00 4.293498098850250244e-01 6.588697433471679688e-01
2.391000000000000000e+03 7.166354179382324219e+00 -4.908017635345458984e+00 -9.992821216583251953e-01 3.638807773590087891e+00 7.918577194213867188e-01 1.619704961776733398e+00
2.392000000000000000e+03 7.143695354461669922e+00 -3.122853517532348633e+00 4.155095815658569336e-01 2.547895908355712891e+00 8.890216946601867676e-01 2.216811656951904297e+00
2.393000000000000000e+03 1.015232467651367188e+01 4.633811473846435547e+00 -1.947756409645080566e+00 5.522233486175537109e+00 1.072343111038208008e+00 -2.530150115489959717e-01
2.394000000000000000e+03 8.104803085327148438e+00 4.031349658966064453e+00 -5.412660241127014160e-01 4.085892677307128906e+00 1.063387989997863770e+00 -1.975329518318176270e+00
2.395000000000000000e+03 5.746346473693847656e+00 5.978352546691894531e+00 -5.237537026405334473e-01 2.197141885757446289e+00 5.020164847373962402e-01 -7.199676036834716797e-01
2.396000000000000000e+03 7.658474445343017578e+00 3.119974374771118164e+00 6.194560527801513672e-01 2.963068962097167969e+00 1.074757456779479980e+00 -2.264231443405151367e+00
2.397000000000000000e+03 4.139587879180908203e+00 -3.697667598724365234e+00 9.792175143957138062e-02 8.381047844886779785e-01 2.808079719543457031e-01 3.397990763187408447e-01
2.398000000000000000e+03 4.207400321960449219e+00 -4.354120254516601562e+00 -4.316138103604316711e-02 1.120242357254028320e+00 3.231242895126342773e-01 3.784185349941253662e-01
2.399000000000000000e+03 1.126626682281494141e+01 3.963241815567016602e+00 -1.881225824356079102e+00 5.542802333831787109e+00 1.098473072052001953e+00 1.333754181861877441e+00
2.400000000000000000e+03 1.055090999603271484e+01 5.037096500396728516e+00 -2.073311328887939453e+00 4.861779689788818359e+00 8.365404605865478516e-01 3.204982578754425049e-01
2.401000000000000000e+03 7.979135990142822266e+00 -3.315786838531494141e+00 -1.008081212639808655e-01 4.114355087280273438e+00 1.204064011573791504e+00 2.780161380767822266e+00
2.402000000000000000e+03 4.497444152832031250e+00 4.539176940917968750e+00 5.343570560216903687e-02 1.037527799606323242e+00 3.272890448570251465e-01 -5.688536763191223145e-01
2.403000000000000000e+03 4.591172218322753906e+00 -4.564191341400146484e+00 -1.840105056762695312e-01 1.378056526184082031e+00 3.582138121128082275e-01 4.864470362663269043e-01
2.404000000000000000e+03 1.064231967926025391e+01 5.610498428344726562e+00 -1.966907620429992676e+00 4.343310356140136719e+00 7.129208445549011230e-01 4.139598608016967773e-01
2.405000000000000000e+03 6.532897472381591797e+00 7.138578414916992188e+00 -1.061372637748718262e+00 2.907593965530395508e+00 5.538664460182189941e-01 -5.538995265960693359e-01
2.406000000000000000e+03 6.800879001617431641e+00 -5.186854839324951172e+00 -9.504079222679138184e-01 3.295939922332763672e+00 7.036596536636352539e-01 1.332092523574829102e+00
2.407000000000000000e+03 7.643136501312255859e+00 -4.740283012390136719e+00 -1.132144331932067871e+00 3.988883018493652344e+00 8.570216298103332520e-01 1.799936532974243164e+00
2.408000000000000000e+03 5.159780025482177734e+00 5.471896648406982422e+00 -2.222119867801666260e-01 1.689106106758117676e+00 4.400682449340820312e-01 -6.736143231391906738e-01
2.409000000000000000e+03 6.516793251037597656e+00 3.941589355468750000e+00 1.554463207721710205e-01 2.071252584457397461e+00 6.680096387863159180e-01 -1.420573234558105469e+00
2.410000000000000000e+03 8.113601684570312500e+00 7.331705570220947266e+00 -1.426506638526916504e+00 3.562262296676635742e+00 6.407266855239868164e-01 -4.784276783466339111e-01
2.411000000000000000e+03 6.489199638366699219e+00 -3.614857912063598633e+00 8.287549018859863281e-02 2.243265390396118164e+00 6.978422999382019043e-01 1.651515722274780273e+00
2.412000000000000000e+03 7.233946323394775391e+00 7.557949066162109375e+00 -1.311825394630432129e+00 3.350811719894409180e+00 6.116958856582641602e-01 -5.309060811996459961e-01
2.413000000000000000e+03 5.027739524841308594e+00 -5.503987312316894531e+00 -5.604859590530395508e-01 2.157380342483520508e+00 4.790683388710021973e-01 5.185687541961669922e-01
2.414000000000000000e+03 7.416488170623779297e+00 -3.443307161331176758e+00 5.532609298825263977e-02 3.198890447616577148e+00 9.762650132179260254e-01 2.351106882095336914e+00
2.415000000000000000e+03 6.761485099792480469e+00 -4.025232791900634766e+00 -2.448194324970245361e-01 2.833071231842041016e+00 7.764755487442016602e-01 1.750088334083557129e+00
2.416000000000000000e+03 6.503728389739990234e+00 7.521506786346435547e+00 -1.053413271903991699e+00 2.929313898086547852e+00 5.627701282501220703e-01 -4.196646809577941895e-01
2.417000000000000000e+03 6.975904941558837891e+00 8.053998947143554688e+00 -1.256054162979125977e+00 3.214953660964965820e+00 5.876698493957519531e-01 -2.892512083053588867e-01
2.418000000000000000e+03 9.913784980773925781e+00 6.993014335632324219e+00 -1.728394985198974609e+00 3.691531658172607422e+00 5.889410376548767090e-01 -3.016954287886619568e-02
2.419000000000000000e+03 9.074266433715820312e+00 4.334214210510253906e+00 -1.365011811256408691e+00 5.221795558929443359e+00 1.157035112380981445e+00 -1.369602799415588379e+00
2.420000000000000000e+03 1.034288311004638672e+01 6.307685852050781250e+00 -1.923792004585266113e+00 3.987079381942749023e+00 6.189861893653869629e-01 1.714779734611511230e-01
2.421000000000000000e+03 6.891855621337890625e+01 -8.930474281311035156e+00 6.684419512748718262e-02 7.634265899658203125e+00 2.310333013534545898e+00 -1.492811292409896851e-01
2.422000000000000000e+03 6.976539611816406250e+01 -8.215665817260742188e+00 6.335271149873733521e-02 7.620396614074707031e+00 2.305124759674072266e+00 -1.314752846956253052e-01
2.423000000000000000e+03 6.966455078125000000e+01 -4.939102172851562500e+00 7.442516088485717773e-02 7.597812175750732422e+00 2.301671266555786133e+00 -9.501266479492187500e-02
2.424000000000000000e+03 1.162481689453125000e+01 2.372338294982910156e+01 4.707586467266082764e-01 3.852329492568969727e+00 1.296926379203796387e+00 -5.335931479930877686e-02
2.425000000000000000e+03 6.694115447998046875e+01 -1.457695865631103516e+01 4.817601293325424194e-02 7.697297573089599609e+00 2.323642015457153320e+00 -2.202692329883575439e-01
2.426000000000000000e+03 2.611844825744628906e+01 8.855079650878906250e+00 1.097401142120361328e+00 8.904152870178222656e+00 3.000466346740722656e+00 -1.071972772479057312e-01
2.427000000000000000e+03 2.780027961730957031e+01 7.676715850830078125e+00 1.142137289047241211e+00 8.728007316589355469e+00 2.961043357849121094e+00 3.316029533743858337e-02
2.428000000000000000e+03 6.669345092773437500e+01 1.368754768371582031e+01 6.958051025867462158e-02 7.649491310119628906e+00 2.315721511840820312e+00 1.652800589799880981e-01
2.429000000000000000e+03 2.490873146057128906e+01 -1.184616661071777344e+01 5.259254574775695801e-01 8.429177284240722656e+00 2.686530590057373047e+00 9.280631691217422485e-02
2.430000000000000000e+03 2.664680290222167969e+01 -9.879171371459960938e+00 8.765200972557067871e-01 8.516830444335937500e+00 2.818005084991455078e+00 -1.132996305823326111e-01
2.431000000000000000e+03 2.396972084045410156e+01 1.827765464782714844e+01 -3.505694121122360229e-02 7.767990112304687500e+00 2.319880008697509766e+00 -2.838645279407501221e-01
2.432000000000000000e+03 2.358334922790527344e+01 1.571348667144775391e+01 3.008116781711578369e-01 8.150135993957519531e+00 2.535284280776977539e+00 -3.275217115879058838e-01
2.433000000000000000e+03 2.968835258483886719e+01 -8.010021209716796875e+00 1.047706842422485352e+00 8.313869476318359375e+00 2.808472871780395508e+00 -2.496060431003570557e-01
2.434000000000000000e+03 1.323287391662597656e+01 -2.443726730346679688e+01 1.721042953431606293e-02 4.320943355560302734e+00 1.301446080207824707e+00 5.173619985580444336e-01
2.435000000000000000e+03 2.837528610229492188e+01 -2.482871532440185547e+00 1.345419526100158691e+00 8.829172134399414062e+00 3.052377462387084961e+00 6.243401393294334412e-02
2.436000000000000000e+03 1.129788112640380859e+01 -3.023533821105957031e+01 -3.380098044872283936e-01 4.116083145141601562e+00 1.133422017097473145e+00 4.729922711849212646e-01
2.437000000000000000e+03 2.328236579895019531e+01 2.038855743408203125e+01 -1.934548020362854004e-01 7.436898231506347656e+00 2.173032999038696289e+00 -3.680905401706695557e-01
2.438000000000000000e+03 1.586464500427246094e+01 2.539349365234375000e+01 -1.143772974610328674e-01 5.113339900970458984e+00 1.499688863754272461e+00 -6.822700500488281250e-01
2.439000000000000000e+03 1.229831027984619141e+01 2.588055610656738281e+01 -3.452454460784792900e-03 4.258641719818115234e+00 1.276556730270385742e+00 -3.086768686771392822e-01
2.440000000000000000e+03 2.255166816711425781e+01 2.285371398925781250e+01 -3.681516349315643311e-01 7.039167881011962891e+00 2.001304864883422852e+00 -4.126281440258026123e-01
2.441000000000000000e+03 1.976139259338378906e+01 2.518528175354003906e+01 -3.495667576789855957e-01 6.283210277557373047e+00 1.780093073844909668e+00 -6.074616312980651855e-01
2.442000000000000000e+03 2.110045051574707031e+01 1.995343399047851562e+01 -1.557109504938125610e-01 7.191445350646972656e+00 2.110720396041870117e+00 -6.560440063476562500e-01
2.443000000000000000e+03 5.730295181274414062e+00 -4.198770046234130859e+00 -1.405076384544372559e-01 1.954366922378540039e+00 5.441578030586242676e-01 1.089415192604064941e+00
2.444000000000000000e+03 9.423900604248046875e+00 3.962558507919311523e+00 -1.475503325462341309e+00 5.924450397491455078e+00 1.334684133529663086e+00 -1.405826687812805176e+00
2.445000000000000000e+03 9.398334503173828125e+00 4.716939449310302734e+00 -1.672241568565368652e+00 5.211675643920898438e+00 1.061830163002014160e+00 -9.857237935066223145e-01
2.446000000000000000e+03 7.749963760375976562e+00 -3.801818609237670898e+00 -5.180662870407104492e-01 3.840012073516845703e+00 9.965837597846984863e-01 2.365733385086059570e+00
2.447000000000000000e+03 7.759509563446044922e+00 3.747564792633056641e+00 -2.354856207966804504e-02 3.464644432067871094e+00 1.032328724861145020e+00 -2.059160470962524414e+00
2.448000000000000000e+03 9.766008377075195312e+00 5.087418079376220703e+00 -1.882301807403564453e+00 4.948301792144775391e+00 9.197999238967895508e-01 -4.522162079811096191e-01
2.449000000000000000e+03 8.750220298767089844e+00 3.934510469436645508e+00 -8.764935731887817383e-01 5.053807258605957031e+00 1.253194093704223633e+00 -1.993813872337341309e+00
2.450000000000000000e+03 4.779660701751708984e+00 -4.277296066284179688e+00 -4.544437676668167114e-02 1.385105609893798828e+00 4.018983840942382812e-01 6.090821623802185059e-01
2.451000000000000000e+03 5.344570636749267578e+00 -4.174808502197265625e+00 -1.076664999127388000e-01 1.741558670997619629e+00 4.901676476001739502e-01 8.982939720153808594e-01
2.452000000000000000e+03 4.867948055267333984e+00 4.823441505432128906e+00 2.863555401563644409e-02 1.301743865013122559e+00 3.991138339042663574e-01 -6.371045708656311035e-01
2.453000000000000000e+03 4.838829994201660156e+00 4.165729045867919922e+00 1.680118739604949951e-01 1.079135656356811523e+00 3.741442263126373291e-01 -6.169790625572204590e-01
2.454000000000000000e+03 5.823191165924072266e+00 -5.915216445922851562e+00 -9.158712625503540039e-01 2.900735378265380859e+00 5.954592227935791016e-01 6.695234775543212891e-01
2.455000000000000000e+03 5.948676586151123047e+00 6.409636020660400391e+00 -7.361158132553100586e-01 2.451393365859985352e+00 5.145832300186157227e-01 -6.052346825599670410e-01
2.456000000000000000e+03 5.670169353485107422e+00 5.485387325286865234e+00 -4.046626687049865723e-01 2.037518978118896484e+00 4.898568689823150635e-01 -7.942960858345031738e-01
2.457000000000000000e+03 6.082918643951416016e+00 7.050411224365234375e+00 -8.948718309402465820e-01 2.662381172180175781e+00 5.302528142929077148e-01 -4.670755863189697266e-01
2.458000000000000000e+03 6.891286849975585938e+00 6.462891578674316406e+00 -1.031760215759277344e+00 3.064835548400878906e+00 6.099225878715515137e-01 -8.202328681945800781e-01
2.459000000000000000e+03 5.989475727081298828e+00 7.531625270843505859e+00 -1.012275457382202148e+00 2.698116540908813477e+00 5.057523250579833984e-01 -3.867176771163940430e-01
2.460000000000000000e+03 4.967958450317382812e+00 -5.039799690246582031e+00 -3.366509675979614258e-01 1.821558833122253418e+00 4.454723596572875977e-01 6.066064834594726562e-01
2.461000000000000000e+03 6.145104408264160156e+00 -5.111941337585449219e+00 -7.321450114250183105e-01 2.795097827911376953e+00 6.188858151435852051e-01 1.019271016120910645e+00
2.462000000000000000e+03 7.059794425964355469e+00 4.251693725585937500e+00 -1.738545894622802734e-01 2.824126958847045898e+00 7.950816750526428223e-01 -1.669402122497558594e+00
2.463000000000000000e+03 8.888443946838378906e+00 7.124770164489746094e+00 -1.627954006195068359e+00 3.797350406646728516e+00 6.508188843727111816e-01 -3.913625180721282959e-01
2.464000000000000000e+03 9.810096740722656250e+00 5.970793247222900391e+00 -1.875658869743347168e+00 4.357042789459228516e+00 7.444152235984802246e-01 -2.175602018833160400e-01
2.465000000000000000e+03 9.359928131103515625e+00 5.560154438018798828e+00 -1.761321425437927246e+00 4.560223579406738281e+00 8.396706581115722656e-01 -6.297030448913574219e-01
2.466000000000000000e+03 6.791954040527343750e+01 2.206058120727539062e+01 -5.548594519495964050e-03 7.731061458587646484e+00 2.317653894424438477e+00 1.908222287893295288e-01
2.467000000000000000e+03 2.799568176269531250e+01 -9.049684524536132812e+00 9.718033671379089355e-01 8.505729675292968750e+00 2.843260049819946289e+00 -1.918063014745712280e-01
2.468000000000000000e+03 6.806602478027343750e+01 1.430052947998046875e+01 5.689542740583419800e-02 7.649899482727050781e+00 2.312038421630859375e+00 1.590495556592941284e-01
2.469000000000000000e+03 6.413352966308593750e+01 1.322524642944335938e+01 1.001461446285247803e-01 7.653173446655273438e+00 2.325995922088623047e+00 1.834805905818939209e-01
2.470000000000000000e+03 6.887725830078125000e+01 -4.052117824554443359e+00 8.699396252632141113e-02 7.596843719482421875e+00 2.305151462554931641e+00 -8.846541494131088257e-02
2.471000000000000000e+03 6.649717712402343750e+01 -2.301506233215332031e+01 -2.731719799339771271e-02 7.796329021453857422e+00 2.330703496932983398e+00 -2.333538532257080078e-01
2.472000000000000000e+03 6.643726348876953125e+01 -1.862054252624511719e+01 1.127720810472965240e-02 7.745942592620849609e+00 2.327165842056274414e+00 -2.399050146341323853e-01
2.473000000000000000e+03 6.720031738281250000e+01 -2.033071327209472656e+01 -2.771330997347831726e-03 7.766771316528320312e+00 2.329200029373168945e+00 -2.312235385179519653e-01
2.474000000000000000e+03 2.234967231750488281e+01 -1.025425434112548828e+01 8.143751621246337891e-01 9.090025901794433594e+00 2.971320390701293945e+00 6.427694559097290039e-01
2.475000000000000000e+03 2.634887886047363281e+01 1.200763702392578125e+01 8.218303918838500977e-01 8.533208847045898438e+00 2.806511878967285156e+00 -1.357945334166288376e-02
2.476000000000000000e+03 6.513545989990234375e+01 -8.574579238891601562e+00 1.174644082784652710e-01 7.639125347137451172e+00 2.326977014541625977e+00 -1.764226406812667847e-01
2.477000000000000000e+03 6.627941894531250000e+01 -1.292304611206054688e+01 6.653907895088195801e-02 7.680313110351562500e+00 2.324055671691894531e+00 -2.149663418531417847e-01
2.478000000000000000e+03 6.545662689208984375e+01 2.268440055847167969e+01 -1.242737658321857452e-02 7.742948055267333984e+00 2.319156169891357422e+00 2.152135670185089111e-01
2.479000000000000000e+03 2.728950500488281250e+01 -1.127301692962646484e+01 6.033138632774353027e-01 8.401976585388183594e+00 2.701587200164794922e+00 -1.707620024681091309e-01
2.480000000000000000e+03 2.770016670227050781e+01 -4.010518074035644531e+00 1.415792346000671387e+00 8.917925834655761719e+00 3.100115537643432617e+00 4.201178625226020813e-02
2.481000000000000000e+03 3.005922126770019531e+01 -2.883118629455566406e+00 1.350598096847534180e+00 8.535485267639160156e+00 2.965825080871582031e+00 -7.132067531347274780e-02
2.482000000000000000e+03 3.332233810424804688e+01 2.714528083801269531e+00 1.219110488891601562e+00 8.191290855407714844e+00 2.823120594024658203e+00 8.168669790029525757e-02
2.483000000000000000e+03 2.600564002990722656e+01 1.541213417053222656e+01 3.212127387523651123e-01 8.133633613586425781e+00 2.536453962326049805e+00 -2.084814943373203278e-02
2.484000000000000000e+03 1.672838401794433594e+01 2.671791648864746094e+01 -2.323613613843917847e-01 5.310061454772949219e+00 1.523309946060180664e+00 -5.864180326461791992e-01
2.485000000000000000e+03 2.949743843078613281e+01 4.543004035949707031e+00 1.260599493980407715e+00 8.627744674682617188e+00 2.966503381729125977e+00 6.822880357503890991e-02
2.486000000000000000e+03 2.951472854614257812e+01 7.659088611602783203e+00 1.068328976631164551e+00 8.497102737426757812e+00 2.869629383087158203e+00 1.350897252559661865e-01
2.487000000000000000e+03 6.903057575225830078e+00 3.840564250946044922e+00 1.240536645054817200e-01 2.446871519088745117e+00 7.712776064872741699e-01 -1.662584066390991211e+00
2.488000000000000000e+03 8.676043510437011719e+00 4.681910514831542969e+00 -1.208245754241943359e+00 4.623138904571533203e+00 1.024467945098876953e+00 -1.485651731491088867e+00
2.489000000000000000e+03 7.102330207824707031e+00 -3.774089336395263672e+00 -1.610016971826553345e-01 2.955780029296875000e+00 8.384334444999694824e-01 2.029222249984741211e+00
2.490000000000000000e+03 6.837632656097412109e+00 -3.399754047393798828e+00 2.397334128618240356e-01 2.505563974380493164e+00 8.235892057418823242e-01 1.988100528717041016e+00
2.491000000000000000e+03 7.463403701782226562e+00 3.443482398986816406e+00 3.500216305255889893e-01 2.859294414520263672e+00 9.627947807312011719e-01 -2.075274705886840820e+00
2.492000000000000000e+03 8.289295196533203125e+00 6.812789916992187500e+00 -1.581353902816772461e+00 3.810868978500366211e+00 6.688544750213623047e-01 -6.411813497543334961e-01
2.493000000000000000e+03 5.733944892883300781e+00 4.612512588500976562e+00 -8.024609088897705078e-02 1.793153882026672363e+00 5.138723254203796387e-01 -9.692004919052124023e-01
2.494000000000000000e+03 7.628268718719482422e+00 6.772224903106689453e+00 -1.254937410354614258e+00 3.459795475006103516e+00 6.614574193954467773e-01 -7.212418317794799805e-01
2.495000000000000000e+03 8.912997245788574219e+00 6.019702434539794922e+00 -1.670594811439514160e+00 4.206907749176025391e+00 7.608938217163085938e-01 -6.425991654396057129e-01
2.496000000000000000e+03 6.674613475799560547e+00 6.779306411743164062e+00 -9.803823232650756836e-01 2.881163120269775391e+00 5.702342391014099121e-01 -5.954419970512390137e-01
2.497000000000000000e+03 6.258470058441162109e+00 5.721599578857421875e+00 -6.299996376037597656e-01 2.514989137649536133e+00 5.654968619346618652e-01 -8.482269048690795898e-01
2.498000000000000000e+03 5.692091941833496094e+00 5.039587497711181641e+00 -1.529561877250671387e-01 1.873960256576538086e+00 5.163012146949768066e-01 -9.208918809890747070e-01
2.499000000000000000e+03 7.409095764160156250e+00 -4.196918964385986328e+00 -6.699848771095275879e-01 3.676625251770019531e+00 9.019921422004699707e-01 2.025292396545410156e+00
2.500000000000000000e+03 6.285465240478515625e+00 6.649882793426513672e+00 -9.227502942085266113e-01 2.710711956024169922e+00 5.363884568214416504e-01 -6.231178045272827148e-01
2.501000000000000000e+03 5.272996902465820312e+00 4.988097190856933594e+00 -1.553795039653778076e-01 1.624478697776794434e+00 4.407297670841217041e-01 -7.801648974418640137e-01
2.502000000000000000e+03 8.440679550170898438e+00 4.310293197631835938e+00 -8.608252406120300293e-01 4.460393428802490234e+00 1.079870581626892090e+00 -1.752942204475402832e+00
2.503000000000000000e+03 8.498919486999511719e+00 5.584886074066162109e+00 -1.422337889671325684e+00 4.164020061492919922e+00 8.225046992301940918e-01 -1.064733862876892090e+00
2.504000000000000000e+03 7.602284908294677734e+00 7.765632152557373047e+00 -1.357545018196105957e+00 3.426349401473999023e+00 6.206412911415100098e-01 -3.832911252975463867e-01
2.505000000000000000e+03 6.733303833007812500e+01 1.871134185791015625e+01 2.572450414299964905e-02 7.696417331695556641e+00 2.316642522811889648e+00 1.923690289258956909e-01
2.506000000000000000e+03 6.360521316528320312e+01 -2.213451004028320312e+01 -3.024169988930225372e-02 7.783102989196777344e+00 2.325858354568481445e+00 -2.688047587871551514e-01
2.507000000000000000e+03 3.226191711425781250e+01 1.292882919311523438e+01 6.225319504737854004e-01 8.053941726684570312e+00 2.602942228317260742e+00 3.523138761520385742e-01
2.508000000000000000e+03 2.898488235473632812e+01 -1.072099590301513672e+01 6.998698115348815918e-01 8.240578651428222656e+00 2.682134628295898438e+00 -2.924630939960479736e-01
2.509000000000000000e+03 2.940679931640625000e+01 -4.789759635925292969e+00 1.277714133262634277e+00 8.519311904907226562e+00 2.939107894897460938e+00 -7.568380981683731079e-02
2.510000000000000000e+03 2.670064926147460938e+01 -7.649527072906494141e+00 1.203136444091796875e+00 8.706485748291015625e+00 2.972886562347412109e+00 -4.683301225304603577e-02
2.511000000000000000e+03 6.675402832031250000e+01 -3.350471258163452148e+00 1.210929751396179199e-01 7.600049018859863281e+00 2.316342592239379883e+00 -8.532475680112838745e-02
2.512000000000000000e+03 6.599491882324218750e+01 9.772223472595214844e+00 1.098773702979087830e-01 7.620900630950927734e+00 2.319233417510986328e+00 1.268781870603561401e-01
2.513000000000000000e+03 6.697365570068359375e+01 1.123083114624023438e+01 8.474914729595184326e-02 7.627301216125488281e+00 2.313615083694458008e+00 1.360401511192321777e-01
2.514000000000000000e+03 6.708897399902343750e+01 -8.563996315002441406e+00 9.032833576202392578e-02 7.636844635009765625e+00 2.318151950836181641e+00 -1.616490930318832397e-01
2.515000000000000000e+03 6.601657104492187500e+01 -2.601223373413085938e+01 -5.702907219529151917e-02 7.828881263732910156e+00 2.331555604934692383e+00 -2.217540293931961060e-01
2.516000000000000000e+03 2.417086601257324219e+01 -1.569756984710693359e+01 -9.775052219629287720e-02 7.919973373413085938e+00 2.346666812896728516e+00 2.925929725170135498e-01
2.517000000000000000e+03 2.766984367370605469e+01 1.286396694183349609e+01 6.355335116386413574e-01 8.368968009948730469e+00 2.701350450515747070e+00 1.161987110972404480e-01
2.518000000000000000e+03 6.816850280761718750e+01 -3.085837364196777344e+00 1.015461087226867676e-01 7.594394207000732422e+00 2.308782100677490234e+00 -7.793780416250228882e-02
2.519000000000000000e+03 3.291729736328125000e+01 6.218448877334594727e-01 1.253073811531066895e+00 8.192869186401367188e+00 2.833782911300659180e+00 1.154546346515417099e-02
2.520000000000000000e+03 3.098480987548828125e+01 7.948343753814697266e-01 1.323104619979858398e+00 8.479179382324218750e+00 2.940685033798217773e+00 1.642674580216407776e-02
2.521000000000000000e+03 6.397688293457031250e+01 -1.747675323486328125e+01 2.914340235292911530e-02 7.731658935546875000e+00 2.328240633010864258e+00 -2.668405175209045410e-01
2.522000000000000000e+03 3.135730552673339844e+01 2.800126314163208008e+00 1.261351585388183594e+00 8.366852760314941406e+00 2.888461351394653320e+00 7.194560021162033081e-02
2.523000000000000000e+03 3.193883132934570312e+01 8.568256378173828125e+00 9.797266125679016113e-01 8.223867416381835938e+00 2.761078119277954102e+00 2.416373789310455322e-01
2.524000000000000000e+03 3.151218605041503906e+01 1.031274795532226562e+01 8.684365153312683105e-01 8.188084602355957031e+00 2.716956377029418945e+00 2.792361080646514893e-01
2.525000000000000000e+03 1.374193859100341797e+01 2.706803131103515625e+01 -1.441688835620880127e-01 4.528172016143798828e+00 1.315200924873352051e+00 -5.299695134162902832e-01
2.526000000000000000e+03 7.525610446929931641e+00 4.136338710784912109e+00 -2.662982344627380371e-01 3.261080026626586914e+00 8.984345793724060059e-01 -1.819272398948669434e+00
2.527000000000000000e+03 7.851681232452392578e+00 4.439278125762939453e+00 -6.119102239608764648e-01 3.707387685775756836e+00 9.286432266235351562e-01 -1.664505481719970703e+00
2.528000000000000000e+03 6.475702762603759766e+00 4.581714630126953125e+00 -1.939576864242553711e-01 2.331298589706420898e+00 6.412022709846496582e-01 -1.248772144317626953e+00
2.529000000000000000e+03 6.126061916351318359e+00 4.635076045989990234e+00 -7.942504435777664185e-02 2.052903175354003906e+00 5.920433998107910156e-01 -1.136261820793151855e+00
2.530000000000000000e+03 5.093388557434082031e+00 4.450984954833984375e+00 7.582653313875198364e-02 1.282527565956115723e+00 4.075062274932861328e-01 -7.748917937278747559e-01
2.531000000000000000e+03 5.382552146911621094e+00 4.589894294738769531e+00 7.474780082702636719e-02 1.506990790367126465e+00 4.745215773582458496e-01 -8.843616843223571777e-01
2.532000000000000000e+03 6.580292224884033203e+00 -4.391711711883544922e+00 -4.913845062255859375e-01 2.816594839096069336e+00 6.975631117820739746e-01 1.540302515029907227e+00
2.533000000000000000e+03 6.626125335693359375e+00 5.904554367065429688e+00 -8.172137737274169922e-01 2.817068576812744141e+00 5.999564528465270996e-01 -9.473773241043090820e-01
2.534000000000000000e+03 8.952119827270507812e+00 5.127695083618164062e+00 -1.531179428100585938e+00 4.601749420166015625e+00 9.211710691452026367e-01 -1.018719911575317383e+00
2.535000000000000000e+03 8.339393615722656250e+00 6.173987388610839844e+00 -1.407115459442138672e+00 3.865163087844848633e+00 7.374143004417419434e-01 -8.187342882156372070e-01
2.536000000000000000e+03 5.370757579803466797e+00 -5.026245117187500000e+00 -4.783633351325988770e-01 2.170596361160278320e+00 5.076699256896972656e-01 7.552897334098815918e-01
2.537000000000000000e+03 5.746617794036865234e+00 -5.097530364990234375e+00 -5.873113274574279785e-01 2.439045906066894531e+00 5.555203557014465332e-01 9.118313193321228027e-01
2.538000000000000000e+03 7.082401275634765625e+00 6.816716194152832031e+00 -1.212511062622070312e+00 3.233052730560302734e+00 6.061624884605407715e-01 -6.864621639251708984e-01
2.539000000000000000e+03 6.749657440185546875e+01 -2.768285369873046875e+01 -5.826887488365173340e-02 7.849648475646972656e+00 2.337413787841796875e+00 -1.957169324159622192e-01
2.540000000000000000e+03 3.152049827575683594e+01 1.518464565277099609e+01 3.718023896217346191e-01 8.014592170715332031e+00 2.515918493270874023e+00 3.443174958229064941e-01
2.541000000000000000e+03 2.979241943359375000e+01 -1.261803817749023438e+01 4.327560365200042725e-01 8.142860412597656250e+00 2.572685003280639648e+00 -3.262961804866790771e-01
2.542000000000000000e+03 3.075879478454589844e+01 -9.942232131958007812e+00 7.715708017349243164e-01 8.179932594299316406e+00 2.685451030731201172e+00 -3.455552756786346436e-01
2.543000000000000000e+03 5.962058258056640625e+01 1.869196128845214844e+01 5.466129630804061890e-02 7.714550971984863281e+00 2.330763578414916992e+00 2.699782252311706543e-01
2.544000000000000000e+03 6.535382080078125000e+01 1.497984504699707031e+01 7.138742506504058838e-02 7.666091918945312500e+00 2.321243762969970703e+00 1.900230795145034790e-01
2.545000000000000000e+03 6.041716003417968750e+01 1.039531898498535156e+01 1.873613595962524414e-01 7.635843276977539062e+00 2.346961498260498047e+00 1.803817451000213623e-01
2.546000000000000000e+03 6.837123870849609375e+01 1.612567901611328125e+01 3.998325020074844360e-02 7.666152954101562500e+00 2.311840772628784180e+00 1.695795804262161255e-01
2.547000000000000000e+03 6.272709655761718750e+01 -2.008330917358398438e+01 -6.342432927340269089e-03 7.760911464691162109e+00 2.326370716094970703e+00 -2.842772006988525391e-01
2.548000000000000000e+03 3.189243507385253906e+01 -3.182377815246582031e+00 1.254595279693603516e+00 8.275435447692871094e+00 2.859009265899658203e+00 -1.027458310127258301e-01
2.549000000000000000e+03 7.684510707855224609e+00 6.162637710571289062e+00 -1.281964898109436035e+00 3.565789461135864258e+00 6.851474046707153320e-01 -8.914173245429992676e-01
2.550000000000000000e+03 7.539069652557373047e+00 4.840805530548095703e+00 -6.624180674552917480e-01 3.379981994628906250e+00 8.152691721916198730e-01 -1.510474205017089844e+00
2.551000000000000000e+03 7.980974674224853516e+00 5.228369712829589844e+00 -1.066036462783813477e+00 3.826572418212890625e+00 8.281607627868652344e-01 -1.249196648597717285e+00
2.552000000000000000e+03 6.104752063751220703e+00 5.038791656494140625e+00 -3.319149911403656006e-01 2.223401308059692383e+00 5.674458742141723633e-01 -1.037503957748413086e+00
2.553000000000000000e+03 6.440020561218261719e+00 5.181914806365966797e+00 -4.734472632408142090e-01 2.567345619201660156e+00 6.281694769859313965e-01 -1.077492952346801758e+00
2.554000000000000000e+03 6.670013427734375000e+00 5.509866237640380859e+00 -6.242311596870422363e-01 2.763173103332519531e+00 6.416826248168945312e-01 -1.086479544639587402e+00
2.555000000000000000e+03 7.134543418884277344e+00 6.070914268493652344e+00 -9.588509798049926758e-01 3.132706165313720703e+00 6.521565914154052734e-01 -8.907700181007385254e-01
2.556000000000000000e+03 5.738044261932373047e+00 -4.647219657897949219e+00 -3.846820294857025146e-01 2.311129570007324219e+00 5.779342651367187500e-01 1.045841693878173828e+00
2.557000000000000000e+03 6.749910736083984375e+01 -2.370960861444473267e-01 1.171498894691467285e-01 7.587653636932373047e+00 2.311440944671630859e+00 -3.352544456720352173e-02
2.558000000000000000e+03 6.856365203857421875e+01 -1.224402904510498047e+00 1.010423377156257629e-01 7.585446357727050781e+00 2.305946588516235352e+00 -4.829031974077224731e-02
2.559000000000000000e+03 6.737682342529296875e+01 -2.206670045852661133e+00 1.145432516932487488e-01 7.593970298767089844e+00 2.312554121017456055e+00 -6.592362374067306519e-02
2.560000000000000000e+03 6.457002258300781250e+01 -4.394010543823242188e+00 1.589419245719909668e-01 7.610061645507812500e+00 2.330701112747192383e+00 -1.181132197380065918e-01
2.561000000000000000e+03 6.626868438720703125e+01 -4.730455398559570312e+00 1.275354772806167603e-01 7.609733104705810547e+00 2.321180582046508789e+00 -1.149648055434226990e-01
2.562000000000000000e+03 3.376212310791015625e+01 -3.399202108383178711e+00 1.183543324470520020e+00 8.082958221435546875e+00 2.779950380325317383e+00 -1.582266688346862793e-01
2.563000000000000000e+03 3.537237548828125000e+01 -4.162601947784423828e+00 1.066606998443603516e+00 7.922913074493408203e+00 2.696856021881103516e+00 -2.235421389341354370e-01
2.564000000000000000e+03 3.149402427673339844e+01 -5.153777122497558594e+00 1.208503484725952148e+00 8.264059066772460938e+00 2.841768741607666016e+00 -2.072093337774276733e-01
2.565000000000000000e+03 6.377171707153320312e+01 8.851618766784667969e+00 1.492179483175277710e-01 7.620630264282226562e+00 2.330954551696777344e+00 1.275350302457809448e-01
2.566000000000000000e+03 6.677169799804687500e+01 7.778143405914306641e+00 1.087568029761314392e-01 7.607461452484130859e+00 2.314865589141845703e+00 9.431082755327224731e-02
2.567000000000000000e+03 8.137725830078125000e+00 -4.076082992553710938e+01 -1.967590153217315674e-01 3.490892648696899414e+00 9.882400631904602051e-01 6.245091930031776428e-02
2.568000000000000000e+03 7.119061946868896484e+00 5.238358974456787109e+00 -7.115133404731750488e-01 3.099582910537719727e+00 7.164208889007568359e-01 -1.219331026077270508e+00
2.569000000000000000e+03 6.757750034332275391e+00 4.880105018615722656e+00 -4.045628607273101807e-01 2.683388471603393555e+00 6.836476922035217285e-01 -1.336086511611938477e+00
2.570000000000000000e+03 7.499405860900878906e+00 5.660984992980957031e+00 -1.007635116577148438e+00 3.421259403228759766e+00 7.240872383117675781e-01 -1.131178975105285645e+00
2.571000000000000000e+03 7.013903045654296875e+01 1.536718368530273438e+00 7.574318349361419678e-02 7.570168495178222656e+00 2.293773412704467773e+00 -4.331327509135007858e-03
2.572000000000000000e+03 6.352882766723632812e+01 -3.227854490280151367e+00 1.770303398370742798e-01 7.606165885925292969e+00 2.334958791732788086e+00 -1.004447564482688904e-01
2.573000000000000000e+03 6.606420898437500000e+01 -1.445775508880615234e+00 1.375042796134948730e-01 7.596240997314453125e+00 2.320123672485351562e+00 -5.703432485461235046e-02
2.574000000000000000e+03 6.612512969970703125e+01 -7.500020980834960938e+00 1.127839758992195129e-01 7.628216743469238281e+00 2.322300195693969727e+00 -1.541944444179534912e-01
2.575000000000000000e+03 6.501367187500000000e+01 -9.949735641479492188e+00 1.087830960750579834e-01 7.650197029113769531e+00 2.327694177627563477e+00 -1.951293498277664185e-01
2.576000000000000000e+03 6.798017120361328125e+01 1.804011106491088867e+00 1.061531007289886475e-01 7.584944248199462891e+00 2.307329177856445312e+00 -5.005994462408125401e-04
2.577000000000000000e+03 6.722620391845703125e+01 3.061865806579589844e+00 1.187230572104454041e-01 7.589479446411132812e+00 2.312460899353027344e+00 2.007864415645599365e-02
2.578000000000000000e+03 6.824626159667968750e+01 -7.845486640930175781e+00 8.468070626258850098e-02 7.625208854675292969e+00 2.312966823577880859e+00 -1.428220570087432861e-01
2.579000000000000000e+03 6.936450958251953125e+01 -7.326315879821777344e+00 6.694327294826507568e-02 7.616375446319580078e+00 2.304995775222778320e+00 -1.234732121229171753e-01
2.580000000000000000e+03 6.529838562011718750e+01 8.198188781738281250e+00 1.291984021663665771e-01 7.613470077514648438e+00 2.322800397872924805e+00 1.077679842710494995e-01
2.581000000000000000e+03 6.833370208740234375e+01 9.031182289123535156e+00 7.977183908224105835e-02 7.606483936309814453e+00 2.305876731872558594e+00 1.000042706727981567e-01
2.582000000000000000e+03 6.308816909790039062e+01 1.143200206756591797e+01 1.337527185678482056e-01 7.641056060791015625e+00 2.332442760467529297e+00 1.733452975749969482e-01
2.583000000000000000e+03 6.308364868164062500e+01 7.157392501831054688e+00 1.769647002220153809e-01 7.611680030822753906e+00 2.336593389511108398e+00 1.018620952963829041e-01
2.584000000000000000e+03 2.781521797180175781e+01 1.554450225830078125e+01 3.176663517951965332e-01 8.102201461791992188e+00 2.525960445404052734e+00 1.432049274444580078e-01
2.585000000000000000e+03 2.822760581970214844e+01 1.796667480468750000e+01 8.458848297595977783e-02 7.926563262939453125e+00 2.403345584869384766e+00 1.572483777999877930e-01
2.586000000000000000e+03 6.523358154296875000e+01 -2.904811620712280273e+00 1.514136344194412231e-01 7.603227615356445312e+00 2.326392412185668945e+00 -8.466114103794097900e-02
2.587000000000000000e+03 6.647675323486328125e+01 6.161571502685546875e+00 1.220504567027091980e-01 7.601485729217529297e+00 2.317060708999633789e+00 6.998260319232940674e-02
2.588000000000000000e+03 6.889041137695312500e+01 6.978254914283752441e-01 9.343350678682327271e-02 7.580256938934326172e+00 2.302107095718383789e+00 -1.609094440937042236e-02
2.589000000000000000e+03 6.354472732543945312e+01 -1.016388225555419922e+01 1.228532642126083374e-01 7.653570175170898438e+00 2.332926988601684570e+00 -2.109574526548385620e-01
2.590000000000000000e+03 6.555569458007812500e+01 -1.137513542175292969e+01 8.902081102132797241e-02 7.662874698638916016e+00 2.325568675994873047e+00 -2.065585255622863770e-01
2.591000000000000000e+03 6.213826751708984375e+01 9.590648651123046875e+00 1.696324199438095093e-01 7.627794742584228516e+00 2.339228153228759766e+00 1.499065905809402466e-01
2.592000000000000000e+03 6.871738433837890625e+01 3.684160947799682617e+00 9.320475161075592041e-02 7.582551479339599609e+00 2.302726984024047852e+00 2.784243784844875336e-02
2.593000000000000000e+03 6.834514617919921875e+01 4.947665214538574219e+00 9.544578939676284790e-02 7.589200973510742188e+00 2.305394172668457031e+00 4.642096161842346191e-02
2.594000000000000000e+03 6.571014404296875000e+01 -6.267158508300781250e+00 1.223925501108169556e-01 7.622201919555664062e+00 2.323378324508666992e+00 -1.419033408164978027e-01
2.595000000000000000e+03 6.474181365966796875e+01 6.497702598571777344e+00 1.465852558612823486e-01 7.606759071350097656e+00 2.326003313064575195e+00 8.131209760904312134e-02
2.596000000000000000e+03 6.825080108642578125e+01 7.709737300872802734e+00 9.065045416355133057e-02 7.599085807800292969e+00 2.306920766830444336e+00 8.453842252492904663e-02
2.597000000000000000e+03 6.971020507812500000e+01 7.878562450408935547e+00 6.785734742879867554e-02 7.590758323669433594e+00 2.297584772109985352e+00 7.805658876895904541e-02
2.598000000000000000e+03 6.647956085205078125e+01 8.892276883125305176e-01 1.311469972133636475e-01 7.590936183929443359e+00 2.316624879837036133e+00 -1.403407473117113113e-02
2.599000000000000000e+03 6.975514984130859375e+01 6.551367759704589844e+00 7.278684526681900024e-02 7.584943294525146484e+00 2.297319173812866211e+00 6.236374750733375549e-02
2.600000000000000000e+03 6.134912109375000000e+01 7.711626052856445312e+00 2.021189182996749878e-01 7.616108894348144531e+00 2.345468521118164062e+00 1.235464960336685181e-01
2.601000000000000000e+03 6.305435180664062500e+01 2.778766155242919922e+00 1.935733407735824585e-01 7.598945140838623047e+00 2.337755441665649414e+00 2.162659727036952972e-02
2.602000000000000000e+03 6.153842544555664062e+01 -4.065438747406005859e+00 2.171841412782669067e-01 7.609290122985839844e+00 2.347942352294921875e+00 -1.267398744821548462e-01
2.603000000000000000e+03 6.387275695800781250e+01 -6.197240352630615234e+00 1.545246392488479614e-01 7.622404575347900391e+00 2.333078861236572266e+00 -1.512828916311264038e-01
2.604000000000000000e+03 6.285611724853515625e+01 -1.409137606620788574e+00 2.022155672311782837e-01 7.600388526916503906e+00 2.340781211853027344e+00 -6.616132706403732300e-02
2.605000000000000000e+03 6.560225677490234375e+01 2.215933561325073242e+00 1.432970315217971802e-01 7.593975067138671875e+00 2.321181535720825195e+00 7.179455831646919250e-03
2.606000000000000000e+03 6.163567352294921875e+01 -6.155457496643066406e+00 1.905390471220016479e-01 7.621961116790771484e+00 2.343750000000000000e+00 -1.643205732107162476e-01
2.607000000000000000e+03 6.147184371948242188e+01 -8.370428085327148438e+00 1.732953935861587524e-01 7.637767791748046875e+00 2.343318939208984375e+00 -2.034813463687896729e-01
2.608000000000000000e+03 6.252701187133789062e+01 5.591326713562011719e+00 1.906020790338516235e-01 7.606770992279052734e+00 2.339211940765380859e+00 7.670693844556808472e-02
2.609000000000000000e+03 6.192693710327148438e+01 3.488259315490722656e-01 2.225542366504669189e-01 7.597461700439453125e+00 2.346004724502563477e+00 -2.788818627595901489e-02
2.610000000000000000e+03 6.478675079345703125e+01 -2.929770648479461670e-01 1.622694134712219238e-01 7.596436500549316406e+00 2.327611684799194336e+00 -4.060575738549232483e-02
2.611000000000000000e+03 6.163277435302734375e+01 -1.063371276855468750e+01 1.411704570055007935e-01 7.658393859863281250e+00 2.339869260787963867e+00 -2.353053092956542969e-01
2.612000000000000000e+03 6.079822921752929688e+01 5.833901882171630859e+00 2.289195358753204346e-01 7.606991767883300781e+00 2.350773334503173828e+00 8.680824190378189087e-02
2.613000000000000000e+03 6.090457534790039062e+01 -2.197154283523559570e+00 2.383322119712829590e-01 7.601846218109130859e+00 2.352053403854370117e+00 -8.488772809505462646e-02
2.614000000000000000e+03 6.068263244628906250e+01 3.968975782394409180e+00 2.338843643665313721e-01 7.601253509521484375e+00 2.350541353225708008e+00 4.828670248389244080e-02
2.615000000000000000e+03 6.383038330078125000e+01 1.230633616447448730e+00 1.834875494241714478e-01 7.597408294677734375e+00 2.334268808364868164e+00 -9.446781128644943237e-03
2.616000000000000000e+03 6.249446487426757812e+01 4.203385353088378906e+00 1.999858021736145020e-01 7.603096485137939453e+00 2.340924739837646484e+00 4.671455174684524536e-02
2.617000000000000000e+03 5.823200607299804688e+01 -1.239622354507446289e+00 2.986270785331726074e-01 7.597064495086669922e+00 2.368707418441772461e+00 -6.857579201459884644e-02
2.618000000000000000e+03 6.112288284301757812e+01 2.130275487899780273e+00 2.371892035007476807e-01 7.598338603973388672e+00 2.350658416748046875e+00 1.049636770039796829e-02
2.619000000000000000e+03 5.549237442016601562e+01 -6.918727397918701172e+00 3.093344867229461670e-01 7.622930049896240234e+00 2.379679203033447266e+00 -2.185580581426620483e-01
2.620000000000000000e+03 5.687702560424804688e+01 -5.323481082916259766e+00 2.991927266120910645e-01 7.612395286560058594e+00 2.373476505279541016e+00 -1.767756491899490356e-01
2.621000000000000000e+03 6.810656738281250000e+01 -3.071195030212402344e+01 -7.342985272407531738e-02 7.883240222930908203e+00 2.342943191528320312e+00 -1.622064858675003052e-01
2.622000000000000000e+03 5.531122207641601562e+01 -4.333572685718536377e-01 3.895731568336486816e-01 7.591591835021972656e+00 2.394349336624145508e+00 -5.587658658623695374e-02
2.623000000000000000e+03 5.895430374145507812e+01 1.581041455268859863e+00 2.856255471706390381e-01 7.596258163452148438e+00 2.364565134048461914e+00 -1.493660965934395790e-03
2.624000000000000000e+03 3.511952209472656250e+01 6.889637470245361328e+00 9.777246117591857910e-01 7.997905254364013672e+00 2.692688941955566406e+00 2.432172894477844238e-01
2.625000000000000000e+03 3.326517105102539062e+01 1.126457309722900391e+01 7.217827439308166504e-01 8.045190811157226562e+00 2.630091905593872070e+00 3.311618268489837646e-01
2.626000000000000000e+03 6.238801956176757812e+01 -1.246044158935546875e+01 1.123375296592712402e-01 7.674063205718994141e+00 2.335920095443725586e+00 -2.530307471752166748e-01
2.627000000000000000e+03 7.019277954101562500e+01 3.395820236206054688e+01 -5.807593092322349548e-02 7.845876216888427734e+00 2.336339950561523438e+00 9.533107280731201172e-02
2.628000000000000000e+03 6.346371078491210938e+01 -1.564110851287841797e+01 5.767866596579551697e-02 7.708793640136718750e+00 2.329941749572753906e+00 -2.639273405075073242e-01
2.629000000000000000e+03 6.272864913940429688e+01 -2.537573242187500000e+01 -7.673631608486175537e-02 7.816335678100585938e+00 2.321879863739013672e+00 -2.583267092704772949e-01
2.630000000000000000e+03 3.566802978515625000e+01 4.785363674163818359e+00 1.047753453254699707e+00 7.960825443267822266e+00 2.702573537826538086e+00 1.789792180061340332e-01
2.631000000000000000e+03 9.605491638183593750e+00 3.783969879150390625e+01 -3.212342560291290283e-01 3.659966945648193359e+00 1.001619815826416016e+00 -2.262557297945022583e-01
2.632000000000000000e+03 2.178248214721679688e+01 2.550704574584960938e+01 -4.688000380992889404e-01 6.603024482727050781e+00 1.840267300605773926e+00 -4.230212569236755371e-01
2.633000000000000000e+03 1.559014892578125000e+01 2.835583305358886719e+01 -3.118411004543304443e-01 5.093465805053710938e+00 1.434487342834472656e+00 -4.777128100395202637e-01
2.634000000000000000e+03 5.920448684692382812e+01 -2.817685604095458984e+00 2.731751799583435059e-01 7.602060794830322266e+00 2.362570762634277344e+00 -1.068296581506729126e-01
2.635000000000000000e+03 6.001083374023437500e+01 -4.024824500083923340e-01 2.628167569637298584e-01 7.597864151000976562e+00 2.358204364776611328e+00 -4.908088594675064087e-02
2.636000000000000000e+03 2.559640884399414062e+01 2.073898696899414062e+01 -2.144813686609268188e-01 7.631287574768066406e+00 2.225041866302490234e+00 -9.380199015140533447e-02
2.637000000000000000e+03 2.807441329956054688e+01 2.083962249755859375e+01 -2.203483581542968750e-01 7.713789463043212891e+00 2.248032331466674805e+00 1.018073856830596924e-01
2.638000000000000000e+03 6.699667358398437500e+01 2.387488746643066406e+01 -1.648698188364505768e-02 7.752170562744140625e+00 2.320704936981201172e+00 1.969710439443588257e-01
2.639000000000000000e+03 6.246598434448242188e+01 1.431758880615234375e+01 1.041060611605644226e-01 7.667230606079101562e+00 2.331401109695434570e+00 2.101644426584243774e-01
2.640000000000000000e+03 6.142583847045898438e+01 1.238932704925537109e+01 1.403242200613021851e-01 7.652718544006347656e+00 2.337912797927856445e+00 1.975896954536437988e-01
2.641000000000000000e+03 1.929631042480468750e+01 -2.276820755004882812e+01 -3.813382089138031006e-01 6.039997577667236328e+00 1.697597861289978027e+00 7.379260659217834473e-01
2.642000000000000000e+03 2.364225387573242188e+01 -1.886979293823242188e+01 -3.516930043697357178e-01 7.386230945587158203e+00 2.110361337661743164e+00 3.791700303554534912e-01
2.643000000000000000e+03 3.467861938476562500e+01 -8.412235260009765625e+00 8.399025797843933105e-01 7.976727008819580078e+00 2.644988775253295898e+00 -3.768346905708312988e-01
2.644000000000000000e+03 3.060911941528320312e+01 -1.467911148071289062e+01 2.128915190696716309e-01 7.981577873229980469e+00 2.458340883255004883e+00 -3.350140750408172607e-01
2.645000000000000000e+03 6.701478481292724609e+00 3.772481155395507812e+01 -1.921547800302505493e-01 3.102156639099121094e+00 8.730005621910095215e-01 -1.836873292922973633e-01
2.646000000000000000e+03 3.267734909057617188e+01 -9.155430793762207031e+00 8.244292736053466797e-01 8.055487632751464844e+00 2.663975238800048828e+00 -3.748573958873748779e-01
2.647000000000000000e+03 6.701468658447265625e+01 -6.437505245208740234e+00 1.032742261886596680e-01 7.621091365814208984e+00 2.317309617996215820e+00 -1.343215256929397583e-01
2.648000000000000000e+03 6.420654296875000000e+01 -2.748204612731933594e+01 -8.662909269332885742e-02 7.838458061218261719e+00 2.325548648834228516e+00 -2.273179739713668823e-01
2.649000000000000000e+03 6.467294311523437500e+01 -1.347790050506591797e+01 7.491511851549148560e-02 7.687043666839599609e+00 2.328587532043457031e+00 -2.394041270017623901e-01
2.650000000000000000e+03 7.017090606689453125e+01 -3.816974258422851562e+01 -6.981305778026580811e-02 7.953798770904541016e+00 2.365195751190185547e+00 -5.482553690671920776e-02
2.651000000000000000e+03 5.872679138183593750e+01 6.183399677276611328e+00 2.676847875118255615e-01 7.608191013336181641e+00 2.362762689590454102e+00 1.081588417291641235e-01
2.652000000000000000e+03 5.706161880493164062e+01 5.911521315574645996e-01 3.315497338771820068e-01 7.593575954437255859e+00 2.377537727355957031e+00 -2.328873425722122192e-02
2.653000000000000000e+03 1.418465995788574219e+01 3.028629302978515625e+01 -3.891852200031280518e-01 4.705428123474121094e+00 1.294872879981994629e+00 -4.743779599666595459e-01
2.654000000000000000e+03 1.473304176330566406e+01 -2.272132110595703125e+01 3.344927355647087097e-02 4.608788967132568359e+00 1.392671465873718262e+00 8.323584198951721191e-01
2.655000000000000000e+03 3.368711471557617188e+01 5.081882476806640625e+00 1.110400438308715820e+00 8.107048034667968750e+00 2.765234708786010742e+00 1.726215034723281860e-01
2.656000000000000000e+03 3.496015167236328125e+01 3.388549089431762695e-01 1.183333635330200195e+00 8.034434318542480469e+00 2.765330314636230469e+00 -1.724610663950443268e-02
2.657000000000000000e+03 5.945618438720703125e+01 8.339544296264648438e+00 2.328683733940124512e-01 7.620590686798095703e+00 2.356037616729736328e+00 1.452603936195373535e-01
2.658000000000000000e+03 6.403250885009765625e+01 2.453448867797851562e+01 -3.610574826598167419e-02 7.767186641693115234e+00 2.319324254989624023e+00 2.248960584402084351e-01
2.659000000000000000e+03 6.743391418457031250e+01 2.966306304931640625e+01 -6.299559772014617920e-02 7.807859897613525391e+00 2.323459386825561523e+00 1.605010479688644409e-01
2.660000000000000000e+03 1.700521278381347656e+01 -2.428305053710937500e+01 -2.377290427684783936e-01 5.281729698181152344e+00 1.513200283050537109e+00 7.510882616043090820e-01
2.661000000000000000e+03 6.467350006103515625e+01 1.800362968444824219e+01 4.409457743167877197e-02 7.697678565979003906e+00 2.322531938552856445e+00 2.169608920812606812e-01
2.662000000000000000e+03 6.357355499267578125e+01 1.618599319458007812e+01 6.989996135234832764e-02 7.681974411010742188e+00 2.325562238693237305e+00 2.149654179811477661e-01
2.663000000000000000e+03 5.903512191772460938e+01 -8.524619102478027344e+00 2.116728425025939941e-01 7.636964321136474609e+00 2.354591131210327148e+00 -2.220718562602996826e-01
2.664000000000000000e+03 5.652206802368164062e+01 -8.984037399291992188e+00 2.520315945148468018e-01 7.638027191162109375e+00 2.367017745971679688e+00 -2.520584166049957275e-01
2.665000000000000000e+03 3.623205947875976562e+01 -5.825780391693115234e+00 9.415761232376098633e-01 7.897607326507568359e+00 2.651755094528198242e+00 -2.809244394302368164e-01
2.666000000000000000e+03 3.927685165405273438e+01 3.286183476448059082e-01 9.906968474388122559e-01 7.774294853210449219e+00 2.629497528076171875e+00 -3.497980162501335144e-02
2.667000000000000000e+03 1.213264751434326172e+01 3.172549247741699219e+01 -4.079315364360809326e-01 4.346856594085693359e+00 1.181677579879760742e+00 -4.263360798358917236e-01
2.668000000000000000e+03 1.364204216003417969e+01 3.743704605102539062e+01 -5.090207457542419434e-01 4.602118968963623047e+00 1.227929472923278809e+00 -2.260115295648574829e-01
2.669000000000000000e+03 8.360504150390625000e+00 4.091242980957031250e+01 -2.513676881790161133e-01 3.401929378509521484e+00 9.451684951782226562e-01 -7.085442543029785156e-02
2.670000000000000000e+03 2.336781501770019531e+01 -3.686004257202148438e+01 -7.308222055435180664e-01 6.210954666137695312e+00 1.644039750099182129e+00 1.111402884125709534e-01
2.671000000000000000e+03 1.901888275146484375e+01 -3.611929702758789062e+01 -6.008465290069580078e-01 5.522222042083740234e+00 1.476412773132324219e+00 2.055681943893432617e-01
2.672000000000000000e+03 3.639524841308593750e+01 3.574271392822265625e+01 -7.140988111495971680e-01 7.621493816375732422e+00 2.072218418121337891e+00 1.369569897651672363e-01
2.673000000000000000e+03 1.558378982543945312e+01 -3.433335876464843750e+01 -4.901318848133087158e-01 4.917888164520263672e+00 1.328326940536499023e+00 2.950400114059448242e-01
2.674000000000000000e+03 1.238931846618652344e+01 -3.673825454711914062e+01 -3.860166668891906738e-01 4.375277042388916016e+00 1.196778178215026855e+00 2.365193516016006470e-01
2.675000000000000000e+03 4.185648727416992188e+01 -3.640914535522460938e+01 -6.282172799110412598e-01 7.691527843475341797e+00 2.118993282318115234e+00 -1.321995258331298828e-01
2.676000000000000000e+03 3.701417160034179688e+01 -3.697379684448242188e+01 -7.378806471824645996e-01 7.506278991699218750e+00 2.030519485473632812e+00 -9.358265995979309082e-02
2.677000000000000000e+03 4.374459838867187500e+01 3.598966598510742188e+01 -5.576768517494201660e-01 7.806909561157226562e+00 2.174769878387451172e+00 1.596414744853973389e-01
2.678000000000000000e+03 5.708818054199218750e+01 3.753150558471679688e+01 -2.709749341011047363e-01 7.866949558258056641e+00 2.278792381286621094e+00 1.023330688476562500e-01
2.679000000000000000e+03 6.168108367919921875e+01 3.701285934448242188e+01 -1.804366558790206909e-01 7.857639789581298828e+00 2.303160905838012695e+00 9.500974416732788086e-02
2.680000000000000000e+03 6.195402145385742188e+01 -3.710264205932617188e+01 -1.951801180839538574e-01 7.891424655914306641e+00 2.308873414993286133e+00 -1.030421182513237000e-01
2.681000000000000000e+03 5.703275680541992188e+01 -3.662951660156250000e+01 -2.871688008308410645e-01 7.873375892639160156e+00 2.275862216949462891e+00 -1.293310970067977905e-01
2.682000000000000000e+03 6.630619812011718750e+01 3.688979721069335938e+01 -1.105362549424171448e-01 7.853691577911376953e+00 2.322946548461914062e+00 8.462885022163391113e-02
2.683000000000000000e+03 6.641450500488281250e+01 -3.790325546264648438e+01 -1.174946203827857971e-01 7.917976379394531250e+00 2.340144634246826172e+00 -7.326273620128631592e-02
2.684000000000000000e+03 7.156662750244140625e+01 -4.099489974975585938e+01 -4.957123100757598877e-02 7.977893352508544922e+00 2.378496646881103516e+00 -1.775018498301506042e-02
2.685000000000000000e+03 1.823382186889648438e+01 3.721877288818359375e+01 -6.618870496749877930e-01 5.513616561889648438e+00 1.455518960952758789e+00 -1.748952269554138184e-01
2.686000000000000000e+03 2.284948730468750000e+01 3.733071517944335938e+01 -7.878321409225463867e-01 6.323690891265869141e+00 1.660757660865783691e+00 -9.963605552911758423e-02
2.687000000000000000e+03 6.523242950439453125e+01 -1.516017055511474609e+01 4.928610473871231079e-02 7.706630229949951172e+00 2.326774835586547852e+00 -2.415143549442291260e-01
2.688000000000000000e+03 6.404024505615234375e+01 -1.186018085479736328e+01 1.017379462718963623e-01 7.668807983398437500e+00 2.331163883209228516e+00 -2.277115583419799805e-01
2.689000000000000000e+03 2.503773117065429688e+01 2.337329864501953125e+01 -4.194976687431335449e-01 7.326372623443603516e+00 2.072062492370605469e+00 -1.662788093090057373e-01
2.690000000000000000e+03 2.427939987182617188e+01 2.639500617980957031e+01 -5.512909293174743652e-01 6.984205722808837891e+00 1.929874539375305176e+00 -2.177653163671493530e-01
2.691000000000000000e+03 3.173385047912597656e+01 -1.192316055297851562e+01 5.251659154891967773e-01 8.035848617553710938e+00 2.568304300308227539e+00 -3.939177691936492920e-01
2.692000000000000000e+03 3.178457641601562500e+01 -7.173134326934814453e+00 1.045264244079589844e+00 8.196340560913085938e+00 2.772481441497802734e+00 -2.815098464488983154e-01
2.693000000000000000e+03 6.309880065917968750e+01 -1.393204402923583984e+01 7.649502158164978027e-02 7.694059371948242188e+00 2.331166267395019531e+00 -2.561945617198944092e-01
2.694000000000000000e+03 5.864653015136718750e+01 2.236917495727539062e+01 -2.165323868393898010e-02 7.756826877593994141e+00 2.320552110671997070e+00 2.867640554904937744e-01
2.695000000000000000e+03 6.161348724365234375e+01 -1.593718147277832031e+01 6.277622282505035400e-02 7.712904930114746094e+00 2.332704305648803711e+00 -2.878901362419128418e-01
2.696000000000000000e+03 2.541952896118164062e+01 -1.752500724792480469e+01 -2.599629759788513184e-01 7.753471374511718750e+00 2.248052597045898438e+00 1.644242554903030396e-01
2.697000000000000000e+03 5.581335449218750000e+01 4.165302753448486328e+00 3.599029481410980225e-01 7.595719337463378906e+00 2.386686563491821289e+00 7.151568681001663208e-02
2.698000000000000000e+03 3.043747711181640625e+01 1.192835235595703125e+01 6.949399113655090332e-01 8.195775985717773438e+00 2.667214632034301758e+00 2.689880132675170898e-01
2.699000000000000000e+03 3.672865295410156250e+01 -2.320967674255371094e+00 1.068865895271301270e+00 7.885755538940429688e+00 2.686386346817016602e+00 -1.486933678388595581e-01
2.700000000000000000e+03 6.157333755493164062e+01 -2.311313629150390625e+01 -5.596028640866279602e-02 7.792594909667968750e+00 2.320990324020385742e+00 -2.871960997581481934e-01
2.701000000000000000e+03 6.602670288085937500e+01 -2.929758262634277344e+01 -8.304042369127273560e-02 7.859458923339843750e+00 2.332925558090209961e+00 -1.928962767124176025e-01
2.702000000000000000e+03 6.647376251220703125e+01 -3.511233520507812500e+01 -1.158474609255790710e-01 7.908116817474365234e+00 2.337680816650390625e+00 -1.112923696637153625e-01
2.703000000000000000e+03 6.964955902099609375e+01 -3.569195556640625000e+01 -7.437184453010559082e-02 7.934028625488281250e+00 2.357897043228149414e+00 -8.704420179128646851e-02
2.704000000000000000e+03 2.058673286437988281e+01 -2.556290054321289062e+01 -5.053416490554809570e-01 6.192613124847412109e+00 1.706181406974792480e+00 5.381663441658020020e-01
2.705000000000000000e+03 2.562382125854492188e+01 -2.687555122375488281e+01 -6.520771980285644531e-01 6.902450561523437500e+00 1.875112056732177734e+00 1.914401948451995850e-01
2.706000000000000000e+03 3.657994079589843750e+01 1.311479091644287109e+01 5.309026837348937988e-01 7.888278484344482422e+00 2.525754451751708984e+00 4.159290492534637451e-01
2.707000000000000000e+03 3.369556427001953125e+01 1.831456947326660156e+01 9.747234731912612915e-02 7.874767303466796875e+00 2.391671895980834961e+00 4.002332687377929688e-01
2.708000000000000000e+03 3.080943489074707031e+01 2.114853477478027344e+01 -1.968431621789932251e-01 7.774746894836425781e+00 2.273370981216430664e+00 2.576696574687957764e-01
2.709000000000000000e+03 6.405658721923828125e+01 2.111463165283203125e+01 8.580016903579235077e-03 7.730938911437988281e+00 2.321855783462524414e+00 2.322219163179397583e-01
2.710000000000000000e+03 6.281587600708007812e+01 1.933719825744628906e+01 3.206180781126022339e-02 7.714611053466796875e+00 2.324001789093017578e+00 2.394427657127380371e-01
2.711000000000000000e+03 2.185040473937988281e+01 -1.929107856750488281e+01 -3.913404047489166260e-01 6.946856498718261719e+00 1.966654896736145020e+00 6.343345642089843750e-01
2.712000000000000000e+03 2.405052185058593750e+01 -2.112903213500976562e+01 -4.767156839370727539e-01 7.180878162384033203e+00 2.011248826980590820e+00 3.618491888046264648e-01
2.713000000000000000e+03 6.206130218505859375e+01 -1.801432228088378906e+01 2.798443287611007690e-02 7.735205650329589844e+00 2.328957080841064453e+00 -2.909895181655883789e-01
2.714000000000000000e+03 5.739855957031250000e+01 9.224575042724609375e+00 2.610630989074707031e-01 7.627873420715332031e+00 2.366680860519409180e+00 1.818352937698364258e-01
2.715000000000000000e+03 1.824899482727050781e+01 2.739322853088378906e+01 -3.922084271907806396e-01 5.799465179443359375e+00 1.622177004814147949e+00 -5.156009197235107422e-01
2.716000000000000000e+03 6.474678802490234375e+01 2.845492553710937500e+01 -7.088989019393920898e-02 7.801585674285888672e+00 2.319208860397338867e+00 1.895559430122375488e-01
2.717000000000000000e+03 6.244841003417968750e+01 2.657657814025878906e+01 -7.834271341562271118e-02 7.790446758270263672e+00 2.313631296157836914e+00 2.255892902612686157e-01
2.718000000000000000e+03 5.731315612792968750e+01 -1.389278125762939453e+01 1.382271796464920044e-01 7.686847686767578125e+00 2.347522497177124023e+00 -3.198822736740112305e-01
2.719000000000000000e+03 5.795809173583984375e+01 -3.756776094436645508e+00 2.894415557384490967e-01 7.607710361480712891e+00 2.369145631790161133e+00 -1.343793421983718872e-01
2.720000000000000000e+03 5.342803955078125000e+01 -4.453797817230224609e+00 3.990895152091979980e-01 7.605356693267822266e+00 2.401333808898925781e+00 -1.740395873785018921e-01
2.721000000000000000e+03 1.746821212768554688e+01 -2.630301475524902344e+01 -3.816350996494293213e-01 5.399329185485839844e+00 1.505308270454406738e+00 6.127687096595764160e-01
2.722000000000000000e+03 1.327601146697998047e+01 3.424536514282226562e+01 -4.639715254306793213e-01 4.574408054351806641e+00 1.233130931854248047e+00 -3.618144392967224121e-01
2.723000000000000000e+03 6.313362503051757812e+01 3.123326110839843750e+01 -1.224138438701629639e-01 7.826121330261230469e+00 2.311112165451049805e+00 1.735640317201614380e-01
2.724000000000000000e+03 3.858444595336914062e+01 -5.598722934722900391e+00 8.827348947525024414e-01 7.792017459869384766e+00 2.602425813674926758e+00 -2.948163151741027832e-01
2.725000000000000000e+03 3.269031906127929688e+01 -1.400183486938476562e+01 3.006333410739898682e-01 7.983698368072509766e+00 2.485299587249755859e+00 -4.185460805892944336e-01
2.726000000000000000e+03 1.923780632019042969e+01 -2.799981880187988281e+01 -5.040881633758544922e-01 5.723656654357910156e+00 1.565870642662048340e+00 4.946918487548828125e-01
2.727000000000000000e+03 3.357426452636718750e+01 -4.965014457702636719e+00 1.084910154342651367e+00 8.068904876708984375e+00 2.746144294738769531e+00 -2.309002131223678589e-01
2.728000000000000000e+03 6.278051757812500000e+01 -3.382751846313476562e+01 -1.667967289686203003e-01 7.882103919982910156e+00 2.314592123031616211e+00 -1.555836051702499390e-01
2.729000000000000000e+03 6.149505233764648438e+01 -1.386655712127685547e+01 9.863416850566864014e-02 7.689139842987060547e+00 2.336332321166992188e+00 -2.741264700889587402e-01
2.730000000000000000e+03 5.860278320312500000e+01 1.648123931884765625e+01 1.043056398630142212e-01 7.695012092590332031e+00 2.339795351028442383e+00 2.676340341567993164e-01
2.731000000000000000e+03 1.804800605773925781e+01 2.580156135559082031e+01 -2.898482680320739746e-01 5.797796726226806641e+00 1.652384638786315918e+00 -6.646845936775207520e-01
2.732000000000000000e+03 3.731794357299804688e+01 2.281702518463134766e+00 1.061653733253479004e+00 7.872929096221923828e+00 2.680374860763549805e+00 7.480753213167190552e-02
2.733000000000000000e+03 3.017103958129882812e+01 2.400548553466796875e+01 -3.903407454490661621e-01 7.613381862640380859e+00 2.166912317276000977e+00 1.753801256418228149e-01
2.734000000000000000e+03 1.322091388702392578e+01 -3.205183792114257812e+01 -3.804901838302612305e-01 4.490697860717773438e+00 1.233062267303466797e+00 3.906755745410919189e-01
2.735000000000000000e+03 2.066207695007324219e+01 -3.235902023315429688e+01 -6.313768029212951660e-01 5.890412807464599609e+00 1.577710747718811035e+00 3.084879815578460693e-01
2.736000000000000000e+03 2.748570632934570312e+01 4.073860549926757812e+01 -8.628191947937011719e-01 6.895630359649658203e+00 1.809843420982360840e+00 -6.637379992753267288e-03
2.737000000000000000e+03 3.596377563476562500e+01 2.717756271362304688e+01 -4.778321683406829834e-01 7.707945823669433594e+00 2.169034004211425781e+00 2.914169132709503174e-01
2.738000000000000000e+03 3.778827667236328125e+01 3.018695259094238281e+01 -5.476223826408386230e-01 7.717246055603027344e+00 2.150887012481689453e+00 2.682439386844635010e-01
2.739000000000000000e+03 2.754101753234863281e+01 -1.906492042541503906e+01 -2.897901237010955811e-01 7.683532238006591797e+00 2.218122720718383789e+00 -2.598343230783939362e-02
2.740000000000000000e+03 5.553950500488281250e+01 -1.677608108520507812e+01 7.401574403047561646e-02 7.719954967498779297e+00 2.338191270828247070e+00 -3.577141463756561279e-01
2.741000000000000000e+03 5.953253555297851562e+01 -1.366058349609375000e+01 1.173859238624572754e-01 7.686977863311767578e+00 2.341309070587158203e+00 -2.915365695953369141e-01
2.742000000000000000e+03 2.650319290161132812e+01 -2.144458580017089844e+01 -4.799948632717132568e-01 7.432047367095947266e+00 2.085615634918212891e+00 1.214315518736839294e-01
2.743000000000000000e+03 2.363990402221679688e+01 2.996452903747558594e+01 -6.702847480773925781e-01 6.634084224700927734e+00 1.789139866828918457e+00 -2.148223668336868286e-01
2.744000000000000000e+03 5.966397857666015625e+01 -1.613889312744140625e+01 6.963707506656646729e-02 7.713482856750488281e+00 2.334935903549194336e+00 -3.119539916515350342e-01
2.745000000000000000e+03 6.069921875000000000e+01 -2.081145477294921875e+01 -1.984515227377414703e-02 7.764904499053955078e+00 2.323517799377441406e+00 -3.055052757263183594e-01
2.746000000000000000e+03 3.578454971313476562e+01 -1.521483230590820312e+01 1.901596337556838989e-01 7.857117176055908203e+00 2.414183139801025391e+00 -4.712927937507629395e-01
2.747000000000000000e+03 2.935272789001464844e+01 1.398189449310302734e+01 5.286412239074707031e-01 8.152305603027343750e+00 2.604284048080444336e+00 2.432120144367218018e-01
2.748000000000000000e+03 5.966400146484375000e+01 1.337053775787353516e+01 1.489338874816894531e-01 7.662753582000732422e+00 2.343506336212158203e+00 2.244816273450851440e-01
2.749000000000000000e+03 3.910937881469726562e+01 2.108210563659667969e+00 9.855167865753173828e-01 7.785657405853271484e+00 2.631352186203002930e+00 5.524858459830284119e-02
2.750000000000000000e+03 3.720541000366210938e+01 1.275737583637237549e-02 1.065141916275024414e+00 7.846082210540771484e+00 2.673367261886596680e+00 -2.985027432441711426e-02
2.751000000000000000e+03 2.193758773803710938e+01 -2.917216300964355469e+01 -6.233370304107666016e-01 6.232856750488281250e+00 1.682855844497680664e+00 3.384244143962860107e-01
2.752000000000000000e+03 2.292427825927734375e+01 -2.632695198059082031e+01 -6.032783389091491699e-01 6.523127079010009766e+00 1.775954723358154297e+00 3.820710182189941406e-01
2.753000000000000000e+03 5.459467315673828125e+01 -1.187532138824462891e+01 2.251151949167251587e-01 7.664343833923339844e+00 2.366837739944458008e+00 -3.235786259174346924e-01
2.754000000000000000e+03 5.707606887817382812e+01 1.224540805816650391e+01 2.067402601242065430e-01 7.654126644134521484e+00 2.358260154724121094e+00 2.311563938856124878e-01
2.755000000000000000e+03 5.585713195800781250e+01 1.068215370178222656e+01 2.598340809345245361e-01 7.640228748321533203e+00 2.370018959045410156e+00 2.166420072317123413e-01
2.756000000000000000e+03 5.509717178344726562e+01 -3.511189222335815430e+00 3.641781210899353027e-01 7.603232860565185547e+00 2.390223264694213867e+00 -1.453847736120223999e-01
2.757000000000000000e+03 1.758365821838378906e+01 -3.091218757629394531e+01 -5.058792829513549805e-01 5.418905735015869141e+00 1.473907947540283203e+00 3.843479752540588379e-01
2.758000000000000000e+03 2.607727622985839844e+01 -2.410065841674804688e+01 -5.854008197784423828e-01 7.117710590362548828e+00 1.959692835807800293e+00 1.845504492521286011e-01
2.759000000000000000e+03 3.099213981628417969e+01 1.799678802490234375e+01 1.088885068893432617e-01 7.934200286865234375e+00 2.412926673889160156e+00 3.060141205787658691e-01
2.760000000000000000e+03 2.931022834777832031e+01 -1.743365097045898438e+01 -1.254728734493255615e-01 7.871266841888427734e+00 2.323738098144531250e+00 -1.867884248495101929e-01
2.761000000000000000e+03 6.046423721313476562e+01 2.449203872680664062e+01 -5.545350909233093262e-02 7.774641990661621094e+00 2.315756559371948242e+00 2.617258131504058838e-01
2.762000000000000000e+03 3.845360183715820312e+01 -7.738071918487548828e+00 7.384079694747924805e-01 7.802165985107421875e+00 2.562172174453735352e+00 -3.583362102508544922e-01
2.763000000000000000e+03 3.658576202392578125e+01 -7.719761371612548828e+00 8.333373665809631348e-01 7.856596469879150391e+00 2.606980085372924805e+00 -3.696205317974090576e-01
2.764000000000000000e+03 5.512775421142578125e+01 1.686698198318481445e+00 3.892449736595153809e-01 7.593537330627441406e+00 2.394834756851196289e+00 1.034818589687347412e-03
2.765000000000000000e+03 3.422006988525390625e+01 1.311115074157714844e+01 5.689584612846374512e-01 7.970646381378173828e+00 2.561881542205810547e+00 4.003712832927703857e-01
2.766000000000000000e+03 6.062236022949218750e+01 1.541952896118164062e+01 1.047661155462265015e-01 7.680419445037841797e+00 2.335555553436279297e+00 2.375093549489974976e-01
2.767000000000000000e+03 6.054206466674804688e+01 -2.670432662963867188e+01 -1.192675232887268066e-01 7.825755119323730469e+00 2.311946153640747070e+00 -2.678559124469757080e-01
2.768000000000000000e+03 3.401529312133789062e+01 -6.599355697631835938e+00 1.022358059883117676e+00 8.007758140563964844e+00 2.709034919738769531e+00 -3.180158734321594238e-01
2.769000000000000000e+03 3.366429901123046875e+01 -1.113228034973144531e+01 5.916562676429748535e-01 7.995996475219726562e+00 2.576295852661132812e+00 -4.303053915500640869e-01
2.770000000000000000e+03 5.661795806884765625e+01 -2.276333093643188477e+00 3.395425379276275635e-01 7.597432613372802734e+00 2.381092548370361328e+00 -1.072147116065025330e-01
2.771000000000000000e+03 5.648590850830078125e+01 3.431223678588867188e+01 -2.567616701126098633e-01 7.859090805053710938e+00 2.280698776245117188e+00 1.598081290721893311e-01
2.772000000000000000e+03 6.446476745605468750e+01 -3.130352783203125000e+01 -1.180170103907585144e-01 7.869799613952636719e+00 2.325534820556640625e+00 -1.854006797075271606e-01
2.773000000000000000e+03 5.807244491577148438e+01 -2.798908996582031250e+01 -1.709608435630798340e-01 7.829716205596923828e+00 2.297626733779907227e+00 -2.737415134906768799e-01
2.774000000000000000e+03 6.085177612304687500e+01 2.078683662414550781e+01 1.589887589216232300e-02 7.734485626220703125e+00 2.325115442276000977e+00 2.659893929958343506e-01
2.775000000000000000e+03 5.729386901855468750e+01 1.997636795043945312e+01 3.338303044438362122e-02 7.736439228057861328e+00 2.330946683883666992e+00 3.032434284687042236e-01
2.776000000000000000e+03 3.246894454956054688e+01 -4.075059509277343750e+01 -8.084186911582946777e-01 7.191419601440429688e+00 1.914900302886962891e+00 -1.658754423260688782e-02
2.777000000000000000e+03 3.331514739990234375e+01 2.863241577148437500e+01 -5.733027458190917969e-01 7.610174655914306641e+00 2.111061573028564453e+00 2.230809479951858521e-01
2.778000000000000000e+03 4.287654876708984375e+01 3.041004943847656250e+01 -4.291236698627471924e-01 7.816630840301513672e+00 2.216252088546752930e+00 2.910102605819702148e-01
2.779000000000000000e+03 5.778691864013671875e+01 1.428431129455566406e+01 1.557829976081848145e-01 7.673914909362792969e+00 2.348909378051757812e+00 2.542567551136016846e-01
2.780000000000000000e+03 5.546988677978515625e+01 1.264498424530029297e+01 2.330327332019805908e-01 7.660789966583251953e+00 2.368146657943725586e+00 2.583169937133789062e-01
2.781000000000000000e+03 5.677279663085937500e+01 2.791654014587402344e+01 -1.448522955179214478e-01 7.813593387603759766e+00 2.300622224807739258e+00 2.665572762489318848e-01
2.782000000000000000e+03 4.084001159667968750e+01 -6.123819351196289062e+00 7.716305255889892578e-01 7.720763683319091797e+00 2.547718286514282227e+00 -2.868835031986236572e-01
2.783000000000000000e+03 3.737553024291992188e+01 8.053016662597656250e+00 8.710455894470214844e-01 7.874814510345458984e+00 2.623758077621459961e+00 2.921137213706970215e-01
2.784000000000000000e+03 3.930690383911132812e+01 1.093413829803466797e+01 6.168943643569946289e-01 7.802412986755371094e+00 2.525792121887207031e+00 3.728190362453460693e-01
2.785000000000000000e+03 5.219936370849609375e+01 -3.059675455093383789e+00 4.579450190067291260e-01 7.597809791564941406e+00 2.416726589202880859e+00 -1.411972641944885254e-01
2.786000000000000000e+03 3.401878356933593750e+01 1.564394187927246094e+01 3.134944438934326172e-01 7.932141304016113281e+00 2.473690748214721680e+00 4.013898372650146484e-01
2.787000000000000000e+03 3.925022506713867188e+01 -3.269956111907958984e+00 9.310443997383117676e-01 7.759212493896484375e+00 2.607077121734619141e+00 -1.850823163986206055e-01
2.788000000000000000e+03 3.470122909545898438e+01 -1.314004611968994141e+01 3.903915584087371826e-01 7.888896465301513672e+00 2.483786344528198242e+00 -4.508653283119201660e-01
2.789000000000000000e+03 3.873832321166992188e+01 -1.101218318939208984e+01 5.395061969757080078e-01 7.789910793304443359e+00 2.498825073242187500e+00 -4.521019756793975830e-01
2.790000000000000000e+03 3.749774551391601562e+01 -9.295350074768066406e+00 6.825108528137207031e-01 7.841123580932617188e+00 2.557090282440185547e+00 -4.268178641796112061e-01
2.791000000000000000e+03 5.761299514770507812e+01 -1.642750549316406250e+01 7.084359228610992432e-02 7.718125820159912109e+00 2.336690902709960938e+00 -3.339215517044067383e-01
2.792000000000000000e+03 5.799782562255859375e+01 -1.896212959289550781e+01 1.423979271203279495e-02 7.743097782135009766e+00 2.327201366424560547e+00 -3.367620110511779785e-01
2.793000000000000000e+03 3.883240509033203125e+01 -1.632080841064453125e+01 1.340430527925491333e-01 7.807043552398681641e+00 2.382325887680053711e+00 -4.830437600612640381e-01
2.794000000000000000e+03 3.695351791381835938e+01 -1.719211578369140625e+01 5.505822226405143738e-02 7.818077087402343750e+00 2.361940622329711914e+00 -4.605600237846374512e-01
2.795000000000000000e+03 5.363979339599609375e+01 -6.136128425598144531e+00 3.593806624412536621e-01 7.615572452545166016e+00 2.392485857009887695e+00 -2.071227580308914185e-01
2.796000000000000000e+03 5.112916564941406250e+01 -1.118092346191406250e+01 3.015192449092864990e-01 7.660842418670654297e+00 2.388708591461181641e+00 -3.502816259860992432e-01
2.797000000000000000e+03 5.855702972412109375e+01 -2.150325584411621094e+01 -4.148789495229721069e-02 7.772787094116210938e+00 2.319389820098876953e+00 -3.261012732982635498e-01
2.798000000000000000e+03 5.517068481445312500e+01 -1.426629543304443359e+01 1.436720341444015503e-01 7.694417953491210938e+00 2.351427078247070312e+00 -3.468995690345764160e-01
2.799000000000000000e+03 5.696426391601562500e+01 -1.140885639190673828e+01 1.943275630474090576e-01 7.662420272827148438e+00 2.357024431228637695e+00 -2.907365858554840088e-01
2.800000000000000000e+03 3.170989418029785156e+01 -2.704405593872070312e+01 -6.183678507804870605e-01 7.445428848266601562e+00 2.048118352890014648e+00 -1.316199749708175659e-01
2.801000000000000000e+03 2.870133399963378906e+01 -2.437400436401367188e+01 -5.779724717140197754e-01 7.385885715484619141e+00 2.042373895645141602e+00 -1.348787546157836914e-02
2.802000000000000000e+03 3.653460693359375000e+01 1.590989208221435547e+01 2.847723960876464844e-01 7.859926223754882812e+00 2.443409681320190430e+00 4.459285140037536621e-01
2.803000000000000000e+03 3.083365249633789062e+01 -2.180469703674316406e+01 -4.130076766014099121e-01 7.612550735473632812e+00 2.159862756729125977e+00 -1.838376224040985107e-01
2.804000000000000000e+03 3.960903930664062500e+01 3.911038637161254883e+00 9.295008778572082520e-01 7.773581981658935547e+00 2.610924959182739258e+00 1.313669979572296143e-01
2.805000000000000000e+03 3.360336685180664062e+01 2.125161170959472656e+01 -1.524206697940826416e-01 7.802400588989257812e+00 2.294993877410888672e+00 3.571186065673828125e-01
2.806000000000000000e+03 2.982008171081542969e+01 2.661947250366210938e+01 -5.582109689712524414e-01 7.479540824890136719e+00 2.076399087905883789e+00 1.258767098188400269e-01
2.807000000000000000e+03 2.704456901550292969e+01 3.003863716125488281e+01 -6.958779692649841309e-01 7.103519916534423828e+00 1.922292590141296387e+00 -2.257411554455757141e-02
2.808000000000000000e+03 2.320307922363281250e+01 3.372823333740234375e+01 -7.435014843940734863e-01 6.438489913940429688e+00 1.708496570587158203e+00 -1.367138028144836426e-01
2.809000000000000000e+03 3.102617645263671875e+01 -1.880321311950683594e+01 -2.052709609270095825e-01 7.789470672607421875e+00 2.275259971618652344e+00 -2.605224549770355225e-01
2.810000000000000000e+03 5.630694580078125000e+01 1.741609954833984375e+01 1.051707938313484192e-01 7.708005428314208984e+00 2.343952894210815430e+00 2.992214560508728027e-01
2.811000000000000000e+03 3.844907760620117188e+01 2.535318565368652344e+01 -3.286316394805908203e-01 7.785129547119140625e+00 2.236949443817138672e+00 3.736261427402496338e-01
2.812000000000000000e+03 5.014838790893554688e+01 3.126798057556152344e+01 -3.245030939579010010e-01 7.845376014709472656e+00 2.256261825561523438e+00 2.602206170558929443e-01
2.813000000000000000e+03 5.624235534667968750e+01 -3.262245559692382812e+01 -2.629073560237884521e-01 7.856452941894531250e+00 2.278063774108886719e+00 -2.058824002742767334e-01
2.814000000000000000e+03 5.512809753417968750e+01 -2.889966964721679688e+01 -2.273072600364685059e-01 7.833440303802490234e+00 2.281839847564697266e+00 -2.846617698669433594e-01
2.815000000000000000e+03 5.700484085083007812e+01 -2.496232986450195312e+01 -1.243875622749328613e-01 7.804805755615234375e+00 2.304125547409057617e+00 -3.188813030719757080e-01
2.816000000000000000e+03 5.557574081420898438e+01 3.133712577819824219e+01 -2.317632585763931274e-01 7.843687534332275391e+00 2.283577203750610352e+00 2.279148697853088379e-01
2.817000000000000000e+03 5.454055023193359375e+01 2.872078323364257812e+01 -1.930902153253555298e-01 7.826154708862304688e+00 2.289919376373291016e+00 2.759992778301239014e-01
2.818000000000000000e+03 5.357674026489257812e+01 1.254097747802734375e+01 2.481763511896133423e-01 7.663935661315917969e+00 2.373633623123168945e+00 2.743033170700073242e-01
2.819000000000000000e+03 3.220708847045898438e+01 -3.369573211669921875e+01 -7.623463273048400879e-01 7.263376712799072266e+00 1.950309157371520996e+00 -6.125648319721221924e-02
2.820000000000000000e+03 2.782611274719238281e+01 -3.718961334228515625e+01 -7.970865368843078613e-01 6.790254116058349609e+00 1.797950267791748047e+00 3.128182142972946167e-02
2.821000000000000000e+03 3.197884559631347656e+01 -3.026202392578125000e+01 -7.009804844856262207e-01 7.327476978302001953e+00 1.987948894500732422e+00 -8.507654815912246704e-02
2.822000000000000000e+03 5.397854232788085938e+01 -2.248830223083496094e+01 -8.495010435581207275e-02 7.780048370361328125e+00 2.308529376983642578e+00 -3.660088777542114258e-01
2.823000000000000000e+03 3.773207855224609375e+01 4.562620639801025391e+00 9.815995097160339355e-01 7.861117362976074219e+00 2.652815103530883789e+00 1.600876599550247192e-01
2.824000000000000000e+03 3.945434570312500000e+01 8.622677803039550781e+00 7.435829639434814453e-01 7.778660774230957031e+00 2.556673049926757812e+00 3.194312453269958496e-01
2.825000000000000000e+03 3.922301483154296875e+01 1.351474380493164062e+01 4.540264308452606201e-01 7.804812431335449219e+00 2.477651596069335938e+00 4.279786050319671631e-01
2.826000000000000000e+03 3.791627502441406250e+01 -1.417997932434082031e+01 2.970562577247619629e-01 7.815549373626708984e+00 2.433781623840332031e+00 -4.800832271575927734e-01
2.827000000000000000e+03 4.991305160522460938e+01 -9.863304138183593750e+00 3.742863535881042480e-01 7.653943538665771484e+00 2.408468961715698242e+00 -3.332429230213165283e-01
2.828000000000000000e+03 5.157328033447265625e+01 -4.555129528045654297e+00 4.496274888515472412e-01 7.604992389678955078e+00 2.416386127471923828e+00 -1.901453286409378052e-01
2.829000000000000000e+03 5.586415863037109375e+01 -1.937488746643066406e+01 3.221706021577119827e-03 7.749485969543457031e+00 2.325812339782714844e+00 -3.582757115364074707e-01
2.830000000000000000e+03 3.510050201416015625e+01 -1.881340408325195312e+01 -1.093405559659004211e-01 7.810990333557128906e+00 2.310494899749755859e+00 -4.128487408161163330e-01
2.831000000000000000e+03 3.293050384521484375e+01 -2.054538726806640625e+01 -2.805688083171844482e-01 7.732217311859130859e+00 2.235494613647460938e+00 -3.039523065090179443e-01
2.832000000000000000e+03 3.207721710205078125e+01 2.565501594543457031e+01 -4.625745415687561035e-01 7.630958557128906250e+00 2.150515317916870117e+00 2.292735576629638672e-01
2.833000000000000000e+03 3.916053771972656250e+01 1.628329277038574219e+01 2.565611898899078369e-01 7.819092750549316406e+00 2.422696113586425781e+00 4.558236300945281982e-01
2.834000000000000000e+03 5.142187500000000000e+01 1.266728401184082031e+01 2.813392281532287598e-01 7.674800395965576172e+00 2.386842012405395508e+00 3.007709681987762451e-01
2.835000000000000000e+03 5.373685073852539062e+01 1.008917331695556641e+01 3.125819265842437744e-01 7.640285491943359375e+00 2.385860204696655273e+00 2.252610623836517334e-01
2.836000000000000000e+03 3.138335227966308594e+01 -2.414991188049316406e+01 -5.023812651634216309e-01 7.535109519958496094e+00 2.109818458557128906e+00 -1.644261181354522705e-01
2.837000000000000000e+03 5.147591018676757812e+01 -1.314789205789566040e-01 4.977158904075622559e-01 7.593637466430664062e+00 2.427406072616577148e+00 -5.231800302863121033e-02
2.838000000000000000e+03 3.825853347778320312e+01 2.149567222595214844e+01 -9.068879485130310059e-02 7.815015316009521484e+00 2.317297935485839844e+00 4.298484027385711670e-01
2.839000000000000000e+03 4.193078231811523438e+01 6.622603893280029297e+00 7.665373682975769043e-01 7.709831714630126953e+00 2.542910575866699219e+00 2.354315221309661865e-01
2.840000000000000000e+03 5.164636993408203125e+01 -2.571329116821289062e+01 -1.978512853384017944e-01 7.805738925933837891e+00 2.282366275787353516e+00 -3.536123931407928467e-01
2.841000000000000000e+03 2.718131828308105469e+01 3.360745620727539062e+01 -7.842583060264587402e-01 6.971953392028808594e+00 1.856308460235595703e+00 -4.192513227462768555e-02
2.842000000000000000e+03 5.247351074218750000e+01 -1.266787242889404297e+01 2.292166203260421753e-01 7.678041934967041016e+00 2.372177600860595703e+00 -3.588716685771942139e-01
2.843000000000000000e+03 5.186939620971679688e+01 -9.682591438293457031e+00 3.307343721389770508e-01 7.643899917602539062e+00 2.392390251159667969e+00 -3.116968572139739990e-01
2.844000000000000000e+03 4.107549285888671875e+01 -1.009207057952880859e+01 5.482833385467529297e-01 7.755260467529296875e+00 2.491063117980957031e+00 -4.270273149013519287e-01
2.845000000000000000e+03 4.056296157836914062e+01 -8.008991241455078125e+00 6.813462972640991211e-01 7.741921424865722656e+00 2.526980400085449219e+00 -3.793293535709381104e-01
2.846000000000000000e+03 5.442481994628906250e+01 -2.555753707885742188e+01 -1.629313081502914429e-01 7.803286552429199219e+00 2.292106628417968750e+00 -3.346822559833526611e-01
2.847000000000000000e+03 2.956127929687500000e+01 -2.031110382080078125e+01 -3.400251567363739014e-01 7.659678459167480469e+00 2.195896148681640625e+00 -1.371233463287353516e-01
2.848000000000000000e+03 3.979676437377929688e+01 -1.298414039611816406e+01 3.685288131237030029e-01 7.789335727691650391e+00 2.447359323501586914e+00 -4.754559099674224854e-01
2.849000000000000000e+03 5.435780715942382812e+01 2.298893165588378906e+01 -4.767544195055961609e-02 7.775220394134521484e+00 2.318263530731201172e+00 3.282616138458251953e-01
2.850000000000000000e+03 5.653858947753906250e+01 2.431241798400878906e+01 -6.643637269735336304e-02 7.780495166778564453e+00 2.314217805862426758e+00 3.039133548736572266e-01
2.851000000000000000e+03 4.282316970825195312e+01 -2.215244531631469727e+00 8.011551499366760254e-01 7.665260314941406250e+00 2.539924621582031250e+00 -1.450385451316833496e-01
2.852000000000000000e+03 4.067164993286132812e+01 -1.154586076736450195e+00 9.176924824714660645e-01 7.730472087860107422e+00 2.594449520111083984e+00 -9.869673848152160645e-02
2.853000000000000000e+03 3.891046905517578125e+01 1.903865242004394531e+01 4.976654797792434692e-02 7.816454410552978516e+00 2.359866380691528320e+00 4.506423175334930420e-01
2.854000000000000000e+03 5.032604217529296875e+01 -2.186263322830200195e+00 5.250585675239562988e-01 7.596506118774414062e+00 2.436469554901123047e+00 -1.195480599999427795e-01
2.855000000000000000e+03 5.249438476562500000e+01 2.228764772415161133e+00 4.639621078968048096e-01 7.591380119323730469e+00 2.416602611541748047e+00 2.560046315193176270e-02
2.856000000000000000e+03 4.733192825317382812e+01 -3.743892908096313477e+00 6.023406982421875000e-01 7.617491722106933594e+00 2.465949773788452148e+00 -1.821308881044387817e-01
2.857000000000000000e+03 5.361611557006835938e+01 1.485840892791748047e+01 1.915792226791381836e-01 7.690271377563476562e+00 2.364555120468139648e+00 3.076757490634918213e-01
2.858000000000000000e+03 3.406881713867187500e+01 -2.338779830932617188e+01 -4.147868752479553223e-01 7.669032573699951172e+00 2.176273584365844727e+00 -2.881209254264831543e-01
2.859000000000000000e+03 4.189757156372070312e+01 4.935036182403564453e+00 8.101003766059875488e-01 7.705308914184570312e+00 2.554622888565063477e+00 1.540876924991607666e-01
2.860000000000000000e+03 4.043139266967773438e+01 5.684974670410156250e+00 8.509899377822875977e-01 7.749023914337158203e+00 2.580004215240478516e+00 1.983970999717712402e-01
2.861000000000000000e+03 5.319120025634765625e+01 -1.474976539611816406e+01 1.481515169143676758e-01 7.699673652648925781e+00 2.354347705841064453e+00 -3.709352910518646240e-01
2.862000000000000000e+03 4.955959320068359375e+01 -4.190008163452148438e+00 5.212947726249694824e-01 7.610057353973388672e+00 2.439405679702758789e+00 -1.940122842788696289e-01
2.863000000000000000e+03 5.150381469726562500e+01 -6.209881305694580078e+00 4.210648238658905029e-01 7.620933532714843750e+00 2.412599563598632812e+00 -2.311455011367797852e-01
2.864000000000000000e+03 4.991039276123046875e+01 -1.501263809204101562e+01 1.694343686103820801e-01 7.709074020385742188e+00 2.363552570343017578e+00 -4.132374227046966553e-01
2.865000000000000000e+03 5.086294937133789062e+01 -1.367108726501464844e+01 2.149274945259094238e-01 7.689920902252197266e+00 2.371454477310180664e+00 -3.868689835071563721e-01
2.866000000000000000e+03 5.484860610961914062e+01 2.076798248291015625e+01 1.876568607985973358e-02 7.748259544372558594e+00 2.330107450485229492e+00 3.221836388111114502e-01
2.867000000000000000e+03 5.197839355468750000e+01 2.943043899536132812e+01 -2.359988838434219360e-01 7.831401348114013672e+00 2.278620719909667969e+00 2.844554185867309570e-01
2.868000000000000000e+03 4.647651672363281250e+01 1.097251129150390625e+01 4.448437392711639404e-01 7.678830146789550781e+00 2.437102079391479492e+00 3.217972218990325928e-01
2.869000000000000000e+03 4.171633911132812500e+01 8.698028564453125000e+00 6.818989515304565430e-01 7.734730720520019531e+00 2.524988889694213867e+00 3.007011711597442627e-01
2.870000000000000000e+03 3.898517608642578125e+01 -2.232365036010742188e+01 -2.602719962596893311e-01 7.757572174072265625e+00 2.249190092086791992e+00 -4.120147526264190674e-01
2.871000000000000000e+03 4.671091079711914062e+01 -8.688892364501953125e+00 4.728092253208160400e-01 7.661498546600341797e+00 2.440292358398437500e+00 -3.362206518650054932e-01
2.872000000000000000e+03 4.301848220825195312e+01 2.610207319259643555e+00 7.959489226341247559e-01 7.673843860626220703e+00 2.540937900543212891e+00 5.812051147222518921e-02
2.873000000000000000e+03 4.449924850463867188e+01 1.661984825134277344e+01 2.113195806741714478e-01 7.760344505310058594e+00 2.391499280929565430e+00 4.238986074924468994e-01
2.874000000000000000e+03 4.887748718261718750e+01 2.123435974121093750e+01 -3.200243925675749779e-03 7.779131412506103516e+00 2.332779407501220703e+00 3.908201456069946289e-01
2.875000000000000000e+03 3.733209609985351562e+01 -2.054904174804687500e+01 -2.024904489517211914e-01 7.762855052947998047e+00 2.268109321594238281e+00 -4.149829745292663574e-01
2.876000000000000000e+03 3.548870468139648438e+01 -2.983114814758300781e+01 -6.312189102172851562e-01 7.545432090759277344e+00 2.074264049530029297e+00 -1.963777840137481689e-01
2.877000000000000000e+03 4.573795318603515625e+01 3.255118942260742188e+01 -4.457487463951110840e-01 7.834890842437744141e+00 2.216742753982543945e+00 2.465130835771560669e-01
2.878000000000000000e+03 5.163817977905273438e+01 -7.910526752471923828e+00 3.692994713783264160e-01 7.634586811065673828e+00 2.401165962219238281e+00 -2.686861455440521240e-01
2.879000000000000000e+03 4.383776473999023438e+01 -9.437173843383789062e+00 5.262594819068908691e-01 7.687041282653808594e+00 2.463990211486816406e+00 -3.790766894817352295e-01
2.880000000000000000e+03 4.736914825439453125e+01 -3.225204849243164062e+01 -4.444789290428161621e-01 7.797161579132080078e+00 2.205804824829101562e+00 -2.394265532493591309e-01
2.881000000000000000e+03 4.832526397705078125e+01 -2.865793991088867188e+01 -3.348541259765625000e-01 7.809442043304443359e+00 2.242376327514648438e+00 -3.176196813583374023e-01
2.882000000000000000e+03 4.165018844604492188e+01 -1.213151073455810547e+01 4.281384646892547607e-01 7.750799179077148438e+00 2.453681230545043945e+00 -4.543474614620208740e-01
2.883000000000000000e+03 3.609352111816406250e+01 2.100435256958007812e+01 -9.366901963949203491e-02 7.815261363983154297e+00 2.316477775573730469e+00 4.168361723423004150e-01
2.884000000000000000e+03 5.859840011596679688e+01 2.628296470642089844e+01 -1.054120883345603943e-01 7.796754837036132812e+00 2.307402849197387695e+00 2.646450400352478027e-01
2.885000000000000000e+03 4.694931411743164062e+01 -3.627864837646484375e+01 -5.163406133651733398e-01 7.796801567077636719e+00 2.184138298034667969e+00 -1.545190364122390747e-01
2.886000000000000000e+03 4.183623504638671875e+01 1.663124084472656250e+01 2.219251245260238647e-01 7.783146381378173828e+00 2.401521444320678711e+00 4.453185796737670898e-01
2.887000000000000000e+03 2.737695503234863281e+01 3.719061660766601562e+01 -8.303418159484863281e-01 6.913944721221923828e+00 1.825080752372741699e+00 -1.003279257565736771e-02
2.888000000000000000e+03 4.597280502319335938e+01 2.282987785339355469e+01 -9.438133239746093750e-02 7.799033641815185547e+00 2.311395645141601562e+00 4.013698101043701172e-01
2.889000000000000000e+03 4.818613052368164062e+01 3.715388870239257812e+01 -4.730701744556427002e-01 7.857497215270996094e+00 2.215328216552734375e+00 1.319323927164077759e-01
2.890000000000000000e+03 4.826488113403320312e+01 -1.412211418151855469e+01 2.195761352777481079e-01 7.704418182373046875e+00 2.377198457717895508e+00 -4.166557788848876953e-01
2.891000000000000000e+03 4.912908935546875000e+01 6.914078593254089355e-01 5.802143812179565430e-01 7.597959518432617188e+00 2.453452110290527344e+00 -1.819543913006782532e-02
2.892000000000000000e+03 4.601963806152343750e+01 -8.648839592933654785e-01 6.890803575515747070e-01 7.619805335998535156e+00 2.492665767669677734e+00 -8.051115274429321289e-02
2.893000000000000000e+03 4.356495285034179688e+01 -1.427191066741943359e+01 2.550261318683624268e-01 7.736313343048095703e+00 2.397401809692382812e+00 -4.722190499305725098e-01
2.894000000000000000e+03 4.635933685302734375e+01 -1.280984497070312500e+01 3.088393509387969971e-01 7.700345516204833984e+00 2.402755498886108398e+00 -4.278546869754791260e-01
2.895000000000000000e+03 4.934761047363281250e+01 -8.130233764648437500e+00 4.259864985942840576e-01 7.639051914215087891e+00 2.419511556625366211e+00 -2.978785932064056396e-01
2.896000000000000000e+03 4.427622222900390625e+01 1.377025222778320312e+01 3.564155399799346924e-01 7.732258319854736328e+00 2.426602125167846680e+00 3.965071737766265869e-01
2.897000000000000000e+03 4.410659790039062500e+01 -5.392261981964111328e+00 6.642531156539916992e-01 7.656092166900634766e+00 2.496103525161743164e+00 -2.586224675178527832e-01
2.898000000000000000e+03 4.506389617919921875e+01 -3.087320327758789062e+00 6.881403326988220215e-01 7.641510486602783203e+00 2.498895168304443359e+00 -1.740501970052719116e-01
2.899000000000000000e+03 4.911245346069335938e+01 1.307807159423828125e+01 3.100350797176361084e-01 7.683826923370361328e+00 2.398158550262451172e+00 3.349061608314514160e-01
2.900000000000000000e+03 5.264342880249023438e+01 2.167631340026855469e+01 -6.829692516475915909e-03 7.767602443695068359e+00 2.328231811523437500e+00 3.522871136665344238e-01
2.901000000000000000e+03 5.059704971313476562e+01 5.373582839965820312e+00 4.877589344978332520e-01 7.607871055603027344e+00 2.428689002990722656e+00 1.316409409046173096e-01
2.902000000000000000e+03 4.363270187377929688e+01 4.564542293548583984e+00 7.540941834449768066e-01 7.663742065429687500e+00 2.525350809097290039e+00 1.372280269861221313e-01
2.903000000000000000e+03 4.726420593261718750e+01 -1.635786247253417969e+01 1.280541270971298218e-01 7.734525203704833984e+00 2.358773708343505859e+00 -4.486491382122039795e-01
2.904000000000000000e+03 4.664979171752929688e+01 -6.121607303619384766e+00 5.666113495826721191e-01 7.641317844390869141e+00 2.462378740310668945e+00 -2.737627029418945312e-01
2.905000000000000000e+03 5.148968124389648438e+01 -1.975605201721191406e+01 -1.153139211237430573e-02 7.756600379943847656e+00 2.323520660400390625e+00 -4.010818600654602051e-01
2.906000000000000000e+03 5.370228958129882812e+01 -1.966973876953125000e+01 -4.524527583271265030e-03 7.750796794891357422e+00 2.323881864547729492e+00 -3.795811831951141357e-01
2.907000000000000000e+03 4.778105163574218750e+01 1.881716537475585938e+01 8.285202831029891968e-02 7.757445812225341797e+00 2.352089405059814453e+00 3.968717157840728760e-01
2.908000000000000000e+03 4.672049331665039062e+01 1.350970840454101562e+01 3.361665606498718262e-01 7.708657264709472656e+00 2.413447141647338867e+00 3.654874861240386963e-01
2.909000000000000000e+03 4.483737564086914062e+01 1.979057884216308594e+01 3.399270772933959961e-02 7.785301685333251953e+00 2.345788240432739258e+00 4.280477464199066162e-01
2.910000000000000000e+03 4.402370452880859375e+01 8.771932601928710938e+00 5.983591675758361816e-01 7.684075832366943359e+00 2.484730482101440430e+00 2.890117466449737549e-01
2.911000000000000000e+03 4.392757415771484375e+01 6.594524860382080078e+00 6.913998126983642578e-01 7.673139572143554688e+00 2.509361743927001953e+00 2.152971476316452026e-01
2.912000000000000000e+03 4.412609100341796875e+01 1.116622161865234375e+01 4.963537156581878662e-01 7.712878704071044922e+00 2.462769746780395508e+00 3.476764857769012451e-01
2.913000000000000000e+03 5.125365829467773438e+01 1.026855659484863281e+01 3.606403768062591553e-01 7.644303321838378906e+00 2.401483058929443359e+00 2.546087205410003662e-01
2.914000000000000000e+03 3.869656753540039062e+01 -2.894828605651855469e+01 -5.429062843322753906e-01 7.665163040161132812e+00 2.136677026748657227e+00 -2.668001055717468262e-01
2.915000000000000000e+03 3.986589431762695312e+01 -2.490898513793945312e+01 -3.623919188976287842e-01 7.735088825225830078e+00 2.211809158325195312e+00 -3.667709827423095703e-01
2.916000000000000000e+03 4.766574096679687500e+01 3.586550712585449219e+00 6.130113601684570312e-01 7.613239765167236328e+00 2.467875242233276367e+00 8.755273371934890747e-02
2.917000000000000000e+03 4.884237670898437500e+01 -2.537287712097167969e+01 -2.225004434585571289e-01 7.796591758728027344e+00 2.272227525711059570e+00 -3.708760142326354980e-01
2.918000000000000000e+03 3.667995071411132812e+01 -2.293434906005859375e+01 -3.412131965160369873e-01 7.715015411376953125e+00 2.212140798568725586e+00 -3.577636480331420898e-01
2.919000000000000000e+03 4.907591247558593750e+01 3.395526123046875000e+01 -4.033280014991760254e-01 7.852333068847656250e+00 2.234701633453369141e+00 2.045690864324569702e-01
2.920000000000000000e+03 4.535099792480468750e+01 -2.748775100708007812e+01 -3.525690734386444092e-01 7.786278724670410156e+00 2.230112791061401367e+00 -3.410417139530181885e-01
2.921000000000000000e+03 4.535376739501953125e+01 -1.512322235107421875e+01 1.847607195377349854e-01 7.731427192687988281e+00 2.374856472015380859e+00 -4.601790904998779297e-01
2.922000000000000000e+03 4.399664688110351562e+01 -1.878278160095214844e+01 -3.189225972164422274e-04 7.760132789611816406e+00 2.327944040298461914e+00 -4.689051806926727295e-01
2.923000000000000000e+03 4.365018463134765625e+01 -1.632071876525878906e+01 1.275180727243423462e-01 7.752990245819091797e+00 2.364152669906616211e+00 -4.765605926513671875e-01
2.924000000000000000e+03 4.857771301269531250e+01 8.228766441345214844e+00 4.860977232456207275e-01 7.636326789855957031e+00 2.436727285385131836e+00 2.316458374261856079e-01
2.925000000000000000e+03 4.819008255004882812e+01 -1.512073278427124023e+00 6.006037592887878418e-01 7.608879566192626953e+00 2.462845087051391602e+00 -1.057008132338523865e-01
2.926000000000000000e+03 4.393710708618164062e+01 -1.373907029628753662e-01 7.803546190261840820e-01 7.651491165161132812e+00 2.529553890228271484e+00 -5.142458528280258179e-02
2.927000000000000000e+03 4.487028121948242188e+01 1.970581173896789551e+00 7.301343083381652832e-01 7.638453960418701172e+00 2.510576486587524414e+00 3.486517444252967834e-02
2.928000000000000000e+03 4.691887664794921875e+01 1.342877745628356934e+00 6.625554561614990234e-01 7.615748405456542969e+00 2.483491182327270508e+00 3.661099122837185860e-03
2.929000000000000000e+03 4.996709442138671875e+01 2.979167938232421875e+00 5.460795164108276367e-01 7.601011753082275391e+00 2.444127321243286133e+00 5.408763512969017029e-02
2.930000000000000000e+03 3.868582916259765625e+01 -1.849287796020507812e+01 -3.332179784774780273e-02 7.789177417755126953e+00 2.326756715774536133e+00 -4.735168218612670898e-01
2.931000000000000000e+03 4.137834930419921875e+01 -2.153860473632812500e+01 -1.840875148773193359e-01 7.760472774505615234e+00 2.272915601730346680e+00 -4.330725073814392090e-01
2.932000000000000000e+03 4.403269195556640625e+01 -1.202532768249511719e+01 3.773453533649444580e-01 7.716283798217773438e+00 2.428088665008544922e+00 -4.328262805938720703e-01
2.933000000000000000e+03 4.622344207763671875e+01 -2.467227554321289062e+01 -2.425069510936737061e-01 7.793544769287109375e+00 2.265311479568481445e+00 -3.904532790184020996e-01
2.934000000000000000e+03 4.626934051513671875e+01 8.575624465942382812e+00 5.439472198486328125e-01 7.663214683532714844e+00 2.462148427963256836e+00 2.592816054821014404e-01
2.935000000000000000e+03 4.555823135375976562e+01 4.111848831176757812e+00 6.870372891426086426e-01 7.637513637542724609e+00 2.497365474700927734e+00 1.097590252757072449e-01
2.936000000000000000e+03 4.600080108642578125e+01 6.304240703582763672e+00 6.214973330497741699e-01 7.640046596527099609e+00 2.478463172912597656e+00 1.937672793865203857e-01
2.937000000000000000e+03 4.193810272216796875e+01 -2.401769638061523438e+01 -2.977511584758758545e-01 7.756299972534179688e+00 2.237564563751220703e+00 -3.988609015941619873e-01
2.938000000000000000e+03 5.170399093627929688e+01 1.486138534545898438e+01 2.127841860055923462e-01 7.693941593170166016e+00 2.372017860412597656e+00 3.301031589508056641e-01
2.939000000000000000e+03 4.916715621948242188e+01 -1.953997039794921875e+01 -6.594180595129728317e-03 7.756090164184570312e+00 2.324848890304565430e+00 -4.240353107452392578e-01
2.940000000000000000e+03 5.145991134643554688e+01 1.979601860046386719e+01 4.479352012276649475e-02 7.750388622283935547e+00 2.338554620742797852e+00 3.602931201457977295e-01
2.941000000000000000e+03 4.312384796142578125e+01 -2.595025444030761719e+01 -3.530982732772827148e-01 7.764698505401611328e+00 2.223479986190795898e+00 -3.633005619049072266e-01
2.942000000000000000e+03 4.668449020385742188e+01 -1.903223991394042969e+01 -1.237111573573201895e-04 7.763228416442871094e+00 2.328931570053100586e+00 -4.480195641517639160e-01
2.943000000000000000e+03 4.400187301635742188e+01 -2.150086784362792969e+01 -1.459596753120422363e-01 7.780529022216796875e+00 2.290370702743530273e+00 -4.412100017070770264e-01
2.944000000000000000e+03 1.328882098197937012e+00 1.642935395240783691e+00 -2.800796879455447197e-03 -4.863901063799858093e-02 -1.543194241821765900e-02 1.066037639975547791e-01
2.945000000000000000e+03 2.487110376358032227e+00 1.597806096076965332e+00 2.715532667934894562e-02 2.299598790705204010e-02 1.504539418965578079e-02 1.047005057334899902e-01
2.946000000000000000e+03 3.073240041732788086e+00 1.686619281768798828e+00 4.736059159040451050e-02 4.317486286163330078e-02 2.716063708066940308e-02 4.726553708314895630e-02
2.947000000000000000e+03 3.548753023147583008e+00 2.033530712127685547e+00 1.670038253068923950e-01 1.306654512882232666e-01 8.930078148841857910e-02 -3.065330162644386292e-02
2.948000000000000000e+03 3.893178462982177734e+00 2.010750532150268555e+00 1.984242349863052368e-01 1.959391683340072632e-01 1.183090209960937500e-01 -7.883679121732711792e-02
2.949000000000000000e+03 4.358067035675048828e+00 2.076469182968139648e+00 3.200702667236328125e-01 2.383925616741180420e-01 1.675388514995574951e-01 -1.986471116542816162e-01
2.950000000000000000e+03 4.568784713745117188e+00 2.026345252990722656e+00 3.423613309860229492e-01 2.546074092388153076e-01 1.790906190872192383e-01 -2.634204030036926270e-01
2.951000000000000000e+03 5.309864044189453125e+00 1.641362547874450684e+00 4.841579496860504150e-01 2.112518548965454102e-01 2.086229473352432251e-01 -3.304650783538818359e-01
2.952000000000000000e+03 6.888425827026367188e+00 1.624173998832702637e+00 1.357324719429016113e+00 6.659384369850158691e-01 6.069789528846740723e-01 -1.144854545593261719e+00
2.953000000000000000e+03 7.079508781433105469e+00 1.660300731658935547e+00 1.481693744659423828e+00 7.583070397377014160e-01 6.720002293586730957e-01 -1.320088863372802734e+00
2.954000000000000000e+03 8.977972030639648438e+00 1.818725466728210449e+00 2.114724159240722656e+00 5.728131771087646484e+00 2.352856874465942383e+00 -4.199067592620849609e+00
2.955000000000000000e+03 9.274233818054199219e+00 1.693146944046020508e+00 1.946356415748596191e+00 7.489650726318359375e+00 2.830802202224731445e+00 -4.608345508575439453e+00
2.956000000000000000e+03 9.520191192626953125e+00 2.193692922592163086e+00 2.523141503334045410e-01 8.550133705139160156e+00 2.640734195709228516e+00 -3.360673189163208008e+00
2.957000000000000000e+03 9.241406440734863281e+00 2.243003845214843750e+00 6.176081299781799316e-01 7.163109779357910156e+00 2.334215402603149414e+00 -3.625214099884033203e+00
2.958000000000000000e+03 1.063679790496826172e+01 1.926203846931457520e+00 -3.988762497901916504e-01 1.216394615173339844e+01 3.529520988464355469e+00 5.775991678237915039e-01
2.959000000000000000e+03 1.204251194000244141e+01 -2.465435713529586792e-01 6.759317874908447266e+00 4.401163101196289062e+00 3.348144292831420898e+00 -8.326979875564575195e-01
2.960000000000000000e+03 1.184908866882324219e+01 -8.129073381423950195e-01 6.022417068481445312e+00 5.908400535583496094e+00 3.579245090484619141e+00 -2.859522104263305664e+00
2.961000000000000000e+03 1.181253242492675781e+01 -1.351055860519409180e+00 3.327405691146850586e+00 6.915689945220947266e+00 3.072928667068481445e+00 -3.528373003005981445e+00
2.962000000000000000e+03 1.086243629455566406e+01 -1.815839767456054688e+00 3.222997486591339111e-01 1.150343704223632812e+01 3.547720909118652344e+00 -1.122481584548950195e+00
2.963000000000000000e+03 1.042864227294921875e+01 -1.923474550247192383e+00 -3.862425386905670166e-01 1.225467777252197266e+01 3.560530424118041992e+00 9.276829361915588379e-01
2.964000000000000000e+03 1.021751880645751953e+01 -1.970265030860900879e+00 -4.527530670166015625e-01 1.194815254211425781e+01 3.448619842529296875e+00 1.802700638771057129e+00
2.965000000000000000e+03 9.723734855651855469e+00 -1.674353361129760742e+00 1.063280701637268066e+00 1.117351722717285156e+01 3.671039342880249023e+00 4.637591838836669922e+00
2.966000000000000000e+03 9.775490760803222656e+00 -2.022506713867187500e+00 3.201343119144439697e-02 1.029956626892089844e+01 3.099473714828491211e+00 3.536239147186279297e+00
2.967000000000000000e+03 9.112757682800292969e+00 -1.647523999214172363e+00 2.488398075103759766e+00 6.856014728546142578e+00 2.803323745727539062e+00 5.151251316070556641e+00
2.968000000000000000e+03 8.971503257751464844e+00 -2.138484239578247070e+00 1.273499011993408203e+00 6.355748653411865234e+00 2.288774251937866211e+00 4.334031581878662109e+00
2.969000000000000000e+03 8.530490875244140625e+00 -2.115877151489257812e+00 1.665126681327819824e+00 4.455675601959228516e+00 1.836240649223327637e+00 3.973437786102294922e+00
2.970000000000000000e+03 8.078337669372558594e+00 -2.077387094497680664e+00 1.760848045349121094e+00 3.051107406616210938e+00 1.443586587905883789e+00 3.279763460159301758e+00
2.971000000000000000e+03 7.477109909057617188e+00 -1.700265169143676758e+00 1.854333400726318359e+00 1.347752451896667480e+00 9.606257677078247070e-01 2.089412212371826172e+00
2.972000000000000000e+03 6.530829906463623047e+00 -1.890559077262878418e+00 1.105219006538391113e+00 8.272317647933959961e-01 5.797352194786071777e-01 1.288077592849731445e+00
2.973000000000000000e+03 6.177792549133300781e+00 -2.024393796920776367e+00 8.463009595870971680e-01 7.548806667327880859e-01 4.803544878959655762e-01 1.066319704055786133e+00
2.974000000000000000e+03 5.673563003540039062e+00 -2.031234979629516602e+00 6.460340023040771484e-01 5.643386840820312500e-01 3.631117939949035645e-01 7.673508524894714355e-01
2.975000000000000000e+03 5.435718536376953125e+00 -2.200499773025512695e+00 5.407339930534362793e-01 5.938839316368103027e-01 3.403853774070739746e-01 7.287423014640808105e-01
2.976000000000000000e+03 5.375307559967041016e+00 -1.856122255325317383e+00 5.145294070243835449e-01 4.105856418609619141e-01 2.775345146656036377e-01 5.551187396049499512e-01
2.977000000000000000e+03 4.643215179443359375e+00 -2.130129098892211914e+00 3.123858571052551270e-01 3.623456358909606934e-01 2.024194449186325073e-01 3.446851372718811035e-01
2.978000000000000000e+03 3.308347940444946289e+00 -1.625972986221313477e+00 2.417675964534282684e-02 7.489429414272308350e-02 2.972131595015525818e-02 -5.966603755950927734e-02
2.979000000000000000e+03 3.112802267074584961e+00 -1.685071349143981934e+00 1.151002384722232819e-02 8.130977302789688110e-02 2.784593962132930756e-02 -8.262601494789123535e-02
2.980000000000000000e+03 3.210532426834106445e+00 -1.989254951477050781e+00 7.125468552112579346e-02 1.194212585687637329e-01 5.720278248190879822e-02 -4.934336245059967041e-02
2.981000000000000000e+03 2.238330602645874023e+00 -1.859962582588195801e+00 -3.453336656093597412e-02 6.521687377244234085e-03 -8.403503336012363434e-03 -1.390413939952850342e-01
2.982000000000000000e+03 1.645452260971069336e+00 -1.704504728317260742e+00 -2.578375115990638733e-02 -5.852316692471504211e-02 -2.529207617044448853e-02 -1.474101096391677856e-01
2.983000000000000000e+03 1.441826581954956055e+00 -1.649241685867309570e+00 1.173983048647642136e-02 -4.919958487153053284e-02 -1.123792678117752075e-02 -1.313772648572921753e-01
2.984000000000000000e+03 4.395285546779632568e-01 2.040835618972778320e+00 1.238550394773483276e-01 -1.610095351934432983e-01 -1.114635169506072998e-02 -1.212639454752206802e-02
2.985000000000000000e+03 2.218014597892761230e-01 3.618440866470336914e+00 -5.312696844339370728e-02 -3.054988980293273926e-01 -1.075877547264099121e-01 2.501313574612140656e-04
2.986000000000000000e+03 5.827977180480957031e+00 -1.594805622100830078e+01 3.293222427368164062e+00 6.690621376037597656e+00 2.995153188705444336e+00 4.890823271125555038e-03
2.987000000000000000e+03 4.926458895206451416e-01 2.589723825454711914e+00 -1.634441199712455273e-03 -1.878367960453033447e-01 -5.684136971831321716e-02 8.177998661994934082e-02
2.988000000000000000e+03 8.126205801963806152e-01 2.513191461563110352e+00 -8.483717218041419983e-03 -1.581277847290039062e-01 -4.998345300555229187e-02 7.649940997362136841e-02
2.989000000000000000e+03 7.153122901916503906e+00 2.340620040893554688e+00 1.370550513267517090e+00 1.493641376495361328e+00 8.592575788497924805e-01 -1.850077390670776367e+00
2.990000000000000000e+03 3.460820436477661133e+00 -3.589071655273437500e+01 -1.978259533643722534e-02 2.677566289901733398e+00 7.973350882530212402e-01 1.487004309892654419e-01
2.991000000000000000e+03 7.803864288330078125e+01 4.160369873046875000e+01 1.960756257176399231e-03 7.975636482238769531e+00 2.393279075622558594e+00 -5.857965443283319473e-04
2.992000000000000000e+03 6.009177684783935547e+00 2.319210290908813477e+00 8.362323045730590820e-01 7.095503211021423340e-01 4.637348055839538574e-01 -9.022658467292785645e-01
2.993000000000000000e+03 8.692427635192871094e+00 2.184961557388305664e+00 1.492640733718872070e+00 4.832112312316894531e+00 1.897425889968872070e+00 -3.625239372253417969e+00
2.994000000000000000e+03 5.610546588897705078e+00 2.164526700973510742e+00 6.777548193931579590e-01 4.919100701808929443e-01 3.508994579315185547e-01 -6.314111948013305664e-01
2.995000000000000000e+03 9.011782646179199219e+00 2.186781406402587891e+00 1.037846565246582031e+00 6.084585666656494141e+00 2.136729717254638672e+00 -3.687761545181274414e+00
2.996000000000000000e+03 1.664053559303283691e+00 2.080190896987915039e+00 2.368219941854476929e-02 -3.507353737950325012e-02 -3.417400876060128212e-03 6.559522449970245361e-02
2.997000000000000000e+03 5.334375381469726562e+00 1.926493525505065918e+00 5.306295752525329590e-01 3.326923549175262451e-01 2.589965760707855225e-01 -4.297468662261962891e-01
2.998000000000000000e+03 5.547452449798583984e+00 1.886956453323364258e+00 6.458467245101928711e-01 3.382883369922637939e-01 2.952405214309692383e-01 -5.166903734207153320e-01
2.999000000000000000e+03 2.610062122344970703e+00 -2.360564708709716797e+00 3.918610513210296631e-02 7.183055579662322998e-02 3.330499678850173950e-02 -9.075348824262619019e-02
3.000000000000000000e+03 2.445987462997436523e+00 -1.883721113204956055e+00 4.128036089241504669e-03 4.386852309107780457e-02 1.439896784722805023e-02 -1.129102706909179688e-01
3.001000000000000000e+03 7.440217018127441406e+00 2.179965019226074219e+00 1.592953085899353027e+00 1.675286650657653809e+00 9.804719090461730957e-01 -2.062384366989135742e+00
3.002000000000000000e+03 7.640589237213134766e+00 2.360748529434204102e+00 1.398427605628967285e+00 2.288287639617919922e+00 1.106014609336853027e+00 -2.375811338424682617e+00
3.003000000000000000e+03 8.162567138671875000e+00 2.111120462417602539e+00 1.762191534042358398e+00 3.062747478485107422e+00 1.447481632232666016e+00 -2.993961095809936523e+00
3.004000000000000000e+03 6.842266559600830078e+00 2.549233913421630859e+00 1.122295260429382324e+00 1.407190918922424316e+00 7.588458657264709473e-01 -1.603483319282531738e+00
3.005000000000000000e+03 5.121255874633789062e+00 2.218518733978271484e+00 4.967564940452575684e-01 4.050920307636260986e-01 2.705545425415039062e-01 -4.625282585620880127e-01
3.006000000000000000e+03 3.731801271438598633e+00 2.181999921798706055e+00 2.185179591178894043e-01 1.794451773166656494e-01 1.193889379501342773e-01 -8.050583302974700928e-02
3.007000000000000000e+03 2.449870347976684570e+00 2.064882278442382812e+00 2.430929429829120636e-02 3.868761658668518066e-02 1.889907382428646088e-02 5.143472179770469666e-02
3.008000000000000000e+03 2.404534101486206055e+00 1.761478543281555176e+00 1.737035624682903290e-02 9.739088825881481171e-03 8.132833056151866913e-03 7.815703004598617554e-02
3.009000000000000000e+03 2.246549844741821289e+00 1.917088270187377930e+00 5.352634191513061523e-02 3.192963451147079468e-02 2.563679218292236328e-02 1.110136285424232483e-01
3.010000000000000000e+03 1.023489952087402344e+01 2.075370788574218750e+00 -6.140062808990478516e-01 1.116015815734863281e+01 3.163845300674438477e+00 -1.182951688766479492e+00
3.011000000000000000e+03 6.879998683929443359e+00 -2.530102968215942383e+00 9.244470596313476562e-01 1.690968871116638184e+00 7.846247553825378418e-01 1.871474504470825195e+00
3.012000000000000000e+03 8.039714813232421875e+00 -2.426564693450927734e+00 1.181375026702880859e+00 3.429290771484375000e+00 1.383199691772460938e+00 3.289938688278198242e+00
3.013000000000000000e+03 6.695310592651367188e+00 -2.169148921966552734e+00 1.067021012306213379e+00 1.186211228370666504e+00 6.759696602821350098e-01 1.572793841361999512e+00
3.014000000000000000e+03 6.946901798248291016e+00 -2.159309625625610352e+00 1.218788743019104004e+00 1.350952029228210449e+00 7.709222435951232910e-01 1.821903467178344727e+00
3.015000000000000000e+03 6.352612018585205078e+00 -2.299358844757080078e+00 8.698961138725280762e-01 1.117152452468872070e+00 5.961145758628845215e-01 1.362797498703002930e+00
3.016000000000000000e+03 8.865663528442382812e+00 -2.336427450180053711e+00 7.323825955390930176e-01 5.658166885375976562e+00 1.917164802551269531e+00 3.880292415618896484e+00
3.017000000000000000e+03 9.319101333618164062e+00 -2.015905141830444336e+00 9.671201109886169434e-01 7.970314979553222656e+00 2.681230545043945312e+00 4.445917606353759766e+00
3.018000000000000000e+03 9.606560707092285156e+00 -2.402359485626220703e+00 -4.313049912452697754e-01 8.719040870666503906e+00 2.486320972442626953e+00 3.350018024444580078e+00
3.019000000000000000e+03 9.346140861511230469e+00 -2.402027130126953125e+00 -1.883667893707752228e-02 7.813721179962158203e+00 2.338465213775634766e+00 3.800008773803710938e+00
3.020000000000000000e+03 9.083099365234375000e+00 -2.775354385375976562e+00 -3.134519159793853760e-01 6.557411670684814453e+00 1.873188018798828125e+00 3.447319746017456055e+00
3.021000000000000000e+03 1.092394733428955078e+01 -2.117173194885253906e+00 -4.222860038280487061e-01 1.019716739654541016e+01 2.932464361190795898e+00 -1.044444799423217773e+00
3.022000000000000000e+03 1.212887001037597656e+01 9.287374615669250488e-01 5.258178710937500000e+00 4.328361511230468750e+00 2.875962018966674805e+00 3.354189872741699219e+00
3.023000000000000000e+03 5.959835529327392578e+00 -2.174784660339355469e+00 7.123298048973083496e-01 8.012837171554565430e-01 4.540840685367584229e-01 9.892007708549499512e-01
3.024000000000000000e+03 5.518756866455078125e+00 -1.825220465660095215e+00 5.577058196067810059e-01 4.171311855316162109e-01 2.924511134624481201e-01 6.086677908897399902e-01
3.025000000000000000e+03 4.419351577758789062e+00 -2.109430789947509766e+00 2.593975961208343506e-01 3.289610743522644043e-01 1.765075922012329102e-01 2.420712560415267944e-01
3.026000000000000000e+03 4.695568561553955078e+00 -2.611907720565795898e+00 2.927357554435729980e-01 5.750336050987243652e-01 2.603307962417602539e-01 4.653837382793426514e-01
3.027000000000000000e+03 7.805715942382812500e+01 -3.580369186401367188e+01 -7.137616164982318878e-03 8.078000068664550781e+00 2.421258687973022461e+00 -1.709912717342376709e-02
3.028000000000000000e+03 2.199922323226928711e+00 3.698791885375976562e+01 -2.414452657103538513e-02 2.100228071212768555e+00 6.228250861167907715e-01 -1.396601647138595581e-01
3.029000000000000000e+03 3.285268545150756836e+00 -1.874511718750000000e+01 3.884981274604797363e-01 1.521944403648376465e+00 5.731327533721923828e-01 1.384033203125000000e+00
3.030000000000000000e+03 7.515790557861328125e+01 -3.516813278198242188e+01 -2.205888926982879639e-02 8.009858131408691406e+00 2.396339893341064453e+00 -5.575850978493690491e-02
3.031000000000000000e+03 4.776893615722656250e+01 2.969510650634765625e+01 -3.149498701095581055e-01 7.833735942840576172e+00 2.255635738372802734e+00 2.956604063510894775e-01
3.032000000000000000e+03 4.539072418212890625e+01 2.763465881347656250e+01 -3.018054366111755371e-01 7.823944568634033203e+00 2.256641626358032227e+00 3.363349139690399170e-01
3.033000000000000000e+03 1.808236956596374512e+00 2.823014259338378906e+00 1.027893573045730591e-01 6.652555894106626511e-03 3.283257409930229187e-02 5.106672644615173340e-02
3.034000000000000000e+03 2.459233760833740234e+00 -2.930053472518920898e+00 5.835207924246788025e-02 1.266490519046783447e-01 5.550033971667289734e-02 -5.470654740929603577e-02
3.035000000000000000e+03 4.483962535858154297e+00 -2.392162084579467773e+00 3.192164301872253418e-01 4.500958621501922607e-01 2.307936847209930420e-01 3.260009586811065674e-01
3.036000000000000000e+03 8.617949485778808594e+00 2.395602941513061523e+00 1.056141734123229980e+00 4.723513603210449219e+00 1.733896613121032715e+00 -3.360584974288940430e+00
3.037000000000000000e+03 8.845643043518066406e+00 2.376294612884521484e+00 9.178712964057922363e-01 5.559441566467285156e+00 1.943193912506103516e+00 -3.530461072921752930e+00
3.038000000000000000e+03 7.546951770782470703e+00 2.611858606338500977e+00 1.148280978202819824e+00 2.323830366134643555e+00 1.041633367538452148e+00 -2.241800308227539062e+00
3.039000000000000000e+03 1.016033077239990234e+01 -2.635009050369262695e+00 -1.504767537117004395e+00 9.272422790527343750e+00 2.330296754837036133e+00 1.662924766540527344e+00
3.040000000000000000e+03 1.072467327117919922e+01 -2.145935773849487305e+00 -7.128204107284545898e-01 1.088085365295410156e+01 3.050410032272338867e+00 -1.589456796646118164e-01
3.041000000000000000e+03 7.891954898834228516e+00 2.233668565750122070e+00 1.563143253326416016e+00 2.574451446533203125e+00 1.241278409957885742e+00 -2.694000244140625000e+00
3.042000000000000000e+03 7.038617134094238281e+00 2.727377653121948242e+00 1.006195425987243652e+00 1.766426086425781250e+00 8.317864537239074707e-01 -1.853749155998229980e+00
3.043000000000000000e+03 6.663549900054931641e+00 2.794103622436523438e+00 8.809530735015869141e-01 1.476969718933105469e+00 7.073768377304077148e-01 -1.567653059959411621e+00
3.044000000000000000e+03 4.277456283569335938e+00 -2.663880825042724609e+00 2.303306311368942261e-01 4.860779047012329102e-01 2.149225622415542603e-01 3.280462622642517090e-01
3.045000000000000000e+03 4.504662036895751953e+00 -2.849325180053710938e+00 2.984347641468048096e-01 6.426861882209777832e-01 2.823362648487091064e-01 4.262191355228424072e-01
3.046000000000000000e+03 4.944057464599609375e+00 -2.907847642898559570e+00 3.344977200031280518e-01 8.363265395164489746e-01 3.512472808361053467e-01 6.370179057121276855e-01
3.047000000000000000e+03 1.188084125518798828e+01 8.930829167366027832e-01 5.608450412750244141e+00 5.918195724487304688e+00 3.457993745803833008e+00 3.079241514205932617e+00
3.048000000000000000e+03 1.204640007019042969e+01 1.112539052963256836e+00 4.313886165618896484e+00 5.126110553741455078e+00 2.831999063491821289e+00 3.355944156646728516e+00
3.049000000000000000e+03 1.217094039916992188e+01 7.187892794609069824e-01 5.871852874755859375e+00 4.052593708038330078e+00 2.977334022521972656e+00 2.991636276245117188e+00
3.050000000000000000e+03 1.236561489105224609e+01 1.073532938957214355e+00 4.561955928802490234e+00 3.386260747909545898e+00 2.384464979171752930e+00 3.053075075149536133e+00
3.051000000000000000e+03 1.214924621582031250e+01 -8.071777820587158203e-01 5.590344905853271484e+00 4.247811317443847656e+00 2.951446771621704102e+00 -2.779201745986938477e+00
3.052000000000000000e+03 1.286912631988525391e+01 -7.179514169692993164e-01 3.859403610229492188e+00 -2.869983613491058350e-01 1.071721553802490234e+00 -2.094166278839111328e+00
3.053000000000000000e+03 5.356750965118408203e+00 2.221458911895751953e+00 6.453394293785095215e-01 4.490562081336975098e-01 3.283186852931976318e-01 -5.620104074478149414e-01
3.054000000000000000e+03 5.085534095764160156e+00 2.512448310852050781e+00 5.277766585350036621e-01 4.711766541004180908e-01 2.996859848499298096e-01 -5.219126343727111816e-01
3.055000000000000000e+03 6.493047237396240234e+00 -2.098620891571044922e+00 1.008494377136230469e+00 9.842560887336730957e-01 5.978251695632934570e-01 1.403307080268859863e+00
3.056000000000000000e+03 2.188139724731445312e+01 -1.252539753913879395e+00 8.437649607658386230e-01 1.133683109283447266e+01 3.654178857803344727e+00 5.912972688674926758e-01
3.057000000000000000e+03 1.243249797821044922e+01 -8.039245009422302246e-01 4.606487274169921875e+00 2.344281673431396484e+00 2.085230588912963867e+00 -2.344078302383422852e+00
3.058000000000000000e+03 1.298347282409667969e+01 -1.370244503021240234e+00 2.729410171508789062e+00 -2.803516089916229248e-01 7.347176074981689453e-01 -2.785650253295898438e+00
3.059000000000000000e+03 8.261415481567382812e+00 -2.493924617767333984e+00 1.038466930389404297e+00 4.043560981750488281e+00 1.524608373641967773e+00 3.468802452087402344e+00
3.060000000000000000e+03 7.822598934173583984e+00 -2.424031734466552734e+00 1.151711702346801758e+00 2.925357580184936523e+00 1.223120808601379395e+00 2.892405986785888672e+00
3.061000000000000000e+03 7.909182071685791016e+00 -2.712541341781616211e+00 7.776092290878295898e-01 3.485207557678222656e+00 1.278845071792602539e+00 3.041483163833618164e+00
3.062000000000000000e+03 9.944315910339355469e+00 -2.685074567794799805e+00 -1.351477384567260742e+00 8.894977569580078125e+00 2.263050079345703125e+00 2.135967016220092773e+00
3.063000000000000000e+03 2.251361608505249023e+00 2.852865934371948242e+00 7.577624917030334473e-02 4.869093745946884155e-02 3.734015673398971558e-02 4.034428671002388000e-02
3.064000000000000000e+03 2.351489830017089844e+01 -1.213154983520507812e+01 3.874940574169158936e-01 8.519603729248046875e+00 2.672129154205322266e+00 3.066228032112121582e-01
3.065000000000000000e+03 5.292495727539062500e+00 -2.398809671401977539e+00 5.254549384117126465e-01 6.937180161476135254e-01 3.657518923282623291e-01 7.079966068267822266e-01
3.066000000000000000e+03 8.909754753112792969e+00 2.704395771026611328e+00 3.204602301120758057e-01 5.756959438323974609e+00 1.823225855827331543e+00 -3.154285430908203125e+00
3.067000000000000000e+03 6.331463336944580078e+00 -3.153873920440673828e+00 4.410701692104339600e-01 1.744213938713073730e+00 6.555852293968200684e-01 1.544435381889343262e+00
3.068000000000000000e+03 1.764918136596679688e+01 2.951653671264648438e+01 -4.841712713241577148e-01 5.592533588409423828e+00 1.532508611679077148e+00 -4.419604241847991943e-01
3.069000000000000000e+03 5.014960479736328125e+01 2.736644744873046875e+01 -2.182310968637466431e-01 7.825314998626708984e+00 2.282125234603881836e+00 3.201681077480316162e-01
3.070000000000000000e+03 8.153321266174316406e+00 -2.890851259231567383e+00 3.671021163463592529e-01 4.079174041748046875e+00 1.333882927894592285e+00 3.151447772979736328e+00
3.071000000000000000e+03 6.598753929138183594e+00 -2.482074499130249023e+00 9.228379726409912109e-01 1.345706343650817871e+00 6.805632710456848145e-01 1.631297588348388672e+00
3.072000000000000000e+03 1.088365077972412109e+01 -2.881568193435668945e+00 -1.837877511978149414e+00 7.888194084167480469e+00 1.815094947814941406e+00 -4.665234088897705078e-01
3.073000000000000000e+03 7.586560726165771484e+00 -2.494522666931152344e+01 -4.211691021919250488e-01 3.668339252471923828e+00 9.741510748863220215e-01 3.833769559860229492e-01
3.074000000000000000e+03 4.594690322875976562e+00 1.277598667144775391e+01 -3.763742148876190186e-01 2.742208242416381836e+00 7.097501754760742188e-01 1.175674915313720703e+00
3.075000000000000000e+03 1.162154960632324219e+01 2.458139419555664062e+00 -3.822185993194580078e-01 7.151909351348876953e+00 2.030907392501831055e+00 2.786989450454711914e+00
3.076000000000000000e+03 1.121863651275634766e+01 2.170461416244506836e+00 -2.033664286136627197e-01 9.289718627929687500e+00 2.725905656814575195e+00 2.215098857879638672e+00
3.077000000000000000e+03 8.995718955993652344e+00 -3.640470504760742188e+00 -1.356673598289489746e+00 5.823684692382812500e+00 1.340103268623352051e+00 2.483238220214843750e+00
3.078000000000000000e+03 9.795325279235839844e+00 -3.429392576217651367e+00 -1.877192378044128418e+00 7.337373733520507812e+00 1.638054490089416504e+00 1.763019084930419922e+00
3.079000000000000000e+03 4.898181915283203125e+00 2.172608137130737305e+00 4.794627130031585693e-01 3.161535561084747314e-01 2.386848777532577515e-01 -3.522485196590423584e-01
3.080000000000000000e+03 6.876571178436279297e+00 3.242597103118896484e+00 6.163259148597717285e-01 1.995627760887145996e+00 7.835861444473266602e-01 -1.724389076232910156e+00
3.081000000000000000e+03 6.261198520660400391e+00 3.151798963546752930e+00 6.548749208450317383e-01 1.382175207138061523e+00 6.111150383949279785e-01 -1.295295596122741699e+00
3.082000000000000000e+03 6.566454410552978516e+00 3.133193731307983398e+00 7.176499962806701660e-01 1.602424860000610352e+00 6.960224509239196777e-01 -1.472850084304809570e+00
3.083000000000000000e+03 4.782693862915039062e+00 -3.413877248764038086e+00 1.571294963359832764e-01 1.011001348495483398e+00 3.504392802715301514e-01 6.178337335586547852e-01
3.084000000000000000e+03 4.458397865295410156e+00 -3.486260414123535156e+00 1.474471092224121094e-01 8.259323835372924805e-01 2.920138537883758545e-01 4.513204693794250488e-01
3.085000000000000000e+03 5.063839912414550781e+00 -9.114250183105468750e+00 -7.690559029579162598e-01 3.249902486801147461e+00 7.442539930343627930e-01 -4.189479351043701172e-01
3.086000000000000000e+03 4.518266201019287109e+00 -9.586851119995117188e+00 -7.024810910224914551e-01 2.904204130172729492e+00 6.605169177055358887e-01 -7.024970650672912598e-01
3.087000000000000000e+03 7.398015975952148438e+00 2.852538347244262695e+00 8.907921910285949707e-01 2.333208084106445312e+00 9.672000408172607422e-01 -2.139300107955932617e+00
3.088000000000000000e+03 6.672440052032470703e+00 3.672455549240112305e+00 3.641465008258819580e-01 2.040314435958862305e+00 7.213382720947265625e-01 -1.513988375663757324e+00
3.089000000000000000e+03 6.213021278381347656e+00 3.745229005813598633e+00 3.742216527462005615e-01 1.695741653442382812e+00 6.209889650344848633e-01 -1.264246821403503418e+00
3.090000000000000000e+03 4.110983848571777344e+00 -3.034588336944580078e+00 1.976802647113800049e-01 6.309934258460998535e-01 2.486021071672439575e-01 3.000025451183319092e-01
3.091000000000000000e+03 4.245173931121826172e+00 1.190325546264648438e+01 -6.272055506706237793e-01 2.317746877670288086e+00 5.071623921394348145e-01 9.888179302215576172e-01
3.092000000000000000e+03 1.041940879821777344e+01 -3.419513702392578125e+00 -2.333300590515136719e+00 7.544936180114746094e+00 1.563490629196166992e+00 5.639998316764831543e-01
3.093000000000000000e+03 7.187630653381347656e+00 3.277005910873413086e+00 6.543774008750915527e-01 2.371117591857910156e+00 9.076485037803649902e-01 -1.971528291702270508e+00
3.094000000000000000e+03 7.203290462493896484e+00 3.938469648361206055e+00 7.612584531307220459e-02 2.756483793258666992e+00 8.497828841209411621e-01 -1.761128425598144531e+00
3.095000000000000000e+03 6.906018257141113281e+00 3.562435626983642578e+00 4.195429682731628418e-01 2.197638988494873047e+00 7.851545810699462891e-01 -1.704605102539062500e+00
3.096000000000000000e+03 5.365927219390869141e+00 4.236187458038330078e+00 1.445952951908111572e-01 1.374279022216796875e+00 4.556622803211212158e-01 -8.479077816009521484e-01
3.097000000000000000e+03 4.268009185791015625e+00 9.199540138244628906e+00 -6.616185307502746582e-01 1.821316123008728027e+00 3.479092717170715332e-01 3.530945479869842529e-01
3.098000000000000000e+03 8.249432563781738281e+00 -6.694895267486572266e+00 -1.933553576469421387e+00 4.274204730987548828e+00 7.021953463554382324e-01 8.689291477203369141e-01
3.099000000000000000e+03 7.394805908203125000e+01 -3.429529190063476562e+01 -2.742160670459270477e-02 7.981298923492431641e+00 2.386163234710693359e+00 -6.952647864818572998e-02
3.100000000000000000e+03 2.686713218688964844e+01 -8.537026047706604004e-01 1.315067291259765625e+00 9.263638496398925781e+00 3.173611879348754883e+00 1.356077045202255249e-01
3.101000000000000000e+03 2.689537048339843750e+01 -2.214920759201049805e+00 1.405248284339904785e+00 9.227659225463867188e+00 3.189872264862060547e+00 1.021835729479789734e-01
3.102000000000000000e+03 5.044132995605468750e+01 2.335679054260253906e+01 -7.969690859317779541e-02 7.790513038635253906e+00 2.313244819641113281e+00 3.640655875205993652e-01
3.103000000000000000e+03 9.050664901733398438e+00 9.580354690551757812e+00 -1.324995994567871094e+00 3.462838172912597656e+00 6.413526535034179688e-01 -2.804591059684753418e-01
3.104000000000000000e+03 7.393532562255859375e+01 -3.568957138061523438e+01 -3.261711820960044861e-02 7.988367557525634766e+00 2.386725187301635742e+00 -6.179737299680709839e-02
3.105000000000000000e+03 6.300481796264648438e+00 9.285021781921386719e+00 -1.077039003372192383e+00 3.034718275070190430e+00 5.873038172721862793e-01 -1.666825078427791595e-02
3.106000000000000000e+03 9.323937416076660156e+00 -4.125703811645507812e+00 -2.030095100402832031e+00 5.808129787445068359e+00 1.133410334587097168e+00 1.759045004844665527e+00
3.107000000000000000e+03 6.674623012542724609e+00 4.377056121826171875e+00 -1.338056623935699463e-01 2.459358215332031250e+00 6.976657509803771973e-01 -1.425047993659973145e+00
3.108000000000000000e+03 7.273382186889648438e+00 4.484156131744384766e+00 -3.886242806911468506e-01 3.043099880218505859e+00 7.963426709175109863e-01 -1.522655844688415527e+00
3.109000000000000000e+03 4.956457901000976562e+01 1.550640106201171875e+01 2.112480401992797852e-01 7.712269783020019531e+00 2.377055406570434570e+00 3.584828078746795654e-01
3.110000000000000000e+03 5.036577606201171875e+01 1.775263404846191406e+01 1.174362972378730774e-01 7.736899375915527344e+00 2.356300592422485352e+00 3.672550320625305176e-01
3.111000000000000000e+03 2.006663131713867188e+01 -1.903173446655273438e+01 -3.095179200172424316e-01 6.667906284332275391e+00 1.907516479492187500e+00 8.957953453063964844e-01
3.112000000000000000e+03 3.561000823974609375e+01 -1.027679061889648438e+01 6.430381536483764648e-01 7.886994361877441406e+00 2.559009790420532227e+00 -4.343751370906829834e-01
3.113000000000000000e+03 6.167199325561523438e+01 1.742624092102050781e+01 6.690073758363723755e-02 7.698803901672363281e+00 2.329711437225341797e+00 2.435520738363265991e-01
3.114000000000000000e+03 4.652951812744140625e+01 -2.186723327636718750e+01 -1.243319064378738403e-01 7.777130126953125000e+00 2.295839548110961914e+00 -4.272079467773437500e-01
3.115000000000000000e+03 1.160381031036376953e+01 3.539352893829345703e+00 -1.548490405082702637e+00 5.367280483245849609e+00 1.145637035369873047e+00 1.939870238304138184e+00
3.116000000000000000e+03 8.505031585693359375e+00 -5.540614128112792969e+00 -1.927794933319091797e+00 4.671188354492187500e+00 8.230180740356445312e-01 1.283344984054565430e+00
3.117000000000000000e+03 6.957309246063232422e+00 4.552349567413330078e+00 -2.695456743240356445e-01 2.788279533386230469e+00 7.556201219558715820e-01 -1.445585012435913086e+00
3.118000000000000000e+03 6.461172103881835938e+00 -4.841339588165283203e+00 -7.284509539604187012e-01 3.042726039886474609e+00 6.942824721336364746e-01 1.264330029487609863e+00
3.119000000000000000e+03 5.525702476501464844e+00 -5.409909725189208984e+00 -5.927947163581848145e-01 2.448170900344848633e+00 5.566128492355346680e-01 7.773753404617309570e-01
3.120000000000000000e+03 1.016036796569824219e+01 5.434729099273681641e+00 -1.956426501274108887e+00 4.714386940002441406e+00 8.273881673812866211e-01 -1.024795621633529663e-01
3.121000000000000000e+03 8.241691589355468750e+00 4.717766761779785156e+00 -1.036379337310791016e+00 4.160460948944091797e+00 9.372245073318481445e-01 -1.538586378097534180e+00
3.122000000000000000e+03 6.419982433319091797e+00 -5.616577148437500000e+00 -9.774672985076904297e-01 3.247442483901977539e+00 6.809924840927124023e-01 1.027427911758422852e+00
3.123000000000000000e+03 6.108789920806884766e+00 5.388880729675292969e+00 -4.444888234138488770e-01 2.307515621185302734e+00 5.589080452919006348e-01 -9.214822053909301758e-01
3.124000000000000000e+03 7.243493652343750000e+01 1.941313743591308594e+01 7.722767069935798645e-03 7.686063289642333984e+00 2.308135986328125000e+00 1.360743343830108643e-01
3.125000000000000000e+03 3.243093109130859375e+01 -1.300212144851684570e+00 1.290365815162658691e+00 8.265275001525878906e+00 2.866692304611206055e+00 -5.903878062963485718e-02
3.126000000000000000e+03 6.907987594604492188e+00 7.280961990356445312e+00 -1.178831696510314941e+00 3.145964860916137695e+00 5.901399850845336914e-01 -4.931370317935943604e-01
3.127000000000000000e+03 4.144934844970703125e+01 -1.406934356689453125e+01 2.799210846424102783e-01 7.769221782684326172e+00 2.414742946624755859e+00 -4.741196930408477783e-01
3.128000000000000000e+03 4.944393920898437500e+01 -1.705173683166503906e+01 8.468486368656158447e-02 7.733140468597412109e+00 2.345347642898559570e+00 -4.229683578014373779e-01
3.129000000000000000e+03 6.446029663085937500e+00 6.297270774841308594e+00 -7.634294629096984863e-01 2.682444334030151367e+00 5.757045149803161621e-01 -7.598308920860290527e-01
3.130000000000000000e+03 7.021816253662109375e+01 -2.757817268371582031e+01 -3.810383379459381104e-02 7.865745544433593750e+00 2.348292589187622070e+00 -1.660603284835815430e-01
3.131000000000000000e+03 3.024858665466308594e+01 9.210958480834960938e+00 9.964733719825744629e-01 8.346338272094726562e+00 2.802843570709228516e+00 1.883325725793838501e-01
3.132000000000000000e+03 3.876202011108398438e+01 6.633401393890380859e+00 8.917531967163085938e-01 7.813079833984375000e+00 2.611449956893920898e+00 2.346163988113403320e-01
3.133000000000000000e+03 7.105941009521484375e+01 2.360037326812744141e+00 6.444164365530014038e-02 7.563034534454345703e+00 2.288242816925048828e+00 6.747688632458448410e-03
3.134000000000000000e+03 6.809118652343750000e+01 -1.791126251220703125e+01 1.636716909706592560e-02 7.736191272735595703e+00 2.325767517089843750e+00 -2.181476056575775146e-01
3.135000000000000000e+03 5.146521759033203125e+01 -1.518769454956054688e+01 1.464143395423889160e-01 7.709061622619628906e+00 2.356642723083496094e+00 -3.948620259761810303e-01
3.136000000000000000e+03 4.130912780761718750e+01 3.261053562164306641e+00 8.625323176383972168e-01 7.703591346740722656e+00 2.569837093353271484e+00 9.551075100898742676e-02
3.137000000000000000e+03 4.821063232421875000e+01 5.883651733398437500e+00 5.599390268325805664e-01 7.625050067901611328e+00 2.455496788024902344e+00 1.602688133716583252e-01
3.138000000000000000e+03 6.820121765136718750e+01 6.315272331237792969e+00 9.177330881357192993e-02 7.593009471893310547e+00 2.305434942245483398e+00 6.452235579490661621e-02
3.139000000000000000e+03 6.929956054687500000e+01 2.535568475723266602e+00 8.820122480392456055e-02 7.577441215515136719e+00 2.299692630767822266e+00 1.069668121635913849e-02
3.140000000000000000e+03 4.953482818603515625e+01 -1.244554996490478516e+01 2.649501860141754150e-01 7.685515880584716797e+00 2.385139942169189453e+00 -3.894936442375183105e-01
3.141000000000000000e+03 6.718029785156250000e+01 9.169207572937011719e+00 9.771864116191864014e-02 7.613515853881835938e+00 2.313370466232299805e+00 1.111211031675338745e-01
3.142000000000000000e+03 7.046826171875000000e+01 -8.806445121765136719e+00 5.303267762064933777e-02 7.622719287872314453e+00 2.302725553512573242e+00 -1.321513205766677856e-01
3.143000000000000000e+03 6.389045715332031250e+01 4.990431308746337891e+00 1.672819256782531738e-01 7.602571487426757812e+00 2.330955982208251953e+00 5.988247320055961609e-02
3.144000000000000000e+03 5.352832031250000000e+01 -1.560826897621154785e+00 4.332561194896697998e-01 7.591763973236083984e+00 2.407505989074707031e+00 -9.081745147705078125e-02
3.145000000000000000e+03 6.767491149902343750e+01 -5.135513782501220703e+00 1.001529693603515625e-01 7.606722354888916016e+00 2.312062740325927734e+00 -1.089280098676681519e-01
3.146000000000000000e+03 6.355960083007812500e+01 -8.263560295104980469e+00 1.396578699350357056e-01 7.637612819671630859e+00 2.333181381225585938e+00 -1.850560009479522705e-01
3.147000000000000000e+03 9.900979042053222656e+00 -9.946446865797042847e-03 3.620221710205078125e+01 5.416490077972412109e+00 1.248561191558837891e+01 1.079421138763427734e+01
3.148000000000000000e+03 9.904818534851074219e+00 -2.906142920255661011e-02 3.374815750122070312e+01 1.587079620361328125e+01 1.488568592071533203e+01 2.073873138427734375e+01
3.149000000000000000e+03 9.912311553955078125e+00 -4.706101492047309875e-02 3.144167327880859375e+01 2.654850006103515625e+01 1.739705276489257812e+01 2.441206169128417969e+01
3.150000000000000000e+03 9.923169136047363281e+00 -6.325436383485794067e-02 2.753030395507812500e+01 3.731066513061523438e+01 1.945228958129882812e+01 2.565129089355468750e+01
3.151000000000000000e+03 9.936976432800292969e+00 -7.701997458934783936e-02 2.404325675964355469e+01 4.744979095458984375e+01 2.144791412353515625e+01 2.407594490051269531e+01
3.152000000000000000e+03 9.953202247619628906e+00 -8.782950043678283691e-02 2.055433845520019531e+01 5.586775970458984375e+01 2.292662811279296875e+01 2.030811309814453125e+01
3.153000000000000000e+03 9.971223831176757812e+00 -9.526807069778442383e-02 1.868931007385253906e+01 6.215295028686523438e+01 2.425267791748046875e+01 1.472722244262695312e+01
3.154000000000000000e+03 9.990350723266601562e+00 -9.905018657445907593e-02 1.816081428527832031e+01 6.545743560791015625e+01 2.508547592163085938e+01 8.268586158752441406e+00
3.155000000000000000e+03 1.000984764099121094e+01 -9.903068840503692627e-02 1.977434158325195312e+01 6.598865509033203125e+01 2.572889900207519531e+01 1.792001366615295410e+00
3.156000000000000000e+03 1.002896595001220703e+01 -9.521032124757766724e-02 2.294872474670410156e+01 6.392984008789062500e+01 2.606357002258300781e+01 -3.729853868484497070e+00
3.157000000000000000e+03 1.004697322845458984e+01 -8.773572742938995361e-02 2.729030418395996094e+01 5.991453170776367188e+01 2.616144943237304688e+01 -7.735512256622314453e+00
3.158000000000000000e+03 1.006317710876464844e+01 -7.689376920461654663e-02 3.224804306030273438e+01 5.510898590087890625e+01 2.620710945129394531e+01 -9.684960365295410156e+00
3.159000000000000000e+03 1.007695674896240234e+01 -6.310057640075683594e-02 3.694927597045898438e+01 4.983353424072265625e+01 2.603484344482421875e+01 -9.776147842407226562e+00
3.160000000000000000e+03 1.008778285980224609e+01 -4.688554257154464722e-02 4.098889923095703125e+01 4.558115768432617188e+01 2.597101593017578125e+01 -8.089936256408691406e+00
3.161000000000000000e+03 1.009523963928222656e+01 -2.887100912630558014e-02 4.384480285644531250e+01 4.215566635131835938e+01 2.580014228820800781e+01 -5.098593711853027344e+00
3.162000000000000000e+03 1.009904003143310547e+01 -9.748386219143867493e-03 4.538283157348632812e+01 4.057320785522460938e+01 2.578681182861328125e+01 -1.343719482421875000e+00
3.163000000000000000e+03 1.009904003143310547e+01 9.748386219143867493e-03 4.533901214599609375e+01 4.047605133056640625e+01 2.574451828002929688e+01 2.763779878616333008e+00
3.164000000000000000e+03 1.009523963928222656e+01 2.887100912630558014e-02 4.383944702148437500e+01 4.221438217163085938e+01 2.581614875793457031e+01 6.551505565643310547e+00
3.165000000000000000e+03 1.008778285980224609e+01 4.688554257154464722e-02 4.086808013916015625e+01 4.556824493408203125e+01 2.593089866638183594e+01 9.614376068115234375e+00
3.166000000000000000e+03 1.007695674896240234e+01 6.310057640075683594e-02 3.662747573852539062e+01 4.995219421386718750e+01 2.597389984130859375e+01 1.138333606719970703e+01
3.167000000000000000e+03 1.006317710876464844e+01 7.689376920461654663e-02 3.172814369201660156e+01 5.516866683959960938e+01 2.606904220581054688e+01 1.134343051910400391e+01
3.168000000000000000e+03 1.004697322845458984e+01 8.773572742938995361e-02 2.639485549926757812e+01 6.003247833251953125e+01 2.592819976806640625e+01 9.375523567199707031e+00
3.169000000000000000e+03 1.002896595001220703e+01 9.521032124757766724e-02 2.182320594787597656e+01 6.400400543212890625e+01 2.574816322326660156e+01 5.359094619750976562e+00
3.170000000000000000e+03 1.000984764099121094e+01 9.903068840503692627e-02 1.805140686035156250e+01 6.586618041992187500e+01 2.517527770996093750e+01 -2.156499922275543213e-01
3.171000000000000000e+03 9.990350723266601562e+00 9.905018657445907593e-02 1.629979515075683594e+01 6.528285217285156250e+01 2.447479438781738281e+01 -6.646319866180419922e+00
3.172000000000000000e+03 9.971223831176757812e+00 9.526807069778442383e-02 1.611818313598632812e+01 6.165755844116210938e+01 2.333272361755371094e+01 -1.319145011901855469e+01
3.173000000000000000e+03 9.953202247619628906e+00 8.782950043678283691e-02 1.763652610778808594e+01 5.542477035522460938e+01 2.191838836669921875e+01 -1.865697860717773438e+01
3.174000000000000000e+03 9.936976432800292969e+00 7.701997458934783936e-02 2.038007736206054688e+01 4.678650283813476562e+01 2.014997291564941406e+01 -2.252473640441894531e+01
3.175000000000000000e+03 9.923169136047363281e+00 6.325436383485794067e-02 2.336319732666015625e+01 3.691629791259765625e+01 1.808384895324707031e+01 -2.413763809204101562e+01
3.176000000000000000e+03 9.912311553955078125e+00 4.706101492047309875e-02 2.658417320251464844e+01 2.605772781372070312e+01 1.579257011413574219e+01 -2.317806243896484375e+01
3.177000000000000000e+03 9.904818534851074219e+00 2.906142920255661011e-02 2.849203491210937500e+01 1.573912143707275391e+01 1.326934719085693359e+01 -1.986223793029785156e+01
3.178000000000000000e+03 9.900979042053222656e+00 9.946446865797042847e-03 3.069758415222167969e+01 5.272387027740478516e+00 1.079099082946777344e+01 -1.027891063690185547e+01
