# el_label, x, y, sXX, sYY, sZZ, sXY
1.000000000000000000e+00 6.181793212890625000e+01 -6.420418262481689453e+00 -5.103042602539062500e+00 -2.549921035766601562e+00 -2.295889139175415039e+00 -2.723180770874023438e+00
2.000000000000000000e+00 6.161997222900390625e+01 -6.441115379333496094e+00 -9.437142610549926758e-01 9.553238749504089355e-01 3.482877509668469429e-03 7.506341934204101562e-01
3.000000000000000000e+00 6.142200851440429688e+01 -6.461812019348144531e+00 -2.326007604598999023e+00 -4.209667146205902100e-01 -8.240922689437866211e-01 4.029542952775955200e-02
4.000000000000000000e+00 6.122404861450195312e+01 -6.482509136199951172e+00 -2.695354461669921875e+00 2.807707488536834717e-01 -7.243751287460327148e-01 1.375717818737030029e-01
5.000000000000000000e+00 6.182965850830078125e+01 -6.477633953094482422e+00 1.015349102020263672e+01 -2.453678846359252930e+00 2.309943437576293945e+00 2.002278089523315430e+00
6.000000000000000000e+00 6.163951492309570312e+01 -6.536474227905273438e+00 2.938279867172241211e+00 4.098902046680450439e-01 1.004451036453247070e+00 1.396458983421325684e+00
7.000000000000000000e+00 6.144936752319335938e+01 -6.595314502716064453e+00 2.763478517532348633e+00 7.392534613609313965e-01 1.050819635391235352e+00 2.199440479278564453e+00
8.000000000000000000e+00 6.125922393798828125e+01 -6.654154777526855469e+00 1.516037344932556152e+00 4.026598334312438965e-01 5.756091475486755371e-01 1.445778131484985352e+00
9.000000000000000000e+00 6.185229873657226562e+01 -6.531471729278564453e+00 1.515726661682128906e+01 2.699805974960327148e+00 5.357121944427490234e+00 9.053323745727539062e+00
1.000000000000000000e+01 6.167724609375000000e+01 -6.626204013824462891e+00 8.787830352783203125e+00 1.613682746887207031e+00 3.120453834533691406e+00 5.306361198425292969e+00
1.100000000000000000e+01 6.150219345092773438e+01 -6.720936298370361328e+00 5.574569702148437500e+00 2.061863183975219727e+00 2.290929794311523438e+00 4.189184188842773438e+00
1.200000000000000000e+01 6.132714462280273438e+01 -6.815668582916259766e+00 4.677477359771728516e+00 1.944273114204406738e+00 1.986525058746337891e+00 4.009628295898437500e+00
1.300000000000000000e+01 6.188498687744140625e+01 -6.579871654510498047e+00 1.665110206604003906e+01 9.789725303649902344e+00 7.932248115539550781e+00 1.442665576934814453e+01
1.400000000000000000e+01 6.173172760009765625e+01 -6.706871032714843750e+00 1.036468601226806641e+01 5.979425430297851562e+00 4.903233528137207031e+00 9.409439086914062500e+00
1.500000000000000000e+01 6.157846832275390625e+01 -6.833869934082031250e+00 7.962240695953369141e+00 4.918862342834472656e+00 3.864331007003784180e+00 7.439925193786621094e+00
1.600000000000000000e+01 6.142520904541015625e+01 -6.960869312286376953e+00 5.749906539916992188e+00 4.328610897064208984e+00 3.023555278778076172e+00 6.294026851654052734e+00
1.700000000000000000e+01 6.192647171020507812e+01 -6.620982170104980469e+00 1.466374301910400391e+01 1.838508796691894531e+01 9.914649009704589844e+00 1.767331314086914062e+01
1.800000000000000000e+01 6.180086898803710938e+01 -6.775388240814208984e+00 1.035105609893798828e+01 1.202812671661376953e+01 6.713754653930664062e+00 1.237833499908447266e+01
1.900000000000000000e+01 6.167526626586914062e+01 -6.929794311523437500e+00 7.769338130950927734e+00 9.363580703735351562e+00 5.139875411987304688e+00 9.861814498901367188e+00
2.000000000000000000e+01 6.154966354370117188e+01 -7.084200382232666016e+00 6.256385803222656250e+00 8.174364089965820312e+00 4.329225063323974609e+00 8.846889495849609375e+00
2.100000000000000000e+01 6.197516632080078125e+01 -6.653229713439941406e+00 1.184903621673583984e+01 2.742838287353515625e+01 1.178322601318359375e+01 1.818150711059570312e+01
2.200000000000000000e+01 6.188202667236328125e+01 -6.829133987426757812e+00 8.497987747192382812e+00 1.862198448181152344e+01 8.135992050170898438e+00 1.352170848846435547e+01
2.300000000000000000e+01 6.178888702392578125e+01 -7.005038261413574219e+00 6.741828918457031250e+00 1.505230236053466797e+01 6.538239479064941406e+00 1.117570590972900391e+01
2.400000000000000000e+01 6.169574737548828125e+01 -7.180942535400390625e+00 5.551993370056152344e+00 1.244946098327636719e+01 5.400436401367187500e+00 9.825697898864746094e+00
2.500000000000000000e+01 6.202920913696289062e+01 -6.675380229949951172e+00 8.650668144226074219e+00 3.544367599487304688e+01 1.322830295562744141e+01 1.614087104797363281e+01
2.600000000000000000e+01 6.197209548950195312e+01 -6.866051197052001953e+00 6.651406764984130859e+00 2.521749496459960938e+01 9.560670852661132812e+00 1.273357295989990234e+01
2.700000000000000000e+01 6.191498565673828125e+01 -7.056722640991210938e+00 4.995872020721435547e+00 2.046167373657226562e+01 7.637263774871826172e+00 1.091704845428466797e+01
2.800000000000000000e+01 6.185787200927734375e+01 -7.247393608093261719e+00 4.230998516082763672e+00 1.778767395019531250e+01 6.605601310729980469e+00 9.444600105285644531e+00
2.900000000000000000e+01 6.208652877807617188e+01 -6.686585903167724609e+00 6.893009662628173828e+00 4.175190734863281250e+01 1.459347534179687500e+01 1.207634449005126953e+01
3.000000000000000000e+01 6.206762695312500000e+01 -6.884727478027343750e+00 4.992527961730957031e+00 3.064903068542480469e+01 1.069246768951416016e+01 1.034891700744628906e+01
3.100000000000000000e+01 6.204872894287109375e+01 -7.082869052886962891e+00 3.762853384017944336e+00 2.537570571899414062e+01 8.741567611694335938e+00 9.076087951660156250e+00
3.200000000000000000e+01 6.202982711791992188e+01 -7.281011104583740234e+00 2.835218191146850586e+00 2.224189186096191406e+01 7.523132801055908203e+00 8.180398941040039062e+00
3.300000000000000000e+01 6.214493179321289062e+01 -6.686418056488037109e+00 6.762529850006103516e+00 4.557161331176757812e+01 1.570024299621582031e+01 6.957232952117919922e+00
3.400000000000000000e+01 6.216496658325195312e+01 -6.884448051452636719e+00 4.557356357574462891e+00 3.456004333496093750e+01 1.173521900177001953e+01 6.843892097473144531e+00
3.500000000000000000e+01 6.218500518798828125e+01 -7.082478046417236328e+00 3.203681230545043945e+00 2.900137329101562500e+01 9.661516189575195312e+00 6.234375953674316406e+00
3.600000000000000000e+01 6.220503997802734375e+01 -7.280507564544677734e+00 2.382081747055053711e+00 2.538320541381835938e+01 8.329586029052734375e+00 5.742775917053222656e+00
3.700000000000000000e+01 6.220218658447265625e+01 -6.674883365631103516e+00 8.599778175354003906e+00 4.692267227172851562e+01 1.665673446655273438e+01 1.842996835708618164e+00
3.800000000000000000e+01 6.226039123535156250e+01 -6.865223407745361328e+00 5.446843147277832031e+00 3.660110473632812500e+01 1.261438369750976562e+01 2.932893276214599609e+00
3.900000000000000000e+01 6.231859588623046875e+01 -7.055563449859619141e+00 3.824065685272216797e+00 3.100741767883300781e+01 1.044944572448730469e+01 2.916528940200805664e+00
4.000000000000000000e+01 6.237680435180664062e+01 -7.245903491973876953e+00 2.858226776123046875e+00 2.742785453796386719e+01 9.085824012756347656e+00 2.760321855545043945e+00
4.100000000000000000e+01 6.225609970092773438e+01 -6.652422904968261719e+00 1.197386646270751953e+01 4.615063095092773438e+01 1.743734931945800781e+01 -2.358991384506225586e+00
4.200000000000000000e+01 6.235024642944335938e+01 -6.827789306640625000e+00 7.699640750885009766e+00 3.685124588012695312e+01 1.336526584625244141e+01 -6.752781867980957031e-01
4.300000000000000000e+01 6.244439315795898438e+01 -7.003156185150146484e+00 5.598932266235351562e+00 3.146947097778320312e+01 1.112052154541015625e+01 -2.427194267511367798e-01
4.400000000000000000e+01 6.253854370117187500e+01 -7.178522586822509766e+00 4.364807605743408203e+00 2.795509338378906250e+01 9.695970535278320312e+00 -1.567189395427703857e-02
4.500000000000000000e+01 6.230460739135742188e+01 -6.619896411895751953e+00 1.633551788330078125e+01 4.400640869140625000e+01 1.810257911682128906e+01 -5.042954444885253906e+00
4.600000000000000000e+01 6.243109512329101562e+01 -6.773578643798828125e+00 1.088321876525878906e+01 3.562285614013671875e+01 1.395182323455810547e+01 -3.404728412628173828e+00
4.700000000000000000e+01 6.255758285522460938e+01 -6.927260875701904297e+00 8.386813163757324219e+00 3.063299179077148438e+01 1.170594120025634766e+01 -2.623271942138671875e+00
4.800000000000000000e+01 6.268407058715820312e+01 -7.080943107604980469e+00 6.706920623779296875e+00 2.719314002990722656e+01 1.017001819610595703e+01 -2.249962329864501953e+00
4.900000000000000000e+01 6.234585571289062500e+01 -6.578548431396484375e+00 2.076098251342773438e+01 4.114678192138671875e+01 1.857232856750488281e+01 -6.085532188415527344e+00
5.000000000000000000e+01 6.249984359741210938e+01 -6.704665660858154297e+00 1.460649108886718750e+01 3.359455108642578125e+01 1.446031284332275391e+01 -4.753951072692871094e+00
5.100000000000000000e+01 6.265383148193359375e+01 -6.830782413482666016e+00 1.157273578643798828e+01 2.884862709045410156e+01 1.212640857696533203e+01 -3.988566637039184570e+00
5.200000000000000000e+01 6.280781555175781250e+01 -6.956899166107177734e+00 9.641137123107910156e+00 2.580142593383789062e+01 1.063276863098144531e+01 -3.451363801956176758e+00
5.300000000000000000e+01 6.237826538085937500e+01 -6.529961585998535156e+00 2.467473220825195312e+01 3.851916885375976562e+01 1.895816993713378906e+01 -5.544368743896484375e+00
5.400000000000000000e+01 6.255385971069335938e+01 -6.623686790466308594e+00 1.814077186584472656e+01 3.119222259521484375e+01 1.479989814758300781e+01 -4.717980384826660156e+00
5.500000000000000000e+01 6.272945022583007812e+01 -6.717412471771240234e+00 1.466019821166992188e+01 2.693474388122558594e+01 1.247848320007324219e+01 -4.045918464660644531e+00
5.600000000000000000e+01 6.290504455566406250e+01 -6.811137676239013672e+00 1.247448921203613281e+01 2.401491737365722656e+01 1.094682216644287109e+01 -3.601401805877685547e+00
5.700000000000000000e+01 6.240059661865234375e+01 -6.475994110107421875e+00 2.753528213500976562e+01 3.641688537597656250e+01 1.918564987182617188e+01 -3.802108526229858398e+00
5.800000000000000000e+01 6.259107589721679688e+01 -6.533741950988769531e+00 2.088937568664550781e+01 2.926896476745605469e+01 1.504750251770019531e+01 -3.424259185791015625e+00
5.900000000000000000e+01 6.278155517578125000e+01 -6.591489315032958984e+00 1.711635589599609375e+01 2.520765113830566406e+01 1.269720268249511719e+01 -2.954171180725097656e+00
6.000000000000000000e+01 6.297203826904296875e+01 -6.649236679077148438e+00 1.461072540283203125e+01 2.255307960510253906e+01 1.114914131164550781e+01 -2.679005622863769531e+00
6.100000000000000000e+01 6.241199111938476562e+01 -6.418712615966796875e+00 2.902826881408691406e+01 3.533097457885742188e+01 1.930777359008789062e+01 -1.363127231597900391e+00
6.200000000000000000e+01 6.261006927490234375e+01 -6.438271999359130859e+00 2.239856719970703125e+01 2.813959503173828125e+01 1.516144847869873047e+01 -1.230697154998779297e+00
6.300000000000000000e+01 6.280814743041992188e+01 -6.457831859588623047e+00 1.845183181762695312e+01 2.426283836364746094e+01 1.281440162658691406e+01 -1.104654788970947266e+00
6.400000000000000000e+01 6.300622558593750000e+01 -6.477391719818115234e+00 1.583487701416015625e+01 2.165194892883300781e+01 1.124604797363281250e+01 -9.631997942924499512e-01
6.500000000000000000e+01 6.241202163696289062e+01 -6.360308170318603516e+00 2.902770996093750000e+01 3.532662200927734375e+01 1.930629920959472656e+01 1.363593816757202148e+00
6.600000000000000000e+01 6.261011505126953125e+01 -6.340931415557861328e+00 2.240416526794433594e+01 2.813767242431640625e+01 1.516255092620849609e+01 1.225473523139953613e+00
6.700000000000000000e+01 6.280821228027343750e+01 -6.321554660797119141e+00 1.844294738769531250e+01 2.426613044738769531e+01 1.281272315979003906e+01 1.084433317184448242e+00
6.800000000000000000e+01 6.300630569458007812e+01 -6.302177906036376953e+00 1.587435245513916016e+01 2.166078948974609375e+01 1.126054286956787109e+01 9.187511205673217773e-01
6.900000000000000000e+01 6.240067672729492188e+01 -6.303016185760498047e+00 2.754043006896972656e+01 3.641301345825195312e+01 1.918603324890136719e+01 3.814055442810058594e+00
7.000000000000000000e+01 6.259120941162109375e+01 -6.245444774627685547e+00 2.088632774353027344e+01 2.926214981079101562e+01 1.504454326629638672e+01 3.414834022521972656e+00
7.100000000000000000e+01 6.278174209594726562e+01 -6.187872886657714844e+00 1.712175941467285156e+01 2.520926475524902344e+01 1.269930744171142578e+01 2.947549343109130859e+00
7.200000000000000000e+01 6.297227478027343750e+01 -6.130300998687744141e+00 1.461813259124755859e+01 2.260925674438476562e+01 1.116821670532226562e+01 2.599397182464599609e+00
7.300000000000000000e+01 6.237839508056640625e+01 -6.249028205871582031e+00 2.467959785461425781e+01 3.848657989501953125e+01 1.894985389709472656e+01 5.557063102722167969e+00
7.400000000000000000e+01 6.255407714843750000e+01 -6.155465126037597656e+00 1.813583564758300781e+01 3.120736122131347656e+01 1.480295944213867188e+01 4.726640224456787109e+00
7.500000000000000000e+01 6.272975540161132812e+01 -6.061901569366455078e+00 1.466292667388916016e+01 2.692373466491699219e+01 1.247599792480468750e+01 4.025969505310058594e+00
7.600000000000000000e+01 6.290543365478515625e+01 -5.968338489532470703e+00 1.239696311950683594e+01 2.409965324401855469e+01 1.094898509979248047e+01 3.582439184188842773e+00
7.700000000000000000e+01 6.234603118896484375e+01 -6.200411319732666016e+00 2.076883697509765625e+01 4.115644836425781250e+01 1.857758522033691406e+01 6.102318286895751953e+00
7.800000000000000000e+01 6.250013351440429688e+01 -6.074436664581298828e+00 1.459432411193847656e+01 3.356641006469726562e+01 1.444822025299072266e+01 4.780000686645507812e+00
7.900000000000000000e+01 6.265423583984375000e+01 -5.948462009429931641e+00 1.155107212066650391e+01 2.889864921569824219e+01 1.213491630554199219e+01 3.971788406372070312e+00
8.000000000000000000e+01 6.280833816528320312e+01 -5.822487354278564453e+00 9.579905509948730469e+00 2.580134773254394531e+01 1.061437606811523438e+01 3.495104551315307617e+00
8.100000000000000000e+01 6.230482101440429688e+01 -6.159025192260742188e+00 1.630855751037597656e+01 4.397783279418945312e+01 1.808591651916503906e+01 5.088140487670898438e+00
8.200000000000000000e+01 6.243144989013671875e+01 -6.005459785461425781e+00 1.088485717773437500e+01 3.563654327392578125e+01 1.395642089843750000e+01 3.413386583328247070e+00
8.300000000000000000e+01 6.255807876586914062e+01 -5.851894378662109375e+00 8.332381248474121094e+00 3.064320755004882812e+01 1.169267654418945312e+01 2.662368535995483398e+00
8.400000000000000000e+01 6.268470764160156250e+01 -5.698329448699951172e+00 6.714577674865722656e+00 2.722936630249023438e+01 1.018318271636962891e+01 2.261446475982666016e+00
8.500000000000000000e+01 6.225634384155273438e+01 -6.126453876495361328e+00 1.197559356689453125e+01 4.614666748046875000e+01 1.743667793273925781e+01 2.395753145217895508e+00
8.600000000000000000e+01 6.235065078735351562e+01 -5.951174259185791016e+00 7.652193069458007812e+00 3.685454559326171875e+01 1.335202121734619141e+01 7.145478129386901855e-01
8.700000000000000000e+01 6.244496154785156250e+01 -5.775894641876220703e+00 5.577108860015869141e+00 3.148629188537597656e+01 1.111902046203613281e+01 2.667296528816223145e-01
8.800000000000000000e+01 6.253927230834960938e+01 -5.600615501403808594e+00 4.340766906738281250e+00 2.797295570373535156e+01 9.694116592407226562e+00 4.068731889128684998e-02
8.900000000000000000e+01 6.220244979858398438e+01 -6.103943824768066406e+00 8.560516357421875000e+00 4.693199157714843750e+01 1.664775276184082031e+01 -1.809973716735839844e+00
9.000000000000000000e+01 6.226082992553710938e+01 -5.913657665252685547e+00 5.417991638183593750e+00 3.659722518920898438e+01 1.260456562042236328e+01 -2.888842582702636719e+00
9.100000000000000000e+01 6.231921386718750000e+01 -5.723371028900146484e+00 3.765703439712524414e+00 3.103355979919433594e+01 1.043977928161621094e+01 -2.878142595291137695e+00
9.200000000000000000e+01 6.237759399414062500e+01 -5.533084869384765625e+00 2.812027215957641602e+00 2.744151306152343750e+01 9.076062202453613281e+00 -2.770737648010253906e+00
9.300000000000000000e+01 6.214520645141601562e+01 -6.092356204986572266e+00 6.719975471496582031e+00 4.559328842163085938e+01 1.569397926330566406e+01 -6.915153503417968750e+00
9.400000000000000000e+01 6.216542434692382812e+01 -5.894344806671142578e+00 4.509762287139892578e+00 3.456782913208007812e+01 1.172327804565429688e+01 -6.819740295410156250e+00
9.500000000000000000e+01 6.218564605712890625e+01 -5.696333408355712891e+00 3.148947477340698242e+00 2.897776603698730469e+01 9.638013839721679688e+00 -6.190834999084472656e+00
9.600000000000000000e+01 6.220586395263671875e+01 -5.498322010040283203e+00 2.283710002899169922e+00 2.545447540283203125e+01 8.321455001831054688e+00 -5.709828376770019531e+00
9.700000000000000000e+01 6.208680343627929688e+01 -6.092134475708007812e+00 6.793581485748291016e+00 4.177416229248046875e+01 1.457032299041748047e+01 -1.205696868896484375e+01
9.800000000000000000e+01 6.206808471679687500e+01 -5.893975257873535156e+00 4.979511260986328125e+00 3.066549110412597656e+01 1.069350051879882812e+01 -1.032109260559082031e+01
9.900000000000000000e+01 6.204936981201171875e+01 -5.695816040039062500e+00 3.663688659667968750e+00 2.538047027587890625e+01 8.713247299194335938e+00 -9.068785667419433594e+00
1.000000000000000000e+02 6.203065490722656250e+01 -5.497657299041748047e+00 2.768809318542480469e+00 2.210726356506347656e+01 7.462821960449218750e+00 -8.157422065734863281e+00
1.010000000000000000e+02 6.202947235107421875e+01 -6.103287220001220703e+00 8.614280700683593750e+00 3.551427459716796875e+01 1.323856735229492188e+01 -1.609447097778320312e+01
1.020000000000000000e+02 6.197253799438476562e+01 -5.912563323974609375e+00 6.545444488525390625e+00 2.522532081604003906e+01 9.531229972839355469e+00 -1.277278423309326172e+01
1.030000000000000000e+02 6.191559982299804688e+01 -5.721839427947998047e+00 5.008097171783447266e+00 2.048622131347656250e+01 7.648295402526855469e+00 -1.086832904815673828e+01
1.040000000000000000e+02 6.185866546630859375e+01 -5.531115531921386719e+00 3.976169347763061523e+00 1.774066734313964844e+01 6.515050888061523438e+00 -9.614120483398437500e+00
1.050000000000000000e+02 6.197541046142578125e+01 -6.125387668609619141e+00 1.173868846893310547e+01 2.743138694763183594e+01 1.175102233886718750e+01 -1.820683670043945312e+01
1.060000000000000000e+02 6.188243484497070312e+01 -5.949397563934326172e+00 8.442446708679199219e+00 1.871361351013183594e+01 8.146818161010742188e+00 -1.350592041015625000e+01
1.070000000000000000e+02 6.178945541381835938e+01 -5.773406982421875000e+00 6.702089786529541016e+00 1.502096748352050781e+01 6.516917228698730469e+00 -1.125643348693847656e+01
1.080000000000000000e+02 6.169647979736328125e+01 -5.597416877746582031e+00 5.350555896759033203e+00 1.280393695831298828e+01 5.446347713470458984e+00 -9.784912109375000000e+00
1.090000000000000000e+02 6.192668533325195312e+01 -6.157590389251708984e+00 1.455995082855224609e+01 1.847701644897460938e+01 9.911089897155761719e+00 -1.767254829406738281e+01
1.100000000000000000e+02 6.180122375488281250e+01 -6.003067970275878906e+00 1.028347015380859375e+01 1.203561878204345703e+01 6.695726871490478516e+00 -1.241083145141601562e+01
1.110000000000000000e+02 6.167576599121093750e+01 -5.848546028137207031e+00 7.686775684356689453e+00 9.497969627380371094e+00 5.155423641204833984e+00 -9.928738594055175781e+00
1.120000000000000000e+02 6.155030441284179688e+01 -5.694024085998535156e+00 6.283527374267578125e+00 8.387506484985351562e+00 4.401309967041015625e+00 -8.670652389526367188e+00
1.130000000000000000e+02 6.188516235351562500e+01 -6.198662281036376953e+00 1.658170318603515625e+01 9.818571090698242188e+00 7.920082092285156250e+00 -1.444086170196533203e+01
1.140000000000000000e+02 6.173202133178710938e+01 -6.071521282196044922e+00 1.026743602752685547e+01 6.039561748504638672e+00 4.892099380493164062e+00 -9.451182365417480469e+00
1.150000000000000000e+02 6.157887649536132812e+01 -5.944380760192871094e+00 7.869434356689453125e+00 5.032069683074951172e+00 3.870451211929321289e+00 -7.447086811065673828e+00
1.160000000000000000e+02 6.142573547363281250e+01 -5.817240238189697266e+00 5.859455108642578125e+00 4.404851913452148438e+00 3.079292058944702148e+00 -6.227623462677001953e+00
1.170000000000000000e+02 6.185243225097656250e+01 -6.247032165527343750e+00 1.504535961151123047e+01 2.708418369293212891e+00 5.326133251190185547e+00 -9.104491233825683594e+00
1.180000000000000000e+02 6.167746734619140625e+01 -6.152137756347656250e+00 8.731280326843261719e+00 1.669992446899414062e+00 3.120381832122802734e+00 -5.302829265594482422e+00
1.190000000000000000e+02 6.150250244140625000e+01 -6.057243824005126953e+00 5.456377029418945312e+00 2.137208223342895508e+00 2.278075695037841797e+00 -4.187961101531982422e+00
1.200000000000000000e+02 6.132753753662109375e+01 -5.962349891662597656e+00 4.646354675292968750e+00 1.948698997497558594e+00 1.978516101837158203e+00 -3.990767240524291992e+00
1.210000000000000000e+02 6.182974243164062500e+01 -6.300848960876464844e+00 1.007444000244140625e+01 -2.417073249816894531e+00 2.297209978103637695e+00 -2.030053377151489258e+00
1.220000000000000000e+02 6.163964843750000000e+01 -6.241833209991455078e+00 2.866418361663818359e+00 3.937262892723083496e-01 9.780433773994445801e-01 -1.410908460617065430e+00
1.230000000000000000e+02 6.144955825805664062e+01 -6.182816982269287109e+00 2.694439411163330078e+00 8.333293199539184570e-01 1.058330655097961426e+00 -2.129974603652954102e+00
1.240000000000000000e+02 6.125946807861328125e+01 -6.123800754547119141e+00 1.341153144836425781e+00 2.932567000389099121e-01 4.903229773044586182e-01 -1.426569461822509766e+00
1.250000000000000000e+02 6.181796264648437500e+01 -6.358053684234619141e+00 -5.179158687591552734e+00 -2.568863630294799805e+00 -2.324406862258911133e+00 2.724233388900756836e+00
1.260000000000000000e+02 6.162001800537109375e+01 -6.337173938751220703e+00 -1.049345493316650391e+00 9.684343338012695312e-01 -2.427335642278194427e-02 -7.471181750297546387e-01
1.270000000000000000e+02 6.142207717895507812e+01 -6.316294193267822266e+00 -2.362604618072509766e+00 -4.101462662220001221e-01 -8.318252563476562500e-01 1.658183173276484013e-03
1.280000000000000000e+02 6.122413253784179688e+01 -6.295414447784423828e+00 -2.663198471069335938e+00 2.556903362274169922e-01 -7.222524285316467285e-01 -1.156610623002052307e-01
1.290000000000000000e+02 2.196186065673828125e+01 -6.700578212738037109e+00 -2.760290205478668213e-01 5.396978929638862610e-03 -8.118961006402969360e-02 -3.784694941714406013e-03
1.300000000000000000e+02 2.033289909362792969e+01 -7.179516792297363281e+00 -1.878752261400222778e-01 9.094836190342903137e-03 -5.363411828875541687e-02 -6.543850898742675781e-02
1.310000000000000000e+02 2.261169624328613281e+01 -7.556783676147460938e+00 -4.260633885860443115e-01 1.272445637732744217e-02 -1.240016818046569824e-01 -9.263055771589279175e-02
1.320000000000000000e+02 2.185197448730468750e+01 -7.432458400726318359e+00 -3.443739712238311768e-01 1.641787774860858917e-02 -9.838682413101196289e-02 -8.346472680568695068e-02
1.330000000000000000e+02 2.270871162414550781e+01 -6.822772979736328125e+00 -3.895872533321380615e-01 -1.787490036804229021e-04 -1.169298067688941956e-01 2.864212183339986950e-05
1.340000000000000000e+02 2.121509361267089844e+01 -6.576943874359130859e+00 -1.860594898462295532e-01 3.079753369092941284e-03 -5.489391833543777466e-02 -1.033303327858448029e-02
1.350000000000000000e+02 2.046852302551269531e+01 -6.451897144317626953e+00 -1.114670783281326294e-01 6.784998811781406403e-03 -3.140462189912796021e-02 -1.532969065010547638e-02
1.360000000000000000e+02 2.109233665466308594e+01 -7.306693553924560547e+00 -2.602581083774566650e-01 1.468550693243741989e-02 -7.367177307605743408e-02 -7.599778473377227783e-02
1.370000000000000000e+02 2.421343040466308594e+01 -6.977969646453857422e+00 -5.902468562126159668e-01 2.323211170732975006e-03 -1.763770878314971924e-01 -1.210663118399679661e-03
1.380000000000000000e+02 2.414235687255859375e+01 -7.714632511138916016e+00 -6.039466857910156250e-01 9.290474466979503632e-03 -1.783968508243560791e-01 -8.916479349136352539e-02
1.390000000000000000e+02 2.337517356872558594e+01 -7.650850772857666016e+00 -5.116288661956787109e-01 8.382598869502544403e-03 -1.509738713502883911e-01 -9.082048386335372925e-02
1.400000000000000000e+02 2.490980529785156250e+01 -7.777047634124755859e+00 -6.951640844345092773e-01 7.032543886452913284e-03 -2.064394652843475342e-01 -9.617729485034942627e-02
1.410000000000000000e+02 2.496787261962890625e+01 -7.039327144622802734e+00 -6.932795643806457520e-01 1.504968386143445969e-03 -2.075323909521102905e-01 2.699110191315412521e-03
1.420000000000000000e+02 2.567740631103515625e+01 -7.838097095489501953e+00 -7.773200273513793945e-01 -3.142857691273093224e-03 -2.341388612985610962e-01 -1.020486578345298767e-01
1.430000000000000000e+02 2.572246742248535156e+01 -7.099318504333496094e+00 -8.149288296699523926e-01 -4.898101557046175003e-03 -2.459480762481689453e-01 -1.033803448081016541e-03
1.440000000000000000e+02 2.345925331115722656e+01 -6.915245532989501953e+00 -4.979326426982879639e-01 -1.581437769345939159e-03 -1.498542279005050659e-01 -2.093449700623750687e-03
1.450000000000000000e+02 2.796761512756347656e+01 -7.914083957672119141e+00 -1.035295009613037109e+00 -4.245930351316928864e-03 -3.118622601032257080e-01 -1.112578138709068298e-01
1.460000000000000000e+02 2.720497512817382812e+01 -7.896495819091796875e+00 -9.532271027565002441e-01 -4.203415941447019577e-03 -2.872291505336761475e-01 -1.009990498423576355e-01
1.470000000000000000e+02 2.644245719909667969e+01 -7.877746582031250000e+00 -8.624528646469116211e-01 -7.088342681527137756e-03 -2.608623504638671875e-01 -9.920945018529891968e-02
1.480000000000000000e+02 2.873032188415527344e+01 -7.930514812469482422e+00 -1.110068440437316895e+00 -1.221552118659019470e-02 -3.366851806640625000e-01 -1.176713854074478149e-01
1.490000000000000000e+02 2.798519706726074219e+01 -7.174292564392089844e+00 -1.086470365524291992e+00 -7.664922741241753101e-04 -3.261710405349731445e-01 -2.192735113203525543e-02
1.500000000000000000e+02 2.723094940185546875e+01 -7.156898498535156250e+00 -9.960857033729553223e-01 3.626676334533840418e-05 -2.988148331642150879e-01 -2.020988799631595612e-02
1.510000000000000000e+02 2.873951339721679688e+01 -7.190530300140380859e+00 -1.190980911254882812e+00 -5.607025697827339172e-03 -3.589763641357421875e-01 -2.963958680629730225e-02
1.520000000000000000e+02 2.647681999206542969e+01 -7.138342857360839844e+00 -9.180481433868408203e-01 -6.568054202944040298e-03 -2.773848772048950195e-01 -1.311142556369304657e-02
1.530000000000000000e+02 2.949276733398437500e+01 -7.195246696472167969e+00 -1.279414534568786621e+00 -7.350347004830837250e-03 -3.860294818878173828e-01 -4.301497340202331543e-02
1.540000000000000000e+02 2.948995018005371094e+01 -7.935307502746582031e+00 -1.187678337097167969e+00 -1.324026286602020264e-02 -3.602755665779113770e-01 -1.182089373469352722e-01
1.550000000000000000e+02 3.024649810791015625e+01 -7.928795814514160156e+00 -1.269151329994201660e+00 -1.020631380379199982e-02 -3.838072717189788818e-01 -1.229306682944297791e-01
1.560000000000000000e+02 3.099722290039062500e+01 -7.181584835052490234e+00 -1.428557157516479492e+00 -2.729878993704915047e-03 -4.293861091136932373e-01 -5.511115118861198425e-02
1.570000000000000000e+02 3.175983238220214844e+01 -7.913609027862548828e+00 -1.412673830986022949e+00 -1.339434646070003510e-02 -4.278204441070556641e-01 -1.382890939712524414e-01
1.580000000000000000e+02 3.174956512451171875e+01 -7.173673152923583984e+00 -1.517255067825317383e+00 -5.205216817557811737e-03 -4.567380845546722412e-01 -6.194696575403213501e-02
1.590000000000000000e+02 3.024495315551757812e+01 -7.188776493072509766e+00 -1.348717808723449707e+00 -1.945611089468002319e-03 -4.051990509033203125e-01 -5.147662386298179626e-02
1.600000000000000000e+02 3.100312805175781250e+01 -7.921562194824218750e+00 -1.342563390731811523e+00 -8.854847401380538940e-03 -4.054254591464996338e-01 -1.325062215328216553e-01
1.610000000000000000e+02 3.325168609619140625e+01 -7.142140388488769531e+00 -1.667442560195922852e+00 -3.294585738331079483e-03 -5.012211203575134277e-01 -7.784534990787506104e-02
1.620000000000000000e+02 3.401905441284179688e+01 -7.863194465637207031e+00 -1.629229068756103516e+00 -9.491424076259136200e-03 -4.916161596775054932e-01 -1.521237790584564209e-01
1.630000000000000000e+02 3.251437759399414062e+01 -7.900443077087402344e+00 -1.484785318374633789e+00 -1.293348427861928940e-02 -4.493156373500823975e-01 -1.408991515636444092e-01
1.640000000000000000e+02 3.477159881591796875e+01 -7.845397949218750000e+00 -1.698011994361877441e+00 -1.157938223332166672e-02 -5.128774046897888184e-01 -1.565689444541931152e-01
1.650000000000000000e+02 3.475299453735351562e+01 -7.105631351470947266e+00 -1.824450373649597168e+00 -4.697398282587528229e-03 -5.487443208694458008e-01 -8.584637939929962158e-02
1.660000000000000000e+02 3.400221252441406250e+01 -7.123385429382324219e+00 -1.743840336799621582e+00 -3.960201051086187363e-03 -5.243401527404785156e-01 -8.121044933795928955e-02
1.670000000000000000e+02 3.250104904174804688e+01 -7.160549640655517578e+00 -1.597356081008911133e+00 -6.589421071112155914e-03 -4.811836481094360352e-01 -7.145424932241439819e-02
1.680000000000000000e+02 3.326676940917968750e+01 -7.881991863250732422e+00 -1.559278488159179688e+00 -1.119844242930412292e-02 -4.711430668830871582e-01 -1.454951167106628418e-01
1.690000000000000000e+02 3.550323104858398438e+01 -7.085636138916015625e+00 -1.902260661125183105e+00 -5.583096761256456375e-03 -5.723531246185302734e-01 -9.137693792581558228e-02
1.700000000000000000e+02 3.627172470092773438e+01 -7.801253795623779297e+00 -1.839167237281799316e+00 -9.869011119008064270e-03 -5.547108650207519531e-01 -1.620424240827560425e-01
1.710000000000000000e+02 3.552280426025390625e+01 -7.825378894805908203e+00 -1.767615556716918945e+00 -1.025344338268041611e-02 -5.333607196807861328e-01 -1.589903682470321655e-01
1.720000000000000000e+02 3.700176620483398438e+01 -7.040159225463867188e+00 -2.053093910217285156e+00 -4.733109846711158752e-03 -6.173480749130249023e-01 -9.716895967721939087e-02
1.730000000000000000e+02 3.775260925292968750e+01 -7.021411418914794922e+00 -2.128327131271362305e+00 -2.753200707957148552e-03 -6.393240690231323242e-01 -9.903633594512939453e-02
1.740000000000000000e+02 3.777272796630859375e+01 -7.761138439178466797e+00 -1.977525472640991211e+00 -7.240630686283111572e-03 -5.954298377037048340e-01 -1.673027724027633667e-01
1.750000000000000000e+02 3.702170562744140625e+01 -7.779891967773437500e+00 -1.907861709594726562e+00 -7.215592078864574432e-03 -5.745231509208679199e-01 -1.651495397090911865e-01
1.760000000000000000e+02 3.625196838378906250e+01 -7.061516284942626953e+00 -1.976676106452941895e+00 -3.179376712068915367e-03 -5.939566493034362793e-01 -9.486080706119537354e-02
1.770000000000000000e+02 3.925203704833984375e+01 -6.983466625213623047e+00 -2.287786960601806641e+00 -2.949746791273355484e-03 -6.872209906578063965e-01 -1.010159552097320557e-01
1.780000000000000000e+02 3.850259399414062500e+01 -7.002532482147216797e+00 -2.206771850585937500e+00 -3.603378310799598694e-03 -6.631125807762145996e-01 -9.977898746728897095e-02
1.790000000000000000e+02 3.852244567871093750e+01 -7.742266178131103516e+00 -2.046461582183837891e+00 -5.351394414901733398e-03 -6.155439019203186035e-01 -1.696605682373046875e-01
1.800000000000000000e+02 4.076818847656250000e+01 -7.683057308197021484e+00 -2.254976987838745117e+00 -2.617366844788193703e-03 -6.772783398628234863e-01 -1.686691194772720337e-01
1.810000000000000000e+02 4.001962661743164062e+01 -7.703031063079833984e+00 -2.183666467666625977e+00 -4.289359319955110550e-03 -6.563867926597595215e-01 -1.693031042814254761e-01
1.820000000000000000e+02 4.075049972534179688e+01 -6.943266868591308594e+00 -2.441903352737426758e+00 -8.576226537115871906e-04 -7.328283190727233887e-01 -1.013887822628021240e-01
1.830000000000000000e+02 3.927116775512695312e+01 -7.723219394683837891e+00 -2.114616870880126953e+00 -6.519624497741460800e-03 -6.363409757614135742e-01 -1.701276600360870361e-01
1.840000000000000000e+02 4.000121688842773438e+01 -6.963259696960449219e+00 -2.366774082183837891e+00 -3.720402019098401070e-03 -7.111483812332153320e-01 -1.021857857704162598e-01
1.850000000000000000e+02 4.226616287231445312e+01 -7.653321743011474609e+00 -2.389338254928588867e+00 -3.306041937321424484e-03 -7.177932858467102051e-01 -1.693581491708755493e-01
1.860000000000000000e+02 4.225036239624023438e+01 -6.913490295410156250e+00 -2.608212232589721680e+00 -2.671673661097884178e-03 -7.832651138305664062e-01 -9.817852079868316650e-02
1.870000000000000000e+02 4.151683807373046875e+01 -7.666196823120117188e+00 -2.324095010757446289e+00 -1.428060117177665234e-03 -6.976569294929504395e-01 -1.704389899969100952e-01
1.880000000000000000e+02 4.299967193603515625e+01 -6.897992610931396484e+00 -2.689642667770385742e+00 -2.493939362466335297e-03 -8.076409697532653809e-01 -9.900555014610290527e-02
1.890000000000000000e+02 4.301445007324218750e+01 -7.637845039367675781e+00 -2.457193374633789062e+00 -1.974375685676932335e-03 -7.377502918243408203e-01 -1.657366603612899780e-01
1.900000000000000000e+02 4.376168441772460938e+01 -7.619610786437988281e+00 -2.528640985488891602e+00 6.114294519647955894e-04 -7.584089040756225586e-01 -1.635376363992691040e-01
1.910000000000000000e+02 4.374792480468750000e+01 -6.879736900329589844e+00 -2.766631126403808594e+00 5.634782719425857067e-04 -8.298202753067016602e-01 -9.674347937107086182e-02
1.920000000000000000e+02 4.150001907348632812e+01 -6.926386356353759766e+00 -2.522356033325195312e+00 -1.243236707523465157e-03 -7.570797801017761230e-01 -9.853685647249221802e-02
1.930000000000000000e+02 4.524763870239257812e+01 -6.857576370239257812e+00 -2.938919305801391602e+00 -1.870284322649240494e-03 -8.822368979454040527e-01 -9.060647338628768921e-02
1.940000000000000000e+02 4.600764846801757812e+01 -7.586318016052246094e+00 -2.721949100494384766e+00 2.875839709304273129e-04 -8.164984583854675293e-01 -1.566642820835113525e-01
1.950000000000000000e+02 4.450997543334960938e+01 -7.606111049652099609e+00 -2.595915794372558594e+00 1.407098839990794659e-03 -7.783526182174682617e-01 -1.645113527774810791e-01
1.960000000000000000e+02 4.675494384765625000e+01 -7.572458744049072266e+00 -2.789399147033691406e+00 3.355196677148342133e-03 -8.358132243156433105e-01 -1.531824916601181030e-01
1.970000000000000000e+02 4.525932312011718750e+01 -7.597484111785888672e+00 -2.657620668411254883e+00 -7.471270509995520115e-04 -7.975103259086608887e-01 -1.622851490974426270e-01
1.980000000000000000e+02 4.674534988403320312e+01 -6.832519531250000000e+00 -3.101802349090576172e+00 1.792340888641774654e-03 -9.300029873847961426e-01 -8.797408640384674072e-02
1.990000000000000000e+02 4.449724578857421875e+01 -6.866219043731689453e+00 -2.849664211273193359e+00 3.722043475136160851e-04 -8.547875881195068359e-01 -9.209021180868148804e-02
2.000000000000000000e+02 4.599700927734375000e+01 -6.846394062042236328e+00 -3.022877931594848633e+00 -1.583580276928842068e-03 -9.073384404182434082e-01 -9.105058014392852783e-02
2.010000000000000000e+02 4.824522781372070312e+01 -6.818868637084960938e+00 -3.277586221694946289e+00 -9.261366212740540504e-04 -9.835537075996398926e-01 -7.987282425165176392e-02
2.020000000000000000e+02 4.825285720825195312e+01 -7.558829784393310547e+00 -2.903625488281250000e+00 2.058498794212937355e-03 -8.704701066017150879e-01 -1.485732197761535645e-01
2.030000000000000000e+02 4.750334548950195312e+01 -7.563237667083740234e+00 -2.850813865661621094e+00 4.249476827681064606e-03 -8.539693355560302734e-01 -1.527742445468902588e-01
2.040000000000000000e+02 4.899468994140625000e+01 -6.811831474304199219e+00 -3.362419366836547852e+00 -8.478404488414525986e-04 -1.008980154991149902e+00 -7.980608940124511719e-02
2.050000000000000000e+02 4.900135803222656250e+01 -7.551801681518554688e+00 -2.957830429077148438e+00 3.269121283665299416e-03 -8.863683938980102539e-01 -1.401049345731735229e-01
2.060000000000000000e+02 4.974884033203125000e+01 -7.541996002197265625e+00 -3.012711048126220703e+00 7.110198494046926498e-03 -9.016802310943603516e-01 -1.332706660032272339e-01
2.070000000000000000e+02 4.974313354492187500e+01 -6.802017211914062500e+00 -3.441547632217407227e+00 2.928167814388871193e-03 -1.031585812568664551e+00 -7.602123171091079712e-02
2.080000000000000000e+02 4.749475479125976562e+01 -6.823286056518554688e+00 -3.186649799346923828e+00 1.474571181461215019e-03 -9.555525779724121094e-01 -8.222670853137969971e-02
2.090000000000000000e+02 5.124328231811523438e+01 -6.795847415924072266e+00 -3.611038923263549805e+00 -2.901709231082350016e-04 -1.083398699760437012e+00 -6.541144102811813354e-02
2.100000000000000000e+02 5.199635314941406250e+01 -7.532447814941406250e+00 -3.111228466033935547e+00 8.664014749228954315e-03 -9.307693243026733398e-01 -1.046818271279335022e-01
2.110000000000000000e+02 5.049753570556640625e+01 -7.536636352539062500e+00 -3.057320117950439453e+00 8.394569158554077148e-03 -9.146776795387268066e-01 -1.296044141054153442e-01
2.120000000000000000e+02 5.274426269531250000e+01 -7.526317596435546875e+00 -3.128241777420043945e+00 1.418487541377544403e-02 -9.342170953750610352e-01 -8.885351568460464478e-02
2.130000000000000000e+02 5.124744033813476562e+01 -7.535836219787597656e+00 -3.086543321609497070e+00 7.314386777579784393e-03 -9.237686991691589355e-01 -1.194853335618972778e-01
2.140000000000000000e+02 5.274152374267578125e+01 -6.786322593688964844e+00 -3.760388851165771484e+00 2.962248632684350014e-03 -1.127227902412414551e+00 -5.939485877752304077e-02
2.150000000000000000e+02 5.049266433715820312e+01 -6.796650886535644531e+00 -3.524483680725097656e+00 2.796031534671783447e-03 -1.056506276130676270e+00 -6.882936507463455200e-02
2.160000000000000000e+02 5.199290466308593750e+01 -6.792455673217773438e+00 -3.689558267593383789e+00 7.851808913983404636e-04 -1.106631875038146973e+00 -6.398416310548782349e-02
2.170000000000000000e+02 5.349121475219726562e+01 -6.783879280090332031e+00 -3.827404499053955078e+00 3.961303737014532089e-03 -1.147032976150512695e+00 -5.166606232523918152e-02
2.180000000000000000e+02 5.424106216430664062e+01 -6.783032417297363281e+00 -3.887606859207153320e+00 2.551111392676830292e-03 -1.165516734123229980e+00 -4.468734562397003174e-02
2.190000000000000000e+02 5.349338912963867188e+01 -7.523876190185546875e+00 -3.119652748107910156e+00 1.655378565192222595e-02 -9.309296607971191406e-01 -7.226323336362838745e-02
2.200000000000000000e+02 5.424282073974609375e+01 -7.523030757904052734e+00 -3.086192846298217773e+00 2.326240204274654388e-02 -9.188791513442993164e-01 -4.538252577185630798e-02
2.210000000000000000e+02 5.499200439453125000e+01 -7.520969867706298828e+00 -3.024496555328369141e+00 2.690089307725429535e-02 -8.992786407470703125e-01 -7.973205298185348511e-03
2.220000000000000000e+02 5.574129104614257812e+01 -7.519091606140136719e+00 -2.916862964630126953e+00 4.337209835648536682e-02 -8.620472550392150879e-01 4.019238054752349854e-02
2.230000000000000000e+02 5.574037551879882812e+01 -6.779091835021972656e+00 -3.954543828964233398e+00 7.193278055638074875e-03 -1.184205174446105957e+00 -2.665153890848159790e-02
2.240000000000000000e+02 5.499066925048828125e+01 -6.780971050262451172e+00 -3.931510925292968750e+00 3.688177559524774551e-03 -1.178346753120422363e+00 -3.793077543377876282e-02
2.250000000000000000e+02 5.721318435668945312e+01 -7.535370349884033203e+00 -2.371797084808349609e+00 3.961678594350814819e-02 -6.996541023254394531e-01 1.921539306640625000e-01
2.260000000000000000e+02 5.870131683349609375e+01 -6.937220573425292969e+00 -3.039426326751708984e+00 1.038842201232910156e-01 -8.806626200675964355e-01 1.596104800701141357e-01
2.270000000000000000e+02 5.647720718383789062e+01 -7.525804519653320312e+00 -2.728317975997924805e+00 2.690673805773258209e-02 -8.104233741760253906e-01 7.735903561115264893e-02
2.280000000000000000e+02 5.889151382446289062e+01 -7.553727149963378906e+00 -9.519703984260559082e-01 1.551634222269058228e-01 -2.390420883893966675e-01 7.947905063629150391e-01
2.290000000000000000e+02 5.824370956420898438e+01 -6.622658729553222656e+00 -4.156202316284179688e+00 5.398131441324949265e-03 -1.245241284370422363e+00 -1.173044741153717041e-01
2.300000000000000000e+02 5.802997589111328125e+01 -7.165408611297607422e+00 -2.849371910095214844e+00 4.426547139883041382e-02 -8.415319323539733887e-01 1.806710064411163330e-01
2.310000000000000000e+02 5.888945770263671875e+01 -7.323262691497802734e+00 -1.582565307617187500e+00 1.493587791919708252e-01 -4.299619495868682861e-01 6.091359257698059082e-01
2.320000000000000000e+02 5.895943069458007812e+01 -6.720727920532226562e+00 -3.480865001678466797e+00 1.292870044708251953e-01 -1.005473375320434570e+00 -6.905823014676570892e-03
2.330000000000000000e+02 5.643910598754882812e+01 -6.785808563232421875e+00 -3.954693317413330078e+00 1.145487744361162186e-02 -1.182971477508544922e+00 -9.887437336146831512e-03
2.340000000000000000e+02 5.893577957153320312e+01 -7.109613895416259766e+00 -2.286760091781616211e+00 7.332856208086013794e-02 -6.640294790267944336e-01 3.652576208114624023e-01
2.350000000000000000e+02 5.888842010498046875e+01 -6.515442371368408203e+00 -4.494435787200927734e+00 8.176027983427047729e-02 -1.323802590370178223e+00 -4.313339293003082275e-02
2.360000000000000000e+02 5.865390014648437500e+01 -6.660192012786865234e+00 -4.058500289916992188e+00 1.648409664630889893e-02 -1.212604880332946777e+00 -1.515246089547872543e-02
2.370000000000000000e+02 5.845888137817382812e+01 -7.293689727783203125e+00 -2.053430557250976562e+00 2.392708361148834229e-01 -5.442479252815246582e-01 4.142621755599975586e-01
2.380000000000000000e+02 5.847886657714843750e+01 -7.598067760467529297e+00 -1.278785109519958496e+00 4.082946181297302246e-01 -2.611471414566040039e-01 6.460061669349670410e-01
2.390000000000000000e+02 5.881881713867187500e+01 -7.774687290191650391e+00 -6.404306292533874512e-01 4.118332266807556152e-01 -6.857921928167343140e-02 1.028822064399719238e+00
2.400000000000000000e+02 5.896737289428710938e+01 -6.918696403503417969e+00 -2.970397472381591797e+00 6.725133396685123444e-03 -8.891016840934753418e-01 1.385160684585571289e-01
2.410000000000000000e+02 5.793864059448242188e+01 -7.598466396331787109e+00 -1.869174957275390625e+00 1.312265545129776001e-01 -5.213845372200012207e-01 4.253028929233551025e-01
2.420000000000000000e+02 5.771064758300781250e+01 -6.719339847564697266e+00 -3.978513479232788086e+00 -3.225638344883918762e-02 -1.203230977058410645e+00 -7.207190245389938354e-02
2.430000000000000000e+02 5.710029220581054688e+01 -6.795381069183349609e+00 -3.950925350189208984e+00 -3.372702375054359436e-02 -1.195395708084106445e+00 -2.112348005175590515e-02
2.440000000000000000e+02 5.837778854370117188e+01 -6.997794151306152344e+00 -3.176923751831054688e+00 1.029350608587265015e-01 -9.221966266632080078e-01 1.268167644739151001e-01
2.450000000000000000e+02 6.061602783203125000e+01 -6.517483234405517578e+00 -3.502869129180908203e+00 -7.604686915874481201e-02 -1.073674798011779785e+00 1.059255227446556091e-01
2.460000000000000000e+02 5.921523284912109375e+01 -6.509555816650390625e+00 -4.463223457336425781e+00 -1.706449538469314575e-01 -1.390160560607910156e+00 2.751827985048294067e-02
2.470000000000000000e+02 6.081633377075195312e+01 -6.512493610382080078e+00 -3.221776247024536133e+00 8.682887256145477295e-02 -9.404842257499694824e-01 1.062404736876487732e-01
2.480000000000000000e+02 6.308158874511718750e+01 -6.932330608367919922e+00 1.058096218109130859e+01 2.206463050842285156e+01 9.793677330017089844e+00 -3.231596708297729492e+00
2.490000000000000000e+02 6.347956466674804688e+01 -6.306618213653564453e+00 1.211738204956054688e+01 1.788546752929687500e+01 9.000854492187500000e+00 5.050708651542663574e-01
2.500000000000000000e+02 6.042259979248046875e+01 -5.255618572235107422e+00 1.930037617683410645e+00 1.766663670539855957e+00 1.109010457992553711e+00 -3.090797901153564453e+00
2.510000000000000000e+02 5.921687698364257812e+01 -7.785328388214111328e+00 1.165150292217731476e-02 8.902327418327331543e-01 2.705652713775634766e-01 1.581056356430053711e+00
2.520000000000000000e+02 5.959062576293945312e+01 -7.778071880340576172e+00 5.966637134552001953e-01 9.906979203224182129e-01 4.762085080146789551e-01 2.037558078765869141e+00
2.530000000000000000e+02 6.013967895507812500e+01 -7.074074745178222656e+00 -3.474110364913940430e-01 3.883692026138305664e-01 1.228744909167289734e-02 1.108185529708862305e+00
2.540000000000000000e+02 6.101642990112304688e+01 -7.789786815643310547e+00 3.223020315170288086e+00 5.994277000427246094e+00 2.765189170837402344e+00 5.933698654174804688e+00
2.550000000000000000e+02 6.180719375610351562e+01 -7.583679199218750000e+00 2.883650302886962891e+00 1.581292915344238281e+01 5.608973503112792969e+00 7.890482902526855469e+00
2.560000000000000000e+02 6.142306900024414062e+01 -7.246373176574707031e+00 5.440062522888183594e+00 7.778867721557617188e+00 3.965678930282592773e+00 7.683988094329833984e+00
2.570000000000000000e+02 6.102036285400390625e+01 -6.503259181976318359e+00 -2.990087985992431641e+00 -1.481470316648483276e-01 -9.414705634117126465e-01 5.729166790843009949e-02
2.580000000000000000e+02 6.239869689941406250e+01 -5.045908451080322266e+00 1.122657656669616699e+00 2.129954338073730469e+01 6.726660251617431641e+00 -3.571673393249511719e+00
2.590000000000000000e+02 6.268488693237304688e+01 -5.424465656280517578e+00 3.727943658828735352e+00 2.522387123107910156e+01 8.685544013977050781e+00 2.766709625720977783e-01
2.600000000000000000e+02 6.320098114013671875e+01 -6.111787319183349609e+00 1.292032909393310547e+01 2.028490066528320312e+01 9.961568832397460938e+00 2.181688070297241211e+00
2.610000000000000000e+02 6.296592712402343750e+01 -7.098131656646728516e+00 8.047164916992187500e+00 2.352599906921386719e+01 9.471949577331542969e+00 -3.047707557678222656e+00
2.620000000000000000e+02 6.268383789062500000e+01 -7.354273319244384766e+00 3.692312955856323242e+00 2.522911834716796875e+01 8.676429748535156250e+00 -2.677082717418670654e-01
2.630000000000000000e+02 6.239776992797851562e+01 -7.476158142089843750e+00 2.000984191894531250e+00 2.445770835876464844e+01 7.937607765197753906e+00 3.090056419372558594e+00
2.640000000000000000e+02 5.921812438964843750e+01 -4.997784614562988281e+00 -1.009446009993553162e-01 8.343498706817626953e-01 2.200215905904769897e-01 -1.439258337020874023e+00
2.650000000000000000e+02 5.920880889892578125e+01 -5.849046707153320312e+00 -2.647017955780029297e+00 9.856378287076950073e-02 -7.645362615585327148e-01 -2.296085953712463379e-01
2.660000000000000000e+02 5.943185043334960938e+01 -5.235633850097656250e+00 -3.128572404384613037e-01 5.475924015045166016e-01 7.042054831981658936e-02 -1.280165553092956543e+00
2.670000000000000000e+02 6.001055526733398438e+01 -6.200012207031250000e+00 -3.831608295440673828e+00 -4.355666041374206543e-02 -1.162549495697021484e+00 -8.076493442058563232e-02
2.680000000000000000e+02 6.201624298095703125e+01 -5.279810428619384766e+00 2.146562814712524414e+00 1.997030639648437500e+01 6.635060787200927734e+00 -7.378085613250732422e+00
2.690000000000000000e+02 6.181822204589843750e+01 -5.307973861694335938e+00 3.147985935211181641e+00 1.623838233947753906e+01 5.815910339355468750e+00 -8.499802589416503906e+00
2.700000000000000000e+02 5.921223831176757812e+01 -6.264740943908691406e+00 -4.585853099822998047e+00 -1.310267001390457153e-01 -1.415063977241516113e+00 -1.039236597716808319e-02
2.710000000000000000e+02 5.960176849365234375e+01 -6.260714054107666016e+00 -4.260668754577636719e+00 8.234445005655288696e-03 -1.275730252265930176e+00 -8.111152797937393188e-02
2.720000000000000000e+02 5.921437072753906250e+01 -5.640510082244873047e+00 -1.906699419021606445e+00 1.347381919622421265e-01 -5.315883755683898926e-01 -5.237282514572143555e-01
2.730000000000000000e+02 5.963859939575195312e+01 -5.254649639129638672e+00 8.466154336929321289e-03 5.935768485069274902e-01 1.806128919124603271e-01 -1.460880398750305176e+00
2.740000000000000000e+02 6.002686309814453125e+01 -5.863251209259033203e+00 -1.568264365196228027e+00 1.221656724810600281e-01 -4.338296055793762207e-01 -5.995246767997741699e-01
2.750000000000000000e+02 6.042976379394531250e+01 -6.220607280731201172e+00 -3.559409856796264648e+00 4.732540249824523926e-02 -1.053625345230102539e+00 -5.376667529344558716e-02
2.760000000000000000e+02 6.063250732421875000e+01 -6.238235473632812500e+00 -3.395483255386352539e+00 -2.522308751940727234e-02 -1.026211857795715332e+00 -7.717029005289077759e-02
2.770000000000000000e+02 6.083106613159179688e+01 -6.255650997161865234e+00 -3.180943012237548828e+00 7.184964418411254883e-02 -9.327280521392822266e-01 -9.485063701868057251e-02
2.780000000000000000e+02 6.102724456787109375e+01 -6.274505138397216797e+00 -2.947062730789184570e+00 -1.478816121816635132e-01 -9.284833073616027832e-01 -5.850098654627799988e-02
2.790000000000000000e+02 6.257950973510742188e+01 -5.271319389343261719e+00 2.481969356536865234e+00 2.405000686645507812e+01 7.959592819213867188e+00 -1.353576421737670898e+00
2.800000000000000000e+02 6.127556610107421875e+01 -5.655836105346679688e+00 4.900145530700683594e+00 4.220500469207763672e+00 2.736193656921386719e+00 -5.920882225036621094e+00
2.810000000000000000e+02 6.106924438476562500e+01 -6.061965465545654297e+00 6.963224411010742188e-01 4.941420257091522217e-01 3.571393489837646484e-01 -1.371021747589111328e+00
2.820000000000000000e+02 6.150026321411132812e+01 -7.510422229766845703e+00 4.158821105957031250e+00 1.035926628112792969e+01 4.355426311492919922e+00 7.812943458557128906e+00
2.830000000000000000e+02 6.171958160400390625e+01 -7.434955596923828125e+00 3.555801153182983398e+00 1.451683807373046875e+01 5.421792030334472656e+00 8.876347541809082031e+00
2.840000000000000000e+02 6.202338409423828125e+01 -7.511675357818603516e+00 2.176572322845458984e+00 1.987529563903808594e+01 6.615560531616210938e+00 7.433337211608886719e+00
2.850000000000000000e+02 6.315762329101562500e+01 -6.731979846954345703e+00 1.259846305847167969e+01 2.073347282409667969e+01 9.999580383300781250e+00 -2.585475683212280273e+00
2.860000000000000000e+02 6.001034164428710938e+01 -7.763577461242675781e+00 1.355168342590332031e+00 1.598271846771240234e+00 8.860320448875427246e-01 2.653601884841918945e+00
2.870000000000000000e+02 6.345873260498046875e+01 -6.110050678253173828e+00 1.154195880889892578e+01 1.807953834533691406e+01 8.886448860168457031e+00 1.572690129280090332e+00
2.880000000000000000e+02 6.283105087280273438e+01 -7.238853454589843750e+00 5.742039680480957031e+00 2.478269767761230469e+01 9.157421112060546875e+00 -2.034948587417602539e+00
2.890000000000000000e+02 6.001903152465820312e+01 -7.524453163146972656e+00 9.858644604682922363e-01 1.105411291122436523e+00 6.273827552795410156e-01 2.183093309402465820e+00
2.900000000000000000e+02 6.103770065307617188e+01 -6.726735591888427734e+00 7.165091037750244141e-01 4.099308550357818604e-01 3.379319906234741211e-01 1.400127172470092773e+00
2.910000000000000000e+02 6.083621597290039062e+01 -7.769944190979003906e+00 3.092280864715576172e+00 4.505969047546386719e+00 2.279474973678588867e+00 5.276333808898925781e+00
2.920000000000000000e+02 6.125182342529296875e+01 -7.125361442565917969e+00 4.970827102661132812e+00 4.165806293487548828e+00 2.740989923477172852e+00 5.728086948394775391e+00
2.930000000000000000e+02 6.221327590942382812e+01 -7.503926753997802734e+00 1.717694163322448730e+00 2.265697860717773438e+01 7.312402248382568359e+00 5.385066986083984375e+00
2.940000000000000000e+02 6.283272552490234375e+01 -5.538352966308593750e+00 5.737306118011474609e+00 2.473403930664062500e+01 9.141403198242187500e+00 2.081506490707397461e+00
2.950000000000000000e+02 6.161994552612304688e+01 -5.365687847137451172e+00 4.282244682312011719e+00 1.204456806182861328e+01 4.898043632507324219e+00 -8.643886566162109375e+00
2.960000000000000000e+02 6.041657638549804688e+01 -5.010073661804199219e+00 2.242845296859741211e+00 2.588327169418334961e+00 1.449351787567138672e+00 -3.785142421722412109e+00
2.970000000000000000e+02 6.114630889892578125e+01 -5.845639705657958984e+00 3.551273345947265625e+00 1.603213667869567871e+00 1.546346068382263184e+00 -3.543833255767822266e+00
2.980000000000000000e+02 6.326535797119140625e+01 -5.640345096588134766e+00 7.995633125305175781e+00 2.030216979980468750e+01 8.489340782165527344e+00 2.866916418075561523e+00
2.990000000000000000e+02 6.323384857177734375e+01 -5.927563667297363281e+00 1.113225078582763672e+01 2.042939758300781250e+01 9.468494415283203125e+00 2.672249555587768555e+00
3.000000000000000000e+02 6.320870971679687500e+01 -6.516133785247802734e+00 1.391365718841552734e+01 1.976021766662597656e+01 1.010216236114501953e+01 -9.628931879997253418e-01
3.010000000000000000e+02 6.296836090087890625e+01 -5.674151897430419922e+00 8.012072563171386719e+00 2.359105491638183594e+01 9.480937957763671875e+00 3.085701465606689453e+00
3.020000000000000000e+02 6.044602966308593750e+01 -5.504062652587890625e+00 1.338626742362976074e+00 1.089940190315246582e+00 7.285701036453247070e-01 -2.356631278991699219e+00
3.030000000000000000e+02 6.021998214721679688e+01 -5.014509201049804688e+00 1.761199235916137695e+00 1.978599429130554199e+00 1.121939659118652344e+00 -3.175038099288940430e+00
3.040000000000000000e+02 6.160269927978515625e+01 -5.055548191070556641e+00 2.950539112091064453e+00 1.211460494995117188e+01 4.519543170928955078e+00 -7.786900520324707031e+00
3.050000000000000000e+02 6.221178817749023438e+01 -7.755666255950927734e+00 1.249640226364135742e+00 2.028218269348144531e+01 6.459547042846679688e+00 5.184237003326416016e+00
3.060000000000000000e+02 6.239791870117187500e+01 -7.734389305114746094e+00 1.227280020713806152e+00 2.121716117858886719e+01 6.733332157135009766e+00 3.592399597167968750e+00
3.070000000000000000e+02 6.221110534667968750e+01 -5.027904987335205078e+00 1.243187546730041504e+00 2.028564643859863281e+01 6.458650112152099609e+00 -5.165338516235351562e+00
3.080000000000000000e+02 6.221236038208007812e+01 -5.279645919799804688e+00 1.696125745773315430e+00 2.272438049316406250e+01 7.326151847839355469e+00 -5.453655242919921875e+00
3.090000000000000000e+02 6.272457885742187500e+01 -5.134027481079101562e+00 2.339209318161010742e+00 2.277783393859863281e+01 7.535113334655761719e+00 -3.888311386108398438e-01
3.100000000000000000e+02 6.257201004028320312e+01 -7.708951473236083984e+00 1.472446203231811523e+00 2.219138717651367188e+01 7.099149703979492188e+00 2.186005592346191406e+00
3.110000000000000000e+02 6.314600372314453125e+01 -5.495897769927978516e+00 6.590049266815185547e+00 2.160959434509277344e+01 8.459893226623535156e+00 2.653022050857543945e+00
3.120000000000000000e+02 6.300986480712890625e+01 -5.359821319580078125e+00 4.938530445098876953e+00 2.244013595581054688e+01 8.213600158691406250e+00 1.902595520019531250e+00
3.130000000000000000e+02 6.314340591430664062e+01 -7.276549339294433594e+00 6.634249687194824219e+00 2.158629226684570312e+01 8.466162681579589844e+00 -2.728337049484252930e+00
3.140000000000000000e+02 6.326467895507812500e+01 -7.114089488983154297e+00 8.446538925170898438e+00 2.046244430541992188e+01 8.672695159912109375e+00 -2.961425065994262695e+00
3.150000000000000000e+02 6.337139511108398438e+01 -5.781029224395751953e+00 9.361776351928710938e+00 1.954539871215820312e+01 8.672152519226074219e+00 2.877317905426025391e+00
3.160000000000000000e+02 6.257864379882812500e+01 -7.508060455322265625e+00 2.528467416763305664e+00 2.403780555725097656e+01 7.969882011413574219e+00 1.307750940322875977e+00
3.170000000000000000e+02 6.350858688354492188e+01 -6.496609687805175781e+00 1.213374614715576172e+01 1.776684188842773438e+01 8.970176696777343750e+00 -5.168032050132751465e-01
3.180000000000000000e+02 6.286396408081054688e+01 -7.538315773010253906e+00 3.371397256851196289e+00 2.254932594299316406e+01 7.776216983795166016e+00 -7.650322318077087402e-01
3.190000000000000000e+02 6.343379592895507812e+01 -5.933369159698486328e+00 1.082796287536621094e+01 1.864309692382812500e+01 8.841318130493164062e+00 2.318089246749877930e+00
3.200000000000000000e+02 6.346213912963867188e+01 -6.832077980041503906e+00 1.050385761260986328e+01 1.849122047424316406e+01 8.698523521423339844e+00 -2.065370082855224609e+00
3.210000000000000000e+02 6.337948608398437500e+01 -6.971492767333984375e+00 9.844937324523925781e+00 1.962555885314941406e+01 8.841148376464843750e+00 -2.858527660369873047e+00
3.220000000000000000e+02 6.322798919677734375e+01 -6.306778907775878906e+00 1.386809539794921875e+01 1.967259216308593750e+01 1.006220626831054688e+01 6.677321791648864746e-01
3.230000000000000000e+02 6.272351074218750000e+01 -7.645360946655273438e+00 2.450173616409301758e+00 2.282106590270996094e+01 7.581371784210205078e+00 3.110918104648590088e-01
3.240000000000000000e+02 6.257312774658203125e+01 -5.070465087890625000e+00 1.365419626235961914e+00 2.228720092773437500e+01 7.095786094665527344e+00 -2.189092397689819336e+00
3.250000000000000000e+02 6.021586990356445312e+01 -7.771114349365234375e+00 1.787454128265380859e+00 1.905316472053527832e+00 1.107831239700317383e+00 3.045224905014038086e+00
3.260000000000000000e+02 6.021932983398437500e+01 -7.554024696350097656e+00 1.440261125564575195e+00 1.580966353416442871e+00 9.063682556152343750e-01 2.651264905929565430e+00
3.270000000000000000e+02 6.121741485595703125e+01 -7.761726379394531250e+00 3.357955217361450195e+00 7.502068996429443359e+00 3.258007287979125977e+00 6.749043464660644531e+00
3.280000000000000000e+02 6.164971160888671875e+01 -7.773097038269042969e+00 2.774008989334106445e+00 1.282005405426025391e+01 4.678218841552734375e+00 8.007649421691894531e+00
3.290000000000000000e+02 6.182842254638671875e+01 -7.783793926239013672e+00 2.064709663391113281e+00 1.604590988159179688e+01 5.433185577392578125e+00 7.076225757598876953e+00
3.300000000000000000e+02 6.144660186767578125e+01 -7.746842384338378906e+00 3.179411411285400391e+00 9.978590965270996094e+00 3.947400569915771484e+00 7.383775234222412109e+00
3.310000000000000000e+02 6.063461685180664062e+01 -7.746591567993164062e+00 2.777604103088378906e+00 3.320050477981567383e+00 1.829296350479125977e+00 4.456749916076660156e+00
3.320000000000000000e+02 5.925180435180664062e+01 -7.373804569244384766e+00 -9.599567651748657227e-01 2.586730420589447021e-01 -2.103851139545440674e-01 7.736842632293701172e-01
3.330000000000000000e+02 5.941193008422851562e+01 -7.798323154449462891e+00 2.135674506425857544e-01 9.081316590309143066e-01 3.365097343921661377e-01 1.811771631240844727e+00
3.340000000000000000e+02 6.202029418945312500e+01 -7.766297817230224609e+00 1.653070807456970215e+00 1.774920463562011719e+01 5.820682525634765625e+00 6.360331058502197266e+00
3.350000000000000000e+02 6.042268371582031250e+01 -6.794083118438720703e+00 -1.337161540985107422e+00 1.228860095143318176e-01 -3.642826676368713379e-01 5.668241381645202637e-01
3.360000000000000000e+02 6.000078201293945312e+01 -6.529659748077392578e+00 -4.058030128479003906e+00 -8.359918370842933655e-03 -1.219916939735412598e+00 9.522984735667705536e-03
3.370000000000000000e+02 5.925444793701171875e+01 -6.926371574401855469e+00 -2.575208187103271484e+00 1.076808124780654907e-01 -7.402582168579101562e-01 1.771468222141265869e-01
3.380000000000000000e+02 6.062947082519531250e+01 -6.739011764526367188e+00 -1.263920664787292480e+00 1.370645165443420410e-01 -3.380568325519561768e-01 6.723415255546569824e-01
3.390000000000000000e+02 6.047263336181640625e+01 -5.910101890563964844e+00 -5.984274744987487793e-01 2.119246423244476318e-01 -1.159508600831031799e-01 -9.523430466651916504e-01
3.400000000000000000e+02 6.120065307617187500e+01 -5.014486312866210938e+00 3.236107826232910156e+00 7.282919883728027344e+00 3.155708312988281250e+00 -6.606469154357910156e+00
3.410000000000000000e+02 6.080441665649414062e+01 -5.238906860351562500e+00 3.212335824966430664e+00 3.405085563659667969e+00 1.985226392745971680e+00 -4.687433719635009766e+00
3.420000000000000000e+02 6.081164169311523438e+01 -5.004563808441162109e+00 2.979028224945068359e+00 4.477958202362060547e+00 2.237096071243286133e+00 -5.253795623779296875e+00
3.430000000000000000e+02 5.942256546020507812e+01 -5.004938602447509766e+00 1.559199392795562744e-01 7.404919862747192383e-01 2.689235806465148926e-01 -1.611568093299865723e+00
3.440000000000000000e+02 5.962491989135742188e+01 -5.010713100433349609e+00 4.947231709957122803e-01 1.009450078010559082e+00 4.512519836425781250e-01 -1.928459763526916504e+00
3.450000000000000000e+02 6.079192733764648438e+01 -5.479599475860595703e+00 2.911760568618774414e+00 2.195982933044433594e+00 1.532323002815246582e+00 -3.770628929138183594e+00
3.460000000000000000e+02 6.061446380615234375e+01 -5.240022659301757812e+00 2.568562746047973633e+00 2.482470989227294922e+00 1.515310168266296387e+00 -3.880427122116088867e+00
3.470000000000000000e+02 6.139725875854492188e+01 -5.045258522033691406e+00 3.255465507507324219e+00 9.597707748413085938e+00 3.855952024459838867e+00 -7.442004203796386719e+00
3.480000000000000000e+02 6.003822326660156250e+01 -5.278274059295654297e+00 9.035761356353759766e-01 9.802905321121215820e-01 5.651600360870361328e-01 -2.089867591857910156e+00
3.490000000000000000e+02 5.984089660644531250e+01 -5.270364761352539062e+00 3.993681967258453369e-01 8.030391931533813477e-01 3.607222139835357666e-01 -1.748282432556152344e+00
3.500000000000000000e+02 6.201337432861328125e+01 -5.025185108184814453e+00 1.696493744850158691e+00 1.822405624389648438e+01 5.976165294647216797e+00 -6.540026664733886719e+00
3.510000000000000000e+02 5.927068328857421875e+01 -7.150117874145507812e+00 -1.700040221214294434e+00 2.036421597003936768e-01 -4.489194154739379883e-01 5.749588608741760254e-01
3.520000000000000000e+02 5.979139328002929688e+01 -7.752908229827880859e+00 9.310023188591003418e-01 1.131007075309753418e+00 6.186028122901916504e-01 2.196910858154296875e+00
3.530000000000000000e+02 5.920812988281250000e+01 -6.056904792785644531e+00 -3.575264930725097656e+00 -4.787636175751686096e-02 -1.086942315101623535e+00 -8.093950897455215454e-02
3.540000000000000000e+02 5.940672302246093750e+01 -6.267477035522460938e+00 -4.460339069366455078e+00 9.780682623386383057e-02 -1.308759689331054688e+00 1.061265543103218079e-02
3.550000000000000000e+02 6.087824249267578125e+01 -6.008511066436767578e+00 2.007484585046768188e-01 1.973694711923599243e-01 1.194353774189949036e-01 -1.156710863113403320e+00
3.560000000000000000e+02 6.117084121704101562e+01 -5.454510211944580078e+00 4.472834110260009766e+00 4.674963951110839844e+00 2.744339466094970703e+00 -5.968407630920410156e+00
3.570000000000000000e+02 6.027827453613281250e+01 -7.371126651763916016e+00 1.250725150108337402e+00 1.176766872406005859e+00 7.282476425170898438e-01 2.338089466094970703e+00
3.580000000000000000e+02 5.996019363403320312e+01 -6.782443046569824219e+00 -2.395368337631225586e+00 6.352231651544570923e-02 -6.995537877082824707e-01 3.143894076347351074e-01
3.590000000000000000e+02 5.960699844360351562e+01 -6.502761840820312500e+00 -4.325719833374023438e+00 1.183692645281553268e-02 -1.294164896011352539e+00 1.816556416451931000e-02
3.600000000000000000e+02 5.980053710937500000e+01 -6.516165733337402344e+00 -4.176190376281738281e+00 -5.577652249485254288e-03 -1.254530429840087891e+00 2.275999449193477631e-02
3.610000000000000000e+02 5.984380340576171875e+01 -5.532299995422363281e+00 -4.255419075489044189e-01 3.753211796283721924e-01 -1.506622228771448135e-02 -1.135520935058593750e+00
3.620000000000000000e+02 6.068167877197265625e+01 -5.966112136840820312e+00 -2.045825123786926270e-01 3.387298882007598877e-01 4.024421423673629761e-02 -1.052695989608764648e+00
3.630000000000000000e+02 5.982519149780273438e+01 -5.014754295349121094e+00 8.965198993682861328e-01 1.197408080101013184e+00 6.281784176826477051e-01 -2.273983240127563477e+00
3.640000000000000000e+02 6.143893814086914062e+01 -5.489524364471435547e+00 5.017620086669921875e+00 8.061896324157714844e+00 3.923854827880859375e+00 -7.846103668212890625e+00
3.650000000000000000e+02 5.941288375854492188e+01 -5.670785903930664062e+00 -1.707371592521667480e+00 1.824410855770111084e-01 -4.574791491031646729e-01 -5.613670945167541504e-01
3.660000000000000000e+02 5.939260864257812500e+01 -6.066852092742919922e+00 -3.559608221054077148e+00 3.758336603641510010e-02 -1.056607484817504883e+00 -1.293867528438568115e-01
3.670000000000000000e+02 6.110523223876953125e+01 -6.952662944793701172e+00 3.378005266189575195e+00 1.597006559371948242e+00 1.492503523826599121e+00 3.409952878952026367e+00
3.680000000000000000e+02 6.071493530273437500e+01 -6.914594650268554688e+00 8.147259354591369629e-01 3.962990641593933105e-01 3.633075058460235596e-01 1.505562424659729004e+00
3.690000000000000000e+02 5.941365432739257812e+01 -6.501337528228759766e+00 -4.392010688781738281e+00 7.341396808624267578e-02 -1.295579075813293457e+00 -7.218903303146362305e-02
3.700000000000000000e+02 5.978512954711914062e+01 -7.492561340332031250e+00 3.883787095546722412e-01 7.174926996231079102e-01 3.317614197731018066e-01 1.699052572250366211e+00
3.710000000000000000e+02 6.081680297851562500e+01 -6.742503643035888672e+00 -2.590154409408569336e-01 2.343861609697341919e-01 -7.388783618807792664e-03 1.006064891815185547e+00
3.720000000000000000e+02 6.113871383666992188e+01 -7.342221260070800781e+00 4.391487598419189453e+00 4.418893337249755859e+00 2.643114089965820312e+00 5.797543525695800781e+00
3.730000000000000000e+02 5.982980346679687500e+01 -7.253055572509765625e+00 -3.218860924243927002e-01 4.324415028095245361e-01 3.316662833094596863e-02 1.160490155220031738e+00
3.740000000000000000e+02 6.025398254394531250e+01 -5.556814670562744141e+00 5.782057046890258789e-01 6.956416964530944824e-01 3.821542263031005859e-01 -1.725503683090209961e+00
3.750000000000000000e+02 6.004639434814453125e+01 -5.556823253631591797e+00 -4.768979921936988831e-02 5.239751338958740234e-01 1.428856104612350464e-01 -1.372421503067016602e+00
3.760000000000000000e+02 5.980036926269531250e+01 -6.224782466888427734e+00 -4.000207424163818359e+00 1.698504202067852020e-02 -1.194966793060302734e+00 -1.018945425748825073e-01
3.770000000000000000e+02 6.094906616210937500e+01 -5.756966590881347656e+00 2.728981256484985352e+00 1.620343685150146484e+00 1.304797530174255371e+00 -3.154973506927490234e+00
3.780000000000000000e+02 6.025128555297851562e+01 -5.873378753662109375e+00 -1.078243851661682129e+00 2.238714694976806641e-01 -2.563117146492004395e-01 -8.427912592887878418e-01
3.790000000000000000e+02 5.981478500366210938e+01 -5.802121162414550781e+00 -1.765247941017150879e+00 1.732753664255142212e-01 -4.775917530059814453e-01 -5.598406791687011719e-01
3.800000000000000000e+02 5.975131607055664062e+01 -6.740952968597412109e+00 -2.996426343917846680e+00 1.274930406361818314e-02 -8.951030969619750977e-01 1.632615178823471069e-01
3.810000000000000000e+02 6.040185928344726562e+01 -7.526895523071289062e+00 1.875401735305786133e+00 1.677562952041625977e+00 1.065889358520507812e+00 3.026188373565673828e+00
3.820000000000000000e+02 5.961306381225585938e+01 -5.718835830688476562e+00 -1.708382248878479004e+00 1.935557872056961060e-01 -4.544479548931121826e-01 -6.160201430320739746e-01
3.830000000000000000e+02 5.923057937622070312e+01 -7.581885814666748047e+00 -5.999596118927001953e-01 5.873039960861206055e-01 -3.796695731580257416e-03 1.118137121200561523e+00
3.840000000000000000e+02 5.945660781860351562e+01 -7.630426406860351562e+00 1.087433770298957825e-01 6.630598902702331543e-01 2.315409779548645020e-01 1.528786420822143555e+00
3.850000000000000000e+02 5.952394866943359375e+01 -7.432228088378906250e+00 -3.625629842281341553e-01 5.230071544647216797e-01 4.813325777649879456e-02 1.227572917938232422e+00
3.860000000000000000e+02 5.957685852050781250e+01 -6.690984249114990234e+00 -3.340052604675292969e+00 1.033045649528503418e-01 -9.710244536399841309e-01 7.954260706901550293e-02
3.870000000000000000e+02 5.922237014770507812e+01 -6.715356826782226562e+00 -3.566404819488525391e+00 -1.340237259864807129e-01 -1.110128521919250488e+00 3.058412671089172363e-02
3.880000000000000000e+02 5.947435760498046875e+01 -6.848756790161132812e+00 -2.702420949935913086e+00 5.035152658820152283e-02 -7.956207990646362305e-01 2.879484295845031738e-01
3.890000000000000000e+02 5.941546630859375000e+01 -6.685556411743164062e+00 -3.613524436950683594e+00 5.859126523137092590e-02 -1.066479921340942383e+00 1.029314547777175903e-01
3.900000000000000000e+02 6.041898345947265625e+01 -7.763976573944091797e+00 2.346207141876220703e+00 2.560968399047851562e+00 1.472152590751647949e+00 3.730658531188964844e+00
3.910000000000000000e+02 6.089781570434570312e+01 -7.380917072296142578e+00 3.585410118103027344e+00 3.057960510253906250e+00 1.993011116981506348e+00 4.590342998504638672e+00
3.920000000000000000e+02 6.062645339965820312e+01 -7.462585926055908203e+00 2.562745809555053711e+00 2.291021823883056641e+00 1.456130266189575195e+00 3.613637208938598633e+00
3.930000000000000000e+02 6.096334457397460938e+01 -7.609694480895996094e+00 3.390730857849121094e+00 4.869081020355224609e+00 2.477943420410156250e+00 5.500185489654541016e+00
3.940000000000000000e+02 6.117143630981445312e+01 -7.546292304992675781e+00 3.779253244400024414e+00 6.113771438598632812e+00 2.967907428741455078e+00 6.438527107238769531e+00
3.950000000000000000e+02 6.158539199829101562e+01 -7.342552185058593750e+00 4.731937885284423828e+00 1.120532703399658203e+01 4.781179428100585938e+00 8.986411094665527344e+00
3.960000000000000000e+02 6.131676483154296875e+01 -7.427826881408691406e+00 4.492475986480712891e+00 7.209948062896728516e+00 3.510727167129516602e+00 7.085399627685546875e+00
3.970000000000000000e+02 6.300801849365234375e+01 -7.417548179626464844e+00 4.844499588012695312e+00 2.226301956176757812e+01 8.132255554199218750e+00 -1.906936287879943848e+00
3.980000000000000000e+02 6.350881958007812500e+01 -6.665048122406005859e+00 1.106366157531738281e+01 1.795180702209472656e+01 8.704640388488769531e+00 -1.550409674644470215e+00
3.990000000000000000e+02 6.332011795043945312e+01 -6.789424896240234375e+00 1.142911720275878906e+01 1.957407379150390625e+01 9.300957679748535156e+00 -2.432057142257690430e+00
4.000000000000000000e+02 6.337351226806640625e+01 -6.596566200256347656e+00 1.247499084472656250e+01 1.877089118957519531e+01 9.373764991760253906e+00 -1.302022099494934082e+00
4.010000000000000000e+02 6.308209609985351562e+01 -5.821935176849365234e+00 1.031907367706298828e+01 2.213052749633789062e+01 9.734880447387695312e+00 3.251823663711547852e+00
4.020000000000000000e+02 6.286518096923828125e+01 -5.240589618682861328e+00 3.381375789642333984e+00 2.254375076293945312e+01 7.777538299560546875e+00 7.355037927627563477e-01
4.030000000000000000e+02 6.239830780029296875e+01 -5.304139614105224609e+00 1.983465433120727539e+00 2.447019386291503906e+01 7.936098098754882812e+00 -3.086240291595458984e+00
4.040000000000000000e+02 6.181088638305664062e+01 -5.034714221954345703e+00 2.322228431701660156e+00 1.541607284545898438e+01 5.321490764617919922e+00 -7.461657524108886719e+00
4.050000000000000000e+02 6.131855773925781250e+01 -5.304639816284179688e+00 4.295407772064208984e+00 7.631136894226074219e+00 3.577963352203369141e+00 -7.270966053009033203e+00
4.060000000000000000e+02 6.116278839111328125e+01 -5.245516777038574219e+00 3.723732233047485352e+00 6.033144950866699219e+00 2.927063226699829102e+00 -6.296146869659423828e+00
4.070000000000000000e+02 6.100646209716796875e+01 -5.006157875061035156e+00 3.029011011123657227e+00 5.744289875030517578e+00 2.631990194320678711e+00 -5.792625427246093750e+00
4.080000000000000000e+02 5.922133255004882812e+01 -5.215371608734130859e+00 -6.883875727653503418e-01 5.083155632019042969e-01 -5.402158945798873901e-02 -1.023297309875488281e+00
4.090000000000000000e+02 5.921968841552734375e+01 -5.429581165313720703e+00 -1.165055632591247559e+00 2.312785834074020386e-01 -2.801330983638763428e-01 -7.579754590988159180e-01
4.100000000000000000e+02 5.942871475219726562e+01 -5.458742618560791016e+00 -1.054141640663146973e+00 3.450388014316558838e-01 -2.127308696508407593e-01 -8.757244348526000977e-01
4.110000000000000000e+02 5.939437484741210938e+01 -5.871239185333251953e+00 -2.558087825775146484e+00 2.778355963528156281e-02 -7.590912580490112305e-01 -2.851529717445373535e-01
4.120000000000000000e+02 6.002322387695312500e+01 -5.016093254089355469e+00 1.291422247886657715e+00 1.618452548980712891e+00 8.729624152183532715e-01 -2.725962638854980469e+00
4.130000000000000000e+02 6.061434173583984375e+01 -5.005842685699462891e+00 2.691090345382690430e+00 3.368709802627563477e+00 1.817939996719360352e+00 -4.462162971496582031e+00
4.140000000000000000e+02 5.956733322143554688e+01 -6.065969944000244141e+00 -3.559664249420166016e+00 1.015679314732551575e-01 -1.037428855895996094e+00 -5.680860579013824463e-02
4.150000000000000000e+02 6.022367858886718750e+01 -6.208075523376464844e+00 -3.688943147659301758e+00 -1.824047416448593140e-02 -1.112155079841613770e+00 -4.321132600307464600e-02
4.160000000000000000e+02 6.041237258911132812e+01 -6.530589580535888672e+00 -3.762075424194335938e+00 7.761647552251815796e-02 -1.105337619781494141e+00 1.044827178120613098e-01
4.170000000000000000e+02 6.020624542236328125e+01 -6.536392688751220703e+00 -3.942630529403686523e+00 2.839943766593933105e-02 -1.174269318580627441e+00 2.807980217039585114e-02
4.180000000000000000e+02 6.036661529541015625e+01 -7.171370029449462891e+00 8.975523114204406738e-01 7.761780619621276855e-01 5.021191239356994629e-01 1.871773481369018555e+00
4.190000000000000000e+02 6.083777618408203125e+01 -7.110303401947021484e+00 2.588062286376953125e+00 1.625478982925415039e+00 1.264062404632568359e+00 3.132745265960693359e+00
4.200000000000000000e+02 6.018962478637695312e+01 -6.812336444854736328e+00 -1.654669880867004395e+00 1.805455833673477173e-01 -4.422372877597808838e-01 5.285818576812744141e-01
4.210000000000000000e+02 5.956652069091796875e+01 -7.190465927124023438e+00 -1.116617560386657715e+00 2.321169376373291016e-01 -2.653501629829406738e-01 7.439047694206237793e-01
4.220000000000000000e+02 5.965275192260742188e+01 -6.961012840270996094e+00 -1.895081162452697754e+00 1.089897751808166504e-01 -5.358273983001708984e-01 4.523868858814239502e-01
4.230000000000000000e+02 5.963752746582031250e+01 -5.494119644165039062e+00 -7.652858495712280273e-01 3.567817211151123047e-01 -1.225512325763702393e-01 -9.852305054664611816e-01
4.240000000000000000e+02 6.023125839233398438e+01 -5.273858547210693359e+00 1.387166619300842285e+00 1.399460196495056152e+00 8.359880447387695312e-01 -2.577504634857177734e+00
4.250000000000000000e+02 6.098421859741210938e+01 -5.494723796844482422e+00 3.702473878860473633e+00 3.077436923980712891e+00 2.033973217010498047e+00 -4.678035259246826172e+00
4.260000000000000000e+02 6.098853302001953125e+01 -5.242395877838134766e+00 3.658877372741699219e+00 4.733836650848388672e+00 2.517814159393310547e+00 -5.664790630340576172e+00
4.270000000000000000e+02 6.058731842041015625e+01 -7.210146427154541016e+00 1.855328559875488281e+00 1.328634977340698242e+00 9.551890492439270020e-01 2.620913028717041016e+00
4.280000000000000000e+02 6.050603866577148438e+01 -7.013266563415527344e+00 7.028091549873352051e-01 5.703588724136352539e-01 3.819504082202911377e-01 1.593989849090576172e+00
4.290000000000000000e+02 5.989567184448242188e+01 -7.023231983184814453e+00 -1.182755112648010254e+00 2.012270987033843994e-01 -2.944583892822265625e-01 7.221674323081970215e-01
4.300000000000000000e+02 5.956983184814453125e+01 -5.903793811798095703e+00 -2.393059968948364258e+00 9.240899980068206787e-02 -6.901952624320983887e-01 -3.080518245697021484e-01
4.310000000000000000e+02 5.971969985961914062e+01 -6.000186920166015625e+00 -2.877186536788940430e+00 2.423675544559955597e-02 -8.558849096298217773e-01 -1.578842848539352417e-01
4.320000000000000000e+02 6.006478500366210938e+01 -7.302627563476562500e+00 5.208330750465393066e-01 6.752883791923522949e-01 3.588364422321319580e-01 1.665229439735412598e+00
4.330000000000000000e+02 6.074808120727539062e+01 -5.718086719512939453e+00 1.644696950912475586e+00 1.047923088073730469e+00 8.077859878540039062e-01 -2.430014133453369141e+00
4.340000000000000000e+02 6.061512374877929688e+01 -5.463930130004882812e+00 2.273452281951904297e+00 1.678686022758483887e+00 1.185641527175903320e+00 -3.069349527359008789e+00
4.350000000000000000e+02 6.055764007568359375e+01 -5.663531780242919922e+00 1.086626052856445312e+00 9.557017087936401367e-01 6.126983165740966797e-01 -2.128322124481201172e+00
4.360000000000000000e+02 5.881417083740234375e+01 -6.238867759704589844e+00 -4.417695045471191406e+00 6.429282575845718384e-02 -1.306020736694335938e+00 9.516511112451553345e-02
4.370000000000000000e+02 5.825167846679687500e+01 -5.121772289276123047e+00 -1.461524605751037598e+00 2.255921065807342529e-01 -3.707797527313232422e-01 -5.879701375961303711e-01
4.380000000000000000e+02 5.838373947143554688e+01 -6.043903350830078125e+00 -4.064951896667480469e+00 -1.026046052575111389e-01 -1.250267028808593750e+00 4.920714721083641052e-02
4.390000000000000000e+02 5.841913604736328125e+01 -5.535123348236083984e+00 -2.404004096984863281e+00 3.765993565320968628e-02 -7.099032402038574219e-01 -3.609205186367034912e-01
4.400000000000000000e+02 5.709643173217773438e+01 -5.284058570861816406e+00 -2.650049686431884766e+00 5.283343791961669922e-02 -7.791648507118225098e-01 -1.835075020790100098e-01
4.410000000000000000e+02 5.897831344604492188e+01 -5.404407501220703125e+00 -1.297149300575256348e+00 3.209145069122314453e-01 -2.928704321384429932e-01 -7.247028946876525879e-01
4.420000000000000000e+02 5.896553039550781250e+01 -5.204029560089111328e+00 -9.363200068473815918e-01 2.894288301467895508e-01 -1.940673440694808960e-01 -8.663700819015502930e-01
4.430000000000000000e+02 5.643734359741210938e+01 -5.267519950866699219e+00 -2.887193441390991211e+00 1.892480067908763885e-02 -8.604805469512939453e-01 -1.003870591521263123e-01
4.440000000000000000e+02 5.720938491821289062e+01 -6.024047851562500000e+00 -4.144440650939941406e+00 -2.341824956238269806e-02 -1.250357627868652344e+00 4.263089224696159363e-02
4.450000000000000000e+02 5.803190612792968750e+01 -5.710956096649169922e+00 -3.142873048782348633e+00 3.603447601199150085e-02 -9.320515990257263184e-01 -1.623584479093551636e-01
4.460000000000000000e+02 5.647546768188476562e+01 -6.007516384124755859e+00 -4.113101005554199219e+00 8.631535805761814117e-03 -1.231340765953063965e+00 2.494090609252452850e-02
4.470000000000000000e+02 5.894042205810546875e+01 -5.803505420684814453e+00 -2.758680343627929688e+00 1.492893397808074951e-01 -7.828173041343688965e-01 -2.327017784118652344e-01
4.480000000000000000e+02 5.895534896850585938e+01 -5.597976684570312500e+00 -2.091056108474731445e+00 2.375697493553161621e-01 -5.560458898544311523e-01 -4.451724290847778320e-01
4.490000000000000000e+02 5.889049530029296875e+01 -4.996228218078613281e+00 -5.925265550613403320e-01 4.128959774971008301e-01 -5.388917028903961182e-02 -1.123746991157531738e+00
4.500000000000000000e+02 5.864240646362304688e+01 -5.844948291778564453e+00 -3.230569124221801758e+00 8.678400516510009766e-02 -9.431355595588684082e-01 -1.628793478012084961e-01
4.510000000000000000e+02 5.892509460449218750e+01 -6.012982368469238281e+00 -3.604595184326171875e+00 1.347139924764633179e-01 -1.040964365005493164e+00 -5.793533753603696823e-03
4.520000000000000000e+02 5.791543960571289062e+01 -6.098421573638916016e+00 -4.194022178649902344e+00 1.719644106924533844e-02 -1.253047704696655273e+00 4.548535123467445374e-02
4.530000000000000000e+02 5.771203994750976562e+01 -5.218849658966064453e+00 -2.178791999816894531e+00 1.202271506190299988e-01 -6.175694465637207031e-01 -3.251682817935943604e-01
4.540000000000000000e+02 5.872851943969726562e+01 -5.434669494628906250e+00 -1.843999862670898438e+00 2.214948534965515137e-01 -4.867514967918395996e-01 -5.593785643577575684e-01
4.550000000000000000e+02 5.866360855102539062e+01 -5.150063514709472656e+00 -1.137194156646728516e+00 3.429521024227142334e-01 -2.382726222276687622e-01 -8.601740598678588867e-01
4.560000000000000000e+02 5.423920822143554688e+01 -6.002995967864990234e+00 -4.025323867797851562e+00 -2.924713771790266037e-03 -1.208474636077880859e+00 3.402697667479515076e-02
4.570000000000000000e+02 5.348674774169921875e+01 -5.263861656188964844e+00 -3.244920253753662109e+00 5.415497813373804092e-03 -9.718514680862426758e-01 5.198130384087562561e-02
4.580000000000000000e+02 5.573849105834960938e+01 -5.259088039398193359e+00 -3.026563167572021484e+00 3.204131871461868286e-02 -8.983565568923950195e-01 -4.989401251077651978e-02
4.590000000000000000e+02 5.348892211914062500e+01 -6.003859043121337891e+00 -3.970588445663452148e+00 2.164139412343502045e-03 -1.190527319908142090e+00 3.347878530621528625e-02
4.600000000000000000e+02 5.423745346069335938e+01 -5.262997627258300781e+00 -3.208094358444213867e+00 1.677569746971130371e-02 -9.573956131935119629e-01 2.836792357265949249e-02
4.610000000000000000e+02 5.498925781250000000e+01 -6.000951766967773438e+00 -4.067614078521728516e+00 1.324749831110239029e-02 -1.216309905052185059e+00 2.358761616051197052e-02
4.620000000000000000e+02 5.573940658569335938e+01 -5.999087333679199219e+00 -4.094769954681396484e+00 -1.172681245952844620e-02 -1.231948971748352051e+00 2.172488346695899963e-02
4.630000000000000000e+02 5.498791885375976562e+01 -5.260952949523925781e+00 -3.142309904098510742e+00 2.635120972990989685e-02 -9.347875714302062988e-01 5.483481567353010178e-03
4.640000000000000000e+02 5.048752975463867188e+01 -6.016662120819091797e+00 -3.671427965164184570e+00 -3.645411634352058172e-04 -1.101537704467773438e+00 3.124316595494747162e-02
4.650000000000000000e+02 5.123381042480468750e+01 -5.273665904998779297e+00 -3.216480255126953125e+00 6.257086060941219330e-03 -9.630669951438903809e-01 8.947368711233139038e-02
4.660000000000000000e+02 5.123796844482421875e+01 -6.013654708862304688e+00 -3.750709056854248047e+00 -1.005532103590667248e-03 -1.125514388084411621e+00 3.269566223025321960e-02
4.670000000000000000e+02 5.198816299438476562e+01 -6.009502887725830078e+00 -3.828807115554809570e+00 2.659882185980677605e-03 -1.147844195365905762e+00 3.119069337844848633e-02
4.680000000000000000e+02 5.273845672607421875e+01 -6.005567073822021484e+00 -3.904912710189819336e+00 -3.490759292617440224e-03 -1.172520995140075684e+00 3.205996006727218628e-02
4.690000000000000000e+02 5.273571777343750000e+01 -5.265571594238281250e+00 -3.252130508422851562e+00 7.788940798491239548e-03 -9.733024835586547852e-01 6.832204014062881470e-02
4.700000000000000000e+02 5.048266220092773438e+01 -5.276676654815673828e+00 -3.172370672225952148e+00 -1.532322494313120842e-03 -9.521709084510803223e-01 9.691011905670166016e-02
4.710000000000000000e+02 5.198471069335937500e+01 -5.269510746002197266e+00 -3.243406057357788086e+00 4.479669965803623199e-03 -9.716779589653015137e-01 8.204360306262969971e-02
4.720000000000000000e+02 4.748569488525390625e+01 -6.043330192565917969e+00 -3.288341760635375977e+00 -1.310635008849203587e-03 -9.868957400321960449e-01 2.053568325936794281e-02
4.730000000000000000e+02 4.822861480712890625e+01 -5.296689510345458984e+00 -3.001495361328125000e+00 1.255956594832241535e-03 -9.000718593597412109e-01 1.062811389565467834e-01
4.740000000000000000e+02 4.823624420166015625e+01 -6.036650180816650391e+00 -3.382217168807983398e+00 -8.825386757962405682e-04 -1.014929890632629395e+00 2.304059267044067383e-02
4.750000000000000000e+02 4.898653793334960938e+01 -6.028829574584960938e+00 -3.479262828826904297e+00 1.037754351273179054e-03 -1.043467521667480469e+00 2.325451374053955078e-02
4.760000000000000000e+02 4.973693847656250000e+01 -6.021259307861328125e+00 -3.580196619033813477e+00 -3.975203260779380798e-03 -1.075251579284667969e+00 2.656239084899425507e-02
4.770000000000000000e+02 4.973123168945312500e+01 -5.281280040740966797e+00 -3.121365785598754883e+00 -5.260762409307062626e-04 -9.365675449371337891e-01 1.035849079489707947e-01
4.780000000000000000e+02 4.747710418701171875e+01 -5.303378582000732422e+00 -2.927021741867065430e+00 -3.238722681999206543e-03 -8.790780901908874512e-01 1.078905984759330750e-01
4.790000000000000000e+02 4.897986984252929688e+01 -5.288859844207763672e+00 -3.066494226455688477e+00 -7.211230695247650146e-04 -9.201646447181701660e-01 1.071206852793693542e-01
4.800000000000000000e+02 4.448383331298828125e+01 -6.086326122283935547e+00 -2.864416122436523438e+00 -1.102288952097296715e-03 -8.596554994583129883e-01 1.115462370216846466e-02
4.810000000000000000e+02 4.522269439697265625e+01 -5.335564136505126953e+00 -2.688373088836669922e+00 1.752210664562880993e-03 -8.059862852096557617e-01 1.103701964020729065e-01
4.820000000000000000e+02 4.523437500000000000e+01 -6.075472354888916016e+00 -2.967292308807373047e+00 -2.848307776730507612e-04 -8.902731537818908691e-01 1.284325774759054184e-02
4.830000000000000000e+02 4.598466110229492188e+01 -6.063519477844238281e+00 -3.073836565017700195e+00 7.680169073864817619e-04 -9.219205975532531738e-01 1.271506212651729584e-02
4.840000000000000000e+02 4.673505020141601562e+01 -6.051823139190673828e+00 -3.185259580612182617e+00 -3.215914824977517128e-03 -9.565426707267761230e-01 1.557694375514984131e-02
4.850000000000000000e+02 4.672545623779296875e+01 -5.311883449554443359e+00 -2.850189924240112305e+00 -1.307325437664985657e-03 -8.554491996765136719e-01 1.113162860274314880e-01
4.860000000000000000e+02 4.447110748291015625e+01 -5.346434116363525391e+00 -2.597758531570434570e+00 -1.751354662701487541e-03 -7.798529267311096191e-01 1.110362634062767029e-01
4.870000000000000000e+02 4.597402191162109375e+01 -5.323595523834228516e+00 -2.772758007049560547e+00 -1.217172539327293634e-04 -8.318638801574707031e-01 1.122635528445243835e-01
4.880000000000000000e+02 4.223370742797851562e+01 -6.133643150329589844e+00 -2.523886442184448242e+00 7.138748187571763992e-04 -7.569517493247985840e-01 6.212588399648666382e-03
4.890000000000000000e+02 4.148229217529296875e+01 -6.146579742431640625e+00 -2.414415359497070312e+00 -5.539238918572664261e-04 -7.244908213615417480e-01 6.183214019984006882e-03
4.900000000000000000e+02 4.221790695190429688e+01 -5.393811225891113281e+00 -2.321698665618896484e+00 3.122937167063355446e-03 -6.955727338790893555e-01 1.114395409822463989e-01
4.910000000000000000e+02 4.298408889770507812e+01 -6.118122577667236328e+00 -2.637135982513427734e+00 8.998787961900234222e-04 -7.908708453178405762e-01 4.795715212821960449e-03
4.920000000000000000e+02 4.373342132568359375e+01 -6.099862575531005859e+00 -2.754167556762695312e+00 -2.763693919405341148e-03 -8.270793557167053223e-01 6.954968906939029694e-03
4.930000000000000000e+02 4.371966552734375000e+01 -5.359988689422607422e+00 -2.506736993789672852e+00 4.717538467957638204e-05 -7.520068883895874023e-01 1.139661744236946106e-01
4.940000000000000000e+02 4.146547317504882812e+01 -5.406769752502441406e+00 -2.220813512802124023e+00 7.472985889762639999e-04 -6.660198569297790527e-01 1.126376837491989136e-01
4.950000000000000000e+02 4.296931076049804688e+01 -5.378270149230957031e+00 -2.417565107345581055e+00 1.613158266991376877e-03 -7.247856259346008301e-01 1.137814670801162720e-01
4.960000000000000000e+02 3.846181488037109375e+01 -5.483074665069580078e+00 -1.820982098579406738e+00 4.532305523753166199e-03 -5.449349284172058105e-01 1.166885420680046082e-01
4.970000000000000000e+02 3.848166656494140625e+01 -6.222808361053466797e+00 -1.950232863426208496e+00 1.245390973053872585e-03 -5.846962332725524902e-01 7.034549489617347717e-03
4.980000000000000000e+02 3.923187255859375000e+01 -6.203719139099121094e+00 -2.063955068588256836e+00 6.756834918633103371e-04 -6.189838647842407227e-01 5.388042889535427094e-03
4.990000000000000000e+02 3.998181152343750000e+01 -6.183495998382568359e+00 -2.179647922515869141e+00 1.261532073840498924e-03 -6.535158753395080566e-01 3.656561952084302902e-03
5.000000000000000000e+02 4.073185729980468750e+01 -6.163486957550048828e+00 -2.299398183822631836e+00 -1.376210479065775871e-03 -6.902322769165039062e-01 4.002116154879331589e-03
5.010000000000000000e+02 4.071416854858398438e+01 -5.423696517944335938e+00 -2.122555494308471680e+00 2.166245598345994949e-03 -6.361167430877685547e-01 1.152721717953681946e-01
5.020000000000000000e+02 3.921274185180664062e+01 -5.463966846466064453e+00 -1.923463582992553711e+00 5.515994038432836533e-03 -5.753842592239379883e-01 1.153692603111267090e-01
5.030000000000000000e+02 3.996340179443359375e+01 -5.443724155426025391e+00 -2.024703264236450195e+00 3.706356510519981384e-03 -6.062991023063659668e-01 1.156766191124916077e-01
5.040000000000000000e+02 3.698171997070312500e+01 -6.262598514556884766e+00 -1.717843174934387207e+00 1.765214721672236919e-03 -5.148233771324157715e-01 1.028339099138975143e-02
5.050000000000000000e+02 3.621255493164062500e+01 -5.544963359832763672e+00 -1.515518069267272949e+00 7.729339413344860077e-03 -4.523366093635559082e-01 1.225793212652206421e-01
5.060000000000000000e+02 3.548279571533203125e+01 -6.306656837463378906e+00 -1.487367987632751465e+00 2.848118543624877930e-03 -4.453559517860412598e-01 1.634176820516586304e-02
5.070000000000000000e+02 3.771127700805664062e+01 -5.501970291137695312e+00 -1.718731284141540527e+00 5.711310543119907379e-03 -5.139060020446777344e-01 1.189591363072395325e-01
5.080000000000000000e+02 3.773139953613281250e+01 -6.241697311401367188e+00 -1.834745883941650391e+00 5.702247144654393196e-04 -5.502526760101318359e-01 8.462063036859035492e-03
5.090000000000000000e+02 3.546322250366210938e+01 -5.566914081573486328e+00 -1.415088891983032227e+00 8.144193328917026520e-03 -4.220834076404571533e-01 1.243931800127029419e-01
5.100000000000000000e+02 3.696178054809570312e+01 -5.522866249084472656e+00 -1.617526769638061523e+00 6.129460409283638000e-03 -4.834191799163818359e-01 1.208712011575698853e-01
5.110000000000000000e+02 3.623231124877929688e+01 -6.284700870513916016e+00 -1.602612853050231934e+00 1.421803375706076622e-03 -4.803573191165924072e-01 1.285386737436056137e-02
5.120000000000000000e+02 3.323463058471679688e+01 -6.359344959259033203e+00 -1.159425497055053711e+00 1.408695010468363762e-03 -3.474050462245941162e-01 2.779028005897998810e-02
5.130000000000000000e+02 3.321954727172851562e+01 -5.619493961334228516e+00 -1.116885185241699219e+00 7.352862041443586349e-03 -3.328596949577331543e-01 1.315053403377532959e-01
5.140000000000000000e+02 3.248681640625000000e+01 -6.379900932312011719e+00 -1.048548698425292969e+00 3.554280148819088936e-03 -3.134983181953430176e-01 3.139125183224678040e-02
5.150000000000000000e+02 3.398349380493164062e+01 -6.341384410858154297e+00 -1.268164396286010742e+00 2.346030436456203461e-03 -3.797455132007598877e-01 2.524620108306407928e-02
5.160000000000000000e+02 3.471478271484375000e+01 -5.586100101470947266e+00 -1.314684748649597168e+00 8.394294418394565582e-03 -3.918871283531188965e-01 1.255387514829635620e-01
5.170000000000000000e+02 3.473338699340820312e+01 -6.325866699218750000e+00 -1.376169919967651367e+00 2.800098620355129242e-03 -4.120109379291534424e-01 2.110327593982219696e-02
5.180000000000000000e+02 3.247348785400390625e+01 -5.640007495880126953e+00 -1.023843646049499512e+00 8.102848194539546967e-03 -3.047222495079040527e-01 1.322248578071594238e-01
5.190000000000000000e+02 3.396664810180664062e+01 -5.601575374603271484e+00 -1.214611649513244629e+00 6.847332697361707687e-03 -3.623293042182922363e-01 1.282217353582382202e-01
5.200000000000000000e+02 3.099083137512207031e+01 -6.399948596954345703e+00 -8.520862460136413574e-01 9.135113796219229698e-04 -2.553518414497375488e-01 4.088550433516502380e-02
5.210000000000000000e+02 3.024179267883300781e+01 -5.667771339416503906e+00 -7.493997812271118164e-01 2.571828430518507957e-03 -2.240483909845352173e-01 1.346128433942794800e-01
5.220000000000000000e+02 2.949573898315429688e+01 -6.414954185485839844e+00 -6.545774936676025391e-01 2.463623648509383202e-03 -1.956341713666915894e-01 4.449895769357681274e-02
5.230000000000000000e+02 3.172830200195312500e+01 -5.652883052825927734e+00 -9.301097989082336426e-01 7.012297399342060089e-03 -2.769292593002319336e-01 1.313871592283248901e-01
5.240000000000000000e+02 3.173856925964355469e+01 -6.392818927764892578e+00 -9.464917778968811035e-01 3.294686786830425262e-03 -2.829591333866119385e-01 3.726793825626373291e-02
5.250000000000000000e+02 2.949855422973632812e+01 -5.674893379211425781e+00 -6.668322682380676270e-01 3.102134913206100464e-03 -1.991190314292907715e-01 1.328538209199905396e-01
5.260000000000000000e+02 3.098492622375488281e+01 -5.659971237182617188e+00 -8.373854160308837891e-01 3.799839643761515617e-03 -2.500756680965423584e-01 1.328641623258590698e-01
5.270000000000000000e+02 3.024333572387695312e+01 -6.407790660858154297e+00 -7.543888092041015625e-01 8.119590929709374905e-04 -2.260730564594268799e-01 4.190832376480102539e-02
5.280000000000000000e+02 2.800358009338378906e+01 -6.392907142639160156e+00 -4.920575320720672607e-01 -2.343251369893550873e-03 -1.483202427625656128e-01 5.091242119669914246e-02
5.290000000000000000e+02 2.728431129455566406e+01 -5.636834621429443359e+00 -4.345510900020599365e-01 -7.699057459831237793e-03 -1.326750367879867554e-01 1.246535703539848328e-01
5.300000000000000000e+02 2.651304817199707031e+01 -6.358762741088867188e+00 -3.338519036769866943e-01 -1.652810024097561836e-03 -1.006514132022857666e-01 4.724159464240074158e-02
5.310000000000000000e+02 2.875823974609375000e+01 -5.669638156890869141e+00 -5.856646895408630371e-01 1.373848062939941883e-04 -1.756581962108612061e-01 1.285527199506759644e-01
5.320000000000000000e+02 2.874904632568359375e+01 -6.409622669219970703e+00 -5.677329301834106445e-01 1.530174282379448414e-03 -1.698608249425888062e-01 4.934506490826606750e-02
5.330000000000000000e+02 2.654741096496582031e+01 -5.619358539581298828e+00 -3.683537542819976807e-01 -7.766262628138065338e-03 -1.128360107541084290e-01 1.182462200522422791e-01
5.340000000000000000e+02 2.802116203308105469e+01 -5.653115749359130859e+00 -5.067238211631774902e-01 -4.459924530237913132e-03 -1.533551216125488281e-01 1.268308311700820923e-01
5.350000000000000000e+02 2.725833702087402344e+01 -6.376431941986083984e+00 -4.130891561508178711e-01 -2.182512544095516205e-03 -1.245815083384513855e-01 4.874932020902633667e-02
5.360000000000000000e+02 2.428754043579101562e+01 -6.197861671447753906e+00 -1.585542559623718262e-01 -6.015002261847257614e-03 -4.937077686190605164e-02 4.021136090159416199e-02
5.370000000000000000e+02 2.435861396789550781e+01 -5.461198806762695312e+00 -1.959566622972488403e-01 -1.979735307395458221e-02 -6.472620368003845215e-02 9.588221460580825806e-02
5.380000000000000000e+02 2.354777717590332031e+01 -6.138960838317871094e+00 -1.069896146655082703e-01 -6.929853465408086777e-03 -3.417583927512168884e-02 3.312242403626441956e-02
5.390000000000000000e+02 2.502826499938964844e+01 -6.258197307586669922e+00 -2.136979699134826660e-01 -6.635903846472501755e-03 -6.610016524791717529e-02 4.577207192778587341e-02
5.400000000000000000e+02 2.581491851806640625e+01 -5.581003189086914062e+00 -3.056591451168060303e-01 -1.141434349119663239e-02 -9.512204676866531372e-02 1.097145155072212219e-01
5.410000000000000000e+02 2.576985549926757812e+01 -6.319781780242919922e+00 -2.681738734245300293e-01 -2.811892190948128700e-03 -8.129572868347167969e-02 4.778324067592620850e-02
5.420000000000000000e+02 2.363185691833496094e+01 -5.403356075286865234e+00 -1.493992060422897339e-01 -2.004519850015640259e-02 -5.083332210779190063e-02 8.444403856992721558e-02
5.430000000000000000e+02 2.508633232116699219e+01 -5.520476818084716797e+00 -2.471428811550140381e-01 -1.559276599436998367e-02 -7.882069051265716553e-02 1.038818284869194031e-01
5.440000000000000000e+02 2.146717453002929688e+01 -5.077126979827880859e+00 -4.932633787393569946e-02 -2.410414628684520721e-02 -2.202914468944072723e-02 4.144416376948356628e-02
5.450000000000000000e+02 2.134441947937011719e+01 -5.806876659393310547e+00 -1.181210018694400787e-02 -3.513333853334188461e-03 -4.597629886120557785e-03 1.356822438538074493e-02
5.460000000000000000e+02 2.061148262023925781e+01 -5.684748649597167969e+00 4.953164607286453247e-03 -7.071992848068475723e-03 -6.356484955176711082e-04 5.397232249379158020e-03
5.470000000000000000e+02 2.207760429382324219e+01 -5.928263664245605469e+00 -3.658392280340194702e-02 -9.167274460196495056e-03 -1.372535899281501770e-02 1.990942843258380890e-02
5.480000000000000000e+02 2.290797805786132812e+01 -5.314875125885009766e+00 -1.093241944909095764e-01 -2.344549633562564850e-02 -3.983090817928314209e-02 7.040347903966903687e-02
5.490000000000000000e+02 2.281096076965332031e+01 -6.048885822296142578e+00 -6.634004414081573486e-02 -5.930917337536811829e-03 -2.168128825724124908e-02 2.762384340167045593e-02
5.500000000000000000e+02 2.074710655212402344e+01 -4.957129478454589844e+00 -3.207460790872573853e-02 -1.712208427488803864e-02 -1.475900784134864807e-02 2.815592288970947266e-02
5.510000000000000000e+02 2.218749046325683594e+01 -5.196383476257324219e+00 -7.444236427545547485e-02 -2.421732619404792786e-02 -2.959790825843811035e-02 5.848651006817817688e-02
5.520000000000000000e+02 1.905580329895019531e+01 -4.613489627838134766e+00 -1.503003644756972790e-03 -7.062534859869629145e-05 -4.720886936411261559e-04 -4.488216713070869446e-03
5.530000000000000000e+02 1.978026580810546875e+01 -5.523462295532226562e+00 9.155341424047946930e-03 -1.441964530386030674e-03 2.314012963324785233e-03 -2.501948038116097450e-03
5.540000000000000000e+02 1.992511749267578125e+01 -4.797539234161376953e+00 -1.395139563828706741e-02 -2.008118480443954468e-02 -1.020977366715669632e-02 1.100917998701334000e-02
5.550000000000000000e+02 1.847771644592285156e+01 -4.667171001434326172e+00 2.445579448249191046e-04 1.352305896580219269e-02 4.130285233259201050e-03 -2.427424769848585129e-03
5.560000000000000000e+02 1.890536689758300781e+01 -5.338151454925537109e+00 3.231619484722614288e-03 1.149024115875363350e-03 1.314193126745522022e-03 -4.186620004475116730e-03
5.570000000000000000e+02 1.882146453857421875e+01 -6.111851215362548828e+00 -4.052610136568546295e-03 -2.100614365190267563e-03 -1.845967490226030350e-03 -5.146532319486141205e-03
5.580000000000000000e+02 1.800308799743652344e+01 -6.754832744598388672e+00 9.212635457515716553e-03 -3.363266959786415100e-02 -7.326010614633560181e-03 -7.833279669284820557e-03
5.590000000000000000e+02 1.831862449645996094e+01 -6.817986488342285156e+00 -2.916991338133811951e-02 -2.075065299868583679e-02 -1.497616991400718689e-02 -2.948843687772750854e-02
5.600000000000000000e+02 1.959215354919433594e+01 -7.028707504272460938e+00 -1.258287727832794189e-01 -1.557851559482514858e-03 -3.821598738431930542e-02 -5.207506567239761353e-02
5.610000000000000000e+02 1.890554809570312500e+01 -6.889476776123046875e+00 -7.247205823659896851e-02 -1.428167894482612610e-02 -2.602612227201461792e-02 -3.965931758284568787e-02
5.620000000000000000e+02 1.965883255004882812e+01 -6.285129547119140625e+00 -4.367468133568763733e-02 -1.057017478160560131e-03 -1.341950893402099609e-02 -1.523753628134727478e-02
5.630000000000000000e+02 1.828899765014648438e+01 -6.266255378723144531e+00 5.148119525983929634e-04 4.840537440031766891e-03 1.606604782864451408e-03 2.944842679426074028e-03
5.640000000000000000e+02 1.796524238586425781e+01 -6.500696659088134766e+00 8.530792780220508575e-03 2.333163283765316010e-03 3.259186865761876106e-03 1.015557348728179932e-02
5.650000000000000000e+02 1.885987472534179688e+01 -7.609486579895019531e+00 -1.301615536212921143e-01 -2.075473964214324951e-02 -4.527488723397254944e-02 -8.140759170055389404e-02
5.660000000000000000e+02 1.717151832580566406e+01 -9.293196678161621094e+00 -1.339191049337387085e-01 -1.588154882192611694e-01 -8.782037347555160522e-02 -1.535934954881668091e-01
5.670000000000000000e+02 2.169621658325195312e+01 -9.030115127563476562e+00 -4.282365441322326660e-01 1.510782074183225632e-02 -1.239386200904846191e-01 -2.179566770792007446e-01
5.680000000000000000e+02 2.719553565979003906e+01 -8.636689186096191406e+00 -9.031884670257568359e-01 -7.173640653491020203e-03 -2.731086313724517822e-01 -1.806158423423767090e-01
5.690000000000000000e+02 2.409624671936035156e+01 -8.464510917663574219e+00 -6.086477041244506836e-01 1.286880951374769211e-02 -1.787336617708206177e-01 -1.707961410284042358e-01
5.700000000000000000e+02 1.507478618621826172e+01 -1.280734157562255859e+01 -3.308877944946289062e-01 -4.686357975006103516e-01 -2.398570775985717773e-01 -3.850061595439910889e-01
5.710000000000000000e+02 1.239730644226074219e+01 -1.605310821533203125e+01 -5.010329484939575195e-01 -5.176779031753540039e-01 -3.056132495403289795e-01 -4.997712075710296631e-01
5.720000000000000000e+02 1.427337837219238281e+01 -1.591305637359619141e+01 -4.397553801536560059e-01 -4.136425852775573730e-01 -2.560193836688995361e-01 -4.138369262218475342e-01
5.730000000000000000e+02 1.266409111022949219e+01 -2.431856727600097656e+01 -7.252571173012256622e-03 -3.993043303489685059e-01 -1.219670698046684265e-01 -3.191588819026947021e-01
5.740000000000000000e+02 1.902026367187500000e+01 -2.925492095947265625e+01 2.053592801094055176e-01 -2.976455688476562500e-01 -2.768588624894618988e-02 -2.999995052814483643e-01
5.750000000000000000e+02 1.777649307250976562e+01 -4.055235671997070312e+01 3.435061872005462646e-01 -3.401070237159729004e-01 1.019751653075218201e-03 -5.355271697044372559e-02
5.760000000000000000e+02 2.264287376403808594e+01 -4.080655288696289062e+01 4.797146618366241455e-01 -2.179856896400451660e-01 7.851869612932205200e-02 -4.073829203844070435e-02
5.770000000000000000e+02 1.898569297790527344e+01 -3.673645019531250000e+01 3.565911352634429932e-01 -3.163599669933319092e-01 1.206935010850429535e-02 -1.452380269765853882e-01
5.780000000000000000e+02 2.571931648254394531e+01 -3.198984146118164062e+01 4.056645929813385010e-01 -1.156589463353157043e-01 8.700169622898101807e-02 -2.659780979156494141e-01
5.790000000000000000e+02 2.051576042175292969e+01 -2.274363327026367188e+01 -6.598141044378280640e-02 -2.058123350143432617e-01 -8.153812587261199951e-02 -3.838089704513549805e-01
5.800000000000000000e+02 2.448000526428222656e+01 -1.323668479919433594e+01 -5.519916415214538574e-01 -7.349534891545772552e-03 -1.678023487329483032e-01 -4.370332956314086914e-01
5.810000000000000000e+02 2.375907325744628906e+01 -1.464628314971923828e+01 -4.843745529651641846e-01 -2.651850879192352295e-02 -1.532679200172424316e-01 -4.539588689804077148e-01
5.820000000000000000e+02 1.332293891906738281e+01 -1.499844837188720703e+01 -4.633361995220184326e-01 -5.170559287071228027e-01 -2.941176593303680420e-01 -4.805591404438018799e-01
5.830000000000000000e+02 1.143453407287597656e+01 -1.714381980895996094e+01 -5.994510650634765625e-01 -4.996364712715148926e-01 -3.297262787818908691e-01 -4.949378967285156250e-01
5.840000000000000000e+02 1.025707435607910156e+01 -1.803071975708007812e+01 -7.314869761466979980e-01 -4.000778794288635254e-01 -3.394694626331329346e-01 -4.124259054660797119e-01
5.850000000000000000e+02 8.983134269714355469e+00 -1.835507965087890625e+01 -5.140370130538940430e-01 -1.389678269624710083e-01 -1.959014534950256348e-01 -2.188074886798858643e-01
5.860000000000000000e+02 7.189564228057861328e+00 -1.738218879699707031e+01 -8.557948470115661621e-02 3.939476236701011658e-02 -1.385541819036006927e-02 -1.944816112518310547e-02
5.870000000000000000e+02 6.355123043060302734e+00 -1.641314888000488281e+01 2.520001726225018501e-03 6.838329136371612549e-03 2.807499375194311142e-03 -1.043683290481567383e-02
5.880000000000000000e+02 7.058118343353271484e+00 -1.512166690826416016e+01 6.390380673110485077e-03 3.072691895067691803e-02 1.113518979400396347e-02 -9.746463038027286530e-03
5.890000000000000000e+02 8.909089088439941406e+00 -1.145347595214843750e+01 -7.944144890643656254e-04 -9.152460261248052120e-04 -5.128981429152190685e-04 6.667979760095477104e-04
5.900000000000000000e+02 9.676892280578613281e+00 -1.031156444549560547e+01 2.922192215919494629e-04 3.241284575778990984e-04 1.849042891990393400e-04 -6.359905819408595562e-04
5.910000000000000000e+02 1.213049697875976562e+01 -7.053661823272705078e+00 1.226808944920776412e-05 -1.244124141521751881e-04 -3.364330041222274303e-05 1.971316851268056780e-05
5.920000000000000000e+02 1.173292160034179688e+01 -2.749331712722778320e+00 1.038122809404740110e-05 1.769588561728596687e-04 5.620202500722371042e-05 6.050968295312486589e-05
5.930000000000000000e+02 1.225023651123046875e+01 -4.639322757720947266e+00 -5.023855192121118307e-05 -6.855306855868548155e-05 -3.563748396118171513e-05 -8.075826190179213881e-05
5.940000000000000000e+02 1.105286502838134766e+01 -1.911208271980285645e+00 -5.820574187964666635e-06 1.659187837503850460e-04 4.802946205018088222e-05 9.690064325695857406e-05
5.950000000000000000e+02 4.276374340057373047e+00 -1.928222775459289551e+00 -5.779654020443558693e-05 -3.701043533510528505e-05 -2.844209302566014230e-05 -1.675825333222746849e-04
5.960000000000000000e+02 1.571355938911437988e+00 -1.475152492523193359e+01 2.897655125707387924e-03 5.092495586723089218e-03 2.397045260295271873e-03 7.960276678204536438e-03
5.970000000000000000e+02 4.425393104553222656e+00 -1.866181755065917969e+01 -9.237930178642272949e-02 -3.389059379696846008e-02 -3.788096830248832703e-02 -4.299540072679519653e-02
5.980000000000000000e+02 6.510809063911437988e-01 -2.477149009704589844e+01 -3.983351867645978928e-03 -1.543821990489959717e-01 -4.750966653227806091e-02 -3.422668203711509705e-02
5.990000000000000000e+02 7.749650478363037109e-01 -3.187749481201171875e+01 3.579885931685566902e-03 -5.208044052124023438e-01 -1.551673561334609985e-01 -3.307820856571197510e-02
6.000000000000000000e+02 2.847892045974731445e+00 -3.787210464477539062e+01 2.031710743904113770e-02 -6.193487644195556641e-01 -1.797094941139221191e-01 -3.663595765829086304e-02
6.010000000000000000e+02 8.116821646690368652e-01 -3.727435684204101562e+01 1.822111662477254868e-03 -6.760681867599487305e-01 -2.022738307714462280e-01 -5.578208249062299728e-03
6.020000000000000000e+02 8.902504920959472656e+00 -3.799515914916992188e+01 1.277474015951156616e-01 -4.772277772426605225e-01 -1.048441156744956970e-01 -1.001809835433959961e-01
6.030000000000000000e+02 8.007742881774902344e+00 -3.292507553100585938e+01 8.736598491668701172e-02 -4.428288936614990234e-01 -1.066388711333274841e-01 -2.014375329017639160e-01
6.040000000000000000e+02 1.284275913238525391e+01 -2.261709213256835938e+01 -9.347963333129882812e-02 -3.980602025985717773e-01 -1.474619507789611816e-01 -3.190914094448089600e-01
6.050000000000000000e+02 1.141035938262939453e+01 -2.256497955322265625e+01 -7.815482467412948608e-02 -4.031697809696197510e-01 -1.443973779678344727e-01 -3.170668780803680420e-01
6.060000000000000000e+02 6.268616318702697754e-01 -2.334918975830078125e+01 -1.592677203007042408e-03 -8.552559465169906616e-02 -2.613548189401626587e-02 -2.780209854245185852e-02
6.070000000000000000e+02 1.254636955261230469e+01 -1.999973893165588379e+00 9.359125397168099880e-05 6.737142393831163645e-05 4.828880264540202916e-05 5.006636638427153230e-05
6.080000000000000000e+02 2.746901512145996094e+01 -4.078388214111328125e+01 6.052252650260925293e-01 -3.941737487912178040e-02 1.697423607110977173e-01 -4.126602038741111755e-02
6.090000000000000000e+02 2.724568557739257812e+01 -3.742543029785156250e+01 5.794539451599121094e-01 -4.181672260165214539e-02 1.612911522388458252e-01 -1.261624991893768311e-01
6.100000000000000000e+02 2.851443862915039062e+01 -3.071053695678710938e+01 4.236104488372802734e-01 -2.687194570899009705e-02 1.190215572714805603e-01 -2.784118056297302246e-01
6.110000000000000000e+02 2.900388145446777344e+01 -2.270943832397460938e+01 5.501523241400718689e-02 -4.247000813484191895e-02 3.763567423447966576e-03 -4.531922340393066406e-01
6.120000000000000000e+02 3.053840446472167969e+01 -1.403778076171875000e+01 -6.515273451805114746e-01 -2.566618286073207855e-02 -2.031580507755279541e-01 -4.842510819435119629e-01
6.130000000000000000e+02 3.026030921936035156e+01 -8.666865348815917969e+00 -1.184189200401306152e+00 -1.630367152392864227e-02 -3.601478636264801025e-01 -1.942107230424880981e-01
6.140000000000000000e+02 2.874673843383789062e+01 -9.411535263061523438e+00 -9.840406179428100586e-01 -1.584602706134319305e-02 -2.999660074710845947e-01 -2.517571151256561279e-01
6.150000000000000000e+02 3.757318878173828125e+01 -4.036577987670898438e+01 7.804095149040222168e-01 6.919696331024169922e-01 4.417137503623962402e-01 -1.608150452375411987e-02
6.160000000000000000e+02 3.659645843505859375e+01 -2.243950462341308594e+01 1.844294667243957520e-01 1.943173110485076904e-01 1.136240288615226746e-01 -3.467332720756530762e-01
6.170000000000000000e+02 3.884576034545898438e+01 -1.362389659881591797e+01 -8.527507781982421875e-01 2.002143487334251404e-02 -2.498188018798828125e-01 -4.200762808322906494e-01
6.180000000000000000e+02 3.855401229858398438e+01 -8.477055549621582031e+00 -1.886512041091918945e+00 -9.252143092453479767e-03 -5.687292814254760742e-01 -2.283119112253189087e-01
6.190000000000000000e+02 3.709395980834960938e+01 -9.252560615539550781e+00 -1.622882962226867676e+00 -1.434286031872034073e-02 -4.911677539348602295e-01 -2.785598337650299072e-01
6.200000000000000000e+02 3.555325698852539062e+01 -8.561869621276855469e+00 -1.639790534973144531e+00 -1.557147316634654999e-02 -4.966085851192474365e-01 -2.212001532316207886e-01
6.210000000000000000e+02 4.258544158935546875e+01 -4.066294097900390625e+01 7.884781360626220703e-01 1.325571656227111816e+00 6.342149376869201660e-01 1.146059855818748474e-02
6.220000000000000000e+02 3.848414993286132812e+01 -3.636304092407226562e+01 7.638754248619079590e-01 7.403081655502319336e-01 4.512550830841064453e-01 -3.727846220135688782e-02
6.230000000000000000e+02 4.393767929077148438e+01 -3.062152862548828125e+01 6.827024817466735840e-01 1.295999050140380859e+00 5.936104655265808105e-01 1.135116666555404663e-01
6.240000000000000000e+02 4.373025894165039062e+01 -2.315825653076171875e+01 4.168969392776489258e-01 8.006953001022338867e-01 3.652776777744293213e-01 6.399432569742202759e-02
6.250000000000000000e+02 4.380064010620117188e+01 -1.404176712036132812e+01 -7.151347994804382324e-01 1.450181603431701660e-01 -1.710349917411804199e-01 -2.545596063137054443e-01
6.260000000000000000e+02 4.603104400634765625e+01 -8.313219070434570312e+00 -2.436851263046264648e+00 4.568547476083040237e-03 -7.296848297119140625e-01 -2.063423395156860352e-01
6.270000000000000000e+02 4.304184722900390625e+01 -8.367053031921386719e+00 -2.236043453216552734e+00 -4.565315321087837219e-04 -6.709499359130859375e-01 -2.217095941305160522e-01
6.280000000000000000e+02 4.308180999755859375e+01 -9.091810226440429688e+00 -2.017115592956542969e+00 2.789014950394630432e-03 -6.042979359626770020e-01 -2.639929950237274170e-01
6.290000000000000000e+02 4.154700851440429688e+01 -8.399294853210449219e+00 -2.123360157012939453e+00 -3.105900017544627190e-03 -6.379398107528686523e-01 -2.260261327028274536e-01
6.300000000000000000e+02 4.748165512084960938e+01 -4.067045974731445312e+01 7.155230045318603516e-01 2.121532917022705078e+00 8.511167764663696289e-01 4.056603834033012390e-02
6.310000000000000000e+02 4.731002807617187500e+01 -3.711372375488281250e+01 7.037898898124694824e-01 2.067834377288818359e+00 8.314872384071350098e-01 1.107912734150886536e-01
6.320000000000000000e+02 4.689962005615234375e+01 -3.087059402465820312e+01 6.412845253944396973e-01 1.820769548416137695e+00 7.386162281036376953e-01 2.716239392757415771e-01
6.330000000000000000e+02 5.060214614868164062e+01 -2.179867553710937500e+01 4.268248379230499268e-01 1.875887632369995117e+00 6.908137798309326172e-01 7.220308184623718262e-01
6.340000000000000000e+02 5.147185516357421875e+01 -1.517745494842529297e+01 3.390846028923988342e-02 1.010360717773437500e+00 3.132807612419128418e-01 6.886762380599975586e-01
6.350000000000000000e+02 5.201008987426757812e+01 -8.246915817260742188e+00 -2.583035469055175781e+00 3.058915212750434875e-02 -7.657338976860046387e-01 -9.795774519443511963e-02
6.360000000000000000e+02 5.128989410400390625e+01 -8.958612442016601562e+00 -2.150755405426025391e+00 5.478323251008987427e-02 -6.287916302680969238e-01 -9.008534997701644897e-02
6.370000000000000000e+02 4.976755142211914062e+01 -8.267992973327636719e+00 -2.596470832824707031e+00 1.599616184830665588e-02 -7.741423845291137695e-01 -1.618286222219467163e-01
6.380000000000000000e+02 5.765665435791015625e+01 -4.037444305419921875e+01 3.382114768028259277e-01 4.294172286987304688e+00 1.389715194702148438e+00 9.879087656736373901e-02
6.390000000000000000e+02 5.332754516601562500e+01 -3.168035507202148438e+01 4.395067393779754639e-01 3.195014238357543945e+00 1.090356349945068359e+00 4.775961041450500488e-01
6.400000000000000000e+02 5.274444580078125000e+01 -2.249888610839843750e+01 3.598718643188476562e-01 2.589620113372802734e+00 8.848476409912109375e-01 9.063433408737182617e-01
6.410000000000000000e+02 5.434317016601562500e+01 -1.542342948913574219e+01 2.384350746870040894e-01 2.013739824295043945e+00 6.756524443626403809e-01 1.391036391258239746e+00
6.420000000000000000e+02 5.960379791259765625e+01 -8.047291755676269531e+00 1.003670811653137207e+00 1.276725053787231445e+00 6.841188073158264160e-01 2.343207597732543945e+00
6.430000000000000000e+02 5.425701904296875000e+01 -8.875098228454589844e+00 -1.796332597732543945e+00 1.397877186536788940e-01 -4.969634413719177246e-01 1.691318005323410034e-01
6.440000000000000000e+02 5.498925399780273438e+01 -8.206501007080078125e+00 -2.253347635269165039e+00 8.923206478357315063e-02 -6.492346525192260742e-01 1.021382659673690796e-01
6.450000000000000000e+02 6.276574325561523438e+01 -4.063913726806640625e+01 1.367546468973159790e-01 5.571266651153564453e+00 1.712406396865844727e+00 4.865504428744316101e-02
6.460000000000000000e+02 5.865803909301757812e+01 -3.643449783325195312e+01 2.593623995780944824e-01 4.556234836578369141e+00 1.444679141044616699e+00 2.490645647048950195e-01
6.470000000000000000e+02 6.308880233764648438e+01 -3.377024459838867188e+01 -3.392505692318081856e-03 5.684311866760253906e+00 1.704275727272033691e+00 2.872480750083923340e-01
6.480000000000000000e+02 6.340387344360351562e+01 -2.620413017272949219e+01 -3.824112415313720703e-01 6.281369686126708984e+00 1.769687533378601074e+00 5.699943304061889648e-01
6.490000000000000000e+02 6.664348602294921875e+01 -1.993462181091308594e+01 -9.006769061088562012e-01 8.077330589294433594e+00 2.152996063232421875e+00 1.711707115173339844e-01
6.500000000000000000e+02 6.769236755371093750e+01 -4.093489837646484375e+01 3.616795316338539124e-02 6.592022418975830078e+00 1.988457083702087402e+00 2.235967107117176056e-02
6.510000000000000000e+02 6.877652740478515625e+01 -3.813447952270507812e+01 7.734931074082851410e-03 6.823864936828613281e+00 2.049479961395263672e+00 4.557883739471435547e-02
6.520000000000000000e+02 7.275366210937500000e+01 -3.067292213439941406e+01 -1.417335569858551025e-01 7.760998725891113281e+00 2.285779476165771484e+00 -7.736567407846450806e-02
6.530000000000000000e+02 7.096548461914062500e+01 -2.285787200927734375e+01 -5.163208842277526855e-01 7.922256469726562500e+00 2.221780538558959961e+00 -3.635722994804382324e-01
6.540000000000000000e+02 7.296571350097656250e+01 -1.538093852996826172e+01 -1.975436359643936157e-01 8.130626678466796875e+00 2.379924774169921875e+00 -1.129252672195434570e+00
6.550000000000000000e+02 7.286614227294921875e+01 -1.307180118560791016e+01 1.503540575504302979e-01 8.085500717163085938e+00 2.470756292343139648e+00 -1.218935847282409668e+00
6.560000000000000000e+02 7.394616699218750000e+01 -5.540304183959960938e+00 9.410113692283630371e-01 7.224825859069824219e+00 2.449751138687133789e+00 2.344635128974914551e-01
6.570000000000000000e+02 7.361168670654296875e+01 3.079281806945800781e+00 -2.163455039262771606e-01 7.950757980346679688e+00 2.320323705673217773e+00 1.055016756057739258e+00
6.580000000000000000e+02 7.277946472167968750e+01 1.115587520599365234e+01 -3.722877502441406250e-01 7.887526512145996094e+00 2.254571676254272461e+00 3.380540013313293457e-01
6.590000000000000000e+02 7.272872924804687500e+01 1.954660034179687500e+01 -1.144490763545036316e-01 7.582525730133056641e+00 2.240422964096069336e+00 -5.829090997576713562e-02
6.600000000000000000e+02 7.077219390869140625e+01 2.650394821166992188e+01 -5.922055337578058243e-03 7.056398868560791016e+00 2.115143060684204102e+00 -1.772988736629486084e-01
6.610000000000000000e+02 6.901197052001953125e+01 2.972168731689453125e+01 4.118960350751876831e-02 6.671895027160644531e+00 2.013925552368164062e+00 -1.995115727186203003e-01
6.620000000000000000e+02 7.109698486328125000e+01 3.778064727783203125e+01 6.063070520758628845e-02 7.020804882049560547e+00 2.124430656433105469e+00 -6.400082260370254517e-02
6.630000000000000000e+02 6.720817565917968750e+01 3.784723281860351562e+01 1.312788575887680054e-01 6.265714168548583984e+00 1.919097900390625000e+00 -6.244605779647827148e-02
6.640000000000000000e+02 5.741278457641601562e+01 4.066170120239257812e+01 3.404299914836883545e-01 4.465403556823730469e+00 1.441750049591064453e+00 -4.763063043355941772e-02
6.650000000000000000e+02 6.245058059692382812e+01 4.067043685913085938e+01 2.311152815818786621e-01 5.342683315277099609e+00 1.672139525413513184e+00 -4.279384389519691467e-02
6.660000000000000000e+02 6.168311309814453125e+01 3.308616638183593750e+01 1.940608322620391846e-01 5.268085479736328125e+00 1.638643980026245117e+00 -1.990464925765991211e-01
6.670000000000000000e+02 6.360331726074218750e+01 2.137479019165039062e+01 -8.647190779447555542e-02 5.847495079040527344e+00 1.728307008743286133e+00 -4.200588166713714600e-01
6.680000000000000000e+02 6.855065917968750000e+01 1.885352134704589844e+01 -2.213235348463058472e-01 6.967538833618164062e+00 2.023864507675170898e+00 -2.120479494333267212e-01
6.690000000000000000e+02 6.563342285156250000e+01 1.019776153564453125e+01 -7.453644871711730957e-01 7.240085124969482422e+00 1.948416233062744141e+00 -4.626795351505279541e-01
6.700000000000000000e+02 6.793502807617187500e+01 3.106074810028076172e+00 -8.631810545921325684e-01 9.238540649414062500e+00 2.512608051300048828e+00 4.541974961757659912e-01
6.710000000000000000e+02 6.325761795043945312e+01 -5.093861579895019531e+00 3.905358314514160156e+00 1.987942123413085938e+01 7.135433673858642578e+00 1.694679617881774902e+00
6.720000000000000000e+02 7.366490936279296875e+01 -9.334602355957031250e+00 7.845717668533325195e-01 7.463747978210449219e+00 2.474495887756347656e+00 -7.773671746253967285e-01
6.730000000000000000e+02 7.810237121582031250e+01 -4.167783355712890625e+01 8.906061202287673950e-02 8.718903541564941406e+00 2.642389297485351562e+00 2.502978593111038208e-02
6.740000000000000000e+02 7.714268493652343750e+01 -3.804446029663085938e+01 -4.645261168479919434e-02 8.628368377685546875e+00 2.574574708938598633e+00 -2.270276099443435669e-02
6.750000000000000000e+02 7.772571563720703125e+01 -3.049362182617187500e+01 -1.810062304139137268e-02 8.568703651428222656e+00 2.565181016921997070e+00 -7.285655289888381958e-02
6.760000000000000000e+02 7.820763397216796875e+01 -2.353927230834960938e+01 -3.592903539538383484e-02 8.233035087585449219e+00 2.459131956100463867e+00 -2.291366159915924072e-01
6.770000000000000000e+02 7.828168487548828125e+01 -1.662849807739257812e+01 -2.557894028723239899e-02 7.079950809478759766e+00 2.116311550140380859e+00 -4.729555547237396240e-01
6.780000000000000000e+02 7.826810455322265625e+01 -9.683373451232910156e+00 7.808396220207214355e-02 5.568517208099365234e+00 1.693980336189270020e+00 -3.248368799686431885e-01
6.790000000000000000e+02 7.822929382324218750e+01 -2.701156139373779297e+00 7.447660714387893677e-02 5.644083499908447266e+00 1.715568065643310547e+00 3.636636734008789062e-01
6.800000000000000000e+02 7.818250274658203125e+01 4.266591548919677734e+00 -3.380094096064567566e-02 7.154681205749511719e+00 2.136264085769653320e+00 4.759420752525329590e-01
6.810000000000000000e+02 7.807453155517578125e+01 1.122065353393554688e+01 -4.080976545810699463e-02 8.178915977478027344e+00 2.441431999206542969e+00 2.090931385755538940e-01
6.820000000000000000e+02 7.806350708007812500e+01 1.952374076843261719e+01 -1.353898830711841583e-02 8.464497566223144531e+00 2.535287618637084961e+00 7.391232531517744064e-03
6.830000000000000000e+02 7.673690795898437500e+01 2.223304367065429688e+01 -1.674183271825313568e-02 8.202806472778320312e+00 2.455819368362426758e+00 -3.152804076671600342e-02
6.840000000000000000e+02 7.924743652343750000e+01 3.207269668579101562e+01 -6.147548090666532516e-03 8.474150657653808594e+00 2.540400981903076172e+00 -1.645203493535518646e-02
6.850000000000000000e+02 7.604317474365234375e+01 3.833444595336914062e+01 -2.747417241334915161e-02 7.843526363372802734e+00 2.344815731048583984e+00 -3.156187012791633606e-02
6.860000000000000000e+02 7.899721527099609375e+01 3.743271636962890625e+01 3.649730235338211060e-03 8.329710960388183594e+00 2.500008106231689453e+00 -1.892657577991485596e-02
6.870000000000000000e+02 5.645708465576171875e+01 3.709241485595703125e+01 3.434123694896697998e-01 4.287330627441406250e+00 1.389222860336303711e+00 -1.226043850183486938e-01
6.880000000000000000e+02 5.842270660400390625e+01 2.815685462951660156e+01 2.188279330730438232e-01 4.608792304992675781e+00 1.448286056518554688e+00 -3.208709657192230225e-01
6.890000000000000000e+02 5.726223754882812500e+01 2.536759567260742188e+01 2.074106186628341675e-01 4.385932922363281250e+00 1.378003001213073730e+00 -4.208769798278808594e-01
6.900000000000000000e+02 5.983909225463867188e+01 1.346899032592773438e+01 -2.544974684715270996e-01 5.237858772277832031e+00 1.495008349418640137e+00 -9.318027496337890625e-01
6.910000000000000000e+02 5.669970321655273438e+01 6.739693641662597656e+00 -5.310929939150810242e-02 3.945513486862182617e+00 1.167721271514892578e+00 -1.589154362678527832e+00
6.920000000000000000e+02 5.502361297607421875e+01 -4.416817426681518555e-01 2.175369765609502792e-03 1.380182027816772461e+00 4.147072136402130127e-01 -1.340392470359802246e+00
6.930000000000000000e+02 5.425165939331054688e+01 -4.618720531463623047e+00 -2.549338817596435547e+00 4.598363861441612244e-02 -7.510065436363220215e-01 -3.340991958975791931e-02
6.940000000000000000e+02 5.640685653686523438e+01 -4.641419410705566406e+00 -1.917939424514770508e+00 9.756353497505187988e-02 -5.461127758026123047e-01 -3.284853994846343994e-01
6.950000000000000000e+02 5.351076889038085938e+01 -4.599680900573730469e+00 -2.627518415451049805e+00 3.551253676414489746e-02 -7.776017189025878906e-01 1.322704181075096130e-02
6.960000000000000000e+02 5.250023651123046875e+01 4.095246124267578125e+01 4.562779963016510010e-01 3.505992650985717773e+00 1.188681244850158691e+00 -2.651306800544261932e-02
6.970000000000000000e+02 4.774876403808593750e+01 4.094761657714843750e+01 5.511693358421325684e-01 2.669145345687866211e+00 9.660944342613220215e-01 -2.955037727952003479e-02
6.980000000000000000e+02 5.041447830200195312e+01 3.253500366210937500e+01 4.478400945663452148e-01 3.101874589920043945e+00 1.064914464950561523e+00 -1.983419507741928101e-01
6.990000000000000000e+02 5.128282165527343750e+01 2.199426841735839844e+01 3.343804478645324707e-01 3.026409149169921875e+00 1.008236885070800781e+00 -4.617370069026947021e-01
7.000000000000000000e+02 4.961490249633789062e+01 1.547591114044189453e+01 3.164986073970794678e-01 2.396870613098144531e+00 8.140107989311218262e-01 -5.229336619377136230e-01
7.010000000000000000e+02 4.944416427612304688e+01 7.335489749908447266e+00 2.177123874425888062e-01 1.513820648193359375e+00 5.194599032402038574e-01 -5.635007023811340332e-01
7.020000000000000000e+02 5.014577865600585938e+01 3.509462177753448486e-01 -5.570487380027770996e-01 4.671318531036376953e-01 -2.697505988180637360e-02 -2.310161441564559937e-01
7.030000000000000000e+02 4.826227188110351562e+01 -4.579789161682128906e+00 -2.639285326004028320e+00 3.140855114907026291e-03 -7.908433675765991211e-01 1.627977192401885986e-01
7.040000000000000000e+02 5.051620101928710938e+01 -4.569277286529541016e+00 -2.718637943267822266e+00 1.320544350892305374e-02 -8.116297721862792969e-01 1.260304003953933716e-01
7.050000000000000000e+02 5.126594924926757812e+01 -4.571569442749023438e+00 -2.722554206848144531e+00 1.544768642634153366e-02 -8.121319413185119629e-01 1.076035574078559875e-01
7.060000000000000000e+02 3.875266647338867188e+01 4.007730102539062500e+01 6.362111568450927734e-01 1.287559866905212402e+00 5.771312713623046875e-01 -5.326934158802032471e-03
7.070000000000000000e+02 4.311208724975585938e+01 4.065565109252929688e+01 6.156334280967712402e-01 1.941287755966186523e+00 7.670763731002807617e-01 -1.476134266704320908e-02
7.080000000000000000e+02 4.513710021972656250e+01 2.993156433105468750e+01 5.018988847732543945e-01 2.150959014892578125e+00 7.958573698997497559e-01 -1.558644771575927734e-01
7.090000000000000000e+02 4.397221374511718750e+01 2.436994743347167969e+01 4.588410258293151855e-01 1.862877964973449707e+00 6.965156793594360352e-01 -1.641889065504074097e-01
7.100000000000000000e+02 4.064238739013671875e+01 1.479604148864746094e+01 2.345370650291442871e-01 9.392693042755126953e-01 3.521419167518615723e-01 1.123929545283317566e-01
7.110000000000000000e+02 4.320531082153320312e+01 -4.508189260959625244e-01 -1.107427358627319336e+00 9.206383675336837769e-02 -3.046090304851531982e-01 4.086461365222930908e-01
7.120000000000000000e+02 3.999094390869140625e+01 -4.721413135528564453e+00 -1.876165509223937988e+00 7.361564785242080688e-03 -5.606411695480346680e-01 2.085084617137908936e-01
7.130000000000000000e+02 4.374986267089843750e+01 -4.639350414276123047e+00 -2.280721902847290039e+00 3.016336588189005852e-03 -6.833116412162780762e-01 1.961034089326858521e-01
7.140000000000000000e+02 4.525447463989257812e+01 -4.615486145019531250e+00 -2.421283960342407227e+00 2.602359978482127190e-03 -7.256044745445251465e-01 1.882956922054290771e-01
7.150000000000000000e+02 4.112352752685546875e+01 3.585531234741210938e+01 5.968979001045227051e-01 1.636126995086669922e+00 6.699074506759643555e-01 -5.187375470995903015e-02
7.160000000000000000e+02 3.544506072998046875e+01 3.127932167053222656e+01 5.543297529220581055e-01 8.348485827445983887e-01 4.167535006999969482e-01 1.055647525936365128e-02
7.170000000000000000e+02 3.945245361328125000e+01 2.309923553466796875e+01 4.052223861217498779e-01 1.141009092330932617e+00 4.638694524765014648e-01 -8.922922424972057343e-03
7.180000000000000000e+02 3.730809402465820312e+01 1.691458320617675781e+01 1.934263706207275391e-01 6.966074705123901367e-01 2.670101523399353027e-01 2.051398158073425293e-01
7.190000000000000000e+02 3.442376708984375000e+01 7.318686485290527344e+00 -2.878442108631134033e-01 1.504548639059066772e-01 -4.121680185198783875e-02 6.453894376754760742e-01
7.200000000000000000e+02 3.727740859985351562e+01 -5.526056289672851562e-01 -9.725897312164306641e-01 4.500376433134078979e-02 -2.782757878303527832e-01 5.551041364669799805e-01
7.210000000000000000e+02 3.399916839599609375e+01 -4.885875225067138672e+00 -1.167845368385314941e+00 1.129692513495683670e-02 -3.469645082950592041e-01 2.192552536725997925e-01
7.220000000000000000e+02 3.474487304687500000e+01 -4.866608142852783203e+00 -1.256108045578002930e+00 1.144753210246562958e-02 -3.733981549739837646e-01 2.185477912425994873e-01
7.230000000000000000e+02 3.698965072631835938e+01 -4.802087783813476562e+00 -1.523620963096618652e+00 1.085359044373035431e-02 -4.538302123546600342e-01 2.153645753860473633e-01
7.240000000000000000e+02 3.161976051330566406e+01 4.024897003173828125e+01 6.487917900085449219e-01 5.027021765708923340e-01 3.454481959342956543e-01 1.147465035319328308e-02
7.250000000000000000e+02 2.652932167053222656e+01 3.729687118530273438e+01 6.069705486297607422e-01 -1.977676898241043091e-02 1.761581301689147949e-01 5.192025005817413330e-02
7.260000000000000000e+02 3.064793395996093750e+01 3.141192817687988281e+01 5.241954922676086426e-01 2.980620861053466797e-01 2.466772794723510742e-01 5.229078978300094604e-02
7.270000000000000000e+02 2.843227577209472656e+01 2.486023521423339844e+01 2.698965072631835938e-01 1.893152669072151184e-02 8.664841204881668091e-02 1.571091860532760620e-01
7.280000000000000000e+02 2.743968772888183594e+01 1.911056518554687500e+01 -5.823778733611106873e-02 -1.319888085126876831e-01 -5.706797540187835693e-02 3.295751512050628662e-01
7.290000000000000000e+02 2.793911933898925781e+01 1.201034641265869141e+01 -3.398863375186920166e-01 -1.403942704200744629e-01 -1.440841853618621826e-01 6.181752681732177734e-01
7.300000000000000000e+02 2.537624359130859375e+01 1.840330362319946289e+00 -3.341790735721588135e-01 -2.573709785938262939e-01 -1.774650216102600098e-01 5.993565917015075684e-01
7.310000000000000000e+02 2.735922241210937500e+01 -4.921174049377441406e+00 -4.562526047229766846e-01 -1.400223746895790100e-02 -1.410764455795288086e-01 1.916875094175338745e-01
7.320000000000000000e+02 3.029026603698730469e+01 -4.953009128570556641e+00 -7.480127811431884766e-01 2.589498413726687431e-03 -2.236269861459732056e-01 2.137786597013473511e-01
7.330000000000000000e+02 2.892966651916503906e+01 -4.264028072357177734e+00 -6.046527624130249023e-01 -1.110558491200208664e-02 -1.847275048494338989e-01 2.723878622055053711e-01
7.340000000000000000e+02 3.325387573242187500e+01 -4.904601097106933594e+00 -1.080824017524719238e+00 1.042079366743564606e-02 -3.211209774017333984e-01 2.193175852298736572e-01
7.350000000000000000e+02 1.767465019226074219e+01 4.063183975219726562e+01 4.543832838535308838e-01 -5.522987842559814453e-01 -2.937464974820613861e-02 4.832160845398902893e-02
7.360000000000000000e+02 2.251301765441894531e+01 4.083214187622070312e+01 5.610238909721374512e-01 -3.038857579231262207e-01 7.714144885540008545e-02 2.225359715521335602e-02
7.370000000000000000e+02 2.318338775634765625e+01 2.245058059692382812e+01 2.242010273039340973e-02 -4.842390120029449463e-01 -1.385456770658493042e-01 2.474534660577774048e-01
7.380000000000000000e+02 2.020404815673828125e+01 1.621184921264648438e+01 -5.517054200172424316e-01 -9.158440232276916504e-01 -4.402648210525512695e-01 5.117228031158447266e-01
7.390000000000000000e+02 2.172954177856445312e+01 1.092351245880126953e+01 -5.377037525177001953e-01 -8.399884700775146484e-01 -4.133076667785644531e-01 6.959244608879089355e-01
7.400000000000000000e+02 1.979214477539062500e+01 4.887651920318603516e+00 -1.310688108205795288e-01 -8.788124918937683105e-01 -3.029643893241882324e-01 3.700414896011352539e-01
7.410000000000000000e+02 2.166010856628417969e+01 -4.343780040740966797e+00 -7.701239734888076782e-02 -4.982436448335647583e-02 -3.805102780461311340e-02 7.867914438247680664e-02
7.420000000000000000e+02 2.464486122131347656e+01 -4.112667083740234375e+00 -2.557123601436614990e-01 -5.084525421261787415e-02 -9.196728467941284180e-02 1.962169110774993896e-01
7.430000000000000000e+02 2.377367019653320312e+01 -4.707037925720214844e+00 -1.831834614276885986e-01 -3.888556733727455139e-02 -6.662070751190185547e-02 1.316868066787719727e-01
7.440000000000000000e+02 1.905811309814453125e+01 3.037307548522949219e+01 3.805927336215972900e-01 -6.243134737014770508e-01 -7.311622053384780884e-02 2.396570593118667603e-01
7.450000000000000000e+02 1.625972747802734375e+01 2.324078750610351562e+01 -1.348831225186586380e-02 -9.521951079368591309e-01 -2.897050380706787109e-01 4.267804026603698730e-01
7.460000000000000000e+02 1.299311256408691406e+01 1.741086006164550781e+01 -1.394480586051940918e+00 -1.099200367927551270e+00 -7.481043338775634766e-01 1.112463474273681641e+00
7.470000000000000000e+02 1.499385261535644531e+01 1.542324447631835938e+01 -1.184256434440612793e+00 -1.782497406005859375e+00 -8.900261521339416504e-01 1.320414185523986816e+00
7.480000000000000000e+02 1.788821792602539062e+01 1.577917957305908203e+01 -7.135677933692932129e-01 -1.276408076286315918e+00 -5.969927310943603516e-01 7.080414295196533203e-01
7.490000000000000000e+02 1.581292152404785156e+01 1.427951145172119141e+01 -9.307633638381958008e-01 -2.061384439468383789e+00 -8.976443409919738770e-01 1.253114938735961914e+00
7.500000000000000000e+02 1.819343566894531250e+01 9.063945770263671875e+00 -2.731176614761352539e-01 -1.815867424011230469e+00 -6.266955137252807617e-01 6.035097837448120117e-01
7.510000000000000000e+02 1.860692787170410156e+01 6.248044490814208984e+00 -9.502296894788742065e-02 -1.260126948356628418e+00 -4.065449833869934082e-01 3.094181418418884277e-01
7.520000000000000000e+02 1.882092094421386719e+01 2.165874004364013672e+00 -1.342766080051660538e-02 -5.011425018310546875e-01 -1.543710529804229736e-01 7.698503136634826660e-02
7.530000000000000000e+02 1.885559844970703125e+01 -4.837702214717864990e-01 -7.405810523778200150e-03 -1.615373343229293823e-01 -5.068294331431388855e-02 4.024945944547653198e-02
7.540000000000000000e+02 1.978433799743652344e+01 -2.938222885131835938e+00 -3.134509921073913574e-02 -6.348010152578353882e-02 -2.844755910336971283e-02 5.270578712224960327e-02
7.550000000000000000e+02 1.273764133453369141e+01 4.072383880615234375e+01 3.246152997016906738e-01 -6.827205419540405273e-01 -1.074315756559371948e-01 5.709924176335334778e-02
7.560000000000000000e+02 8.096574783325195312e+00 4.103058242797851562e+01 1.516880989074707031e-01 -7.651705145835876465e-01 -1.840447336435317993e-01 4.803568124771118164e-02
7.570000000000000000e+02 7.946515083312988281e+00 3.204392242431640625e+01 1.313911676406860352e-01 -6.948182582855224609e-01 -1.690281182527542114e-01 3.247298598289489746e-01
7.580000000000000000e+02 5.539742469787597656e+00 2.432600593566894531e+01 -9.262896329164505005e-02 -3.540987670421600342e-01 -1.340183168649673462e-01 3.408775031566619873e-01
7.590000000000000000e+02 1.046169662475585938e+01 1.886088752746582031e+01 -1.110804200172424316e+00 -4.010577797889709473e-01 -4.535585939884185791e-01 5.427804589271545410e-01
7.600000000000000000e+02 1.180535697937011719e+01 1.822369575500488281e+01 -1.365646719932556152e+00 -7.207711338996887207e-01 -6.259253621101379395e-01 8.912470936775207520e-01
7.610000000000000000e+02 1.997814774513244629e+00 4.164868164062500000e+01 -1.074975705705583096e-03 -9.794216156005859375e-01 -2.941489815711975098e-01 -3.223793464712798595e-04
7.620000000000000000e+02 4.363838195800781250e+00 3.782481765747070312e+01 6.059570610523223877e-02 -8.414984345436096191e-01 -2.342708110809326172e-01 1.126514077186584473e-01
7.630000000000000000e+02 2.133497714996337891e+00 3.593131637573242188e+01 2.777769975364208221e-02 -8.541192412376403809e-01 -2.479024529457092285e-01 7.218426465988159180e-02
7.640000000000000000e+02 2.056138038635253906e+00 2.890571594238281250e+01 3.743263194337487221e-03 -4.899347126483917236e-01 -1.458574384450912476e-01 1.550514549016952515e-01
7.650000000000000000e+02 1.927479386329650879e+00 2.312596511840820312e+01 -2.531043253839015961e-02 -1.227797046303749084e-01 -4.442704096436500549e-02 9.876865148544311523e-02
7.660000000000000000e+02 4.269825935363769531e+00 1.580111408233642578e+01 1.777305384166538715e-03 -2.946768701076507568e-02 -8.307114243507385254e-03 -6.234325002878904343e-03
7.670000000000000000e+02 5.636708140373229980e-01 6.400036334991455078e+00 1.616138033568859100e-04 -2.850286837201565504e-04 -3.702446701936423779e-05 5.393480387283489108e-05
7.680000000000000000e+02 6.056687831878662109e+00 1.852625250816345215e+00 -1.523355022072792053e-04 -6.243794341571629047e-04 -2.330144925508648157e-04 -1.899537019198760390e-04
7.690000000000000000e+02 8.071796417236328125e+00 2.610928058624267578e+00 -2.115428505931049585e-04 -6.984954816289246082e-04 -2.730115083977580070e-04 -5.979379056952893734e-04
7.700000000000000000e+02 9.628038406372070312e+00 1.869592070579528809e+00 1.400278561050072312e-04 3.808093024417757988e-04 1.562511461088433862e-04 4.611095355357974768e-04
7.710000000000000000e+02 1.392565250396728516e+01 1.748773336410522461e+00 4.567659925669431686e-04 -1.257626572623848915e-04 9.930099622579291463e-05 6.611513526877388358e-05
7.720000000000000000e+02 1.444498157501220703e+01 6.258330345153808594e+00 -1.919070258736610413e-03 -3.865852486342191696e-04 -6.916966522112488747e-04 -4.025087400805205107e-04
7.730000000000000000e+02 1.178532886505126953e+01 9.576887130737304688e+00 -1.877571688964962959e-03 -2.343089785426855087e-03 -1.266198349185287952e-03 -1.794322393834590912e-03
7.740000000000000000e+02 1.132024478912353516e+01 1.235051345825195312e+01 4.329213872551918030e-03 2.784863580018281937e-03 2.134223235771059990e-03 3.671972546726465225e-03
7.750000000000000000e+02 1.216258525848388672e+01 1.124185276031494141e+01 -4.031920805573463440e-03 -2.318093320354819298e-03 -1.905004144646227360e-03 -2.306014299392700195e-03
7.760000000000000000e+02 9.416852951049804688e+00 1.447499752044677734e+01 6.455419585108757019e-03 5.870798137038946152e-03 3.697865409776568413e-03 4.771259147673845291e-03
7.770000000000000000e+02 7.877800941467285156e+00 1.689736938476562500e+01 2.013594843447208405e-02 1.001724302768707275e-01 3.609251230955123901e-02 1.363800652325153351e-02
7.780000000000000000e+02 1.764972090721130371e+00 2.172240638732910156e+01 -2.839204668998718262e-02 -5.605381354689598083e-02 -2.533375844359397888e-02 6.248094141483306885e-02
7.790000000000000000e+02 1.159813404083251953e+00 3.802591562271118164e+00 -1.567748404340818524e-04 -2.523903094697743654e-04 -1.227495522471144795e-04 2.824864059220999479e-04
7.800000000000000000e+02 1.325575160980224609e+01 2.474760055541992188e+00 1.049913553288206458e-04 2.730698324739933014e-04 1.134183548856526613e-04 -7.527153502451255918e-05
7.810000000000000000e+02 2.176060676574707031e+01 -8.204064369201660156e+00 -3.876117765903472900e-01 1.716870069503784180e-02 -1.111329197883605957e-01 -1.543310433626174927e-01
7.820000000000000000e+02 7.942497253417968750e+01 -1.251562404632568359e+01 8.006427437067031860e-03 5.635385990142822266e+00 1.693017721176147461e+00 -1.764470189809799194e-01
7.830000000000000000e+02 7.942162322998046875e+01 -5.544535636901855469e+00 2.380598708987236023e-02 4.579075336456298828e+00 1.380864381790161133e+00 3.758513554930686951e-02
7.840000000000000000e+02 7.378243255615234375e+01 -4.290887832641601562e+00 8.683010935783386230e-01 7.334701538085937500e+00 2.460900783538818359e+00 5.509713292121887207e-01
7.850000000000000000e+02 2.382399940490722656e+01 -2.479332542419433594e+01 7.452634721994400024e-02 -1.558479815721511841e-01 -2.439648844301700592e-02 -3.958842158317565918e-01
7.860000000000000000e+02 1.453324699401855469e+01 -2.272690391540527344e+01 -7.923674583435058594e-02 -3.684369325637817383e-01 -1.343021094799041748e-01 -3.221001327037811279e-01
7.870000000000000000e+02 2.976159286499023438e+01 -1.412940025329589844e+01 -6.278556585311889648e-01 -2.577472291886806488e-02 -1.960891187191009521e-01 -4.865992665290832520e-01
7.880000000000000000e+02 4.273039627075195312e+01 -1.383701801300048828e+01 -7.805272340774536133e-01 1.035651937127113342e-01 -2.030886113643646240e-01 -3.085136711597442627e-01
7.890000000000000000e+02 4.973594284057617188e+01 -1.439077663421630859e+01 -2.512440383434295654e-01 5.934040546417236328e-01 1.026480048894882202e-01 3.142237365245819092e-01
7.900000000000000000e+02 6.719729614257812500e+01 -1.893716812133789062e+01 -9.247423410415649414e-01 8.390750885009765625e+00 2.239802598953247070e+00 -2.141106314957141876e-02
7.910000000000000000e+02 7.379103851318359375e+01 -1.904831314086914062e+01 -3.386303484439849854e-01 8.006847381591796875e+00 2.300465106964111328e+00 -8.207277059555053711e-01
7.920000000000000000e+02 7.940536499023437500e+01 -2.224931907653808594e+01 -7.965692318975925446e-03 8.187586784362792969e+00 2.453886508941650391e+00 -1.049052253365516663e-01
7.930000000000000000e+02 5.338455200195312500e+00 -1.565483570098876953e+01 2.317237900570034981e-03 -2.047756500542163849e-02 -5.448098294436931610e-03 -6.256404332816600800e-03
7.940000000000000000e+02 1.763592958450317383e+00 -1.745849037170410156e+01 -4.926876630634069443e-03 4.186672449577599764e-04 -1.352462801150977612e-03 6.210850086063146591e-03
7.950000000000000000e+02 5.577375888824462891e-01 -1.068112564086914062e+01 1.070185797289013863e-03 9.515074780210852623e-04 6.065079942345619202e-04 5.276860902085900307e-04
7.960000000000000000e+02 2.683274841308593750e+01 -3.440584564208984375e+01 5.211457610130310059e-01 -5.709491297602653503e-02 1.392152607440948486e-01 -2.002576440572738647e-01
7.970000000000000000e+02 3.304201507568359375e+01 -2.568978500366210938e+01 3.247659802436828613e-01 1.108106076717376709e-01 1.306729763746261597e-01 -3.521229326725006104e-01
7.980000000000000000e+02 3.552883911132812500e+01 -2.535123252868652344e+01 3.725566267967224121e-01 2.499298304319381714e-01 1.867459416389465332e-01 -3.000508546829223633e-01
7.990000000000000000e+02 4.290962600708007812e+01 -2.508522224426269531e+01 4.970827400684356689e-01 8.388914465904235840e-01 4.007922708988189697e-01 3.598311543464660645e-02
8.000000000000000000e+02 4.912943267822265625e+01 -2.219881057739257812e+01 4.384716451168060303e-01 1.577389359474182129e+00 6.047582626342773438e-01 5.639771223068237305e-01
8.010000000000000000e+02 5.614572525024414062e+01 -2.427509498596191406e+01 1.244596540927886963e-01 3.908718347549438477e+00 1.209953308105468750e+00 1.074787259101867676e+00
8.020000000000000000e+02 6.568781280517578125e+01 -2.259181213378906250e+01 -7.181403040885925293e-01 7.335973262786865234e+00 1.985349893569946289e+00 3.881890177726745605e-01
8.030000000000000000e+02 7.378469848632812500e+01 -2.486372947692871094e+01 -2.557886242866516113e-01 7.989929676055908203e+00 2.320242166519165039e+00 -3.616285026073455811e-01
8.040000000000000000e+02 7.937813568115234375e+01 -2.642182731628417969e+01 -5.053457804024219513e-03 8.671298980712890625e+00 2.599873542785644531e+00 -5.656395852565765381e-02
8.050000000000000000e+02 7.413821816444396973e-01 -3.045298767089843750e+01 -1.581518445163965225e-03 -4.571977853775024414e-01 -1.376337856054306030e-01 -3.511594608426094055e-02
8.060000000000000000e+02 8.615332603454589844e+00 -3.535161972045898438e+01 1.236030235886573792e-01 -4.585015475749969482e-01 -1.004695594310760498e-01 -1.591106057167053223e-01
8.070000000000000000e+02 2.993200111389160156e+01 -3.338786315917968750e+01 5.486206412315368652e-01 6.189209222793579102e-02 1.831538230180740356e-01 -1.989943534135818481e-01
8.080000000000000000e+02 4.103041839599609375e+01 -2.985938072204589844e+01 6.605322957038879395e-01 8.724734187126159668e-01 4.599017202854156494e-01 -1.271486748009920120e-02
8.090000000000000000e+02 4.961941909790039062e+01 -3.060253524780273438e+01 5.681658983230590820e-01 2.332896232604980469e+00 8.703186511993408203e-01 3.873413503170013428e-01
8.100000000000000000e+02 5.761256408691406250e+01 -3.166679954528808594e+01 1.898436248302459717e-01 4.457863330841064453e+00 1.394312024116516113e+00 4.897381961345672607e-01
8.110000000000000000e+02 6.581922149658203125e+01 -3.359402084350585938e+01 -8.277913928031921387e-02 6.301930427551269531e+00 1.865745425224304199e+00 1.521296054124832153e-01
8.120000000000000000e+02 7.373651885986328125e+01 -3.283955764770507812e+01 -7.599580287933349609e-02 7.887930393218994141e+00 2.343580484390258789e+00 -4.462616518139839172e-02
8.130000000000000000e+02 7.909368133544921875e+01 -3.345058059692382812e+01 -1.619290374219417572e-02 8.908928871154785156e+00 2.667820692062377930e+00 -1.229842472821474075e-02
8.140000000000000000e+02 7.939715576171875000e+01 2.817568778991699219e+00 -2.527662320062518120e-03 6.575282573699951172e+00 1.971826553344726562e+00 1.938894987106323242e-01
8.150000000000000000e+02 6.723120117187500000e+01 2.885292291641235352e+00 -9.324535727500915527e-01 9.326786041259765625e+00 2.518299579620361328e+00 2.855716049671173096e-01
8.160000000000000000e+02 7.362294769287109375e+01 1.796409487724304199e+00 -8.084778487682342529e-02 7.896495819091796875e+00 2.344694375991821289e+00 1.124132513999938965e+00
8.170000000000000000e+02 7.937123870849609375e+01 8.389506340026855469e+00 -9.815250523388385773e-03 7.941601276397705078e+00 2.379535913467407227e+00 1.249444708228111267e-01
8.180000000000000000e+02 6.564610290527343750e+01 1.287419795989990234e+01 -5.545953512191772461e-01 6.869362354278564453e+00 1.894430041313171387e+00 -4.311912655830383301e-01
8.190000000000000000e+02 7.290843200683593750e+01 9.749886512756347656e+00 -3.987107276916503906e-01 7.936621189117431641e+00 2.261373043060302734e+00 4.504988789558410645e-01
8.200000000000000000e+02 5.582674407958984375e+01 3.626375794410705566e-01 1.796660870313644409e-01 2.030499458312988281e+00 6.630496978759765625e-01 -1.771951556205749512e+00
8.210000000000000000e+02 4.934476089477539062e+01 4.579610824584960938e-01 -6.149132251739501953e-01 4.076919853687286377e-01 -6.216636300086975098e-02 -1.227829605340957642e-01
8.220000000000000000e+02 4.394627761840820312e+01 -4.492124021053314209e-01 -1.104790210723876953e+00 1.046055108308792114e-01 -3.000554144382476807e-01 3.774722218513488770e-01
8.230000000000000000e+02 3.580020523071289062e+01 6.149054318666458130e-02 -8.432835340499877930e-01 3.833164647221565247e-02 -2.414855659008026123e-01 5.955917239189147949e-01
8.240000000000000000e+02 2.959145545959472656e+01 -5.754523873329162598e-01 -5.795804262161254883e-01 -5.184799060225486755e-02 -1.894285231828689575e-01 5.612741112709045410e-01
8.250000000000000000e+02 1.977488517761230469e+01 3.561713218688964844e+00 -8.304998278617858887e-02 -7.057015895843505859e-01 -2.366254776716232300e-01 2.908908724784851074e-01
8.260000000000000000e+02 1.880339241027832031e+01 3.517894506454467773e+00 -2.671089954674243927e-02 -7.563744783401489258e-01 -2.349256128072738647e-01 1.280671954154968262e-01
8.270000000000000000e+02 7.935531616210937500e+01 1.673595619201660156e+01 -4.304251633584499359e-03 8.685239791870117188e+00 2.604280710220336914e+00 2.637640945613384247e-02
8.280000000000000000e+02 6.548146057128906250e+01 1.939190673828125000e+01 -2.034613490104675293e-01 6.325648307800292969e+00 1.836656093597412109e+00 -3.737478554248809814e-01
8.290000000000000000e+02 7.270233917236328125e+01 1.690532684326171875e+01 -1.868170201778411865e-01 7.643028736114501953e+00 2.236863613128662109e+00 1.629915274679660797e-02
8.300000000000000000e+02 6.044416809082031250e+01 1.205381298065185547e+01 -3.628199696540832520e-01 5.519685745239257812e+00 1.547059774398803711e+00 -1.005768299102783203e+00
8.310000000000000000e+02 4.957740020751953125e+01 9.133449554443359375e+00 2.562298178672790527e-01 1.794243812561035156e+00 6.151421070098876953e-01 -5.936728715896606445e-01
8.320000000000000000e+02 4.393498611450195312e+01 7.790890693664550781e+00 5.531435832381248474e-02 7.562335729598999023e-01 2.434643805027008057e-01 8.478515595197677612e-02
8.330000000000000000e+02 3.460254669189453125e+01 1.296326923370361328e+01 -3.302488103508949280e-02 3.467113971710205078e-01 9.410595893859863281e-02 4.481718838214874268e-01
8.340000000000000000e+02 2.701273155212402344e+01 1.118275547027587891e+01 -3.878290057182312012e-01 -2.189375907182693481e-01 -1.820299774408340454e-01 6.521819829940795898e-01
8.350000000000000000e+02 2.045531082153320312e+01 1.193361473083496094e+01 -5.831733345985412598e-01 -1.055928826332092285e+00 -4.917306303977966309e-01 7.024025321006774902e-01
8.360000000000000000e+02 7.933767700195312500e+01 2.367918586730957031e+01 -1.910383929498493671e-03 8.665877342224121094e+00 2.599190235137939453e+00 -3.629831597208976746e-03
8.370000000000000000e+02 6.396094894409179688e+01 2.320253181457519531e+01 -3.284864872694015503e-02 5.878511428833007812e+00 1.753698825836181641e+00 -3.787758052349090576e-01
8.380000000000000000e+02 7.200772857666015625e+01 2.411776733398437500e+01 -4.567163065075874329e-02 7.342383384704589844e+00 2.189013481140136719e+00 -1.507005244493484497e-01
8.390000000000000000e+02 5.781730651855468750e+01 1.427076053619384766e+01 -8.846668899059295654e-02 4.586766719818115234e+00 1.349490046501159668e+00 -9.257768392562866211e-01
8.400000000000000000e+02 4.641823196411132812e+01 1.705585098266601562e+01 3.577884733676910400e-01 1.899905443191528320e+00 6.773081421852111816e-01 -2.928697168827056885e-01
8.410000000000000000e+02 3.900691223144531250e+01 1.890943908691406250e+01 3.086567819118499756e-01 9.679762125015258789e-01 3.829899132251739502e-01 7.670247554779052734e-02
8.420000000000000000e+02 2.947808265686035156e+01 1.771145439147949219e+01 -6.116730347275733948e-02 3.761891648173332214e-02 -7.064516190439462662e-03 3.544767200946807861e-01
8.430000000000000000e+02 2.084911537170410156e+01 1.727084159851074219e+01 -4.687308967113494873e-01 -8.051456809043884277e-01 -3.821629583835601807e-01 4.499104619026184082e-01
8.440000000000000000e+02 2.686353206634521484e+00 2.096225929260253906e+01 -4.818337783217430115e-02 -7.628378272056579590e-02 -3.734014928340911865e-02 6.613474339246749878e-02
8.450000000000000000e+02 7.926328277587890625e+01 2.927450561523437500e+01 -5.590955726802349091e-03 8.546659469604492188e+00 2.562320470809936523e+00 -1.249384880065917969e-02
8.460000000000000000e+02 5.990074157714843750e+01 3.076751327514648438e+01 2.194892168045043945e-01 4.925609111785888672e+00 1.543529510498046875e+00 -2.397185564041137695e-01
8.470000000000000000e+02 7.093290710449218750e+01 3.044211769104003906e+01 2.592561766505241394e-02 6.993429183959960938e+00 2.105806589126586914e+00 -1.506213992834091187e-01
8.480000000000000000e+02 5.978185272216796875e+01 2.458990287780761719e+01 1.096030026674270630e-01 4.939512729644775391e+00 1.514734745025634766e+00 -4.247137606143951416e-01
8.490000000000000000e+02 5.313208389282226562e+01 2.399078559875488281e+01 2.999041080474853516e-01 3.495795249938964844e+00 1.138709783554077148e+00 -4.273465275764465332e-01
8.500000000000000000e+02 3.761985397338867188e+01 2.545600509643554688e+01 4.354275166988372803e-01 1.005209922790527344e+00 4.321912229061126709e-01 3.605531761422753334e-03
8.510000000000000000e+02 3.054788398742675781e+01 2.661298942565917969e+01 3.668325245380401611e-01 2.191414088010787964e-01 1.757921725511550903e-01 1.142687872052192688e-01
8.520000000000000000e+02 2.181850242614746094e+01 2.409334754943847656e+01 1.313607692718505859e-01 -5.776998996734619141e-01 -1.339017301797866821e-01 2.510100007057189941e-01
8.530000000000000000e+02 1.728022003173828125e+01 2.494110298156738281e+01 1.332321316003799438e-01 -8.493047356605529785e-01 -2.148217856884002686e-01 3.713207244873046875e-01
8.540000000000000000e+02 6.695710182189941406e+00 2.407810211181640625e+01 -1.212946921586990356e-01 -3.962087035179138184e-01 -1.552510112524032593e-01 3.935958147048950195e-01
8.550000000000000000e+02 4.328358078002929688e+01 3.264745712280273438e+01 5.660508275032043457e-01 1.922921895980834961e+00 7.466918230056762695e-01 -9.688528627157211304e-02
8.560000000000000000e+02 2.603964614868164062e+01 3.425173568725585938e+01 5.368854403495788574e-01 -9.880851954221725464e-02 1.314230859279632568e-01 8.444716781377792358e-02
8.570000000000000000e+02 2.109450149536132812e+01 3.072549057006835938e+01 4.204201102256774902e-01 -4.988313615322113037e-01 -2.352337166666984558e-02 1.975910365581512451e-01
8.580000000000000000e+02 1.189971923828125000e+01 3.113906097412109375e+01 2.266067564487457275e-01 -7.489542365074157715e-01 -1.567042320966720581e-01 3.592959642410278320e-01
8.590000000000000000e+02 2.222810745239257812e+00 3.174593734741210938e+01 1.492401026189327240e-02 -6.615464687347412109e-01 -1.939867436885833740e-01 1.455068737268447876e-01
8.600000000000000000e+02 1.780599117279052734e+00 9.091717720031738281e+00 -9.931273962138220668e-05 6.063962937332689762e-04 1.521250669611617923e-04 -9.526241919957101345e-04
8.610000000000000000e+02 1.788603782653808594e+01 -7.397741794586181641e+00 -4.810816794633865356e-02 -5.108854919672012329e-02 -2.975901402533054352e-02 -5.237838998436927795e-02
8.620000000000000000e+02 1.951606941223144531e+01 -7.788198947906494141e+00 -1.814662665128707886e-01 -1.323453523218631744e-02 -5.841024219989776611e-02 -1.018779799342155457e-01
8.630000000000000000e+02 1.422728824615478516e+01 -1.392449283599853516e+01 -4.189208745956420898e-01 -5.217614173889160156e-01 -2.822046875953674316e-01 -4.513287544250488281e-01
8.640000000000000000e+02 7.520857334136962891e+00 -1.384752941131591797e+01 -1.893307897262275219e-03 4.652889445424079895e-03 8.278745226562023163e-04 2.261797199025750160e-03
8.650000000000000000e+02 1.131618022918701172e+01 -8.124883651733398438e+00 2.754807974270079285e-05 1.862256794993299991e-05 1.385119412589119747e-05 -1.854071597335860133e-04
8.660000000000000000e+02 1.016709613800048828e+01 -3.124004840850830078e+00 8.480498081553378142e-07 -7.197742525022476912e-05 -2.133881207555532455e-05 -2.477547386661171913e-04
8.670000000000000000e+02 1.320975589752197266e+01 -1.961614608764648438e+00 -6.128720269771292806e-05 -1.000486008706502616e-04 -4.840073961531743407e-05 -8.064248686423525214e-05
8.680000000000000000e+02 1.491120338439941406e+01 -2.293868780136108398e+00 5.379052527132444084e-05 5.602955752692651004e-06 1.781804348865989596e-05 1.776581666490528733e-05
8.690000000000000000e+02 1.430487060546875000e+01 -2.141306877136230469e+00 -1.374403473164420575e-05 -3.491112693154718727e-06 -5.170544227439677343e-06 -4.166616781731136143e-05
8.700000000000000000e+02 1.375136661529541016e+01 -1.996674537658691406e+00 3.686131776703405194e-06 1.971977326320484281e-05 7.021771580184577033e-06 4.388410889077931643e-05
8.710000000000000000e+02 1.179828643798828125e+01 -1.970479369163513184e+00 -5.395258995122276247e-05 -1.472343428758904338e-04 -6.035608021193183959e-05 -3.171949401803431101e-06
8.720000000000000000e+02 1.031711578369140625e+01 -1.853468537330627441e+00 -2.374858377152122557e-05 -1.793165138224139810e-04 -6.091953036957420409e-05 -9.384148142999038100e-05
8.730000000000000000e+02 9.577190399169921875e+00 -1.827688574790954590e+00 -1.022232936520595104e-05 1.608285092515870929e-04 4.518185596680268645e-05 1.927698467625305057e-04
8.740000000000000000e+02 8.830102920532226562e+00 -1.834367394447326660e+00 -7.233402720885351300e-05 -1.308517094003036618e-04 -6.095572462072595954e-05 -1.485826796852052212e-04
8.750000000000000000e+02 7.323603153228759766e+00 -1.858588337898254395e+00 -8.370600698981434107e-05 -7.666885358048602939e-05 -4.811245889868587255e-05 -1.529727596789598465e-04
8.760000000000000000e+02 5.798652648925781250e+00 -1.878512501716613770e+00 -4.350380913820117712e-05 -6.930021481821313500e-05 -3.384120645932853222e-05 -1.792303228285163641e-04
8.770000000000000000e+02 3.513592481613159180e+00 -1.973582386970520020e+00 2.119537202815990895e-05 4.008667019661515951e-05 1.838461321312934160e-05 1.056480687111616135e-04
8.780000000000000000e+02 5.036926746368408203e+00 -1.897364974021911621e+00 -7.505400571972131729e-05 1.010143969324417412e-04 7.788116818119306117e-06 1.392686826875433326e-04
8.790000000000000000e+02 4.422677516937255859e+00 -2.765466451644897461e+00 -8.607549716543871909e-06 1.283398887608200312e-04 3.591970016714185476e-05 1.726265763863921165e-04
8.800000000000000000e+02 2.747598886489868164e+00 -2.028955221176147461e+00 -1.244228915311396122e-04 -2.588621646282263100e-05 -4.509273276198655367e-05 -1.535249029984697700e-04
8.810000000000000000e+02 1.974474668502807617e+00 -2.075089693069458008e+00 7.279658166225999594e-05 3.333610220579430461e-05 3.183980516041629016e-05 3.312893022666685283e-05
8.820000000000000000e+02 1.194460988044738770e+00 -2.134624481201171875e+00 -1.447577233193442225e-04 -7.255395030369982123e-05 -6.519350426970049739e-05 -1.304507459281012416e-04
8.830000000000000000e+02 2.038867712020874023e+00 -4.162779617309570312e+01 -1.783409039489924908e-03 -6.881994009017944336e-01 -2.069948464632034302e-01 5.096957902424037457e-04
8.840000000000000000e+02 6.235942363739013672e+00 -3.802271652221679688e+01 7.656618207693099976e-02 -5.121797919273376465e-01 -1.306840777397155762e-01 -8.625040948390960693e-02
8.850000000000000000e+02 1.026034832000732422e+00 -3.864101409912109375e+01 -1.869709929451346397e-03 -6.860520839691162109e-01 -2.063765376806259155e-01 -6.866395007818937302e-03
8.860000000000000000e+02 6.615661382675170898e-01 -3.474955749511718750e+01 8.041122928261756897e-03 -6.198649406433105469e-01 -1.835471391677856445e-01 -2.153307385742664337e-02
8.870000000000000000e+02 8.107216358184814453e-01 -3.334806823730468750e+01 1.286646933294832706e-03 -5.761146545410156250e-01 -1.724484115839004517e-01 -2.876242808997631073e-02
8.880000000000000000e+02 7.082968354225158691e-01 -2.903439331054687500e+01 4.095532931387424469e-03 -3.864684700965881348e-01 -1.147118806838989258e-01 -3.729517012834548950e-02
8.890000000000000000e+02 6.825193166732788086e-01 -2.761443138122558594e+01 -3.329711267724633217e-03 -3.090708851814270020e-01 -9.372017532587051392e-02 -3.848235309123992920e-02
8.900000000000000000e+02 6.658455133438110352e-01 -2.619308090209960938e+01 1.611254760064184666e-03 -2.302203625440597534e-01 -6.858272850513458252e-02 -3.629693388938903809e-02
8.910000000000000000e+02 5.975577235221862793e-01 -2.192807769775390625e+01 -3.609609091654419899e-03 -2.717302925884723663e-02 -9.234791621565818787e-03 -2.205943688750267029e-02
8.920000000000000000e+02 1.711414933204650879e+00 -2.036669921875000000e+01 -1.727099530398845673e-02 -3.083667531609535217e-02 -1.443230081349611282e-02 -3.829218819737434387e-02
8.930000000000000000e+02 5.423179268836975098e-01 -1.626371002197265625e+01 1.774262054823338985e-03 2.602704614400863647e-02 8.340392261743545532e-03 5.013003014028072357e-03
8.940000000000000000e+02 5.230842232704162598e-01 -1.487216949462890625e+01 -6.038746796548366547e-04 1.485950220376253128e-02 4.276688210666179657e-03 3.172558732330799103e-03
8.950000000000000000e+02 5.282441377639770508e-01 -1.348136425018310547e+01 1.415446400642395020e-03 7.410909980535507202e-03 2.647907007485628128e-03 2.198194852098822594e-03
8.960000000000000000e+02 4.368466377258300781e+00 -1.489717102050781250e+01 6.760424468666315079e-03 -1.493183244019746780e-02 -2.451422391459345818e-03 -1.633386942557990551e-03
8.970000000000000000e+02 5.569220185279846191e-01 -9.280719757080078125e+00 -7.639710092917084694e-04 1.133959958679042757e-04 -1.951725134858861566e-04 1.622401032363995910e-04
8.980000000000000000e+02 5.471964478492736816e-01 -7.886541843414306641e+00 7.798414444550871849e-04 -2.231245889561250806e-04 1.670150522841140628e-04 7.577309588668867946e-05
8.990000000000000000e+02 5.388717055320739746e-01 -6.493962764739990234e+00 -5.780640640296041965e-04 -1.858875184552744031e-04 -2.291854762006551027e-04 -7.022568024694919586e-05
9.000000000000000000e+02 5.251440811157226562e+01 -4.036986923217773438e+01 5.386067628860473633e-01 3.204228401184082031e+00 1.122850537300109863e+00 9.181976318359375000e-02
9.010000000000000000e+02 3.245046234130859375e+01 -4.041813278198242188e+01 7.197604179382324219e-01 2.793463766574859619e-01 2.997320592403411865e-01 -4.116217046976089478e-02
9.020000000000000000e+02 1.283464717864990234e+01 -4.062852478027343750e+01 2.262285351753234863e-01 -4.180283248424530029e-01 -5.753993242979049683e-02 -4.758982732892036438e-02
9.030000000000000000e+02 7.858177185058593750e+01 4.028667831420898438e+01 -2.978082187473773956e-02 8.207841873168945312e+00 2.453418493270874023e+00 -8.717679977416992188e-02
9.040000000000000000e+02 7.804886627197265625e+01 4.174888610839843750e+01 1.162612810730934143e-01 8.149028778076171875e+00 2.479586839675903320e+00 -3.252925723791122437e-02
9.050000000000000000e+02 7.870206451416015625e+01 3.885099411010742188e+01 -4.514160007238388062e-02 8.280081748962402344e+00 2.470482110977172852e+00 -5.189717561006546021e-02
9.060000000000000000e+02 7.928939056396484375e+01 3.488871002197265625e+01 1.785568892955780029e-02 8.395815849304199219e+00 2.524101257324218750e+00 -1.121568493545055389e-02
9.070000000000000000e+02 7.709703063964843750e+01 3.460848999023437500e+01 3.086857497692108154e-03 8.064416885375976562e+00 2.420251131057739258e+00 -5.070383101701736450e-02
9.080000000000000000e+02 7.919290161132812500e+01 3.351784133911132812e+01 -4.612760967575013638e-04 8.430942535400390625e+00 2.529144287109375000e+00 -2.282324247062206268e-02
9.090000000000000000e+02 7.925509643554687500e+01 3.067371368408203125e+01 3.704794682562351227e-03 8.511512756347656250e+00 2.554565429687500000e+00 -1.451112888753414154e-02
9.100000000000000000e+02 7.627394104003906250e+01 2.928244781494140625e+01 -2.168315695598721504e-03 8.003211975097656250e+00 2.400313138961791992e+00 -6.580258160829544067e-02
9.110000000000000000e+02 7.930032348632812500e+01 2.647183227539062500e+01 -2.905858447775244713e-03 8.609732627868652344e+00 2.582048177719116211e+00 -8.860575966536998749e-03
9.120000000000000000e+02 7.662905120849609375e+01 2.497439193725585938e+01 -9.093663655221462250e-03 8.138803482055664062e+00 2.438912868499755859e+00 -5.129155889153480530e-02
9.130000000000000000e+02 7.932099151611328125e+01 2.507347297668457031e+01 -1.481424405938014388e-04 8.639299392700195312e+00 2.591745376586914062e+00 -5.759815685451030731e-03
9.140000000000000000e+02 7.935534667968750000e+01 2.090234947204589844e+01 -2.320263301953673363e-03 8.704647064208984375e+00 2.610698223114013672e+00 4.069019574671983719e-03
9.150000000000000000e+02 7.935703277587890625e+01 1.951478767395019531e+01 -2.667397493496537209e-03 8.712090492248535156e+00 2.612826824188232422e+00 9.505910798907279968e-03
9.160000000000000000e+02 7.805981445312500000e+01 2.089749526977539062e+01 -9.591338224709033966e-03 8.457486152648925781e+00 2.534368515014648438e+00 -6.632849108427762985e-03
9.170000000000000000e+02 7.935644531250000000e+01 1.812578010559082031e+01 -4.215104505419731140e-03 8.707072257995605469e+00 2.610857248306274414e+00 1.706400699913501740e-02
9.180000000000000000e+02 7.935454559326171875e+01 1.395701885223388672e+01 -6.488379556685686111e-03 8.573554039001464844e+00 2.570119619369506836e+00 5.170050263404846191e-02
9.190000000000000000e+02 7.935580444335937500e+01 1.256622695922851562e+01 -7.489742245525121689e-03 8.474184036254882812e+00 2.540008306503295898e+00 6.710612028837203979e-02
9.200000000000000000e+02 7.935919189453125000e+01 1.117450428009033203e+01 -8.668312802910804749e-03 8.339117050170898438e+00 2.499134540557861328e+00 8.501587808132171631e-02
9.210000000000000000e+02 7.937822723388671875e+01 6.996880531311035156e+00 -8.428337983787059784e-03 7.670868396759033203e+00 2.298732042312622070e+00 1.458578109741210938e-01
9.220000000000000000e+02 7.938545989990234375e+01 5.603987693786621094e+00 -8.349819108843803406e-03 7.350219726562500000e+00 2.202560901641845703e+00 1.655060946941375732e-01
9.230000000000000000e+02 7.816232299804687500e+01 5.657259464263916016e+00 -4.097033664584159851e-02 7.430876255035400391e+00 2.216971874237060547e+00 4.294870793819427490e-01
9.240000000000000000e+02 7.939205169677734375e+01 4.211000442504882812e+00 -6.360539235174655914e-03 6.982009410858154297e+00 2.092694520950317383e+00 1.830111891031265259e-01
9.250000000000000000e+02 7.940264129638671875e+01 2.975073456764221191e-02 6.751915439963340759e-03 5.721436500549316406e+00 1.718456506729125977e+00 1.884653121232986450e-01
9.260000000000000000e+02 7.940605926513671875e+01 -1.363813757896423340e+00 1.101811416447162628e-02 5.323852539062500000e+00 1.600461244583129883e+00 1.680412888526916504e-01
9.270000000000000000e+02 7.941660308837890625e+01 -4.149651527404785156e+00 2.111993730068206787e-02 4.724279880523681641e+00 1.423619985580444336e+00 9.166855365037918091e-02
9.280000000000000000e+02 7.942460632324218750e+01 -8.334451675415039062e+00 2.100177668035030365e-02 4.683434009552001953e+00 1.411330699920654297e+00 -7.516280561685562134e-02
9.290000000000000000e+02 7.942302703857421875e+01 -1.112216091156005859e+01 1.089232787489891052e-02 5.245385646820068359e+00 1.576883316040039062e+00 -1.540141105651855469e-01
9.300000000000000000e+02 7.942684936523437500e+01 -1.529842376708984375e+01 -1.045958139002323151e-03 6.500234127044677734e+00 1.949756383895874023e+00 -1.863393485546112061e-01
9.310000000000000000e+02 7.942156219482421875e+01 -1.807944488525390625e+01 -6.375854834914207458e-03 7.308269500732421875e+00 2.190567970275878906e+00 -1.615544557571411133e-01
9.320000000000000000e+02 7.940077209472656250e+01 -2.363850402832031250e+01 -6.762152537703514099e-03 8.387739181518554688e+00 2.514292955398559570e+00 -8.745270222425460815e-02
9.330000000000000000e+02 7.939416503906250000e+01 -2.502887725830078125e+01 -7.367492653429508209e-03 8.547742843627929688e+00 2.562112808227539062e+00 -7.077896595001220703e-02
9.340000000000000000e+02 7.929711914062500000e+01 -2.921732711791992188e+01 -1.680179848335683346e-03 8.822630882263183594e+00 2.646285295486450195e+00 -3.343692794442176819e-02
9.350000000000000000e+02 7.916389465332031250e+01 -3.202888488769531250e+01 5.328060593456029892e-03 8.890849113464355469e+00 2.668853282928466797e+00 -2.116730995476245880e-02
9.360000000000000000e+02 7.902156066894531250e+01 -3.631448745727539062e+01 -4.217584431171417236e-02 8.919678688049316406e+00 2.663250684738159180e+00 4.081379622220993042e-03
9.370000000000000000e+02 7.905863189697265625e+01 -3.771546936035156250e+01 -7.564520463347434998e-03 8.885658264160156250e+00 2.663428068161010742e+00 4.357550665736198425e-02
9.380000000000000000e+02 7.916438293457031250e+01 -3.901984405517578125e+01 5.332091450691223145e-02 8.834058761596679688e+00 2.666213989257812500e+00 1.368840411305427551e-02
9.390000000000000000e+02 7.896987152099609375e+01 -4.024589538574218750e+01 -8.801276981830596924e-02 8.761558532714843750e+00 2.602063894271850586e+00 5.967564135789871216e-02
9.400000000000000000e+02 1.229789161682128906e+01 3.743168258666992188e+01 2.997963726520538330e-01 -6.982453465461730957e-01 -1.195347011089324951e-01 1.619636267423629761e-01
9.410000000000000000e+02 2.718082809448242188e+01 4.072168350219726562e+01 6.159585714340209961e-01 3.391790390014648438e-02 1.949629336595535278e-01 1.425809878855943680e-02
9.420000000000000000e+02 6.734803009033203125e+01 4.094593048095703125e+01 1.314763873815536499e-01 6.299761295318603516e+00 1.929371356964111328e+00 -2.133174799382686615e-02
9.430000000000000000e+02 1.122456312179565430e+00 1.935709118843078613e+00 -2.256169500469695777e-05 2.178662107326090336e-04 5.859135490027256310e-05 -9.850321475823875517e-06
9.440000000000000000e+02 3.180771350860595703e+00 2.659548282623291016e+00 1.390063116559758782e-04 3.880102885887026787e-04 1.581049727974459529e-04 -4.472979344427585602e-05
9.450000000000000000e+02 5.286727428436279297e+00 2.554493904113769531e+00 -4.410881592775695026e-05 -6.473965477198362350e-04 -2.074516232823953032e-04 -7.689931953791528940e-05
9.460000000000000000e+02 1.755789995193481445e+00 6.236735343933105469e+00 -4.332033859100192785e-04 -1.231875794474035501e-04 -1.669172779656946659e-04 2.674119241419248283e-05
9.470000000000000000e+02 5.939061045646667480e-01 9.206484794616699219e+00 6.379705882864072919e-05 1.381469628540799022e-04 6.058320650481618941e-05 -1.411698758602142334e-04
9.480000000000000000e+02 6.035210490226745605e-01 1.202443504333496094e+01 1.559471711516380310e-04 5.003119818866252899e-03 1.547720050439238548e-03 -1.767473411746323109e-03
9.490000000000000000e+02 1.820640325546264648e+00 1.185596179962158203e+01 1.888795522972941399e-03 1.527680899016559124e-03 1.024942961521446705e-03 -4.388739354908466339e-03
9.500000000000000000e+02 6.296308636665344238e-01 1.766324424743652344e+01 -1.752946758642792702e-03 5.375773087143898010e-02 1.560143567621707916e-02 -5.891717504709959030e-03
9.510000000000000000e+02 7.774033069610595703e+00 1.849243736267089844e+01 -2.037251144647598267e-01 6.463913619518280029e-02 -4.172579571604728699e-02 5.508742481470108032e-02
9.520000000000000000e+02 5.923661589622497559e-01 2.191820907592773438e+01 -7.094033062458038330e-03 1.526131015270948410e-02 2.450183033943176270e-03 2.231935597956180573e-02
9.530000000000000000e+02 6.336214542388916016e-01 2.333135604858398438e+01 -4.201643168926239014e-03 -5.144281312823295593e-02 -1.669333688914775848e-02 3.474562987685203552e-02
9.540000000000000000e+02 6.456518769264221191e-01 2.476585960388183594e+01 -5.463100969791412354e-03 -1.405952274799346924e-01 -4.381749778985977173e-02 4.548734799027442932e-02
9.550000000000000000e+02 6.847819089889526367e-01 2.901899719238281250e+01 -1.740208361297845840e-03 -4.799075126647949219e-01 -1.444943249225616455e-01 5.536260083317756653e-02
9.560000000000000000e+02 7.111799120903015137e-01 3.043220710754394531e+01 2.216477412730455399e-03 -5.914874672889709473e-01 -1.767812967300415039e-01 5.460196360945701599e-02
9.570000000000000000e+02 2.134562492370605469e+00 3.031534385681152344e+01 7.729464210569858551e-03 -5.769999623298645020e-01 -1.707811504602432251e-01 1.515138596296310425e-01
9.580000000000000000e+02 7.365880608558654785e-01 3.184962463378906250e+01 2.939685015007853508e-03 -6.929953694343566895e-01 -2.070167064666748047e-01 4.955726861953735352e-02
9.590000000000000000e+02 7.112253308296203613e-01 3.605043411254882812e+01 -1.024593249894678593e-03 -9.102563261985778809e-01 -2.733842730522155762e-01 2.612920105457305908e-02
9.600000000000000000e+02 3.160098791122436523e+00 3.729332351684570312e+01 3.809446096420288086e-02 -8.709812164306640625e-01 -2.498660236597061157e-01 7.883405685424804688e-02
9.610000000000000000e+02 8.756703734397888184e-01 3.876224899291992188e+01 -4.486985970288515091e-03 -9.721485376358032227e-01 -2.929906547069549561e-01 1.069291494786739349e-02
9.620000000000000000e+02 1.250599503517150879e+00 4.010879516601562500e+01 1.117032114416360855e-02 -9.793466925621032715e-01 -2.904529273509979248e-01 2.160772914066910744e-03
9.630000000000000000e+02 1.037048149108886719e+01 1.856261730194091797e+00 -4.057493933942168951e-04 -2.145574253518134356e-04 -1.860920456238090992e-04 -5.337370093911886215e-04
9.640000000000000000e+02 8.904598236083984375e+00 1.869456768035888672e+00 -2.977986005134880543e-04 -4.363849002402275801e-04 -2.202550531364977360e-04 -5.650551756843924522e-04
9.650000000000000000e+02 8.188094139099121094e+00 1.866748452186584473e+00 2.500536356819793582e-05 5.623388569802045822e-04 1.762032770784571767e-04 4.638257378246635199e-04
9.660000000000000000e+02 7.475868701934814453e+00 1.862287640571594238e+00 -2.211606915807351470e-04 -5.739512853324413300e-04 -2.385335974395275116e-04 -4.412743146531283855e-04
9.670000000000000000e+02 5.346083641052246094e+00 1.851797699928283691e+00 -7.707060285611078143e-05 6.636214093305170536e-04 1.759652368491515517e-04 1.418310566805303097e-04
9.680000000000000000e+02 4.633080482482910156e+00 1.856869101524353027e+00 -1.504147803643718362e-04 -5.648412625305354595e-04 -2.145768085028976202e-04 7.010067201917991042e-05
9.690000000000000000e+02 3.919212341308593750e+00 1.867797374725341797e+00 -6.124582341726636514e-06 5.461908294819295406e-04 1.620198745513334870e-04 -2.486713583493838087e-06
9.700000000000000000e+02 3.208999156951904297e+00 1.879032254219055176e+00 -2.023513952735811472e-04 -4.394194111227989197e-04 -1.925312390085309744e-04 1.831609260989353061e-04
9.710000000000000000e+02 2.509196996688842773e+00 1.881721973419189453e+00 6.541155744343996048e-05 3.755171783268451691e-04 1.322786265518516302e-04 2.831450001394841820e-05
9.720000000000000000e+02 1.816420078277587891e+00 1.883793115615844727e+00 -9.432615479454398155e-05 -3.584869264159351587e-04 -1.358439330942928791e-04 1.107946300180628896e-04
9.730000000000000000e+02 1.263414382934570312e+01 1.763652205467224121e+00 2.170461957575753331e-04 9.163292997982352972e-05 9.260373917641118169e-05 -5.203113232710165903e-06
9.740000000000000000e+02 1.331553840637207031e+01 1.739674448966979980e+00 -3.418529231566935778e-04 -1.891971041914075613e-04 -1.593150082044303417e-04 -2.778774360194802284e-04
9.750000000000000000e+02 1.513096523284912109e+01 1.858847618103027344e+00 2.186698548030108213e-04 4.088451096322387457e-04 1.882544893305748701e-04 3.063195326831191778e-04
9.760000000000000000e+02 1.340353202819824219e+01 3.115734100341796875e+00 -7.687914185225963593e-04 7.437798776663839817e-04 -7.503468623326625675e-06 2.693659334909170866e-04
9.770000000000000000e+02 1.475773334503173828e+01 3.609716892242431641e+00 -8.054225472733378410e-04 8.591325240558944643e-06 -2.390493609709665179e-04 -1.288603816647082567e-04
9.780000000000000000e+02 1.405001831054687500e+01 7.561218738555908203e+00 2.447365084663033485e-03 1.714814861770719290e-04 7.856540032662451267e-04 8.535035303793847561e-04
9.790000000000000000e+02 1.351030731201171875e+01 8.823742866516113281e+00 -2.964076586067676544e-03 -1.048604375682771206e-03 -1.203804276883602142e-03 -1.155842794105410576e-03
9.800000000000000000e+02 1.287743568420410156e+01 1.005372810363769531e+01 3.368941135704517365e-03 8.821389637887477875e-04 1.275324029847979546e-03 1.991371158510446548e-03
9.810000000000000000e+02 1.027006053924560547e+01 1.171550941467285156e+01 -1.638336922042071819e-03 -2.950700465589761734e-03 -1.376711181364953518e-03 -2.273681573569774628e-03
9.820000000000000000e+02 9.384608268737792969e+00 1.276872634887695312e+01 9.485848131589591503e-04 5.607580300420522690e-03 1.966849667951464653e-03 2.925862325355410576e-03
9.830000000000000000e+02 8.456395149230957031e+00 1.558495807647705078e+01 -7.352906744927167892e-03 2.762093953788280487e-02 6.080409511923789978e-03 -1.032621227204799652e-02
9.840000000000000000e+02 1.599579620361328125e+01 1.624886894226074219e+01 -8.846769332885742188e-01 -1.502556681632995605e+00 -7.161700725555419922e-01 8.893522024154663086e-01
9.850000000000000000e+02 1.651725769042968750e+01 1.305083179473876953e+01 -6.435394883155822754e-01 -2.022431612014770508e+00 -7.997913360595703125e-01 1.078648328781127930e+00
9.860000000000000000e+02 1.777464294433593750e+01 1.045755577087402344e+01 -4.207363128662109375e-01 -1.966119527816772461e+00 -7.160567641258239746e-01 7.932005524635314941e-01
9.870000000000000000e+02 1.843179893493652344e+01 7.641885280609130859e+00 -1.441203653812408447e-01 -1.514481663703918457e+00 -4.975805878639221191e-01 4.247367382049560547e-01
9.880000000000000000e+02 1.873549842834472656e+01 4.878158092498779297e+00 -6.093541532754898071e-02 -1.024434328079223633e+00 -3.256109356880187988e-01 2.100622653961181641e-01
9.890000000000000000e+02 1.927385902404785156e+01 -3.758811950683593750e+00 -1.248025894165039062e-02 -2.940842881798744202e-02 -1.256660651415586472e-02 1.679301075637340546e-02
9.900000000000000000e+02 2.015363883972167969e+01 -4.002703189849853516e+00 -3.485163301229476929e-02 -3.745314106345176697e-02 -2.169143222272396088e-02 3.716469928622245789e-02
9.910000000000000000e+02 2.095130920410156250e+01 -4.191157341003417969e+00 -5.381544306874275208e-02 -4.534569755196571350e-02 -2.974834293127059937e-02 5.371529608964920044e-02
9.920000000000000000e+02 2.306898498535156250e+01 -4.616050243377685547e+00 -1.421843022108078003e-01 -4.280664399266242981e-02 -5.549728497862815857e-02 1.166669502854347229e-01
9.930000000000000000e+02 2.448182296752929688e+01 -4.767103195190429688e+00 -2.279666960239410400e-01 -3.340667858719825745e-02 -7.841201126575469971e-02 1.472381353378295898e-01
9.940000000000000000e+02 2.519436264038085938e+01 -4.819506168365478516e+00 -2.790013849735260010e-01 -2.908352203667163849e-02 -9.242547303438186646e-02 1.599062383174896240e-01
9.950000000000000000e+02 2.591007232666015625e+01 -4.868003845214843750e+00 -3.328810334205627441e-01 -2.347381040453910828e-02 -1.069064587354660034e-01 1.719378083944320679e-01
9.960000000000000000e+02 2.820370483398437500e+01 -4.251556396484375000e+00 -5.378535985946655273e-01 -1.704878173768520355e-02 -1.664707064628601074e-01 2.645820975303649902e-01
9.970000000000000000e+02 2.808959388732910156e+01 -4.938170433044433594e+00 -5.242852568626403809e-01 -9.747441858053207397e-03 -1.602098047733306885e-01 1.989964395761489868e-01
9.980000000000000000e+02 2.882016944885253906e+01 -4.952996253967285156e+00 -5.956830382347106934e-01 -4.668473266065120697e-03 -1.801054477691650391e-01 2.049963623285293579e-01
9.990000000000000000e+02 3.111705780029296875e+01 -4.256721019744873047e+00 -8.175914287567138672e-01 3.631350351497530937e-03 -2.441880255937576294e-01 2.894560098648071289e-01
1.000000000000000000e+03 3.102857589721679688e+01 -4.945477962493896484e+00 -8.278869986534118652e-01 5.008960608392953873e-03 -2.468634247779846191e-01 2.161886096000671387e-01
1.001000000000000000e+03 3.176750755310058594e+01 -4.936320304870605469e+00 -9.103750586509704590e-01 7.350700441747903824e-03 -2.709073126316070557e-01 2.179090231657028198e-01
1.002000000000000000e+03 3.333093261718750000e+01 -4.209355354309082031e+00 -1.044940114021301270e+00 1.177137717604637146e-02 -3.099506199359893799e-01 2.970205843448638916e-01
1.003000000000000000e+03 3.481891250610351562e+01 -4.167006492614746094e+00 -1.201277136802673340e+00 1.435202080756425858e-02 -3.560775220394134521e-01 2.983998954296112061e-01
1.004000000000000000e+03 3.624042892456054688e+01 -4.824072837829589844e+00 -1.434673905372619629e+00 1.128901448100805283e-02 -4.270154833793640137e-01 2.168475836515426636e-01
1.005000000000000000e+03 3.848957061767578125e+01 -4.760220050811767578e+00 -1.701846837997436523e+00 9.564270265400409698e-03 -5.076847672462463379e-01 2.119557410478591919e-01
1.006000000000000000e+03 3.773917388916015625e+01 -4.780546665191650391e+00 -1.613145351409912109e+00 9.522278793156147003e-03 -4.810869097709655762e-01 2.136351317167282104e-01
1.007000000000000000e+03 3.924023818969726562e+01 -4.740828514099121094e+00 -1.789868235588073730e+00 7.871143519878387451e-03 -5.345991253852844238e-01 2.102500498294830322e-01
1.008000000000000000e+03 4.224598312377929688e+01 -4.669466972351074219e+00 -2.126141786575317383e+00 4.297608509659767151e-03 -6.365532875061035156e-01 2.022884488105773926e-01
1.009000000000000000e+03 4.299789810180664062e+01 -4.654224872589111328e+00 -2.204365730285644531e+00 4.440381191670894623e-03 -6.599776148796081543e-01 1.992452442646026611e-01
1.010000000000000000e+03 4.450234222412109375e+01 -4.626451492309570312e+00 -2.352746248245239258e+00 4.089648835361003876e-03 -7.045969367027282715e-01 1.927967816591262817e-01
1.011000000000000000e+03 4.600592422485351562e+01 -4.604804039001464844e+00 -2.484684467315673828e+00 4.060282837599515915e-03 -7.441872358322143555e-01 1.832342296838760376e-01
1.012000000000000000e+03 4.675813674926757812e+01 -4.594375133514404297e+00 -2.542617797851562500e+00 2.231850521638989449e-03 -7.621157765388488770e-01 1.775827407836914062e-01
1.013000000000000000e+03 4.751055145263671875e+01 -4.586043357849121094e+00 -2.594304800033569336e+00 4.484320990741252899e-03 -7.769461870193481445e-01 1.708312630653381348e-01
1.014000000000000000e+03 4.976464462280273438e+01 -4.570185661315917969e+00 -2.702866792678833008e+00 6.220570765435695648e-03 -8.089938163757324219e-01 1.412784010171890259e-01
1.015000000000000000e+03 5.201549530029296875e+01 -4.576162815093994141e+00 -2.713372945785522461e+00 2.620757929980754852e-02 -8.061496019363403320e-01 8.191735297441482544e-02
1.016000000000000000e+03 5.276494979858398438e+01 -4.584890842437744141e+00 -2.683870315551757812e+00 2.544771879911422729e-02 -7.975267767906188965e-01 5.112718790769577026e-02
1.017000000000000000e+03 5.499131774902343750e+01 -4.634788513183593750e+00 -2.408614158630371094e+00 6.824672222137451172e-02 -7.021102905273437500e-01 -1.010321974754333496e-01
1.018000000000000000e+03 5.572925186157226562e+01 -4.639534950256347656e+00 -2.204495668411254883e+00 1.086675301194190979e-01 -6.287484169006347656e-01 -1.966516822576522827e-01
1.019000000000000000e+03 5.758469772338867188e+01 -4.682155132293701172e+00 -1.354426741600036621e+00 2.942759096622467041e-01 -3.180452287197113037e-01 -7.630428671836853027e-01
1.020000000000000000e+03 5.871803665161132812e+01 -4.655697345733642578e+00 -2.692962288856506348e-01 7.537967562675476074e-01 1.453501433134078979e-01 -1.424642920494079590e+00
1.021000000000000000e+03 5.911914443969726562e+01 -4.639820575714111328e+00 3.129494786262512207e-01 9.953708648681640625e-01 3.924961090087890625e-01 -1.894161581993103027e+00
1.022000000000000000e+03 5.985168457031250000e+01 -4.323668479919433594e+00 1.560672998428344727e+00 2.687901973724365234e+00 1.274572491645812988e+00 -3.470174074172973633e+00
1.023000000000000000e+03 6.022544860839843750e+01 -4.744404792785644531e+00 1.987232089042663574e+00 2.719982385635375977e+00 1.412164330482482910e+00 -3.742062568664550781e+00
1.024000000000000000e+03 6.200854492187500000e+01 -4.647626876831054688e+00 8.165294528007507324e-01 1.611322784423828125e+01 5.078927040100097656e+00 -5.657824516296386719e+00
1.025000000000000000e+03 6.223780059814453125e+01 -4.644630908966064453e+00 5.897068977355957031e-01 1.775439453125000000e+01 5.503230571746826172e+00 -4.630924701690673828e+00
1.026000000000000000e+03 6.179238128662109375e+01 -4.699131011962890625e+00 1.310209751129150391e+00 1.402411746978759766e+01 4.600298404693603516e+00 -6.568641662597656250e+00
1.027000000000000000e+03 6.266432952880859375e+01 -4.785279750823974609e+00 9.600939750671386719e-01 2.034134674072265625e+01 6.390432357788085938e+00 -1.960386157035827637e+00
1.028000000000000000e+03 6.352826690673828125e+01 -5.462708473205566406e+00 6.841812133789062500e+00 1.872027015686035156e+01 7.668624401092529297e+00 2.660226821899414062e+00
1.029000000000000000e+03 6.369343948364257812e+01 -5.860841751098632812e+00 9.454597473144531250e+00 1.722050285339355469e+01 8.002530097961425781e+00 2.147099733352661133e+00
1.030000000000000000e+03 6.375440979003906250e+01 -6.066904544830322266e+00 1.021896648406982422e+01 1.668570709228515625e+01 8.071402549743652344e+00 1.321151256561279297e+00
1.031000000000000000e+03 6.372582244873046875e+01 -6.930667400360107422e+00 9.264352798461914062e+00 1.714985466003417969e+01 7.924262046813964844e+00 -2.045422554016113281e+00
1.032000000000000000e+03 6.362898254394531250e+01 -7.135633468627929688e+00 8.199996948242187500e+00 1.790767288208007812e+01 7.832301139831542969e+00 -2.572144031524658203e+00
1.033000000000000000e+03 6.335202789306640625e+01 -7.462616920471191406e+00 5.565533161163330078e+00 1.972419166564941406e+01 7.586917400360107422e+00 -2.466995716094970703e+00
1.034000000000000000e+03 6.288250732421875000e+01 -7.879297733306884766e+00 1.899800062179565430e+00 2.082700538635253906e+01 6.818041801452636719e+00 2.423635274171829224e-01
1.035000000000000000e+03 5.999607467651367188e+01 -8.050143241882324219e+00 1.584679365158081055e+00 2.150232553482055664e+00 1.120473623275756836e+00 3.149893760681152344e+00
1.036000000000000000e+03 5.917816162109375000e+01 -8.086497306823730469e+00 4.848273694515228271e-01 1.078629970550537109e+00 4.690371751785278320e-01 1.932960271835327148e+00
1.037000000000000000e+03 5.939734268188476562e+01 -8.041807174682617188e+00 8.177810907363891602e-01 1.186413407325744629e+00 6.012583374977111816e-01 2.108356475830078125e+00
1.038000000000000000e+03 5.720183944702148438e+01 -8.204740524291992188e+00 -1.325182318687438965e+00 2.609036564826965332e-01 -3.192835748195648193e-01 6.163949370384216309e-01
1.039000000000000000e+03 5.646011734008789062e+01 -8.185659408569335938e+00 -1.785213112831115723e+00 1.202210038900375366e-01 -4.994976520538330078e-01 3.414428830146789551e-01
1.040000000000000000e+03 5.572766494750976562e+01 -8.194392204284667969e+00 -2.072532892227172852e+00 1.061684340238571167e-01 -5.899093747138977051e-01 1.939195692539215088e-01
1.041000000000000000e+03 5.275682449340820312e+01 -8.237994194030761719e+00 -2.543358325958251953e+00 3.753126412630081177e-02 -7.517480850219726562e-01 -6.649877130985260010e-02
1.042000000000000000e+03 5.350262451171875000e+01 -8.228304862976074219e+00 -2.482436895370483398e+00 5.049446970224380493e-02 -7.295827269554138184e-01 -2.223428897559642792e-02
1.043000000000000000e+03 5.424700927734375000e+01 -8.217958450317382812e+00 -2.387731313705444336e+00 6.186518445611000061e-02 -6.977598667144775391e-01 2.878243848681449890e-02
1.044000000000000000e+03 5.126251220703125000e+01 -8.254349708557128906e+00 -2.602003574371337891e+00 2.476891689002513885e-02 -7.731703519821166992e-01 -1.244244128465652466e-01
1.045000000000000000e+03 4.677835845947265625e+01 -8.301765441894531250e+00 -2.479384660720825195e+00 6.383522879332304001e-03 -7.419003248214721680e-01 -2.009048163890838623e-01
1.046000000000000000e+03 4.752543640136718750e+01 -8.291897773742675781e+00 -2.517252922058105469e+00 7.798464503139257431e-03 -7.528363466262817383e-01 -1.932149231433868408e-01
1.047000000000000000e+03 4.902021408081054688e+01 -8.276028633117675781e+00 -2.577608585357666016e+00 1.236623991280794144e-02 -7.695727348327636719e-01 -1.740017235279083252e-01
1.048000000000000000e+03 4.528357315063476562e+01 -8.324951171875000000e+00 -2.390067100524902344e+00 3.558618016541004181e-03 -7.159525156021118164e-01 -2.112539708614349365e-01
1.049000000000000000e+03 4.453644180297851562e+01 -8.337223052978515625e+00 -2.340693235397338867e+00 1.828289823606610298e-03 -7.016595005989074707e-01 -2.153956443071365356e-01
1.050000000000000000e+03 4.229441070556640625e+01 -8.382994651794433594e+00 -2.180161714553833008e+00 -1.172339776530861855e-03 -6.544002294540405273e-01 -2.243443578481674194e-01
1.051000000000000000e+03 4.233493423461914062e+01 -9.108539581298828125e+00 -1.974277257919311523e+00 2.339298080187290907e-04 -5.922130346298217773e-01 -2.678973376750946045e-01
1.052000000000000000e+03 4.079942703247070312e+01 -8.417365074157714844e+00 -2.065855741500854492e+00 -3.513666102662682533e-03 -6.208108663558959961e-01 -2.280835062265396118e-01
1.053000000000000000e+03 3.930252838134765625e+01 -8.456936836242675781e+00 -1.946875810623168945e+00 -6.560032721608877182e-03 -5.860307812690734863e-01 -2.288647145032882690e-01
1.054000000000000000e+03 3.780444335937500000e+01 -8.498041152954101562e+00 -1.825660943984985352e+00 -9.594671428203582764e-03 -5.505766868591308594e-01 -2.277038991451263428e-01
1.055000000000000000e+03 3.480114364624023438e+01 -8.581431388854980469e+00 -1.576644301414489746e+00 -1.521950121968984604e-02 -4.775591194629669189e-01 -2.178958058357238770e-01
1.056000000000000000e+03 3.630382919311523438e+01 -8.540919303894042969e+00 -1.701511025428771973e+00 -1.327936630696058273e-02 -5.144370794296264648e-01 -2.235512286424636841e-01
1.057000000000000000e+03 3.329351425170898438e+01 -8.617923736572265625e+00 -1.448884129524230957e+00 -1.698310114443302155e-02 -4.397601783275604248e-01 -2.104155123233795166e-01
1.058000000000000000e+03 3.253850936889648438e+01 -8.635464668273925781e+00 -1.384419441223144531e+00 -1.815728098154067993e-02 -4.207729995250701904e-01 -2.068871259689331055e-01
1.059000000000000000e+03 2.949826240539550781e+01 -8.673215866088867188e+00 -1.115849256515502930e+00 -1.592181436717510223e-02 -3.395313322544097900e-01 -1.913497596979141235e-01
1.060000000000000000e+03 2.796391868591308594e+01 -8.654671669006347656e+00 -9.761133790016174316e-01 -1.066395733505487442e-02 -2.960332036018371582e-01 -1.836549490690231323e-01
1.061000000000000000e+03 2.642566299438476562e+01 -8.615051269531250000e+00 -8.304221630096435547e-01 -3.782526124268770218e-03 -2.502613961696624756e-01 -1.790812015533447266e-01
1.062000000000000000e+03 2.253642272949218750e+01 -8.316894531250000000e+00 -4.613015651702880859e-01 1.849323138594627380e-02 -1.328425109386444092e-01 -1.623092591762542725e-01
1.063000000000000000e+03 2.331605148315429688e+01 -8.402812957763671875e+00 -5.345627069473266602e-01 1.677098497748374939e-02 -1.553375124931335449e-01 -1.682229340076446533e-01
1.064000000000000000e+03 2.098991584777832031e+01 -8.080608367919921875e+00 -3.181609213352203369e-01 1.326857972890138626e-02 -9.146770089864730835e-02 -1.401955932378768921e-01
1.065000000000000000e+03 2.022907447814941406e+01 -7.944994926452636719e+00 -2.466583251953125000e-01 5.176893901079893112e-04 -7.384219020605087280e-02 -1.234946027398109436e-01
1.066000000000000000e+03 1.825657081604003906e+01 -7.431098937988281250e+00 -7.902897149324417114e-02 -3.355338796973228455e-02 -3.377470746636390686e-02 -5.819503962993621826e-02
1.067000000000000000e+03 1.816319465637207031e+01 -7.978067874908447266e+00 -1.150084435939788818e-01 -4.451010003685951233e-02 -4.785556346178054810e-02 -9.513947367668151855e-02
1.068000000000000000e+03 6.223572158813476562e+01 -8.469897270202636719e+00 2.938926517963409424e-01 1.626984024047851562e+01 4.969120025634765625e+00 4.313106536865234375e+00
1.069000000000000000e+03 6.281253433227539062e+01 -4.424124717712402344e+00 5.631720423698425293e-01 1.849523735046386719e+01 5.717522621154785156e+00 -1.662168622016906738e+00
1.070000000000000000e+03 6.264619827270507812e+01 -8.365826606750488281e+00 3.670680224895477295e-01 1.810491943359375000e+01 5.541595935821533203e+00 2.548953771591186523e+00
1.071000000000000000e+03 6.305343627929687500e+01 -4.978422164916992188e+00 2.691322803497314453e+00 2.053333091735839844e+01 6.967395782470703125e+00 7.011818289756774902e-01
1.072000000000000000e+03 6.390898513793945312e+01 -7.349356174468994141e+00 6.801387786865234375e+00 1.670477485656738281e+01 7.051848888397216797e+00 -2.350420475006103516e+00
1.073000000000000000e+03 6.410321807861328125e+01 -5.994321823120117188e+00 8.831651687622070312e+00 1.529889202117919922e+01 7.239162921905517578e+00 1.253166794776916504e+00
1.074000000000000000e+03 6.376682662963867188e+01 -6.708275318145751953e+00 1.006354522705078125e+01 1.667810249328613281e+01 8.022494316101074219e+00 -1.353337526321411133e+00
1.075000000000000000e+03 6.348902130126953125e+01 -7.306804180145263672e+00 6.835772514343261719e+00 1.894583892822265625e+01 7.734483718872070312e+00 -2.694383859634399414e+00
1.076000000000000000e+03 6.361760711669921875e+01 -5.659700870513916016e+00 8.259504318237304688e+00 1.800189018249511719e+01 7.878418445587158203e+00 2.654057741165161133e+00
1.077000000000000000e+03 6.415140533447265625e+01 -6.499503612518310547e+00 9.158330917358398438e+00 1.503801631927490234e+01 7.258903980255126953e+00 -3.315685391426086426e-01
1.078000000000000000e+03 6.378946685791015625e+01 -6.491769313812255859e+00 1.061022663116455078e+01 1.633041000366210938e+01 8.082191467285156250e+00 -4.453484416007995605e-01
1.079000000000000000e+03 6.378807449340820312e+01 -6.277159690856933594e+00 1.050280952453613281e+01 1.635085678100585938e+01 8.056099891662597656e+00 5.286297798156738281e-01
1.080000000000000000e+03 6.307038497924804688e+01 -7.766487598419189453e+00 2.972442626953125000e+00 2.078572845458984375e+01 7.127451419830322266e+00 -9.058843255043029785e-01
1.081000000000000000e+03 6.281698989868164062e+01 -8.217479705810546875e+00 8.840884566307067871e-01 1.935618209838867188e+01 6.072081089019775391e+00 1.395841956138610840e+00
1.082000000000000000e+03 6.386851501464843750e+01 -5.310632228851318359e+00 6.152285575866699219e+00 1.704506111145019531e+01 6.959203720092773438e+00 2.447972536087036133e+00
1.083000000000000000e+03 6.393088150024414062e+01 -5.540742874145507812e+00 7.366374015808105469e+00 1.655369949340820312e+01 7.176022052764892578e+00 2.310139656066894531e+00
1.084000000000000000e+03 6.198563385009765625e+01 -8.396627426147460938e+00 6.115250587463378906e-01 1.490612983703613281e+01 4.655296325683593750e+00 5.389418601989746094e+00
1.085000000000000000e+03 6.124304199218750000e+01 -8.212571144104003906e+00 2.303405046463012695e+00 8.784846305847167969e+00 3.326475381851196289e+00 6.433191776275634766e+00
1.086000000000000000e+03 6.061559295654296875e+01 -8.079977035522460938e+00 2.563189744949340820e+00 4.418438911437988281e+00 2.094488620758056641e+00 4.852165222167968750e+00
1.087000000000000000e+03 6.019580841064453125e+01 -8.061999320983886719e+00 1.929578423500061035e+00 2.667540550231933594e+00 1.379135727882385254e+00 3.635363340377807617e+00
1.088000000000000000e+03 5.870347976684570312e+01 -8.152626037597656250e+00 -1.097320243716239929e-01 8.036247491836547852e-01 2.081678062677383423e-01 1.457147598266601562e+00
1.089000000000000000e+03 6.040296173095703125e+01 -8.070841789245605469e+00 2.336489677429199219e+00 3.490581750869750977e+00 1.748121380805969238e+00 4.304362297058105469e+00
1.090000000000000000e+03 5.796376800537109375e+01 -8.195034980773925781e+00 -7.995355725288391113e-01 4.209863543510437012e-01 -1.135647594928741455e-01 9.441573023796081543e-01
1.091000000000000000e+03 5.929688644409179688e+01 -8.332979202270507812e+00 8.163022994995117188e-01 1.397471427917480469e+00 6.641321182250976562e-01 2.350348949432373047e+00
1.092000000000000000e+03 6.176406860351562500e+01 -8.340437889099121094e+00 1.143221735954284668e+00 1.338063621520996094e+01 4.357157230377197266e+00 6.060555458068847656e+00
1.093000000000000000e+03 5.936645889282226562e+01 -4.637822628021240234e+00 6.681933403015136719e-01 1.301529288291931152e+00 5.909168124198913574e-01 -2.173318862915039062e+00
1.094000000000000000e+03 5.959617614746093750e+01 -4.659476757049560547e+00 1.002264142036437988e+00 1.516475558280944824e+00 7.556219100952148438e-01 -2.484360933303833008e+00
1.095000000000000000e+03 5.981565475463867188e+01 -4.692485809326171875e+00 1.329198956489562988e+00 1.900575995445251465e+00 9.689325094223022461e-01 -2.865904569625854492e+00
1.096000000000000000e+03 6.042160034179687500e+01 -4.761118412017822266e+00 2.269955158233642578e+00 3.302302122116088867e+00 1.671677112579345703e+00 -4.227859020233154297e+00
1.097000000000000000e+03 6.060532379150390625e+01 -4.523478984832763672e+00 2.324580192565917969e+00 4.762927055358886719e+00 2.126252174377441406e+00 -4.980624675750732422e+00
1.098000000000000000e+03 6.102523803710937500e+01 -4.754585742950439453e+00 2.810354471206665039e+00 6.651337146759033203e+00 2.838507652282714844e+00 -6.036798954010009766e+00
1.099000000000000000e+03 6.026652145385742188e+01 -4.468705654144287109e+00 1.995884418487548828e+00 3.483445644378662109e+00 1.643799066543579102e+00 -4.163336277008056641e+00
1.100000000000000000e+03 6.044135665893554688e+01 -4.526725292205810547e+00 2.155824899673461914e+00 4.055726528167724609e+00 1.863465428352355957e+00 -4.544980525970458984e+00
1.101000000000000000e+03 6.006970596313476562e+01 -4.403244018554687500e+00 1.790868639945983887e+00 3.100430727005004883e+00 1.467389822006225586e+00 -3.822384357452392578e+00
1.102000000000000000e+03 6.133179855346679688e+01 -4.489653587341308594e+00 1.846330642700195312e+00 9.691221237182617188e+00 3.461265563964843750e+00 -6.345046997070312500e+00
1.103000000000000000e+03 6.245941162109375000e+01 -4.710351943969726562e+00 6.683779358863830566e-01 1.931033706665039062e+01 5.993614673614501953e+00 -3.346991062164306641e+00
1.104000000000000000e+03 1.452312088012695312e+01 1.738954901695251465e+00 2.014811616390943527e-05 -1.729438081383705139e-04 -4.583870759233832359e-05 -4.721737786894664168e-05
1.105000000000000000e+03 1.463348674774169922e+01 2.563126802444458008e+00 2.263507340103387833e-04 -4.414742288645356894e-04 -6.453705282183364034e-05 -1.353703992208465934e-04
1.106000000000000000e+03 1.188634395599365234e+01 1.797622919082641602e+00 -4.740744188893586397e-04 -1.730937037791591138e-05 -1.474151358706876636e-04 -2.833294274751096964e-04
1.107000000000000000e+03 5.702500915527343750e+01 -4.204386234283447266e+00 -1.107130765914916992e+00 4.202077984809875488e-01 -2.060768753290176392e-01 -7.667197585105895996e-01
1.108000000000000000e+03 5.816027832031250000e+01 -4.672462463378906250e+00 -9.215672016143798828e-01 3.943180739879608154e-01 -1.581747382879257202e-01 -9.809873104095458984e-01
1.109000000000000000e+03 5.700593948364257812e+01 -4.664468765258789062e+00 -1.623229861259460449e+00 2.211306244134902954e-01 -4.206297695636749268e-01 -5.016132593154907227e-01
1.110000000000000000e+03 5.731630325317382812e+01 -3.860936403274536133e+00 -5.373845100402832031e-01 6.089232563972473145e-01 2.146163955330848694e-02 -1.142958760261535645e+00
1.111000000000000000e+03 5.752146530151367188e+01 -4.268504142761230469e+00 -8.055691123008728027e-01 4.365457296371459961e-01 -1.107070073485374451e-01 -9.467862248420715332e-01
1.112000000000000000e+03 5.803323745727539062e+01 -4.217348575592041016e+00 -3.982160985469818115e-01 6.515107154846191406e-01 7.598838955163955688e-02 -1.320210337638854980e+00
1.113000000000000000e+03 1.446697521209716797e+01 -3.373764991760253906e+00 -3.368817851878702641e-05 1.589261664776131511e-04 3.757139711524359882e-05 -2.739853334787767380e-05
1.114000000000000000e+03 1.384835529327392578e+01 -2.963252305984497070e+00 1.105110350181348622e-04 -1.075984546332620084e-04 8.737757752896868624e-07 -2.927136301877908409e-05
1.115000000000000000e+03 1.843358612060546875e+01 -9.100794792175292969e+00 -2.092095911502838135e-01 -8.013919740915298462e-02 -8.680463582277297974e-02 -1.805472075939178467e-01
1.116000000000000000e+03 3.893342733383178711e+00 3.339213848114013672e+00 3.144008223898708820e-05 6.410510395653545856e-04 2.017473307205364108e-04 5.797935500595485792e-06
1.117000000000000000e+03 9.523627281188964844e+00 2.620226621627807617e+00 -3.326608275528997183e-04 -5.577835254371166229e-04 -2.671333204489201307e-04 -7.052128203213214874e-04
1.118000000000000000e+03 7.367929458618164062e+00 2.597655057907104492e+00 6.403301995305810124e-06 8.265352807939052582e-04 2.498815883882343769e-04 4.873579891864210367e-04
1.119000000000000000e+03 6.765974044799804688e+00 1.857071757316589355e+00 -6.465012120315805078e-05 6.720755482092499733e-04 1.822276244638487697e-04 3.427630581427365541e-04
1.120000000000000000e+03 6.671905517578125000e+00 2.580086469650268555e+00 -6.592374120373278856e-05 -7.359149167314171791e-04 -2.405515842838212848e-04 -3.718388325069099665e-04
1.121000000000000000e+03 7.938562870025634766e+00 3.385262250900268555e+00 1.288250496145337820e-04 9.881221922114491463e-04 3.350841579958796501e-04 5.581164732575416565e-04
1.122000000000000000e+03 5.747437953948974609e+00 3.984448909759521484e+00 -9.197803592542186379e-05 9.557111188769340515e-04 2.591199299786239862e-04 1.387881347909569740e-04
1.123000000000000000e+03 1.864844799041748047e+00 7.661162853240966797e+00 8.051939075812697411e-04 1.857307688624132425e-05 2.471301122568547726e-04 -1.686101750237867236e-04
1.124000000000000000e+03 3.970485925674438477e-01 3.783344507217407227e+00 2.651042887009680271e-04 -1.054591994034126401e-04 4.789352533407509327e-05 1.271758228540420532e-04
1.125000000000000000e+03 1.862688183784484863e+00 2.625081539154052734e+00 8.003482071217149496e-05 2.301485947100445628e-04 9.305502317147329450e-05 1.262830774066969752e-04
1.126000000000000000e+03 6.951735019683837891e-01 3.027974843978881836e+00 -1.209534730151062831e-06 -1.892914156087499578e-06 -9.307346431342011783e-07 -2.146920887753367424e-04
1.127000000000000000e+03 1.112879848480224609e+01 1.829122066497802734e+00 3.083237388636916876e-04 1.246161700692027807e-04 1.298819697694852948e-04 3.075310378335416317e-04
1.128000000000000000e+03 8.660136222839355469e+00 3.392739057540893555e+00 -2.240086178062483668e-04 -8.334938902407884598e-04 -3.172507567796856165e-04 -6.793164648115634918e-04
1.129000000000000000e+03 2.663127517700195312e+01 -4.901883125305175781e+00 -3.920855224132537842e-01 -1.948928833007812500e-02 -1.234724447131156921e-01 1.818093955516815186e-01
1.130000000000000000e+03 2.556232070922851562e+01 -2.787613630294799805e+00 -3.322173357009887695e-01 -8.410994708538055420e-02 -1.248981878161430359e-01 3.179373741149902344e-01
1.131000000000000000e+03 2.328877639770507812e+01 -3.971616268157958984e+00 -1.718052327632904053e-01 -6.486871838569641113e-02 -7.100218534469604492e-02 1.610930711030960083e-01
1.132000000000000000e+03 2.533998680114746094e+01 -4.150707244873046875e+00 -3.033573031425476074e-01 -4.413898289203643799e-02 -1.042488813400268555e-01 2.133552879095077515e-01
1.133000000000000000e+03 2.396264839172363281e+01 -4.059782505035400391e+00 -2.106538414955139160e-01 -5.714428424835205078e-02 -8.033943921327590942e-02 1.795481443405151367e-01
1.134000000000000000e+03 2.348931503295898438e+01 -3.367348432540893555e+00 -1.929019242525100708e-01 -8.645896613597869873e-02 -8.380826562643051147e-02 2.054164707660675049e-01
1.135000000000000000e+03 2.236452102661132812e+01 -4.488323688507080078e+00 -1.086417064070701599e-01 -4.706793278455734253e-02 -4.671289026737213135e-02 9.824518859386444092e-02
1.136000000000000000e+03 1.917975616455078125e+01 -2.561949491500854492e+00 -9.480943903326988220e-03 -5.527263879776000977e-02 -1.942607387900352478e-02 3.480437397956848145e-02
1.137000000000000000e+03 2.261644744873046875e+01 -3.826241016387939453e+00 -1.341857165098190308e-01 -7.248158752918243408e-02 -6.200018897652626038e-02 1.428624689579010010e-01
1.138000000000000000e+03 2.955330848693847656e+01 -4.958062171936035156e+00 -6.702030301094055176e-01 -1.047355239279568195e-03 -2.013751119375228882e-01 2.092939168214797974e-01
1.139000000000000000e+03 2.675807189941406250e+01 -4.211082935333251953e+00 -4.129007756710052490e-01 -3.096092492341995239e-02 -1.331585198640823364e-01 2.429786920547485352e-01
1.140000000000000000e+03 2.840758132934570312e+01 -2.905061244964599609e+00 -5.463968515396118164e-01 -3.660769015550613403e-02 -1.749013513326644897e-01 3.820239007472991943e-01
1.141000000000000000e+03 2.747863197326660156e+01 -4.233640193939208984e+00 -4.736126363277435303e-01 -2.454159781336784363e-02 -1.494462788105010986e-01 2.543427348136901855e-01
1.142000000000000000e+03 3.250920867919921875e+01 -4.922616481781005859e+00 -9.943661689758300781e-01 9.227186441421508789e-03 -2.955417037010192871e-01 2.186192721128463745e-01
1.143000000000000000e+03 2.975115394592285156e+01 -3.588356018066406250e+00 -6.703923344612121582e-01 -1.114615611732006073e-02 -2.044615447521209717e-01 3.429975807666778564e-01
1.144000000000000000e+03 3.205601501464843750e+01 -2.184936046600341797e+00 -8.071768283843994141e-01 7.477941107936203480e-04 -2.419287115335464478e-01 4.764522314071655273e-01
1.145000000000000000e+03 2.965628814697265625e+01 -4.268749713897705078e+00 -6.734722852706909180e-01 -5.181565880775451660e-03 -2.035961598157882690e-01 2.795378863811492920e-01
1.146000000000000000e+03 1.346245098114013672e+01 -4.838006019592285156e+00 1.244340091943740845e-04 -3.359585434736800380e-06 3.632232619565911591e-05 1.427079132554354146e-05
1.147000000000000000e+03 1.286959743499755859e+01 -5.959343910217285156e+00 -6.826112075941637158e-05 -3.325576835777610540e-05 -3.045506673515774310e-05 -2.516200765967369080e-05
1.148000000000000000e+03 8.157649040222167969e+00 -2.564540386199951172e+00 -9.060575393959879875e-05 -8.435275958618149161e-05 -5.248755405773408711e-05 -1.925124088302254677e-04
1.149000000000000000e+03 3.258917617797851562e+01 -4.228192329406738281e+00 -9.679969549179077148e-01 9.694358333945274353e-03 -2.874907851219177246e-01 2.954161763191223145e-01
1.150000000000000000e+03 3.549170684814453125e+01 -4.846002101898193359e+00 -1.345055460929870605e+00 1.202043518424034119e-02 -3.999105095863342285e-01 2.174818217754364014e-01
1.151000000000000000e+03 3.346308898925781250e+01 -2.828661918640136719e+00 -9.605321288108825684e-01 1.224803831428289413e-02 -2.844852209091186523e-01 4.284097850322723389e-01
1.152000000000000000e+03 3.407436752319335938e+01 -4.188860416412353516e+00 -1.123013734817504883e+00 1.313833612948656082e-02 -3.329626321792602539e-01 2.980885803699493408e-01
1.153000000000000000e+03 4.378927612304687500e+01 -8.351342201232910156e+00 -2.289372205734252930e+00 1.157477032393217087e-03 -6.864644289016723633e-01 -2.195308357477188110e-01
1.154000000000000000e+03 4.457505035400390625e+01 -9.059893608093261719e+00 -2.095235586166381836e+00 7.116313092410564423e-03 -6.264358162879943848e-01 -2.524417936801910400e-01
1.155000000000000000e+03 4.460737228393554688e+01 -9.779104232788085938e+00 -1.856472969055175781e+00 1.423273514956235886e-02 -5.526720881462097168e-01 -2.740841507911682129e-01
1.156000000000000000e+03 4.681371688842773438e+01 -9.021150588989257812e+00 -2.182704925537109375e+00 1.446162257343530655e-02 -6.504729986190795898e-01 -2.250911146402359009e-01
1.157000000000000000e+03 4.311467742919921875e+01 -9.813272476196289062e+00 -1.803977966308593750e+00 7.607182953506708145e-03 -5.389112234115600586e-01 -2.928155660629272461e-01
1.158000000000000000e+03 4.165203857421875000e+01 -1.057112884521484375e+01 -1.551183581352233887e+00 8.642936125397682190e-03 -4.627622067928314209e-01 -3.323326706886291504e-01
1.159000000000000000e+03 4.005104827880859375e+01 -8.437056541442871094e+00 -2.006912708282470703e+00 -5.740533117204904556e-03 -6.037959456443786621e-01 -2.280292212963104248e-01
1.160000000000000000e+03 4.158879852294921875e+01 -9.126230239868164062e+00 -1.928824305534362793e+00 -8.155715186148881912e-04 -5.788919329643249512e-01 -2.721270620822906494e-01
1.161000000000000000e+03 4.907402038574218750e+01 -9.708353042602539062e+00 -1.868193984031677246e+00 5.342414975166320801e-02 -5.444309115409851074e-01 -1.592254787683486938e-01
1.162000000000000000e+03 4.905093765258789062e+01 -8.991712570190429688e+00 -2.213750600814819336e+00 2.832643501460552216e-02 -6.556272506713867188e-01 -1.786444932222366333e-01
1.163000000000000000e+03 4.827258682250976562e+01 -8.283794403076171875e+00 -2.550909519195556641e+00 1.043689064681529999e-02 -7.621418237686157227e-01 -1.844356507062911987e-01
1.164000000000000000e+03 4.755935287475585938e+01 -9.010216712951660156e+00 -2.201035737991333008e+00 1.876362413167953491e-02 -6.546816229820251465e-01 -2.127075940370559692e-01
1.165000000000000000e+03 4.009375762939453125e+01 -9.165828704833984375e+00 -1.832202672958374023e+00 -5.022109020501375198e-03 -5.511674284934997559e-01 -2.772718369960784912e-01
1.166000000000000000e+03 4.088017654418945312e+01 -9.871260643005371094e+00 -1.699927806854248047e+00 -4.000998160336166620e-04 -5.100983977317810059e-01 -3.122458755970001221e-01
1.167000000000000000e+03 3.934450912475585938e+01 -9.186695098876953125e+00 -1.781510591506958008e+00 -8.209759369492530823e-03 -5.369160771369934082e-01 -2.779797613620758057e-01
1.168000000000000000e+03 3.705404663085937500e+01 -8.519595146179199219e+00 -1.764034628868103027e+00 -1.237821392714977264e-02 -5.329238772392272949e-01 -2.255814671516418457e-01
1.169000000000000000e+03 3.859557342529296875e+01 -9.208185195922851562e+00 -1.729819178581237793e+00 -9.429830126464366913e-03 -5.217747092247009277e-01 -2.794230878353118896e-01
1.170000000000000000e+03 5.206138229370117188e+01 -9.641237258911132812e+00 -1.659677505493164062e+00 1.295225471258163452e-01 -4.590465128421783447e-01 4.090746864676475525e-02
1.171000000000000000e+03 5.051470947265625000e+01 -8.260747909545898438e+00 -2.604275465011596680e+00 1.968997903168201447e-02 -7.753756642341613770e-01 -1.440970748662948608e-01
1.172000000000000000e+03 5.054325485229492188e+01 -8.970865249633789062e+00 -2.186553478240966797e+00 4.495869949460029602e-02 -6.424784064292907715e-01 -1.274526119232177734e-01
1.173000000000000000e+03 4.979775238037109375e+01 -8.981941223144531250e+00 -2.204952239990234375e+00 3.489349782466888428e-02 -6.510176062583923340e-01 -1.548404246568679810e-01
1.174000000000000000e+03 5.278080749511718750e+01 -8.924042701721191406e+00 -2.026499509811401367e+00 8.624485880136489868e-02 -5.820763707160949707e-01 1.159120723605155945e-02
1.175000000000000000e+03 5.352147674560546875e+01 -8.901144981384277344e+00 -1.927366614341735840e+00 1.089881435036659241e-01 -5.455135107040405273e-01 7.773061841726303101e-02
1.176000000000000000e+03 5.569363403320312500e+01 -9.462744712829589844e+00 -8.532069921493530273e-01 4.366720020771026611e-01 -1.249604895710945129e-01 6.885879039764404297e-01
1.177000000000000000e+03 5.570448684692382812e+01 -8.817290306091308594e+00 -1.395156264305114746e+00 2.401599436998367310e-01 -3.464989066123962402e-01 4.236599504947662354e-01
1.178000000000000000e+03 5.747126770019531250e+01 -9.040387153625488281e+00 -2.621708810329437256e-01 7.085337638854980469e-01 1.339088529348373413e-01 1.291297316551208496e+00
1.179000000000000000e+03 5.639651107788085938e+01 -8.788550376892089844e+00 -1.121864438056945801e+00 2.890180945396423340e-01 -2.498538941144943237e-01 6.146349906921386719e-01
1.180000000000000000e+03 3.556427001953125000e+01 -4.144406318664550781e+00 -1.279878139495849609e+00 1.462637074291706085e-02 -3.795755207538604736e-01 2.984127998352050781e-01
1.181000000000000000e+03 3.562846374511718750e+01 -3.445290565490722656e+00 -1.210598230361938477e+00 1.744045503437519073e-02 -3.579473197460174561e-01 3.690929710865020752e-01
1.182000000000000000e+03 3.631170654296875000e+01 -4.121359825134277344e+00 -1.358036994934082031e+00 1.487646996974945068e-02 -4.029481410980224609e-01 2.973963618278503418e-01
1.183000000000000000e+03 3.788107681274414062e+01 -9.962458610534667969e+00 -1.529592871665954590e+00 -1.273352373391389847e-02 -4.626979231834411621e-01 -3.232598006725311279e-01
1.184000000000000000e+03 3.634322738647460938e+01 -9.273837089538574219e+00 -1.568552255630493164e+00 -1.754820719361305237e-02 -4.758301377296447754e-01 -2.770726382732391357e-01
1.185000000000000000e+03 3.404767608642578125e+01 -8.599775314331054688e+00 -1.513905405998229980e+00 -1.689202152192592621e-02 -4.592392146587371826e-01 -2.140653133392333984e-01
1.186000000000000000e+03 3.483907318115234375e+01 -9.313077926635742188e+00 -1.458291530609130859e+00 -2.044880203902721405e-02 -4.436221122741699219e-01 -2.727619409561157227e-01
1.187000000000000000e+03 5.429362487792968750e+01 -4.063961029052734375e+00 -2.020701169967651367e+00 1.051709055900573730e-01 -5.746590495109558105e-01 -1.482047885656356812e-01
1.188000000000000000e+03 5.500516510009765625e+01 -4.122246265411376953e+00 -1.894082903861999512e+00 1.401364356279373169e-01 -5.261839628219604492e-01 -2.400099784135818481e-01
1.189000000000000000e+03 5.642141342163085938e+01 -4.123257637023925781e+00 -1.300852179527282715e+00 2.680706381797790527e-01 -3.098344802856445312e-01 -6.097786426544189453e-01
1.190000000000000000e+03 5.571520233154296875e+01 -4.141323089599609375e+00 -1.644720911979675293e+00 2.087631970643997192e-01 -4.307872951030731201e-01 -3.878270685672760010e-01
1.191000000000000000e+03 4.833129119873046875e+01 -3.887759208679199219e+00 -2.305348873138427734e+00 1.810147613286972046e-02 -6.861742138862609863e-01 1.891739219427108765e-01
1.192000000000000000e+03 4.901292800903320312e+01 -4.574311733245849609e+00 -2.675888776779174805e+00 6.971720606088638306e-03 -8.006751537322998047e-01 1.528178453445434570e-01
1.193000000000000000e+03 5.133338165283203125e+01 -3.907298803329467773e+00 -2.279996871948242188e+00 4.585260152816772461e-02 -6.702433228492736816e-01 8.077916502952575684e-02
1.194000000000000000e+03 5.208238601684570312e+01 -3.926066398620605469e+00 -2.238814592361450195e+00 5.801572278141975403e-02 -6.542396545410156250e-01 3.980623185634613037e-02
1.195000000000000000e+03 5.283259201049804688e+01 -3.955190181732177734e+00 -2.186047077178955078e+00 7.370370626449584961e-02 -6.337030529975891113e-01 -1.628496125340461731e-02
1.196000000000000000e+03 4.074235534667968750e+01 -4.702248096466064453e+00 -1.961236238479614258e+00 5.483144894242286682e-03 -5.867258906364440918e-01 2.061324417591094971e-01
1.197000000000000000e+03 3.781010437011718750e+01 -4.076538085937500000e+00 -1.513400793075561523e+00 1.404702384024858475e-02 -4.498061239719390869e-01 2.941712141036987305e-01
1.198000000000000000e+03 4.149424743652343750e+01 -4.684948921203613281e+00 -2.045157194137573242e+00 5.885703489184379578e-03 -6.117814183235168457e-01 2.042809426784515381e-01
1.199000000000000000e+03 4.005955505371093750e+01 -4.018294811248779297e+00 -1.738212823867797852e+00 1.107709109783172607e-02 -5.181407332420349121e-01 2.854322195053100586e-01
1.200000000000000000e+03 3.856094741821289062e+01 -4.056087493896484375e+00 -1.590093851089477539e+00 1.287145074456930161e-02 -4.731667041778564453e-01 2.917408943176269531e-01
1.201000000000000000e+03 4.758055877685546875e+01 -3.892340421676635742e+00 -2.284336090087890625e+00 1.333051081746816635e-02 -6.813016533851623535e-01 2.061760127544403076e-01
1.202000000000000000e+03 4.983267974853515625e+01 -3.887173652648925781e+00 -2.316936969757080078e+00 2.734157070517539978e-02 -6.868786215782165527e-01 1.452295184135437012e-01
1.203000000000000000e+03 4.381889724731445312e+01 -3.939878225326538086e+00 -2.067315101623535156e+00 9.811236523091793060e-03 -6.172511577606201172e-01 2.603763341903686523e-01
1.204000000000000000e+03 3.931040954589843750e+01 -4.037102222442626953e+00 -1.665090680122375488e+00 1.257028616964817047e-02 -4.957561194896697998e-01 2.888559401035308838e-01
1.205000000000000000e+03 4.231560516357421875e+01 -3.967905521392822266e+00 -1.944954156875610352e+00 9.909273125231266022e-03 -5.805134773254394531e-01 2.726234495639801025e-01
1.206000000000000000e+03 4.306693267822265625e+01 -3.953491926193237305e+00 -2.008334636688232422e+00 9.157978929579257965e-03 -5.997529625892639160e-01 2.671890854835510254e-01
1.207000000000000000e+03 4.532490539550781250e+01 -3.917718887329101562e+00 -2.173053979873657227e+00 1.149407960474491119e-02 -6.484679579734802246e-01 2.433297336101531982e-01
1.208000000000000000e+03 4.682727813720703125e+01 -3.899197101593017578e+00 -2.254435300827026367e+00 1.339760422706604004e-02 -6.723113059997558594e-01 2.202681452035903931e-01
1.209000000000000000e+03 4.457255554199218750e+01 -3.928005695343017578e+00 -2.122938156127929688e+00 9.473529644310474396e-03 -6.340394020080566406e-01 2.525660991668701172e-01
1.210000000000000000e+03 3.178082847595214844e+01 -8.648961067199707031e+00 -1.318798661231994629e+00 -1.676495559513568878e-02 -4.006690979003906250e-01 -2.030742019414901733e-01
1.211000000000000000e+03 3.257243728637695312e+01 -9.366365432739257812e+00 -1.285967946052551270e+00 -2.164087258279323578e-02 -3.922826647758483887e-01 -2.647030055522918701e-01
1.212000000000000000e+03 3.408556747436523438e+01 -9.331265449523925781e+00 -1.401259422302246094e+00 -2.069386839866638184e-02 -4.265860021114349365e-01 -2.701067626476287842e-01
1.213000000000000000e+03 8.788498878479003906e+00 2.618598699569702148e+00 1.499704958405345678e-04 7.203464629128575325e-04 2.610950905364006758e-04 5.635187844745814800e-04
1.214000000000000000e+03 1.360184288024902344e+01 3.923448801040649414e+00 1.260979683138430119e-03 -2.817658532876521349e-04 2.937641402240842581e-04 4.948562127538025379e-04
1.215000000000000000e+03 1.257353878021240234e+01 2.536861658096313477e+00 -6.968696252442896366e-04 9.085364581551402807e-05 -1.818048040149733424e-04 -1.658026740187779069e-04
1.216000000000000000e+03 1.104893398284912109e+01 2.597684860229492188e+00 -5.803154199384152889e-04 -2.565420872997492552e-04 -2.510572376195341349e-04 -6.826125318184494972e-04
1.217000000000000000e+03 2.951816177368164062e+01 -9.412533760070800781e+00 -1.045485496520996094e+00 -1.783565059304237366e-02 -3.189963698387145996e-01 -2.539797425270080566e-01
1.218000000000000000e+03 3.028620910644531250e+01 -9.405757904052734375e+00 -1.107097506523132324e+00 -2.047100290656089783e-02 -3.382705748081207275e-01 -2.563099861145019531e-01
1.219000000000000000e+03 3.102087211608886719e+01 -8.658450126647949219e+00 -1.253046751022338867e+00 -1.723423041403293610e-02 -3.810842931270599365e-01 -1.980732083320617676e-01
1.220000000000000000e+03 3.105045890808105469e+01 -9.394742965698242188e+00 -1.167125105857849121e+00 -2.092749252915382385e-02 -3.564157783985137939e-01 -2.589252591133117676e-01
1.221000000000000000e+03 3.333011245727539062e+01 -9.349215507507324219e+00 -1.344614148139953613e+00 -2.206220850348472595e-02 -4.100029170513153076e-01 -2.673164010047912598e-01
1.222000000000000000e+03 8.079994201660156250e+00 -1.847868561744689941e+00 3.470058118182350881e-06 1.146826689364388585e-04 3.544581704773008823e-05 2.037589729297906160e-04
1.223000000000000000e+03 1.254031467437744141e+01 -3.691690683364868164e+00 8.173605601768940687e-05 1.331985404249280691e-04 6.448038038797676563e-05 5.346710895537398756e-05
1.224000000000000000e+03 7.414486408233642578e+00 -2.587965250015258789e+00 1.697787956800311804e-05 1.078302884707227349e-04 3.744244895642623305e-05 2.364812971791252494e-04
1.225000000000000000e+03 1.174238014221191406e+01 -5.609673023223876953e+00 4.791844548890367150e-05 -1.484496460761874914e-04 -3.015935908479150385e-05 1.143520057667046785e-04
1.226000000000000000e+03 7.478171825408935547e+00 -4.768305778503417969e+00 -3.093529667239636183e-04 4.949679132550954819e-04 5.568447886616922915e-05 -2.098503173328936100e-04
1.227000000000000000e+03 6.561868190765380859e+00 -1.867304205894470215e+00 -3.952058978029526770e-05 1.003751167445443571e-04 1.825635808927472681e-05 1.815742580220103264e-04
1.228000000000000000e+03 6.658829212188720703e+00 -2.604198694229125977e+00 -6.135047442512586713e-05 -6.507055513793602586e-05 -3.792631105170585215e-05 -1.989916345337405801e-04
1.229000000000000000e+03 5.160446166992187500e+00 -2.682258605957031250e+00 -4.394457937451079488e-05 -7.308653584914281964e-05 -3.510933311190456152e-05 -2.296139282407239079e-04
1.230000000000000000e+03 1.665234208106994629e+00 -7.932022094726562500e+00 -3.964702773373574018e-04 8.188103674910962582e-05 -9.437676635570824146e-05 -7.271781942108646035e-05
1.231000000000000000e+03 3.920373916625976562e+00 -3.725585699081420898e+00 6.603419751627370715e-05 1.621346455067396164e-04 6.845065217930823565e-05 2.390283480053767562e-04
1.232000000000000000e+03 1.631366968154907227e+00 -6.605433940887451172e+00 5.121222347952425480e-04 -1.158751038019545376e-04 1.188741371151991189e-04 1.458139158785343170e-04
1.233000000000000000e+03 5.007079243659973145e-01 -3.606043815612792969e+00 -2.581904409453272820e-04 -9.197589679388329387e-05 -1.050499049597419798e-04 -1.031742649502120912e-04
1.234000000000000000e+03 4.020535945892333984e-01 -2.191886186599731445e+00 1.689394557615742087e-04 -2.717398092499934137e-05 4.252964208717457950e-05 4.318782521295361221e-05
1.235000000000000000e+03 5.586308240890502930e-01 -5.062626361846923828e+00 3.958304005209356546e-04 -1.957664644578471780e-04 6.001918154652230442e-05 4.194340363028459251e-05
1.236000000000000000e+03 2.487440109252929688e+01 -8.522097587585449219e+00 -6.825854182243347168e-01 7.035730872303247452e-03 -2.026649117469787598e-01 -1.738433986902236938e-01
1.237000000000000000e+03 2.642859077453613281e+01 -9.356750488281250000e+00 -7.981265783309936523e-01 -2.586283953860402107e-03 -2.402138561010360718e-01 -2.448337674140930176e-01
1.238000000000000000e+03 2.797434425354003906e+01 -9.401695251464843750e+00 -9.217627048492431641e-01 -1.176801975816488266e-02 -2.800592184066772461e-01 -2.496837377548217773e-01
1.239000000000000000e+03 2.873238372802734375e+01 -8.669203758239746094e+00 -1.046142458915710449e+00 -1.264051534235477448e-02 -3.176348805427551270e-01 -1.878541260957717896e-01
1.240000000000000000e+03 2.565104866027832031e+01 -9.321753501892089844e+00 -7.351896166801452637e-01 2.479109214618802071e-03 -2.198131531476974487e-01 -2.428523600101470947e-01
1.241000000000000000e+03 2.329139137268066406e+01 -9.179850578308105469e+00 -5.504558682441711426e-01 1.824663020670413971e-02 -1.596627682447433472e-01 -2.326063960790634155e-01
1.242000000000000000e+03 2.000196456909179688e+01 -9.683448791503906250e+00 -3.468369543552398682e-01 -2.796253748238086700e-02 -1.124398484826087952e-01 -2.455266267061233521e-01
1.243000000000000000e+03 2.013228797912597656e+01 -8.782146453857421875e+00 -3.018072843551635742e-01 -1.046400796622037888e-02 -9.368139505386352539e-02 -1.847239881753921509e-01
1.244000000000000000e+03 2.249488258361816406e+01 -9.114295005798339844e+00 -4.881465137004852295e-01 1.852457970380783081e-02 -1.408865749835968018e-01 -2.271897643804550171e-01
1.245000000000000000e+03 2.486874389648437500e+01 -9.279839515686035156e+00 -6.733196973800659180e-01 9.107558988034725189e-03 -1.992636322975158691e-01 -2.401477247476577759e-01
1.246000000000000000e+03 2.565168952941894531e+01 -8.576694488525390625e+00 -7.566938400268554688e-01 1.852510147728025913e-03 -2.264523953199386597e-01 -1.764599084854125977e-01
1.247000000000000000e+03 2.408237838745117188e+01 -9.233018875122070312e+00 -6.114030480384826660e-01 1.424794644117355347e-02 -1.791465282440185547e-01 -2.374940514564514160e-01
1.248000000000000000e+03 2.720223617553710938e+01 -9.383304595947265625e+00 -8.603613376617431641e-01 -8.113386109471321106e-03 -2.605424225330352783e-01 -2.474460303783416748e-01
1.249000000000000000e+03 2.194672775268554688e+01 -3.628727436065673828e+00 -1.030766144394874573e-01 -8.053044229745864868e-02 -5.508211627602577209e-02 1.234093084931373596e-01
1.250000000000000000e+03 2.053985023498535156e+01 -3.167567491531372070e+00 -4.440476745367050171e-02 -7.675560563802719116e-02 -3.634811192750930786e-02 6.881402432918548584e-02
1.251000000000000000e+03 1.231993103027343750e+01 -1.935613822937011719e+01 -3.355032801628112793e-01 -4.167837202548980713e-01 -2.256861031055450439e-01 -3.066168725490570068e-01
1.252000000000000000e+03 3.619367361068725586e+00 -1.966742324829101562e+01 -5.706037953495979309e-02 -5.941594019532203674e-02 -3.494289517402648926e-02 -6.474497169256210327e-02
1.253000000000000000e+03 1.275642299652099609e+01 1.936179161071777344e+01 -7.721374630928039551e-01 -9.854493737220764160e-01 -5.272760391235351562e-01 7.272920012474060059e-01
1.254000000000000000e+03 8.998961448669433594e+00 2.045054054260253906e+01 -5.357092618942260742e-01 -3.119008243083953857e-01 -2.542830109596252441e-01 5.185155868530273438e-01
1.255000000000000000e+03 1.972269439697265625e+01 7.728449344635009766e+00 -2.776779234409332275e-01 -1.199769973754882812e+00 -4.432343542575836182e-01 5.823836326599121094e-01
1.256000000000000000e+03 1.963980484008789062e+01 9.366328239440917969e+00 -4.433020949363708496e-01 -1.263614296913146973e+00 -5.120748877525329590e-01 6.821562647819519043e-01
1.257000000000000000e+03 1.396945571899414062e+01 1.842764091491699219e+01 -8.712939023971557617e-01 -1.153304934501647949e+00 -6.073796749114990234e-01 8.147937059402465820e-01
1.258000000000000000e+03 1.404692554473876953e+01 1.646611404418945312e+01 -1.278544068336486816e+00 -1.394588351249694824e+00 -8.019397258758544922e-01 1.256303071975708008e+00
1.259000000000000000e+03 1.717752265930175781e+01 1.177990055084228516e+01 -5.163288116455078125e-01 -1.976981878280639648e+00 -7.479932308197021484e-01 9.475410580635070801e-01
1.260000000000000000e+03 1.681352806091308594e+01 1.502090167999267578e+01 -8.709615468978881836e-01 -1.547320604324340820e+00 -7.254846692085266113e-01 9.055858850479125977e-01
1.261000000000000000e+03 1.975279235839843750e+01 2.267171621322631836e+00 -4.442704841494560242e-02 -5.272107720375061035e-01 -1.714913398027420044e-01 2.222594618797302246e-01
1.262000000000000000e+03 6.287522315979003906e-01 1.623597908020019531e+01 6.755297654308378696e-04 3.895808756351470947e-02 1.189008541405200958e-02 -7.532805204391479492e-03
1.263000000000000000e+03 1.977399635314941406e+01 6.260811328887939453e+00 -1.877444535493850708e-01 -1.052188038825988770e+00 -3.719797432422637939e-01 4.588748216629028320e-01
1.264000000000000000e+03 1.835523414611816406e+01 1.242634201049804688e+01 -6.007500886917114258e-01 -1.562234044075012207e+00 -6.488952636718750000e-01 8.187244534492492676e-01
1.265000000000000000e+03 1.505333995819091797e+01 1.739190483093261719e+01 -9.177221059799194336e-01 -1.353511691093444824e+00 -6.813701391220092773e-01 8.827747702598571777e-01
1.266000000000000000e+03 1.882625198364257812e+01 8.274219036102294922e-01 -1.615404849871993065e-03 -2.983832359313964844e-01 -8.999959379434585571e-02 5.493535101413726807e-02
1.267000000000000000e+03 1.977066421508789062e+01 1.009526491165161133e+00 -2.856593579053878784e-02 -3.751617372035980225e-01 -1.211182996630668640e-01 1.703742593526840210e-01
1.268000000000000000e+03 1.757556152343750000e+01 1.374518489837646484e+01 -7.491967678070068359e-01 -1.593856096267700195e+00 -7.029158473014831543e-01 9.268773794174194336e-01
1.269000000000000000e+03 2.222537612915039062e+01 -1.953534841537475586e+00 -1.289076656103134155e-01 -1.614606529474258423e-01 -8.711049705743789673e-02 2.207224220037460327e-01
1.270000000000000000e+03 1.891374969482421875e+01 -1.712489366531372070e+00 -2.672710223123431206e-03 -7.325810194015502930e-02 -2.277924306690692902e-02 2.830284647643566132e-02
1.271000000000000000e+03 2.885382175445556641e+00 -1.698462486267089844e+01 -8.331848308444023132e-03 -1.577853038907051086e-02 -7.233113516122102737e-03 4.836980719119310379e-03
1.272000000000000000e+03 5.801289677619934082e-01 -1.766748809814453125e+01 -2.633613301441073418e-03 3.626301884651184082e-02 1.008882187306880951e-02 3.259409451857209206e-03
1.273000000000000000e+03 1.255069065093994141e+01 -1.808638763427734375e+01 -4.805123805999755859e-01 -4.023046791553497314e-01 -2.648451030254364014e-01 -3.558973968029022217e-01
1.274000000000000000e+03 1.026407241821289062e+01 -2.512107849121093750e+00 -2.620838859002105892e-05 1.683506707195192575e-04 4.264268500264734030e-05 2.477781963534653187e-04
1.275000000000000000e+03 1.653640937805175781e+01 -1.046628284454345703e+01 -1.815759390592575073e-01 -2.627077698707580566e-01 -1.332851201295852661e-01 -2.271691113710403442e-01
1.276000000000000000e+03 1.759383773803710938e+01 -1.131956386566162109e+01 -3.216142356395721436e-01 -1.710297316312789917e-01 -1.477931886911392212e-01 -3.006841540336608887e-01
1.277000000000000000e+03 1.584801006317138672e+01 -1.165652751922607422e+01 -2.464380860328674316e-01 -3.727992773056030273e-01 -1.857712119817733765e-01 -3.018149733543395996e-01
1.278000000000000000e+03 1.341036987304687500e+01 -1.701888847351074219e+01 -4.785693585872650146e-01 -4.144838452339172363e-01 -2.679159641265869141e-01 -4.123376309871673584e-01
1.279000000000000000e+03 1.692704963684082031e+01 -1.258889102935791016e+01 -3.737001717090606689e-01 -2.303889393806457520e-01 -1.812267303466796875e-01 -3.450480997562408447e-01
1.280000000000000000e+03 1.363971900939941406e+01 -3.801646947860717773e+00 -1.841713528847321868e-04 -1.880229829112067819e-04 -1.116583007387816906e-04 1.586696271260734648e-05
1.281000000000000000e+03 1.603997421264648438e+01 -1.370330429077148438e+01 -4.105730056762695312e-01 -3.115175962448120117e-01 -2.166271805763244629e-01 -3.707931339740753174e-01
1.282000000000000000e+03 1.515474224090576172e+01 -1.480314540863037109e+01 -4.277314245700836182e-01 -3.727658390998840332e-01 -2.401491701602935791e-01 -3.888041079044342041e-01
1.283000000000000000e+03 1.048343658447265625e+01 -9.202847480773925781e+00 -2.253679122077301145e-04 -4.797388974111527205e-04 -2.115320530720055103e-04 1.588159939274191856e-04
1.284000000000000000e+03 1.333080387115478516e+01 -2.561295986175537109e+00 7.122002716641873121e-05 1.017737668007612228e-04 5.189813964534550905e-05 3.393438237253576517e-05
1.285000000000000000e+03 9.469764709472656250e+00 -8.672524452209472656e+00 3.314119385322555900e-05 5.617249989882111549e-04 1.784598425729200244e-04 -3.494274860713630915e-04
1.286000000000000000e+03 1.106276702880859375e+01 -6.605587959289550781e+00 2.619438600959256291e-05 1.255000825040042400e-04 4.550834273686632514e-05 -1.678600674495100975e-04
1.287000000000000000e+03 1.028425598144531250e+01 -7.621465206146240234e+00 3.472087701084092259e-05 -4.775710694957524538e-04 -1.328550570178776979e-04 2.334909077035263181e-04
1.288000000000000000e+03 1.694172978401184082e+00 -1.067013263702392578e+01 8.467942825518548489e-05 6.016662809997797012e-04 2.059037215076386929e-04 1.244367216713726521e-03
1.289000000000000000e+03 8.173683166503906250e+00 -1.262348365783691406e+01 1.016168971545994282e-03 2.631814219057559967e-03 1.094394945539534092e-03 -1.338481088168919086e-03
1.290000000000000000e+03 1.043061447143554688e+01 -4.029531002044677734e+00 -4.062419247929938138e-05 1.952536695171147585e-04 4.638884638552553952e-05 -1.590149186085909605e-04
1.291000000000000000e+03 7.773926544189453125e+01 3.345939254760742188e+01 6.060974206775426865e-03 8.218895912170410156e+00 2.467486858367919922e+00 -2.533629722893238068e-02
1.292000000000000000e+03 7.929540252685546875e+01 3.612694168090820312e+01 -1.766373217105865479e-02 8.360908508300781250e+00 2.502973318099975586e+00 -1.201316434890031815e-02
1.293000000000000000e+03 7.791567993164062500e+01 -2.908739662170410156e+01 -2.619245462119579315e-02 8.558799743652343750e+00 2.559782266616821289e+00 -8.712995052337646484e-02
1.294000000000000000e+03 7.934618377685546875e+01 -2.781825637817382812e+01 -7.389464415609836578e-03 8.760739326477050781e+00 2.626004934310913086e+00 -4.254973679780960083e-02
1.295000000000000000e+03 7.903986358642578125e+01 -3.488326644897460938e+01 1.544809527695178986e-02 8.919135093688964844e+00 2.680375099182128906e+00 -1.071658357977867126e-02
1.296000000000000000e+03 7.941120910644531250e+01 -2.086029052734375000e+01 -7.735701743513345718e-03 7.943214893341064453e+00 2.380643844604492188e+00 -1.237885504961013794e-01
1.297000000000000000e+03 7.819460296630859375e+01 -2.492050552368164062e+01 -3.175887838006019592e-02 8.363379478454589844e+00 2.499486207962036133e+00 -1.858854144811630249e-01
1.298000000000000000e+03 7.815515899658203125e+01 -2.630293464660644531e+01 -3.165979310870170593e-02 8.460984230041503906e+00 2.528797388076782227e+00 -1.456991285085678101e-01
1.299000000000000000e+03 7.751029968261718750e+01 -3.192744636535644531e+01 -1.925937086343765259e-02 8.553326606750488281e+00 2.560220241546630859e+00 -5.114762112498283386e-02
1.300000000000000000e+03 7.923455047607421875e+01 -3.061941146850585938e+01 -8.397683501243591309e-03 8.862974166870117188e+00 2.656372785568237305e+00 -2.341952919960021973e-02
1.301000000000000000e+03 7.729361724853515625e+01 -3.340771865844726562e+01 -1.235085818916559219e-02 8.532700538635253906e+00 2.556104898452758789e+00 -4.836760461330413818e-02
1.302000000000000000e+03 7.759843444824218750e+01 -3.943949890136718750e+01 -3.474202379584312439e-02 8.752159118652343750e+00 2.615225076675415039e+00 8.913478255271911621e-02
1.303000000000000000e+03 7.805540466308593750e+01 1.537953662872314453e+01 -2.698372863233089447e-02 8.409773826599121094e+00 2.514837026596069336e+00 8.245955407619476318e-02
1.304000000000000000e+03 7.935462188720703125e+01 1.534672832489013672e+01 -6.139505654573440552e-03 8.642469406127929688e+00 2.590898990631103516e+00 3.785702213644981384e-02
1.305000000000000000e+03 7.934925079345703125e+01 2.228956031799316406e+01 -1.463196822442114353e-03 8.688431739807128906e+00 2.606090545654296875e+00 -3.741827094927430153e-05
1.306000000000000000e+03 7.775887298583984375e+01 3.210291290283203125e+01 2.189102451666258276e-05 8.235917091369628906e+00 2.470781564712524414e+00 -4.470530524849891663e-02
1.307000000000000000e+03 7.783813476562500000e+01 2.786578941345214844e+01 -3.801551880314946175e-03 8.311391830444335938e+00 2.492277145385742188e+00 -3.917724639177322388e-02
1.308000000000000000e+03 7.927936553955078125e+01 2.787288284301757812e+01 2.292703604325652122e-03 8.578758239746093750e+00 2.574315309524536133e+00 -9.476630017161369324e-03
1.309000000000000000e+03 7.796759796142578125e+01 2.504056549072265625e+01 -4.962398670613765717e-03 8.384675979614257812e+00 2.513914108276367188e+00 -3.026610612869262695e-02
1.310000000000000000e+03 7.801515197753906250e+01 2.364740562438964844e+01 -5.115200765430927277e-03 8.416463851928710938e+00 2.523404598236083984e+00 -2.293909341096878052e-02
1.311000000000000000e+03 7.806109619140625000e+01 1.814382171630859375e+01 -1.773596927523612976e-02 8.460596084594726562e+00 2.532858133316040039e+00 2.605561167001724243e-02
1.312000000000000000e+03 7.805744171142578125e+01 1.676097679138183594e+01 -2.302674576640129089e-02 8.443870544433593750e+00 2.526253223419189453e+00 5.141505971550941467e-02
1.313000000000000000e+03 7.805569458007812500e+01 1.399632740020751953e+01 -3.207793086767196655e-02 8.357202529907226562e+00 2.497537374496459961e+00 1.185052394866943359e-01
1.314000000000000000e+03 7.678057098388671875e+01 1.124742889404296875e+01 -1.001598238945007324e-01 8.066772460937500000e+00 2.389983892440795898e+00 2.992720603942871094e-01
1.315000000000000000e+03 7.809357452392578125e+01 9.829276084899902344e+00 -4.436319321393966675e-02 8.045664787292480469e+00 2.400390386581420898e+00 2.623508870601654053e-01
1.316000000000000000e+03 7.936471557617187500e+01 9.781970024108886719e+00 -8.480869233608245850e-03 8.163236618041992188e+00 2.446426630020141602e+00 1.041692644357681274e-01
1.317000000000000000e+03 7.828735351562500000e+01 -1.524700927734375000e+01 -1.156549155712127686e-02 6.758288383483886719e+00 2.024016857147216797e+00 -5.005966424942016602e-01
1.318000000000000000e+03 7.942679595947265625e+01 -1.390753650665283203e+01 1.156595069915056229e-03 6.063356876373291016e+00 1.819354057312011719e+00 -1.868611425161361694e-01
1.319000000000000000e+03 7.827433013916015625e+01 -8.287271499633789062e+00 9.878977388143539429e-02 5.393671989440917969e+00 1.647738575935363770e+00 -2.023646086454391479e-01
1.320000000000000000e+03 7.942452239990234375e+01 -6.939648628234863281e+00 2.411769703030586243e-02 4.564825057983398438e+00 1.376682758331298828e+00 -2.048642374575138092e-02
1.321000000000000000e+03 7.941701507568359375e+01 -1.947031974792480469e+01 -8.276695385575294495e-03 7.650185108184814453e+00 2.292572498321533203e+00 -1.433196812868118286e-01
1.322000000000000000e+03 7.821852874755859375e+01 -2.215829658508300781e+01 -3.782901167869567871e-02 8.072526931762695312e+00 2.410409212112426758e+00 -2.783413231372833252e-01
1.323000000000000000e+03 7.820777130126953125e+01 8.591844141483306885e-02 2.541914023458957672e-02 6.205879688262939453e+00 1.869389653205871582e+00 5.019627213478088379e-01
1.324000000000000000e+03 7.940021514892578125e+01 1.423832654953002930e+00 6.707864813506603241e-04 6.147429466247558594e+00 1.844430088996887207e+00 1.967045068740844727e-01
1.325000000000000000e+03 7.811618041992187500e+01 8.438501358032226562e+00 -4.562517628073692322e-02 7.877820968627929688e+00 2.349658727645874023e+00 3.180344998836517334e-01
1.326000000000000000e+03 7.778218078613281250e+01 2.929033660888671875e+01 -1.181242172606289387e-03 8.277777671813964844e+00 2.482978820800781250e+00 -3.895446658134460449e-02
1.327000000000000000e+03 7.713958740234375000e+01 3.678021621704101562e+01 -5.431371275335550308e-03 8.006233215332031250e+00 2.400240659713745117e+00 -5.131207033991813660e-02
1.328000000000000000e+03 7.397468566894531250e+01 3.687250137329101562e+01 2.317704632878303528e-02 7.533812999725341797e+00 2.267096996307373047e+00 -3.770300745964050293e-02
1.329000000000000000e+03 7.701427459716796875e+01 1.405386477708816528e-01 6.059439852833747864e-02 6.647253513336181641e+00 2.012354373931884766e+00 7.400407195091247559e-01
1.330000000000000000e+03 7.820383453369140625e+01 1.481822609901428223e+00 2.841367619112133980e-03 6.526075363159179688e+00 1.958674907684326172e+00 5.207962989807128906e-01
1.331000000000000000e+03 7.824961853027343750e+01 -4.095214843750000000e+00 9.608752280473709106e-02 5.444112300872802734e+00 1.662059903144836426e+00 2.454075068235397339e-01
1.332000000000000000e+03 7.941089630126953125e+01 -2.756331443786621094e+00 1.619300246238708496e-02 4.981864452362060547e+00 1.499417185783386230e+00 1.361094415187835693e-01
1.333000000000000000e+03 7.827655029296875000e+01 -6.890069484710693359e+00 1.118996217846870422e-01 5.306766033172607422e+00 1.625599741935729980e+00 -5.544979125261306763e-02
1.334000000000000000e+03 7.826830291748046875e+01 -1.107957935333251953e+01 5.602093040943145752e-02 5.812232017517089844e+00 1.760475993156433105e+00 -4.185653328895568848e-01
1.335000000000000000e+03 7.942321014404296875e+01 -9.728559494018554688e+00 1.690745353698730469e-02 4.919132232666015625e+00 1.480811953544616699e+00 -1.208531409502029419e-01
1.336000000000000000e+03 7.827684020996093750e+01 -1.247447776794433594e+01 3.215256333351135254e-02 6.105103492736816406e+00 1.841176748275756836e+00 -4.768239259719848633e-01
1.337000000000000000e+03 7.827104949951171875e+01 -1.801105690002441406e+01 -3.474900871515274048e-02 7.378015518188476562e+00 2.202980041503906250e+00 -4.320128560066223145e-01
1.338000000000000000e+03 7.942504119873046875e+01 -1.668895530700683594e+01 -5.917228292673826218e-03 6.921600341796875000e+00 2.074704885482788086e+00 -1.770520061254501343e-01
1.339000000000000000e+03 7.825551605224609375e+01 -1.939491081237792969e+01 -3.847546130418777466e-02 7.646393299102783203e+00 2.282375335693359375e+00 -3.821485340595245361e-01
1.340000000000000000e+03 7.694429874420166016e+00 2.006420898437500000e+01 -4.639059007167816162e-01 -6.903634220361709595e-02 -1.598826795816421509e-01 2.625114023685455322e-01
1.341000000000000000e+03 9.025139808654785156e+00 1.884722900390625000e+01 -5.716868042945861816e-01 -1.069693416357040405e-01 -2.035968452692031860e-01 2.393681108951568604e-01
1.342000000000000000e+03 1.354564309120178223e+00 -4.004779052734375000e+01 7.929856888949871063e-03 -6.886856555938720703e-01 -2.042267322540283203e-01 -2.404080150881782174e-04
1.343000000000000000e+03 7.221358418464660645e-01 3.742407608032226562e+01 1.133084017783403397e-02 -9.495329260826110840e-01 -2.814606428146362305e-01 1.396196056157350540e-02
1.344000000000000000e+03 7.376291751861572266e-01 3.465964126586914062e+01 8.859370835125446320e-03 -8.533494472503662109e-01 -2.533470392227172852e-01 3.278017044067382812e-02
1.345000000000000000e+03 7.495608329772949219e-01 3.326066207885742188e+01 2.790505997836589813e-03 -7.813884019851684570e-01 -2.335793823003768921e-01 4.416162893176078796e-02
1.346000000000000000e+03 6.644688248634338379e-01 2.760828781127929688e+01 6.906280759721994400e-04 -3.645693957805633545e-01 -1.091636344790458679e-01 5.403993651270866394e-02
1.347000000000000000e+03 6.515543460845947266e-01 2.619291496276855469e+01 -1.723551191389560699e-03 -2.491014003753662109e-01 -7.524748891592025757e-02 5.309217795729637146e-02
1.348000000000000000e+03 5.976291298866271973e-01 -3.600124359130859375e+01 1.175123034045100212e-03 -6.625255942344665527e-01 -1.984051465988159180e-01 -8.775665424764156342e-03
1.349000000000000000e+03 2.427819490432739258e+00 -3.323888778686523438e+01 1.741198077797889709e-02 -5.271336436271667480e-01 -1.529165059328079224e-01 -8.019626885652542114e-02
1.350000000000000000e+03 3.218226432800292969e+00 2.598587608337402344e+01 -2.218060195446014404e-02 -3.451091051101684570e-01 -1.101869121193885803e-01 2.214762568473815918e-01
1.351000000000000000e+03 3.153944492340087891e+00 2.457727050781250000e+01 -3.085603751242160797e-02 -2.646248042583465576e-01 -8.864425122737884521e-02 1.979915648698806763e-01
1.352000000000000000e+03 2.261748552322387695e+00 3.456933975219726562e+01 2.063203230500221252e-02 -7.979370951652526855e-01 -2.331915199756622314e-01 1.058634370565414429e-01
1.353000000000000000e+03 2.294844627380371094e+00 3.317171096801757812e+01 2.259746566414833069e-02 -7.343387007713317871e-01 -2.135223597288131714e-01 1.245800107717514038e-01
1.354000000000000000e+03 2.349507331848144531e+00 3.821485900878906250e+01 2.663392201066017151e-02 -9.090334177017211914e-01 -2.647198438644409180e-01 4.181296005845069885e-02
1.355000000000000000e+03 3.255027532577514648e+00 3.920246124267578125e+01 2.680732496082782745e-02 -9.185980558395385742e-01 -2.675372064113616943e-01 5.622628703713417053e-02
1.356000000000000000e+03 2.223574161529541016e+00 -3.036488723754882812e+01 1.214876584708690643e-02 -4.335692226886749268e-01 -1.264261305332183838e-01 -1.000934168696403503e-01
1.357000000000000000e+03 2.027413368225097656e+00 -2.752260208129882812e+01 4.324179608374834061e-03 -3.140662014484405518e-01 -9.292260557413101196e-02 -1.050807759165763855e-01
1.358000000000000000e+03 2.352187871932983398e+00 -3.656579971313476562e+01 1.413233019411563873e-02 -6.129757761955261230e-01 -1.796530336141586304e-01 -4.821866378188133240e-02
1.359000000000000000e+03 5.343466758728027344e+00 -1.761299514770507812e+01 -5.905069783329963684e-02 -2.942871488630771637e-02 -2.654382400214672089e-02 -3.636894747614860535e-03
1.360000000000000000e+03 5.924389362335205078e-01 2.052027511596679688e+01 -4.869197495281696320e-03 5.401008948683738708e-02 1.474226731806993484e-02 7.005534600466489792e-03
1.361000000000000000e+03 6.269713640213012695e-01 1.909907150268554688e+01 -2.252102829515933990e-03 6.129013374447822571e-02 1.771140843629837036e-02 -1.354312058538198471e-03
1.362000000000000000e+03 6.296113729476928711e-01 1.482532596588134766e+01 5.654619308188557625e-04 2.340762689709663391e-02 7.191926706582307816e-03 -6.089105270802974701e-03
1.363000000000000000e+03 6.216579079627990723e-01 1.342637443542480469e+01 1.523649436421692371e-03 1.182444021105766296e-02 4.004426766186952591e-03 -3.924466203898191452e-03
1.364000000000000000e+03 6.021981239318847656e-01 7.797224521636962891e+00 -2.485325785528402776e-05 -2.209238155046477914e-04 -7.373312109848484397e-05 -1.275459071621298790e-04
1.365000000000000000e+03 5.925854444503784180e-01 -1.908641433715820312e+01 -2.749109873548150063e-03 3.545431792736053467e-02 9.811562485992908478e-03 -3.117196029052138329e-03
1.366000000000000000e+03 1.694315433502197266e+00 -9.288495063781738281e+00 1.041252864524722099e-03 -4.295337475923588499e-06 3.110872348770499229e-04 5.689840763807296753e-04
1.367000000000000000e+03 5.012573242187500000e+00 -4.028200912475585938e+01 3.792349249124526978e-02 -5.759091973304748535e-01 -1.613956987857818604e-01 -4.359125345945358276e-02
1.368000000000000000e+03 3.497780799865722656e+00 -3.908697509765625000e+01 2.103402465581893921e-02 -6.339473128318786621e-01 -1.838739812374114990e-01 -4.347620159387588501e-02
1.369000000000000000e+03 4.798805236816406250e+00 -3.612709426879882812e+01 4.763158410787582397e-02 -5.390426516532897949e-01 -1.474233269691467285e-01 -9.674817323684692383e-02
1.370000000000000000e+03 1.649478554725646973e+00 -3.536763763427734375e+01 1.108525227755308151e-02 -5.983778238296508789e-01 -1.761877685785293579e-01 -4.096343740820884705e-02
1.371000000000000000e+03 2.334314107894897461e+00 -3.178855323791503906e+01 7.299990858882665634e-03 -4.825743138790130615e-01 -1.425822973251342773e-01 -9.148698300123214722e-02
1.372000000000000000e+03 3.320776462554931641e+00 -2.741457748413085938e+01 4.718506825156509876e-04 -3.191824853420257568e-01 -9.561318904161453247e-02 -1.581238657236099243e-01
1.373000000000000000e+03 1.948551297187805176e+00 -2.464847564697265625e+01 -5.608321167528629303e-03 -1.841324716806411743e-01 -5.692223832011222839e-02 -9.241893142461776733e-02
1.374000000000000000e+03 1.982473254203796387e+00 -2.609168052673339844e+01 -6.652710493654012680e-03 -2.476318776607513428e-01 -7.628537714481353760e-02 -1.037794724106788635e-01
1.375000000000000000e+03 5.827416777610778809e-01 -2.050856018066406250e+01 -4.567583557218313217e-03 1.556528173387050629e-02 3.299309639260172844e-03 -1.220947969704866409e-02
1.376000000000000000e+03 2.909400463104248047e+00 -2.153845596313476562e+01 -3.534995391964912415e-02 -9.345471113920211792e-02 -3.864139690995216370e-02 -9.080432355403900146e-02
1.377000000000000000e+03 1.622872948646545410e+00 -1.607467842102050781e+01 1.031320891343057156e-03 6.114549003541469574e-03 2.143760910257697105e-03 1.009371038526296616e-02
1.378000000000000000e+03 1.659575343132019043e+00 -1.206248188018798828e+01 2.121519530192017555e-03 1.330703496932983398e-03 1.035666908137500286e-03 2.665941603481769562e-03
1.379000000000000000e+03 5.466788411140441895e-01 -1.208396434783935547e+01 -6.191616412252187729e-04 3.068440128117799759e-03 7.347835926339030266e-04 1.096781459636986256e-03
1.380000000000000000e+03 8.701299667358398438e+00 -9.784956932067871094e+00 8.673797856317833066e-05 -8.849738514982163906e-04 -2.394707698840647936e-04 5.047631566412746906e-04
1.381000000000000000e+03 5.306379795074462891e+00 -3.443714380264282227e+00 3.820706297119613737e-06 1.786625362001359463e-04 5.474497447721660137e-05 2.406704588793218136e-04
1.382000000000000000e+03 3.681640863418579102e+00 -2.890362024307250977e+00 -9.647658589528873563e-05 -5.904742283746600151e-05 -4.665720189223065972e-05 -2.381273516220971942e-04
1.383000000000000000e+03 2.913126945495605469e+00 -3.087965011596679688e+00 1.329094375250861049e-04 4.204934884910471737e-05 5.248763409326784313e-05 1.232130889547988772e-04
1.384000000000000000e+03 1.365875124931335449e+00 -3.379391431808471680e+00 6.482622120529413223e-05 1.155197605839930475e-04 5.410379526438191533e-05 1.047807600116357207e-04
1.385000000000000000e+03 4.765513241291046143e-01 5.033928394317626953e+00 -2.172213135054334998e-04 -3.123751375824213028e-04 -1.588789309607818723e-04 -4.306749542593024671e-05
1.386000000000000000e+03 2.401169538497924805e+00 3.567879438400268555e+00 4.139819357078522444e-04 9.621831122785806656e-05 1.530600711703300476e-04 -5.160301589057780802e-05
1.387000000000000000e+03 1.766757249832153320e+00 1.047604846954345703e+01 1.796227064915001392e-03 9.689949220046401024e-04 8.295666193589568138e-04 -1.507592853158712387e-03
1.388000000000000000e+03 5.904826521873474121e-01 1.061675453186035156e+01 5.648829392157495022e-04 1.576049835421144962e-03 6.422798032872378826e-04 -1.001271419227123260e-03
1.389000000000000000e+03 1.897088766098022461e+00 1.323209190368652344e+01 4.481520503759384155e-03 2.955379663035273552e-03 2.231070073321461678e-03 -8.118688128888607025e-03
1.390000000000000000e+03 1.914034485816955566e+00 1.461489009857177734e+01 4.030711948871612549e-03 4.013213329017162323e-03 2.413177629932761192e-03 -1.265506446361541748e-02
1.391000000000000000e+03 1.881827950477600098e+00 1.603020095825195312e+01 1.829537912271916866e-03 5.988333839923143387e-03 2.345361514016985893e-03 -1.587234064936637878e-02
1.392000000000000000e+03 1.919244050979614258e+00 2.465000724792480469e+01 -1.982267387211322784e-02 -2.121509611606597900e-01 -6.959208846092224121e-02 1.311617791652679443e-01
1.393000000000000000e+03 9.285949707031250000e+00 1.110364151000976562e+01 -2.780190552584826946e-04 4.302069544792175293e-03 1.207215129397809505e-03 1.148234354332089424e-03
1.394000000000000000e+03 1.241319942474365234e+01 8.465856552124023438e+00 1.962552312761545181e-03 1.406928990036249161e-03 1.010844367556273937e-03 1.545742852613329887e-03
1.395000000000000000e+03 1.467634391784667969e+01 4.927259922027587891e+00 1.399756059981882572e-03 -6.959556048968806863e-05 3.990481491200625896e-04 1.661850692471489310e-04
1.396000000000000000e+03 1.182003021240234375e+01 2.574280261993408203e+00 6.492424872703850269e-04 4.717126648756675422e-05 2.089241170324385166e-04 3.722838009707629681e-04
1.397000000000000000e+03 1.038412475585937500e+01 1.341070938110351562e+01 -5.556072108447551727e-03 -3.185220994055271149e-03 -2.622387837618589401e-03 -4.299023188650608063e-03
1.398000000000000000e+03 8.367129325866699219e+00 1.049883174896240234e+01 1.101311296224594116e-03 -3.638864145614206791e-04 2.212274703197181225e-04 1.425947295501828194e-03
1.399000000000000000e+03 8.438970565795898438e+00 1.386951351165771484e+01 -2.073628362268209457e-03 6.519197486340999603e-03 1.333670807071030140e-03 -3.279125550761818886e-03
1.400000000000000000e+03 1.177082538604736328e+01 3.358925580978393555e+00 -9.158129687421023846e-04 -2.308030816493555903e-04 -3.439848078414797783e-04 -9.277730132453143597e-04
1.401000000000000000e+03 7.313920497894287109e+00 -1.211668491363525391e+01 1.175314446300035343e-05 -8.587047341279685497e-05 -2.223519913968630135e-05 1.085770854842849076e-04
1.402000000000000000e+03 7.993016242980957031e+00 -1.094138526916503906e+01 -9.895251423586159945e-05 2.047637710347771645e-03 5.846055573783814907e-04 -9.616183815523982048e-04
1.403000000000000000e+03 6.160757446289062500e+01 -8.020125389099121094e+00 2.047695875167846680e+00 1.217702579498291016e+01 4.267416477203369141e+00 7.038072586059570312e+00
1.404000000000000000e+03 5.980690002441406250e+01 -8.028095245361328125e+00 1.206444978713989258e+00 1.706715822219848633e+00 8.739482760429382324e-01 2.727193117141723633e+00
1.405000000000000000e+03 6.201595687866210938e+01 -8.063200950622558594e+00 1.038284897804260254e+00 1.646509933471679688e+01 5.251015186309814453e+00 5.719021320343017578e+00
1.406000000000000000e+03 6.141395950317382812e+01 -8.003381729125976562e+00 2.499819517135620117e+00 1.011271476745605469e+01 3.783760309219360352e+00 6.883051395416259766e+00
1.407000000000000000e+03 6.107651138305664062e+01 -8.260529518127441406e+00 2.293294191360473633e+00 7.723965167999267578e+00 3.005177736282348633e+00 6.128674030303955078e+00
1.408000000000000000e+03 5.959403610229492188e+01 -8.366110801696777344e+00 1.247083544731140137e+00 2.050979614257812500e+00 9.894189834594726562e-01 2.887037038803100586e+00
1.409000000000000000e+03 5.866667556762695312e+01 -8.697010040283203125e+00 4.048711061477661133e-01 1.287276506423950195e+00 5.076442956924438477e-01 1.994066715240478516e+00
1.410000000000000000e+03 6.146303558349609375e+01 -8.532101631164550781e+00 1.326359152793884277e+00 1.082333374023437500e+01 3.644907951354980469e+00 5.976102352142333984e+00
1.411000000000000000e+03 6.224406433105468750e+01 -8.087128639221191406e+00 7.162934541702270508e-01 1.789334106445312500e+01 5.582890510559082031e+00 4.538704395294189453e+00
1.412000000000000000e+03 6.120672988891601562e+01 -4.773432731628417969e+00 2.830007553100585938e+00 8.309384346008300781e+00 3.341817617416381836e+00 -6.743525505065917969e+00
1.413000000000000000e+03 5.960011291503906250e+01 -4.197865486145019531e+00 1.264234304428100586e+00 2.357142925262451172e+00 1.086413264274597168e+00 -3.146940231323242188e+00
1.414000000000000000e+03 6.139391326904296875e+01 -4.752838134765625000e+00 2.444243431091308594e+00 1.001537513732910156e+01 3.737885475158691406e+00 -6.933018684387207031e+00
1.415000000000000000e+03 6.450890350341796875e+01 -6.528689384460449219e+00 8.224896430969238281e+00 1.405541801452636719e+01 6.684094429016113281e+00 -3.620598018169403076e-01
1.416000000000000000e+03 6.299277496337890625e+01 -8.377873420715332031e+00 8.069158792495727539e-01 1.829099464416503906e+01 5.729373455047607422e+00 8.424736261367797852e-01
1.417000000000000000e+03 6.345744323730468750e+01 -7.786755084991455078e+00 3.913219690322875977e+00 1.887620544433593750e+01 6.836827754974365234e+00 -1.833907365798950195e+00
1.418000000000000000e+03 6.259195709228515625e+01 -4.308825969696044922e+00 1.914989650249481201e-01 1.762844848632812500e+01 5.345983982086181641e+00 -2.783378839492797852e+00
1.419000000000000000e+03 5.802262115478515625e+01 -8.783543586730957031e+00 -7.484647631645202637e-02 8.681999444961547852e-01 2.380060404539108276e-01 1.475049734115600586e+00
1.420000000000000000e+03 5.962893676757812500e+01 -8.747690200805664062e+00 1.395922660827636719e+00 2.758788585662841797e+00 1.246413350105285645e+00 3.391463518142700195e+00
1.421000000000000000e+03 5.854341506958007812e+01 -4.174287319183349609e+00 1.074893102049827576e-01 1.094678044319152832e+00 3.606502115726470947e-01 -1.820778489112854004e+00
1.422000000000000000e+03 5.665349578857421875e+01 -2.837274551391601562e+00 -2.485297769308090210e-01 9.469269514083862305e-01 2.095191627740859985e-01 -1.349157452583312988e+00
1.423000000000000000e+03 5.787205505371093750e+01 -3.740818738937377930e+00 -7.091481983661651611e-02 9.855599999427795410e-01 2.743935585021972656e-01 -1.591110110282897949e+00
1.424000000000000000e+03 5.634884262084960938e+01 -3.585084438323974609e+00 -8.608728647232055664e-01 4.639202952384948730e-01 -1.190857738256454468e-01 -8.313682079315185547e-01
1.425000000000000000e+03 5.930273056030273438e+01 -4.115671157836914062e+00 9.752103090286254883e-01 1.977938890457153320e+00 8.859447240829467773e-01 -2.817175149917602539e+00
1.426000000000000000e+03 5.697181320190429688e+01 -3.392914533615112305e+00 -4.006131291389465332e-01 7.575671076774597168e-01 1.070861965417861938e-01 -1.224421262741088867e+00
1.427000000000000000e+03 2.162122535705566406e+01 -1.470350384712219238e+00 -9.787708520889282227e-02 -1.918850839138031006e-01 -8.692865073680877686e-02 2.086213082075119019e-01
1.428000000000000000e+03 2.096813774108886719e+01 -2.288419723510742188e+00 -6.299147009849548340e-02 -1.438393294811248779e-01 -6.204923987388610840e-02 1.340140402317047119e-01
1.429000000000000000e+03 5.357236099243164062e+01 -4.001090526580810547e+00 -2.117915391921997070e+00 8.236291259527206421e-02 -6.106657385826110840e-01 -8.070567995309829712e-02
1.430000000000000000e+03 2.412068176269531250e+01 -3.428956747055053711e+00 -2.326771020889282227e-01 -7.755124568939208984e-02 -9.306850284337997437e-02 2.243693917989730835e-01
1.431000000000000000e+03 2.604522895812988281e+01 -4.183242797851562500e+00 -3.567361831665039062e-01 -3.833945468068122864e-02 -1.185226887464523315e-01 2.287576049566268921e-01
1.432000000000000000e+03 1.775834655761718750e+01 -8.462349891662597656e+00 -1.149996146559715271e-01 -8.274234831333160400e-02 -5.932258814573287964e-02 -1.083363071084022522e-01
1.433000000000000000e+03 3.038536834716796875e+01 -4.265447139739990234e+00 -7.444772124290466309e-01 -6.290347664617002010e-04 -2.235318720340728760e-01 2.845745086669921875e-01
1.434000000000000000e+03 2.687227058410644531e+01 -3.526465415954589844e+00 -4.269018173217773438e-01 -4.561435431241989136e-02 -1.417548507452011108e-01 3.004503548145294189e-01
1.435000000000000000e+03 3.885138034820556641e+00 2.607652902603149414e+00 -1.236743846675381064e-04 -4.953829338774085045e-04 -1.857171882875263691e-04 1.685390743659809232e-04
1.436000000000000000e+03 4.588553905487060547e+00 2.567580461502075195e+00 -3.419485074118711054e-05 6.616204045712947845e-04 1.882276701508089900e-04 8.979913400253280997e-05
1.437000000000000000e+03 5.979623794555664062e+00 2.562196254730224609e+00 -8.914242789614945650e-05 8.024945273064076900e-04 2.140056312782689929e-04 2.881038235500454903e-04
1.438000000000000000e+03 5.220503807067871094e+00 3.249004364013671875e+00 -4.436481322045437992e-05 8.101704879663884640e-04 2.297416940564289689e-04 2.015847276197746396e-04
1.439000000000000000e+03 5.883186817169189453e+00 3.277469635009765625e+00 7.307099440367892385e-05 -7.501220097765326500e-04 -2.031152980634942651e-04 -1.878392649814486504e-04
1.440000000000000000e+03 1.027923488616943359e+01 2.613382101058959961e+00 3.364150470588356256e-04 4.728015628643333912e-04 2.427649742458015680e-04 5.631459644064307213e-04
1.441000000000000000e+03 7.238367080688476562e+00 3.360641956329345703e+00 -4.013952639070339501e-05 -8.561165304854512215e-04 -2.688768145162612200e-04 -4.993511247448623180e-04
1.442000000000000000e+03 6.554949283599853516e+00 3.321630716323852539e+00 -7.862283382564783096e-05 9.817789541557431221e-04 2.709468535613268614e-04 3.861039876937866211e-04
1.443000000000000000e+03 4.561149597167968750e+00 3.257791996002197266e+00 1.731133124849293381e-05 -6.255012704059481621e-04 -1.824569771997630596e-04 2.023420893237926066e-05
1.444000000000000000e+03 2.494412422180175781e+00 2.675787687301635742e+00 -3.029395593330264091e-04 -2.525191521272063255e-04 -1.666376192588359118e-04 1.523401151644065976e-04
1.445000000000000000e+03 1.017560958862304688e+01 3.385627508163452148e+00 -3.947969526052474976e-04 -7.239017868414521217e-04 -3.356096276547759771e-04 -8.977769757620990276e-04
1.446000000000000000e+03 2.288398933410644531e+01 -3.212433099746704102e+00 -1.585214883089065552e-01 -9.811768680810928345e-02 -7.699175179004669189e-02 1.879656165838241577e-01
1.447000000000000000e+03 2.546348381042480469e+01 -3.474896192550659180e+00 -3.215320110321044922e-01 -6.331866979598999023e-02 -1.154552027583122253e-01 2.657454907894134521e-01
1.448000000000000000e+03 2.229180145263671875e+01 -2.956813097000122070e+00 -1.264434158802032471e-01 -1.115737557411193848e-01 -7.140514999628067017e-02 1.733149141073226929e-01
1.449000000000000000e+03 2.167367362976074219e+01 -2.643644571304321289e+00 -9.803092479705810547e-02 -1.273924559354782104e-01 -6.762701272964477539e-02 1.585717350244522095e-01
1.450000000000000000e+03 2.126695442199707031e+01 -3.403766632080078125e+00 -7.038649916648864746e-02 -8.805494755506515503e-02 -4.753243550658226013e-02 1.003575026988983154e-01
1.451000000000000000e+03 9.574381828308105469e+00 -2.477596998214721680e+00 -2.606406087579671293e-05 -1.751970703480765224e-04 -6.037834100425243378e-05 -2.108686749124899507e-04
1.452000000000000000e+03 2.830921936035156250e+01 -3.572295188903808594e+00 -5.447645783424377441e-01 -2.680123597383499146e-02 -1.714697331190109253e-01 3.252934515476226807e-01
1.453000000000000000e+03 3.185117340087890625e+01 -4.244160652160644531e+00 -8.919603824615478516e-01 6.962801329791545868e-03 -2.654992640018463135e-01 2.926092743873596191e-01
1.454000000000000000e+03 3.119732284545898438e+01 -3.570726394653320312e+00 -8.010636568069458008e-01 7.510748691856861115e-04 -2.400937676429748535e-01 3.557434678077697754e-01
1.455000000000000000e+03 1.157651138305664062e+01 -3.549635887145996094e+00 8.827965757518541068e-06 -1.647524914005771279e-04 -4.677736069425009191e-05 -9.985327051253989339e-05
1.456000000000000000e+03 1.097018814086914062e+01 -2.626642942428588867e+00 2.439272248011548072e-05 -2.082242572214454412e-04 -5.514946315088309348e-05 -1.035372260957956314e-04
1.457000000000000000e+03 1.124454784393310547e+01 -4.370538234710693359e+00 3.805539017776027322e-05 -8.867665746947750449e-05 -1.518638055131305009e-05 1.839684846345335245e-04
1.458000000000000000e+03 4.609664535522460938e+01 -9.750763893127441406e+00 -1.890053153038024902e+00 2.309859916567802429e-02 -5.600863695144653320e-01 -2.484812140464782715e-01
1.459000000000000000e+03 4.382891845703125000e+01 -9.075457572937011719e+00 -2.057829141616821289e+00 4.037445411086082458e-03 -6.161375045776367188e-01 -2.580619752407073975e-01
1.460000000000000000e+03 4.606709289550781250e+01 -9.033112525939941406e+00 -2.158333063125610352e+00 1.158222369849681854e-02 -6.440252661705017090e-01 -2.361321896314620972e-01
1.461000000000000000e+03 1.257827281951904297e+01 -2.799718856811523438e+00 -1.198536192532628775e-04 -1.610227482160553336e-04 -8.426290878560394049e-05 2.583700006653089076e-05
1.462000000000000000e+03 4.388634872436523438e+01 -1.051075363159179688e+01 -1.615085244178771973e+00 2.127844281494617462e-02 -4.781420230865478516e-01 -2.979426681995391846e-01
1.463000000000000000e+03 4.084241485595703125e+01 -9.145524978637695312e+00 -1.881452560424804688e+00 -3.831549780443310738e-03 -5.655851960182189941e-01 -2.742457091808319092e-01
1.464000000000000000e+03 3.266080856323242188e+01 -3.537766218185424805e+00 -9.359114170074462891e-01 9.223092347383499146e-03 -2.780064940452575684e-01 3.640282154083251953e-01
1.465000000000000000e+03 4.982105636596679688e+01 -9.697226524353027344e+00 -1.839165925979614258e+00 6.745350360870361328e-02 -5.315136909484863281e-01 -1.246060132980346680e-01
1.466000000000000000e+03 3.414151763916015625e+01 -3.494589567184448242e+00 -1.073432087898254395e+00 1.455976720899343491e-02 -3.176617026329040527e-01 3.682941496372222900e-01
1.467000000000000000e+03 5.203649520874023438e+01 -8.943296432495117188e+00 -2.099038124084472656e+00 6.882693618535995483e-02 -6.090633273124694824e-01 -4.654956236481666565e-02
1.468000000000000000e+03 4.013134002685546875e+01 -9.892426490783691406e+00 -1.660107970237731934e+00 -4.357348661869764328e-03 -4.993396103382110596e-01 -3.153202235698699951e-01
1.469000000000000000e+03 3.784523010253906250e+01 -9.230417251586914062e+00 -1.676627993583679199e+00 -1.309335045516490936e-02 -5.069164037704467773e-01 -2.790461182594299316e-01
1.470000000000000000e+03 4.532056808471679688e+01 -9.045815467834472656e+00 -2.129153013229370117e+00 8.605903945863246918e-03 -6.361641883850097656e-01 -2.445787191390991211e-01
1.471000000000000000e+03 4.386247634887695312e+01 -9.796117782592773438e+00 -1.832091808319091797e+00 1.172190438956022263e-02 -5.461109876632690430e-01 -2.847760319709777832e-01
1.472000000000000000e+03 4.162482833862304688e+01 -9.850649833679199219e+00 -1.737682104110717773e+00 1.748413546010851860e-03 -5.207800865173339844e-01 -3.063291311264038086e-01
1.473000000000000000e+03 4.830436325073242188e+01 -9.000623703002929688e+00 -2.211432695388793945e+00 2.252975106239318848e-02 -6.566708683967590332e-01 -1.972441524267196655e-01
1.474000000000000000e+03 4.684265899658203125e+01 -9.738558769226074219e+00 -1.897454261779785156e+00 2.916625328361988068e-02 -5.604863762855529785e-01 -2.323752045631408691e-01
1.475000000000000000e+03 4.758611297607421875e+01 -9.727226257324218750e+00 -1.897506475448608398e+00 3.569582104682922363e-02 -5.585432052612304688e-01 -2.121147215366363525e-01
1.476000000000000000e+03 5.498640441894531250e+01 -8.846841812133789062e+00 -1.625209331512451172e+00 1.797346919775009155e-01 -4.336423873901367188e-01 2.736393213272094727e-01
1.477000000000000000e+03 3.869167327880859375e+01 -1.138695240020751953e+01 -1.274411678314208984e+00 -5.012211855500936508e-03 -3.838271498680114746e-01 -3.818270266056060791e-01
1.478000000000000000e+03 3.863236618041992188e+01 -9.938277244567871094e+00 -1.574376821517944336e+00 -1.061492599546909332e-02 -4.754975140094757080e-01 -3.211929798126220703e-01
1.479000000000000000e+03 5.056628036499023438e+01 -9.682567596435546875e+00 -1.794648408889770508e+00 8.350867033004760742e-02 -5.133419036865234375e-01 -8.026050776243209839e-02
1.480000000000000000e+03 5.280556488037109375e+01 -9.612226486206054688e+00 -1.562443971633911133e+00 1.620467752218246460e-01 -4.201191663742065430e-01 1.194296404719352722e-01
1.481000000000000000e+03 5.354175567626953125e+01 -9.577496528625488281e+00 -1.439762711524963379e+00 2.009763717651367188e-01 -3.716358840465545654e-01 2.209083884954452515e-01
1.482000000000000000e+03 5.426953506469726562e+01 -9.539517402648925781e+00 -1.287632942199707031e+00 2.570065557956695557e-01 -3.091879189014434814e-01 3.386514186859130859e-01
1.483000000000000000e+03 5.498893737792968750e+01 -9.500837326049804688e+00 -1.091220617294311523e+00 3.243888616561889648e-01 -2.300495356321334839e-01 4.971257746219635010e-01
1.484000000000000000e+03 5.637628555297851562e+01 -9.425914764404296875e+00 -5.487911701202392578e-01 5.924713015556335449e-01 1.310404110699892044e-02 9.719252586364746094e-01
1.485000000000000000e+03 5.704749298095703125e+01 -8.788911819458007812e+00 -7.496317028999328613e-01 4.713015854358673096e-01 -8.349903672933578491e-02 8.937455415725708008e-01
1.486000000000000000e+03 5.698437881469726562e+01 -9.318367958068847656e+00 -3.525308668613433838e-01 7.569767236709594727e-01 1.213337555527687073e-01 1.197154045104980469e+00
1.487000000000000000e+03 3.706010818481445312e+01 -4.098586082458496094e+00 -1.436168313026428223e+00 1.426952239125967026e-02 -4.265696108341217041e-01 2.962615191936492920e-01
1.488000000000000000e+03 3.494183731079101562e+01 -2.777483224868774414e+00 -1.080320715904235840e+00 1.809879951179027557e-02 -3.186665773391723633e-01 4.309538602828979492e-01
1.489000000000000000e+03 3.559158706665039062e+01 -9.294095039367675781e+00 -1.513187766075134277e+00 -1.846555061638355255e-02 -4.594960212707519531e-01 -2.750231623649597168e-01
1.490000000000000000e+03 3.715639114379882812e+01 -1.072137928009033203e+01 -1.345636606216430664e+00 -1.631443947553634644e-02 -4.085853099822998047e-01 -3.612657487392425537e-01
1.491000000000000000e+03 3.712805938720703125e+01 -9.986306190490722656e+00 -1.482806444168090820e+00 -1.726390421390533447e-02 -4.500211179256439209e-01 -3.235943317413330078e-01
1.492000000000000000e+03 3.791150665283203125e+01 -1.069320011138916016e+01 -1.384122133255004883e+00 -1.323874574154615402e-02 -4.192082583904266357e-01 -3.588435947895050049e-01
1.493000000000000000e+03 5.058502960205078125e+01 -3.894325494766235352e+00 -2.305956840515136719e+00 3.326973691582679749e-02 -6.818061470985412598e-01 1.163494959473609924e-01
1.494000000000000000e+03 5.436845397949218750e+01 -3.491176128387451172e+00 -1.554201364517211914e+00 1.980611681938171387e-01 -4.068420529365539551e-01 -3.001178205013275146e-01
1.495000000000000000e+03 4.988959121704101562e+01 -3.203053236007690430e+00 -1.953526496887207031e+00 5.719830468297004700e-02 -5.688984394073486328e-01 1.239152997732162476e-01
1.496000000000000000e+03 5.139356231689453125e+01 -3.240764379501342773e+00 -1.871371269226074219e+00 9.063094109296798706e-02 -5.342221260070800781e-01 2.401338145136833191e-02
1.497000000000000000e+03 5.064395904541015625e+01 -3.217863559722900391e+00 -1.919445753097534180e+00 7.393177598714828491e-02 -5.536541938781738281e-01 7.812876254320144653e-02
1.498000000000000000e+03 3.862228393554687500e+01 -3.352966070175170898e+00 -1.476591706275939941e+00 1.814199052751064301e-02 -4.375349283218383789e-01 3.598368465900421143e-01
1.499000000000000000e+03 4.081125259399414062e+01 -3.999720811843872070e+00 -1.809590220451354980e+00 1.074840407818555832e-02 -5.396525263786315918e-01 2.818743586540222168e-01
1.500000000000000000e+03 4.156388854980468750e+01 -3.982903957366943359e+00 -1.878596663475036621e+00 9.410360828042030334e-03 -5.607558488845825195e-01 2.775703072547912598e-01
1.501000000000000000e+03 4.011738204956054688e+01 -3.316114425659179688e+00 -1.600038409233093262e+00 1.738506369292736053e-02 -4.747959971427917480e-01 3.501620888710021973e-01
1.502000000000000000e+03 5.568381118774414062e+01 -3.654656410217285156e+00 -1.226869463920593262e+00 2.983391582965850830e-01 -2.785590887069702148e-01 -5.565600991249084473e-01
1.503000000000000000e+03 4.908005523681640625e+01 -3.885651111602783203e+00 -2.316603660583496094e+00 1.959178782999515533e-02 -6.891035437583923340e-01 1.698714941740036011e-01
1.504000000000000000e+03 4.763674163818359375e+01 -3.196595668792724609e+00 -1.985423803329467773e+00 3.416996076703071594e-02 -5.853761434555053711e-01 2.200309187173843384e-01
1.505000000000000000e+03 4.607533645629882812e+01 -3.908040046691894531e+00 -2.217348575592041016e+00 1.086394116282463074e-02 -6.619454026222229004e-01 2.328352481126785278e-01
1.506000000000000000e+03 4.913453674316406250e+01 -3.195768594741821289e+00 -1.975300550460815430e+00 4.790578037500381470e-02 -5.782184600830078125e-01 1.614000052213668823e-01
1.507000000000000000e+03 4.312303161621093750e+01 -3.254206418991088867e+00 -1.814135432243347168e+00 1.836080662906169891e-02 -5.387324094772338867e-01 3.198002278804779053e-01
1.508000000000000000e+03 4.162182998657226562e+01 -3.281993627548217773e+00 -1.713537573814392090e+00 1.679732836782932281e-02 -5.090220570564270020e-01 3.370718955993652344e-01
1.509000000000000000e+03 4.237353134155273438e+01 -3.267666101455688477e+00 -1.766045331954956055e+00 1.653326861560344696e-02 -5.248536467552185059e-01 3.292171955108642578e-01
1.510000000000000000e+03 4.463049697875976562e+01 -3.229887008666992188e+00 -1.897786378860473633e+00 2.170972712337970734e-02 -5.628229975700378418e-01 2.959131002426147461e-01
1.511000000000000000e+03 4.387555313110351562e+01 -3.241209745407104492e+00 -1.858558058738708496e+00 1.852202042937278748e-02 -5.520108342170715332e-01 3.090914189815521240e-01
1.512000000000000000e+03 3.787140274047851562e+01 -3.374141931533813477e+00 -1.411834836006164551e+00 1.816510036587715149e-02 -4.181008934974670410e-01 3.636291623115539551e-01
1.513000000000000000e+03 5.290761184692382812e+01 -3.309191465377807617e+00 -1.709825634956359863e+00 1.481111645698547363e-01 -4.685143530368804932e-01 -1.206479594111442566e-01
1.514000000000000000e+03 3.411829376220703125e+01 -1.006396770477294922e+01 -1.291597962379455566e+00 -2.450457774102687836e-02 -3.948307633399963379e-01 -3.192010819911956787e-01
1.515000000000000000e+03 3.181233978271484375e+01 -9.381592750549316406e+00 -1.227399587631225586e+00 -2.229214273393154144e-02 -3.749074935913085938e-01 -2.614486515522003174e-01
1.516000000000000000e+03 3.336274337768554688e+01 -1.008129024505615234e+01 -1.240520238876342773e+00 -2.476079575717449188e-02 -3.795842826366424561e-01 -3.177064657211303711e-01
1.517000000000000000e+03 3.260396957397460938e+01 -1.009899616241455078e+01 -1.189712524414062500e+00 -2.586702257394790649e-02 -3.646738529205322266e-01 -3.154978156089782715e-01
1.518000000000000000e+03 3.487158584594726562e+01 -1.004668807983398438e+01 -1.339802384376525879e+00 -2.299349941313266754e-02 -4.088387489318847656e-01 -3.208035528659820557e-01
1.519000000000000000e+03 4.086816024780273438e+01 -3.298372268676757812e+00 -1.658061385154724121e+00 1.630960404872894287e-02 -4.925255477428436279e-01 3.440011143684387207e-01
1.520000000000000000e+03 4.688386917114257812e+01 -3.202538251876831055e+00 -1.975722789764404297e+00 2.820319496095180511e-02 -5.842558741569519043e-01 2.436831742525100708e-01
1.521000000000000000e+03 1.355736255645751953e+01 5.013628959655761719e+00 -1.326627796515822411e-03 -3.908168000634759665e-04 -5.152333760634064674e-04 -8.141446160152554512e-04
1.522000000000000000e+03 9.406570434570312500e+00 3.390213012695312500e+00 2.405025152256712317e-04 9.249806753359735012e-04 3.496449498925358057e-04 6.545783253386616707e-04
1.523000000000000000e+03 1.261560249328613281e+01 4.112994194030761719e+00 -1.272325054742395878e-03 -2.236412401543930173e-04 -4.487899132072925568e-04 -1.135316793806850910e-03
1.524000000000000000e+03 1.258754348754882812e+01 3.302382230758666992e+00 1.244735438376665115e-03 -3.261604579165577888e-04 2.755724708549678326e-04 4.576786304824054241e-04
1.525000000000000000e+03 3.031244659423828125e+01 -1.014661121368408203e+01 -1.030835747718811035e+00 -2.240218035876750946e-02 -3.159713745117187500e-01 -3.105717301368713379e-01
1.526000000000000000e+03 3.107969284057617188e+01 -1.013244819641113281e+01 -1.084593534469604492e+00 -2.482385560870170593e-02 -3.328252136707305908e-01 -3.119921684265136719e-01
1.527000000000000000e+03 2.953974914550781250e+01 -1.015708351135253906e+01 -9.771903157234191895e-01 -2.064418978989124298e-02 -2.993503510951995850e-01 -3.092970848083496094e-01
1.528000000000000000e+03 5.966926956176757812e+01 -9.236700057983398438e+00 1.275997400283813477e+00 3.560504913330078125e+00 1.450950741767883301e+00 3.717076063156127930e+00
1.529000000000000000e+03 9.286821365356445312e+00 4.179472923278808594e+00 -1.581077813170850277e-04 -1.111928024329245090e-03 -3.810107591561973095e-04 -7.860637269914150238e-04
1.530000000000000000e+03 1.940133476257324219e+01 -8.592221260070800781e+00 -2.350946366786956787e-01 -3.021104075014591217e-02 -7.959170639514923096e-02 -1.614348143339157104e-01
1.531000000000000000e+03 6.753973007202148438e+00 -3.338017463684082031e+00 3.171356365783140063e-05 1.257845869986340404e-04 4.724944301415234804e-05 2.906677545979619026e-04
1.532000000000000000e+03 2.751624107360839844e+00 -6.697401046752929688e+00 -2.430104068480432034e-04 7.707938493695110083e-05 -4.977930802851915359e-05 -3.059701994061470032e-04
1.533000000000000000e+03 7.561996936798095703e+00 -4.081232547760009766e+00 1.255522656720131636e-04 1.676713145570829511e-05 4.269581768312491477e-05 4.188246093690395355e-04
1.534000000000000000e+03 8.876585006713867188e+00 -2.518710374832153320e+00 2.545455936342477798e-05 1.472755538998171687e-04 5.181903543416410685e-05 2.880441315937787294e-04
1.535000000000000000e+03 5.904901027679443359e+00 -2.631628274917602539e+00 -2.867620969482231885e-05 1.356192078674212098e-04 3.208290218026377261e-05 2.132485096808522940e-04
1.536000000000000000e+03 5.462816715240478516e+00 -4.175831794738769531e+00 -5.775136378360912204e-05 -5.676239015883766115e-05 -3.435412509134039283e-05 -2.761633368209004402e-04
1.537000000000000000e+03 3.500067472457885742e+00 -4.685833454132080078e+00 2.336928300792351365e-04 8.961055573308840394e-05 9.699101065052673221e-05 3.688344149850308895e-04
1.538000000000000000e+03 2.123906612396240234e+00 -3.189459323883056641e+00 -1.657270913710817695e-04 -2.645799941092263907e-05 -5.765552850789390504e-05 -8.824373071547597647e-05
1.539000000000000000e+03 1.660754919052124023e+00 -5.275313854217529297e+00 -3.801362763624638319e-04 3.713980913744308054e-05 -1.028989354381337762e-04 -1.630958431633189321e-04
1.540000000000000000e+03 2.720966529846191406e+01 -1.013740921020507812e+01 -8.166527152061462402e-01 -8.160190656781196594e-03 -2.474438697099685669e-01 -3.044333755970001221e-01
1.541000000000000000e+03 2.798564720153808594e+01 -1.015485763549804688e+01 -8.697642683982849121e-01 -1.335981581360101700e-02 -2.649372220039367676e-01 -3.065014779567718506e-01
1.542000000000000000e+03 2.643631172180175781e+01 -1.010988521575927734e+01 -7.644774913787841797e-01 -3.535376163199543953e-03 -2.304038703441619873e-01 -3.019269108772277832e-01
1.543000000000000000e+03 2.090427207946777344e+01 -8.922584533691406250e+00 -3.643334507942199707e-01 3.800446633249521255e-03 -1.081598997116088867e-01 -2.044851779937744141e-01
1.544000000000000000e+03 2.329112434387207031e+01 -9.968070983886718750e+00 -5.587024688720703125e-01 1.615452580153942108e-02 -1.627643853425979614e-01 -2.875023186206817627e-01
1.545000000000000000e+03 2.082610511779785156e+01 -9.801527976989746094e+00 -4.059993326663970947e-01 -4.434325732290744781e-03 -1.231300979852676392e-01 -2.622632384300231934e-01
1.546000000000000000e+03 2.408739280700683594e+01 -1.000468349456787109e+01 -6.096348762512207031e-01 1.374483853578567505e-02 -1.787670105695724487e-01 -2.917226552963256836e-01
1.547000000000000000e+03 2.487845230102539062e+01 -1.004055881500244141e+01 -6.607539653778076172e-01 8.418180048465728760e-03 -1.957007497549057007e-01 -2.960915863513946533e-01
1.548000000000000000e+03 1.977267074584960938e+01 -1.447379207611083984e+01 -4.495489597320556641e-01 -8.838498592376708984e-02 -1.613801866769790649e-01 -3.946548402309417725e-01
1.549000000000000000e+03 2.010168075561523438e+01 -2.152382612228393555e+00 -2.992459759116172791e-02 -1.267121583223342896e-01 -4.699102789163589478e-02 9.200758486986160278e-02
1.550000000000000000e+03 2.165856361389160156e+01 -9.874520301818847656e+00 -4.577242732048034668e-01 9.225339628756046295e-03 -1.345496773719787598e-01 -2.729488909244537354e-01
1.551000000000000000e+03 2.248348999023437500e+01 -9.926811218261718750e+00 -5.093399882316589355e-01 1.601505652070045471e-02 -1.479974687099456787e-01 -2.809610068798065186e-01
1.552000000000000000e+03 2.072008323669433594e+01 2.350957632064819336e+00 -9.570193290710449219e-02 -5.142503976821899414e-01 -1.829856932163238525e-01 3.373285830020904541e-01
1.553000000000000000e+03 2.094779586791992188e+01 4.812068462371826172e+00 -1.931961327791213989e-01 -7.441744208335876465e-01 -2.812111675739288330e-01 4.931194186210632324e-01
1.554000000000000000e+03 1.803262519836425781e+01 -1.006030941009521484e+01 -2.554522752761840820e-01 -1.180429235100746155e-01 -1.120485588908195496e-01 -2.341541051864624023e-01
1.555000000000000000e+03 1.075829696655273438e+01 9.084156990051269531e+00 7.349642110057175159e-04 2.887955866754055023e-03 1.086876029148697853e-03 1.229697256349027157e-03
1.556000000000000000e+03 1.107157230377197266e+01 1.066029357910156250e+01 1.992478966712951660e-03 3.228052053600549698e-03 1.566159306094050407e-03 2.194978063926100731e-03
1.557000000000000000e+03 1.332569599151611328e+01 6.175247669219970703e+00 1.637788722291588783e-03 5.122906877659261227e-04 6.450238288380205631e-04 9.735968196764588356e-04
1.558000000000000000e+03 6.044878959655761719e+00 -1.450086116790771484e+01 7.002911530435085297e-03 -4.013018682599067688e-03 8.969679474830627441e-04 -1.379984524101018906e-02
1.559000000000000000e+03 6.666507244110107422e+00 -1.331943607330322266e+01 -9.212595177814364433e-04 1.027949526906013489e-02 2.807470737025141716e-03 -5.414980929344892502e-03
1.560000000000000000e+03 1.917027282714843750e+01 1.099641895294189453e+01 -5.355548858642578125e-01 -1.387047648429870605e+00 -5.767807364463806152e-01 7.259731888771057129e-01
1.561000000000000000e+03 2.104444694519042969e+01 7.644386768341064453e+00 -3.608781993389129639e-01 -9.196670055389404297e-01 -3.841635584831237793e-01 6.490503549575805664e-01
1.562000000000000000e+03 1.079252624511718750e+01 -3.337046861648559570e+00 -1.271348901354940608e-05 5.137060361448675394e-05 1.159713428933173418e-05 2.413662441540509462e-04
1.563000000000000000e+03 8.563569068908691406e+00 -2.029307746887207031e+01 -2.859911918640136719e-01 -2.421381324529647827e-01 -1.584387868642807007e-01 -3.491109609603881836e-01
1.564000000000000000e+03 7.864989757537841797e+00 -1.882137107849121094e+01 -2.865273654460906982e-01 -4.690311476588249207e-02 -1.000291407108306885e-01 -1.653569489717483521e-01
1.565000000000000000e+03 1.006568336486816406e+01 4.166984081268310547e+00 2.914565266110002995e-04 1.233745482750236988e-03 4.575605853460729122e-04 8.442269172519445419e-04
1.566000000000000000e+03 1.005108833312988281e+01 -6.114665508270263672e+00 1.359563320875167847e-04 -4.623788699973374605e-04 -9.792676428332924843e-05 2.438131778035312891e-04
1.567000000000000000e+03 1.450475883483886719e+01 -1.803150558471679688e+01 -3.760060369968414307e-01 -3.481861054897308350e-01 -2.172576487064361572e-01 -3.366869986057281494e-01
1.568000000000000000e+03 1.609764289855957031e+01 -1.572594261169433594e+01 -4.263981282711029053e-01 -2.860434055328369141e-01 -2.137324512004852295e-01 -3.716880083084106445e-01
1.569000000000000000e+03 9.618594169616699219e+00 -1.984680938720703125e+01 -2.574562430381774902e-01 -3.847106099128723145e-01 -1.926500648260116577e-01 -3.823433518409729004e-01
1.570000000000000000e+03 1.986218070983886719e+01 -1.820012629032135010e-01 -2.536935918033123016e-02 -2.551274597644805908e-01 -8.414904773235321045e-02 1.384984403848648071e-01
1.571000000000000000e+03 1.989102363586425781e+01 -1.067012023925781250e+01 -3.945307135581970215e-01 -4.059974104166030884e-02 -1.305391341447830200e-01 -2.995596826076507568e-01
1.572000000000000000e+03 3.604023218154907227e+00 2.174457168579101562e+01 -9.026846289634704590e-02 -1.226100772619247437e-01 -6.386356055736541748e-02 1.268469244241714478e-01
1.573000000000000000e+03 7.703295135498046875e+01 -3.650783157348632812e+01 -3.553622961044311523e-02 8.518729209899902344e+00 2.544957876205444336e+00 -1.213861722499132156e-02
1.574000000000000000e+03 7.430773925781250000e+01 -3.128260040283203125e+01 -7.561378180980682373e-02 7.993518829345703125e+00 2.375371456146240234e+00 -8.155774325132369995e-02
1.575000000000000000e+03 7.515278625488281250e+01 -3.488095092773437500e+01 -5.177567526698112488e-02 8.121876716613769531e+00 2.421030282974243164e+00 -3.744099661707878113e-02
1.576000000000000000e+03 7.585637664794921875e+01 -2.199341392517089844e+01 -1.676620841026306152e-01 7.990635871887207031e+00 2.346892118453979492e+00 -5.111957788467407227e-01
1.577000000000000000e+03 7.806372070312500000e+01 -2.769144058227539062e+01 -2.679531835019588470e-02 8.527098655700683594e+00 2.550090789794921875e+00 -1.156020313501358032e-01
1.578000000000000000e+03 7.537829589843750000e+01 1.541486072540283203e+01 -1.197690218687057495e-01 8.026638984680175781e+00 2.372061014175415039e+00 1.240732371807098389e-01
1.579000000000000000e+03 7.673393249511718750e+01 1.540115737915039062e+01 -6.703096628189086914e-02 8.209309577941894531e+00 2.442683696746826172e+00 1.122839376330375671e-01
1.580000000000000000e+03 7.810853576660156250e+01 3.552246475219726562e+01 2.200883463956415653e-04 8.235449790954589844e+00 2.470700979232788086e+00 -4.008535295724868774e-02
1.581000000000000000e+03 7.642935180664062500e+01 3.356307601928710938e+01 3.735224483534693718e-03 7.966377735137939453e+00 2.391033887863159180e+00 -7.711079716682434082e-02
1.582000000000000000e+03 7.702686309814453125e+01 -2.345056915283203125e+01 -8.578223735094070435e-02 8.131388664245605469e+00 2.413681983947753906e+00 -3.419758379459381104e-01
1.583000000000000000e+03 7.626509094238281250e+01 -3.025275611877441406e+01 -4.921145364642143250e-02 8.305598258972167969e+00 2.476916074752807617e+00 -9.977672994136810303e-02
1.584000000000000000e+03 7.659657287597656250e+01 -2.887341308593750000e+01 -5.970184132456779480e-02 8.338960647583007812e+00 2.483777523040771484e+00 -1.350449323654174805e-01
1.585000000000000000e+03 7.711351013183593750e+01 -3.494254684448242188e+01 -2.774972096085548401e-02 8.513247489929199219e+00 2.545649290084838867e+00 -2.035833522677421570e-02
1.586000000000000000e+03 7.491152191162109375e+01 -3.666706466674804688e+01 -3.400166705250740051e-02 8.098303794860839844e+00 2.419290781021118164e+00 -3.057540766894817352e-02
1.587000000000000000e+03 7.589145660400390625e+01 -2.476275253295898438e+01 -1.362647116184234619e-01 8.131013870239257812e+00 2.398424863815307617e+00 -3.346764147281646729e-01
1.588000000000000000e+03 7.698563385009765625e+01 -2.617142295837402344e+01 -7.108489423990249634e-02 8.298456192016601562e+00 2.468211412429809570e+00 -2.187231779098510742e-01
1.589000000000000000e+03 7.702535247802734375e+01 -2.482074356079101562e+01 -7.844242453575134277e-02 8.226453781127929688e+00 2.444403409957885742e+00 -2.743681371212005615e-01
1.590000000000000000e+03 7.550772857666015625e+01 -3.322151184082031250e+01 -3.182315453886985779e-02 8.187843322753906250e+00 2.446806192398071289e+00 -4.792587459087371826e-02
1.591000000000000000e+03 7.589186096191406250e+01 -3.168944931030273438e+01 -4.558965563774108887e-02 8.259707450866699219e+00 2.464235305786132812e+00 -7.820894569158554077e-02
1.592000000000000000e+03 7.563911437988281250e+01 -4.053138732910156250e+01 1.655546762049198151e-02 8.344952583312988281e+00 2.508452415466308594e+00 -5.441408976912498474e-02
1.593000000000000000e+03 7.804515075683593750e+01 2.226916694641113281e+01 -7.147621363401412964e-03 8.440497398376464844e+00 2.530004739761352539e+00 -1.653564535081386566e-02
1.594000000000000000e+03 7.675192260742187500e+01 2.088383483886718750e+01 -2.216487564146518707e-02 8.219624519348144531e+00 2.459237813949584961e+00 -1.806012913584709167e-02
1.595000000000000000e+03 7.542258453369140625e+01 2.219261550903320312e+01 -2.872007712721824646e-02 7.970721244812011719e+00 2.382600307464599609e+00 -5.148588120937347412e-02
1.596000000000000000e+03 7.673608398437500000e+01 1.402401733398437500e+01 -7.819672673940658569e-02 8.177655220031738281e+00 2.429837465286254883e+00 1.666525155305862427e-01
1.597000000000000000e+03 7.806158447265625000e+01 1.261018657684326172e+01 -3.647549450397491455e-02 8.281374931335449219e+00 2.473469972610473633e+00 1.616209298372268677e-01
1.598000000000000000e+03 7.561454010009765625e+01 8.471326828002929688e+00 -1.988319456577301025e-01 7.887239933013916016e+00 2.306522369384765625e+00 5.446425080299377441e-01
1.599000000000000000e+03 7.670038604736328125e+01 2.359079933166503906e+01 -1.297245267778635025e-02 8.174950599670410156e+00 2.448593378067016602e+00 -4.426841437816619873e-02
1.600000000000000000e+03 7.790543365478515625e+01 2.644768714904785156e+01 -2.255055587738752365e-03 8.349206924438476562e+00 2.504085540771484375e+00 -3.280109539628028870e-02
1.601000000000000000e+03 7.675141906738281250e+01 1.263907432556152344e+01 -8.990218490362167358e-02 8.131457328796386719e+00 2.412466526031494141e+00 2.281027436256408691e-01
1.602000000000000000e+03 7.823558807373046875e+01 -2.077703857421875000e+01 -4.072897881269454956e-02 7.877524852752685547e+00 2.351038932800292969e+00 -3.300003409385681152e-01
1.603000000000000000e+03 7.703657531738281250e+01 -2.207161331176757812e+01 -9.522071480751037598e-02 8.011699676513671875e+00 2.374943733215332031e+00 -4.146766364574432373e-01
1.604000000000000000e+03 7.775371551513671875e+01 3.070932960510253906e+01 -6.172491237521171570e-03 8.256070137023925781e+00 2.474969148635864258e+00 -4.264075681567192078e-02
1.605000000000000000e+03 7.639331054687500000e+01 2.782052612304687500e+01 -4.488515667617321014e-03 8.046402931213378906e+00 2.412574291229248047e+00 -6.151432916522026062e-02
1.606000000000000000e+03 7.686478424072265625e+01 8.467959403991699219e+00 -1.113400086760520935e-01 7.865545749664306641e+00 2.326261758804321289e+00 4.576495885848999023e-01
1.607000000000000000e+03 7.499607849121093750e+01 -1.653744888305664062e+01 -1.647627949714660645e-01 7.704505443572998047e+00 2.261922836303710938e+00 -9.619013667106628418e-01
1.608000000000000000e+03 7.600334167480468750e+01 -8.211738586425781250e+00 4.377590715885162354e-01 6.488684654235839844e+00 2.077933073043823242e+00 -3.671211302280426025e-01
1.609000000000000000e+03 7.828529357910156250e+01 -1.386311721801757812e+01 1.038360036909580231e-02 6.425889968872070312e+00 1.930882096290588379e+00 -5.034855008125305176e-01
1.610000000000000000e+03 7.579865264892578125e+01 -1.213795185089111328e+00 2.122191935777664185e-01 6.887288093566894531e+00 2.129852056503295898e+00 8.410746455192565918e-01
1.611000000000000000e+03 7.712938690185546875e+01 -8.248844146728515625e+00 2.411594390869140625e-01 5.982631206512451172e+00 1.867137193679809570e+00 -2.944673597812652588e-01
1.612000000000000000e+03 7.585363769531250000e+01 1.604174017906188965e+00 -1.875945925712585449e-02 7.247546672821044922e+00 2.168636083602905273e+00 9.351175427436828613e-01
1.613000000000000000e+03 7.573204803466796875e+01 3.562487411499023438e+01 1.887835329398512840e-03 7.855305194854736328e+00 2.357157945632934570e+00 -7.285945117473602295e-02
1.614000000000000000e+03 7.675456237792968750e+01 1.952700805664062500e+01 -3.291730955243110657e-02 8.231680870056152344e+00 2.459628820419311523e+00 1.395659055560827255e-03
1.615000000000000000e+03 7.813976287841796875e+01 7.047857284545898438e+00 -4.537763819098472595e-02 7.673388957977294922e+00 2.288403511047363281e+00 3.748225867748260498e-01
1.616000000000000000e+03 7.695429229736328125e+01 5.694855690002441406e+00 -1.009536460041999817e-01 7.551895141601562500e+00 2.235282421112060547e+00 6.195403337478637695e-01
1.617000000000000000e+03 7.821474456787109375e+01 -1.309153676033020020e+00 5.047769844532012939e-02 5.904458045959472656e+00 1.786480665206909180e+00 4.508209824562072754e-01
1.618000000000000000e+03 7.703894042968750000e+01 -2.660025358200073242e+00 1.799464821815490723e-01 6.212327957153320312e+00 1.917682290077209473e+00 5.439803004264831543e-01
1.619000000000000000e+03 7.710965728759765625e+01 -9.651834487915039062e+00 1.915349364280700684e-01 6.130266189575195312e+00 1.896540403366088867e+00 -4.826312363147735596e-01
1.620000000000000000e+03 7.715776824951171875e+01 -1.658120918273925781e+01 -6.158146634697914124e-02 7.272671222686767578e+00 2.163326978683471680e+00 -6.952216029167175293e-01
1.621000000000000000e+03 7.491304016113281250e+01 3.410460662841796875e+01 7.166786817833781242e-04 7.735351562500000000e+00 2.320820331573486328e+00 -5.849834531545639038e-02
1.622000000000000000e+03 7.298758697509765625e+01 3.468868637084960938e+01 2.830467373132705688e-02 7.324223995208740234e+00 2.205758571624755859e+00 -7.404936105012893677e-02
1.623000000000000000e+03 7.623918151855468750e+01 3.221511459350585938e+01 -2.560520777478814125e-03 7.970052719116210938e+00 2.390247583389282227e+00 -5.688309296965599060e-02
1.624000000000000000e+03 7.682008361816406250e+01 9.856411933898925781e+00 -1.081839203834533691e-01 7.978924751281738281e+00 2.361222267150878906e+00 3.761013150215148926e-01
1.625000000000000000e+03 7.716523742675781250e+01 -1.521554279327392578e+01 -3.006761334836483002e-02 7.034992694854736328e+00 2.101477384567260742e+00 -7.337803244590759277e-01
1.626000000000000000e+03 7.714125823974609375e+01 -6.851591587066650391e+00 2.665905952453613281e-01 5.914422988891601562e+00 1.854304075241088867e+00 -7.508035004138946533e-02
1.627000000000000000e+03 7.691085815429687500e+01 7.080464839935302734e+00 -1.099936291575431824e-01 7.723141193389892578e+00 2.283944368362426758e+00 5.399464368820190430e-01
1.628000000000000000e+03 7.819695281982421875e+01 2.875108718872070312e+00 -1.832151040434837341e-02 6.848813056945800781e+00 2.049147367477416992e+00 5.107681155204772949e-01
1.629000000000000000e+03 7.585078430175781250e+01 2.978978872299194336e+00 -9.081261605024337769e-02 7.407858848571777344e+00 2.195113897323608398e+00 8.974546790122985840e-01
1.630000000000000000e+03 7.701444244384765625e+01 -1.261233210563659668e+00 1.179070174694061279e-01 6.420450210571289062e+00 1.961507201194763184e+00 6.660415530204772949e-01
1.631000000000000000e+03 7.826778411865234375e+01 -5.492617607116699219e+00 1.112285032868385315e-01 5.324797630310058594e+00 1.630807757377624512e+00 1.007519364356994629e-01
1.632000000000000000e+03 7.712599182128906250e+01 -5.457065105438232422e+00 2.642699480056762695e-01 5.933903217315673828e+00 1.859452009201049805e+00 1.507456600666046143e-01
1.633000000000000000e+03 7.708511352539062500e+01 -4.059000492095947266e+00 2.331267744302749634e-01 6.038054943084716797e+00 1.881354570388793945e+00 3.654654920101165771e-01
1.634000000000000000e+03 7.594847106933593750e+01 -1.107009220123291016e+01 2.442801594734191895e-01 6.780956745147705078e+00 2.107571125030517578e+00 -7.822748422622680664e-01
1.635000000000000000e+03 7.713510894775390625e+01 -1.245963287353515625e+01 7.986262440681457520e-02 6.539523601531982422e+00 1.985815882682800293e+00 -7.069819569587707520e-01
1.636000000000000000e+03 7.711102294921875000e+01 -1.105863475799560547e+01 1.345236748456954956e-01 6.320391654968261719e+00 1.936474561691284180e+00 -6.176682710647583008e-01
1.637000000000000000e+03 7.710732269287109375e+01 -1.932052421569824219e+01 -9.492568671703338623e-02 7.695837020874023438e+00 2.280273437500000000e+00 -5.661579370498657227e-01
1.638000000000000000e+03 7.606127929687500000e+01 -1.655108642578125000e+01 -1.077001616358757019e-01 7.484956264495849609e+00 2.213176965713500977e+00 -8.564562201499938965e-01
1.639000000000000000e+03 7.706724548339843750e+01 -2.069391250610351562e+01 -9.716890752315521240e-02 7.868116855621337891e+00 2.331284523010253906e+00 -4.909732341766357422e-01
1.640000000000000000e+03 7.469484806060791016e+00 1.321417999267578125e+01 -3.901595948264002800e-03 8.671378716826438904e-03 1.430934760719537735e-03 7.396243978291749954e-03
1.641000000000000000e+03 1.138187885284423828e+01 8.078061103820800781e+00 -7.410257821902632713e-04 -2.175237052142620087e-03 -8.748788968659937382e-04 -1.364200143143534660e-03
1.642000000000000000e+03 1.293526935577392578e+01 7.332022666931152344e+00 -1.738678896799683571e-03 -1.263679238036274910e-03 -9.007074404507875443e-04 -1.275516231544315815e-03
1.643000000000000000e+03 1.860223579406738281e+01 1.448207569122314453e+01 -7.115843892097473145e-01 -1.271617889404296875e+00 -5.949606895446777344e-01 7.228220105171203613e-01
1.644000000000000000e+03 3.538759231567382812e+00 3.603407669067382812e+01 5.312377586960792542e-02 -8.248935937881469727e-01 -2.315309494733810425e-01 1.223913133144378662e-01
1.645000000000000000e+03 1.992274522781372070e+00 2.750516128540039062e+01 -2.707660198211669922e-03 -3.966328203678131104e-01 -1.198021471500396729e-01 1.529480069875717163e-01
1.646000000000000000e+03 3.552943229675292969e+00 3.016537857055664062e+01 1.923779584467411041e-02 -5.797607302665710449e-01 -1.681568771600723267e-01 2.296614348888397217e-01
1.647000000000000000e+03 1.943338274955749512e+00 2.609384536743164062e+01 -4.659725353121757507e-03 -3.045339584350585938e-01 -9.275811165571212769e-02 1.434464603662490845e-01
1.648000000000000000e+03 3.320695877075195312e+00 2.737884712219238281e+01 -7.539394428022205830e-04 -4.327554702758789062e-01 -1.300528198480606079e-01 2.354846596717834473e-01
1.649000000000000000e+03 6.444398403167724609e+00 2.994361114501953125e+01 6.847251206636428833e-02 -6.280760169029235840e-01 -1.678810566663742065e-01 3.423173129558563232e-01
1.650000000000000000e+03 3.706789493560791016e+00 3.159902763366699219e+01 3.194584697484970093e-02 -6.423529386520385742e-01 -1.831221282482147217e-01 2.178789824247360229e-01
1.651000000000000000e+03 3.434495449066162109e+00 2.876726341247558594e+01 9.946760721504688263e-03 -5.087973475456237793e-01 -1.496551781892776489e-01 2.337279170751571655e-01
1.652000000000000000e+03 6.066566944122314453e+00 3.829015731811523438e+01 1.092784181237220764e-01 -7.808297276496887207e-01 -2.014653980731964111e-01 1.212630867958068848e-01
1.653000000000000000e+03 3.935438156127929688e+00 3.460439682006835938e+01 6.626513600349426270e-02 -7.620933055877685547e-01 -2.087484598159790039e-01 1.709627062082290649e-01
1.654000000000000000e+03 3.982965230941772461e+00 3.309248733520507812e+01 4.926766827702522278e-02 -7.091472148895263672e-01 -1.979638636112213135e-01 2.071551680564880371e-01
1.655000000000000000e+03 3.503073930740356445e+00 -3.557255172729492188e+01 3.743873536586761475e-02 -5.642858147621154785e-01 -1.580541282892227173e-01 -8.180665224790573120e-02
1.656000000000000000e+03 4.012081623077392578e+00 -3.440413665771484375e+01 3.949882090091705322e-02 -5.121006965637207031e-01 -1.417805552482604980e-01 -1.161876693367958069e-01
1.657000000000000000e+03 3.709551811218261719e+00 -3.021013641357421875e+01 1.825548894703388214e-02 -4.160474240779876709e-01 -1.193375810980796814e-01 -1.537527143955230713e-01
1.658000000000000000e+03 2.111055612564086914e+00 -2.894596099853515625e+01 2.733192173764109612e-03 -3.756745457649230957e-01 -1.118824034929275513e-01 -1.045402511954307556e-01
1.659000000000000000e+03 4.544526100158691406e+00 -2.730420112609863281e+01 8.066909387707710266e-03 -3.286400139331817627e-01 -9.617193043231964111e-02 -1.988834142684936523e-01
1.660000000000000000e+03 3.196093320846557617e+00 2.310508918762207031e+01 -6.502708047628402710e-02 -1.805031597614288330e-01 -7.365906983613967896e-02 1.660163998603820801e-01
1.661000000000000000e+03 1.590813755989074707e+00 -1.342749309539794922e+01 1.179918996058404446e-03 2.586811082437634468e-03 1.130018965341150761e-03 4.754790570586919785e-03
1.662000000000000000e+03 1.758127808570861816e+00 2.043931198120117188e+01 -1.983907073736190796e-02 -1.339904963970184326e-02 -9.971436113119125366e-03 2.298445999622344971e-02
1.663000000000000000e+03 1.901599526405334473e+00 1.899046134948730469e+01 -1.374843157827854156e-02 -4.049125593155622482e-03 -5.339267197996377945e-03 4.335738718509674072e-03
1.664000000000000000e+03 5.588880538940429688e+00 1.831439208984375000e+01 -8.394468575716018677e-02 -5.096903070807456970e-02 -4.047411307692527771e-02 2.924448065459728241e-02
1.665000000000000000e+03 1.786567091941833496e+00 -1.892466354370117188e+01 -1.880573667585849762e-02 -6.982930935919284821e-03 -7.736600004136562347e-03 -9.414808824658393860e-03
1.666000000000000000e+03 3.586350202560424805e+00 -1.788299560546875000e+01 -3.435087576508522034e-02 -2.910218015313148499e-02 -1.903591677546501160e-02 -7.121666567400097847e-04
1.667000000000000000e+03 5.438541412353515625e+00 1.352102947235107422e+01 6.889190990477800369e-03 -1.339238975197076797e-02 -1.950959558598697186e-03 5.170577205717563629e-03
1.668000000000000000e+03 1.770309686660766602e+00 -2.176682281494140625e+01 -1.291115395724773407e-02 -7.035952806472778320e-02 -2.498120442032814026e-02 -5.692676082253456116e-02
1.669000000000000000e+03 6.834099292755126953e+00 -1.984335899353027344e+01 -1.900153160095214844e-01 -8.641692996025085449e-02 -8.292967081069946289e-02 -1.807204633951187134e-01
1.670000000000000000e+03 3.805093050003051758e+00 5.108146667480468750e+00 2.336265242774970829e-05 -1.609997270861640573e-04 -4.129112130613066256e-05 1.376287982566282153e-04
1.671000000000000000e+03 3.125933408737182617e+00 7.759898185729980469e+00 -6.949741191419889219e-07 1.672939542913809419e-04 4.997969517717137933e-05 -5.109641933813691139e-04
1.672000000000000000e+03 4.528017044067382812e+00 1.463968563079833984e+01 1.475335936993360519e-02 -1.884387619793415070e-02 -1.227154862135648727e-03 -9.460716391913592815e-04
1.673000000000000000e+03 1.872924327850341797e+00 1.747998619079589844e+01 -6.660836283117532730e-03 6.058678496628999710e-03 -1.806472864700481296e-04 -1.144878007471561432e-02
1.674000000000000000e+03 3.493414163589477539e+00 1.998046112060546875e+01 -6.257785856723785400e-02 -6.685100495815277100e-02 -3.882865980267524719e-02 5.133583769202232361e-02
1.675000000000000000e+03 2.938587188720703125e+00 9.063283920288085938e+00 2.064090687781572342e-03 -1.136593127739615738e-04 5.851294263266026974e-04 -7.491326541639864445e-04
1.676000000000000000e+03 4.814668178558349609e+00 -4.323828220367431641e+00 -9.443183444091118872e-06 2.950112393591552973e-04 8.567041368223726749e-05 2.895407669711858034e-04
1.677000000000000000e+03 2.793848514556884766e+00 -4.541950225830078125e+00 -3.599863848648965359e-04 2.039622340817004442e-04 -4.680724305217154324e-05 -1.277825649594888091e-04
1.678000000000000000e+03 1.960037231445312500e+00 -4.164711475372314453e+00 3.156875900458544493e-04 -2.674518909770995378e-04 1.447070644644554704e-05 -1.468018454033881426e-04
1.679000000000000000e+03 2.713500261306762695e+00 -1.582195854187011719e+01 3.345919772982597351e-03 -8.762597106397151947e-03 -1.625003176741302013e-03 8.752880617976188660e-03
1.680000000000000000e+03 7.618273258209228516e+00 -9.248541831970214844e+00 -1.944132964126765728e-04 1.212290837429463863e-03 3.053632681258022785e-04 -5.534142255783081055e-04
1.681000000000000000e+03 3.475409746170043945e+00 -2.880948448181152344e+01 1.528767868876457214e-02 -3.714871406555175781e-01 -1.068598330020904541e-01 -1.571137309074401855e-01
1.682000000000000000e+03 4.431793689727783203e+00 -3.765527343750000000e+01 3.914827853441238403e-02 -5.768995285034179688e-01 -1.613253802061080933e-01 -8.086722344160079956e-02
1.683000000000000000e+03 2.838951587677001953e+00 -7.952106475830078125e+00 7.616240181960165501e-04 -1.377244479954242706e-04 1.871698768809437752e-04 3.844606399070471525e-04
1.684000000000000000e+03 2.727585792541503906e+00 -3.457928848266601562e+01 1.938367448747158051e-02 -5.650985240936279297e-01 -1.637144535779953003e-01 -7.632459700107574463e-02
1.685000000000000000e+03 5.488943099975585938e+00 -3.476976013183593750e+01 6.464882940053939819e-02 -4.987554848194122314e-01 -1.302319914102554321e-01 -1.329272091388702393e-01
1.686000000000000000e+03 2.754943609237670898e+00 -2.023873138427734375e+01 -3.818902745842933655e-02 -5.573330819606781006e-02 -2.817669883370399475e-02 -5.470230430364608765e-02
1.687000000000000000e+03 1.870978116989135742e+00 -2.319927597045898438e+01 -1.325650606304407120e-02 -1.246192678809165955e-01 -4.136273264884948730e-02 -8.070680499076843262e-02
1.688000000000000000e+03 3.261259555816650391e+00 -2.599909591674804688e+01 -3.516868222504854202e-03 -2.677321135997772217e-01 -8.137469738721847534e-02 -1.550194323062896729e-01
1.689000000000000000e+03 5.871509552001953125e+00 -2.475609397888183594e+01 -3.393505886197090149e-02 -2.742571532726287842e-01 -9.245765954256057739e-02 -2.400434911251068115e-01
1.690000000000000000e+03 2.636836051940917969e+00 -1.461904811859130859e+01 3.943057730793952942e-03 -5.535051226615905762e-03 -4.775979614350944757e-04 7.698454428464174271e-03
1.691000000000000000e+03 2.649444103240966797e+00 -1.344026565551757812e+01 4.610317293554544449e-03 -2.183581935241818428e-03 7.280206773430109024e-04 4.572002682834863663e-03
1.692000000000000000e+03 5.943987846374511719e+00 -9.934684753417968750e+00 1.833536807680502534e-04 1.150926342234015465e-03 4.002839850727468729e-04 -2.813708852045238018e-04
1.693000000000000000e+03 2.920598506927490234e+00 1.034322261810302734e+01 8.646967471577227116e-04 -1.362701150355860591e-04 2.185280027333647013e-04 -1.960803987458348274e-03
1.694000000000000000e+03 3.275747776031494141e+00 1.301348686218261719e+01 6.072456948459148407e-03 -7.020172663033008575e-03 -2.843147085513919592e-04 -5.444766953587532043e-03
1.695000000000000000e+03 6.868357658386230469e+00 1.670350456237792969e+01 -2.205250784754753113e-04 -1.125024259090423584e-02 -3.441230393946170807e-03 1.985854469239711761e-02
1.696000000000000000e+03 5.632580280303955078e+00 1.677163887023925781e+01 -1.470252685248851776e-02 -3.864388912916183472e-02 -1.600392535328865051e-02 1.015698537230491638e-02
1.697000000000000000e+03 4.341610431671142578e+00 1.706482696533203125e+01 -1.574178412556648254e-02 -4.663312062621116638e-02 -1.871247217059135437e-02 1.416341518051922321e-03
1.698000000000000000e+03 5.357817649841308594e+00 1.543321704864501953e+01 7.725199684500694275e-03 -3.357895091176033020e-02 -7.756125647574663162e-03 6.918760482221841812e-03
1.699000000000000000e+03 7.466857433319091797e+00 1.514449405670166016e+01 -6.587732932530343533e-04 1.951015368103981018e-02 5.655414424836635590e-03 2.251741848886013031e-02
1.700000000000000000e+03 4.153943061828613281e+00 -9.282495498657226562e+00 1.513132825493812561e-03 -8.012442267499864101e-04 2.135665999958291650e-04 3.156691964250057936e-04
1.701000000000000000e+03 9.268574714660644531e+00 -7.073151588439941406e+00 -5.435501952888444066e-05 5.403753602877259254e-04 1.458060869481414557e-04 -1.608495367690920830e-04
1.702000000000000000e+03 8.379705429077148438e+00 -8.089774131774902344e+00 3.077002183999866247e-04 -7.631527842022478580e-04 -1.366357755614444613e-04 1.798588200472295284e-04
1.703000000000000000e+03 1.190567588806152344e+01 7.072003841400146484e+00 1.085330615751445293e-03 1.629698206670582294e-03 8.145086467266082764e-04 1.316288136877119541e-03
1.704000000000000000e+03 1.624459648132324219e+01 1.840550422668457031e+01 -6.018309593200683594e-01 -1.217041969299316406e+00 -5.456618666648864746e-01 6.170873641967773438e-01
1.705000000000000000e+03 2.072414016723632812e+01 1.206422448158264160e+00 -7.196721434593200684e-02 -3.993159532546997070e-01 -1.413849443197250366e-01 2.772051990032196045e-01
1.706000000000000000e+03 2.350814247131347656e+01 4.025876998901367188e+00 -2.870022356510162354e-01 -4.527124762535095215e-01 -2.219144105911254883e-01 6.214473843574523926e-01
1.707000000000000000e+03 1.945458030700683594e+01 1.322360610961914062e+01 -6.529287099838256836e-01 -1.222562670707702637e+00 -5.626474022865295410e-01 7.254143357276916504e-01
1.708000000000000000e+03 1.700013160705566406e+01 -1.473339271545410156e+01 -4.279248118400573730e-01 -2.255079597234725952e-01 -1.960298269987106323e-01 -3.681980967521667480e-01
1.709000000000000000e+03 1.795763397216796875e+01 -1.378235912322998047e+01 -4.298258125782012939e-01 -1.586993038654327393e-01 -1.765575408935546875e-01 -3.657204508781433105e-01
1.710000000000000000e+03 1.525091361999511719e+01 -1.679263687133789062e+01 -4.209333360195159912e-01 -3.180624842643737793e-01 -2.216987460851669312e-01 -3.708564937114715576e-01
1.711000000000000000e+03 2.116495132446289062e+01 9.300665855407714844e+00 -4.716584086418151855e-01 -9.384636878967285156e-01 -4.230366349220275879e-01 6.956019997596740723e-01
1.712000000000000000e+03 2.148973464965820312e+01 1.321272754669189453e+01 -5.763565301895141602e-01 -8.114455938339233398e-01 -4.163406491279602051e-01 6.390301585197448730e-01
1.713000000000000000e+03 1.090007781982421875e+01 -1.948945617675781250e+01 -2.751616835594177246e-01 -4.384173154830932617e-01 -2.140737026929855347e-01 -3.108982741832733154e-01
1.714000000000000000e+03 1.359601020812988281e+01 -1.906380462646484375e+01 -3.144996762275695801e-01 -3.822903633117675781e-01 -2.090370059013366699e-01 -3.264147341251373291e-01
1.715000000000000000e+03 1.905028152465820312e+01 1.639894866943359375e+01 -6.032081842422485352e-01 -1.053966879844665527e+00 -4.971525073051452637e-01 5.693017840385437012e-01
1.716000000000000000e+03 1.276068210601806641e+01 2.150582504272460938e+01 -2.774889469146728516e-01 -9.477247595787048340e-01 -3.675641119480133057e-01 6.226726770401000977e-01
1.717000000000000000e+03 1.146135807037353516e+01 2.022790336608886719e+01 -5.646094679832458496e-01 -7.762420773506164551e-01 -4.022554755210876465e-01 6.681908369064331055e-01
1.718000000000000000e+03 5.342947483062744141e+00 -9.087482452392578125e+00 4.064281820319592953e-04 2.280046610394492745e-04 1.903298543766140938e-04 -1.145715010352432728e-03
1.719000000000000000e+03 5.304032325744628906e+00 -1.101013946533203125e+01 2.614015480503439903e-03 -1.997960498556494713e-03 1.848164538387209177e-04 -2.118013566359877586e-03
1.720000000000000000e+03 4.877942562103271484e+00 4.040048599243164062e+01 5.696501955389976501e-02 -8.537588119506835938e-01 -2.390381395816802979e-01 6.136687844991683960e-02
1.721000000000000000e+03 6.098901367187500000e+01 -8.548988342285156250e+00 1.830331087112426758e+00 7.673674106597900391e+00 2.851201534271240234e+00 5.745903015136718750e+00
1.722000000000000000e+03 6.131757736206054688e+01 -8.380012512207031250e+00 1.808040738105773926e+00 9.548814773559570312e+00 3.407056570053100586e+00 6.250712394714355469e+00
1.723000000000000000e+03 5.919906997680664062e+01 -8.723484039306640625e+00 9.536936879158020020e-01 1.895906448364257812e+00 8.548800349235534668e-01 2.649498462677001953e+00
1.724000000000000000e+03 6.026965713500976562e+01 -8.350508689880371094e+00 2.093274116516113281e+00 3.634135246276855469e+00 1.718222856521606445e+00 4.312279224395751953e+00
1.725000000000000000e+03 6.015364456176757812e+01 -4.118103504180908203e+00 1.689071536064147949e+00 3.987036466598510742e+00 1.702832460403442383e+00 -4.244358062744140625e+00
1.726000000000000000e+03 6.159061813354492188e+01 -4.730767726898193359e+00 1.807100415229797363e+00 1.222545051574707031e+01 4.209765434265136719e+00 -6.882895946502685547e+00
1.727000000000000000e+03 6.068576812744140625e+01 -8.418006896972656250e+00 2.151754379272460938e+00 5.587392807006835938e+00 2.321743965148925781e+00 5.158718109130859375e+00
1.728000000000000000e+03 6.250674057006835938e+01 -8.630737304687500000e+00 1.045951396226882935e-01 1.668986892700195312e+01 5.038339138031005859e+00 3.153214454650878906e+00
1.729000000000000000e+03 6.415396118164062500e+01 -7.245276451110839844e+00 7.103534698486328125e+00 1.570986938476562500e+01 6.844021320343017578e+00 -2.069830417633056641e+00
1.730000000000000000e+03 6.410395050048828125e+01 -6.994519710540771484e+00 8.112542152404785156e+00 1.556220912933349609e+01 7.102425098419189453e+00 -1.788058280944824219e+00
1.731000000000000000e+03 6.416331481933593750e+01 -6.242220401763916016e+00 9.137483596801757812e+00 1.502978420257568359e+01 7.250180244445800781e+00 4.979577958583831787e-01
1.732000000000000000e+03 6.422872924804687500e+01 -5.462138175964355469e+00 6.745762348175048828e+00 1.545561885833740234e+01 6.660414218902587891e+00 2.107039451599121094e+00
1.733000000000000000e+03 6.323360824584960938e+01 -4.656417846679687500e+00 1.929149627685546875e+00 1.892400360107421875e+01 6.255945682525634766e+00 4.921344816684722900e-01
1.734000000000000000e+03 6.334925842285156250e+01 -7.966285228729248047e+00 2.849458694458007812e+00 1.890906715393066406e+01 6.527557849884033203e+00 -1.194778323173522949e+00
1.735000000000000000e+03 6.347844314575195312e+01 -4.748036861419677734e+00 2.888661146163940430e+00 1.828683090209960938e+01 6.352647304534912109e+00 1.394780278205871582e+00
1.736000000000000000e+03 6.381351089477539062e+01 -4.742372512817382812e+00 3.447158336639404297e+00 1.711672401428222656e+01 6.169164657592773438e+00 1.796651721000671387e+00
1.737000000000000000e+03 6.420794677734375000e+01 -5.226368904113769531e+00 5.724374771118164062e+00 1.567724990844726562e+01 6.420487403869628906e+00 2.224584341049194336e+00
1.738000000000000000e+03 6.299367904663085938e+01 -4.079775333404541016e+00 2.685559988021850586e-01 1.713394165039062500e+01 5.220749378204345703e+00 -1.370132684707641602e+00
1.739000000000000000e+03 5.766815567016601562e+01 -9.497550964355468750e+00 1.555673480033874512e-01 1.134281754493713379e+00 3.869547247886657715e-01 1.722130775451660156e+00
1.740000000000000000e+03 5.868796539306640625e+01 -9.230203628540039062e+00 6.954456567764282227e-01 1.882136702537536621e+00 7.732747197151184082e-01 2.458435297012329102e+00
1.741000000000000000e+03 5.776742172241210938e+01 -2.933590650558471680e+00 2.981278300285339355e-01 1.600938081741333008e+00 5.697197914123535156e-01 -2.033553600311279297e+00
1.742000000000000000e+03 5.840449142456054688e+01 -3.694479465484619141e+00 3.611060380935668945e-01 1.410105586051940918e+00 5.313634872436523438e-01 -2.098597288131713867e+00
1.743000000000000000e+03 5.781493759155273438e+01 -3.309981107711791992e+00 1.231622397899627686e-01 1.271515130996704102e+00 4.184032380580902100e-01 -1.820229530334472656e+00
1.744000000000000000e+03 5.612747192382812500e+01 -3.059444189071655273e+00 -5.818669199943542480e-01 6.367602348327636719e-01 1.646799966692924500e-02 -9.936071634292602539e-01
1.745000000000000000e+03 5.829566955566406250e+01 -3.249669790267944336e+00 4.455711841583251953e-01 1.709112882614135742e+00 6.464052200317382812e-01 -2.278088331222534180e+00
1.746000000000000000e+03 2.081900215148925781e+01 3.551083326339721680e+00 -1.384592205286026001e-01 -6.279490590095520020e-01 -2.299224734306335449e-01 4.134358465671539307e-01
1.747000000000000000e+03 2.478025817871093750e+01 -3.454586267471313477e+00 -2.739306390285491943e-01 -7.022818922996520996e-02 -1.032476574182510376e-01 2.453675568103790283e-01
1.748000000000000000e+03 2.363998794555664062e+01 -2.821393966674804688e+00 -2.086085081100463867e-01 -1.075127571821212769e-01 -9.483638405799865723e-02 2.438750863075256348e-01
1.749000000000000000e+03 2.004205703735351562e+01 -1.245585560798645020e+00 -3.569127619266510010e-02 -1.820764988660812378e-01 -6.533033400774002075e-02 1.182405874133110046e-01
1.750000000000000000e+03 2.616256904602050781e+01 -3.499338865280151367e+00 -3.720292150974273682e-01 -5.431722849607467651e-02 -1.279039382934570312e-01 2.845665812492370605e-01
1.751000000000000000e+03 2.421790885925292969e+01 -2.802096128463745117e+00 -2.432007044553756714e-01 -1.007781028747558594e-01 -1.031936407089233398e-01 2.677902579307556152e-01
1.752000000000000000e+03 2.758918762207031250e+01 -3.551932811737060547e+00 -4.846825599670410156e-01 -3.542593121528625488e-02 -1.560325473546981812e-01 3.144584596157073975e-01
1.753000000000000000e+03 2.626760101318359375e+01 -2.812767028808593750e+00 -3.828352987766265869e-01 -7.329779863357543945e-02 -1.368399262428283691e-01 3.388244211673736572e-01
1.754000000000000000e+03 8.525075912475585938e+00 4.198800563812255859e+00 2.323795633856207132e-04 1.202806597575545311e-03 4.305558395572006702e-04 5.506928428076207638e-04
1.755000000000000000e+03 2.697837829589843750e+01 -2.846612453460693359e+00 -4.358886480331420898e-01 -5.989930778741836548e-02 -1.487363874912261963e-01 3.561234176158905029e-01
1.756000000000000000e+03 2.903016853332519531e+01 -3.585199117660522461e+00 -6.068532466888427734e-01 -1.816503517329692841e-02 -1.875054836273193359e-01 3.352624773979187012e-01
1.757000000000000000e+03 9.609372138977050781e+00 -3.097647428512573242e+00 -4.316335980547592044e-05 2.658160228747874498e-04 6.679580110358074307e-05 3.626229008659720421e-04
1.758000000000000000e+03 8.986231803894042969e+00 -3.243630409240722656e+00 -4.781067764270119369e-05 -1.865920785348862410e-04 -7.032082794466987252e-05 -2.539096458349376917e-04
1.759000000000000000e+03 7.784998416900634766e+00 4.200438499450683594e+00 -9.048132051248103380e-05 -9.624976664781570435e-04 -3.158937033731490374e-04 -5.241628969088196754e-04
1.760000000000000000e+03 7.613836288452148438e+00 5.066541194915771484e+00 2.889080788008868694e-04 1.284051686525344849e-03 4.718879354186356068e-04 4.079361096955835819e-04
1.761000000000000000e+03 5.123034000396728516e+00 3.929928064346313477e+00 -2.506378223188221455e-06 -5.687185330316424370e-04 -1.713674719212576747e-04 1.334442117695289198e-06
1.762000000000000000e+03 2.473159313201904297e+00 4.628660202026367188e+00 -3.093593113590031862e-04 -2.026125584961846471e-04 -1.535915653221309185e-04 2.939749974757432938e-04
1.763000000000000000e+03 4.479961395263671875e+00 5.767953395843505859e+00 3.096177242696285248e-04 1.770026865415275097e-04 1.459861232433468103e-04 -1.060392169165425003e-04
1.764000000000000000e+03 3.185131788253784180e+00 3.480202913284301758e+00 -1.675389212323352695e-04 -3.939288144465535879e-04 -1.684403250692412257e-04 3.038367140106856823e-04
1.765000000000000000e+03 1.467551827430725098e+00 4.893815994262695312e+00 3.658296773210167885e-04 -3.941064642276614904e-05 9.792570926947519183e-05 -1.521712079011194874e-06
1.766000000000000000e+03 1.704978585243225098e+00 3.320880413055419922e+00 -1.776337303454056382e-04 -2.647638029884546995e-05 -6.123303319327533245e-05 9.425816642760764807e-06
1.767000000000000000e+03 3.047292137145996094e+01 -3.582296371459960938e+00 -7.352938055992126465e-01 -4.546834621578454971e-03 -2.219521999359130859e-01 3.505039513111114502e-01
1.768000000000000000e+03 2.983738708496093750e+01 -2.918906688690185547e+00 -6.624804735183715820e-01 -1.719035767018795013e-02 -2.039012610912322998e-01 4.017645716667175293e-01
1.769000000000000000e+03 2.564088249206542969e+01 -2.090052604675292969e+00 -3.391563594341278076e-01 -1.087770387530326843e-01 -1.343800127506256104e-01 3.706437051296234131e-01
1.770000000000000000e+03 2.273595046997070312e+01 -2.357139587402343750e+00 -1.559018194675445557e-01 -1.378305107355117798e-01 -8.811970055103302002e-02 2.265254706144332886e-01
1.771000000000000000e+03 2.928744888305664062e+01 -1.653830885887145996e+00 -5.861127972602844238e-01 -4.370845481753349304e-02 -1.889463663101196289e-01 4.898307621479034424e-01
1.772000000000000000e+03 3.192616271972656250e+01 -3.555739641189575195e+00 -8.680166602134704590e-01 5.425361916422843933e-03 -2.587773799896240234e-01 3.607312440872192383e-01
1.773000000000000000e+03 2.991233253479003906e+01 -2.262347459793090820e+00 -6.500840187072753906e-01 -2.429471537470817566e-02 -2.023136168718338013e-01 4.538468122482299805e-01
1.774000000000000000e+03 7.508983135223388672e+00 -3.337394237518310547e+00 -6.816366658313199878e-05 -5.602156670647673309e-05 -3.725556962308473885e-05 -2.234147250419482589e-04
1.775000000000000000e+03 1.072192001342773438e+01 -5.216114521026611328e+00 -2.711846173042431474e-05 2.128577034454792738e-04 5.572177178692072630e-05 -1.407841336913406849e-04
1.776000000000000000e+03 3.340013885498046875e+01 -3.517155885696411133e+00 -1.004642724990844727e+00 1.218580454587936401e-02 -2.977370917797088623e-01 3.667395114898681641e-01
1.777000000000000000e+03 3.199413871765136719e+01 -2.869813680648803711e+00 -8.396114110946655273e-01 3.220995422452688217e-03 -2.509171068668365479e-01 4.214847683906555176e-01
1.778000000000000000e+03 2.912346649169921875e+01 -2.919419765472412109e+00 -6.039228439331054688e-01 -2.664101123809814453e-02 -1.891691535711288452e-01 3.920763134956359863e-01
1.779000000000000000e+03 3.488409042358398438e+01 -3.470422506332397461e+00 -1.142378330230712891e+00 1.619513146579265594e-02 -3.378549516201019287e-01 3.692661225795745850e-01
1.780000000000000000e+03 4.536456298828125000e+01 -1.189552307128906250e+01 -1.194126963615417480e+00 7.841943204402923584e-02 -3.347122669219970703e-01 -2.443450540304183960e-01
1.781000000000000000e+03 4.239205932617187500e+01 -1.054888916015625000e+01 -1.577260851860046387e+00 1.258360780775547028e-02 -4.694031774997711182e-01 -3.222553133964538574e-01
1.782000000000000000e+03 4.686058425903320312e+01 -1.045410919189453125e+01 -1.627534389495849609e+00 5.085132271051406860e-02 -4.730049073696136475e-01 -2.230179756879806519e-01
1.783000000000000000e+03 4.908246994018554688e+01 -1.042958164215087891e+01 -1.548534154891967773e+00 9.134584665298461914e-02 -4.371564984321594238e-01 -1.216293051838874817e-01
1.784000000000000000e+03 4.314957809448242188e+01 -1.123638248443603516e+01 -1.403300285339355469e+00 3.101642616093158722e-02 -4.116851389408111572e-01 -3.194695711135864258e-01
1.785000000000000000e+03 4.983117294311523438e+01 -1.041730308532714844e+01 -1.498041152954101562e+00 1.121504306793212891e-01 -4.157672226428985596e-01 -7.274848967790603638e-02
1.786000000000000000e+03 4.016258621215820312e+01 -1.061456108093261719e+01 -1.492450118064880371e+00 6.154216825962066650e-04 -4.475503861904144287e-01 -3.464506864547729492e-01
1.787000000000000000e+03 5.208108520507812500e+01 -1.034253787994384766e+01 -1.271894812583923340e+00 2.162365317344665527e-01 -3.166974782943725586e-01 1.464566737413406372e-01
1.788000000000000000e+03 3.425731277465820312e+01 -2.117396116256713867e+00 -9.661110639572143555e-01 1.663154736161231995e-02 -2.848438620567321777e-01 4.840080440044403076e-01
1.789000000000000000e+03 5.365786361694335938e+01 -3.374670267105102539e+00 -1.623104929924011230e+00 1.671606153249740601e-01 -4.367833137512207031e-01 -2.116720229387283325e-01
1.790000000000000000e+03 5.503481674194335938e+01 -3.616677045822143555e+00 -1.423980474472045898e+00 2.616645693778991699e-01 -3.486947715282440186e-01 -4.214839935302734375e-01
1.791000000000000000e+03 3.637488937377929688e+01 -3.420416116714477539e+00 -1.278713345527648926e+00 1.803749613463878632e-02 -3.782027363777160645e-01 3.684001266956329346e-01
1.792000000000000000e+03 5.282786941528320312e+01 -1.030357551574707031e+01 -1.158371090888977051e+00 2.652061581611633301e-01 -2.679494619369506836e-01 2.554349303245544434e-01
1.793000000000000000e+03 3.941310501098632812e+01 -1.063870620727539062e+01 -1.458326458930969238e+00 -4.505124408751726151e-03 -4.388494789600372314e-01 -3.508145213127136230e-01
1.794000000000000000e+03 4.389757537841796875e+01 -1.121767807006835938e+01 -1.410357356071472168e+00 3.790821507573127747e-02 -4.117347598075866699e-01 -3.015337288379669189e-01
1.795000000000000000e+03 4.236832427978515625e+01 -9.831162452697753906e+00 -1.772167682647705078e+00 5.635853391140699387e-03 -5.299595594406127930e-01 -3.009037375450134277e-01
1.796000000000000000e+03 4.535078430175781250e+01 -9.763772964477539062e+00 -1.875852108001708984e+00 1.901799254119396210e-02 -5.570502281188964844e-01 -2.632523775100708008e-01
1.797000000000000000e+03 4.462995147705078125e+01 -1.049301719665527344e+01 -1.627698659896850586e+00 2.760124951601028442e-02 -4.800291955471038818e-01 -2.845553159713745117e-01
1.798000000000000000e+03 4.832852935791015625e+01 -9.717493057250976562e+00 -1.888489484786987305e+00 4.409366846084594727e-02 -5.533187389373779297e-01 -1.883345693349838257e-01
1.799000000000000000e+03 4.760149002075195312e+01 -1.044451904296875000e+01 -1.611036181449890137e+00 6.155257672071456909e-02 -4.648450911045074463e-01 -1.950608938932418823e-01
1.800000000000000000e+03 5.498329544067382812e+01 -1.083172607421875000e+01 -3.601705133914947510e-01 7.407819032669067383e-01 1.141834184527397156e-01 9.259113073348999023e-01
1.801000000000000000e+03 5.567928695678710938e+01 -1.012283897399902344e+01 -4.501799046993255615e-01 6.640125513076782227e-01 6.414980441331863403e-02 9.518291950225830078e-01
1.802000000000000000e+03 4.091033172607421875e+01 -1.059291744232177734e+01 -1.523363947868347168e+00 3.505634376779198647e-03 -4.559574723243713379e-01 -3.387392163276672363e-01
1.803000000000000000e+03 3.938154602050781250e+01 -9.914788246154785156e+00 -1.618386983871459961e+00 -6.229212507605552673e-03 -4.873848557472229004e-01 -3.195732831954956055e-01
1.804000000000000000e+03 5.131315231323242188e+01 -9.664300918579101562e+00 -1.737418770790100098e+00 1.052476912736892700e-01 -4.896513223648071289e-01 -2.779311873018741608e-02
1.805000000000000000e+03 5.057946395874023438e+01 -1.039905166625976562e+01 -1.440175771713256836e+00 1.413156241178512573e-01 -3.896580636501312256e-01 -1.476670522242784500e-02
1.806000000000000000e+03 3.637627792358398438e+01 -1.000837802886962891e+01 -1.436083912849426270e+00 -1.901208981871604919e-02 -4.365288019180297852e-01 -3.231258392333984375e-01
1.807000000000000000e+03 3.866374206542968750e+01 -1.066527843475341797e+01 -1.422881484031677246e+00 -7.563567720353603363e-03 -4.291335344314575195e-01 -3.561918735504150391e-01
1.808000000000000000e+03 5.428034591674804688e+01 -1.020987224578857422e+01 -8.656105399131774902e-01 4.065249562263488770e-01 -1.377256810665130615e-01 5.315282344818115234e-01
1.809000000000000000e+03 5.356107711791992188e+01 -1.025819396972656250e+01 -1.025803804397583008e+00 3.292449414730072021e-01 -2.089676707983016968e-01 3.788950443267822266e-01
1.810000000000000000e+03 3.712197494506835938e+01 -3.396866798400878906e+00 -1.345685243606567383e+00 1.843469589948654175e-02 -3.981751501560211182e-01 3.661883175373077393e-01
1.811000000000000000e+03 3.573276138305664062e+01 -2.054920196533203125e+00 -1.066197156906127930e+00 2.345370128750801086e-02 -3.128230571746826172e-01 4.836789965629577637e-01
1.812000000000000000e+03 3.562429809570312500e+01 -1.002837944030761719e+01 -1.388779997825622559e+00 -2.201932854950428009e-02 -4.232397973537445068e-01 -3.224015235900878906e-01
1.813000000000000000e+03 3.718318939208984375e+01 -1.146063995361328125e+01 -1.209149479866027832e+00 -1.585649698972702026e-02 -3.675017952919006348e-01 -3.917233645915985107e-01
1.814000000000000000e+03 3.420193481445312500e+01 -2.804179191589355469e+00 -1.020931839942932129e+00 1.556589640676975250e-02 -3.016097843647003174e-01 4.302884936332702637e-01
1.815000000000000000e+03 1.096528816223144531e+01 3.376556158065795898e+00 5.866052815690636635e-04 5.640482995659112930e-04 3.451960510574281216e-04 7.855588919483125210e-04
1.816000000000000000e+03 1.161208915710449219e+01 5.008031368255615234e+00 -5.992187070660293102e-04 -1.304357894696295261e-03 -5.710729747079312801e-04 -1.570402644574642181e-03
1.817000000000000000e+03 4.993286132812500000e+01 -2.517763853073120117e+00 -1.618443846702575684e+00 1.055954024195671082e-01 -4.538545310497283936e-01 8.042293041944503784e-02
1.818000000000000000e+03 3.937067794799804688e+01 -3.334019660949707031e+00 -1.539338469505310059e+00 1.731260679662227631e-02 -4.566077589988708496e-01 3.553426265716552734e-01
1.819000000000000000e+03 5.214677810668945312e+01 -3.269959449768066406e+00 -1.800727486610412598e+00 1.152039244771003723e-01 -5.056570768356323242e-01 -4.141283407807350159e-02
1.820000000000000000e+03 3.568451690673828125e+01 -2.749372243881225586e+00 -1.139396667480468750e+00 2.024094387888908386e-02 -3.357467055320739746e-01 4.309131503105163574e-01
1.821000000000000000e+03 5.144210052490234375e+01 -2.576137065887451172e+00 -1.503882646560668945e+00 1.603994816541671753e-01 -4.030449390411376953e-01 -5.397999659180641174e-02
1.822000000000000000e+03 3.867277908325195312e+01 -2.649281978607177734e+00 -1.362414360046386719e+00 2.390074357390403748e-02 -4.015541076660156250e-01 4.172361493110656738e-01
1.823000000000000000e+03 4.838567352294921875e+01 -3.193929433822631836e+00 -1.985673904418945312e+00 3.830324113368988037e-02 -5.842111706733703613e-01 1.935416609048843384e-01
1.824000000000000000e+03 4.613187026977539062e+01 -3.210705280303955078e+00 -1.957117080688476562e+00 2.684203349053859711e-02 -5.790824890136718750e-01 2.634826898574829102e-01
1.825000000000000000e+03 4.767756652832031250e+01 -2.495039463043212891e+00 -1.700547337532043457e+00 6.109134107828140259e-02 -4.918367862701416016e-01 2.162076234817504883e-01
1.826000000000000000e+03 4.316383361816406250e+01 -2.556174278259277344e+00 -1.625661730766296387e+00 2.919840998947620392e-02 -4.789389967918395996e-01 3.592443466186523438e-01
1.827000000000000000e+03 4.166560363769531250e+01 -2.582068920135498047e+00 -1.551651954650878906e+00 2.537953853607177734e-02 -4.578817188739776611e-01 3.838385939598083496e-01
1.828000000000000000e+03 4.538206481933593750e+01 -3.220069169998168945e+00 -1.931282162666320801e+00 2.269364148378372192e-02 -5.725765824317932129e-01 2.810940444469451904e-01
1.829000000000000000e+03 4.542501068115234375e+01 -2.520616292953491211e+00 -1.697623372077941895e+00 4.307067394256591797e-02 -4.963658154010772705e-01 3.026944696903228760e-01
1.830000000000000000e+03 5.691391754150390625e+01 -1.015669822692871094e+01 4.724699631333351135e-02 1.128956198692321777e+00 3.528609573841094971e-01 1.532841563224792480e+00
1.831000000000000000e+03 5.296966171264648438e+01 -2.656122684478759766e+00 -1.301278829574584961e+00 2.502478063106536865e-01 -3.153092861175537109e-01 -2.535124719142913818e-01
1.832000000000000000e+03 3.642979431152343750e+01 -2.721532583236694336e+00 -1.197065472602844238e+00 2.183886989951133728e-02 -3.525679707527160645e-01 4.291945993900299072e-01
1.833000000000000000e+03 3.338991165161132812e+01 -1.081624794006347656e+01 -1.139086604118347168e+00 -2.755662240087985992e-02 -3.499929904937744141e-01 -3.608949482440948486e-01
1.834000000000000000e+03 3.414501571655273438e+01 -1.080004405975341797e+01 -1.181269764900207520e+00 -2.612702921032905579e-02 -3.622190356254577637e-01 -3.620511293411254883e-01
1.835000000000000000e+03 5.068998718261718750e+01 -2.542458534240722656e+00 -1.567161083221435547e+00 1.269480139017105103e-01 -4.320639371871948242e-01 1.932468824088573456e-02
1.836000000000000000e+03 4.917662048339843750e+01 -2.501818180084228516e+00 -1.657173395156860352e+00 8.539006859064102173e-02 -4.715349972248077393e-01 1.337400525808334351e-01
1.837000000000000000e+03 3.941970825195312500e+01 -2.630035161972045898e+00 -1.414033293724060059e+00 2.476656064391136169e-02 -4.167800247669219971e-01 4.106529355049133301e-01
1.838000000000000000e+03 4.091218948364257812e+01 -2.596968173980712891e+00 -1.508559346199035645e+00 2.557594329118728638e-02 -4.448950290679931641e-01 3.940540552139282227e-01
1.839000000000000000e+03 4.692510604858398438e+01 -2.500624179840087891e+00 -1.708402276039123535e+00 5.470997840166091919e-02 -4.961076974868774414e-01 2.490002065896987915e-01
1.840000000000000000e+03 4.617376708984375000e+01 -2.509813547134399414e+00 -1.707584977149963379e+00 4.671768844127655029e-02 -4.982601702213287354e-01 2.780943512916564941e-01
1.841000000000000000e+03 4.318948745727539062e+01 -1.857708930969238281e+00 -1.443382501602172852e+00 4.639000445604324341e-02 -4.190977513790130615e-01 3.856311142444610596e-01
1.842000000000000000e+03 4.467320632934570312e+01 -2.531450510025024414e+00 -1.680075168609619141e+00 3.665820509195327759e-02 -4.930250942707061768e-01 3.246763944625854492e-01
1.843000000000000000e+03 4.391657257080078125e+01 -2.543338298797607422e+00 -1.655476927757263184e+00 3.393575176596641541e-02 -4.864623546600341797e-01 3.431264162063598633e-01
1.844000000000000000e+03 3.640244674682617188e+01 -1.074685287475585938e+01 -1.305040955543518066e+00 -2.109010890126228333e-02 -3.978393077850341797e-01 -3.627113699913024902e-01
1.845000000000000000e+03 2.956458854675292969e+01 -1.090824699401855469e+01 -9.093375802040100098e-01 -2.146602421998977661e-02 -2.792410850524902344e-01 -3.573215901851654053e-01
1.846000000000000000e+03 3.033984184265136719e+01 -1.089216518402099609e+01 -9.566236734390258789e-01 -2.496669255197048187e-02 -2.944771051406860352e-01 -3.576529622077941895e-01
1.847000000000000000e+03 3.184281539916992188e+01 -1.011633872985839844e+01 -1.137050390243530273e+00 -2.488563768565654755e-02 -3.485808074474334717e-01 -3.140566945075988770e-01
1.848000000000000000e+03 3.187138175964355469e+01 -1.085516643524169922e+01 -1.048655033111572266e+00 -2.836534380912780762e-02 -3.231061398983001709e-01 -3.591431677341461182e-01
1.849000000000000000e+03 1.076172351837158203e+01 4.957246780395507812e+00 2.241412294097244740e-04 1.639084308408200741e-03 5.589677020907402039e-04 1.153760123997926712e-03
1.850000000000000000e+03 2.721937751770019531e+01 -1.090896606445312500e+01 -7.721573710441589355e-01 -9.822363033890724182e-03 -2.345939129590988159e-01 -3.535009324550628662e-01
1.851000000000000000e+03 9.821018218994140625e+00 -4.717423439025878906e+00 1.450574636692181230e-04 -4.796557768713682890e-04 -1.003794968710280955e-04 1.335159031441435218e-04
1.852000000000000000e+03 4.609063625335693359e+00 -3.561520099639892578e+00 -4.947149864165112376e-05 -1.008453909889794886e-04 -4.509506470640189946e-05 -2.994397073052823544e-04
1.853000000000000000e+03 6.236173152923583984e+00 -4.819740772247314453e+00 -2.165187615901231766e-04 1.204130894620902836e-04 -2.883170054701622576e-05 -2.965769090224057436e-04
1.854000000000000000e+03 4.167861938476562500e+00 -4.524622917175292969e+00 -9.195518214255571365e-05 -1.154678975581191480e-04 -6.222692172741517425e-05 -4.369100206531584263e-04
1.855000000000000000e+03 6.868697643280029297e+00 -4.708948135375976562e+00 2.310300478711724281e-04 1.599793176865205169e-05 7.410839316435158253e-05 4.305306356400251389e-04
1.856000000000000000e+03 8.267350196838378906e+00 -3.331933498382568359e+00 6.852736987639218569e-05 1.194318174384534359e-04 5.638775473926216364e-05 2.893670171033591032e-04
1.857000000000000000e+03 4.086371421813964844e+00 -7.898517608642578125e+00 9.420671631232835352e-06 2.251344703836366534e-04 7.036654278635978699e-05 -3.948656085412949324e-04
1.858000000000000000e+03 3.237272262573242188e+00 -3.954304695129394531e+00 -1.191609335364773870e-04 -1.029304185067303479e-04 -6.662740634055808187e-05 -3.817164397332817316e-04
1.859000000000000000e+03 3.640701770782470703e+00 -5.579108238220214844e+00 -1.807652442948892713e-04 -8.442952093901112676e-06 -5.676245928043499589e-05 -3.910356026608496904e-04
1.860000000000000000e+03 2.693542242050170898e+00 -5.544303894042968750e+00 3.516850119922310114e-04 -1.231301939697004855e-05 1.018116017803549767e-04 1.895074674393981695e-04
1.861000000000000000e+03 3.110855102539062500e+01 -1.087416172027587891e+01 -1.002779483795166016e+00 -2.636964246630668640e-02 -3.087447285652160645e-01 -3.583701550960540771e-01
1.862000000000000000e+03 2.876322364807128906e+01 -1.016080093383789062e+01 -9.228001236915588379e-01 -1.669555716216564178e-02 -2.818486988544464111e-01 -3.080727159976959229e-01
1.863000000000000000e+03 2.332230949401855469e+01 -1.077062225341796875e+01 -5.616988539695739746e-01 1.239955704659223557e-02 -1.647897809743881226e-01 -3.324894309043884277e-01
1.864000000000000000e+03 2.411519241333007812e+01 -1.078643417358398438e+01 -6.023762226104736328e-01 1.058297697454690933e-02 -1.775379776954650879e-01 -3.381766378879547119e-01
1.865000000000000000e+03 5.560966873168945312e+01 -3.204056739807128906e+00 -8.957478404045104980e-01 4.237636327743530273e-01 -1.415952593088150024e-01 -7.179275751113891602e-01
1.866000000000000000e+03 5.510599517822265625e+01 -3.154914140701293945e+00 -1.059778451919555664e+00 3.527235686779022217e-01 -2.121164798736572266e-01 -5.776565670967102051e-01
1.867000000000000000e+03 2.566144180297851562e+01 -1.007626914978027344e+01 -7.130241990089416504e-01 3.150061471387743950e-03 -2.129622399806976318e-01 -2.988078594207763672e-01
1.868000000000000000e+03 2.878376197814941406e+01 -1.091902828216552734e+01 -8.627887964248657227e-01 -1.867564953863620758e-02 -2.644393146038055420e-01 -3.566755354404449463e-01
1.869000000000000000e+03 1.171966934204101562e+01 4.161149978637695312e+00 9.178348700515925884e-04 6.635402096435427666e-04 4.744125180877745152e-04 1.142522320151329041e-03
1.870000000000000000e+03 2.799976730346679688e+01 -1.092037773132324219e+01 -8.162956833839416504e-01 -1.381388586014509201e-02 -2.490328699350357056e-01 -3.555562198162078857e-01
1.871000000000000000e+03 1.905218315124511719e+01 -1.317191219329833984e+01 -4.349717199802398682e-01 -1.000899821519851685e-01 -1.605185121297836304e-01 -3.669751286506652832e-01
1.872000000000000000e+03 1.878205299377441406e+01 -1.176047992706298828e+01 -3.935700953006744385e-01 -9.979267418384552002e-02 -1.480088233947753906e-01 -3.307151198387145996e-01
1.873000000000000000e+03 2.490274620056152344e+01 -1.080858135223388672e+01 -6.447856426239013672e-01 6.925988476723432541e-03 -1.913578957319259644e-01 -3.419528603553771973e-01
1.874000000000000000e+03 1.872631645202636719e+01 -8.331132888793945312e+00 -1.660061329603195190e-01 -4.381805285811424255e-02 -6.294725835323333740e-02 -1.260411590337753296e-01
1.875000000000000000e+03 2.166680145263671875e+01 -1.073157882690429688e+01 -4.807254970073699951e-01 3.591965185478329659e-03 -1.431400626897811890e-01 -3.182736933231353760e-01
1.876000000000000000e+03 2.251152038574218750e+01 -1.075000000000000000e+01 -5.211396813392639160e-01 1.008155941963195801e-02 -1.533174365758895874e-01 -3.260285258293151855e-01
1.877000000000000000e+03 5.816570663452148438e+01 -9.312037467956542969e+00 4.023994505405426025e-01 1.464537739753723145e+00 5.600811243057250977e-01 2.012197256088256836e+00
1.878000000000000000e+03 1.896467399597167969e+01 -1.050084781646728516e+01 -3.346553146839141846e-01 -8.089761435985565186e-02 -1.246658787131309509e-01 -2.769233286380767822e-01
1.879000000000000000e+03 1.920155525207519531e+01 -9.475931167602539062e+00 -2.849027514457702637e-01 -5.081139132380485535e-02 -1.007142364978790283e-01 -2.185987830162048340e-01
1.880000000000000000e+03 1.005882358551025391e+01 1.009158611297607422e+01 -1.081223235814832151e-04 -2.637007739394903183e-03 -8.235390414483845234e-04 -8.343424415215849876e-04
1.881000000000000000e+03 9.798800468444824219e+00 8.571323394775390625e+00 4.393201670609414577e-04 -2.094075549393892288e-03 -4.964265972375869751e-04 -1.794681738829240203e-04
1.882000000000000000e+03 3.044504642486572266e+00 1.164670944213867188e+01 5.763684865087270737e-03 -1.350767095573246479e-03 1.323875389061868191e-03 -3.121350426226854324e-03
1.883000000000000000e+03 6.704562664031982422e+00 1.835843849182128906e+01 -1.314487755298614502e-01 -3.339470550417900085e-02 -4.945304617285728455e-02 3.844033554196357727e-02
1.884000000000000000e+03 3.095681190490722656e+00 1.728566932678222656e+01 -1.155789569020271301e-02 -2.447733655571937561e-02 -1.081056986004114151e-02 -1.007102988660335541e-02
1.885000000000000000e+03 9.957480430603027344e+00 4.957751274108886719e+00 -4.472335058380849659e-05 -1.526904990896582603e-03 -4.714885144494473934e-04 -1.030123676173388958e-03
1.886000000000000000e+03 4.231069564819335938e+00 1.132234573364257812e+01 2.950302790850400925e-03 -3.746112342923879623e-03 -2.387428539805114269e-04 -8.486916194669902325e-04
1.887000000000000000e+03 8.533515930175781250e+00 -2.508324050903320312e+01 -1.732907816767692566e-02 -3.509148061275482178e-01 -1.104731634259223938e-01 -3.021664023399353027e-01
1.888000000000000000e+03 7.885156154632568359e+00 -2.292573165893554688e+01 -9.437521547079086304e-02 -2.837957143783569336e-01 -1.134512796998023987e-01 -3.032676279544830322e-01
1.889000000000000000e+03 2.858365058898925781e+00 -1.903734779357910156e+01 -3.749526664614677429e-02 -2.637374959886074066e-02 -1.916070468723773956e-02 -2.932428568601608276e-02
1.890000000000000000e+03 6.106422424316406250e+00 -1.857628822326660156e+01 -1.691637486219406128e-01 -2.884737402200698853e-02 -5.940333381295204163e-02 -6.592988967895507812e-02
1.891000000000000000e+03 9.859146118164062500e+00 -3.617408752441406250e+00 1.671582576818764210e-04 -4.651996714528650045e-04 -8.941242413129657507e-05 7.718720735283568501e-05
1.892000000000000000e+03 7.644696712493896484e+00 -2.106877517700195312e+01 -1.923545449972152710e-01 -1.838857084512710571e-01 -1.128720715641975403e-01 -2.754800319671630859e-01
1.893000000000000000e+03 2.237126350402832031e+01 7.448224544525146484e+00 -3.951940536499023438e-01 -7.023649811744689941e-01 -3.292677104473114014e-01 6.955150365829467773e-01
1.894000000000000000e+03 2.101511573791503906e+01 6.162781238555908203e+00 -2.590849995613098145e-01 -8.456079959869384766e-01 -3.314079046249389648e-01 5.714470148086547852e-01
1.895000000000000000e+03 2.086104011535644531e+01 1.540955752134323120e-01 -6.735423207283020020e-02 -3.109405636787414551e-01 -1.134884431958198547e-01 2.360670566558837891e-01
1.896000000000000000e+03 9.109943389892578125e+00 9.525602340698242188e+00 -2.870166499633342028e-04 2.957171527668833733e-03 8.010464953258633614e-04 1.745895860949531198e-04
1.897000000000000000e+03 1.253482627868652344e+01 5.041982650756835938e+00 1.181695493869483471e-03 6.355151417665183544e-04 5.451631732285022736e-04 1.178510487079620361e-03
1.898000000000000000e+03 2.292219924926757812e+01 -1.392409443855285645e+00 -1.682839989662170410e-01 -1.894799321889877319e-01 -1.073291748762130737e-01 2.912905812263488770e-01
1.899000000000000000e+03 7.612089157104492188e+00 -5.839148044586181641e+00 -1.613540080143138766e-04 6.706618587486445904e-04 1.527923450339585543e-04 2.071612834697589278e-04
1.900000000000000000e+03 8.425571441650390625e+00 1.213248825073242188e+01 8.835007320158183575e-04 8.963432628661394119e-04 5.339531926438212395e-04 2.704773505683988333e-04
1.901000000000000000e+03 5.824119091033935547e+00 1.168601131439208984e+01 3.591509768739342690e-03 -5.829797592014074326e-03 -6.714863702654838562e-04 3.149184165522456169e-03
1.902000000000000000e+03 1.392112064361572266e+01 2.055424690246582031e+01 -3.841123282909393311e-01 -1.053153753280639648e+00 -4.311798214912414551e-01 6.088555455207824707e-01
1.903000000000000000e+03 7.538037872314453125e+01 1.404069423675537109e+01 -1.413957774639129639e-01 8.023460388183593750e+00 2.364619255065917969e+00 1.873588413000106812e-01
1.904000000000000000e+03 7.701860809326171875e+01 1.538423299789428711e+00 5.866017309017479420e-04 6.893260478973388672e+00 2.068154096603393555e+00 7.645601034164428711e-01
1.905000000000000000e+03 7.582859802246093750e+01 2.074665874242782593e-01 9.888384491205215454e-02 7.073951721191406250e+00 2.151850700378417969e+00 9.296919107437133789e-01
1.906000000000000000e+03 7.477154541015625000e+01 -9.607957839965820312e+00 5.417899489402770996e-01 7.093172073364257812e+00 2.290488719940185547e+00 -7.255150079727172852e-01
1.907000000000000000e+03 7.607164001464843750e+01 -1.521303272247314453e+01 -5.252170190215110779e-02 7.312399864196777344e+00 2.177963495254516602e+00 -9.027798175811767578e-01
1.908000000000000000e+03 7.715742492675781250e+01 -1.384433937072753906e+01 2.040559425950050354e-02 6.787207126617431641e+00 2.042283773422241211e+00 -7.449636459350585938e-01
1.909000000000000000e+03 7.387674713134765625e+01 -1.279178524017333984e+01 1.672232151031494141e-01 7.704094886779785156e+00 2.361395359039306641e+00 -1.137025713920593262e+00
1.910000000000000000e+03 7.594741821289062500e+01 -9.632677078247070312e+00 3.414818644523620605e-01 6.624389171600341797e+00 2.089761257171630859e+00 -6.074971556663513184e-01
1.911000000000000000e+03 7.269342041015625000e+01 3.263214111328125000e+01 2.158635109663009644e-02 7.310772895812988281e+00 2.199707746505737305e+00 -1.034774482250213623e-01
1.912000000000000000e+03 7.456967163085937500e+01 3.080472183227539062e+01 6.198913790285587311e-03 7.670730113983154297e+00 2.303078889846801758e+00 -8.780062198638916016e-02
1.913000000000000000e+03 7.603591156005859375e+01 -6.822508811950683594e+00 4.648376107215881348e-01 6.414969444274902344e+00 2.063941955566406250e+00 -8.666723221540451050e-02
1.914000000000000000e+03 7.593389892578125000e+01 -4.055604934692382812e+00 4.234482049942016602e-01 6.549728393554687500e+00 2.091953039169311523e+00 4.624359011650085449e-01
1.915000000000000000e+03 7.674830627441406250e+01 1.815534591674804688e+01 -4.406178742647171021e-02 8.234388351440429688e+00 2.457097768783569336e+00 3.101904690265655518e-02
1.916000000000000000e+03 7.673938751220703125e+01 1.677680397033691406e+01 -5.523642897605895996e-02 8.225879669189453125e+00 2.451192855834960938e+00 6.741716712713241577e-02
1.917000000000000000e+03 7.603125762939453125e+01 -1.789361000061035156e+01 -1.452670991420745850e-01 7.642871856689453125e+00 2.249281406402587891e+00 -7.827297449111938477e-01
1.918000000000000000e+03 7.701200103759765625e+01 2.927401065826416016e+00 -5.101432278752326965e-02 7.131177902221679688e+00 2.124049186706542969e+00 7.386819720268249512e-01
1.919000000000000000e+03 7.698957824707031250e+01 4.311281204223632812e+00 -8.033608645200729370e-02 7.350857257843017578e+00 2.181156396865844727e+00 6.881029009819030762e-01
1.920000000000000000e+03 7.553888702392578125e+01 9.856948852539062500e+00 -1.907579451799392700e-01 7.946438312530517578e+00 2.326704025268554688e+00 4.461033940315246582e-01
1.921000000000000000e+03 7.583444976806640625e+01 -2.641335487365722656e+00 3.174402117729187012e-01 6.714673519134521484e+00 2.109634160995483398e+00 6.876346468925476074e-01
1.922000000000000000e+03 7.542028808593750000e+01 1.816713142395019531e+01 -7.966139912605285645e-02 8.019992828369140625e+00 2.382099390029907227e+00 2.321420423686504364e-02
1.923000000000000000e+03 7.542652893066406250e+01 2.087124252319335938e+01 -4.135559871792793274e-02 7.994019985198974609e+00 2.385799169540405273e+00 -3.336995840072631836e-02
1.924000000000000000e+03 7.542857360839843750e+01 1.953168869018554688e+01 -5.671312659978866577e-02 8.008034706115722656e+00 2.385396480560302734e+00 -8.987701497972011566e-03
1.925000000000000000e+03 7.404179382324218750e+01 1.681516075134277344e+01 -1.528179347515106201e-01 7.834072589874267578e+00 2.304376363754272461e+00 4.893521219491958618e-02
1.926000000000000000e+03 7.536157989501953125e+01 -2.855868339538574219e+01 -1.031898856163024902e-01 8.150509834289550781e+00 2.414196014404296875e+00 -1.671912074089050293e-01
1.927000000000000000e+03 7.684799194335937500e+01 -2.751721572875976562e+01 -6.542818248271942139e-02 8.333703041076660156e+00 2.480482339859008789e+00 -1.699038296937942505e-01
1.928000000000000000e+03 7.468899536132812500e+01 -2.338521575927734375e+01 -2.385327816009521484e-01 8.026237487792968750e+00 2.336311340332031250e+00 -4.596879482269287109e-01
1.929000000000000000e+03 7.713889312744140625e+01 -1.794918251037597656e+01 -8.210643380880355835e-02 7.496325016021728516e+00 2.224265575408935547e+00 -6.369380354881286621e-01
1.930000000000000000e+03 7.597949218750000000e+01 -1.924513435363769531e+01 -1.647827178239822388e-01 7.780991554260253906e+00 2.284862756729125977e+00 -6.980379819869995117e-01
1.931000000000000000e+03 7.471805572509765625e+01 3.031108140945434570e+00 -1.458905935287475586e-01 7.683279037475585938e+00 2.261216640472412109e+00 1.002469658851623535e+00
1.932000000000000000e+03 7.569274139404296875e+01 7.089126110076904297e+00 -1.953354924917221069e-01 7.804394245147705078e+00 2.282717704772949219e+00 6.481794714927673340e-01
1.933000000000000000e+03 7.576424407958984375e+01 5.713685035705566406e+00 -1.780829727649688721e-01 7.694020748138427734e+00 2.254781484603881836e+00 7.456732988357543945e-01
1.934000000000000000e+03 7.547034454345703125e+01 1.124854660034179688e+01 -1.807959675788879395e-01 7.986938953399658203e+00 2.341842889785766602e+00 3.520453870296478271e-01
1.935000000000000000e+03 7.424040985107421875e+01 9.823528289794921875e+00 -2.907019853591918945e-01 7.937743663787841797e+00 2.294112443923950195e+00 4.692190289497375488e-01
1.936000000000000000e+03 7.589114379882812500e+01 -2.605540847778320312e+01 -1.215367019176483154e-01 8.170188903808593750e+00 2.414595603942871094e+00 -2.639521956443786621e-01
1.937000000000000000e+03 7.585526275634765625e+01 -2.339157485961914062e+01 -1.559832543134689331e-01 8.065600395202636719e+00 2.372884988784790039e+00 -4.202570617198944092e-01
1.938000000000000000e+03 7.350718688964843750e+01 2.749541664123535156e+01 -5.370591301470994949e-03 7.525873184204101562e+00 2.256150722503662109e+00 -1.173369735479354858e-01
1.939000000000000000e+03 7.652098846435546875e+01 2.638524055480957031e+01 -6.281468551605939865e-03 8.092939376831054688e+00 2.425997257232666016e+00 -5.997428297996520996e-02
1.940000000000000000e+03 7.406710815429687500e+01 2.474131011962890625e+01 -2.403862029314041138e-02 7.677739620208740234e+00 2.296110153198242188e+00 -1.017067655920982361e-01
1.941000000000000000e+03 7.515829467773437500e+01 2.627117156982421875e+01 -9.101624600589275360e-03 7.845230102539062500e+00 2.350838422775268555e+00 -8.403097093105316162e-02
1.942000000000000000e+03 7.620393371582031250e+01 3.076033782958984375e+01 -2.016349695622920990e-03 7.968878746032714844e+00 2.390058755874633789e+00 -6.061290949583053589e-02
1.943000000000000000e+03 7.472541046142578125e+01 2.921979713439941406e+01 -3.388405311852693558e-03 7.718116760253906250e+00 2.314418554306030273e+00 -8.706177026033401489e-02
1.944000000000000000e+03 7.494401550292968750e+01 2.771255302429199219e+01 -1.890316139906644821e-03 7.779899597167968750e+00 2.333402872085571289e+00 -8.754786849021911621e-02
1.945000000000000000e+03 7.354929351806640625e+01 -2.930407714843750000e+01 -1.589365899562835693e-01 7.895766258239746094e+00 2.321048974990844727e+00 -1.367673128843307495e-01
1.946000000000000000e+03 7.257957458496093750e+01 -3.654849624633789062e+01 -6.230548769235610962e-02 7.597725868225097656e+00 2.260626077651977539e+00 6.305214948952198029e-03
1.947000000000000000e+03 7.486479949951171875e+01 -2.987004661560058594e+01 -1.014134287834167480e-01 8.090153694152832031e+00 2.396621942520141602e+00 -1.218522638082504272e-01
1.948000000000000000e+03 3.113758087158203125e+00 1.587559413909912109e+01 3.044005949050188065e-03 -1.932276040315628052e-02 -4.883626475930213928e-03 -1.336811017245054245e-02
1.949000000000000000e+03 3.679050922393798828e+00 -1.604123687744140625e+01 -1.305851037614047527e-03 -2.383250370621681213e-02 -7.541506085544824600e-03 4.635283257812261581e-03
1.950000000000000000e+03 3.526388406753540039e+00 -1.399273586273193359e+01 6.330876145511865616e-03 -1.073796581476926804e-02 -1.322126947343349457e-03 3.952668514102697372e-03
1.951000000000000000e+03 5.488703250885009766e+00 1.973137474060058594e+01 -1.653178632259368896e-01 -7.818328589200973511e-02 -7.305034250020980835e-02 9.088302403688430786e-02
1.952000000000000000e+03 5.234588146209716797e+00 2.108225250244140625e+01 -1.688331514596939087e-01 -1.278189718723297119e-01 -8.899563550949096680e-02 1.709070950746536255e-01
1.953000000000000000e+03 4.515638828277587891e+00 -1.679381752014160156e+01 -7.683343254029750824e-03 -2.639079466462135315e-02 -1.022224128246307373e-02 -1.993553945794701576e-03
1.954000000000000000e+03 3.278435707092285156e+00 1.444666385650634766e+01 1.012478303164243698e-02 -1.260311063379049301e-02 -7.434983272105455399e-04 -8.622722700238227844e-03
1.955000000000000000e+03 4.398735046386718750e+00 1.842800521850585938e+01 -6.156215816736221313e-02 -5.747441947460174561e-02 -3.571097552776336670e-02 2.170721627771854401e-02
1.956000000000000000e+03 4.363010883331298828e+00 2.450821495056152344e+01 -6.797937303781509399e-02 -3.016052842140197754e-01 -1.108753979206085205e-01 2.641860842704772949e-01
1.957000000000000000e+03 4.975485324859619141e+00 3.000999832153320312e+01 3.997839242219924927e-02 -5.972008705139160156e-01 -1.671667397022247314e-01 2.864816784858703613e-01
1.958000000000000000e+03 7.064160346984863281e+00 -2.347838020324707031e+01 -7.125495374202728271e-02 -2.690523266792297363e-01 -1.020921841263771057e-01 -2.746089100837707520e-01
1.959000000000000000e+03 4.286868572235107422e+00 -1.308932971954345703e+01 5.698038265109062195e-03 -6.215732078999280930e-03 -1.553080801386386156e-04 -1.336325891315937042e-03
1.960000000000000000e+03 2.886914014816284180e+00 -9.289679527282714844e+00 2.877593797165900469e-04 1.054974418366327882e-04 1.179770406452007592e-04 2.261959307361394167e-04
1.961000000000000000e+03 2.869865894317626953e+00 -1.067115879058837891e+01 2.265728311613202095e-03 -9.866815526038408279e-04 3.837139811366796494e-04 1.146828057244420052e-03
1.962000000000000000e+03 5.152350902557373047e+00 -1.954703521728515625e+01 -1.101883798837661743e-01 -6.310442090034484863e-02 -5.198784172534942627e-02 -1.024145334959030151e-01
1.963000000000000000e+03 3.101154565811157227e+00 -2.299918174743652344e+01 -2.724124863743782043e-02 -1.499941796064376831e-01 -5.317062884569168091e-02 -1.209432333707809448e-01
1.964000000000000000e+03 4.809215068817138672e+00 -2.117960739135742188e+01 -8.853352814912796021e-02 -1.245399042963981628e-01 -6.392203271389007568e-02 -1.484005898237228394e-01
1.965000000000000000e+03 5.339486122131347656e+00 2.306318283081054688e+01 -1.470100283622741699e-01 -2.570839226245880127e-01 -1.212281882762908936e-01 2.928180098533630371e-01
1.966000000000000000e+03 4.484828948974609375e+00 2.584372901916503906e+01 -3.116701170802116394e-02 -3.902918696403503418e-01 -1.264376640319824219e-01 2.971060872077941895e-01
1.967000000000000000e+03 3.253652811050415039e+00 -2.451023483276367188e+01 -2.249752171337604523e-02 -2.067363411188125610e-01 -6.877016276121139526e-02 -1.483636349439620972e-01
1.968000000000000000e+03 5.025227069854736328e+00 -2.223861885070800781e+01 -7.865170389413833618e-02 -1.564146429300308228e-01 -7.051990181207656860e-02 -1.781965047121047974e-01
1.969000000000000000e+03 3.921182155609130859e+00 -2.140238761901855469e+01 -5.221441388130187988e-02 -1.137307137250900269e-01 -4.978353530168533325e-02 -1.146984994411468506e-01
1.970000000000000000e+03 4.573937416076660156e+00 -2.456261825561523438e+01 -2.460842765867710114e-02 -2.393181920051574707e-01 -7.917798310518264771e-02 -1.943285912275314331e-01
1.971000000000000000e+03 3.943667173385620117e+00 -3.164183807373046875e+01 3.206423670053482056e-02 -4.570696949958801270e-01 -1.275016367435455322e-01 -1.435373872518539429e-01
1.972000000000000000e+03 4.767216682434082031e+00 -2.859756851196289062e+01 1.728796958923339844e-02 -3.691945672035217285e-01 -1.055719777941703796e-01 -1.995143443346023560e-01
1.973000000000000000e+03 5.107077121734619141e+00 1.001575469970703125e+01 1.568515668623149395e-03 -1.979697495698928833e-03 -1.233545772265642881e-04 8.646075148135423660e-04
1.974000000000000000e+03 5.548381805419921875e+00 3.262802505493164062e+01 7.288683950901031494e-02 -6.850308179855346680e-01 -1.836432069540023804e-01 2.606891691684722900e-01
1.975000000000000000e+03 6.270089626312255859e+00 3.644724655151367188e+01 1.118253543972969055e-01 -7.639283537864685059e-01 -1.956309080123901367e-01 1.742561906576156616e-01
1.976000000000000000e+03 4.857745170593261719e+00 3.640213775634765625e+01 7.372751086950302124e-02 -7.838277220726013184e-01 -2.130300551652908325e-01 1.449907571077346802e-01
1.977000000000000000e+03 6.367674827575683594e+00 -1.157846832275390625e+01 -4.916403559036552906e-04 3.535311669111251831e-03 9.131014230661094189e-04 -2.046576002612709999e-03
1.978000000000000000e+03 2.822519779205322266e+00 -1.210149765014648438e+01 2.432450884953141212e-03 -1.400728011503815651e-03 3.095168503932654858e-04 2.804262796416878700e-03
1.979000000000000000e+03 4.101055145263671875e+00 -1.069574260711669922e+01 1.601007883436977863e-03 -7.193145575001835823e-04 2.645080094225704670e-04 1.616676890989765525e-04
1.980000000000000000e+03 5.995769023895263672e+00 1.020919227600097656e+01 2.832351950928568840e-03 -2.390087349340319633e-03 1.326793571934103966e-04 8.042887784540653229e-04
1.981000000000000000e+03 3.914309740066528320e+00 -6.650754451751708984e+00 3.406874893698841333e-04 1.907010446302592754e-04 1.594165660208091140e-04 3.876357513945549726e-04
1.982000000000000000e+03 7.364726066589355469e+00 -3.089562988281250000e+01 6.694059818983078003e-02 -4.179416298866271973e-01 -1.053003072738647461e-01 -2.219363152980804443e-01
1.983000000000000000e+03 5.181992053985595703e+00 -2.993195915222167969e+01 3.690584748983383179e-02 -4.052248895168304443e-01 -1.104957088828086853e-01 -1.952991187572479248e-01
1.984000000000000000e+03 5.628570556640625000e+00 -3.142312431335449219e+01 4.635952040553092957e-02 -4.341855645179748535e-01 -1.163478121161460876e-01 -1.885252445936203003e-01
1.985000000000000000e+03 4.073917865753173828e+00 -3.308317565917968750e+01 3.039180673658847809e-02 -4.905224144458770752e-01 -1.380391865968704224e-01 -1.297049373388290405e-01
1.986000000000000000e+03 4.835100173950195312e+00 2.861178779602050781e+01 2.314036898314952850e-02 -5.403624176979064941e-01 -1.551666110754013062e-01 3.057952523231506348e-01
1.987000000000000000e+03 6.909725189208984375e+00 3.386248016357421875e+01 1.276643723249435425e-01 -7.199457287788391113e-01 -1.776844114065170288e-01 2.626868784427642822e-01
1.988000000000000000e+03 5.074152946472167969e+00 3.136990737915039062e+01 4.869166016578674316e-02 -6.456258893013000488e-01 -1.790802627801895142e-01 2.722581624984741211e-01
1.989000000000000000e+03 4.245547771453857422e+00 8.061478614807128906e+00 1.890086568892002106e-03 -3.820060228463262320e-04 4.524241667240858078e-04 -2.047001471510156989e-04
1.990000000000000000e+03 2.895601987838745117e+00 5.770513057708740234e+00 4.907366819679737091e-04 3.123212954960763454e-04 2.409174048807471991e-04 -2.117500698659569025e-04
1.991000000000000000e+03 6.414835453033447266e+00 -3.598149871826171875e+01 7.228707522153854370e-02 -5.005521178245544434e-01 -1.284795105457305908e-01 -1.262632459402084351e-01
1.992000000000000000e+03 7.446604728698730469e+00 -7.309661865234375000e+00 -1.247445179615169764e-04 8.866239222697913647e-04 2.285638183820992708e-04 2.981621073558926582e-04
1.993000000000000000e+03 1.790603637695312500e+01 -1.587902545928955078e+01 -4.188654422760009766e-01 -1.768726855516433716e-01 -1.787214428186416626e-01 -3.726040720939636230e-01
1.994000000000000000e+03 2.085822296142578125e+01 -1.166680812835693359e+01 -4.619013071060180664e-01 -2.012959122657775879e-02 -1.446092724800109863e-01 -3.472945988178253174e-01
1.995000000000000000e+03 6.565411090850830078e+00 1.987795639038085938e+01 -2.419728785753250122e-01 -5.065914243459701538e-02 -8.778960257768630981e-02 1.211226284503936768e-01
1.996000000000000000e+03 4.457138538360595703e+00 1.964992713928222656e+01 -9.683384001255035400e-02 -7.384370267391204834e-02 -5.120326206088066101e-02 6.227219849824905396e-02
1.997000000000000000e+03 1.126941776275634766e+01 -2.104192543029785156e+01 -1.755064427852630615e-01 -4.055754840373992920e-01 -1.743245720863342285e-01 -3.335618972778320312e-01
1.998000000000000000e+03 1.567801189422607422e+01 -1.865616035461425781e+01 -3.137086331844329834e-01 -3.052170276641845703e-01 -1.856777071952819824e-01 -3.325326442718505859e-01
1.999000000000000000e+03 2.265760231018066406e+01 1.235869979858398438e+01 -5.369579792022705078e-01 -6.722283959388732910e-01 -3.627559244632720947e-01 6.466681361198425293e-01
2.000000000000000000e+03 6.996050357818603516e+00 -1.043943977355957031e+01 7.363219629041850567e-04 -7.793009863235056400e-04 -1.289370902668451890e-05 -3.278434742242097855e-04
2.001000000000000000e+03 8.541413307189941406e+00 2.182937049865722656e+01 -2.855621576309204102e-01 -4.108022451400756836e-01 -2.089093178510665894e-01 4.999345839023590088e-01
2.002000000000000000e+03 2.237590599060058594e+01 5.978548526763916016e+00 -3.160046339035034180e-01 -6.456074714660644531e-01 -2.884836196899414062e-01 6.466058492660522461e-01
2.003000000000000000e+03 1.883088684082031250e+01 -1.510123062133789062e+01 -4.329618811607360840e-01 -1.273532807826995850e-01 -1.680945456027984619e-01 -3.853825032711029053e-01
2.004000000000000000e+03 3.931604146957397461e+00 -1.204789543151855469e+01 4.678354132920503616e-03 -4.711548797786235809e-03 -9.958328519132919610e-06 5.709020188078284264e-04
2.005000000000000000e+03 1.700245857238769531e+01 -1.671970558166503906e+01 -4.010540544986724854e-01 -2.264950275421142578e-01 -1.882647275924682617e-01 -3.622911870479583740e-01
2.006000000000000000e+03 7.577160644531250000e+01 4.045326614379882812e+01 3.438454121351242065e-02 7.912766456604003906e+00 2.384145259857177734e+00 4.461278393864631653e-02
2.007000000000000000e+03 2.079241752624511719e+01 -1.071872806549072266e+01 -4.385001659393310547e-01 -1.294495631009340286e-02 -1.354335397481918335e-01 -3.098931014537811279e-01
2.008000000000000000e+03 1.989500236511230469e+01 -1.175233554840087891e+01 -4.323547482490539551e-01 -4.815603792667388916e-02 -1.441532373428344727e-01 -3.407157063484191895e-01
2.009000000000000000e+03 1.765737342834472656e+01 1.954054260253906250e+01 -3.697136044502258301e-01 -1.042116165161132812e+00 -4.235489368438720703e-01 4.606579542160034180e-01
2.010000000000000000e+03 1.716913795471191406e+01 1.712538909912109375e+01 -6.985269784927368164e-01 -1.249872684478759766e+00 -5.845199227333068848e-01 6.510656476020812988e-01
2.011000000000000000e+03 2.223882102966308594e+01 4.604326725006103516e+00 -2.515915334224700928e-01 -5.915047526359558105e-01 -2.529288828372955322e-01 5.808090567588806152e-01
2.012000000000000000e+03 1.512511062622070312e+01 1.953720474243164062e+01 -5.101727843284606934e-01 -1.152845740318298340e+00 -4.989055395126342773e-01 6.130332350730895996e-01
2.013000000000000000e+03 2.258808517456054688e+01 8.899700164794921875e+00 -4.576247930526733398e-01 -6.796761751174926758e-01 -3.411902785301208496e-01 7.073087096214294434e-01
2.014000000000000000e+03 2.496069145202636719e+01 8.151515007019042969e+00 -4.281693398952484131e-01 -3.983170092105865479e-01 -2.479459047317504883e-01 7.239997386932373047e-01
2.015000000000000000e+03 6.035609436035156250e+01 -4.215658187866210938e+00 1.905251979827880859e+00 4.537146091461181641e+00 1.932719469070434570e+00 -4.629012584686279297e+00
2.016000000000000000e+03 6.190499496459960938e+01 -4.223945140838623047e+00 5.102988481521606445e-01 1.411170101165771484e+01 4.386600017547607422e+00 -5.334770202636718750e+00
2.017000000000000000e+03 6.020107650756835938e+01 -3.864804983139038086e+00 1.532091259956359863e+00 4.677553176879882812e+00 1.862893342971801758e+00 -4.492974758148193359e+00
2.018000000000000000e+03 6.167079925537109375e+01 -8.640469551086425781e+00 8.549917936325073242e-01 1.213755416870117188e+01 3.897763729095458984e+00 5.665997028350830078e+00
2.019000000000000000e+03 6.099018096923828125e+01 -4.315821647644042969e+00 2.026907920837402344e+00 7.574572563171386719e+00 2.880444288253784180e+00 -5.823344707489013672e+00
2.020000000000000000e+03 6.115812683105468750e+01 -4.133845329284667969e+00 1.541556477546691895e+00 8.736994743347167969e+00 3.083565473556518555e+00 -5.820449829101562500e+00
2.021000000000000000e+03 6.126684188842773438e+01 -8.706081390380859375e+00 1.291679382324218750e+00 9.495559692382812500e+00 3.236171722412109375e+00 5.748911380767822266e+00
2.022000000000000000e+03 6.168642807006835938e+01 -4.032527923583984375e+00 6.901019811630249023e-01 1.220455360412597656e+01 3.868396759033203125e+00 -5.408494472503662109e+00
2.023000000000000000e+03 6.426346588134765625e+01 -5.678199768066406250e+00 7.601949691772460938e+00 1.516287612915039062e+01 6.829447746276855469e+00 1.803746104240417480e+00
2.024000000000000000e+03 6.455377197265625000e+01 -6.256810188293457031e+00 8.058204650878906250e+00 1.395182037353515625e+01 6.603007316589355469e+00 3.657414019107818604e-01
2.025000000000000000e+03 6.276615524291992188e+01 -3.937128305435180664e+00 -8.192899078130722046e-02 1.643071556091308594e+01 4.904636383056640625e+00 -2.272929668426513672e+00
2.026000000000000000e+03 6.319328308105468750e+01 -4.233482837677001953e+00 7.845807075500488281e-01 1.758009719848632812e+01 5.509403228759765625e+00 -4.502977430820465088e-01
2.027000000000000000e+03 6.279317855834960938e+01 -8.833791732788085938e+00 3.166609257459640503e-02 1.648526000976562500e+01 4.955077648162841797e+00 2.097220420837402344e+00
2.028000000000000000e+03 6.382769012451171875e+01 -8.078191757202148438e+00 3.324660539627075195e+00 1.698760986328125000e+01 6.093681335449218750e+00 -1.766530871391296387e+00
2.029000000000000000e+03 6.372346115112304688e+01 -7.497439384460449219e+00 5.929407119750976562e+00 1.783488655090332031e+01 7.129288196563720703e+00 -2.446805000305175781e+00
2.030000000000000000e+03 6.046328735351562500e+01 -8.613445281982421875e+00 1.900952696800231934e+00 4.851003646850585938e+00 2.025586843490600586e+00 4.706843376159667969e+00
2.031000000000000000e+03 5.885060882568359375e+01 -3.623846769332885742e+00 7.007272243499755859e-01 1.950072050094604492e+00 7.952398061752319336e-01 -2.612381935119628906e+00
2.032000000000000000e+03 6.103471755981445312e+01 -8.758090019226074219e+00 1.538899302482604980e+00 8.111744880676269531e+00 2.895193338394165039e+00 5.613133907318115234e+00
2.033000000000000000e+03 5.826852035522460938e+01 -9.778894424438476562e+00 5.806936621665954590e-01 1.954469561576843262e+00 7.605489492416381836e-01 2.375862121582031250e+00
2.034000000000000000e+03 5.710486984252929688e+01 -2.213860273361206055e+00 1.734299361705780029e-01 1.492994785308837891e+00 4.999274015426635742e-01 -1.855618715286254883e+00
2.035000000000000000e+03 5.629401016235351562e+01 -2.304450273513793945e+00 -1.464359760284423828e-01 1.062536358833312988e+00 2.748301029205322266e-01 -1.388059854507446289e+00
2.036000000000000000e+03 2.317349624633789062e+01 -2.684208631515502930e+00 -1.776333004236221313e-01 -1.200409606099128723e-01 -8.930227905511856079e-02 2.295185625553131104e-01
2.037000000000000000e+03 2.331961631774902344e+01 -1.880918979644775391e+00 -1.898758262395858765e-01 -1.590646058320999146e-01 -1.046821251511573792e-01 2.842265367507934570e-01
2.038000000000000000e+03 5.817755126953125000e+01 -2.826647520065307617e+00 5.223348736763000488e-01 1.973238945007324219e+00 7.486721277236938477e-01 -2.396357774734497070e+00
2.039000000000000000e+03 2.246222114562988281e+01 -8.620015978813171387e-01 -1.461325138807296753e-01 -2.323448508977890015e-01 -1.135432049632072449e-01 3.005354702472686768e-01
2.040000000000000000e+03 2.420140266418457031e+01 -2.168420553207397461e+00 -2.471825778484344482e-01 -1.288914084434509277e-01 -1.128221973776817322e-01 3.091488480567932129e-01
2.041000000000000000e+03 2.734007835388183594e+01 -8.131773471832275391e-01 -4.481442272663116455e-01 -1.025217995047569275e-01 -1.651998162269592285e-01 5.042656660079956055e-01
2.042000000000000000e+03 2.431598472595214844e+01 -3.566091358661651611e-01 -2.596253156661987305e-01 -2.119760066270828247e-01 -1.414804011583328247e-01 4.285655021667480469e-01
2.043000000000000000e+03 2.487186241149902344e+01 -2.782350063323974609e+00 -2.862657606601715088e-01 -9.385020285844802856e-02 -1.140347942709922791e-01 2.938521206378936768e-01
2.044000000000000000e+03 3.347649335861206055e+00 4.329163551330566406e+00 1.422146451659500599e-04 5.009293672628700733e-04 1.929432037286460400e-04 -6.601829954888671637e-05
2.045000000000000000e+03 4.001405239105224609e+00 4.014338493347167969e+00 9.069571387954056263e-05 -5.663081537932157516e-04 -1.426837261533364654e-04 1.586166581546422094e-05
2.046000000000000000e+03 5.377343750000000000e+01 -2.706723928451538086e+00 -1.143002271652221680e+00 3.119374811649322510e-01 -2.493194490671157837e-01 -4.015881419181823730e-01
2.047000000000000000e+03 6.558255195617675781e+00 5.828438282012939453e+00 2.879742241930216551e-04 1.047680969350039959e-03 4.006965318694710732e-04 1.762275314831640571e-05
2.048000000000000000e+03 6.393966197967529297e+00 4.077079296112060547e+00 2.321729698451235890e-04 -9.214446763508021832e-04 -2.067815075861290097e-04 -2.604708715807646513e-04
2.049000000000000000e+03 5.146691799163818359e+00 5.171601295471191406e+00 -1.529875007690861821e-04 1.710585638647899032e-04 5.421320111054228619e-06 4.800677197636105120e-05
2.050000000000000000e+03 2.636885261535644531e+01 -2.125339031219482422e+00 -3.913865387439727783e-01 -9.064392745494842529e-02 -1.446091383695602417e-01 3.924796581268310547e-01
2.051000000000000000e+03 4.968698978424072266e+00 4.606457710266113281e+00 4.275562241673469543e-04 6.213556043803691864e-04 3.146735543850809336e-04 -8.134397648973390460e-05
2.052000000000000000e+03 2.850226783752441406e+01 -2.253800868988037109e+00 -5.440976023674011230e-01 -4.723101854324340820e-02 -1.773985922336578369e-01 4.330066144466400146e-01
2.053000000000000000e+03 2.769230461120605469e+01 -2.879466295242309570e+00 -4.904265701770782471e-01 -4.809226468205451965e-02 -1.615556478500366211e-01 3.695098161697387695e-01
2.054000000000000000e+03 8.399792671203613281e+00 5.043794155120849609e+00 -7.117232598830014467e-05 -1.185649540275335312e-03 -3.770465555135160685e-04 -4.632907221093773842e-04
2.055000000000000000e+03 7.072189331054687500e+00 4.158161640167236328e+00 5.502409112523309886e-05 1.114690559916198254e-03 3.509144007693976164e-04 4.563331604003906250e-04
2.056000000000000000e+03 8.895376205444335938e+00 8.032046318054199219e+00 -1.930238504428416491e-04 2.010724507272243500e-03 5.453102057799696922e-04 -2.101164864143356681e-04
2.057000000000000000e+03 4.544351577758789062e+00 3.896177053451538086e+00 4.840016845264472067e-05 7.118179346434772015e-04 2.280654298374429345e-04 2.217280270997434855e-04
2.058000000000000000e+03 3.126924133300781250e+01 -2.887618303298950195e+00 -7.797475457191467285e-01 -2.668109023943543434e-03 -2.347247004508972168e-01 4.166777729988098145e-01
2.059000000000000000e+03 2.920987129211425781e+01 -2.272439718246459961e+00 -5.973823666572570801e-01 -3.457605466246604919e-02 -1.895875334739685059e-01 4.440784752368927002e-01
2.060000000000000000e+03 2.996347045898437500e+01 -1.622061491012573242e+00 -6.359298825263977051e-01 -2.971552126109600067e-02 -1.996936202049255371e-01 5.016704797744750977e-01
2.061000000000000000e+03 3.055081176757812500e+01 -2.905468940734863281e+00 -7.208961844444274902e-01 -9.661152958869934082e-03 -2.191672027111053467e-01 4.092949628829956055e-01
2.062000000000000000e+03 3.272600555419921875e+01 -2.850586414337158203e+00 -8.998673558235168457e-01 8.211486041545867920e-03 -2.674967646598815918e-01 4.256739020347595215e-01
2.063000000000000000e+03 4.611790084838867188e+01 -1.117680644989013672e+01 -1.395615339279174805e+00 6.582089513540267944e-02 -3.989383280277252197e-01 -2.333199977874755859e-01
2.064000000000000000e+03 4.313766098022460938e+01 -1.052874851226806641e+01 -1.598478436470031738e+00 1.801526173949241638e-02 -4.741389453411102295e-01 -3.114772737026214600e-01
2.065000000000000000e+03 4.611490631103515625e+01 -1.046498107910156250e+01 -1.634274601936340332e+00 4.144015535712242126e-02 -4.778503179550170898e-01 -2.481896132230758667e-01
2.066000000000000000e+03 4.757189559936523438e+01 -1.190862274169921875e+01 -1.092880606651306152e+00 1.414647400379180908e-01 -2.854247689247131348e-01 -1.244884431362152100e-01
2.067000000000000000e+03 4.389376068115234375e+01 -1.191864681243896484e+01 -1.215308070182800293e+00 5.419029667973518372e-02 -3.483353257179260254e-01 -2.963015735149383545e-01
2.068000000000000000e+03 3.436717605590820312e+01 -5.744063109159469604e-02 -7.965853810310363770e-01 2.427673153579235077e-02 -2.316925972700119019e-01 6.029935479164123535e-01
2.069000000000000000e+03 4.982259750366210938e+01 -1.115002155303955078e+01 -1.192634463310241699e+00 1.728610694408416748e-01 -3.059320449829101562e-01 -8.626691997051239014e-03
2.070000000000000000e+03 5.133585739135742188e+01 -1.109246826171875000e+01 -1.036180734634399414e+00 2.661469876766204834e-01 -2.310101240873336792e-01 1.565767228603363037e-01
2.071000000000000000e+03 4.537040328979492188e+01 -1.047727584838867188e+01 -1.634643793106079102e+00 3.296210989356040955e-02 -4.805044829845428467e-01 -2.668172121047973633e-01
2.072000000000000000e+03 4.463941955566406250e+01 -1.120109748840332031e+01 -1.410351157188415527e+00 4.233830049633979797e-02 -4.104038476943969727e-01 -2.819994091987609863e-01
2.073000000000000000e+03 4.167380142211914062e+01 -1.200714778900146484e+01 -1.197595953941345215e+00 2.811111323535442352e-02 -3.508454561233520508e-01 -3.591925799846649170e-01
2.074000000000000000e+03 4.093161392211914062e+01 -1.131020355224609375e+01 -1.352349638938903809e+00 1.199722476303577423e-02 -4.021057188510894775e-01 -3.591184914112091064e-01
2.075000000000000000e+03 4.833953094482421875e+01 -1.043722915649414062e+01 -1.584819197654724121e+00 7.451215386390686035e-02 -4.530921280384063721e-01 -1.617553681135177612e-01
2.076000000000000000e+03 4.686211776733398438e+01 -1.117057704925537109e+01 -1.373342633247375488e+00 8.043476194143295288e-02 -3.878723680973052979e-01 -2.028470039367675781e-01
2.077000000000000000e+03 5.284608840942382812e+01 -1.100150299072265625e+01 -8.178737163543701172e-01 3.976001739501953125e-01 -1.260820627212524414e-01 3.970851898193359375e-01
2.078000000000000000e+03 5.132894515991210938e+01 -1.037436771392822266e+01 -1.363759517669677734e+00 1.744152903556823730e-01 -3.568032681941986084e-01 5.949901416897773743e-02
2.079000000000000000e+03 5.057835388183593750e+01 -1.112609481811523438e+01 -1.118249297142028809e+00 2.148236632347106934e-01 -2.710276842117309570e-01 6.731317192316055298e-02
2.080000000000000000e+03 5.209539031982421875e+01 -1.105001163482666016e+01 -9.350906014442443848e-01 3.260161876678466797e-01 -1.827223151922225952e-01 2.690753042697906494e-01
2.081000000000000000e+03 3.876866149902343750e+01 -1.283453369140625000e+01 -9.974886775016784668e-01 4.391897935420274734e-03 -2.979290485382080078e-01 -4.111976027488708496e-01
2.082000000000000000e+03 3.794060516357421875e+01 -1.142264842987060547e+01 -1.244033217430114746e+00 -9.487497620284557343e-03 -3.760561943054199219e-01 -3.877190351486206055e-01
2.083000000000000000e+03 5.498875808715820312e+01 -1.016324043273925781e+01 -6.767387986183166504e-01 5.247901678085327148e-01 -4.558459296822547913e-02 7.186817526817321777e-01
2.084000000000000000e+03 4.759937286376953125e+01 -1.116816139221191406e+01 -1.344365358352661133e+00 9.689985215663909912e-02 -3.742396533489227295e-01 -1.646222770214080811e-01
2.085000000000000000e+03 3.499343490600585938e+01 -2.087153434753417969e+00 -1.017005324363708496e+00 2.028896100819110870e-02 -2.990148961544036865e-01 4.845722615718841553e-01
2.086000000000000000e+03 8.395256042480468750e+00 -4.178199768066406250e+00 -6.295190542005002499e-05 -7.971400918904691935e-05 -4.279977292753756046e-05 -2.981941215693950653e-04
2.087000000000000000e+03 3.565025711059570312e+01 -1.076777935028076172e+01 -1.264551043510437012e+00 -2.304168231785297394e-02 -3.862778246402740479e-01 -3.623533248901367188e-01
2.088000000000000000e+03 3.717611694335937500e+01 -2.695516347885131836e+00 -1.253922581672668457e+00 2.291684783995151520e-02 -3.693017065525054932e-01 4.266847968101501465e-01
2.089000000000000000e+03 3.503710937500000000e+01 -1.396851062774658203e+00 -9.523299336433410645e-01 2.305744215846061707e-02 -2.787817418575286865e-01 5.301848649978637695e-01
2.090000000000000000e+03 3.489778137207031250e+01 -1.078498363494873047e+01 -1.224490404129028320e+00 -2.523368410766124725e-02 -3.749172389507293701e-01 -3.624699413776397705e-01
2.091000000000000000e+03 3.872289657592773438e+01 -1.210543346405029297e+01 -1.131377577781677246e+00 -7.819826132617890835e-04 -3.396478891372680664e-01 -4.017897546291351318e-01
2.092000000000000000e+03 3.792362594604492188e+01 -2.671297788619995117e+00 -1.309129595756530762e+00 2.384185418486595154e-02 -3.855863213539123535e-01 4.222578108310699463e-01
2.093000000000000000e+03 5.751286029815673828e+00 -7.034195423126220703e+00 1.501437907336367061e-08 5.845080013386905193e-04 1.753568940330296755e-04 2.468097081873565912e-04
2.094000000000000000e+03 4.241646194458007812e+01 -2.568758010864257812e+00 -1.590468168258666992e+00 2.791375294327735901e-02 -4.687663316726684570e-01 3.720879256725311279e-01
2.095000000000000000e+03 6.342212200164794922e+00 -5.611925601959228516e+00 3.210220893379300833e-04 1.305348414462059736e-04 1.354670821456238627e-04 4.530629375949501991e-04
2.096000000000000000e+03 5.429697036743164062e+01 -1.157890033721923828e+01 -2.744689285755157471e-01 8.057377934455871582e-01 1.593806594610214233e-01 8.955059647560119629e-01
2.097000000000000000e+03 4.770484924316406250e+01 -1.780138015747070312e+00 -1.431731939315795898e+00 1.021825000643730164e-01 -3.988648056983947754e-01 1.962060034275054932e-01
2.098000000000000000e+03 4.842677688598632812e+01 -2.494583368301391602e+00 -1.683552145957946777e+00 7.335565239191055298e-02 -4.830589592456817627e-01 1.777733564376831055e-01
2.099000000000000000e+03 5.219720458984375000e+01 -2.615259170532226562e+00 -1.420018434524536133e+00 1.926164925098419189e-01 -3.682205677032470703e-01 -1.434966921806335449e-01
2.100000000000000000e+03 5.222605133056640625e+01 -1.963025093078613281e+00 -1.091221809387207031e+00 3.008894324302673340e-01 -2.370997220277786255e-01 -2.529885768890380859e-01
2.101000000000000000e+03 5.147802734375000000e+01 -1.913818359375000000e+00 -1.178633213043212891e+00 2.417059242725372314e-01 -2.810781896114349365e-01 -1.437850445508956909e-01
2.102000000000000000e+03 4.996809768676757812e+01 -1.826249957084655762e+00 -1.314148187637329102e+00 1.663745045661926270e-01 -3.443320989608764648e-01 2.181085385382175446e-02
2.103000000000000000e+03 3.263142776489257812e+01 -1.083529376983642578e+01 -1.093828320503234863e+00 -2.751118317246437073e-02 -3.364018499851226807e-01 -3.607410192489624023e-01
2.104000000000000000e+03 3.647594833374023438e+01 -2.022233963012695312e+00 -1.114697813987731934e+00 2.651534229516983032e-02 -3.264547586441040039e-01 4.815833270549774170e-01
2.105000000000000000e+03 3.871425247192382812e+01 -1.938707470893859863e+00 -1.248685717582702637e+00 3.220095857977867126e-02 -3.649454116821289062e-01 4.643900096416473389e-01
2.106000000000000000e+03 4.016378021240234375e+01 -2.612926721572875977e+00 -1.462444663047790527e+00 2.445500716567039490e-02 -4.313968718051910400e-01 4.029464423656463623e-01
2.107000000000000000e+03 3.945834732055664062e+01 -1.919487953186035156e+00 -1.288623094558715820e+00 3.331867232918739319e-02 -3.765913248062133789e-01 4.557901918888092041e-01
2.108000000000000000e+03 4.169564056396484375e+01 -1.879548192024230957e+00 -1.393163084983825684e+00 3.874134272336959839e-02 -4.063265323638916016e-01 4.186477363109588623e-01
2.109000000000000000e+03 4.246089172363281250e+01 -1.163725733757019043e+00 -1.257228374481201172e+00 5.929054692387580872e-02 -3.593813478946685791e-01 4.231669008731842041e-01
2.110000000000000000e+03 4.545306777954101562e+01 -1.816284179687500000e+00 -1.474954605102539062e+00 6.740393489599227905e-02 -4.222652018070220947e-01 3.109146058559417725e-01
2.111000000000000000e+03 4.469895172119140625e+01 -1.831339478492736816e+00 -1.471939921379089355e+00 6.056724488735198975e-02 -4.234118163585662842e-01 3.398071825504302979e-01
2.112000000000000000e+03 4.921042633056640625e+01 -1.796833515167236328e+00 -1.361336946487426758e+00 1.411610692739486694e-01 -3.660527765750885010e-01 8.845697343349456787e-02
2.113000000000000000e+03 5.357797622680664062e+01 -1.094683456420898438e+01 -6.825252771377563477e-01 4.831873178482055664e-01 -5.980139598250389099e-02 5.477670431137084961e-01
2.114000000000000000e+03 5.428895568847656250e+01 -1.088830184936523438e+01 -5.310609936714172363e-01 5.981704592704772949e-01 2.013283595442771912e-02 7.215036153793334961e-01
2.115000000000000000e+03 5.072625732421875000e+01 -1.866463303565979004e+00 -1.253261327743530273e+00 2.008814364671707153e-01 -3.157139718532562256e-01 -5.675297603011131287e-02
2.116000000000000000e+03 5.150608444213867188e+01 -1.250410079956054688e+00 -8.988259434700012207e-01 3.439196348190307617e-01 -1.664718836545944214e-01 -2.471351772546768188e-01
2.117000000000000000e+03 3.642484664916992188e+01 -1.149561882019042969e+01 -1.176183462142944336e+00 -1.942189224064350128e-02 -3.586815893650054932e-01 -3.945919573307037354e-01
2.118000000000000000e+03 3.416467285156250000e+01 -1.154215335845947266e+01 -1.075090050697326660e+00 -2.668840065598487854e-02 -3.305335640907287598e-01 -3.976497054100036621e-01
2.119000000000000000e+03 3.567001342773437500e+01 -1.152012920379638672e+01 -1.142184972763061523e+00 -2.396873012185096741e-02 -3.498461246490478516e-01 -3.973805308341979980e-01
2.120000000000000000e+03 4.094514846801757812e+01 -1.890908241271972656e+00 -1.361934304237365723e+00 3.645382449030876160e-02 -3.976441621780395508e-01 4.328616857528686523e-01
2.121000000000000000e+03 4.695157241821289062e+01 -1.786843180656433105e+00 -1.454185128211975098e+00 8.720293641090393066e-02 -4.100946784019470215e-01 2.399910092353820801e-01
2.122000000000000000e+03 4.394092559814453125e+01 -1.845159649848937988e+00 -1.460948228836059570e+00 5.155948549509048462e-02 -4.228166341781616211e-01 3.653590977191925049e-01
2.123000000000000000e+03 2.959618377685546875e+01 -1.166866302490234375e+01 -8.428931236267089844e-01 -2.307717129588127136e-02 -2.597911059856414795e-01 -3.980408012866973877e-01
2.124000000000000000e+03 3.341049575805664062e+01 -1.155598640441894531e+01 -1.037167310714721680e+00 -2.799044176936149597e-02 -3.195473253726959229e-01 -3.993684649467468262e-01
2.125000000000000000e+03 5.298141098022460938e+01 -2.001247644424438477e+00 -9.778142571449279785e-01 3.575664758682250977e-01 -1.860743314027786255e-01 -3.810082376003265381e-01
2.126000000000000000e+03 6.824419498443603516e+00 -4.047841072082519531e+00 -1.400189212290570140e-04 5.944084841758012772e-05 -2.417342147964518517e-05 -3.233570896554738283e-04
2.127000000000000000e+03 6.129148483276367188e+00 -4.092712879180908203e+00 1.124608606914989650e-04 1.145614805864170194e-04 6.810670311097055674e-05 3.074932901654392481e-04
2.128000000000000000e+03 5.611371994018554688e+00 -4.871774196624755859e+00 1.381767797283828259e-04 1.400372566422447562e-04 8.346421236637979746e-05 2.043573767878115177e-04
2.129000000000000000e+03 2.644812393188476562e+01 -1.088300132751464844e+01 -7.294031381607055664e-01 -3.917296882718801498e-03 -2.199961245059967041e-01 -3.506800830364227295e-01
2.130000000000000000e+03 3.113733482360839844e+01 -1.162407875061035156e+01 -9.221268892288208008e-01 -2.876771613955497742e-02 -2.852683663368225098e-01 -3.980468213558197021e-01
2.131000000000000000e+03 3.189828491210937500e+01 -1.160197639465332031e+01 -9.611890316009521484e-01 -2.922076545655727386e-02 -2.971229553222656250e-01 -3.983893394470214844e-01
2.132000000000000000e+03 5.565531158447265625e+01 -1.078564834594726562e+01 -1.683041155338287354e-01 9.511146545410156250e-01 2.348431646823883057e-01 1.183759570121765137e+00
2.133000000000000000e+03 5.634856033325195312e+01 -1.009794139862060547e+01 -2.075352668762207031e-01 9.269983172416687012e-01 2.158389091491699219e-01 1.247943639755249023e+00
2.134000000000000000e+03 3.040407943725585938e+01 -1.241441440582275391e+01 -8.093031048774719238e-01 -2.641266584396362305e-02 -2.507147192955017090e-01 -4.329342544078826904e-01
2.135000000000000000e+03 5.691631698608398438e+01 -1.074682617187500000e+01 2.431230545043945312e-01 1.526154637336730957e+00 5.307832956314086914e-01 1.806214570999145508e+00
2.136000000000000000e+03 5.536033248901367188e+01 -2.817353010177612305e+00 -7.334966063499450684e-01 5.063956975936889648e-01 -6.813026219606399536e-02 -7.946799993515014648e-01
2.137000000000000000e+03 5.489583206176757812e+01 -2.415826320648193359e+00 -6.772825121879577637e-01 5.459651350975036621e-01 -3.939522430300712585e-02 -7.681091427803039551e-01
2.138000000000000000e+03 2.338407325744628906e+01 -1.159803009033203125e+01 -5.582821369171142578e-01 6.279777269810438156e-03 -1.656007021665573120e-01 -3.693044781684875488e-01
2.139000000000000000e+03 2.568026351928710938e+01 -1.084454822540283203e+01 -6.866100430488586426e-01 7.316068513318896294e-04 -2.057635337114334106e-01 -3.469760715961456299e-01
2.140000000000000000e+03 2.802341079711914062e+01 -1.170345211029052734e+01 -7.624232769012451172e-01 -1.619477197527885437e-02 -2.335854172706604004e-01 -3.976986408233642578e-01
2.141000000000000000e+03 2.881406593322753906e+01 -1.168837928771972656e+01 -8.022818565368652344e-01 -1.913150772452354431e-02 -2.464240044355392456e-01 -3.985510468482971191e-01
2.142000000000000000e+03 2.723433494567871094e+01 -1.171011924743652344e+01 -7.236889004707336426e-01 -1.093082223087549210e-02 -2.203859239816665649e-01 -3.959033787250518799e-01
2.143000000000000000e+03 1.087450122833251953e+01 4.163776874542236328e+00 -4.597745137289166451e-04 -9.950081584975123405e-04 -4.364348133094608784e-04 -1.218214165419340134e-03
2.144000000000000000e+03 3.036972236633300781e+01 -1.164614200592041016e+01 -8.822715878486633301e-01 -2.575997076928615570e-02 -2.724094688892364502e-01 -3.978976011276245117e-01
2.145000000000000000e+03 1.138503551483154297e+01 5.895068645477294922e+00 4.839570901822298765e-04 1.725054346024990082e-03 6.627034163102507591e-04 1.393179292790591717e-03
2.146000000000000000e+03 2.494002914428710938e+01 -1.158346176147460938e+01 -6.225270032882690430e-01 2.928872359916567802e-03 -1.858794391155242920e-01 -3.826514780521392822e-01
2.147000000000000000e+03 2.427311325073242188e+01 -1.240628147125244141e+01 -5.773879289627075195e-01 -3.690511803142726421e-04 -1.733271032571792603e-01 -4.082126617431640625e-01
2.148000000000000000e+03 2.569729423522949219e+01 -1.163232040405273438e+01 -6.589069962501525879e-01 -6.871856166981160641e-04 -1.978782564401626587e-01 -3.867699503898620605e-01
2.149000000000000000e+03 5.872332763671875000e+01 -9.708927154541015625e+00 7.886000275611877441e-01 2.431901931762695312e+00 9.661505818367004395e-01 2.755397558212280273e+00
2.150000000000000000e+03 5.781954574584960938e+01 -9.941844940185546875e+00 4.053272902965545654e-01 1.652923107147216797e+00 6.174750924110412598e-01 2.102821588516235352e+00
2.151000000000000000e+03 2.015951538085937500e+01 -1.289237213134765625e+01 -4.547077417373657227e-01 -5.134471505880355835e-02 -1.518157422542572021e-01 -3.732221424579620361e-01
2.152000000000000000e+03 2.173958206176757812e+01 -1.158581542968750000e+01 -4.920127391815185547e-01 -5.131250247359275818e-03 -1.491431891918182373e-01 -3.553397953510284424e-01
2.153000000000000000e+03 2.416932296752929688e+01 -1.158582687377929688e+01 -5.883727073669433594e-01 4.643361084163188934e-03 -1.751188039779663086e-01 -3.754221796989440918e-01
2.154000000000000000e+03 2.112751388549804688e+01 -7.722934484481811523e-01 -7.543586939573287964e-02 -2.368832528591156006e-01 -9.369573742151260376e-02 2.102864235639572144e-01
2.155000000000000000e+03 2.311123847961425781e+01 1.029765701293945312e+01 -4.961436390876770020e-01 -6.222105622291564941e-01 -3.355062603950500488e-01 6.929457187652587891e-01
2.156000000000000000e+03 7.538661956787109375e+00 1.147972488403320312e+01 -1.460784231312572956e-03 3.225278342142701149e-03 5.293482681736350060e-04 1.918580383062362671e-03
2.157000000000000000e+03 6.572604656219482422e+00 1.247754573822021484e+01 5.439360626041889191e-03 4.282333611627109349e-05 1.644655247218906879e-03 7.884854450821876526e-03
2.158000000000000000e+03 8.211303710937500000e+00 8.963316917419433594e+00 8.804524550214409828e-04 -6.413634400814771652e-04 7.172669575084000826e-05 1.228838111273944378e-03
2.159000000000000000e+03 4.884360313415527344e+00 -1.219653415679931641e+01 3.510915441438555717e-03 -2.971157897263765335e-03 1.619273243704810739e-04 -1.589623745530843735e-03
2.160000000000000000e+03 9.182036399841308594e+00 4.992819786071777344e+00 1.443504006601870060e-04 1.687439391389489174e-03 5.495369550772011280e-04 6.578563479706645012e-04
2.161000000000000000e+03 1.043534278869628906e+01 7.648428916931152344e+00 1.418645988451316953e-04 2.382724080234766006e-03 7.573766051791608334e-04 6.566093070432543755e-04
2.162000000000000000e+03 5.775517940521240234e+00 -1.273468303680419922e+01 3.882273333147168159e-03 -2.351207891479134560e-03 4.593196208588778973e-04 -6.366638466715812683e-03
2.163000000000000000e+03 1.229834938049316406e+01 6.053903102874755859e+00 -1.003756537102162838e-03 -1.272307825274765491e-03 -6.828193436376750469e-04 -1.415382721461355686e-03
2.164000000000000000e+03 1.955725097656250000e+01 1.522494029998779297e+01 -6.442222595214843750e-01 -1.075267553329467773e+00 -5.158469080924987793e-01 6.151111125946044922e-01
2.165000000000000000e+03 2.044965744018554688e+01 1.421356678009033203e+01 -6.188305020332336426e-01 -9.644778370857238770e-01 -4.749925136566162109e-01 6.184474825859069824e-01
2.166000000000000000e+03 3.688653707504272461e+00 6.621810913085937500e+00 5.003350088372826576e-04 -1.733254175633192062e-04 9.810287883738055825e-05 2.509430341888219118e-04
2.167000000000000000e+03 9.115489959716796875e+00 -5.543850898742675781e+00 -1.612408086657524109e-04 5.273575661703944206e-04 1.098350185202434659e-04 -1.220427366206422448e-04
2.168000000000000000e+03 9.232150077819824219e+00 -4.025512218475341797e+00 -8.012908074306324124e-05 4.641501000151038170e-04 1.152063123299740255e-04 2.936450473498553038e-04
2.169000000000000000e+03 6.432023525238037109e+00 1.442814922332763672e+01 1.226810645312070847e-02 -4.973557312041521072e-03 2.188364742323756218e-03 1.631475985050201416e-02
2.170000000000000000e+03 2.205987548828125000e+01 -2.446876615285873413e-01 -1.305324584245681763e-01 -2.765449285507202148e-01 -1.221232116222381592e-01 3.105012178421020508e-01
2.171000000000000000e+03 2.239321899414062500e+01 1.509429097175598145e+00 -1.682673245668411255e-01 -3.823567628860473633e-01 -1.651872247457504272e-01 4.260942339897155762e-01
2.172000000000000000e+03 5.275317668914794922e+00 1.087889194488525391e+01 5.487991496920585632e-03 -2.158804098144173622e-03 9.987562661990523338e-04 3.315779613330960274e-04
2.173000000000000000e+03 7.458171844482421875e+01 3.244731903076171875e+01 4.916127305477857590e-03 7.645102500915527344e+00 2.295005559921264648e+00 -7.646474242210388184e-02
2.174000000000000000e+03 7.573054504394531250e+01 -2.730058860778808594e+01 -1.094828248023986816e-01 8.182648658752441406e+00 2.421949625015258789e+00 -2.114210873842239380e-01
2.175000000000000000e+03 7.424317932128906250e+01 -2.809781646728515625e+01 -1.550261825323104858e-01 8.008401870727539062e+00 2.356012582778930664e+00 -1.907864063978195190e-01
2.176000000000000000e+03 7.408264923095703125e+01 2.217445945739746094e+01 -4.460819810628890991e-02 7.750896453857421875e+00 2.311886548995971680e+00 -7.275942713022232056e-02
2.177000000000000000e+03 7.540077972412109375e+01 2.351646232604980469e+01 -2.373853884637355804e-02 7.945303440093994141e+00 2.376469373703002930e+00 -6.289359927177429199e-02
2.178000000000000000e+03 7.436138916015625000e+01 8.438799858093261719e+00 -3.007382154464721680e-01 7.930630683898925781e+00 2.288967847824096680e+00 5.849690437316894531e-01
2.179000000000000000e+03 7.467119598388671875e+01 3.134139776229858398e-01 1.035116538405418396e-01 7.473960399627685547e+00 2.273241758346557617e+00 1.061946392059326172e+00
2.180000000000000000e+03 7.581893920898437500e+01 4.345398902893066406e+00 -1.447724997997283936e-01 7.562209606170654297e+00 2.225231170654296875e+00 8.330857157707214355e-01
2.181000000000000000e+03 7.472096252441406250e+01 1.689204573631286621e+00 -4.185024276375770569e-02 7.576005935668945312e+00 2.260246753692626953e+00 1.049002170562744141e+00
2.182000000000000000e+03 7.398072052001953125e+01 -1.529912471771240234e+01 -1.359723359346389771e-01 7.862227916717529297e+00 2.317876577377319336e+00 -1.096358299255371094e+00
2.183000000000000000e+03 7.541428375244140625e+01 1.264866256713867188e+01 -1.619912385940551758e-01 8.011954307556152344e+00 2.354988813400268555e+00 2.645254433155059814e-01
2.184000000000000000e+03 7.396638488769531250e+01 1.543746280670166016e+01 -1.820925623178482056e-01 7.858976364135742188e+00 2.303065061569213867e+00 1.101373881101608276e-01
2.185000000000000000e+03 7.539868927001953125e+01 1.678850555419921875e+01 -9.934293478727340698e-02 8.028617858886718750e+00 2.378782510757446289e+00 6.984308362007141113e-02
2.186000000000000000e+03 7.492378997802734375e+01 -8.152596473693847656e+00 6.606642603874206543e-01 6.907042980194091797e+00 2.270312309265136719e+00 -4.144904911518096924e-01
2.187000000000000000e+03 7.591271972656250000e+01 -2.060976409912109375e+01 -1.749219000339508057e-01 7.897419929504394531e+00 2.316749334335327148e+00 -6.049152612686157227e-01
2.188000000000000000e+03 7.466282653808593750e+01 -2.191900825500488281e+01 -2.581919431686401367e-01 7.994524955749511719e+00 2.320899963378906250e+00 -5.669151544570922852e-01
2.189000000000000000e+03 7.605738067626953125e+01 -1.386644458770751953e+01 2.110576070845127106e-02 7.137526035308837891e+00 2.147589445114135742e+00 -9.211596846580505371e-01
2.190000000000000000e+03 7.501332855224609375e+01 -1.524293327331542969e+01 -8.489904552698135376e-02 7.589264392852783203e+00 2.251309633255004883e+00 -1.023946881294250488e+00
2.191000000000000000e+03 7.601306152343750000e+01 -5.446567535400390625e+00 4.596377909183502197e-01 6.436459541320800781e+00 2.068829298019409180e+00 1.882100701332092285e-01
2.192000000000000000e+03 7.495104980468750000e+01 -5.471868991851806641e+00 6.872254610061645508e-01 6.856694698333740234e+00 2.263175964355468750e+00 2.195802778005599976e-01
2.193000000000000000e+03 7.383826446533203125e+01 2.608245086669921875e+01 -9.527818299829959869e-03 7.614036083221435547e+00 2.281352519989013672e+00 -1.077538728713989258e-01
2.194000000000000000e+03 7.531904602050781250e+01 2.487370109558105469e+01 -1.667898520827293396e-02 7.902948379516601562e+00 2.365880966186523438e+00 -7.764460146427154541e-02
2.195000000000000000e+03 7.413791656494140625e+01 1.121746635437011719e+01 -2.706357836723327637e-01 7.927675247192382812e+00 2.297111988067626953e+00 3.655762374401092529e-01
2.196000000000000000e+03 7.390325927734375000e+01 -8.021825790405273438e+00 8.885158300399780273e-01 7.265822887420654297e+00 2.446301460266113281e+00 -4.347424507141113281e-01
2.197000000000000000e+03 7.476903533935546875e+01 -1.113282489776611328e+01 3.675409257411956787e-01 7.243004798889160156e+00 2.283163785934448242e+00 -9.314579963684082031e-01
2.198000000000000000e+03 7.492209625244140625e+01 -1.258619117736816406e+01 1.658009886741638184e-01 7.350148200988769531e+00 2.254784584045410156e+00 -1.032694697380065918e+00
2.199000000000000000e+03 7.600975036621093750e+01 -1.248849296569824219e+01 1.360013782978057861e-01 6.959456920623779297e+00 2.128637552261352539e+00 -8.917955160140991211e-01
2.200000000000000000e+03 7.344461822509765625e+01 -2.991246700286865234e+00 7.452190518379211426e-01 7.581867218017578125e+00 2.498126029968261719e+00 8.745360970497131348e-01
2.201000000000000000e+03 7.482443237304687500e+01 -4.116241931915283203e+00 6.404827237129211426e-01 6.976443290710449219e+00 2.285077810287475586e+00 5.269402861595153809e-01
2.202000000000000000e+03 7.498227691650390625e+01 -6.798722267150878906e+00 6.932435035705566406e-01 6.834604263305664062e+00 2.258354187011718750e+00 -1.014196723699569702e-01
2.203000000000000000e+03 7.495169067382812500e+01 -1.784000015258789062e+01 -2.160900831222534180e-01 7.804787158966064453e+00 2.276609182357788086e+00 -8.799712657928466797e-01
2.204000000000000000e+03 7.408950805664062500e+01 1.818988418579101562e+01 -1.121526658535003662e-01 7.814123630523681641e+00 2.310591220855712891e+00 5.503230728209018707e-03
2.205000000000000000e+03 7.355084991455078125e+01 4.366346359252929688e+00 -3.083177804946899414e-01 7.991781234741210938e+00 2.305038928985595703e+00 9.586762785911560059e-01
2.206000000000000000e+03 7.487450408935546875e+01 -1.916033935546875000e+01 -2.489831000566482544e-01 7.887899875640869141e+00 2.291675090789794922e+00 -7.793052196502685547e-01
2.207000000000000000e+03 7.313923645019531250e+01 2.903579139709472656e+01 7.513490971177816391e-03 7.423913955688476562e+00 2.229428291320800781e+00 -1.186214983463287354e-01
2.208000000000000000e+03 7.448515319824218750e+01 7.064746379852294922e+00 -2.960271835327148438e-01 7.901662349700927734e+00 2.281690597534179688e+00 7.026008367538452148e-01
2.209000000000000000e+03 7.478339385986328125e+01 -2.480950736999511719e+01 -1.988150030374526978e-01 8.049070358276367188e+00 2.355076789855957031e+00 -3.557482361793518066e-01
2.210000000000000000e+03 7.405938720703125000e+01 -2.649092292785644531e+01 -2.048388421535491943e-01 7.993085384368896484e+00 2.336473941802978516e+00 -2.687194049358367920e-01
2.211000000000000000e+03 7.045420074462890625e+01 3.500358200073242188e+01 5.072279646992683411e-02 6.902252674102783203e+00 2.085892677307128906e+00 -1.087606847286224365e-01
2.212000000000000000e+03 7.460029602050781250e+01 -2.668322563171386719e+00 5.076313614845275879e-01 7.198873519897460938e+00 2.311951398849487305e+00 8.178004622459411621e-01
2.213000000000000000e+03 7.406860351562500000e+01 2.087158584594726562e+01 -6.288158893585205078e-02 7.767166614532470703e+00 2.311285495758056641e+00 -5.499246716499328613e-02
2.214000000000000000e+03 7.408489227294921875e+01 1.954372787475585938e+01 -8.739473670721054077e-02 7.792638778686523438e+00 2.311573266983032227e+00 -2.757923863828182220e-02
2.215000000000000000e+03 7.477401733398437500e+01 -2.050891494750976562e+01 -2.595016062259674072e-01 7.950246810913085938e+00 2.307223558425903320e+00 -6.756420731544494629e-01
2.216000000000000000e+03 7.467306518554687500e+01 4.365954875946044922e+00 -2.211337089538574219e-01 7.775509834289550781e+00 2.266312837600708008e+00 9.190446734428405762e-01
2.217000000000000000e+03 7.396700286865234375e+01 1.404988193511962891e+01 -2.151996493339538574e-01 7.880778789520263672e+00 2.299673795700073242e+00 1.778965145349502563e-01
2.218000000000000000e+03 7.476560974121093750e+01 -2.703639793395996094e+01 -1.494598984718322754e-01 8.067777633666992188e+00 2.375495195388793945e+00 -2.340470254421234131e-01
2.219000000000000000e+03 7.281624603271484375e+01 3.074656105041503906e+01 9.012854658067226410e-03 7.340870857238769531e+00 2.204965114593505859e+00 -1.114318296313285828e-01
2.220000000000000000e+03 5.913211345672607422e+00 -2.825345230102539062e+01 2.763977646827697754e-02 -3.688637018203735352e-01 -1.023671776056289673e-01 -2.290663123130798340e-01
2.221000000000000000e+03 1.021254920959472656e+01 6.397583484649658203e+00 -7.250680355355143547e-04 2.009291434660553932e-03 3.852669906336814165e-04 2.675901341717690229e-04
2.222000000000000000e+03 4.654389381408691406e+00 2.721861267089843750e+01 -3.705945797264575958e-03 -4.674598276615142822e-01 -1.413497328758239746e-01 3.045158982276916504e-01
2.223000000000000000e+03 4.509983539581298828e+00 -2.597405624389648438e+01 -1.166759431362152100e-02 -2.834520339965820312e-01 -8.853588998317718506e-02 -1.978188455104827881e-01
2.224000000000000000e+03 6.462392330169677734e+00 -8.937860488891601562e+00 5.926863523200154305e-04 -2.860740933101624250e-04 9.198367479257285595e-05 3.592790744733065367e-04
2.225000000000000000e+03 4.324162960052490234e+00 2.326336860656738281e+01 -8.792037516832351685e-02 -2.387402951717376709e-01 -9.799820184707641602e-02 2.322920858860015869e-01
2.226000000000000000e+03 1.174854660034179688e+01 2.246910476684570312e+01 -2.069966495037078857e-01 -8.380152583122253418e-01 -3.135035932064056396e-01 6.177789568901062012e-01
2.227000000000000000e+03 1.238385295867919922e+01 2.592435455322265625e+01 7.882082462310791016e-02 -8.150169253349304199e-01 -2.208588272333145142e-01 5.019704103469848633e-01
2.228000000000000000e+03 7.316195678710937500e+01 -3.458249282836914062e+01 -4.746617376804351807e-02 7.767070770263671875e+00 2.315881252288818359e+00 -2.054694667458534241e-02
2.229000000000000000e+03 5.785535335540771484e+00 -2.067545700073242188e+01 -1.305215209722518921e-01 -1.173294708132743835e-01 -7.435529679059982300e-02 -1.658742874860763550e-01
2.230000000000000000e+03 5.960467815399169922e+00 -2.345450973510742188e+01 -5.082499235868453979e-02 -2.437350153923034668e-01 -8.836800605058670044e-02 -2.387069016695022583e-01
2.231000000000000000e+03 6.034442901611328125e+00 -2.207665252685546875e+01 -1.151672452688217163e-01 -1.751490533351898193e-01 -8.709488809108734131e-02 -2.200954407453536987e-01
2.232000000000000000e+03 4.652485370635986328e+00 1.249918079376220703e+01 9.686017408967018127e-03 -5.850201938301324844e-03 1.150744501501321793e-03 -4.315404512453824282e-04
2.233000000000000000e+03 4.284389972686767578e+00 -2.039045333862304688e+01 -8.411956578493118286e-02 -8.349312841892242432e-02 -5.028380826115608215e-02 -9.857183694839477539e-02
2.234000000000000000e+03 5.717472553253173828e+00 2.563676452636718750e+01 -4.918221756815910339e-02 -4.302201271057128906e-01 -1.438207030296325684e-01 3.568729162216186523e-01
2.235000000000000000e+03 8.362396240234375000e+00 -6.458257675170898438e+00 2.808584540616720915e-04 -6.456365226767957211e-04 -1.094334220397286117e-04 9.271206363337114453e-05
2.236000000000000000e+03 5.763035297393798828e+00 -2.605828475952148438e+01 -4.423863720148801804e-03 -3.100695013999938965e-01 -9.434801340103149414e-02 -2.364206910133361816e-01
2.237000000000000000e+03 6.353267669677734375e+00 3.146714973449707031e+01 8.330010622739791870e-02 -6.648951768875122070e-01 -1.744785159826278687e-01 3.048354685306549072e-01
2.238000000000000000e+03 4.219804286956787109e+00 2.066958045959472656e+01 -1.106000021100044250e-01 -1.008445769548416138e-01 -6.343337148427963257e-02 1.040083989500999451e-01
2.239000000000000000e+03 4.691661834716796875e+00 2.221549415588378906e+01 -1.515475809574127197e-01 -1.820539236068725586e-01 -1.000804528594017029e-01 2.157049924135208130e-01
2.240000000000000000e+03 5.896354675292968750e+00 -3.317998123168945312e+01 6.443744152784347534e-02 -4.638219475746154785e-01 -1.198153495788574219e-01 -1.672186404466629028e-01
2.241000000000000000e+03 1.217111015319824219e+01 -3.066939735412597656e+01 1.351136267185211182e-01 -4.078348278999328613e-01 -8.181636035442352295e-02 -2.591607272624969482e-01
2.242000000000000000e+03 7.508072376251220703e+00 2.138236618041992188e+01 -3.335728943347930908e-01 -2.471964657306671143e-01 -1.742308139801025391e-01 4.218346774578094482e-01
2.243000000000000000e+03 6.258392333984375000e+00 2.842960166931152344e+01 4.067161306738853455e-02 -5.770154595375061035e-01 -1.609031409025192261e-01 3.604090511798858643e-01
2.244000000000000000e+03 5.965474605560302734e+00 2.700427818298339844e+01 -9.339430253021419048e-04 -5.118758678436279297e-01 -1.538429409265518188e-01 3.735402226448059082e-01
2.245000000000000000e+03 5.666794776916503906e+00 -2.722871398925781250e+01 5.650095175951719284e-03 -3.381078839302062988e-01 -9.973733872175216675e-02 -2.305312603712081909e-01
2.246000000000000000e+03 4.037283897399902344e+00 1.019336891174316406e+01 4.262735135853290558e-03 -1.173978904262185097e-03 9.266268461942672729e-04 -1.487532397732138634e-03
2.247000000000000000e+03 4.039844036102294922e+00 9.104891777038574219e+00 6.181036005727946758e-04 -6.035152473486959934e-04 4.376509423309471458e-06 -5.192563985474407673e-04
2.248000000000000000e+03 5.197676658630371094e+00 8.307995796203613281e+00 1.272135705221444368e-04 2.193803375121206045e-04 1.039781782310456038e-04 -3.233719689887948334e-05
2.249000000000000000e+03 8.022533416748046875e+00 7.463964939117431641e+00 5.960962735116481781e-04 -6.258001085370779037e-04 -8.911151780921500176e-06 7.947665289975702763e-04
2.250000000000000000e+03 5.085052013397216797e+00 9.125449180603027344e+00 3.031230997294187546e-03 -2.073533105431124568e-04 8.471632609143853188e-04 -2.850402670446783304e-04
2.251000000000000000e+03 5.271773338317871094e+00 -7.938153266906738281e+00 6.878531421534717083e-04 -1.932699378812685609e-04 1.483749656472355127e-04 4.213490465190261602e-04
2.252000000000000000e+03 4.974344253540039062e+00 -6.244540691375732422e+00 2.709760155994445086e-04 -3.603732038754969835e-04 -2.681915793800726533e-05 -3.483217733446508646e-04
2.253000000000000000e+03 4.456808567047119141e+00 -5.365314006805419922e+00 2.619124825287144631e-05 3.838638367597013712e-04 1.230165216838940978e-04 4.174552159383893013e-04
2.254000000000000000e+03 1.433334064483642578e+01 -2.071388816833496094e+01 -2.124610990285873413e-01 -3.628384768962860107e-01 -1.725898683071136475e-01 -3.069052696228027344e-01
2.255000000000000000e+03 1.391256999969482422e+01 2.276758384704589844e+01 -1.045020148158073425e-01 -9.623767733573913574e-01 -3.200636506080627441e-01 5.388242602348327637e-01
2.256000000000000000e+03 9.706387519836425781e+00 2.263536262512207031e+01 -2.393851876258850098e-01 -5.640341639518737793e-01 -2.410258054733276367e-01 5.594138503074645996e-01
2.257000000000000000e+03 6.380552768707275391e+00 -7.876701354980468750e+00 2.441752585582435131e-04 -1.395760918967425823e-04 3.137974636047147214e-05 -7.140968227759003639e-04
2.258000000000000000e+03 1.876604080200195312e+01 -1.707002258300781250e+01 -3.741874992847442627e-01 -1.588889807462692261e-01 -1.599229425191879272e-01 -3.822478353977203369e-01
2.259000000000000000e+03 1.617371368408203125e+01 -1.756445312500000000e+01 -3.877760469913482666e-01 -2.710404694080352783e-01 -1.976449489593505859e-01 -3.456264734268188477e-01
2.260000000000000000e+03 1.861855125427246094e+01 1.797731399536132812e+01 -4.847906529903411865e-01 -1.031644105911254883e+00 -4.549304246902465820e-01 4.857834875583648682e-01
2.261000000000000000e+03 1.638728713989257812e+01 2.076985359191894531e+01 -2.527578771114349365e-01 -1.058577656745910645e+00 -3.934006690979003906e-01 4.757574796676635742e-01
2.262000000000000000e+03 1.780802726745605469e+01 -1.785807037353515625e+01 -3.482813835144042969e-01 -2.047906368970870972e-01 -1.659216135740280151e-01 -3.584655523300170898e-01
2.263000000000000000e+03 2.370510292053222656e+01 6.016416549682617188e+00 -3.598493933677673340e-01 -5.017381310462951660e-01 -2.584762573242187500e-01 6.923644542694091797e-01
2.264000000000000000e+03 2.190310668945312500e+01 3.416816234588623047e+00 -1.891634911298751831e-01 -5.398237109184265137e-01 -2.186961621046066284e-01 4.971121549606323242e-01
2.265000000000000000e+03 2.166399765014648438e+01 2.359070301055908203e+00 -1.485259830951690674e-01 -4.713955223560333252e-01 -1.859764605760574341e-01 4.227722287178039551e-01
2.266000000000000000e+03 2.294804954528808594e+01 3.026011466979980469e+00 -2.325934320688247681e-01 -4.475457966327667236e-01 -2.040417641401290894e-01 5.459366440773010254e-01
2.267000000000000000e+03 1.968624877929687500e+01 -1.628795433044433594e+01 -4.033209681510925293e-01 -1.166923716664314270e-01 -1.560039967298507690e-01 -3.995082676410675049e-01
2.268000000000000000e+03 1.680364799499511719e+01 -1.848719024658203125e+01 -3.124510049819946289e-01 -2.475168406963348389e-01 -1.679903566837310791e-01 -3.453968763351440430e-01
2.269000000000000000e+03 2.015429687500000000e+01 1.848102760314941406e+01 -3.623176217079162598e-01 -8.496687412261962891e-01 -3.635959029197692871e-01 4.160523414611816406e-01
2.270000000000000000e+03 7.205180358886718750e+01 4.086669921875000000e+01 7.114425301551818848e-02 7.168863296508789062e+00 2.172002315521240234e+00 -1.578740589320659637e-02
2.271000000000000000e+03 2.384559249877929688e+01 8.539262771606445312e+00 -4.414792656898498535e-01 -5.264772772789001465e-01 -2.903869748115539551e-01 7.145541310310363770e-01
2.272000000000000000e+03 2.435947799682617188e+01 9.733064651489257812e+00 -4.591479599475860596e-01 -4.748080372810363770e-01 -2.801868021488189697e-01 7.047790288925170898e-01
2.273000000000000000e+03 6.203753280639648438e+01 -9.029790878295898438e+00 9.193439036607742310e-02 1.359568119049072266e+01 4.106284618377685547e+00 4.364733219146728516e+00
2.274000000000000000e+03 6.069241714477539062e+01 -8.902234077453613281e+00 1.556918144226074219e+00 6.560517787933349609e+00 2.435230731964111328e+00 5.122837066650390625e+00
2.275000000000000000e+03 5.971356201171875000e+01 -3.871555566787719727e+00 1.195869922637939453e+00 3.116456270217895508e+00 1.293697834014892578e+00 -3.536824464797973633e+00
2.276000000000000000e+03 5.993872451782226562e+01 -4.025702953338623047e+00 1.445057392120361328e+00 3.497875928878784180e+00 1.482879996299743652e+00 -3.843743085861206055e+00
2.277000000000000000e+03 6.191154479980468750e+01 -8.697039604187011719e+00 4.835698008537292480e-01 1.366947364807128906e+01 4.245913028717041016e+00 5.089757442474365234e+00
2.278000000000000000e+03 6.390819931030273438e+01 -7.719597339630126953e+00 4.860021591186523438e+00 1.680434226989746094e+01 6.499309062957763672e+00 -2.244110822677612305e+00
2.279000000000000000e+03 5.985351181030273438e+01 -3.646477222442626953e+00 1.401514530181884766e+00 3.977371692657470703e+00 1.613665819168090820e+00 -4.023170471191406250e+00
2.280000000000000000e+03 6.266509246826171875e+01 -9.171592712402343750e+00 -2.462083101272583008e-01 1.508694744110107422e+01 4.452221870422363281e+00 2.704530477523803711e+00
2.281000000000000000e+03 6.472603607177734375e+01 -7.071101665496826172e+00 6.894082069396972656e+00 1.379069423675537109e+01 6.205432891845703125e+00 -1.419880390167236328e+00
2.282000000000000000e+03 6.444140625000000000e+01 -7.023245811462402344e+00 7.395392894744873047e+00 1.435215663909912109e+01 6.524264812469482422e+00 -1.450297713279724121e+00
2.283000000000000000e+03 6.485951995849609375e+01 -6.598217487335205078e+00 7.294935703277587891e+00 1.325174045562744141e+01 6.164002895355224609e+00 -4.452445805072784424e-01
2.284000000000000000e+03 6.371205139160156250e+01 -8.465339660644531250e+00 1.892680764198303223e+00 1.680786514282226562e+01 5.610164165496826172e+00 -1.048964738845825195e+00
2.285000000000000000e+03 6.420889282226562500e+01 -4.666669845581054688e+00 3.663653850555419922e+00 1.571261787414550781e+01 5.812881469726562500e+00 1.983717918395996094e+00
2.286000000000000000e+03 5.715287399291992188e+01 -2.662206888198852539e+00 6.797786802053451538e-02 1.237691640853881836e+00 3.917008638381958008e-01 -1.698402166366577148e+00
2.287000000000000000e+03 5.919095611572265625e+01 -9.230731964111328125e+00 1.001074075698852539e+00 2.554581165313720703e+00 1.066696643829345703e+00 3.039922952651977539e+00
2.288000000000000000e+03 5.663048171997070312e+01 -1.157993793487548828e+00 2.185814678668975830e-01 1.836966156959533691e+00 6.166642904281616211e-01 -1.909017801284790039e+00
2.289000000000000000e+03 2.359317398071289062e+01 -2.342996358871459961e+00 -2.068257033824920654e-01 -1.329792737960815430e-01 -1.019414961338043213e-01 2.727043032646179199e-01
2.290000000000000000e+03 2.438547134399414062e+01 1.035018563270568848e+00 -2.766199409961700439e-01 -2.676649391651153564e-01 -1.632854640483856201e-01 5.131989717483520508e-01
2.291000000000000000e+03 5.796864318847656250e+01 -1.037496566772460938e+01 5.873838067054748535e-01 2.115010023117065430e+00 8.107181191444396973e-01 2.397870540618896484e+00
2.292000000000000000e+03 5.857574844360351562e+01 -2.690918684005737305e+00 6.850083470344543457e-01 2.572401762008666992e+00 9.772230386734008789e-01 -2.818458557128906250e+00
2.293000000000000000e+03 5.802516937255859375e+01 -2.418433427810668945e+00 5.032812356948852539e-01 2.190216302871704102e+00 8.080492615699768066e-01 -2.431632280349731445e+00
2.294000000000000000e+03 5.667742156982421875e+01 -1.948319315910339355e+00 1.110665351152420044e-01 1.418644070625305176e+00 4.589131772518157959e-01 -1.711827993392944336e+00
2.295000000000000000e+03 5.543133926391601562e+01 -2.117701768875122070e+00 -3.537444472312927246e-01 8.355805873870849609e-01 1.445508450269699097e-01 -1.077448248863220215e+00
2.296000000000000000e+03 2.369434738159179688e+01 -9.158368110656738281e-01 -2.209162414073944092e-01 -2.011622786521911621e-01 -1.266235560178756714e-01 3.667793869972229004e-01
2.297000000000000000e+03 2.489903450012207031e+01 -1.360985994338989258e+00 -2.915428280830383301e-01 -1.532478034496307373e-01 -1.334371864795684814e-01 3.920624256134033203e-01
2.298000000000000000e+03 2.708518028259277344e+01 -2.170620203018188477e+00 -4.419688582420349121e-01 -7.483162730932235718e-02 -1.550401449203491211e-01 4.074385464191436768e-01
2.299000000000000000e+03 2.720214462280273438e+01 -1.496202349662780762e+00 -4.452312588691711426e-01 -8.935903757810592651e-02 -1.603770852088928223e-01 4.576449692249298096e-01
2.300000000000000000e+03 5.555130004882812500e+00 4.644347667694091797e+00 4.407454398460686207e-04 -7.804380147717893124e-04 -1.019077753880992532e-04 1.520781806902959943e-04
2.301000000000000000e+03 5.266525268554687500e+00 6.289309501647949219e+00 7.363184122368693352e-04 -4.542610622593201697e-05 2.072676870739087462e-04 6.310285243671387434e-05
2.302000000000000000e+03 2.405708503723144531e+01 -1.515027761459350586e+00 -2.392640262842178345e-01 -1.649775803089141846e-01 -1.212724819779396057e-01 3.466691672801971436e-01
2.303000000000000000e+03 8.337213516235351562e+00 5.935420036315917969e+00 1.766988571034744382e-04 1.879333052784204483e-03 6.168095860630273819e-04 4.944762913510203362e-04
2.304000000000000000e+03 2.490767860412597656e+01 -2.087611675262451172e+00 -2.897213399410247803e-01 -1.208776235580444336e-01 -1.231796890497207642e-01 3.414982855319976807e-01
2.305000000000000000e+03 2.647764587402343750e+01 -1.440232634544372559e+00 -3.976197540760040283e-01 -1.076782271265983582e-01 -1.515893936157226562e-01 4.409206509590148926e-01
2.306000000000000000e+03 9.886284828186035156e+00 5.771314144134521484e+00 3.486887144390493631e-04 1.601038849912583828e-03 5.849182489328086376e-04 1.033768523484468460e-03
2.307000000000000000e+03 3.133139228820800781e+01 -2.205307006835937500e+00 -7.547733783721923828e-01 -6.543349009007215500e-03 -2.283950150012969971e-01 4.704096317291259766e-01
2.308000000000000000e+03 6.150640010833740234e+00 4.833318233489990234e+00 -7.594946509925648570e-05 1.059824484400451183e-03 2.951624919660389423e-04 1.978789077838882804e-04
2.309000000000000000e+03 2.779511070251464844e+01 -2.216395616531372070e+00 -4.922080039978027344e-01 -6.055492535233497620e-02 -1.658288836479187012e-01 4.213239550590515137e-01
2.310000000000000000e+03 2.994441604614257812e+01 -1.000319004058837891e+00 -6.105362176895141602e-01 -3.929704800248146057e-02 -1.949499845504760742e-01 5.423254370689392090e-01
2.311000000000000000e+03 3.065716361999511719e+01 -1.556586384773254395e+00 -6.796005964279174805e-01 -2.056173048913478851e-02 -2.100487053394317627e-01 5.105888843536376953e-01
2.312000000000000000e+03 3.278700637817382812e+01 -2.166176557540893555e+00 -8.610220551490783691e-01 7.053853478282690048e-03 -2.561904489994049072e-01 4.802036583423614502e-01
2.313000000000000000e+03 3.284509658813476562e+01 -1.484123826026916504e+00 -8.202663064002990723e-01 6.575217936187982559e-03 -2.441073209047317505e-01 5.281448960304260254e-01
2.314000000000000000e+03 3.061550140380859375e+01 -2.232873678207397461e+00 -7.024267911911010742e-01 -1.461143046617507935e-02 -2.151114642620086670e-01 4.636865258216857910e-01
2.315000000000000000e+03 3.290159988403320312e+01 -8.050835728645324707e-01 -7.778806686401367188e-01 6.425699219107627869e-03 -2.314364910125732422e-01 5.696850419044494629e-01
2.316000000000000000e+03 4.610128402709960938e+01 -1.189051055908203125e+01 -1.171190142631530762e+00 9.869389981031417847e-02 -3.217488825321197510e-01 -2.140956073999404907e-01
2.317000000000000000e+03 4.166839218139648438e+01 -1.128784847259521484e+01 -1.372746944427490234e+00 1.672389730811119080e-02 -4.068068861961364746e-01 -3.475059866905212402e-01
2.318000000000000000e+03 4.240906143188476562e+01 -1.196706962585449219e+01 -1.214052200317382812e+00 4.127106815576553345e-02 -3.518343567848205566e-01 -3.414810597896575928e-01
2.319000000000000000e+03 4.684099197387695312e+01 -1.189464759826660156e+01 -1.140511155128479004e+00 1.184328943490982056e-01 -3.066234588623046875e-01 -1.704409569501876831e-01
2.320000000000000000e+03 4.313926696777343750e+01 -1.262001419067382812e+01 -1.046376705169677734e+00 7.387166470289230347e-02 -2.917515337467193604e-01 -3.139303326606750488e-01
2.321000000000000000e+03 4.822794342041015625e+01 -1.272454166412353516e+01 -7.964338064193725586e-01 2.314439862966537476e-01 -1.694969534873962402e-01 -1.326199155300855637e-02
2.322000000000000000e+03 4.018754959106445312e+01 -1.132992458343505859e+01 -1.330075979232788086e+00 5.967000499367713928e-03 -3.972327113151550293e-01 -3.666870296001434326e-01
2.323000000000000000e+03 4.020490646362304688e+01 -1.203728866577148438e+01 -1.177143454551696777e+00 1.912737637758255005e-02 -3.474048376083374023e-01 -3.813679814338684082e-01
2.324000000000000000e+03 3.352199935913085938e+01 -2.144067287445068359e+00 -9.142237901687622070e-01 1.245670020580291748e-02 -2.705301344394683838e-01 4.827110469341278076e-01
2.325000000000000000e+03 4.979406356811523438e+01 -1.190700244903564453e+01 -9.109203219413757324e-01 2.473635375499725342e-01 -1.990670412778854370e-01 6.715208292007446289e-02
2.326000000000000000e+03 5.056341171264648438e+01 -1.186973667144775391e+01 -8.388741016387939453e-01 3.043820261955261230e-01 -1.603476256132125854e-01 1.533525288105010986e-01
2.327000000000000000e+03 4.907011413574218750e+01 -1.116456699371337891e+01 -1.250343322753906250e+00 1.401485204696655273e-01 -3.330584466457366943e-01 -6.985840946435928345e-02
2.328000000000000000e+03 3.430707550048828125e+01 -1.432606697082519531e+00 -9.104056954383850098e-01 1.821885257959365845e-02 -2.676560580730438232e-01 5.305526256561279297e-01
2.329000000000000000e+03 4.094198226928710938e+01 -1.202864646911621094e+01 -1.186933279037475586e+00 1.936481148004531860e-02 -3.502705395221710205e-01 -3.670267462730407715e-01
2.330000000000000000e+03 3.577112579345703125e+01 -1.358043670654296875e+00 -9.926461577415466309e-01 2.764377929270267487e-02 -2.895007133483886719e-01 5.285345315933227539e-01
2.331000000000000000e+03 4.537614059448242188e+01 -1.118683528900146484e+01 -1.406980514526367188e+00 5.446847528219223022e-02 -4.057536125183105469e-01 -2.624194920063018799e-01
2.332000000000000000e+03 4.463232040405273438e+01 -1.190632915496826172e+01 -1.210398316383361816e+00 6.597860157489776611e-02 -3.433259129524230957e-01 -2.741250395774841309e-01
2.333000000000000000e+03 5.210490417480468750e+01 -1.176627540588378906e+01 -6.506374478340148926e-01 4.585031867027282715e-01 -5.764028057456016541e-02 3.918938636779785156e-01
2.334000000000000000e+03 4.386904907226562500e+01 -1.262141609191894531e+01 -1.040452718734741211e+00 7.876995950937271118e-02 -2.885048091411590576e-01 -2.864687740802764893e-01
2.335000000000000000e+03 4.240511703491210938e+01 -1.126079177856445312e+01 -1.389370560646057129e+00 2.486380934715270996e-02 -4.093520045280456543e-01 -3.358934223651885986e-01
2.336000000000000000e+03 4.833111953735351562e+01 -1.116849136352539062e+01 -1.302866816520690918e+00 1.162684559822082520e-01 -3.559795022010803223e-01 -1.207009851932525635e-01
2.337000000000000000e+03 3.943948745727539062e+01 -1.135506439208984375e+01 -1.304735064506530762e+00 1.994233811274170876e-03 -3.908222317695617676e-01 -3.761765062808990479e-01
2.338000000000000000e+03 5.286169433593750000e+01 -1.171076011657714844e+01 -5.340316891670227051e-01 5.532032251358032227e-01 5.751451011747121811e-03 5.432991981506347656e-01
2.339000000000000000e+03 3.721812438964843750e+01 -1.220893859863281250e+01 -1.079646348953247070e+00 -8.762996643781661987e-03 -3.265227973461151123e-01 -4.157496690750122070e-01
2.340000000000000000e+03 5.359253311157226562e+01 -1.164898681640625000e+01 -4.068398773670196533e-01 6.665173768997192383e-01 7.790325582027435303e-02 7.103611826896667480e-01
2.341000000000000000e+03 3.722173309326171875e+01 -1.990919947624206543e+00 -1.160971164703369141e+00 2.865878492593765259e-02 -3.396937251091003418e-01 4.772467911243438721e-01
2.342000000000000000e+03 3.797774124145507812e+01 -1.215360736846923828e+01 -1.105618119239807129e+00 -5.450695753097534180e-03 -3.333206176757812500e-01 -4.060665369033813477e-01
2.343000000000000000e+03 3.579518890380859375e+01 -6.540751457214355469e-01 -9.176759123802185059e-01 3.260221704840660095e-02 -2.655221223831176758e-01 5.660815238952636719e-01
2.344000000000000000e+03 3.491701507568359375e+01 -1.153364467620849609e+01 -1.107072234153747559e+00 -2.584615349769592285e-02 -3.398755192756652832e-01 -3.972403109073638916e-01
2.345000000000000000e+03 3.727718353271484375e+01 -1.296446323394775391e+01 -9.407695531845092773e-01 -1.590665895491838455e-03 -2.827080786228179932e-01 -4.325923621654510498e-01
2.346000000000000000e+03 5.559226989746093750e+00 -5.560341835021972656e+00 -3.307550796307623386e-04 5.598449497483670712e-04 6.872697122162207961e-05 -1.003430224955081940e-04
2.347000000000000000e+03 7.080899238586425781e+00 -5.284914970397949219e+00 9.972213592845946550e-05 -3.240946389269083738e-04 -6.731175380991771817e-05 -3.437649284023791552e-04
2.348000000000000000e+03 3.796784591674804688e+01 -1.962548255920410156e+00 -1.205572724342346191e+00 3.060342185199260712e-02 -3.524907827377319336e-01 4.721205830574035645e-01
2.349000000000000000e+03 3.651128005981445312e+01 -1.317748308181762695e+00 -1.030521869659423828e+00 3.181838616728782654e-02 -2.996110320091247559e-01 5.254192352294921875e-01
2.350000000000000000e+03 5.076329040527343750e+01 -1.183417320251464844e+00 -9.768359661102294922e-01 2.899925708770751953e-01 -2.060530036687850952e-01 -1.423087269067764282e-01
2.351000000000000000e+03 3.948987197875976562e+01 -1.192298769950866699e+00 -1.164853334426879883e+00 4.532966762781143188e-02 -3.358570933341979980e-01 4.916349351406097412e-01
2.352000000000000000e+03 4.019987106323242188e+01 -1.903871893882751465e+00 -1.326900124549865723e+00 3.534940630197525024e-02 -3.874652087688446045e-01 4.452553093433380127e-01
2.353000000000000000e+03 4.022826766967773438e+01 -1.181573033332824707e+00 -1.192645788192749023e+00 4.879314079880714417e-02 -3.431558012962341309e-01 4.777261018753051758e-01
2.354000000000000000e+03 4.244432067871093750e+01 -1.868873119354248047e+00 -1.421101570129394531e+00 4.074712842702865601e-02 -4.141063094139099121e-01 4.036287665367126465e-01
2.355000000000000000e+03 4.320204925537109375e+01 -1.156843900680541992e+00 -1.270056962966918945e+00 6.500336527824401855e-02 -3.615160882472991943e-01 4.025381803512573242e-01
2.356000000000000000e+03 4.620151519775390625e+01 -1.800146102905273438e+00 -1.468475341796875000e+00 7.802806049585342407e-02 -4.171341955661773682e-01 2.774481177330017090e-01
2.357000000000000000e+03 4.621369934082031250e+01 -1.077673792839050293e+00 -1.243577361106872559e+00 1.150932610034942627e-01 -3.385452330112457275e-01 2.651928961277008057e-01
2.358000000000000000e+03 3.725675201416015625e+01 -1.277841091156005859e+00 -1.067703247070312500e+00 3.652755916118621826e-02 -3.093527257442474365e-01 5.203461050987243652e-01
2.359000000000000000e+03 3.417286300659179688e+01 -1.229021453857421875e+01 -9.663872718811035156e-01 -2.473862469196319580e-02 -2.973377704620361328e-01 -4.290761649608612061e-01
2.360000000000000000e+03 4.845739746093750000e+01 -1.782002806663513184e+00 -1.400635957717895508e+00 1.175427809357643127e-01 -3.849279582500457764e-01 1.465826332569122314e-01
2.361000000000000000e+03 4.848010253906250000e+01 -1.045801877975463867e+00 -1.136044859886169434e+00 1.792435795068740845e-01 -2.870403826236724854e-01 1.014143601059913635e-01
2.362000000000000000e+03 3.265459442138671875e+01 -1.157802677154541016e+01 -9.993490576744079590e-01 -3.027639538049697876e-02 -3.088876307010650635e-01 -3.982081413269042969e-01
2.363000000000000000e+03 3.267580795288085938e+01 -1.233135318756103516e+01 -9.061564207077026367e-01 -3.085155598819255829e-02 -2.811023890972137451e-01 -4.313761591911315918e-01
2.364000000000000000e+03 4.924321365356445312e+01 -1.072872161865234375e+00 -1.089808702468872070e+00 2.096222788095474243e-01 -2.640559077262878418e-01 3.062308207154273987e-02
2.365000000000000000e+03 5.000662231445312500e+01 -1.120972871780395508e+00 -1.037024497985839844e+00 2.483179867267608643e-01 -2.366119474172592163e-01 -5.094950273633003235e-02
2.366000000000000000e+03 4.171666717529296875e+01 -1.168831706047058105e+00 -1.240523815155029297e+00 5.450328812003135681e-02 -3.558061718940734863e-01 4.436075389385223389e-01
2.367000000000000000e+03 4.696437072753906250e+01 -1.053520798683166504e+00 -1.214069008827209473e+00 1.331553161144256592e-01 -3.242741227149963379e-01 2.171926200389862061e-01
2.368000000000000000e+03 4.546359634399414062e+01 -1.105452418327331543e+00 -1.264073967933654785e+00 1.022718027234077454e-01 -3.485406339168548584e-01 3.069243133068084717e-01
2.369000000000000000e+03 4.470733261108398438e+01 -1.129078865051269531e+00 -1.275276064872741699e+00 8.794689178466796875e-02 -3.561987578868865967e-01 3.443001508712768555e-01
2.370000000000000000e+03 3.645032882690429688e+01 -1.226594924926757812e+01 -1.044972062110900879e+00 -1.835084520280361176e-02 -3.189968764781951904e-01 -4.232275187969207764e-01
2.371000000000000000e+03 5.431129837036132812e+01 -1.229256439208984375e+01 -7.776959985494613647e-02 1.038082480430603027e+00 2.880938649177551270e-01 1.054198741912841797e+00
2.372000000000000000e+03 5.376661300659179688e+01 -2.004747629165649414e+00 -7.904955744743347168e-01 4.713354408740997314e-01 -9.574802964925765991e-02 -5.669835805892944336e-01
2.373000000000000000e+03 2.963935661315917969e+01 -1.244376087188720703e+01 -7.738810777664184570e-01 -2.465509250760078430e-02 -2.395608425140380859e-01 -4.331931173801422119e-01
2.374000000000000000e+03 3.342439651489257812e+01 -1.230029582977294922e+01 -9.383432269096374512e-01 -2.870101481676101685e-02 -2.901132702827453613e-01 -4.294920563697814941e-01
2.375000000000000000e+03 5.223554611206054688e+01 -1.308343529701232910e+00 -8.021234869956970215e-01 4.168939590454101562e-01 -1.155688613653182983e-01 -3.621802031993865967e-01
2.376000000000000000e+03 3.116692352294921875e+01 -1.238664817810058594e+01 -8.424156308174133301e-01 -2.836157754063606262e-02 -2.612331509590148926e-01 -4.307638704776763916e-01
2.377000000000000000e+03 2.645720481872558594e+01 -1.169282817840576172e+01 -6.894145607948303223e-01 -7.497439626604318619e-03 -2.090735882520675659e-01 -3.919235467910766602e-01
2.378000000000000000e+03 2.643685150146484375e+01 -1.257721042633056641e+01 -6.420643329620361328e-01 -1.045901607722043991e-02 -1.957570016384124756e-01 -4.291946887969970703e-01
2.379000000000000000e+03 5.294412994384765625e+01 -1.339995265007019043e+00 -6.799051165580749512e-01 5.009146332740783691e-01 -5.369713902473449707e-02 -5.118228197097778320e-01
2.380000000000000000e+03 2.886111259460449219e+01 -1.246753215789794922e+01 -7.416564226150512695e-01 -2.107832022011280060e-02 -2.288204282522201538e-01 -4.317211508750915527e-01
2.381000000000000000e+03 5.451226425170898438e+01 -1.837007761001586914e+00 -5.205476880073547363e-01 6.565985679626464844e-01 4.081526771187782288e-02 -8.252933025360107422e-01
2.382000000000000000e+03 5.361697387695312500e+01 -1.325867772102355957e+00 -5.367197394371032715e-01 6.353940367698669434e-01 2.960229478776454926e-02 -6.927597522735595703e-01
2.383000000000000000e+03 5.564110946655273438e+01 -1.144139003753662109e+01 1.229781471192836761e-02 1.224314212799072266e+00 3.709836304187774658e-01 1.356570959091186523e+00
2.384000000000000000e+03 5.629941940307617188e+01 -1.075879669189453125e+01 2.720203250646591187e-02 1.212383866310119629e+00 3.718757629394531250e-01 1.455221295356750488e+00
2.385000000000000000e+03 2.806835556030273438e+01 -1.249985885620117188e+01 -7.083953022956848145e-01 -1.644626818597316742e-02 -2.174524664878845215e-01 -4.329958260059356689e-01
2.386000000000000000e+03 5.589533615112304688e+01 -1.840767145156860352e+00 -1.008384376764297485e-01 1.117014646530151367e+00 3.048528730869293213e-01 -1.358184576034545898e+00
2.387000000000000000e+03 5.512356185913085938e+01 -1.638064146041870117e+00 -2.692242562770843506e-01 9.186232686042785645e-01 1.948197036981582642e-01 -1.099726080894470215e+00
2.388000000000000000e+03 2.257776641845703125e+01 -1.157969665527343750e+01 -5.275050997734069824e-01 5.063208285719156265e-03 -1.567325741052627563e-01 -3.636598885059356689e-01
2.389000000000000000e+03 2.057799148559570312e+01 -1.559007358551025391e+01 -4.259221851825714111e-01 -8.245258778333663940e-02 -1.525124311447143555e-01 -4.125249087810516357e-01
2.390000000000000000e+03 2.110040855407714844e+01 -1.262876510620117188e+01 -4.767155349254608154e-01 -2.687565051019191742e-02 -1.510773599147796631e-01 -3.783083856105804443e-01
2.391000000000000000e+03 5.690857696533203125e+01 -1.137264537811279297e+01 3.197446167469024658e-01 1.884005904197692871e+00 6.611251235008239746e-01 1.968601822853088379e+00
2.392000000000000000e+03 2.726997566223144531e+01 -1.254234123229980469e+01 -6.743160486221313477e-01 -1.515098381787538528e-02 -2.068401128053665161e-01 -4.323901832103729248e-01
2.393000000000000000e+03 2.499140357971191406e+01 -1.234126567840576172e+01 -5.988328456878662109e-01 -2.431452739983797073e-03 -1.803792864084243774e-01 -4.088662862777709961e-01
2.394000000000000000e+03 2.071087455749511719e+01 -1.398375129699707031e+01 -4.617928564548492432e-01 -5.506718531250953674e-02 -1.550580114126205444e-01 -4.019179344177246094e-01
2.395000000000000000e+03 5.836378860473632812e+01 -1.018230915069580078e+01 6.653353571891784668e-01 2.359502792358398438e+00 9.074514508247375488e-01 2.604316473007202148e+00
2.396000000000000000e+03 5.737212371826171875e+01 -1.013112449645996094e+01 2.868220806121826172e-01 1.427417039871215820e+00 5.142717361450195312e-01 1.854913711547851562e+00
2.397000000000000000e+03 2.263948440551757812e+01 -1.242178344726562500e+01 -5.192096233367919922e-01 -5.570852663367986679e-03 -1.574341356754302979e-01 -3.934853076934814453e-01
2.398000000000000000e+03 1.061028289794921875e+01 5.726581096649169922e+00 3.973345737904310226e-04 -2.208496443927288055e-03 -5.433486076071858406e-04 -1.426534028723835945e-03
2.399000000000000000e+03 1.098623752593994141e+01 6.770676136016845703e+00 -1.019204573822207749e-04 -2.024326007813215256e-03 -6.378739490173757076e-04 -1.217360026203095913e-03
2.400000000000000000e+03 7.499480247497558594e+00 9.903701782226562500e+00 1.517054333817213774e-04 1.100637135095894337e-03 3.757027734536677599e-04 2.672110567800700665e-04
2.401000000000000000e+03 6.739655971527099609e+00 1.082199954986572266e+01 2.335133729502558708e-03 9.771375916898250580e-04 9.936813730746507645e-04 4.179890733212232590e-03
2.402000000000000000e+03 2.177343177795410156e+01 4.981052577495574951e-01 -1.184981614351272583e-01 -3.275527954101562500e-01 -1.338152885437011719e-01 3.259110450744628906e-01
2.403000000000000000e+03 2.361194229125976562e+01 7.307530879974365234e+00 -4.061095714569091797e-01 -5.332291722297668457e-01 -2.818016409873962402e-01 7.091065645217895508e-01
2.404000000000000000e+03 2.127639198303222656e+01 1.533334064483642578e+01 -5.370365977287292480e-01 -7.855491638183593750e-01 -3.967757523059844971e-01 5.367794036865234375e-01
2.405000000000000000e+03 2.147703170776367188e+01 1.835270118713378906e+01 -3.017083406448364258e-01 -6.827572584152221680e-01 -2.953396737575531006e-01 3.864639103412628174e-01
2.406000000000000000e+03 2.305793380737304688e+01 -1.529009151458740234e+01 -4.547442793846130371e-01 -3.955447673797607422e-02 -1.482896357774734497e-01 -4.501129388809204102e-01
2.407000000000000000e+03 6.381877422332763672e+00 2.132201766967773438e+01 -2.906931340694427490e-01 -1.574266403913497925e-01 -1.344359368085861206e-01 2.796809077262878418e-01
2.408000000000000000e+03 4.696825027465820312e+00 7.115161895751953125e+00 -3.019255018443800509e-06 3.760863910429179668e-04 1.119201406254433095e-04 -2.419066440779715776e-04
2.409000000000000000e+03 9.566832542419433594e+00 7.135011672973632812e+00 7.020892226137220860e-04 -1.545759150758385658e-03 -2.531009668018668890e-04 5.346520993043668568e-05
2.410000000000000000e+03 6.955110168457031250e+01 -2.564188957214355469e+01 -4.606605470180511475e-01 7.537810802459716797e+00 2.123145103454589844e+00 -8.871930092573165894e-02
2.411000000000000000e+03 7.022093200683593750e+01 -3.147964859008789062e+01 -1.797368377447128296e-01 7.346810817718505859e+00 2.150122165679931641e+00 7.925971876829862595e-04
2.412000000000000000e+03 7.199578094482421875e+01 -3.224258804321289062e+01 -1.069269627332687378e-01 7.630446910858154297e+00 2.257055997848510742e+00 -3.543487563729286194e-02
2.413000000000000000e+03 7.358673858642578125e+01 -2.365567398071289062e+01 -3.042832314968109131e-01 7.989269733428955078e+00 2.305495977401733398e+00 -4.447971582412719727e-01
2.414000000000000000e+03 7.292221832275390625e+01 -2.513467597961425781e+01 -3.127555847167968750e-01 7.912189960479736328e+00 2.279830217361450195e+00 -3.328540325164794922e-01
2.415000000000000000e+03 7.355651092529296875e+01 5.029402971267700195e-01 8.569652587175369263e-02 7.830794811248779297e+00 2.374947547912597656e+00 1.150488972663879395e+00
2.416000000000000000e+03 9.981954574584960938e+00 3.207975006103515625e+01 1.806222796440124512e-01 -7.171370387077331543e-01 -1.609544306993484497e-01 3.367889523506164551e-01
2.417000000000000000e+03 7.147814941406250000e+01 1.716468429565429688e+01 -2.184704691171646118e-01 7.488724231719970703e+00 2.181076288223266602e+00 -3.033457137644290924e-02
2.418000000000000000e+03 7.244192504882812500e+01 1.551201725006103516e+01 -2.491379380226135254e-01 7.661920070648193359e+00 2.223834514617919922e+00 5.716730654239654541e-02
2.419000000000000000e+03 7.308643341064453125e+01 -2.266848754882812500e+01 -3.523042798042297363e-01 7.987647533416748047e+00 2.290602922439575195e+00 -5.040079951286315918e-01
2.420000000000000000e+03 7.135659027099609375e+01 1.111788177490234375e+01 -4.803512394428253174e-01 7.823413848876953125e+00 2.202918767929077148e+00 2.573795914649963379e-01
2.421000000000000000e+03 7.310411834716796875e+01 8.354685783386230469e+00 -4.166944622993469238e-01 7.982598304748535156e+00 2.269771099090576172e+00 5.759828686714172363e-01
2.422000000000000000e+03 7.395944213867187500e+01 -1.653786659240722656e+01 -2.287713587284088135e-01 7.924927234649658203e+00 2.308846950531005859e+00 -1.023946404457092285e+00
2.423000000000000000e+03 7.244926452636718750e+01 4.338885784149169922e+00 -4.097151458263397217e-01 8.205198287963867188e+00 2.338644981384277344e+00 9.485065340995788574e-01
2.424000000000000000e+03 7.499668121337890625e+01 -1.393808555603027344e+01 1.797151006758213043e-02 7.464716434478759766e+00 2.244806289672851562e+00 -1.045055508613586426e+00
2.425000000000000000e+03 7.390033721923828125e+01 -1.778098869323730469e+01 -2.970318496227264404e-01 7.973620414733886719e+00 2.302976608276367188e+00 -9.288495182991027832e-01
2.426000000000000000e+03 7.398217010498046875e+01 -6.771373748779296875e+00 9.506154656410217285e-01 7.199818611145019531e+00 2.445130109786987305e+00 -1.106773018836975098e-01
2.427000000000000000e+03 7.307715606689453125e+01 -1.042136764526367188e+01 6.706450581550598145e-01 7.766886711120605469e+00 2.531259536743164062e+00 -1.004796743392944336e+00
2.428000000000000000e+03 7.396386718750000000e+01 -1.405637836456298828e+01 4.104563500732183456e-03 7.786046504974365234e+00 2.337045431137084961e+00 -1.139178514480590820e+00
2.429000000000000000e+03 7.298792266845703125e+01 -5.643537998199462891e+00 1.215354681015014648e+00 7.564061641693115234e+00 2.633824825286865234e+00 2.250182330608367920e-01
2.430000000000000000e+03 7.361808776855468750e+01 -2.036481666564941406e+01 -3.557130396366119385e-01 8.018545150756835938e+00 2.298849582672119141e+00 -7.022223472595214844e-01
2.431000000000000000e+03 7.459306335449218750e+01 5.707828998565673828e+00 -2.685603797435760498e-01 7.850915908813476562e+00 2.274706602096557617e+00 8.183964490890502930e-01
2.432000000000000000e+03 7.210002899169921875e+01 2.711217880249023438e+01 -1.705044065602123737e-03 7.276047229766845703e+00 2.182302713394165039e+00 -1.522422879934310913e-01
2.433000000000000000e+03 7.454775238037109375e+01 -1.149681925773620605e+00 3.159704804420471191e-01 7.365512847900390625e+00 2.304445028305053711e+00 9.963968396186828613e-01
2.434000000000000000e+03 7.404793548583984375e+01 1.263353347778320312e+01 -2.518473863601684570e-01 7.906808853149414062e+00 2.296488523483276367e+00 2.664091587066650391e-01
2.435000000000000000e+03 7.334117889404296875e+01 -8.313511013984680176e-01 3.500720560550689697e-01 7.809258937835693359e+00 2.447799205780029297e+00 1.127032637596130371e+00
2.436000000000000000e+03 7.155033111572265625e+01 -2.753804969787597656e+01 -2.853392660617828369e-01 7.703094959259033203e+00 2.225326776504516602e+00 -1.588830947875976562e-01
2.437000000000000000e+03 1.043981266021728516e+01 2.130189323425292969e+01 -3.884638845920562744e-01 -6.181343197822570801e-01 -3.019794523715972900e-01 6.344750523567199707e-01
2.438000000000000000e+03 7.183509349822998047e+00 -2.486211395263671875e+01 -2.218976989388465881e-02 -3.140005171298980713e-01 -1.008570864796638489e-01 -2.786592245101928711e-01
2.439000000000000000e+03 8.829898834228515625e+00 -2.360497665405273438e+01 -5.388733744621276855e-02 -3.483292162418365479e-01 -1.206649690866470337e-01 -3.202238082885742188e-01
2.440000000000000000e+03 6.735493183135986328e+00 -6.436411857604980469e+00 1.201304330606944859e-04 -3.107315860688686371e-04 -5.718034663004800677e-05 -3.785277076531201601e-04
2.441000000000000000e+03 7.698699951171875000e+00 2.813328552246093750e+01 5.666599795222282410e-02 -6.201890707015991211e-01 -1.690569072961807251e-01 4.148655235767364502e-01
2.442000000000000000e+03 5.911831855773925781e+00 8.737416267395019531e+00 1.976719591766595840e-03 -1.891885302029550076e-03 2.545029565226286650e-05 2.224142808699980378e-04
2.443000000000000000e+03 7.355815410614013672e+00 8.419848442077636719e+00 4.655891680158674717e-04 7.328087231144309044e-04 3.595193556975573301e-04 -2.424585545668378472e-04
2.444000000000000000e+03 5.645205497741699219e+00 7.500493526458740234e+00 1.668640528805553913e-03 -6.234810571186244488e-04 3.135478473268449306e-04 -1.155361605924554169e-04
2.445000000000000000e+03 6.522464752197265625e+00 7.919379711151123047e+00 4.374745476525276899e-04 1.961995731107890606e-04 1.901022478705272079e-04 9.713402832858264446e-04
2.446000000000000000e+03 2.559066200256347656e+01 7.471725463867187500e+00 -4.127592146396636963e-01 -3.376031816005706787e-01 -2.251087129116058350e-01 7.302580475807189941e-01
2.447000000000000000e+03 1.269429111480712891e+01 -2.093369865417480469e+01 -1.642380505800247192e-01 -4.160754680633544922e-01 -1.740940511226654053e-01 -3.101046383380889893e-01
2.448000000000000000e+03 9.093826293945312500e+00 -2.141657829284667969e+01 -1.286940425634384155e-01 -3.507945239543914795e-01 -1.438465565443038940e-01 -3.371323645114898682e-01
2.449000000000000000e+03 1.129207515716552734e+01 -2.409472084045410156e+01 -2.934130840003490448e-02 -3.953832089900970459e-01 -1.274173557758331299e-01 -3.249275386333465576e-01
2.450000000000000000e+03 6.725135803222656250e+01 2.846404075622558594e+01 4.205912351608276367e-02 6.396774291992187500e+00 1.931650042533874512e+00 -2.410642951726913452e-01
2.451000000000000000e+03 1.858138656616210938e+01 -1.922553253173828125e+01 -2.709431946277618408e-01 -2.031749188899993896e-01 -1.422354429960250854e-01 -3.696298599243164062e-01
2.452000000000000000e+03 1.512075614929199219e+01 2.181817245483398438e+01 -1.682055741548538208e-01 -1.032808780670166016e+00 -3.603043258190155029e-01 5.159190893173217773e-01
2.453000000000000000e+03 7.930682182312011719e+00 2.386221694946289062e+01 -1.354001909494400024e-01 -4.686629176139831543e-01 -1.812189370393753052e-01 4.717820882797241211e-01
2.454000000000000000e+03 1.278317451477050781e+01 2.369325637817382812e+01 -4.110940173268318176e-02 -8.856752514839172363e-01 -2.780354022979736328e-01 5.527809858322143555e-01
2.455000000000000000e+03 2.352552413940429688e+01 1.373380851745605469e+01 -4.813705682754516602e-01 -5.357336997985839844e-01 -3.051312863826751709e-01 5.824934244155883789e-01
2.456000000000000000e+03 2.364594650268554688e+01 1.698193550109863281e+01 -3.295702338218688965e-01 -5.083571076393127441e-01 -2.513781785964965820e-01 4.208333194255828857e-01
2.457000000000000000e+03 2.144168090820312500e+01 -1.498224925994873047e+01 -4.519822001457214355e-01 -5.457716807723045349e-02 -1.519678086042404175e-01 -4.232721030712127686e-01
2.458000000000000000e+03 2.460409355163574219e+01 3.383318185806274414e+00 -3.176407217979431152e-01 -3.423143923282623291e-01 -1.979865282773971558e-01 6.353795528411865234e-01
2.459000000000000000e+03 2.428355789184570312e+01 4.880982398986816406e+00 -3.380501866340637207e-01 -4.278181493282318115e-01 -2.297604978084564209e-01 6.802150011062622070e-01
2.460000000000000000e+03 9.080253601074218750e+00 -2.985434722900390625e+01 7.651026546955108643e-02 -4.099220931529998779e-01 -1.000235527753829956e-01 -2.580729722976684570e-01
2.461000000000000000e+03 6.596893787384033203e+00 -2.937869262695312500e+01 4.294303059577941895e-02 -3.954627215862274170e-01 -1.057559028267860413e-01 -2.318238019943237305e-01
2.462000000000000000e+03 1.492181587219238281e+01 2.409863090515136719e+01 3.877196460962295532e-02 -9.307377338409423828e-01 -2.675897479057312012e-01 4.756281375885009766e-01
2.463000000000000000e+03 2.484569168090820312e+01 6.295855522155761719e+00 -3.889611065387725830e-01 -3.956149518489837646e-01 -2.353728115558624268e-01 7.215769886970520020e-01
2.464000000000000000e+03 2.235801696777343750e+01 1.448419666290283203e+01 -5.149669051170349121e-01 -6.724915504455566406e-01 -3.562375307083129883e-01 5.579801797866821289e-01
2.465000000000000000e+03 5.131699562072753906e+00 -1.382516193389892578e+01 6.260127294808626175e-03 -8.725972846150398254e-03 -7.397535955533385277e-04 -3.516832832247018814e-03
2.466000000000000000e+03 6.448792457580566406e+00 2.273724746704101562e+01 -1.758995354175567627e-01 -3.024574220180511475e-01 -1.435070931911468506e-01 3.644340336322784424e-01
2.467000000000000000e+03 7.851121425628662109e+00 -2.834793090820312500e+01 4.614464938640594482e-02 -3.861653804779052734e-01 -1.020062193274497986e-01 -2.626859545707702637e-01
2.468000000000000000e+03 7.152787017822265625e+01 2.864520835876464844e+01 1.396411750465631485e-02 7.140102863311767578e+00 2.146219968795776367e+00 -1.535526663064956665e-01
2.469000000000000000e+03 6.066753387451171875e+01 -3.813228130340576172e+00 1.429662227630615234e+00 6.577364444732666016e+00 2.402107954025268555e+00 -5.084444999694824219e+00
2.470000000000000000e+03 5.925835800170898438e+01 -3.559146881103515625e+00 9.907094240188598633e-01 2.698036909103393555e+00 1.106623888015747070e+00 -3.172689676284790039e+00
2.471000000000000000e+03 6.166330718994140625e+01 -9.261953353881835938e+00 2.957612872123718262e-01 1.131574249267578125e+01 3.483451128005981445e+00 4.868107318878173828e+00
2.472000000000000000e+03 6.496224212646484375e+01 -7.190346717834472656e+00 6.293966770172119141e+00 1.329681873321533203e+01 5.877235889434814453e+00 -1.431082248687744141e+00
2.473000000000000000e+03 6.329314422607421875e+01 -9.106327056884765625e+00 1.738586276769638062e-01 1.573897075653076172e+01 4.773849010467529297e+00 7.944133877754211426e-01
2.474000000000000000e+03 6.369626235961914062e+01 -7.820736885070800781e+00 4.148731708526611328e+00 1.772418403625488281e+01 6.561874866485595703e+00 -2.051324605941772461e+00
2.475000000000000000e+03 6.169216537475585938e+01 -3.653181791305541992e+00 2.924558520317077637e-01 1.162649726867675781e+01 3.575685977935791016e+00 -4.973936557769775391e+00
2.476000000000000000e+03 6.464797973632812500e+01 -5.981711864471435547e+00 7.557807445526123047e+00 1.385608768463134766e+01 6.424168586730957031e+00 9.423456788063049316e-01
2.477000000000000000e+03 6.257799530029296875e+01 -9.553652763366699219e+00 -4.236952066421508789e-01 1.392166042327880859e+01 4.049389839172363281e+00 2.909064769744873047e+00
2.478000000000000000e+03 6.507231140136718750e+01 -5.742900371551513672e+00 6.358596801757812500e+00 1.298787117004394531e+01 5.803940296173095703e+00 1.136986136436462402e+00
2.479000000000000000e+03 6.454061889648437500e+01 -5.200838565826416016e+00 5.494874954223632812e+00 1.456205463409423828e+01 6.017078876495361328e+00 2.018685340881347656e+00
2.480000000000000000e+03 6.457382965087890625e+01 -4.936058044433593750e+00 4.686267852783203125e+00 1.464799690246582031e+01 5.800279617309570312e+00 2.068287134170532227e+00
2.481000000000000000e+03 6.357649993896484375e+01 -4.433178424835205078e+00 1.930045723915100098e+00 1.729749870300292969e+01 5.768263339996337891e+00 9.308258295059204102e-01
2.482000000000000000e+03 6.386466598510742188e+01 -4.391114234924316406e+00 2.262191295623779297e+00 1.651965522766113281e+01 5.634553909301757812e+00 1.310696959495544434e+00
2.483000000000000000e+03 6.351238250732421875e+01 -8.810555458068847656e+00 8.091597557067871094e-01 1.643964767456054688e+01 5.174642086029052734e+00 -6.514843553304672241e-02
2.484000000000000000e+03 6.323587417602539062e+01 -8.847628593444824219e+00 4.167242050170898438e-01 1.655835533142089844e+01 5.092524051666259766e+00 7.449852228164672852e-01
2.485000000000000000e+03 6.417695617675781250e+01 -8.767274856567382812e+00 1.796948552131652832e+00 1.532467651367187500e+01 5.136487483978271484e+00 -1.256375551223754883e+00
2.486000000000000000e+03 5.919226455688476562e+01 -9.730005264282226562e+00 9.861707091331481934e-01 3.125121831893920898e+00 1.233387827873229980e+00 3.270276546478271484e+00
2.487000000000000000e+03 6.050548934936523438e+01 -4.008270740509033203e+00 1.657512664794921875e+00 5.473105430603027344e+00 2.139185428619384766e+00 -4.918019771575927734e+00
2.488000000000000000e+03 6.009673309326171875e+01 -9.244329452514648438e+00 1.390437126159667969e+00 4.627412319183349609e+00 1.805354833602905273e+00 4.251561164855957031e+00
2.489000000000000000e+03 5.999034500122070312e+01 -8.587501525878906250e+00 1.703533768653869629e+00 3.337713003158569336e+00 1.512374043464660645e+00 3.861511230468750000e+00
2.490000000000000000e+03 5.872706604003906250e+01 -3.144072771072387695e+00 7.281712293624877930e-01 2.303622961044311523e+00 9.095382690429687500e-01 -2.770619153976440430e+00
2.491000000000000000e+03 5.730558395385742188e+01 -1.894458413124084473e+00 3.001127243041992188e-01 1.885506868362426758e+00 6.556859016418457031e-01 -2.108535766601562500e+00
2.492000000000000000e+03 5.665455627441406250e+01 -3.293240368366241455e-01 2.482578605413436890e-01 2.244785785675048828e+00 7.479130625724792480e-01 -2.033531904220581055e+00
2.493000000000000000e+03 2.466117858886718750e+01 2.651660442352294922e-01 -2.893729209899902344e-01 -2.255480289459228516e-01 -1.544762849807739258e-01 4.871047735214233398e-01
2.494000000000000000e+03 2.504117012023925781e+01 -6.124282479286193848e-01 -3.028725981712341309e-01 -1.773253381252288818e-01 -1.440593749284744263e-01 4.438124597072601318e-01
2.495000000000000000e+03 5.772109603881835938e+01 -1.102668857574462891e+01 4.792032837867736816e-01 2.314979791641235352e+00 8.382549285888671875e-01 2.371985435485839844e+00
2.496000000000000000e+03 5.912977600097656250e+01 -1.020829868316650391e+01 8.610299825668334961e-01 3.474979400634765625e+00 1.300802826881408691e+00 3.321354150772094727e+00
2.497000000000000000e+03 2.585160446166992188e+01 -6.891983151435852051e-01 -3.560239374637603760e-01 -1.470611989498138428e-01 -1.509255468845367432e-01 4.683524966239929199e-01
2.498000000000000000e+03 2.572148895263671875e+01 -1.393598079681396484e+00 -3.483116626739501953e-01 -1.290934830904006958e-01 -1.432215422391891479e-01 4.227156043052673340e-01
2.499000000000000000e+03 9.131698608398437500e+00 5.838341712951660156e+00 2.667565131559967995e-04 -1.980617875233292580e-03 -5.141584551893174648e-04 -1.033573294989764690e-03
2.500000000000000000e+03 2.790939521789550781e+01 -1.558845520019531250e+00 -4.937869608402252197e-01 -7.181034237146377563e-02 -1.696791946887969971e-01 4.689399600028991699e-01
2.501000000000000000e+03 2.660893440246582031e+01 -7.443481087684631348e-01 -4.021218419075012207e-01 -1.246146634221076965e-01 -1.580209434032440186e-01 4.896121919155120850e-01
2.502000000000000000e+03 2.823268318176269531e+01 -2.369954138994216919e-01 -4.936987459659576416e-01 -9.032535552978515625e-02 -1.752072274684906006e-01 5.591302514076232910e-01
2.503000000000000000e+03 6.145875453948974609e+00 6.666332721710205078e+00 1.154714700533077121e-04 -1.019482660922221839e-04 4.056962552567711100e-06 4.308930074330419302e-04
2.504000000000000000e+03 2.873347473144531250e+01 -9.933700561523437500e-01 -5.393999218940734863e-01 -6.375487148761749268e-02 -1.809464395046234131e-01 5.215276479721069336e-01
2.505000000000000000e+03 2.860247611999511719e+01 -1.619305491447448730e+00 -5.393997430801391602e-01 -5.742111802101135254e-02 -1.790462583303451538e-01 4.785430729389190674e-01
2.506000000000000000e+03 3.211324310302734375e+01 -1.498220086097717285e+00 -7.730576395988464355e-01 -1.508588669821619987e-03 -2.323698550462722778e-01 5.253410935401916504e-01
2.507000000000000000e+03 3.064388465881347656e+01 -8.537678122520446777e-01 -6.483732461929321289e-01 -2.719691768288612366e-02 -2.026710510253906250e-01 5.574579834938049316e-01
2.508000000000000000e+03 5.555509948730468750e+01 -1.434537053108215332e+00 -8.403413742780685425e-02 1.148775696754455566e+00 3.194224536418914795e-01 -1.330344796180725098e+00
2.509000000000000000e+03 2.935803413391113281e+01 -1.083813786506652832e+00 -5.759525895118713379e-01 -5.115913227200508118e-02 -1.881335228681564331e-01 5.240964889526367188e-01
2.510000000000000000e+03 3.148019027709960938e+01 -8.299690485000610352e-02 -6.612932085990905762e-01 -1.567880995571613312e-02 -2.030915915966033936e-01 6.050834059715270996e-01
2.511000000000000000e+03 3.138263702392578125e+01 -1.516768455505371094e+00 -7.244935631752014160e-01 -1.082548219710588455e-02 -2.205957174301147461e-01 5.201589465141296387e-01
2.512000000000000000e+03 3.357738876342773438e+01 -1.462713718414306641e+00 -8.662523031234741211e-01 1.294136513024568558e-02 -2.559932768344879150e-01 5.296437144279479980e-01
2.513000000000000000e+03 3.217098236083984375e+01 -8.032941818237304688e-01 -7.362940311431884766e-01 -2.968174871057271957e-03 -2.217786759138107300e-01 5.680462121963500977e-01
2.514000000000000000e+03 4.460715103149414062e+01 -1.261580371856689453e+01 -1.019092440605163574e+00 9.208460897207260132e-02 -2.781023681163787842e-01 -2.554218471050262451e-01
2.515000000000000000e+03 4.315036392211914062e+01 -1.193468093872070312e+01 -1.219000935554504395e+00 5.192604288458824158e-02 -3.501224517822265625e-01 -3.180616796016693115e-01
2.516000000000000000e+03 4.380227661132812500e+01 -1.334762096405029297e+01 -8.628528714179992676e-01 1.111870631575584412e-01 -2.254997491836547852e-01 -2.754960954189300537e-01
2.517000000000000000e+03 4.678835678100585938e+01 -1.262966918945312500e+01 -9.212847352027893066e-01 1.678646504878997803e-01 -2.260260283946990967e-01 -1.372124254703521729e-01
2.518000000000000000e+03 3.434682083129882812e+01 -7.471687197685241699e-01 -8.543242216110229492e-01 2.089139446616172791e-02 -2.500298321247100830e-01 5.697596073150634766e-01
2.519000000000000000e+03 3.506823348999023438e+01 -7.019134759902954102e-01 -8.871238827705383301e-01 2.664329484105110168e-02 -2.581441700458526611e-01 5.683620572090148926e-01
2.520000000000000000e+03 4.093337249755859375e+01 -1.276761150360107422e+01 -1.031625628471374512e+00 3.551465272903442383e-02 -2.988332808017730713e-01 -3.760216534137725830e-01
2.521000000000000000e+03 4.975305938720703125e+01 -1.269967174530029297e+01 -6.704022884368896484e-01 3.400571346282958984e-01 -9.910354763269424438e-02 1.436344683170318604e-01
2.522000000000000000e+03 4.829667282104492188e+01 -1.192513084411621094e+01 -1.040558457374572754e+00 1.688942313194274902e-01 -2.614992856979370117e-01 -7.150327414274215698e-02
2.523000000000000000e+03 5.054590606689453125e+01 -1.263371372222900391e+01 -5.919310450553894043e-01 4.128037989139556885e-01 -5.373818427324295044e-02 2.513337433338165283e-01
2.524000000000000000e+03 4.903403091430664062e+01 -1.192762279510498047e+01 -9.823779463768005371e-01 2.036181539297103882e-01 -2.336279302835464478e-01 -8.151835761964321136e-03
2.525000000000000000e+03 3.946320724487304688e+01 -1.206169223785400391e+01 -1.156013011932373047e+00 9.097527712583541870e-03 -3.440746665000915527e-01 -3.941916823387145996e-01
2.526000000000000000e+03 4.533463668823242188e+01 -1.260688591003417969e+01 -9.988651871681213379e-01 1.112007275223731995e-01 -2.662993371486663818e-01 -2.243456393480300903e-01
2.527000000000000000e+03 5.133438491821289062e+01 -1.182066822052001953e+01 -7.510951757431030273e-01 3.776600062847137451e-01 -1.120305508375167847e-01 2.628914117813110352e-01
2.528000000000000000e+03 3.955120468139648438e+01 -1.341011524200439453e+01 -8.907891511917114258e-01 2.965810149908065796e-02 -2.583393156528472900e-01 -4.040589332580566406e-01
2.529000000000000000e+03 5.133143997192382812e+01 -1.255596160888671875e+01 -5.094280242919921875e-01 4.992798864841461182e-01 -3.044445533305406570e-03 3.654141128063201904e-01
2.530000000000000000e+03 4.750792694091796875e+01 -1.267723560333251953e+01 -8.669963479042053223e-01 1.957583576440811157e-01 -2.013714015483856201e-01 -7.594872266054153442e-02
2.531000000000000000e+03 3.507947921752929688e+01 3.705158829689025879e-03 -8.216680884361267090e-01 3.224771097302436829e-02 -2.368261218070983887e-01 6.001980900764465332e-01
2.532000000000000000e+03 5.211067199707031250e+01 -1.248826694488525391e+01 -4.141041636466979980e-01 6.102944016456604004e-01 5.885707959532737732e-02 5.107226371765136719e-01
2.533000000000000000e+03 3.568409347534179688e+01 -1.229864978790283203e+01 -1.016661286354064941e+00 -2.386388182640075684e-02 -3.121575713157653809e-01 -4.233992695808410645e-01
2.534000000000000000e+03 3.803301239013671875e+01 -1.289236450195312500e+01 -9.761454463005065918e-01 3.909217193722724915e-03 -2.916708588600158691e-01 -4.229185879230499268e-01
2.535000000000000000e+03 5.287580108642578125e+01 -1.243688964843750000e+01 -3.045969605445861816e-01 7.315607070922851562e-01 1.280891150236129761e-01 6.814257502555847168e-01
2.536000000000000000e+03 3.800367355346679688e+01 -1.241162538528442383e+00 -1.101846098899841309e+00 3.932607173919677734e-02 -3.187560141086578369e-01 5.120681524276733398e-01
2.537000000000000000e+03 3.492410278320312500e+01 -1.229969882965087891e+01 -9.951792359352111816e-01 -2.433672919869422913e-02 -3.058547973632812500e-01 -4.256941676139831543e-01
2.538000000000000000e+03 3.808821868896484375e+01 -1.365913105010986328e+01 -8.370589613914489746e-01 1.461858488619327545e-02 -2.467321157455444336e-01 -4.316089451313018799e-01
2.539000000000000000e+03 3.874884033203125000e+01 -1.211542010307312012e+00 -1.133442044258117676e+00 4.227669164538383484e-02 -3.273496031761169434e-01 5.033556222915649414e-01
2.540000000000000000e+03 5.360871124267578125e+01 -1.237792301177978516e+01 -1.914145648479461670e-01 8.692762851715087891e-01 2.033585160970687866e-01 8.617984652519226074e-01
2.541000000000000000e+03 3.653141403198242188e+01 -6.044106483459472656e-01 -9.469055533409118652e-01 3.890215978026390076e-02 -2.724010348320007324e-01 5.614786744117736816e-01
2.542000000000000000e+03 3.877650833129882812e+01 -4.574067592620849609e-01 -1.019595384597778320e+00 5.494022369384765625e-02 -2.893965542316436768e-01 5.320692062377929688e-01
2.543000000000000000e+03 3.802780914306640625e+01 -5.009822845458984375e-01 -9.977253079414367676e-01 5.220639333128929138e-02 -2.836556732654571533e-01 5.456687808036804199e-01
2.544000000000000000e+03 4.395000076293945312e+01 -1.146077752113342285e+00 -1.276936411857604980e+00 7.729369401931762695e-02 -3.598928153514862061e-01 3.758674860000610352e-01
2.545000000000000000e+03 4.620461654663085938e+01 -3.393248319625854492e-01 -1.032806158065795898e+00 1.634886413812637329e-01 -2.607952654361724854e-01 2.425924986600875854e-01
2.546000000000000000e+03 5.161516571044921875e+01 6.695789098739624023e-02 -4.591885209083557129e-01 6.028736829757690430e-01 4.310553893446922302e-02 -4.570289850234985352e-01
2.547000000000000000e+03 5.081694412231445312e+01 -4.888091981410980225e-01 -7.285380959510803223e-01 4.020120501518249512e-01 -9.795780479907989502e-02 -2.380382269620895386e-01
2.548000000000000000e+03 3.343636322021484375e+01 -1.304287338256835938e+01 -8.413021564483642578e-01 -2.561845444142818451e-02 -2.600761950016021729e-01 -4.546477496623992920e-01
2.549000000000000000e+03 4.097028350830078125e+01 -1.174338221549987793e+00 -1.217916369438171387e+00 5.191073194146156311e-02 -3.498016893863677979e-01 4.613493084907531738e-01
2.550000000000000000e+03 4.025448608398437500e+01 -4.386389255523681641e-01 -1.060680747032165527e+00 6.673907488584518433e-02 -2.981824874877929688e-01 5.020842552185058594e-01
2.551000000000000000e+03 4.247248077392578125e+01 -4.470288455486297607e-01 -1.101303577423095703e+00 7.868992537260055542e-02 -3.067840933799743652e-01 4.358040690422058105e-01
2.552000000000000000e+03 4.173586273193359375e+01 -4.450260698795318604e-01 -1.090929985046386719e+00 7.532432675361633301e-02 -3.046816885471343994e-01 4.565064013004302979e-01
2.553000000000000000e+03 5.006064987182617188e+01 -3.956208825111389160e-01 -7.871007323265075684e-01 3.471160531044006348e-01 -1.319953948259353638e-01 -1.336372792720794678e-01
2.554000000000000000e+03 4.321089172363281250e+01 2.627339065074920654e-01 -9.537217617034912109e-01 1.205027326941490173e-01 -2.499657124280929565e-01 4.069496989250183105e-01
2.555000000000000000e+03 4.545330810546875000e+01 -3.901531100273132324e-01 -1.069235086441040039e+00 1.419912278652191162e-01 -2.781731486320495605e-01 2.940253019332885742e-01
2.556000000000000000e+03 3.415909576416015625e+01 -1.303699302673339844e+01 -8.630464076995849609e-01 -2.435951121151447296e-02 -2.662217617034912109e-01 -4.507474005222320557e-01
2.557000000000000000e+03 3.649288558959960938e+01 -1.307162094116210938e+01 -9.178631901741027832e-01 -1.362367719411849976e-02 -2.794460654258728027e-01 -4.383044242858886719e-01
2.558000000000000000e+03 4.099306488037109375e+01 -4.438051283359527588e-01 -1.079590797424316406e+00 7.211710512638092041e-02 -3.022421002388000488e-01 4.804569184780120850e-01
2.559000000000000000e+03 4.772010803222656250e+01 -1.040904164314270020e+00 -1.177785873413085938e+00 1.520914882421493530e-01 -3.077083230018615723e-01 1.634737402200698853e-01
2.560000000000000000e+03 4.695917129516601562e+01 -2.933149635791778564e-01 -9.894782900810241699e-01 1.873673349618911743e-01 -2.406332939863204956e-01 1.853543967008590698e-01
2.561000000000000000e+03 4.469929885864257812e+01 -4.302461445331573486e-01 -1.093199014663696289e+00 1.240653693675994873e-01 -2.907401025295257568e-01 3.394545316696166992e-01
2.562000000000000000e+03 4.176809692382812500e+01 1.073234677314758301e+00 -8.173714876174926758e-01 1.330520808696746826e-01 -2.052958160638809204e-01 4.643129110336303711e-01
2.563000000000000000e+03 4.850127792358398438e+01 -2.777187824249267578e-01 -8.910120725631713867e-01 2.539118826389312744e-01 -1.911300569772720337e-01 4.452836886048316956e-02
2.564000000000000000e+03 4.772377014160156250e+01 -2.684417963027954102e-01 -9.415456056594848633e-01 2.184010744094848633e-01 -2.169433683156967163e-01 1.192465052008628845e-01
2.565000000000000000e+03 5.435240554809570312e+01 -1.305160617828369141e+01 5.191721394658088684e-02 1.295394420623779297e+00 4.041934907436370850e-01 1.186128616333007812e+00
2.566000000000000000e+03 5.498013305664062500e+01 -1.150570869445800781e+01 -1.298902630805969238e-01 9.923664927482604980e-01 2.587428689002990723e-01 1.114876627922058105e+00
2.567000000000000000e+03 3.192563438415527344e+01 -1.236239433288574219e+01 -8.731911182403564453e-01 -3.180017322301864624e-02 -2.714973986148834229e-01 -4.303156137466430664e-01
2.568000000000000000e+03 3.044767379760742188e+01 -1.320591068267822266e+01 -7.319936752319335938e-01 -2.546228095889091492e-02 -2.272367924451828003e-01 -4.609382152557373047e-01
2.569000000000000000e+03 3.119825744628906250e+01 -1.316198444366455078e+01 -7.608544826507568359e-01 -2.758597023785114288e-02 -2.365321367979049683e-01 -4.588536322116851807e-01
2.570000000000000000e+03 5.154120254516601562e+01 -5.874568819999694824e-01 -6.658203601837158203e-01 4.608545601367950439e-01 -6.148974969983100891e-02 -3.492873609066009521e-01
2.571000000000000000e+03 3.270392990112304688e+01 -1.310303783416748047e+01 -8.143866658210754395e-01 -3.220565617084503174e-02 -2.539776861667633057e-01 -4.566019475460052490e-01
2.572000000000000000e+03 2.969486236572265625e+01 -1.324744319915771484e+01 -7.083866000175476074e-01 -2.695728652179241180e-02 -2.206031680107116699e-01 -4.615985453128814697e-01
2.573000000000000000e+03 5.291123962402343750e+01 -6.553789377212524414e-01 -4.405481815338134766e-01 6.853920817375183105e-01 7.345317304134368896e-02 -6.519827842712402344e-01
2.574000000000000000e+03 2.737446784973144531e+01 -1.340192317962646484e+01 -6.248251795768737793e-01 -1.956257037818431854e-02 -1.933163255453109741e-01 -4.563469588756561279e-01
2.575000000000000000e+03 2.892391204833984375e+01 -1.324886417388916016e+01 -6.794376373291015625e-01 -2.209467440843582153e-02 -2.104596942663192749e-01 -4.622148275375366211e-01
2.576000000000000000e+03 5.423738098144531250e+01 -1.190798759460449219e+00 -3.433310687541961670e-01 8.110416531562805176e-01 1.403131783008575439e-01 -9.183152914047241211e-01
2.577000000000000000e+03 2.566298103332519531e+01 -1.244442653656005859e+01 -6.183844804763793945e-01 -5.241926759481430054e-03 -1.870879232883453369e-01 -4.215815663337707520e-01
2.578000000000000000e+03 2.345812034606933594e+01 -1.248383045196533203e+01 -5.438082814216613770e-01 -1.458215410821139812e-03 -1.635799407958984375e-01 -4.046739935874938965e-01
2.579000000000000000e+03 5.498968124389648438e+01 -1.218780899047851562e+01 2.335817739367485046e-02 1.248712062835693359e+00 3.816210627555847168e-01 1.262240409851074219e+00
2.580000000000000000e+03 2.321319007873535156e+01 -3.829845786094665527e-01 -1.958704590797424316e-01 -2.437508106231689453e-01 -1.318863779306411743e-01 3.761534690856933594e-01
2.581000000000000000e+03 5.350951766967773438e+01 -6.855487227439880371e-01 -3.389142155647277832e-01 8.151693940162658691e-01 1.428765505552291870e-01 -8.042721152305603027e-01
2.582000000000000000e+03 2.525679397583007812e+01 -1.306894683837890625e+01 -5.788779258728027344e-01 -8.461914025247097015e-03 -1.762019544839859009e-01 -4.382486343383789062e-01
2.583000000000000000e+03 5.545716476440429688e+01 -7.370554208755493164e-01 1.618119515478610992e-02 1.387241721153259277e+00 4.210268557071685791e-01 -1.447817683219909668e+00
2.584000000000000000e+03 5.471117401123046875e+01 -8.593594431877136230e-01 -1.619320213794708252e-01 1.036629557609558105e+00 2.624092698097229004e-01 -1.110344290733337402e+00
2.585000000000000000e+03 2.189065742492675781e+01 -1.240102767944335938e+01 -4.972716867923736572e-01 -1.148843951523303986e-02 -1.526280343532562256e-01 -3.817449510097503662e-01
2.586000000000000000e+03 2.655647659301757812e+01 -1.347184276580810547e+01 -6.005001068115234375e-01 -1.626620441675186157e-02 -1.850298792123794556e-01 -4.546061158180236816e-01
2.587000000000000000e+03 2.157943534851074219e+01 -1.354305744171142578e+01 -4.817909300327301025e-01 -3.058864362537860870e-02 -1.537138670682907104e-01 -4.074736535549163818e-01
2.588000000000000000e+03 7.095844745635986328e+00 7.002411365509033203e+00 7.189917960204184055e-04 7.327920175157487392e-04 4.355351557023823261e-04 -2.094726660288870335e-04
2.589000000000000000e+03 5.564268112182617188e+01 -1.208979225158691406e+01 1.384597569704055786e-01 1.503791213035583496e+00 4.926752746105194092e-01 1.508884668350219727e+00
2.590000000000000000e+03 5.628071594238281250e+01 -1.139529991149902344e+01 1.669770032167434692e-01 1.502116441726684570e+00 5.007280111312866211e-01 1.639386296272277832e+00
2.591000000000000000e+03 6.634426116943359375e+00 9.331121444702148438e+00 1.247273758053779602e-03 3.524210769683122635e-04 4.799084272235631943e-04 1.854985719546675682e-03
2.592000000000000000e+03 5.685651779174804688e+01 -1.199483394622802734e+01 3.505609035491943359e-01 2.189924478530883789e+00 7.621455788612365723e-01 2.061507463455200195e+00
2.593000000000000000e+03 8.224387168884277344e+00 -5.061335086822509766e+00 3.070223028771579266e-04 -4.391641414258629084e-04 -3.964255301980301738e-05 2.582185843493789434e-04
2.594000000000000000e+03 2.380104446411132812e+01 4.701183363795280457e-02 -2.279896587133407593e-01 -2.482285201549530029e-01 -1.428654491901397705e-01 4.258051216602325439e-01
2.595000000000000000e+03 2.353505706787109375e+01 5.429318547248840332e-01 -2.219911068677902222e-01 -2.845627963542938232e-01 -1.519661694765090942e-01 4.487403333187103271e-01
2.596000000000000000e+03 7.268305969238281250e+01 1.257570171356201172e+01 -3.439148068428039551e-01 7.819690704345703125e+00 2.242732763290405273e+00 2.287997603416442871e-01
2.597000000000000000e+03 7.352235412597656250e+01 -2.169536972045898438e+01 -3.545542359352111816e-01 8.014508247375488281e+00 2.297986268997192383e+00 -5.880582928657531738e-01
2.598000000000000000e+03 7.162558746337890625e+01 -2.473991584777832031e+01 -4.087943136692047119e-01 7.831901550292968750e+00 2.226932048797607422e+00 -3.010693192481994629e-01
2.599000000000000000e+03 2.554922485351562500e+01 9.132665634155273438e+00 -4.320918619632720947e-01 -3.540467917919158936e-01 -2.358416020870208740e-01 7.152863740921020508e-01
2.600000000000000000e+03 2.055631828308105469e+01 -1.735575294494628906e+01 -3.568887412548065186e-01 -1.138169094920158386e-01 -1.412116885185241699e-01 -4.128970503807067871e-01
2.601000000000000000e+03 2.143243408203125000e+01 -1.659312820434570312e+01 -3.932997584342956543e-01 -8.146563172340393066e-02 -1.424296200275421143e-01 -4.303164482116699219e-01
2.602000000000000000e+03 7.344407653808593750e+01 5.666831016540527344e+00 -3.706791996955871582e-01 8.011440277099609375e+00 2.292228221893310547e+00 8.388178944587707520e-01
2.603000000000000000e+03 7.186992645263671875e+01 8.186927795410156250e+00 -5.323866605758666992e-01 8.047555923461914062e+00 2.254550933837890625e+00 5.326536297798156738e-01
2.604000000000000000e+03 2.301503372192382812e+01 1.805874347686767578e+00 -2.067618370056152344e-01 -3.840690851211547852e-01 -1.772492825984954834e-01 4.876819849014282227e-01
2.605000000000000000e+03 5.778374195098876953e+00 5.555827617645263672e+00 2.546583418734371662e-04 -3.768899478018283844e-04 -3.666948396130464971e-05 9.306584979640319943e-05
2.606000000000000000e+03 1.963904571533203125e+01 -1.823445320129394531e+01 -3.172465264797210693e-01 -1.514303535223007202e-01 -1.406030654907226562e-01 -3.933198153972625732e-01
2.607000000000000000e+03 1.969439315795898438e+01 -2.044246292114257812e+01 -2.092229574918746948e-01 -1.900845170021057129e-01 -1.197922453284263611e-01 -3.814330697059631348e-01
2.608000000000000000e+03 7.249269866943359375e+01 7.386393547058105469e-01 4.613007605075836182e-02 8.211304664611816406e+00 2.477230310440063477e+00 1.209629297256469727e+00
2.609000000000000000e+03 6.874563694000244141e+00 2.538027381896972656e+01 -6.020613387227058411e-02 -4.800264537334442139e-01 -1.620697677135467529e-01 4.223929047584533691e-01
2.610000000000000000e+03 7.295100402832031250e+01 -1.421441173553466797e+01 -4.908257350325584412e-02 8.103638648986816406e+00 2.416366815567016602e+00 -1.192986965179443359e+00
2.611000000000000000e+03 7.293815612792968750e+01 -1.654873847961425781e+01 -3.103283643722534180e-01 8.145264625549316406e+00 2.350481033325195312e+00 -1.041931748390197754e+00
2.612000000000000000e+03 7.127838897705078125e+01 -2.376200485229492188e+01 -4.613924920558929443e-01 7.864646911621093750e+00 2.220976352691650391e+00 -3.312983810901641846e-01
2.613000000000000000e+03 7.203377532958984375e+01 -2.574027442932128906e+01 -3.401248753070831299e-01 7.825531959533691406e+00 2.245622158050537109e+00 -2.637639343738555908e-01
2.614000000000000000e+03 7.287841033935546875e+01 2.348829841613769531e+01 -4.853435233235359192e-02 7.505564212799072266e+00 2.237108945846557617e+00 -1.176629364490509033e-01
2.615000000000000000e+03 7.412393188476562500e+01 2.345045280456542969e+01 -3.823398426175117493e-02 7.724420070648193359e+00 2.305855751037597656e+00 -9.145867824554443359e-02
2.616000000000000000e+03 7.293099975585937500e+01 -7.836219787597656250e+00 1.167502880096435547e+00 7.629300594329833984e+00 2.639040946960449219e+00 -4.536918699741363525e-01
2.617000000000000000e+03 7.116979217529296875e+01 -1.012490272521972656e+01 1.061148285865783691e+00 8.530521392822265625e+00 2.877500772476196289e+00 -1.153189897537231445e+00
2.618000000000000000e+03 7.286733245849609375e+01 -1.770732688903808594e+01 -3.833679854869842529e-01 8.144220352172851562e+00 2.328255653381347656e+00 -9.362745881080627441e-01
2.619000000000000000e+03 7.364648437500000000e+01 -1.147680568695068359e+01 4.325065612792968750e-01 7.665441989898681641e+00 2.429384469985961914e+00 -1.074938416481018066e+00
2.620000000000000000e+03 7.134521484375000000e+01 1.946879577636718750e+01 -1.558033972978591919e-01 7.379089355468750000e+00 2.166985750198364258e+00 -9.211213886737823486e-02
2.621000000000000000e+03 7.052233886718750000e+01 1.788074874877929688e+01 -2.243250161409378052e-01 7.313697814941406250e+00 2.126811981201171875e+00 -1.013046503067016602e-01
2.622000000000000000e+03 7.247985839843750000e+01 -2.005097389221191406e+01 -4.596240818500518799e-01 8.099869728088378906e+00 2.292073726654052734e+00 -6.946510672569274902e-01
2.623000000000000000e+03 7.280990600585937500e+01 -4.556074142456054688e+00 1.144495368003845215e+00 7.696468353271484375e+00 2.652289152145385742e+00 5.568162798881530762e-01
2.624000000000000000e+03 7.231883239746093750e+01 5.581586360931396484e+00 -4.790673553943634033e-01 8.172838211059570312e+00 2.308131456375122070e+00 8.163739442825317383e-01
2.625000000000000000e+03 7.275511169433593750e+01 -1.934467673301696777e+00 6.194751858711242676e-01 7.921648025512695312e+00 2.562336921691894531e+00 1.086268663406372070e+00
2.626000000000000000e+03 2.364943504333496094e+01 2.323263645172119141e+00 -2.545380294322967529e-01 -3.673740029335021973e-01 -1.865736097097396851e-01 5.529738068580627441e-01
2.627000000000000000e+03 2.514822196960449219e+01 4.075609683990478516e+00 -3.441981077194213867e-01 -3.306893706321716309e-01 -2.024662494659423828e-01 6.743080615997314453e-01
2.628000000000000000e+03 7.213096618652343750e+01 6.856154441833496094e+00 -5.133954286575317383e-01 8.117766380310058594e+00 2.281311273574829102e+00 6.757111549377441406e-01
2.629000000000000000e+03 7.245210266113281250e+01 1.403883075714111328e+01 -3.037540018558502197e-01 7.721450328826904297e+00 2.225308895111083984e+00 1.243898868560791016e-01
2.630000000000000000e+03 7.142755126953125000e+01 1.248377418518066406e+01 -4.102428555488586426e-01 7.733076095581054688e+00 2.196849822998046875e+00 1.713143289089202881e-01
2.631000000000000000e+03 8.029868125915527344e+00 2.991007041931152344e+01 1.051451191306114197e-01 -6.642910242080688477e-01 -1.677437722682952881e-01 3.796675503253936768e-01
2.632000000000000000e+03 1.100024890899658203e+01 2.946512603759765625e+01 1.639991104602813721e-01 -7.421365976333618164e-01 -1.734412461519241333e-01 4.154626131057739258e-01
2.633000000000000000e+03 7.265950012207031250e+01 2.088061523437500000e+01 -9.108141064643859863e-02 7.541334152221679688e+00 2.235075712203979492e+00 -8.485870063304901123e-02
2.634000000000000000e+03 7.116193389892578125e+01 2.084382247924804688e+01 -1.204572543501853943e-01 7.309563159942626953e+00 2.156731843948364258e+00 -1.330959051847457886e-01
2.635000000000000000e+03 7.240101623535156250e+01 -2.853266334533691406e+01 -2.194126546382904053e-01 7.765368938446044922e+00 2.263787031173706055e+00 -1.429577916860580444e-01
2.636000000000000000e+03 6.819041442871093750e+01 -3.110806083679199219e+01 -2.080682665109634399e-01 6.956460952758789062e+00 2.024517774581909180e+00 6.136636063456535339e-02
2.637000000000000000e+03 2.620198822021484375e+01 5.778397083282470703e+00 -3.962213993072509766e-01 -2.818082571029663086e-01 -2.034088969230651855e-01 7.322129607200622559e-01
2.638000000000000000e+03 2.421826934814453125e+01 1.513634967803955078e+01 -3.946936130523681641e-01 -4.464318454265594482e-01 -2.523376345634460449e-01 5.099730491638183594e-01
2.639000000000000000e+03 1.090307617187500000e+01 2.345112419128417969e+01 -1.324559897184371948e-01 -7.324633598327636719e-01 -2.594757974147796631e-01 5.985131859779357910e-01
2.640000000000000000e+03 7.099597930908203125e+01 -2.639332962036132812e+01 -3.607715368270874023e-01 7.667067050933837891e+00 2.191888570785522461e+00 -1.833840459585189819e-01
2.641000000000000000e+03 7.343206024169921875e+01 -2.583780860900878906e+01 -2.501493990421295166e-01 7.948624610900878906e+00 2.309542655944824219e+00 -2.952460050582885742e-01
2.642000000000000000e+03 1.764547729492187500e+01 2.221215057373046875e+01 -7.706230133771896362e-02 -9.401942491531372070e-01 -3.051769733428955078e-01 3.951354920864105225e-01
2.643000000000000000e+03 1.585902214050292969e+01 -2.528582763671875000e+01 3.905771672725677490e-02 -3.496505022048950195e-01 -9.317784011363983154e-02 -3.249510526657104492e-01
2.644000000000000000e+03 7.100428009033203125e+01 6.648523330688476562e+00 -6.276350021362304688e-01 8.224594116210937500e+00 2.279087543487548828e+00 6.044613122940063477e-01
2.645000000000000000e+03 7.329274749755859375e+01 6.992583274841308594e+00 -4.033616483211517334e-01 8.010360717773437500e+00 2.282099723815917969e+00 7.118625044822692871e-01
2.646000000000000000e+03 1.097173690795898438e+01 -2.568836784362792969e+01 2.842352911829948425e-02 -3.982909619808197021e-01 -1.109602227807044983e-01 -3.116202056407928467e-01
2.647000000000000000e+03 6.688936710357666016e+00 -2.752333450317382812e+01 2.107347175478935242e-02 -3.599939644336700439e-01 -1.016761511564254761e-01 -2.537597119808197021e-01
2.648000000000000000e+03 7.934730052947998047e+00 2.515402412414550781e+01 -6.093039736151695251e-02 -5.337023138999938965e-01 -1.783898174762725830e-01 4.578420817852020264e-01
2.649000000000000000e+03 7.108307647705078125e+01 1.370348358154296875e+01 -3.784072995185852051e-01 7.616937637329101562e+00 2.171559095382690430e+00 8.353539556264877319e-02
2.650000000000000000e+03 1.709175300598144531e+01 -2.136677551269531250e+01 -1.676767468452453613e-01 -2.807498872280120850e-01 -1.345279961824417114e-01 -3.366211652755737305e-01
2.651000000000000000e+03 1.727690124511718750e+01 -1.982641410827636719e+01 -2.468894273042678833e-01 -2.476710081100463867e-01 -1.483681350946426392e-01 -3.527006208896636963e-01
2.652000000000000000e+03 6.953556823730468750e+01 2.074091339111328125e+01 -1.421651840209960938e-01 6.997100353240966797e+00 2.056480407714843750e+00 -1.922964453697204590e-01
2.653000000000000000e+03 7.302262115478515625e+01 -6.740608215332031250e+00 1.228724956512451172e+00 7.544712066650390625e+00 2.632030963897705078e+00 -1.058180406689643860e-01
2.654000000000000000e+03 6.962268829345703125e+01 -3.328409957885742188e+01 -1.238826662302017212e-01 7.190771102905273438e+00 2.120066404342651367e+00 5.106319114565849304e-02
2.655000000000000000e+03 7.666699409484863281e+00 2.256779861450195312e+01 -2.326368987560272217e-01 -3.743415474891662598e-01 -1.820935308933258057e-01 4.402228891849517822e-01
2.656000000000000000e+03 2.062823867797851562e+01 -1.924892807006835938e+01 -2.670811712741851807e-01 -1.466275751590728760e-01 -1.241126284003257751e-01 -4.043937921524047852e-01
2.657000000000000000e+03 1.003835201263427734e+01 -2.389015197753906250e+01 -3.536772727966308594e-02 -3.788656592369079590e-01 -1.242700144648551941e-01 -3.159374296665191650e-01
2.658000000000000000e+03 8.271170616149902344e+00 3.572217941284179688e+01 1.764381080865859985e-01 -7.316392064094543457e-01 -1.665603220462799072e-01 2.188303023576736450e-01
2.659000000000000000e+03 7.016779327392578125e+01 -2.849669456481933594e+01 -2.842566072940826416e-01 7.431010723114013672e+00 2.144026279449462891e+00 -6.532539427280426025e-02
2.660000000000000000e+03 6.995363616943359375e+01 2.795480537414550781e+01 1.506887935101985931e-02 6.881239891052246094e+00 2.068892717361450195e+00 -1.937408000230789185e-01
2.661000000000000000e+03 2.466351699829101562e+01 -1.541515636444091797e+01 -4.596370756626129150e-01 -3.248357027769088745e-02 -1.476361900568008423e-01 -4.739618599414825439e-01
2.662000000000000000e+03 7.121908569335937500e+01 -2.981504821777343750e+01 -2.152571529150009155e-01 7.543515205383300781e+00 2.198477506637573242e+00 -6.921856105327606201e-02
2.663000000000000000e+03 7.187387943267822266e+00 2.669707679748535156e+01 -1.363832736387848854e-03 -5.533924698829650879e-01 -1.664268970489501953e-01 4.184889793395996094e-01
2.664000000000000000e+03 8.244033813476562500e+00 2.621440124511718750e+01 -5.003139842301607132e-03 -5.899773240089416504e-01 -1.784941256046295166e-01 4.618401825428009033e-01
2.665000000000000000e+03 2.306261062622070312e+01 1.575171470642089844e+01 -4.231929779052734375e-01 -5.729788541793823242e-01 -2.988515496253967285e-01 4.854411780834197998e-01
2.666000000000000000e+03 1.018681621551513672e+01 -3.198415756225585938e+01 1.174747049808502197e-01 -4.213506281375885010e-01 -9.116277843713760376e-02 -2.331410199403762817e-01
2.667000000000000000e+03 6.196612548828125000e+01 -3.583129405975341797e+00 -1.396921277046203613e-02 1.276183032989501953e+01 3.824358463287353516e+00 -4.567284584045410156e+00
2.668000000000000000e+03 6.124031448364257812e+01 -3.650686025619506836e+00 8.215978145599365234e-01 9.292295455932617188e+00 3.034168004989624023e+00 -5.340843200683593750e+00
2.669000000000000000e+03 6.454548645019531250e+01 -7.686167716979980469e+00 5.214328289031982422e+00 1.464267826080322266e+01 5.957101821899414062e+00 -2.093256473541259766e+00
2.670000000000000000e+03 6.290298843383789062e+01 -9.653169631958007812e+00 -4.641858935356140137e-01 1.426259613037109375e+01 4.139523029327392578e+00 2.109128475189208984e+00
2.671000000000000000e+03 6.044773864746093750e+01 -9.158126831054687500e+00 1.405998349189758301e+00 5.912922859191894531e+00 2.195676326751708984e+00 4.754257678985595703e+00
2.672000000000000000e+03 6.322881698608398438e+01 -3.728346586227416992e+00 6.676466763019561768e-02 1.598558712005615234e+01 4.815705299377441406e+00 -9.723696112632751465e-01
2.673000000000000000e+03 6.487236022949218750e+01 -5.245481967926025391e+00 5.493807792663574219e+00 1.368721675872802734e+01 5.754307270050048828e+00 1.802689552307128906e+00
2.674000000000000000e+03 6.466851043701171875e+01 -7.933780670166015625e+00 4.442544937133789062e+00 1.444186592102050781e+01 5.665323257446289062e+00 -2.034818887710571289e+00
2.675000000000000000e+03 6.015501785278320312e+01 -3.636910676956176758e+00 1.390667080879211426e+00 4.936543941497802734e+00 1.898163318634033203e+00 -4.458013534545898438e+00
2.676000000000000000e+03 6.275408172607421875e+01 -3.189398765563964844e+00 -5.315865278244018555e-01 1.417395114898681641e+01 4.092709541320800781e+00 -2.503834724426269531e+00
2.677000000000000000e+03 6.429680633544921875e+01 -7.829264163970947266e+00 4.629345893859863281e+00 1.542417049407958984e+01 6.016055107116699219e+00 -2.114742994308471680e+00
2.678000000000000000e+03 6.061791992187500000e+01 -9.560883522033691406e+00 1.006441235542297363e+00 6.877896785736083984e+00 2.365301370620727539e+00 4.758316040039062500e+00
2.679000000000000000e+03 5.872245407104492188e+01 -1.012827873229980469e+01 7.769080996513366699e-01 2.860414981842041016e+00 1.091196894645690918e+00 2.938066482543945312e+00
2.680000000000000000e+03 5.942133331298828125e+01 -1.080360412597656250e+01 6.348306536674499512e-01 4.572203159332275391e+00 1.562110185623168945e+00 3.531664848327636719e+00
2.681000000000000000e+03 6.037725830078125000e+01 -3.420840501785278320e+00 1.192908167839050293e+00 5.467077255249023438e+00 1.997995615005493164e+00 -4.598181247711181641e+00
2.682000000000000000e+03 5.840106964111328125e+01 -2.256116628646850586e+00 5.940065383911132812e-01 2.725523471832275391e+00 9.958589673042297363e-01 -2.780976533889770508e+00
2.683000000000000000e+03 5.784587860107421875e+01 -2.028641462326049805e+00 4.296672940254211426e-01 2.278662919998168945e+00 8.124991059303283691e-01 -2.432710409164428711e+00
2.684000000000000000e+03 2.467409896850585938e+01 1.827224135398864746e+00 -2.983844280242919922e-01 -2.878521084785461426e-01 -1.758709549903869629e-01 5.666424036026000977e-01
2.685000000000000000e+03 2.530043983459472656e+01 1.008981391787528992e-01 -3.216392993927001953e-01 -1.972934305667877197e-01 -1.556798219680786133e-01 4.996745288372039795e-01
2.686000000000000000e+03 5.732513427734375000e+01 -1.288455367088317871e+00 3.437972962856292725e-01 2.276304721832275391e+00 7.860305905342102051e-01 -2.242614746093750000e+00
2.687000000000000000e+03 2.805100059509277344e+01 -8.985825777053833008e-01 -4.927797317504882812e-01 -8.260868489742279053e-02 -1.726165264844894409e-01 5.159569978713989258e-01
2.688000000000000000e+03 2.676434898376464844e+01 -1.949189603328704834e-02 -4.060520827770233154e-01 -1.403775960206985474e-01 -1.639289110898971558e-01 5.364239215850830078e-01
2.689000000000000000e+03 2.602079200744628906e+01 3.570769727230072021e-02 -3.627657592296600342e-01 -1.674274504184722900e-01 -1.590579599142074585e-01 5.183917880058288574e-01
2.690000000000000000e+03 5.793466949462890625e+01 -1.140489292144775391e+01 5.223914980888366699e-01 2.812371015548706055e+00 1.000428795814514160e+00 2.582905530929565430e+00
2.691000000000000000e+03 5.748362731933593750e+01 -1.061230278015136719e+01 4.258548617362976074e-01 1.848312139511108398e+00 6.822500824928283691e-01 2.126549482345581055e+00
2.692000000000000000e+03 5.641983413696289062e+01 3.526638448238372803e-01 2.202590107917785645e-01 2.373089790344238281e+00 7.780046463012695312e-01 -1.979488849639892578e+00
2.693000000000000000e+03 5.588478469848632812e+01 -1.078099012374877930e+00 3.872253745794296265e-02 1.420623302459716797e+00 4.378037452697753906e-01 -1.537126779556274414e+00
2.694000000000000000e+03 2.750680732727050781e+01 -1.147207096219062805e-01 -4.491012394428253174e-01 -1.149072572588920593e-01 -1.692025512456893921e-01 5.511060953140258789e-01
2.695000000000000000e+03 3.067864799499511719e+01 -1.422679275274276733e-01 -6.187086105346679688e-01 -3.502767533063888550e-02 -1.961208879947662354e-01 5.948433279991149902e-01
2.696000000000000000e+03 3.142753219604492188e+01 -8.149456977844238281e-01 -6.954559683799743652e-01 -1.370960474014282227e-02 -2.127496600151062012e-01 5.651244521141052246e-01
2.697000000000000000e+03 3.042456817626953125e+01 1.310213446617126465e+00 -5.563732385635375977e-01 -4.818466305732727051e-02 -1.813673675060272217e-01 6.584632396697998047e-01
2.698000000000000000e+03 2.893225669860839844e+01 -3.798734247684478760e-01 -5.354760289192199707e-01 -6.926175206899642944e-02 -1.814213246107101440e-01 5.641217827796936035e-01
2.699000000000000000e+03 3.224059295654296875e+01 -7.986424863338470459e-02 -6.967145800590515137e-01 -3.777342382818460464e-03 -2.101475894451141357e-01 6.076174974441528320e-01
2.700000000000000000e+03 4.456983566284179688e+01 -1.333345508575439453e+01 -8.482608795166015625e-01 1.284226477146148682e-01 -2.159514725208282471e-01 -2.340925782918930054e-01
2.701000000000000000e+03 3.302769470214843750e+01 4.694085419178009033e-01 -7.020655274391174316e-01 8.451205678284168243e-03 -2.080843001604080200e-01 6.280601024627685547e-01
2.702000000000000000e+03 3.362696456909179688e+01 -7.849124073982238770e-01 -8.180162906646728516e-01 1.430154684931039810e-02 -2.411144226789474487e-01 5.704606771469116211e-01
2.703000000000000000e+03 4.167387390136718750e+01 -1.274755001068115234e+01 -1.035807967185974121e+00 4.100212454795837402e-02 -2.984417676925659180e-01 -3.564218282699584961e-01
2.704000000000000000e+03 4.309363555908203125e+01 -1.328562831878662109e+01 -8.878916501998901367e-01 9.878268092870712280e-02 -2.367326915264129639e-01 -3.070996105670928955e-01
2.705000000000000000e+03 4.606065368652343750e+01 -1.260657691955566406e+01 -9.676281809806823730e-01 1.329331248998641968e-01 -2.504085004329681396e-01 -1.835641562938690186e-01
2.706000000000000000e+03 3.366492080688476562e+01 -1.149515733122825623e-01 -7.704370617866516113e-01 1.613613404333591461e-02 -2.262902706861495972e-01 6.031238436698913574e-01
2.707000000000000000e+03 4.245325851440429688e+01 -1.331912517547607422e+01 -8.958185911178588867e-01 7.949557155370712280e-02 -2.448969036340713501e-01 -3.273942172527313232e-01
2.708000000000000000e+03 4.020779037475585938e+01 -1.273443889617919922e+01 -1.022700548171997070e+00 3.168184682726860046e-02 -2.973056137561798096e-01 -3.909748196601867676e-01
2.709000000000000000e+03 4.016333007812500000e+01 -1.339517021179199219e+01 -8.933975696563720703e-01 4.092993587255477905e-02 -2.557402849197387695e-01 -3.943084776401519775e-01
2.710000000000000000e+03 4.972014999389648438e+01 -1.353405189514160156e+01 -4.415567815303802490e-01 4.604722559452056885e-01 5.674644839018583298e-03 2.309052646160125732e-01
2.711000000000000000e+03 5.055046463012695312e+01 -1.341565799713134766e+01 -3.821975290775299072e-01 5.330297946929931641e-01 4.524967819452285767e-02 3.458678722381591797e-01
2.712000000000000000e+03 4.241418457031250000e+01 -1.266388893127441406e+01 -1.038352012634277344e+00 6.376630067825317383e-02 -2.923757135868072510e-01 -3.390232026576995850e-01
2.713000000000000000e+03 5.134460830688476562e+01 -1.328596591949462891e+01 -3.174235820770263672e-01 6.355699896812438965e-01 9.544391930103302002e-02 4.683746397495269775e-01
2.714000000000000000e+03 4.087218856811523438e+01 -1.357920360565185547e+01 -8.551654815673828125e-01 5.642069503664970398e-02 -2.396234273910522461e-01 -3.756850957870483398e-01
2.715000000000000000e+03 3.949119949340820312e+01 -1.275588226318359375e+01 -1.013194322586059570e+00 1.933549344539642334e-02 -2.981576323509216309e-01 -4.031654298305511475e-01
2.716000000000000000e+03 4.668914794921875000e+01 -1.336708641052246094e+01 -7.312679290771484375e-01 2.137682288885116577e-01 -1.552499085664749146e-01 -9.469076246023178101e-02
2.717000000000000000e+03 4.529263687133789062e+01 -1.332437515258789062e+01 -8.203181028366088867e-01 1.425749659538269043e-01 -2.033229470252990723e-01 -1.960993856191635132e-01
2.718000000000000000e+03 4.599703598022460938e+01 -1.331688117980957031e+01 -7.880460619926452637e-01 1.796397864818572998e-01 -1.825218796730041504e-01 -1.543046832084655762e-01
2.719000000000000000e+03 4.453157806396484375e+01 -1.406872844696044922e+01 -6.856482625007629395e-01 1.723378300666809082e-01 -1.539931297302246094e-01 -2.093345820903778076e-01
2.720000000000000000e+03 3.653168106079101562e+01 1.183635070919990540e-01 -8.623722791671752930e-01 4.671703279018402100e-02 -2.446965724229812622e-01 5.908374786376953125e-01
2.721000000000000000e+03 4.889402008056640625e+01 -1.361147975921630859e+01 -5.118821859359741211e-01 3.688817918300628662e-01 -4.290011525154113770e-02 1.247982829809188843e-01
2.722000000000000000e+03 4.897341918945312500e+01 -1.273609828948974609e+01 -7.285043001174926758e-01 2.795714437961578369e-01 -1.346798539161682129e-01 5.707690492272377014e-02
2.723000000000000000e+03 3.659163665771484375e+01 -1.393608951568603516e+01 -7.816512584686279297e-01 -2.181928372010588646e-03 -2.351499646902084351e-01 -4.519092440605163574e-01
2.724000000000000000e+03 5.211257553100585938e+01 -1.320439529418945312e+01 -2.220703661441802979e-01 7.632626295089721680e-01 1.623576879501342773e-01 6.194475293159484863e-01
2.725000000000000000e+03 4.811013412475585938e+01 -1.358846473693847656e+01 -5.756846070289611816e-01 3.030096888542175293e-01 -8.180247247219085693e-02 4.374197125434875488e-02
2.726000000000000000e+03 3.578498077392578125e+01 7.953388690948486328e-01 -7.708905339241027832e-01 4.853272810578346252e-02 -2.167073488235473633e-01 6.201307773590087891e-01
2.727000000000000000e+03 3.568844223022460938e+01 -1.312104701995849609e+01 -8.974056839942932129e-01 -1.952518895268440247e-02 -2.750792801380157471e-01 -4.473202824592590332e-01
2.728000000000000000e+03 3.835823822021484375e+01 -1.496218299865722656e+01 -6.271497607231140137e-01 3.912368416786193848e-02 -1.764078140258789062e-01 -4.303582310676574707e-01
2.729000000000000000e+03 5.287985992431640625e+01 -1.319011497497558594e+01 -1.161239892244338989e-01 9.257056117057800293e-01 2.428744882345199585e-01 8.001348972320556641e-01
2.730000000000000000e+03 3.490139007568359375e+01 -1.308959674835205078e+01 -8.745366334915161133e-01 -2.103902585804462433e-02 -2.686727046966552734e-01 -4.517559409141540527e-01
2.731000000000000000e+03 5.363015747070312500e+01 -1.316207695007324219e+01 -2.087998948991298676e-02 1.097963094711303711e+00 3.231249451637268066e-01 9.955090284347534180e-01
2.732000000000000000e+03 3.951927947998046875e+01 -4.367121160030364990e-01 -1.038357496261596680e+00 5.985730886459350586e-02 -2.935500442981719971e-01 5.190435647964477539e-01
2.733000000000000000e+03 3.955449295043945312e+01 3.678031265735626221e-01 -9.160065650939941406e-01 7.655091583728790283e-02 -2.518366873264312744e-01 5.367461442947387695e-01
2.734000000000000000e+03 4.175708007812500000e+01 2.980998158454895020e-01 -9.504978060722351074e-01 9.640388190746307373e-02 -2.562281787395477295e-01 4.653269648551940918e-01
2.735000000000000000e+03 4.248808288574218750e+01 2.910781800746917725e-01 -9.540712237358093262e-01 1.082356572151184082e-01 -2.537506818771362305e-01 4.369854331016540527e-01
2.736000000000000000e+03 4.393740844726562500e+01 2.360984981060028076e-01 -9.500044584274291992e-01 1.404986530542373657e-01 -2.428517341613769531e-01 3.701438605785369873e-01
2.737000000000000000e+03 4.943699645996093750e+01 1.258750677108764648e+00 -4.121006727218627930e-01 5.364965796470642090e-01 3.731876239180564880e-02 -2.137021422386169434e-01
2.738000000000000000e+03 4.692260742187500000e+01 5.030171275138854980e-01 -7.824305295944213867e-01 2.545278072357177734e-01 -1.583708226680755615e-01 1.439376473426818848e-01
2.739000000000000000e+03 3.347630310058593750e+01 -1.376385593414306641e+01 -7.501446008682250977e-01 -2.505225315690040588e-02 -2.325590550899505615e-01 -4.717363119125366211e-01
2.740000000000000000e+03 4.101940536499023438e+01 2.962892353534698486e-01 -9.413160085678100586e-01 9.802389889955520630e-02 -2.529876232147216797e-01 4.885095655918121338e-01
2.741000000000000000e+03 5.027727127075195312e+01 1.112019658088684082e+00 -3.653744459152221680e-01 6.086486577987670898e-01 7.298225164413452148e-02 -3.351821303367614746e-01
2.742000000000000000e+03 4.928425598144531250e+01 -3.222230970859527588e-01 -8.395541906356811523e-01 2.984424829483032227e-01 -1.623335182666778564e-01 -3.980680555105209351e-02
2.743000000000000000e+03 5.223722839355468750e+01 -6.609827280044555664e-01 -5.753032565116882324e-01 5.453326106071472168e-01 -8.991192094981670380e-03 -4.786829352378845215e-01
2.744000000000000000e+03 4.324871444702148438e+01 9.882081151008605957e-01 -8.110643029212951660e-01 1.581289917230606079e-01 -1.958805918693542480e-01 3.935261368751525879e-01
2.745000000000000000e+03 5.503462982177734375e+01 -1.287970924377441406e+01 1.345615983009338379e-01 1.537172794342041016e+00 5.015203356742858887e-01 1.404775500297546387e+00
2.746000000000000000e+03 4.771231460571289062e+01 5.459857583045959473e-01 -7.217122912406921387e-01 2.952628135681152344e-01 -1.279348433017730713e-01 6.773763895034790039e-02
2.747000000000000000e+03 5.239758300781250000e+01 4.318234324455261230e-01 -2.536996304988861084e-01 8.433368802070617676e-01 1.768911778926849365e-01 -6.930772066116333008e-01
2.748000000000000000e+03 2.896583557128906250e+01 -1.399848175048828125e+01 -6.164130568504333496e-01 -2.532497607171535492e-02 -1.925214082002639771e-01 -4.833097159862518311e-01
2.749000000000000000e+03 3.195666122436523438e+01 -1.314538860321044922e+01 -7.892288565635681152e-01 -3.294104337692260742e-02 -2.466509789228439331e-01 -4.576109647750854492e-01
2.750000000000000000e+03 3.277288436889648438e+01 -1.391559505462646484e+01 -7.260077595710754395e-01 -3.083551116287708282e-02 -2.270529866218566895e-01 -4.738965034484863281e-01
2.751000000000000000e+03 3.122541999816894531e+01 -1.392644882202148438e+01 -6.857844591140747070e-01 -2.862507477402687073e-02 -2.143228650093078613e-01 -4.837817251682281494e-01
2.752000000000000000e+03 3.198169898986816406e+01 -1.397148799896240234e+01 -7.042059302330017090e-01 -2.795608341693878174e-02 -2.196485996246337891e-01 -4.805991649627685547e-01
2.753000000000000000e+03 2.815120124816894531e+01 -1.329676437377929688e+01 -6.478204131126403809e-01 -2.016182616353034973e-02 -2.003946751356124878e-01 -4.593966007232666016e-01
2.754000000000000000e+03 2.959448814392089844e+01 -1.504086971282958984e+01 -5.438868403434753418e-01 -2.776639536023139954e-02 -1.714959740638732910e-01 -5.025318264961242676e-01
2.755000000000000000e+03 5.574056625366210938e+01 -2.654442191123962402e-01 1.355832219123840332e-01 1.740225672721862793e+00 5.627426505088806152e-01 -1.647972583770751953e+00
2.756000000000000000e+03 5.278902816772460938e+01 -9.069766849279403687e-03 -3.085965216159820557e-01 8.147956728935241699e-01 1.518597453832626343e-01 -7.272083759307861328e-01
2.757000000000000000e+03 2.285052490234375000e+01 1.878575086593627930e-01 -1.736987382173538208e-01 -2.918171882629394531e-01 -1.396547704935073853e-01 3.860098123550415039e-01
2.758000000000000000e+03 2.829832077026367188e+01 -1.405141925811767578e+01 -5.978272557258605957e-01 -2.631105855107307434e-02 -1.872414946556091309e-01 -4.789093434810638428e-01
2.759000000000000000e+03 2.371271896362304688e+01 -1.335409259796142578e+01 -5.262007117271423340e-01 -1.118346303701400757e-02 -1.612152457237243652e-01 -4.279100894927978516e-01
2.760000000000000000e+03 2.232347679138183594e+01 -1.308746719360351562e+01 -5.032895803451538086e-01 -1.533078309148550034e-02 -1.555861085653305054e-01 -4.061850309371948242e-01
2.761000000000000000e+03 2.300065422058105469e+01 -1.382662487030029297e+01 -5.017656087875366211e-01 -1.967429369688034058e-02 -1.564319729804992676e-01 -4.297916591167449951e-01
2.762000000000000000e+03 2.581858825683593750e+01 -1.381910991668701172e+01 -5.565701127052307129e-01 -1.415904611349105835e-02 -1.712187379598617554e-01 -4.607320129871368408e-01
2.763000000000000000e+03 5.398276901245117188e+01 -6.477968692779541016e-01 -2.323397994041442871e-01 9.137120246887207031e-01 2.044116705656051636e-01 -9.535908102989196777e-01
2.764000000000000000e+03 5.515505218505859375e+01 -1.166143059730529785e+00 -1.480772048234939575e-01 1.083519577980041504e+00 2.806327044963836670e-01 -1.226154565811157227e+00
2.765000000000000000e+03 2.435273742675781250e+01 -1.398543357849121094e+01 -5.177741050720214844e-01 -1.791157573461532593e-02 -1.607057005167007446e-01 -4.510973393917083740e-01
2.766000000000000000e+03 7.450457572937011719e+00 6.016957283020019531e+00 8.358338527614250779e-05 -1.205977867357432842e-03 -3.367183671798557043e-04 -4.687035470851697028e-05
2.767000000000000000e+03 8.740616798400878906e+00 6.621466159820556641e+00 -2.152589877368882298e-04 1.190370297990739346e-03 2.925333974417299032e-04 -1.464350643800571561e-04
2.768000000000000000e+03 2.225507736206054688e+01 -1.441661357879638672e+01 -4.726511836051940918e-01 -3.468729928135871887e-02 -1.522015482187271118e-01 -4.292072057723999023e-01
2.769000000000000000e+03 5.623008728027343750e+01 -6.582504510879516602e-01 1.740542501211166382e-01 1.830262541770935059e+00 6.012950539588928223e-01 -1.802744984626770020e+00
2.770000000000000000e+03 5.369368743896484375e+01 -2.052515894174575806e-01 -2.062067538499832153e-01 9.806798100471496582e-01 2.323419153690338135e-01 -9.456701874732971191e-01
2.771000000000000000e+03 5.626864242553710938e+01 -1.202003479003906250e+01 2.590923905372619629e-01 1.805293083190917969e+00 6.193156242370605469e-01 1.781906247138977051e+00
2.772000000000000000e+03 2.588941764831542969e+01 3.472937107086181641e+00 -3.633092641830444336e-01 -2.701268792152404785e-01 -1.900308430194854736e-01 6.702755689620971680e-01
2.773000000000000000e+03 5.683670806884765625e+01 -1.259324836730957031e+01 3.452565670013427734e-01 2.456494092941284180e+00 8.405252099037170410e-01 2.117048263549804688e+00
2.774000000000000000e+03 4.615867233276367188e+01 4.165519475936889648e-01 -8.430057168006896973e-01 2.198203057050704956e-01 -1.869556158781051636e-01 2.149640172719955444e-01
2.775000000000000000e+03 2.227582359313964844e+01 -1.592428398132324219e+01 -4.216068983078002930e-01 -5.739821121096611023e-02 -1.437015384435653687e-01 -4.419434964656829834e-01
2.776000000000000000e+03 7.137011718750000000e+01 4.275321006774902344e+00 -5.210655331611633301e-01 8.413740158081054688e+00 2.367802619934082031e+00 8.884766697883605957e-01
2.777000000000000000e+03 7.269065856933593750e+01 -8.888016700744628906e+00 1.104838371276855469e+00 7.798696041107177734e+00 2.671060323715209961e+00 -7.636203765869140625e-01
2.778000000000000000e+03 7.264958190917968750e+01 -1.199795913696289062e+01 4.006103873252868652e-01 8.103387832641601562e+00 2.551199436187744141e+00 -1.212629437446594238e+00
2.779000000000000000e+03 2.248225784301757812e+01 2.224212646484375000e+00 -1.854057610034942627e-01 -4.254305660724639893e-01 -1.832509040832519531e-01 4.696678519248962402e-01
2.780000000000000000e+03 2.333436584472656250e+01 1.169302821159362793e+00 -2.178050577640533447e-01 -3.274723887443542480e-01 -1.635832339525222778e-01 4.749469161033630371e-01
2.781000000000000000e+03 2.507944107055664062e+01 1.094486618041992188e+01 -4.596574902534484863e-01 -3.971144258975982666e-01 -2.570315897464752197e-01 6.714735627174377441e-01
2.782000000000000000e+03 7.255171966552734375e+01 1.906754612922668457e+00 -1.499491333961486816e-01 8.208737373352050781e+00 2.417636394500732422e+00 1.155167579650878906e+00
2.783000000000000000e+03 7.187791442871093750e+01 -1.284714698791503906e+00 5.199597477912902832e-01 8.340782165527343750e+00 2.658222675323486328e+00 1.226483225822448730e+00
2.784000000000000000e+03 7.226360321044921875e+01 -1.111080837249755859e+01 6.276133060455322266e-01 8.164131164550781250e+00 2.637523412704467773e+00 -1.183732628822326660e+00
2.785000000000000000e+03 7.174466705322265625e+01 -1.238572311401367188e+01 3.133557140827178955e-01 8.459075927734375000e+00 2.631729602813720703e+00 -1.274411320686340332e+00
2.786000000000000000e+03 2.401132392883300781e+01 1.563177108764648438e+00 -2.652678191661834717e-01 -3.027133345603942871e-01 -1.703943461179733276e-01 5.255792737007141113e-01
2.787000000000000000e+03 2.598127174377441406e+01 2.519965887069702148e+00 -3.619072735309600830e-01 -2.439983189105987549e-01 -1.817716807126998901e-01 6.386860013008117676e-01
2.788000000000000000e+03 6.807875823974609375e+01 -2.373367881774902344e+01 -6.070499420166015625e-01 7.594404697418212891e+00 2.096206426620483398e+00 1.190523849800229073e-03
2.789000000000000000e+03 6.935710144042968750e+01 -2.450044822692871094e+01 -5.308954715728759766e-01 7.630478382110595703e+00 2.129874944686889648e+00 -1.146564781665802002e-01
2.790000000000000000e+03 6.994476318359375000e+01 1.917217063903808594e+01 -2.011203914880752563e-01 7.151347637176513672e+00 2.085068225860595703e+00 -1.612683385610580444e-01
2.791000000000000000e+03 7.094972991943359375e+01 1.599450588226318359e+01 -2.756360173225402832e-01 7.471619606018066406e+00 2.158795118331909180e+00 -1.282894611358642578e-02
2.792000000000000000e+03 2.588887596130371094e+01 4.604509353637695312e+00 -3.773470818996429443e-01 -2.969353199005126953e-01 -2.022847235202789307e-01 7.080885171890258789e-01
2.793000000000000000e+03 2.527969551086425781e+01 5.386547088623046875e+00 -3.785243034362792969e-01 -3.513198792934417725e-01 -2.189532518386840820e-01 7.187002897262573242e-01
2.794000000000000000e+03 7.030318450927734375e+01 1.278970527648925781e+01 -4.554478228092193604e-01 7.593149185180664062e+00 2.141310453414916992e+00 8.143004029989242554e-02
2.795000000000000000e+03 7.151078033447265625e+01 9.624002456665039062e+00 -5.234309434890747070e-01 7.931359291076660156e+00 2.222378492355346680e+00 3.740415573120117188e-01
2.796000000000000000e+03 7.252817535400390625e+01 3.112523555755615234e+00 -2.986470758914947510e-01 8.218084335327148438e+00 2.375831127166748047e+00 1.065382242202758789e+00
2.797000000000000000e+03 1.000549125671386719e+01 2.603886222839355469e+01 2.152306400239467621e-02 -6.869035363197326660e-01 -1.996141523122787476e-01 5.078798532485961914e-01
2.798000000000000000e+03 2.388991928100585938e+01 1.165216064453125000e+01 -4.979333579540252686e-01 -5.232389569282531738e-01 -3.063516914844512939e-01 6.605937480926513672e-01
2.799000000000000000e+03 2.467556381225585938e+01 7.253675460815429688e+00 -4.099256694316864014e-01 -4.287656843662261963e-01 -2.516073882579803467e-01 7.235188484191894531e-01
2.800000000000000000e+03 7.107052612304687500e+01 -2.056232643127441406e+01 -5.778917670249938965e-01 8.132116317749023438e+00 2.266267299652099609e+00 -5.617082715034484863e-01
2.801000000000000000e+03 7.149452209472656250e+01 -9.371092796325683594e+00 1.278986573219299316e+00 8.290344238281250000e+00 2.870799303054809570e+00 -9.764903187751770020e-01
2.802000000000000000e+03 7.122740173339843750e+01 -5.864664077758789062e+00 1.827566385269165039e+00 8.216686248779296875e+00 3.013275861740112305e+00 2.063512802124023438e-01
2.803000000000000000e+03 7.245906066894531250e+01 -3.527367115020751953e+00 1.079082489013671875e+00 7.916848659515380859e+00 2.698779344558715820e+00 8.572500944137573242e-01
2.804000000000000000e+03 6.854494476318359375e+01 1.216341400146484375e+01 -5.865248441696166992e-01 7.447585582733154297e+00 2.058318138122558594e+00 -8.938299864530563354e-02
2.805000000000000000e+03 7.121411132812500000e+01 5.447912216186523438e+00 -5.869832038879394531e-01 8.323599815368652344e+00 2.320984840393066406e+00 7.486676573753356934e-01
2.806000000000000000e+03 7.197745513916015625e+01 -2.102950286865234375e+01 -4.890494346618652344e-01 8.065508842468261719e+00 2.272938013076782227e+00 -5.861499309539794922e-01
2.807000000000000000e+03 7.071971130371093750e+01 -2.206200027465820312e+01 -5.661516189575195312e-01 7.988944053649902344e+00 2.226837635040283203e+00 -3.979141414165496826e-01
2.808000000000000000e+03 7.190493774414062500e+01 -1.333420467376708984e+01 8.557911217212677002e-02 8.434610366821289062e+00 2.556056737899780273e+00 -1.251245141029357910e+00
2.809000000000000000e+03 7.196005249023437500e+01 -1.547533988952636719e+01 -2.900304794311523438e-01 8.396161079406738281e+00 2.431839227676391602e+00 -1.115617632865905762e+00
2.810000000000000000e+03 9.003394126892089844e+00 2.733012771606445312e+01 5.299416556954383850e-02 -6.523315310478210449e-01 -1.798011958599090576e-01 4.522781074047088623e-01
2.811000000000000000e+03 1.770823097229003906e+01 3.254774093627929688e+01 4.114277660846710205e-01 -6.332662105560302734e-01 -6.655154377222061157e-02 2.338195741176605225e-01
2.812000000000000000e+03 9.622038841247558594e+00 2.991055679321289062e+01 1.322032660245895386e-01 -7.003216743469238281e-01 -1.704355180263519287e-01 4.028191566467285156e-01
2.813000000000000000e+03 7.033368682861328125e+01 -2.417163276672363281e+01 -5.024306178092956543e-01 7.763808727264404297e+00 2.178413391113281250e+00 -2.277133166790008545e-01
2.814000000000000000e+03 7.112198638916015625e+01 2.227070426940917969e+01 -8.190149068832397461e-02 7.253964424133300781e+00 2.151618957519531250e+00 -1.528567522764205933e-01
2.815000000000000000e+03 6.947666168212890625e+01 2.232895469665527344e+01 -9.536301344633102417e-02 6.944206237792968750e+00 2.054652929306030273e+00 -2.053341865539550781e-01
2.816000000000000000e+03 7.200761413574218750e+01 -7.659161090850830078e+00 1.502417206764221191e+00 7.961742401123046875e+00 2.839247941970825195e+00 -4.604055881500244141e-01
2.817000000000000000e+03 6.958282470703125000e+01 2.562548828125000000e+01 -2.100037224590778351e-02 6.877932071685791016e+00 2.057079553604125977e+00 -2.081286460161209106e-01
2.818000000000000000e+03 7.046540069580078125e+01 2.461383056640625000e+01 -3.639473021030426025e-02 7.054456710815429688e+00 2.105418682098388672e+00 -1.830057799816131592e-01
2.819000000000000000e+03 1.085950088500976562e+01 -2.862323188781738281e+01 8.350220322608947754e-02 -4.029077589511871338e-01 -9.582166373729705811e-02 -2.860959470272064209e-01
2.820000000000000000e+03 7.190884399414062500e+01 -1.657254219055175781e+01 -4.023733139038085938e-01 8.358228683471679688e+00 2.386756658554077148e+00 -1.010768532752990723e+00
2.821000000000000000e+03 1.903247642517089844e+01 2.100269508361816406e+01 -1.698033809661865234e-01 -8.857782483100891113e-01 -3.166745007038116455e-01 3.658287525177001953e-01
2.822000000000000000e+03 1.225678443908691406e+01 -2.602234649658203125e+01 3.912071138620376587e-02 -3.963502347469329834e-01 -1.071688607335090637e-01 -3.129240572452545166e-01
2.823000000000000000e+03 1.019124412536621094e+01 -2.253222274780273438e+01 -8.860473334789276123e-02 -3.828259110450744629e-01 -1.414291858673095703e-01 -3.352478444576263428e-01
2.824000000000000000e+03 8.413553237915039062e+00 -2.196279716491699219e+01 -1.292120814323425293e-01 -3.137802481651306152e-01 -1.328976899385452271e-01 -3.369300961494445801e-01
2.825000000000000000e+03 6.975931549072265625e+01 1.694593238830566406e+01 -2.861165106296539307e-01 7.255319118499755859e+00 2.090760707855224609e+00 -1.144693642854690552e-01
2.826000000000000000e+03 6.995211029052734375e+01 1.483904170989990234e+01 -3.719087243080139160e-01 7.391876220703125000e+00 2.105990171432495117e+00 -4.146695509552955627e-02
2.827000000000000000e+03 6.831465148925781250e+01 -2.903754043579101562e+01 -2.977311909198760986e-01 7.101771831512451172e+00 2.041212320327758789e+00 5.999372899532318115e-02
2.828000000000000000e+03 6.992751312255859375e+01 1.148079967498779297e+01 -5.456414222717285156e-01 7.678150653839111328e+00 2.139752864837646484e+00 1.137747168540954590e-01
2.829000000000000000e+03 7.023941802978515625e+01 9.186702728271484375e+00 -6.353921294212341309e-01 7.947469711303710938e+00 2.193623304367065430e+00 2.891930043697357178e-01
2.830000000000000000e+03 7.207849121093750000e+01 -5.758264541625976562e+00 1.512296319007873535e+00 7.903507709503173828e+00 2.824741125106811523e+00 2.213626652956008911e-01
2.831000000000000000e+03 1.449112033843994141e+01 2.618947982788085938e+01 1.438442617654800415e-01 -8.612020015716552734e-01 -2.152073234319686890e-01 4.405682981014251709e-01
2.832000000000000000e+03 1.825108528137207031e+01 -2.397499847412109375e+01 -1.411968097090721130e-02 -2.783425450325012207e-01 -8.773867040872573853e-02 -3.480891883373260498e-01
2.833000000000000000e+03 1.884760665893554688e+01 -2.203904724121093750e+01 -1.197243332862854004e-01 -2.368360608816146851e-01 -1.069681197404861450e-01 -3.599182963371276855e-01
2.834000000000000000e+03 2.465405273437500000e+01 1.655181884765625000e+01 -2.968184053897857666e-01 -3.829202950000762939e-01 -2.039216160774230957e-01 4.388389289379119873e-01
2.835000000000000000e+03 1.116105842590332031e+01 2.706382560729980469e+01 8.740697056055068970e-02 -7.509390115737915039e-01 -1.990596204996109009e-01 4.859088659286499023e-01
2.836000000000000000e+03 2.113032341003417969e+01 -2.125499343872070312e+01 -1.522937864065170288e-01 -1.690942198038101196e-01 -9.641639888286590576e-02 -4.002269804477691650e-01
2.837000000000000000e+03 2.235075569152832031e+01 -1.903602027893066406e+01 -2.643908858299255371e-01 -1.095448210835456848e-01 -1.121807098388671875e-01 -4.371994435787200928e-01
2.838000000000000000e+03 7.258157348632812500e+01 -2.182721138000488281e+01 -4.291587769985198975e-01 8.018900871276855469e+00 2.276922702789306641e+00 -5.640506148338317871e-01
2.839000000000000000e+03 1.047366905212402344e+01 2.464752388000488281e+01 -5.281938612461090088e-02 -6.974831819534301758e-01 -2.250907719135284424e-01 5.462985038757324219e-01
2.840000000000000000e+03 7.056889057159423828e+00 -2.221206474304199219e+01 -1.165146231651306152e-01 -2.129148989915847778e-01 -9.882885217666625977e-02 -2.636649906635284424e-01
2.841000000000000000e+03 6.851078033447265625e+01 2.690687942504882812e+01 5.997986067086458206e-03 6.651429176330566406e+00 1.997228145599365234e+00 -2.293303459882736206e-01
2.842000000000000000e+03 6.122771453857421875e+01 -3.915027379989624023e+00 1.119759678840637207e+00 9.291900634765625000e+00 3.123498201370239258e+00 -5.584516525268554688e+00
2.843000000000000000e+03 6.137472915649414062e+01 -9.345631599426269531e+00 5.493239164352416992e-01 1.005007266998291016e+01 3.179819107055664062e+00 5.023797988891601562e+00
2.844000000000000000e+03 6.186974716186523438e+01 -3.117122411727905273e+00 -2.006284594535827637e-01 1.170631599426269531e+01 3.451706409454345703e+00 -4.219056606292724609e+00
2.845000000000000000e+03 6.164401626586914062e+01 -9.996013641357421875e+00 -6.438770145177841187e-02 1.039674949645996094e+01 3.099708557128906250e+00 4.218797683715820312e+00
2.846000000000000000e+03 6.555943298339843750e+01 -6.871578216552734375e+00 5.841723442077636719e+00 1.205294036865234375e+01 5.368399143218994141e+00 -6.936606168746948242e-01
2.847000000000000000e+03 6.520898437500000000e+01 -6.709976673126220703e+00 6.499278545379638672e+00 1.258797740936279297e+01 5.726176738739013672e+00 -5.174828171730041504e-01
2.848000000000000000e+03 6.171503067016601562e+01 -2.666293382644653320e+00 -2.680341303348541260e-01 1.061658477783203125e+01 3.104565143585205078e+00 -4.055596828460693359e+00
2.849000000000000000e+03 6.254574584960937500e+01 -3.069631099700927734e+00 -5.556892752647399902e-01 1.347263717651367188e+01 3.875084161758422852e+00 -2.963379621505737305e+00
2.850000000000000000e+03 6.591618347167968750e+01 -5.380098342895507812e+00 4.852769374847412109e+00 1.179388523101806641e+01 4.993996620178222656e+00 1.187957525253295898e+00
2.851000000000000000e+03 6.356821060180664062e+01 -3.417394876480102539e+00 7.239599525928497314e-02 1.511702728271484375e+01 4.556827068328857422e+00 -4.745218157768249512e-01
2.852000000000000000e+03 6.496404266357421875e+01 -4.971792697906494141e+00 4.755156517028808594e+00 1.360741806030273438e+01 5.508772373199462891e+00 1.864264726638793945e+00
2.853000000000000000e+03 6.460591888427734375e+01 -4.622567176818847656e+00 3.751821994781494141e+00 1.460206890106201172e+01 5.506167411804199219e+00 1.955920696258544922e+00
2.854000000000000000e+03 6.237562942504882812e+01 -3.284778356552124023e+00 -4.298184216022491455e-01 1.360062980651855469e+01 3.951243400573730469e+00 -3.424425363540649414e+00
2.855000000000000000e+03 6.384528350830078125e+01 -4.052010536193847656e+00 1.366598963737487793e+00 1.604297065734863281e+01 5.222870826721191406e+00 7.687274217605590820e-01
2.856000000000000000e+03 6.339959716796875000e+01 -3.067527770996093750e+00 -3.211952149868011475e-01 1.443857860565185547e+01 4.235215187072753906e+00 -1.044448971748352051e+00
2.857000000000000000e+03 6.463999938964843750e+01 -4.251782417297363281e+00 2.773252725601196289e+00 1.446170139312744141e+01 5.170486450195312500e+00 1.778776884078979492e+00
2.858000000000000000e+03 6.465995025634765625e+01 -3.821464061737060547e+00 1.838280558586120605e+00 1.422324180603027344e+01 4.818456649780273438e+00 1.436579942703247070e+00
2.859000000000000000e+03 6.421953582763671875e+01 -3.925577878952026367e+00 1.564951300621032715e+00 1.512913131713867188e+01 5.008224964141845703e+00 1.127181649208068848e+00
2.860000000000000000e+03 5.896380615234375000e+01 -1.066528034210205078e+01 7.182309627532958984e-01 3.644896984100341797e+00 1.308938384056091309e+00 3.217480182647705078e+00
2.861000000000000000e+03 5.971045303344726562e+01 -2.148373603820800781e+00 5.868487954139709473e-01 5.012326240539550781e+00 1.679752469062805176e+00 -3.788058042526245117e+00
2.862000000000000000e+03 6.001573562622070312e+01 -3.413216590881347656e+00 1.238651156425476074e+00 4.628143310546875000e+00 1.760038375854492188e+00 -4.181821823120117188e+00
2.863000000000000000e+03 5.331795501708984375e+01 3.553777337074279785e-01 -1.524683982133865356e-01 1.046896934509277344e+00 2.683285474777221680e-01 -9.215543866157531738e-01
2.864000000000000000e+03 5.738875961303710938e+01 -6.214879751205444336e-01 3.136192858219146729e-01 2.684577941894531250e+00 8.994591832160949707e-01 -2.357205390930175781e+00
2.865000000000000000e+03 5.090976715087890625e+01 2.163738906383514404e-01 -5.074111819267272949e-01 5.324321985244750977e-01 7.506303489208221436e-03 -3.394033312797546387e-01
2.866000000000000000e+03 3.798828125000000000e+01 1.032926082611083984e+00 -7.906240224838256836e-01 8.250102400779724121e-02 -2.124368995428085327e-01 5.878533720970153809e-01
2.867000000000000000e+03 4.029163360595703125e+01 3.313405811786651611e-01 -9.299964308738708496e-01 9.120864421129226685e-02 -2.516363263130187988e-01 5.170689225196838379e-01
2.868000000000000000e+03 5.700243377685546875e+01 -8.642551302909851074e-01 2.828053236007690430e-01 2.245301723480224609e+00 7.584320902824401855e-01 -2.148882627487182617e+00
2.869000000000000000e+03 5.777140808105468750e+01 -3.812558650970458984e-01 3.082324862480163574e-01 3.170779705047607422e+00 1.043703675270080566e+00 -2.547986507415771484e+00
2.870000000000000000e+03 5.735565185546875000e+01 -1.261253261566162109e+01 3.635873794555664062e-01 2.903360366821289062e+00 9.800843000411987305e-01 2.345765352249145508e+00
2.871000000000000000e+03 5.739928436279296875e+01 -1.202009963989257812e+01 4.074048697948455811e-01 2.609535694122314453e+00 9.050821661949157715e-01 2.351018667221069336e+00
2.872000000000000000e+03 2.845221710205078125e+01 4.262241423130035400e-01 -4.921371936798095703e-01 -9.506630152463912964e-02 -1.761610507965087891e-01 5.976085066795349121e-01
2.873000000000000000e+03 2.691650581359863281e+01 7.530096173286437988e-01 -4.089729189872741699e-01 -1.553217023611068726e-01 -1.692883819341659546e-01 5.846459269523620605e-01
2.874000000000000000e+03 2.810953521728515625e+01 2.841151714324951172e+00 -4.380092620849609375e-01 -1.440180242061614990e-01 -1.746081858873367310e-01 6.906076073646545410e-01
2.875000000000000000e+03 5.627484512329101562e+01 -1.262446403503417969e+01 2.903221547603607178e-01 2.086453437805175781e+00 7.130326628684997559e-01 1.877271175384521484e+00
2.876000000000000000e+03 3.077708435058593750e+01 4.978279769420623779e-01 -6.012777090072631836e-01 -3.662424534559249878e-02 -1.913705766201019287e-01 6.256331205368041992e-01
2.877000000000000000e+03 2.990267181396484375e+01 -1.160777988843619823e-03 -5.772405266761779785e-01 -5.115413665771484375e-02 -1.885183900594711304e-01 5.941858291625976562e-01
2.878000000000000000e+03 4.369714355468750000e+01 -1.467697429656982422e+01 -5.683073401451110840e-01 1.784606426954269409e-01 -1.169540062546730042e-01 -2.352506965398788452e-01
2.879000000000000000e+03 4.526075363159179688e+01 -1.407393169403076172e+01 -6.580110788345336914e-01 1.882716715335845947e-01 -1.409218162298202515e-01 -1.620180159807205200e-01
2.880000000000000000e+03 4.169956970214843750e+01 -1.355341434478759766e+01 -8.554924130439758301e-01 7.069653272628784180e-02 -2.354387640953063965e-01 -3.529336750507354736e-01
2.881000000000000000e+03 3.738259506225585938e+01 -1.369630622863769531e+01 -8.282392621040344238e-01 3.695683320984244347e-03 -2.473630756139755249e-01 -4.398056864738464355e-01
2.882000000000000000e+03 3.435066604614257812e+01 6.453323364257812500e-01 -7.373288273811340332e-01 2.831697463989257812e-02 -2.127035558223724365e-01 6.301600337028503418e-01
2.883000000000000000e+03 5.036617660522460938e+01 -1.567708587646484375e+01 2.762014232575893402e-02 8.881604671478271484e-01 2.747341692447662354e-01 5.393940806388854980e-01
2.884000000000000000e+03 5.141923141479492188e+01 -1.399889659881591797e+01 -1.478283107280731201e-01 7.806098461151123047e-01 1.898344606161117554e-01 5.637044310569763184e-01
2.885000000000000000e+03 4.593548583984375000e+01 -1.400573825836181641e+01 -6.336156725883483887e-01 2.196499705314636230e-01 -1.241897046566009521e-01 -1.229184865951538086e-01
2.886000000000000000e+03 4.259925079345703125e+01 -1.490602684020996094e+01 -5.665727853775024414e-01 1.454515010118484497e-01 -1.263363808393478394e-01 -2.860296666622161865e-01
2.887000000000000000e+03 3.567136764526367188e+01 -1.401462173461914062e+01 -7.575117945671081543e-01 -9.438792243599891663e-03 -2.300851792097091675e-01 -4.629060029983520508e-01
2.888000000000000000e+03 3.775334548950195312e+01 -1.430919647216796875e+01 -7.351745963096618652e-01 1.599180698394775391e-02 -2.157548367977142334e-01 -4.418398737907409668e-01
2.889000000000000000e+03 4.049743270874023438e+01 -1.438876152038574219e+01 -7.101016044616699219e-01 6.959941983222961426e-02 -1.921506524085998535e-01 -3.764432668685913086e-01
2.890000000000000000e+03 3.727719497680664062e+01 1.825301498174667358e-01 -8.803418874740600586e-01 5.623040348291397095e-02 -2.472334504127502441e-01 5.819779634475708008e-01
2.891000000000000000e+03 4.882102966308593750e+01 -1.459251976013183594e+01 -2.911792993545532227e-01 4.834320545196533203e-01 5.767582729458808899e-02 2.090818285942077637e-01
2.892000000000000000e+03 5.209428024291992188e+01 -1.388552570343017578e+01 -8.951248973608016968e-02 8.930012583732604980e-01 2.410466372966766357e-01 7.056222558021545410e-01
2.893000000000000000e+03 5.712152099609375000e+01 -1.464637517929077148e-01 2.737257182598114014e-01 2.713194370269775391e+00 8.960760831832885742e-01 -2.267527103424072266e+00
2.894000000000000000e+03 5.525878524780273438e+01 -5.068559572100639343e-02 6.074277311563491821e-02 1.587527036666870117e+00 4.944809675216674805e-01 -1.482687830924987793e+00
2.895000000000000000e+03 4.738252639770507812e+01 -1.348066997528076172e+01 -6.486563682556152344e-01 2.621996402740478516e-01 -1.159370169043540955e-01 -3.142929077148437500e-02
2.896000000000000000e+03 4.713452148437500000e+01 -1.430883693695068359e+01 -4.899747669696807861e-01 3.050497174263000488e-01 -5.547750741243362427e-02 1.496299752034246922e-03
2.897000000000000000e+03 4.651792907714843750e+01 -1.406997871398925781e+01 -5.701363682746887207e-01 2.713494300842285156e-01 -8.963607996702194214e-02 -6.069485843181610107e-02
2.898000000000000000e+03 5.062720489501953125e+01 -1.421678829193115234e+01 -1.859102100133895874e-01 6.871050596237182617e-01 1.503584533929824829e-01 4.602708220481872559e-01
2.899000000000000000e+03 4.791191482543945312e+01 -1.455566120147705078e+01 -3.741697967052459717e-01 4.017594754695892334e-01 8.276906795799732208e-03 1.040415018796920776e-01
2.900000000000000000e+03 3.803034973144531250e+01 2.600147128105163574e-01 -8.916074633598327637e-01 6.580318510532379150e-02 -2.477412819862365723e-01 5.705637335777282715e-01
2.901000000000000000e+03 3.506284332275390625e+01 7.289098501205444336e-01 -7.536664009094238281e-01 3.852124512195587158e-02 -2.145435363054275513e-01 6.275796294212341309e-01
2.902000000000000000e+03 3.898926544189453125e+01 -1.574452400207519531e+01 -4.955793321132659912e-01 7.549592107534408569e-02 -1.260250210762023926e-01 -4.076801240444183350e-01
2.903000000000000000e+03 5.283020019531250000e+01 -1.397679424285888672e+01 8.593254460720345378e-05 1.095138907432556152e+00 3.285674452781677246e-01 8.712189197540283203e-01
2.904000000000000000e+03 3.879101181030273438e+01 3.360326290130615234e-01 -9.017949104309082031e-01 7.443811744451522827e-02 -2.482070326805114746e-01 5.554001927375793457e-01
2.905000000000000000e+03 3.575536346435546875e+01 1.556395888328552246e+00 -6.947851777076721191e-01 5.931238457560539246e-02 -1.906418353319168091e-01 6.413519382476806641e-01
2.906000000000000000e+03 3.479528427124023438e+01 -1.390895938873291016e+01 -7.652536034584045410e-01 -2.156487852334976196e-02 -2.360455393791198730e-01 -4.678972363471984863e-01
2.907000000000000000e+03 3.751508712768554688e+01 -1.557492446899414062e+01 -5.310258269309997559e-01 3.932252526283264160e-02 -1.475109905004501343e-01 -4.445198476314544678e-01
2.908000000000000000e+03 5.365844726562500000e+01 -1.405194091796875000e+01 1.033046469092369080e-01 1.394041180610656738e+00 4.492037296295166016e-01 1.121097564697265625e+00
2.909000000000000000e+03 3.409226226806640625e+01 -1.375962734222412109e+01 -7.662671208381652832e-01 -1.885220222175121307e-02 -2.355358004570007324e-01 -4.692273736000061035e-01
2.910000000000000000e+03 3.375700378417968750e+01 -1.440830993652343750e+01 -6.727082133293151855e-01 -2.018179744482040405e-02 -2.078670114278793335e-01 -4.831957519054412842e-01
2.911000000000000000e+03 4.467379379272460938e+01 2.518361210823059082e-01 -9.289050698280334473e-01 1.595901399850845337e-01 -2.307944893836975098e-01 3.270829617977142334e-01
2.912000000000000000e+03 4.339184951782226562e+01 1.736800312995910645e+00 -6.684983968734741211e-01 2.045290470123291016e-01 -1.391908079385757446e-01 3.711788952350616455e-01
2.913000000000000000e+03 4.541238784790039062e+01 3.209446072578430176e-01 -8.918671607971191406e-01 1.894824504852294922e-01 -2.107154130935668945e-01 2.775878906250000000e-01
2.914000000000000000e+03 5.178368377685546875e+01 7.008823156356811523e-01 -2.708563208580017090e-01 7.773252129554748535e-01 1.519406735897064209e-01 -5.815384387969970703e-01
2.915000000000000000e+03 4.252211761474609375e+01 1.069683670997619629e+00 -8.103035092353820801e-01 1.430675238370895386e-01 -2.001707851886749268e-01 4.278044104576110840e-01
2.916000000000000000e+03 4.852656173706054688e+01 5.279256701469421387e-01 -6.685495376586914062e-01 3.488453328609466553e-01 -9.591126441955566406e-02 -2.034894190728664398e-02
2.917000000000000000e+03 5.223937988281250000e+01 -6.532651185989379883e-02 -4.098070561885833740e-01 6.683225035667419434e-01 7.755462825298309326e-02 -5.716110467910766602e-01
2.918000000000000000e+03 5.046007537841796875e+01 1.883541584014892578e+00 -1.987028568983078003e-01 7.831671833992004395e-01 1.753392964601516724e-01 -4.420089423656463623e-01
2.919000000000000000e+03 3.194901275634765625e+01 -1.484335136413574219e+01 -5.939339995384216309e-01 -2.533425390720367432e-02 -1.857804805040359497e-01 -4.975469708442687988e-01
2.920000000000000000e+03 3.103185462951660156e+01 -1.463582229614257812e+01 -6.058375239372253418e-01 -2.980549447238445282e-02 -1.906929165124893188e-01 -4.944738149642944336e-01
2.921000000000000000e+03 3.876657485961914062e+01 1.176992893218994141e+00 -7.831217646598815918e-01 9.455480426549911499e-02 -2.065700888633728027e-01 5.705825090408325195e-01
2.922000000000000000e+03 3.064683532714843750e+01 -1.549359416961669922e+01 -5.168631076812744141e-01 -2.450118958950042725e-02 -1.624092757701873779e-01 -5.080422163009643555e-01
2.923000000000000000e+03 2.812640571594238281e+01 -1.519681453704833984e+01 -5.163487195968627930e-01 -3.083651140332221985e-02 -1.641555577516555786e-01 -4.987125396728515625e-01
2.924000000000000000e+03 4.604686737060546875e+01 1.186621308326721191e+00 -6.699857711791992188e-01 2.868765294551849365e-01 -1.149327680468559265e-01 1.887751221656799316e-01
2.925000000000000000e+03 4.394275665283203125e+01 8.910035490989685059e-01 -8.099688291549682617e-01 1.765286922454833984e-01 -1.900320351123809814e-01 3.566701412200927734e-01
2.926000000000000000e+03 5.460918045043945312e+01 -9.295629709959030151e-02 -3.962729498744010925e-02 1.264825940132141113e+00 3.675595819950103760e-01 -1.234101414680480957e+00
2.927000000000000000e+03 5.447107315063476562e+01 -1.389173793792724609e+01 1.723770350217819214e-01 1.630790591239929199e+00 5.409502983093261719e-01 1.336697101593017578e+00
2.928000000000000000e+03 2.636190986633300781e+01 -1.799925041198730469e+01 -3.034386634826660156e-01 -5.610796436667442322e-02 -1.078639850020408630e-01 -4.945811629295349121e-01
2.929000000000000000e+03 7.159964752197265625e+01 -3.968010663986206055e+00 1.387152671813964844e+00 8.196364402770996094e+00 2.875055074691772461e+00 8.207395076751708984e-01
2.930000000000000000e+03 2.524474525451660156e+01 -1.458414745330810547e+01 -5.078686475753784180e-01 -2.155220322310924530e-02 -1.588262468576431274e-01 -4.679982960224151611e-01
2.931000000000000000e+03 2.794262123107910156e+01 1.299771308898925781e+00 -4.535278081893920898e-01 -1.254180073738098145e-01 -1.736837476491928101e-01 6.293275952339172363e-01
2.932000000000000000e+03 2.546024703979492188e+01 2.993411779403686523e+00 -3.470370471477508545e-01 -2.769569754600524902e-01 -1.871982067823410034e-01 6.455473899841308594e-01
2.933000000000000000e+03 5.529535675048828125e+01 4.022888541221618652e-01 1.166975274682044983e-01 1.791196584701538086e+00 5.723682641983032227e-01 -1.552138686180114746e+00
2.934000000000000000e+03 5.435980224609375000e+01 -4.278675615787506104e-01 -1.481737345457077026e-01 1.032500028610229492e+00 2.652978897094726562e-01 -1.077484011650085449e+00
2.935000000000000000e+03 5.567173767089843750e+01 -1.272413825988769531e+01 2.190892547369003296e-01 1.782747745513916016e+00 6.005510687828063965e-01 1.635868787765502930e+00
2.936000000000000000e+03 7.229112243652343750e+01 -3.548968136310577393e-01 2.927617430686950684e-01 8.249205589294433594e+00 2.562590122222900391e+00 1.229714989662170410e+00
2.937000000000000000e+03 4.104918670654296875e+01 1.017962813377380371e+00 -8.228409290313720703e-01 1.176257058978080750e-01 -2.115645557641983032e-01 4.957110881805419922e-01
2.938000000000000000e+03 4.039594650268554688e+01 1.131027102470397949e+00 -7.976217269897460938e-01 1.205923706293106079e-01 -2.031088024377822876e-01 5.181282758712768555e-01
2.939000000000000000e+03 2.770577430725097656e+01 5.918585658073425293e-01 -4.529074132442474365e-01 -1.221163496375083923e-01 -1.725071221590042114e-01 5.941220521926879883e-01
2.940000000000000000e+03 7.100422668457031250e+01 -1.353295898437500000e+01 -3.734162775799632072e-03 8.743513107299804688e+00 2.621933937072753906e+00 -1.250057220458984375e+00
2.941000000000000000e+03 7.012066650390625000e+01 5.260035991668701172e+00 -7.007263898849487305e-01 8.475710868835449219e+00 2.332495450973510742e+00 6.396335959434509277e-01
2.942000000000000000e+03 7.147193908691406250e+01 3.115041017532348633e+00 -4.024976491928100586e-01 8.481048583984375000e+00 2.423565149307250977e+00 1.028638482093811035e+00
2.943000000000000000e+03 3.366387939453125000e+01 5.494618415832519531e-01 -7.195541262626647949e-01 1.831048354506492615e-02 -2.103731036186218262e-01 6.310222744941711426e-01
2.944000000000000000e+03 2.917707252502441406e+01 2.360762506723403931e-01 -5.316700935363769531e-01 -7.360170036554336548e-02 -1.815815418958663940e-01 5.986166596412658691e-01
2.945000000000000000e+03 7.196880340576171875e+01 -1.437955188751220703e+01 -1.228304058313369751e-01 8.419043540954589844e+00 2.488863945007324219e+00 -1.202160477638244629e+00
2.946000000000000000e+03 2.485613059997558594e+01 8.001053929328918457e-01 -3.013707697391510010e-01 -2.342992722988128662e-01 -1.607010066509246826e-01 5.165147781372070312e-01
2.947000000000000000e+03 7.114917755126953125e+01 -3.223251342773437500e+00 1.284494757652282715e+00 8.453599929809570312e+00 2.921428442001342773e+00 1.044601082801818848e+00
2.948000000000000000e+03 7.192178344726562500e+01 -2.667527675628662109e+00 9.496162533760070801e-01 8.189378738403320312e+00 2.741698503494262695e+00 1.064599275588989258e+00
2.949000000000000000e+03 7.142599487304687500e+01 -1.966697311401367188e+01 -5.610036253929138184e-01 8.189701080322265625e+00 2.288609266281127930e+00 -6.599272489547729492e-01
2.950000000000000000e+03 2.229149055480957031e+01 -1.750749397277832031e+01 -3.471179306507110596e-01 -8.326005935668945312e-02 -1.291133910417556763e-01 -4.459337294101715088e-01
2.951000000000000000e+03 2.571420669555664062e+01 -1.620045280456542969e+01 -4.190502166748046875e-01 -3.861605376005172729e-02 -1.372998803853988647e-01 -4.934546649456024170e-01
2.952000000000000000e+03 7.150928497314453125e+01 1.981107354164123535e+00 -2.344059646129608154e-01 8.527688026428222656e+00 2.487984657287597656e+00 1.141708612442016602e+00
2.953000000000000000e+03 2.650102806091308594e+01 3.923998355865478516e+00 -3.857523798942565918e-01 -2.403309196233749390e-01 -1.878249943256378174e-01 6.973565220832824707e-01
2.954000000000000000e+03 2.583223152160644531e+01 6.583641052246093750e+00 -3.975549638271331787e-01 -3.162562251091003418e-01 -2.141433656215667725e-01 7.360301017761230469e-01
2.955000000000000000e+03 2.673111724853515625e+01 8.655971527099609375e+00 -4.120554029941558838e-01 -2.544382512569427490e-01 -1.999481022357940674e-01 7.209095358848571777e-01
2.956000000000000000e+03 2.480856132507324219e+01 1.305635833740234375e+01 -4.464758336544036865e-01 -4.037833213806152344e-01 -2.550777494907379150e-01 5.909954905509948730e-01
2.957000000000000000e+03 6.961559295654296875e+01 7.507664203643798828e+00 -7.400745749473571777e-01 8.147678375244140625e+00 2.222281217575073242e+00 3.366441726684570312e-01
2.958000000000000000e+03 7.032044982910156250e+01 4.161901473999023438e+00 -6.290569901466369629e-01 8.597520828247070312e+00 2.390539169311523438e+00 7.865194678306579590e-01
2.959000000000000000e+03 7.046596527099609375e+01 3.077863216400146484e+00 -5.191195011138916016e-01 8.725656509399414062e+00 2.461961030960083008e+00 9.336811900138854980e-01
2.960000000000000000e+03 7.191255187988281250e+01 -4.828378677368164062e+00 1.463209033012390137e+00 8.014260292053222656e+00 2.843240976333618164e+00 5.428675413131713867e-01
2.961000000000000000e+03 2.197018241882324219e+01 1.649944305419921875e+01 -4.497399032115936279e-01 -6.860117316246032715e-01 -3.407254815101623535e-01 4.580937027931213379e-01
2.962000000000000000e+03 2.262917900085449219e+01 1.774981498718261719e+01 -3.373928666114807129e-01 -6.030929684638977051e-01 -2.821457386016845703e-01 3.868673145771026611e-01
2.963000000000000000e+03 7.179074859619140625e+01 -8.555547714233398438e+00 1.395317316055297852e+00 8.103742599487304688e+00 2.849718093872070312e+00 -7.485845088958740234e-01
2.964000000000000000e+03 7.210663604736328125e+01 -6.712185382843017578e+00 1.526081204414367676e+00 7.883914947509765625e+00 2.822998762130737305e+00 -1.157188415527343750e-01
2.965000000000000000e+03 7.070978546142578125e+01 7.887739658355712891e+00 -6.319927573204040527e-01 8.105445861816406250e+00 2.242035865783691406e+00 4.598580300807952881e-01
2.966000000000000000e+03 6.714762115478515625e+01 1.904054832458496094e+01 -2.188604623079299927e-01 6.645746707916259766e+00 1.928065896034240723e+00 -2.829467952251434326e-01
2.967000000000000000e+03 6.856947326660156250e+01 1.742808914184570312e+01 -2.878501713275909424e-01 7.017293930053710938e+00 2.018833160400390625e+00 -2.021037191152572632e-01
2.968000000000000000e+03 6.865101623535156250e+01 -1.861714172363281250e+01 -8.317183256149291992e-01 8.485322952270507812e+00 2.296081542968750000e+00 -3.543421030044555664e-01
2.969000000000000000e+03 7.184892272949218750e+01 -1.763310813903808594e+01 -4.794033765792846680e-01 8.320681571960449219e+00 2.352383613586425781e+00 -9.084546566009521484e-01
2.970000000000000000e+03 6.975008392333984375e+01 -2.696235847473144531e+01 -3.788419067859649658e-01 7.444777965545654297e+00 2.119780778884887695e+00 -6.574194133281707764e-02
2.971000000000000000e+03 7.148247528076171875e+01 -1.156423091888427734e+01 5.498992204666137695e-01 8.520633697509765625e+00 2.721159934997558594e+00 -1.281735062599182129e+00
2.972000000000000000e+03 2.033182525634765625e+01 2.258745956420898438e+01 1.465023308992385864e-02 -7.250983119010925293e-01 -2.131344228982925415e-01 3.027141690254211426e-01
2.973000000000000000e+03 1.888821029663085938e+01 2.384585380554199219e+01 7.252453267574310303e-02 -8.042309880256652832e-01 -2.195119410753250122e-01 3.172377049922943115e-01
2.974000000000000000e+03 6.932954406738281250e+01 1.024366664886474609e+01 -6.422336101531982422e-01 7.760964393615722656e+00 2.135619163513183594e+00 1.075674667954444885e-01
2.975000000000000000e+03 1.220236587524414062e+01 2.838632583618164062e+01 1.801502406597137451e-01 -7.798082232475280762e-01 -1.798973977565765381e-01 4.332094788551330566e-01
2.976000000000000000e+03 1.004853057861328125e+01 2.834015655517578125e+01 1.127563044428825378e-01 -7.046214342117309570e-01 -1.775595396757125854e-01 4.436910450458526611e-01
2.977000000000000000e+03 9.984571456909179688e+00 -2.680303955078125000e+01 3.975054249167442322e-02 -3.921991288661956787e-01 -1.057345718145370483e-01 -2.989326417446136475e-01
2.978000000000000000e+03 2.620943832397460938e+01 1.019985294342041016e+01 -4.159362316131591797e-01 -2.863800823688507080e-01 -2.106948941946029663e-01 6.882984638214111328e-01
2.979000000000000000e+03 1.687007713317871094e+01 -2.830460357666015625e+01 1.501777470111846924e-01 -3.402215242385864258e-01 -5.701313167810440063e-02 -3.064374923706054688e-01
2.980000000000000000e+03 1.337440490722656250e+01 2.723763084411621094e+01 1.638496518135070801e-01 -8.204369544982910156e-01 -1.969761997461318970e-01 4.473098814487457275e-01
2.981000000000000000e+03 1.366478729248046875e+01 2.496997451782226562e+01 6.701832264661788940e-02 -8.866863250732421875e-01 -2.459003925323486328e-01 4.957821965217590332e-01
2.982000000000000000e+03 1.166214847564697266e+01 2.455588150024414062e+01 -1.660977676510810852e-02 -8.061326146125793457e-01 -2.468227148056030273e-01 5.542280077934265137e-01
2.983000000000000000e+03 6.982097625732421875e+01 2.369415283203125000e+01 -5.897122994065284729e-02 6.965502738952636719e+00 2.071959495544433594e+00 -2.012920230627059937e-01
2.984000000000000000e+03 6.905640411376953125e+01 -2.127593803405761719e+01 -7.105553150177001953e-01 8.013878822326660156e+00 2.190996885299682617e+00 -2.423834055662155151e-01
2.985000000000000000e+03 7.135816192626953125e+01 -2.170450210571289062e+01 -5.282295346260070801e-01 8.029731750488281250e+00 2.250450611114501953e+00 -4.878091514110565186e-01
2.986000000000000000e+03 6.856951904296875000e+01 -3.475825500488281250e+01 -7.488349080085754395e-02 6.962418556213378906e+00 2.066260576248168945e+00 5.657070875167846680e-02
2.987000000000000000e+03 6.913557434082031250e+01 -2.343378257751464844e+01 -5.919763445854187012e-01 7.741462230682373047e+00 2.144845724105834961e+00 -1.349529922008514404e-01
2.988000000000000000e+03 7.008199310302734375e+01 -2.317179870605468750e+01 -5.556718111038208008e-01 7.839137554168701172e+00 2.185039758682250977e+00 -2.597327828407287598e-01
2.989000000000000000e+03 1.639443397521972656e+01 -2.320306205749511719e+01 -5.949994176626205444e-02 -3.221478462219238281e-01 -1.144943311810493469e-01 -3.290113806724548340e-01
2.990000000000000000e+03 6.730393218994140625e+01 2.554454421997070312e+01 -1.540673244744539261e-02 6.465020656585693359e+00 1.934884190559387207e+00 -2.681958675384521484e-01
2.991000000000000000e+03 6.862514495849609375e+01 2.444532012939453125e+01 -4.324072599411010742e-02 6.742939472198486328e+00 2.009909629821777344e+00 -2.329062670469284058e-01
2.992000000000000000e+03 6.202282333374023438e+01 -2.513573884963989258e+00 -4.939698278903961182e-01 1.126178550720214844e+01 3.230344772338867188e+00 -3.654601097106933594e+00
2.993000000000000000e+03 6.539493560791015625e+01 -6.106461048126220703e+00 6.277929782867431641e+00 1.229269981384277344e+01 5.571188926696777344e+00 4.442045390605926514e-01
2.994000000000000000e+03 6.101944351196289062e+01 -9.425341606140136719e+00 8.698000907897949219e-01 8.358397483825683594e+00 2.768459320068359375e+00 5.034255027770996094e+00
2.995000000000000000e+03 6.285993194580078125e+01 -1.002426338195800781e+01 -6.407024264335632324e-01 1.338790702819824219e+01 3.824161291122436523e+00 2.242971897125244141e+00
2.996000000000000000e+03 5.969118499755859375e+01 -9.786761283874511719e+00 1.025420546531677246e+00 4.295167922973632812e+00 1.596176505088806152e+00 3.828708410263061523e+00
2.997000000000000000e+03 6.148825836181640625e+01 -9.680326461791992188e+00 2.187060862779617310e-01 1.015217876434326172e+01 3.111265420913696289e+00 4.599424839019775391e+00
2.998000000000000000e+03 6.071017837524414062e+01 -3.206195592880249023e+00 8.345098495483398438e-01 7.126787662506103516e+00 2.388389348983764648e+00 -4.779450416564941406e+00
2.999000000000000000e+03 6.220410919189453125e+01 -9.850860595703125000e+00 -3.977034986019134521e-01 1.236956405639648438e+01 3.591558218002319336e+00 3.581748247146606445e+00
3.000000000000000000e+03 5.952489471435546875e+01 -2.813893795013427734e+00 8.971108198165893555e-01 4.074023246765136719e+00 1.491340160369873047e+00 -3.689138650894165039e+00
3.001000000000000000e+03 6.141345596313476562e+01 -2.850067615509033203e+00 5.860842391848564148e-02 9.763850212097167969e+00 2.946737766265869141e+00 -4.492021560668945312e+00
3.002000000000000000e+03 6.261151885986328125e+01 -2.481053590774536133e+00 -7.467485666275024414e-01 1.251318645477294922e+01 3.529931545257568359e+00 -2.661148548126220703e+00
3.003000000000000000e+03 6.080215835571289062e+01 -9.989510536193847656e+00 5.474162101745605469e-01 7.673802852630615234e+00 2.466365814208984375e+00 4.567238807678222656e+00
3.004000000000000000e+03 5.913768768310546875e+01 -3.020648956298828125e+00 8.976941704750061035e-01 3.094803333282470703e+00 1.197749257087707520e+00 -3.277480125427246094e+00
3.005000000000000000e+03 6.538904571533203125e+01 -4.654503822326660156e+00 3.885666131973266602e+00 1.292563819885253906e+01 5.043391227722167969e+00 1.781530737876892090e+00
3.006000000000000000e+03 6.388665390014648438e+01 -9.132263183593750000e+00 7.673779726028442383e-01 1.530109405517578125e+01 4.820541381835937500e+00 -4.133893251419067383e-01
3.007000000000000000e+03 6.374057388305664062e+01 -3.728809595108032227e+00 6.418850421905517578e-01 1.564633274078369141e+01 4.886465549468994141e+00 2.123365253210067749e-01
3.008000000000000000e+03 6.323838424682617188e+01 -2.705910205841064453e+00 -6.144216060638427734e-01 1.356570053100585938e+01 3.885383605957031250e+00 -1.570184707641601562e+00
3.009000000000000000e+03 6.414400482177734375e+01 -3.527323246002197266e+00 7.518700957298278809e-01 1.478820800781250000e+01 4.662023544311523438e+00 5.893552899360656738e-01
3.010000000000000000e+03 6.377909469604492188e+01 -2.807770490646362305e+00 -2.713080346584320068e-01 1.395649528503417969e+01 4.105556488037109375e+00 -5.055083036422729492e-01
3.011000000000000000e+03 5.987470245361328125e+01 -2.571000337600708008e+00 7.658653855323791504e-01 5.124438762664794922e+00 1.767091274261474609e+00 -4.007843017578125000e+00
3.012000000000000000e+03 6.018204498291015625e+01 -9.739032745361328125e+00 1.003813624382019043e+00 5.432010173797607422e+00 1.930747151374816895e+00 4.285583972930908203e+00
3.013000000000000000e+03 5.516238021850585938e+01 -1.355488109588623047e+01 2.160922735929489136e-01 1.844208598136901855e+00 6.180902719497680664e-01 1.543974757194519043e+00
3.014000000000000000e+03 5.575178527832031250e+01 -1.331009864807128906e+01 2.590374350547790527e-01 2.041962146759033203e+00 6.902998089790344238e-01 1.734564542770385742e+00
3.015000000000000000e+03 5.768164062500000000e+01 -1.035933613777160645e+00 3.716183602809906006e-01 2.733165740966796875e+00 9.314352273941040039e-01 -2.478864669799804688e+00
3.016000000000000000e+03 5.819940567016601562e+01 -1.836584091186523438e+00 4.915357828140258789e-01 2.802536010742187500e+00 9.882215261459350586e-01 -2.705600023269653320e+00
3.017000000000000000e+03 5.838515090942382812e+01 -1.118281173706054688e+01 5.781584978103637695e-01 3.230792522430419922e+00 1.142685294151306152e+00 2.865157365798950195e+00
3.018000000000000000e+03 6.006764221191406250e+01 -1.057749176025390625e+01 6.048562526702880859e-01 5.746302604675292969e+00 1.905347585678100586e+00 3.973646879196166992e+00
3.019000000000000000e+03 5.795810317993164062e+01 -1.430454134941101074e+00 4.258019328117370605e-01 2.785683393478393555e+00 9.634456038475036621e-01 -2.604996919631958008e+00
3.020000000000000000e+03 5.780807876586914062e+01 2.577285468578338623e-01 2.311077713966369629e-01 3.497613668441772461e+00 1.118616461753845215e+00 -2.544075727462768555e+00
3.021000000000000000e+03 5.812831497192382812e+01 -1.179825592041015625e+01 4.863856732845306396e-01 3.246616125106811523e+00 1.119900584220886230e+00 2.723645448684692383e+00
3.022000000000000000e+03 2.943834495544433594e+01 8.804768323898315430e-01 -5.289623737335205078e-01 -7.179430127143859863e-02 -1.802269965410232544e-01 6.331443786621093750e-01
3.023000000000000000e+03 3.649486923217773438e+01 1.594684600830078125e+00 -7.088482975959777832e-01 7.082752883434295654e-02 -1.914062350988388062e-01 6.272525191307067871e-01
3.024000000000000000e+03 3.139354896545410156e+01 5.932585597038269043e-01 -6.223583221435546875e-01 -2.218584157526493073e-02 -1.933632493019104004e-01 6.352744698524475098e-01
3.025000000000000000e+03 2.897669219970703125e+01 1.839055299758911133e+00 -4.816279411315917969e-01 -9.915886819362640381e-02 -1.742360442876815796e-01 6.679955124855041504e-01
3.026000000000000000e+03 3.013523292541503906e+01 6.568422913551330566e-01 -5.696642398834228516e-01 -5.071416497230529785e-02 -1.861135214567184448e-01 6.292977333068847656e-01
3.027000000000000000e+03 2.772991561889648438e+01 3.607595205307006836e+00 -4.186556935310363770e-01 -1.710842400789260864e-01 -1.769219785928726196e-01 7.094710469245910645e-01
3.028000000000000000e+03 5.681946945190429688e+01 -1.317215442657470703e+01 3.197712898254394531e-01 2.673416852951049805e+00 8.979564309120178223e-01 2.139039278030395508e+00
3.029000000000000000e+03 5.732273864746093750e+01 -1.321657085418701172e+01 3.126603066921234131e-01 3.094920873641967773e+00 1.022274374961853027e+00 2.319344758987426758e+00
3.030000000000000000e+03 3.245634460449218750e+01 5.861402153968811035e-01 -6.673135757446289062e-01 -8.909931057132780552e-04 -2.004613727331161499e-01 6.366040706634521484e-01
3.031000000000000000e+03 3.004004478454589844e+01 2.791351795196533203e+00 -4.892013967037200928e-01 -7.146561145782470703e-02 -1.682001054286956787e-01 7.037725448608398438e-01
3.032000000000000000e+03 4.443465423583984375e+01 -1.484562683105468750e+01 -5.077867507934570312e-01 2.203496843576431274e-01 -8.623111248016357422e-02 -1.865118145942687988e-01
3.033000000000000000e+03 4.200001907348632812e+01 -1.430932140350341797e+01 -6.971297860145568848e-01 1.044007241725921631e-01 -1.778187155723571777e-01 -3.276254236698150635e-01
3.034000000000000000e+03 4.197977447509765625e+01 -1.562271690368652344e+01 -4.561534523963928223e-01 1.613608598709106445e-01 -8.843777328729629517e-02 -2.962281107902526855e-01
3.035000000000000000e+03 4.665522766113281250e+01 -1.512506198883056641e+01 -3.518387377262115479e-01 3.555824756622314453e-01 1.123121357522904873e-03 5.627489183098077774e-03
3.036000000000000000e+03 4.050014114379882812e+01 -1.575835323333740234e+01 -4.694503545761108398e-01 1.163026094436645508e-01 -1.059443205595016479e-01 -3.566244840621948242e-01
3.037000000000000000e+03 3.917303848266601562e+01 -1.440254211425781250e+01 -7.204217910766601562e-01 4.230636358261108398e-02 -2.034346312284469604e-01 -4.149270653724670410e-01
3.038000000000000000e+03 4.316807937622070312e+01 -1.430884361267089844e+01 -6.783940792083740234e-01 1.397670656442642212e-01 -1.615881025791168213e-01 -2.779336273670196533e-01
3.039000000000000000e+03 5.184886550903320312e+01 -1.450072479248046875e+01 -2.274021133780479431e-02 9.631267189979553223e-01 2.821159362792968750e-01 7.061575651168823242e-01
3.040000000000000000e+03 4.332400512695312500e+01 -1.537166881561279297e+01 -4.556607604026794434e-01 2.011203169822692871e-01 -7.636213302612304688e-02 -2.314484715461730957e-01
3.041000000000000000e+03 4.123853302001953125e+01 -1.496395015716552734e+01 -5.959481000900268555e-01 1.075112298130989075e-01 -1.465310752391815186e-01 -3.436209857463836670e-01
3.042000000000000000e+03 3.546441268920898438e+01 -1.487735366821289062e+01 -6.331553459167480469e-01 -5.746615119278430939e-03 -1.916705816984176636e-01 -4.755054712295532227e-01
3.043000000000000000e+03 5.011812973022460938e+01 -1.636629295349121094e+01 9.551285207271575928e-02 9.362148046493530273e-01 3.095183074474334717e-01 5.458624958992004395e-01
3.044000000000000000e+03 3.427362442016601562e+01 1.370428204536437988e+00 -6.749461889266967773e-01 3.317008912563323975e-02 -1.925328373908996582e-01 6.544877290725708008e-01
3.045000000000000000e+03 3.651269912719726562e+01 8.491973280906677246e-01 -7.832201123237609863e-01 5.442379415035247803e-02 -2.186388969421386719e-01 6.104224920272827148e-01
3.046000000000000000e+03 3.572284698486328125e+01 2.345289945602416992e+00 -6.206603646278381348e-01 7.149893790483474731e-02 -1.647484302520751953e-01 6.541525721549987793e-01
3.047000000000000000e+03 3.616378402709960938e+01 -1.529951190948486328e+01 -5.812222957611083984e-01 8.802785538136959076e-03 -1.717258542776107788e-01 -4.659972786903381348e-01
3.048000000000000000e+03 3.783601379394531250e+01 1.799137353897094727e+00 -6.959041357040405273e-01 9.939645230770111084e-02 -1.789522916078567505e-01 5.992143154144287109e-01
3.049000000000000000e+03 3.559907913208007812e+01 -1.655687713623046875e+01 -4.171167612075805664e-01 1.857881806790828705e-02 -1.195613890886306763e-01 -4.733739793300628662e-01
3.050000000000000000e+03 3.724908065795898438e+01 9.141530990600585938e-01 -7.892404198646545410e-01 6.811108440160751343e-02 -2.163388133049011230e-01 6.022643446922302246e-01
3.051000000000000000e+03 3.963027954101562500e+01 1.262405514717102051e+00 -7.787460684776306152e-01 1.088359728455543518e-01 -2.009730339050292969e-01 5.439310073852539062e-01
3.052000000000000000e+03 2.910441398620605469e+01 -1.587202835083007812e+01 -4.670014679431915283e-01 -3.362082317471504211e-02 -1.501866877079010010e-01 -5.087713599205017090e-01
3.053000000000000000e+03 2.755977058410644531e+01 -1.433197593688964844e+01 -5.604822039604187012e-01 -2.423214167356491089e-02 -1.754143089056015015e-01 -4.807112812995910645e-01
3.054000000000000000e+03 3.295638656616210938e+01 -1.479391193389892578e+01 -6.205186247825622559e-01 -2.485939301550388336e-02 -1.936134099960327148e-01 -4.933020770549774170e-01
3.055000000000000000e+03 3.810473251342773438e+01 -1.640879631042480469e+01 -4.138003289699554443e-01 6.794687360525131226e-02 -1.037560403347015381e-01 -4.256637692451477051e-01
3.056000000000000000e+03 4.088312530517578125e+01 1.681878566741943359e+00 -7.135013937950134277e-01 1.398442685604095459e-01 -1.720971316099166870e-01 4.967978000640869141e-01
3.057000000000000000e+03 4.454715347290039062e+01 1.452415227890014648e+00 -6.880794763565063477e-01 2.324527353048324585e-01 -1.366880238056182861e-01 3.014161884784698486e-01
3.058000000000000000e+03 5.106772232055664062e+01 9.263164997100830078e-01 -3.126201033592224121e-01 6.935722827911376953e-01 1.142856702208518982e-01 -4.607664644718170166e-01
3.059000000000000000e+03 4.462808990478515625e+01 8.932520151138305664e-01 -7.909085750579833984e-01 1.981700211763381958e-01 -1.778215616941452026e-01 3.118808567523956299e-01
3.060000000000000000e+03 4.532002639770507812e+01 1.012710332870483398e+00 -7.418797612190246582e-01 2.319903224706649780e-01 -1.529668271541595459e-01 2.600432038307189941e-01
3.061000000000000000e+03 4.956864929199218750e+01 2.066280364990234375e+00 -2.437553405761718750e-01 6.734156012535095215e-01 1.288980692625045776e-01 -3.045290112495422363e-01
3.062000000000000000e+03 4.683192443847656250e+01 1.348441123962402344e+00 -5.951033234596252441e-01 3.324047625064849854e-01 -7.880955934524536133e-02 1.022354140877723694e-01
3.063000000000000000e+03 4.856566619873046875e+01 1.366739034652709961e+00 -4.666188061237335205e-01 4.639117717742919922e-01 -8.121074060909450054e-04 -9.643346071243286133e-02
3.064000000000000000e+03 5.276855468750000000e+01 9.313129186630249023e-01 -1.180720925331115723e-01 1.068778038024902344e+00 2.852117717266082764e-01 -8.580983281135559082e-01
3.065000000000000000e+03 3.356309127807617188e+01 1.215332627296447754e+00 -6.657558679580688477e-01 1.938734389841556549e-02 -1.939105540513992310e-01 6.547122001647949219e-01
3.066000000000000000e+03 3.198321533203125000e+01 1.050484538078308105e+00 -6.264062523841857910e-01 -9.232619777321815491e-03 -1.906916648149490356e-01 6.526874303817749023e-01
3.067000000000000000e+03 2.397496032714843750e+01 -1.617680931091308594e+01 -4.164204299449920654e-01 -4.708316549658775330e-02 -1.390510797500610352e-01 -4.684590697288513184e-01
3.068000000000000000e+03 5.509983062744140625e+01 9.845518469810485840e-01 1.474554091691970825e-01 1.897601246833801270e+00 6.135169863700866699e-01 -1.553150892257690430e+00
3.069000000000000000e+03 3.019676971435546875e+01 -1.658461189270019531e+01 -4.081834256649017334e-01 -2.721522189676761627e-02 -1.306196004152297974e-01 -5.155820250511169434e-01
3.070000000000000000e+03 2.335791015625000000e+01 -1.937427902221679688e+01 -2.434808313846588135e-01 -1.013092175126075745e-01 -1.034370139241218567e-01 -4.517998993396759033e-01
3.071000000000000000e+03 2.690293693542480469e+01 2.392530918121337891e+00 -4.011357724666595459e-01 -1.932914257049560547e-01 -1.783281564712524414e-01 6.571560502052307129e-01
3.072000000000000000e+03 5.240499496459960938e+01 1.972907423973083496e+00 -2.189864031970500946e-02 1.213549852371215820e+00 3.574953675270080566e-01 -8.486589789390563965e-01
3.073000000000000000e+03 5.349380111694335938e+01 -1.501601409912109375e+01 1.842313557863235474e-01 1.580690145492553711e+00 5.294764637947082520e-01 1.152247309684753418e+00
3.074000000000000000e+03 5.631549072265625000e+01 -1.367828369140625000e+01 2.860230207443237305e-01 2.511071920394897461e+00 8.391284346580505371e-01 1.966696739196777344e+00
3.075000000000000000e+03 4.260356521606445312e+01 1.920927047729492188e+00 -6.530900001525878906e-01 1.925870329141616821e-01 -1.381508857011795044e-01 4.079316258430480957e-01
3.076000000000000000e+03 4.172236633300781250e+01 1.877470493316650391e+00 -6.700180172920227051e-01 1.767485290765762329e-01 -1.479808539152145386e-01 4.564908146858215332e-01
3.077000000000000000e+03 5.633437728881835938e+01 1.102669358253479004e+00 1.933001130819320679e-01 2.638613224029541016e+00 8.495739698410034180e-01 -1.981579899787902832e+00
3.078000000000000000e+03 5.567053222656250000e+01 1.126742243766784668e+00 1.906239837408065796e-01 2.230774402618408203e+00 7.264195084571838379e-01 -1.752066135406494141e+00
3.079000000000000000e+03 2.630409812927246094e+01 -1.526404666900634766e+01 -4.886806905269622803e-01 -2.724575996398925781e-02 -1.547779291868209839e-01 -4.909357130527496338e-01
3.080000000000000000e+03 7.103710174560546875e+01 -1.450258541107177734e+01 -2.174057513475418091e-01 8.707141876220703125e+00 2.546921014785766602e+00 -1.168303132057189941e+00
3.081000000000000000e+03 5.629846572875976562e+01 -1.318684959411621094e+01 2.984861135482788086e-01 2.333842992782592773e+00 7.896987199783325195e-01 1.933959960937500000e+00
3.082000000000000000e+03 7.090676116943359375e+01 -1.266186332702636719e+01 2.207935303449630737e-01 8.778450012207031250e+00 2.699773073196411133e+00 -1.293457388877868652e+00
3.083000000000000000e+03 7.014105987548828125e+01 -1.365782642364501953e+01 -1.122896298766136169e-01 9.048645973205566406e+00 2.680906772613525391e+00 -1.200983524322509766e+00
3.084000000000000000e+03 3.002022552490234375e+01 2.164052248001098633e+00 -5.077617764472961426e-01 -6.634797155857086182e-02 -1.722329258918762207e-01 6.856773495674133301e-01
3.085000000000000000e+03 2.646244239807128906e+01 1.915238022804260254e+00 -3.830981254577636719e-01 -2.007968276739120483e-01 -1.751684844493865967e-01 6.269232034683227539e-01
3.086000000000000000e+03 2.613396453857421875e+01 7.881319522857666016e-01 -3.685298562049865723e-01 -1.879654824733734131e-01 -1.669486016035079956e-01 5.682520866394042969e-01
3.087000000000000000e+03 3.307236862182617188e+01 -1.582909870147705078e+01 -5.043100118637084961e-01 -1.438246294856071472e-02 -1.556077301502227783e-01 -5.003542900085449219e-01
3.088000000000000000e+03 4.478341674804687500e+01 2.236570596694946289e+00 -5.288122296333312988e-01 3.080527484416961670e-01 -6.622785329818725586e-02 2.430236041545867920e-01
3.089000000000000000e+03 4.768159103393554688e+01 1.414112448692321777e+00 -5.290291905403137207e-01 3.865492641925811768e-01 -4.274396970868110657e-02 1.042847149074077606e-02
3.090000000000000000e+03 4.864271926879882812e+01 2.216099023818969727e+00 -2.935143411159515381e-01 5.922119617462158203e-01 8.960928022861480713e-02 -1.805941313505172729e-01
3.091000000000000000e+03 4.665022277832031250e+01 2.270388126373291016e+00 -4.192230403423309326e-01 4.259711205959320068e-01 2.024417743086814880e-03 6.262441724538803101e-02
3.092000000000000000e+03 2.536270904541015625e+01 2.425912141799926758e+00 -3.410490155220031738e-01 -2.694627940654754639e-01 -1.831535398960113525e-01 6.253253221511840820e-01
3.093000000000000000e+03 2.594592285156250000e+01 1.487870335578918457e+00 -3.595879077911376953e-01 -2.191472798585891724e-01 -1.736205518245697021e-01 5.993970036506652832e-01
3.094000000000000000e+03 2.411425590515136719e+01 5.386983156204223633e-01 -2.567598223686218262e-01 -2.600579261779785156e-01 -1.550453305244445801e-01 4.762415885925292969e-01
3.095000000000000000e+03 5.384699630737304688e+01 1.446092009544372559e+00 6.014740094542503357e-02 1.488682508468627930e+00 4.646489918231964111e-01 -1.176180005073547363e+00
3.096000000000000000e+03 5.487662124633789062e+01 2.547562122344970703e-01 4.821197688579559326e-02 1.514532566070556641e+00 4.688233435153961182e-01 -1.364115357398986816e+00
3.097000000000000000e+03 7.005173492431640625e+01 -1.052443504333496094e+01 1.006279587745666504e+00 9.055484771728515625e+00 3.018529176712036133e+00 -1.309346437454223633e+00
3.098000000000000000e+03 7.078205108642578125e+01 -1.848682212829589844e+01 -6.177212595939636230e-01 8.351373672485351562e+00 2.320095777511596680e+00 -7.045612931251525879e-01
3.099000000000000000e+03 6.800343322753906250e+01 -2.251858901977539062e+01 -6.937665939331054688e-01 7.738856792449951172e+00 2.113527059555053711e+00 -2.369667403399944305e-02
3.100000000000000000e+03 7.114832305908203125e+01 -7.496884822845458984e+00 1.830673575401306152e+00 8.274212837219238281e+00 3.031465768814086914e+00 -4.511460959911346436e-01
3.101000000000000000e+03 6.956290435791015625e+01 3.003808498382568359e+00 -6.166563630104064941e-01 8.926903724670410156e+00 2.493074178695678711e+00 8.293226361274719238e-01
3.102000000000000000e+03 3.535781097412109375e+01 -1.567522525787353516e+01 -5.212417840957641602e-01 5.846433341503143311e-03 -1.546186059713363647e-01 -4.800354540348052979e-01
3.103000000000000000e+03 3.449909591674804688e+01 -1.476963710784912109e+01 -6.437258124351501465e-01 -1.421313360333442688e-02 -1.973816901445388794e-01 -4.818631112575531006e-01
3.104000000000000000e+03 7.006472015380859375e+01 -1.210398674011230469e+01 3.797996938228607178e-01 9.127528190612792969e+00 2.852198362350463867e+00 -1.335330367088317871e+00
3.105000000000000000e+03 7.046699523925781250e+01 -3.674524307250976562e+00 1.596762180328369141e+00 8.693410873413085938e+00 3.087051868438720703e+00 1.007801175117492676e+00
3.106000000000000000e+03 7.109645080566406250e+01 -5.065454483032226562e+00 1.792576074600219727e+00 8.301122665405273438e+00 3.028109550476074219e+00 5.178220868110656738e-01
3.107000000000000000e+03 6.711555480957031250e+01 1.264944076538085938e+01 -5.797803401947021484e-01 7.190077781677246094e+00 1.983089208602905273e+00 -2.555416822433471680e-01
3.108000000000000000e+03 6.812371063232421875e+01 1.090786552429199219e+01 -6.603176593780517578e-01 7.554381370544433594e+00 2.068219184875488281e+00 -8.735098689794540405e-02
3.109000000000000000e+03 7.067121124267578125e+01 -1.515674471855163574e+00 6.618041396141052246e-01 8.824577331542968750e+00 2.845914363861083984e+00 1.302729249000549316e+00
3.110000000000000000e+03 7.112308502197265625e+01 -8.561915159225463867e-01 4.267060160636901855e-01 8.662083625793457031e+00 2.726637125015258789e+00 1.285669088363647461e+00
3.111000000000000000e+03 6.589938354492187500e+01 -4.382542133331298828e+00 3.330392599105834961e+00 1.211568832397460938e+01 4.633824348449707031e+00 1.661635518074035645e+00
3.112000000000000000e+03 7.073983001708984375e+01 -1.187705135345458984e+01 4.520321488380432129e-01 8.828831672668457031e+00 2.784259319305419922e+00 -1.310298919677734375e+00
3.113000000000000000e+03 6.989514160156250000e+01 6.386075019836425781e+00 -7.384996414184570312e-01 8.327401161193847656e+00 2.276670455932617188e+00 4.883648157119750977e-01
3.114000000000000000e+03 7.091588592529296875e+01 -8.292365074157714844e+00 1.731310606002807617e+00 8.429190635681152344e+00 3.048150300979614258e+00 -7.473853826522827148e-01
3.115000000000000000e+03 6.763806152343750000e+01 9.809990882873535156e+00 -7.497770190238952637e-01 7.669587135314941406e+00 2.075942993164062500e+00 -1.081103533506393433e-01
3.116000000000000000e+03 7.097709655761718750e+01 -1.554067516326904297e+01 -3.964626193046569824e-01 8.656090736389160156e+00 2.477888345718383789e+00 -1.055792331695556641e+00
3.117000000000000000e+03 6.684871673583984375e+01 -2.419508934020996094e+01 -5.958583950996398926e-01 7.312061786651611328e+00 2.014860868453979492e+00 1.850575804710388184e-01
3.118000000000000000e+03 6.842521667480468750e+01 -2.582146263122558594e+01 -4.801592826843261719e-01 7.344467639923095703e+00 2.059292554855346680e+00 3.258484229445457458e-02
3.119000000000000000e+03 2.193892097473144531e+01 1.980078697204589844e+01 -2.041817158460617065e-01 -6.164876222610473633e-01 -2.462007999420166016e-01 3.373985886573791504e-01
3.120000000000000000e+03 2.665694046020507812e+01 7.679890155792236328e+00 -4.068433344364166260e-01 -2.688859999179840088e-01 -2.027188092470169067e-01 7.335487008094787598e-01
3.121000000000000000e+03 2.731872558593750000e+01 9.486865997314453125e+00 -3.926702141761779785e-01 -2.017870694398880005e-01 -1.783371865749359131e-01 6.975220441818237305e-01
3.122000000000000000e+03 6.709535217285156250e+01 1.746040344238281250e+01 -2.880918085575103760e-01 6.733364582061767578e+00 1.933581829071044922e+00 -2.797182500362396240e-01
3.123000000000000000e+03 6.883525085449218750e+01 1.606161308288574219e+01 -3.523250222206115723e-01 7.149707317352294922e+00 2.039214611053466797e+00 -1.562500298023223877e-01
3.124000000000000000e+03 2.675869178771972656e+01 6.813832759857177734e+00 -3.998517990112304688e-01 -2.473197579383850098e-01 -1.941514760255813599e-01 7.386170029640197754e-01
3.125000000000000000e+03 2.408126831054687500e+01 -1.791284179687500000e+01 -3.229013085365295410e-01 -7.085698843002319336e-02 -1.181274875998497009e-01 -4.709539413452148438e-01
3.126000000000000000e+03 6.900445556640625000e+01 1.359015560150146484e+01 -4.779143929481506348e-01 7.368754863739013672e+00 2.067252159118652344e+00 -7.836767286062240601e-02
3.127000000000000000e+03 6.992671203613281250e+01 -2.220873260498046875e+01 -6.065449714660644531e-01 7.935317993164062500e+00 2.198632001876831055e+00 -2.972432076930999756e-01
3.128000000000000000e+03 7.013965606689453125e+01 -2.031960868835449219e+01 -6.709713935852050781e-01 8.190244674682617188e+00 2.255782127380371094e+00 -4.747163951396942139e-01
3.129000000000000000e+03 7.149255371093750000e+01 9.153636693954467773e-01 -2.880548499524593353e-02 8.554181098937988281e+00 2.557612657546997070e+00 1.214091181755065918e+00
3.130000000000000000e+03 7.058870697021484375e+01 8.957310765981674194e-02 1.374514847993850708e-01 8.897849082946777344e+00 2.710590124130249023e+00 1.273781657218933105e+00
3.131000000000000000e+03 2.549178504943847656e+01 1.465423011779785156e+01 -3.640451133251190186e-01 -3.180274963378906250e-01 -2.046217769384384155e-01 5.223214626312255859e-01
3.132000000000000000e+03 2.599995422363281250e+01 1.218418788909912109e+01 -4.098204374313354492e-01 -2.974537909030914307e-01 -2.121822685003280640e-01 6.212347745895385742e-01
3.133000000000000000e+03 6.835278320312500000e+01 -2.479260444641113281e+01 -5.549690127372741699e-01 7.503096103668212891e+00 2.084438085556030273e+00 7.823326624929904938e-03
3.134000000000000000e+03 6.628237915039062500e+01 -2.897923088073730469e+01 -2.875065505504608154e-01 6.658106327056884766e+00 1.911179900169372559e+00 2.238257229328155518e-01
3.135000000000000000e+03 1.253910350799560547e+01 -2.762065505981445312e+01 8.403968065977096558e-02 -3.987320661544799805e-01 -9.440771490335464478e-02 -2.985259890556335449e-01
3.136000000000000000e+03 2.934828186035156250e+01 9.849905967712402344e+00 -3.329089879989624023e-01 -7.017900794744491577e-02 -1.209264025092124939e-01 6.721124053001403809e-01
3.137000000000000000e+03 6.810601043701171875e+01 -2.133964347839355469e+01 -7.575731277465820312e-01 7.941110134124755859e+00 2.155061006546020508e+00 -9.056203812360763550e-02
3.138000000000000000e+03 2.044160079956054688e+01 2.007859611511230469e+01 -2.372061461210250854e-01 -7.993647456169128418e-01 -3.109712898731231689e-01 3.494592905044555664e-01
3.139000000000000000e+03 2.027679252624511719e+01 2.563761138916015625e+01 1.976249068975448608e-01 -6.537771821022033691e-01 -1.368456929922103882e-01 2.655224204063415527e-01
3.140000000000000000e+03 1.362272262573242188e+01 -2.639735221862792969e+01 6.640065461397171021e-02 -3.899600207805633545e-01 -9.706781059503555298e-02 -3.132142424583435059e-01
3.141000000000000000e+03 6.789676666259765625e+01 2.297287940979003906e+01 -8.278183639049530029e-02 6.656921863555908203e+00 1.972241997718811035e+00 -2.603287696838378906e-01
3.142000000000000000e+03 7.100228118896484375e+01 2.358360862731933594e+01 -6.333065032958984375e-02 7.188115596771240234e+00 2.137435436248779297e+00 -1.692580729722976685e-01
3.143000000000000000e+03 6.594364166259765625e+01 -3.117175483703613281e+01 -1.746309697628021240e-01 6.440442562103271484e+00 1.879743456840515137e+00 2.041687816381454468e-01
3.144000000000000000e+03 1.554783439636230469e+01 2.705839347839355469e+01 2.107481807470321655e-01 -8.313170671463012695e-01 -1.861706674098968506e-01 3.863998651504516602e-01
3.145000000000000000e+03 1.573185920715332031e+01 2.557364082336425781e+01 1.500773131847381592e-01 -8.683964014053344727e-01 -2.154957205057144165e-01 4.094099700450897217e-01
3.146000000000000000e+03 9.220653533935546875e+00 2.405093193054199219e+01 -1.063542813062667847e-01 -5.781987309455871582e-01 -2.053658962249755859e-01 5.190007686614990234e-01
3.147000000000000000e+03 6.108203125000000000e+01 -2.914710760116577148e+00 3.644818067550659180e-01 8.725711822509765625e+00 2.727058172225952148e+00 -4.699055194854736328e+00
3.148000000000000000e+03 6.952954101562500000e+01 -1.098710727691650391e+01 8.061649799346923828e-01 9.334116935729980469e+00 3.042084693908691406e+00 -1.363854765892028809e+00
3.149000000000000000e+03 6.576512908935546875e+01 -7.172273635864257812e+00 5.331854343414306641e+00 1.190055370330810547e+01 5.169722557067871094e+00 -1.018220305442810059e+00
3.150000000000000000e+03 6.521279144287109375e+01 -8.233516693115234375e+00 3.661869525909423828e+00 1.335523033142089844e+01 5.105129718780517578e+00 -1.880111694335937500e+00
3.151000000000000000e+03 6.457856750488281250e+01 -8.799525260925292969e+00 2.097954750061035156e+00 1.448400306701660156e+01 4.974587440490722656e+00 -1.493159532546997070e+00
3.152000000000000000e+03 6.544538116455078125e+01 -5.360294818878173828e+00 5.266858577728271484e+00 1.252664089202880859e+01 5.338049888610839844e+00 1.436053276062011719e+00
3.153000000000000000e+03 6.506560516357421875e+01 -5.437806129455566406e+00 5.736517429351806641e+00 1.319524002075195312e+01 5.679527282714843750e+00 1.515358686447143555e+00
3.154000000000000000e+03 6.191931152343750000e+01 -9.846091270446777344e+00 -2.308264970779418945e-01 1.163282108306884766e+01 3.420598268508911133e+00 4.010262966156005859e+00
3.155000000000000000e+03 6.071703720092773438e+01 -2.864113569259643555e+00 6.113628745079040527e-01 7.259739398956298828e+00 2.361330747604370117e+00 -4.572440624237060547e+00
3.156000000000000000e+03 6.326628112792968750e+01 -9.400012969970703125e+00 -1.092015057802200317e-01 1.510634517669677734e+01 4.499143123626708984e+00 1.088551163673400879e+00
3.157000000000000000e+03 6.116035842895507812e+01 -9.817444801330566406e+00 3.920207619667053223e-01 8.874699592590332031e+00 2.780015945434570312e+00 4.638546466827392578e+00
3.158000000000000000e+03 6.160581207275390625e+01 -1.051456642150878906e+01 -2.888590395450592041e-01 9.895490646362304688e+00 2.881989479064941406e+00 3.861757993698120117e+00
3.159000000000000000e+03 6.572283935546875000e+01 -6.563749313354492188e+00 5.842228889465332031e+00 1.182051086425781250e+01 5.298821926116943359e+00 -2.627021670341491699e-01
3.160000000000000000e+03 5.960936355590820312e+01 -1.032717227935791016e+01 7.997448444366455078e-01 4.575050354003906250e+00 1.612438559532165527e+00 3.719429969787597656e+00
3.161000000000000000e+03 5.926684570312500000e+01 -1.120944976806640625e+01 5.182096958160400391e-01 4.540887355804443359e+00 1.517729043960571289e+00 3.393961429595947266e+00
3.162000000000000000e+03 5.895606613159179688e+01 -2.535820484161376953e+00 7.441796660423278809e-01 3.295747518539428711e+00 1.211978197097778320e+00 -3.210972070693969727e+00
3.163000000000000000e+03 6.608534240722656250e+01 -3.932284593582153320e+00 2.591033935546875000e+00 1.195236492156982422e+01 4.363019466400146484e+00 1.648710727691650391e+00
3.164000000000000000e+03 6.272941589355468750e+01 -2.959280252456665039e+00 -5.947600007057189941e-01 1.361658191680908203e+01 3.906546354293823242e+00 -2.523613929748535156e+00
3.165000000000000000e+03 6.506925964355468750e+01 -4.235805988311767578e+00 2.960373401641845703e+00 1.356870841979980469e+01 4.958724498748779297e+00 1.787244915962219238e+00
3.166000000000000000e+03 5.723674392700195312e+01 -1.381311798095703125e+01 2.548424303531646729e-01 3.227908849716186523e+00 1.044825315475463867e+00 2.262425661087036133e+00
3.167000000000000000e+03 5.876958084106445312e+01 -2.080747365951538086e+00 6.016567349433898926e-01 3.381555318832397461e+00 1.194963574409484863e+00 -3.088642835617065430e+00
3.168000000000000000e+03 5.914024353027343750e+01 -1.903914451599121094e+00 5.824909806251525879e-01 4.071519851684570312e+00 1.396203279495239258e+00 -3.378257274627685547e+00
3.169000000000000000e+03 5.805256652832031250e+01 -7.786140441894531250e-01 3.486686050891876221e-01 3.275070428848266602e+00 1.087121725082397461e+00 -2.686772108078002930e+00
3.170000000000000000e+03 5.696764755249023438e+01 4.187354147434234619e-01 2.435453534126281738e-01 2.841197490692138672e+00 9.254228472709655762e-01 -2.225220441818237305e+00
3.171000000000000000e+03 5.884542083740234375e+01 -1.110809898376464844e+01 5.858898162841796875e-01 3.767042875289916992e+00 1.305879831314086914e+00 3.125682115554809570e+00
3.172000000000000000e+03 2.539447402954101562e+01 1.318028092384338379e+00 -3.288969695568084717e-01 -2.353299260139465332e-01 -1.692680716514587402e-01 5.617536902427673340e-01
3.173000000000000000e+03 2.716235160827636719e+01 1.489994525909423828e+00 -4.151602089405059814e-01 -1.628789901733398438e-01 -1.734117716550827026e-01 6.252255439758300781e-01
3.174000000000000000e+03 5.486370468139648438e+01 -1.464137268066406250e+01 2.328753173351287842e-01 2.022204875946044922e+00 6.765240430831909180e-01 1.500835299491882324e+00
3.175000000000000000e+03 3.732256317138671875e+01 2.261208534240722656e+00 -6.433947086334228516e-01 9.976925700902938843e-02 -1.630876362323760986e-01 6.174516677856445312e-01
3.176000000000000000e+03 3.719583892822265625e+01 1.608450293540954590e+00 -7.178015112876892090e-01 7.606719434261322021e-02 -1.925203055143356323e-01 6.126751303672790527e-01
3.177000000000000000e+03 5.813654327392578125e+01 -1.238866996765136719e+01 3.902952969074249268e-01 3.591598987579345703e+00 1.194568276405334473e+00 2.760340690612792969e+00
3.178000000000000000e+03 2.870138168334960938e+01 1.110882878303527832e+00 -4.886017441749572754e-01 -9.985177218914031982e-02 -1.765360534191131592e-01 6.336789131164550781e-01
3.179000000000000000e+03 2.973064994812011719e+01 1.535418272018432617e+00 -5.229125618934631348e-01 -6.786816567182540894e-02 -1.772342175245285034e-01 6.645582914352416992e-01
3.180000000000000000e+03 3.078017616271972656e+01 2.037220239639282227e+00 -5.374086499214172363e-01 -4.221281409263610840e-02 -1.738864332437515259e-01 6.856871247291564941e-01
3.181000000000000000e+03 2.852618598937988281e+01 3.947595834732055664e+00 -4.330453574657440186e-01 -1.358171105384826660e-01 -1.706587374210357666e-01 7.227985262870788574e-01
3.182000000000000000e+03 5.676284027099609375e+01 -1.372893047332763672e+01 2.868906557559967041e-01 2.832941055297851562e+00 9.359495043754577637e-01 2.109580755233764648e+00
3.183000000000000000e+03 3.148633766174316406e+01 1.666477799415588379e+00 -5.713624954223632812e-01 -2.308297343552112579e-02 -1.783336400985717773e-01 6.763584613800048828e-01
3.184000000000000000e+03 2.756139945983886719e+01 5.470900535583496094e+00 -4.080087840557098389e-01 -2.004450559616088867e-01 -1.825361400842666626e-01 7.367500662803649902e-01
3.185000000000000000e+03 4.747584915161132812e+01 -1.543945693969726562e+01 -2.247520089149475098e-01 4.621836245059967041e-01 7.122948765754699707e-02 1.193589344620704651e-01
3.186000000000000000e+03 4.129307174682617188e+01 -1.645018005371093750e+01 -3.434954583644866943e-01 1.709300428628921509e-01 -5.176962167024612427e-02 -3.047895133495330811e-01
3.187000000000000000e+03 5.065064239501953125e+01 -1.498850154876708984e+01 -5.601286515593528748e-02 8.119480609893798828e-01 2.267805635929107666e-01 5.257948637008666992e-01
3.188000000000000000e+03 5.189887237548828125e+01 -1.629938888549804688e+01 1.975114196538925171e-01 1.349057078361511230e+00 4.639705419540405273e-01 8.629106879234313965e-01
3.189000000000000000e+03 4.219818115234375000e+01 -1.709634780883789062e+01 -2.180255800485610962e-01 2.471915036439895630e-01 8.749776519834995270e-03 -2.361448705196380615e-01
3.190000000000000000e+03 4.922779464721679688e+01 -1.668570709228515625e+01 8.557969331741333008e-02 8.592334985733032227e-01 2.834439575672149658e-01 4.309915304183959961e-01
3.191000000000000000e+03 3.501103591918945312e+01 1.482545375823974609e+00 -6.851807236671447754e-01 4.623790830373764038e-02 -1.916828453540802002e-01 6.489027142524719238e-01
3.192000000000000000e+03 3.219259643554687500e+01 2.260976076126098633e+00 -5.642851591110229492e-01 -4.933974705636501312e-03 -1.707657426595687866e-01 6.905715465545654297e-01
3.193000000000000000e+03 4.895587921142578125e+01 -1.563624191284179688e+01 -9.463313966989517212e-02 6.457458138465881348e-01 1.653337925672531128e-01 3.088411092758178711e-01
3.194000000000000000e+03 4.798532104492187500e+01 -1.607909584045410156e+01 -9.298694133758544922e-02 5.847676992416381836e-01 1.475342363119125366e-01 2.191705554723739624e-01
3.195000000000000000e+03 4.607892990112304688e+01 -1.465202236175537109e+01 -4.668871760368347168e-01 2.855924963951110840e-01 -5.438840389251708984e-02 -6.612231582403182983e-02
3.196000000000000000e+03 4.815328216552734375e+01 -1.716575241088867188e+01 7.449039071798324585e-02 7.461237311363220215e-01 2.461842447519302368e-01 3.088030219078063965e-01
3.197000000000000000e+03 3.750286483764648438e+01 3.039760589599609375e+00 -5.676537156105041504e-01 1.258776932954788208e-01 -1.325328052043914795e-01 6.143462061882019043e-01
3.198000000000000000e+03 3.430204772949218750e+01 -1.575099468231201172e+01 -5.132529139518737793e-01 -8.592036552727222443e-03 -1.565534770488739014e-01 -4.913430511951446533e-01
3.199000000000000000e+03 3.861677932739257812e+01 2.065245151519775391e+00 -6.712986230850219727e-01 1.142387390136718750e-01 -1.671179682016372681e-01 5.811871886253356934e-01
3.200000000000000000e+03 3.261357498168945312e+01 1.565399646759033203e+00 -6.168890595436096191e-01 3.945764619857072830e-03 -1.838829964399337769e-01 6.700531840324401855e-01
3.201000000000000000e+03 4.428363037109375000e+01 1.883350968360900879e+00 -6.229501962661743164e-01 2.495855987071990967e-01 -1.120093688368797302e-01 3.043584227561950684e-01
3.202000000000000000e+03 4.380064392089843750e+01 2.282494783401489258e+00 -5.654914379119873047e-01 2.625878155231475830e-01 -9.087109565734863281e-02 3.224951922893524170e-01
3.203000000000000000e+03 4.513153076171875000e+01 1.663442730903625488e+00 -6.217065453529357910e-01 2.725703716278076172e-01 -1.047408580780029297e-01 2.444016933441162109e-01
3.204000000000000000e+03 4.476855850219726562e+01 3.273651361465454102e+00 -3.621815443038940430e-01 3.898520171642303467e-01 8.301141671836376190e-03 2.081433236598968506e-01
3.205000000000000000e+03 4.973468399047851562e+01 2.885165452957153320e+00 -1.178253963589668274e-01 8.226553797721862793e-01 2.114489823579788208e-01 -3.975488543510437012e-01
3.206000000000000000e+03 4.879623413085937500e+01 3.049846410751342773e+00 -1.649883836507797241e-01 7.310968041419982910e-01 1.698325127363204956e-01 -2.604720294475555420e-01
3.207000000000000000e+03 5.130261611938476562e+01 1.643797039985656738e+00 -1.685677021741867065e-01 8.779078722000122070e-01 2.128020524978637695e-01 -5.844836235046386719e-01
3.208000000000000000e+03 5.067852020263671875e+01 2.670778751373291016e+00 -7.134722918272018433e-02 9.764720797538757324e-01 2.715374529361724854e-01 -5.412459969520568848e-01
3.209000000000000000e+03 5.163489913940429688e+01 2.402345418930053711e+00 -2.836693637073040009e-02 1.133212924003601074e+00 3.314538002014160156e-01 -7.323489785194396973e-01
3.210000000000000000e+03 5.743553924560546875e+01 4.301367104053497314e-01 2.369047403335571289e-01 3.207965850830078125e+00 1.033461213111877441e+00 -2.395581722259521484e+00
3.211000000000000000e+03 4.516774368286132812e+01 -1.588123703002929688e+01 -2.851286828517913818e-01 3.345421850681304932e-01 1.482405699789524078e-02 -8.059342950582504272e-02
3.212000000000000000e+03 4.618145751953125000e+01 -1.607618141174316406e+01 -1.955044716596603394e-01 4.238624274730682373e-01 6.850738823413848877e-02 2.280545048415660858e-02
3.213000000000000000e+03 2.744410324096679688e+01 -1.594948673248291016e+01 -4.545175433158874512e-01 -2.999637834727764130e-02 -1.453541815280914307e-01 -5.046854615211486816e-01
3.214000000000000000e+03 3.156904792785644531e+01 -1.704043388366699219e+01 -3.729170560836791992e-01 -1.930763013660907745e-02 -1.176673993468284607e-01 -5.116009712219238281e-01
3.215000000000000000e+03 4.043796157836914062e+01 3.438624143600463867e+00 -4.801950752735137939e-01 2.193881422281265259e-01 -7.824208587408065796e-02 4.916930496692657471e-01
3.216000000000000000e+03 3.979120635986328125e+01 -1.508780574798583984e+01 -5.847738981246948242e-01 7.674372196197509766e-02 -1.524090468883514404e-01 -3.906096816062927246e-01
3.217000000000000000e+03 3.969268798828125000e+01 -1.652937698364257812e+01 -3.693085610866546631e-01 1.222031861543655396e-01 -7.413160800933837891e-02 -3.712862133979797363e-01
3.218000000000000000e+03 5.205601119995117188e+01 1.324001550674438477e+00 -1.408476829528808594e-01 9.987064599990844727e-01 2.573576271533966064e-01 -7.136843800544738770e-01
3.219000000000000000e+03 4.581941223144531250e+01 1.952819585800170898e+00 -5.334355831146240234e-01 3.383853137493133545e-01 -5.851507931947708130e-02 1.720863729715347290e-01
3.220000000000000000e+03 2.794264602661132812e+01 -1.862865066528320312e+01 -2.452767491340637207e-01 -4.556895419955253601e-02 -8.725371211767196655e-02 -5.059411525726318359e-01
3.221000000000000000e+03 5.639158630371093750e+01 2.646294832229614258e+00 1.282715946435928345e-01 3.123300790786743164e+00 9.754716753959655762e-01 -1.954431653022766113e+00
3.222000000000000000e+03 5.262966918945312500e+01 -1.477140426635742188e+01 8.442425727844238281e-02 1.230974555015563965e+00 3.946196138858795166e-01 9.113895297050476074e-01
3.223000000000000000e+03 4.529259490966796875e+01 -1.490442657470703125e+01 -4.588079452514648438e-01 2.651054859161376953e-01 -5.811073258519172668e-02 -1.170538440346717834e-01
3.224000000000000000e+03 2.543632316589355469e+01 7.471329569816589355e-01 -3.268390595912933350e-01 -2.193826884031295776e-01 -1.638665199279785156e-01 5.379209518432617188e-01
3.225000000000000000e+03 3.958016967773437500e+01 -1.823401069641113281e+01 -1.448723673820495605e-01 1.848317235708236694e-01 1.198780722916126251e-02 -3.351600766181945801e-01
3.226000000000000000e+03 5.460950469970703125e+01 1.372971773147583008e+00 1.403202712535858154e-01 1.773489236831665039e+00 5.741428732872009277e-01 -1.432074189186096191e+00
3.227000000000000000e+03 5.460289382934570312e+01 7.719978690147399902e-01 6.016411632299423218e-02 1.533514857292175293e+00 4.781036972999572754e-01 -1.341799855232238770e+00
3.228000000000000000e+03 4.763864898681640625e+01 2.358428478240966797e+00 -3.428558111190795898e-01 5.022658705711364746e-01 4.782302677631378174e-02 -5.135846883058547974e-02
3.229000000000000000e+03 4.616205978393554688e+01 3.167017459869384766e+00 -3.109179735183715820e-01 4.853304028511047363e-01 5.232372879981994629e-02 6.844450533390045166e-02
3.230000000000000000e+03 5.631975936889648438e+01 1.857332706451416016e+00 1.726887971162796021e-01 2.866883993148803711e+00 9.118718504905700684e-01 -1.967406153678894043e+00
3.231000000000000000e+03 6.936503601074218750e+01 -1.382026004791259766e+01 -2.514689266681671143e-01 9.299530982971191406e+00 2.714418649673461914e+00 -1.109781861305236816e+00
3.232000000000000000e+03 7.010833740234375000e+01 -1.282858276367187500e+01 1.150714606046676636e-01 9.102829933166503906e+00 2.765370607376098633e+00 -1.281465649604797363e+00
3.233000000000000000e+03 7.047891235351562500e+01 -1.113020420074462891e+01 7.299013137817382812e-01 8.897762298583984375e+00 2.888299226760864258e+00 -1.311341524124145508e+00
3.234000000000000000e+03 7.084495544433593750e+01 -4.326765537261962891e+00 1.690654754638671875e+00 8.469304084777832031e+00 3.047987699508666992e+00 7.865169644355773926e-01
3.235000000000000000e+03 5.587043762207031250e+01 -1.456334209442138672e+01 2.451690435409545898e-01 2.533606052398681641e+00 8.336325287818908691e-01 1.817185044288635254e+00
3.236000000000000000e+03 7.070207977294921875e+01 -9.091165542602539062e+00 1.559561133384704590e+00 8.593273162841796875e+00 3.045850276947021484e+00 -9.899877309799194336e-01
3.237000000000000000e+03 7.128009033203125000e+01 -2.016758680343627930e+00 7.952809333801269531e-01 8.513686180114746094e+00 2.792690277099609375e+00 1.208322763442993164e+00
3.238000000000000000e+03 7.125114440917968750e+01 -6.684656143188476562e+00 1.858697533607482910e+00 8.207464218139648438e+00 3.019848346710205078e+00 -1.182918623089790344e-01
3.239000000000000000e+03 7.083712005615234375e+01 -1.663332366943359375e+01 -5.261001586914062500e-01 8.573857307434082031e+00 2.414327144622802734e+00 -9.177880883216857910e-01
3.240000000000000000e+03 6.930285644531250000e+01 -1.539976882934570312e+01 -5.717734098434448242e-01 9.053832054138183594e+00 2.544617652893066406e+00 -8.672878146171569824e-01
3.241000000000000000e+03 5.618606185913085938e+01 -1.410300636291503906e+01 2.650563418865203857e-01 2.586706876754760742e+00 8.555289506912231445e-01 1.920037984848022461e+00
3.242000000000000000e+03 5.229247665405273438e+01 -1.554633045196533203e+01 1.615239530801773071e-01 1.318835854530334473e+00 4.441079497337341309e-01 9.029724597930908203e-01
3.243000000000000000e+03 5.311275482177734375e+01 -1.594198417663574219e+01 2.291458100080490112e-01 1.676201224327087402e+00 5.716041326522827148e-01 1.104961037635803223e+00
3.244000000000000000e+03 7.046858978271484375e+01 -6.670947551727294922e+00 2.194586277008056641e+00 8.503916740417480469e+00 3.209550857543945312e+00 -1.121388301253318787e-01
3.245000000000000000e+03 2.645576667785644531e+01 2.911566019058227539e+00 -3.842933475971221924e-01 -2.187650501728057861e-01 -1.809175163507461548e-01 6.623010635375976562e-01
3.246000000000000000e+03 7.018483734130859375e+01 -1.456462001800537109e+01 -3.248753547668457031e-01 8.951617240905761719e+00 2.588022708892822266e+00 -1.095743656158447266e+00
3.247000000000000000e+03 7.008159637451171875e+01 -1.551956748962402344e+01 -4.838569760322570801e-01 8.861861228942871094e+00 2.513401031494140625e+00 -9.701095819473266602e-01
3.248000000000000000e+03 7.016996002197265625e+01 -4.602531909942626953e+00 2.003755807876586914e+00 8.720568656921386719e+00 3.217297554016113281e+00 7.641993761062622070e-01
3.249000000000000000e+03 6.883251953125000000e+01 2.860732316970825195e+00 -7.011650204658508301e-01 9.080366134643554688e+00 2.513760328292846680e+00 6.966074109077453613e-01
3.250000000000000000e+03 7.049212646484375000e+01 1.989095449447631836e+00 -3.388229906558990479e-01 8.840016365051269531e+00 2.550358057022094727e+00 1.076809525489807129e+00
3.251000000000000000e+03 7.053814697265625000e+01 9.626541733741760254e-01 -1.202058866620063782e-01 8.893889427185058594e+00 2.632105112075805664e+00 1.191463232040405273e+00
3.252000000000000000e+03 6.956488037109375000e+01 2.069776773452758789e+00 -4.681521356105804443e-01 9.084068298339843750e+00 2.584774732589721680e+00 9.627439975738525391e-01
3.253000000000000000e+03 6.853543090820312500e+01 7.194112777709960938e+00 -8.458451628684997559e-01 8.186614990234375000e+00 2.202230930328369141e+00 1.645678579807281494e-01
3.254000000000000000e+03 3.847196960449218750e+01 2.985503435134887695e+00 -5.699715614318847656e-01 1.416941434144973755e-01 -1.284832209348678589e-01 5.825867652893066406e-01
3.255000000000000000e+03 3.181198310852050781e+01 -1.583037567138671875e+01 -4.982022941112518311e-01 -2.612280100584030151e-02 -1.572975367307662964e-01 -5.084827542304992676e-01
3.256000000000000000e+03 3.307652664184570312e+01 -1.701839065551757812e+01 -3.662757277488708496e-01 -6.387847010046243668e-03 -1.117990761995315552e-01 -5.020334124565124512e-01
3.257000000000000000e+03 3.413147735595703125e+01 2.123654603958129883e+00 -6.137453317642211914e-01 3.805321455001831055e-02 -1.727076321840286255e-01 6.733103990554809570e-01
3.258000000000000000e+03 6.689479827880859375e+01 1.131999492645263672e+01 -6.748281121253967285e-01 7.314952850341796875e+00 1.992037415504455566e+00 -2.827396988868713379e-01
3.259000000000000000e+03 6.670757293701171875e+01 1.016803169250488281e+01 -7.497193217277526855e-01 7.447743415832519531e+00 2.009407281875610352e+00 -2.980487346649169922e-01
3.260000000000000000e+03 2.806828498840332031e+01 4.729032039642333984e+00 -4.172478616237640381e-01 -1.630674749612808228e-01 -1.740946024656295776e-01 7.343736290931701660e-01
3.261000000000000000e+03 2.790395355224609375e+01 8.618111610412597656e+00 -3.804109096527099609e-01 -1.649389564990997314e-01 -1.636049598455429077e-01 7.157592773437500000e-01
3.262000000000000000e+03 6.540406036376953125e+01 -2.443310737609863281e+01 -5.700168609619140625e-01 6.990981578826904297e+00 1.926289319992065430e+00 3.874945342540740967e-01
3.263000000000000000e+03 6.738469696044921875e+01 -2.543490791320800781e+01 -5.264487266540527344e-01 7.240399837493896484e+00 2.014185428619384766e+00 1.456602960824966431e-01
3.264000000000000000e+03 6.994812011718750000e+01 -2.125755882263183594e+01 -6.528221964836120605e-01 8.064706802368164062e+00 2.223565578460693359e+00 -3.716772794723510742e-01
3.265000000000000000e+03 6.712461853027343750e+01 -2.132425498962402344e+01 -8.043605089187622070e-01 7.839354515075683594e+00 2.110498189926147461e+00 1.088810265064239502e-01
3.266000000000000000e+03 6.637641143798828125e+01 2.402024078369140625e+01 -4.616653546690940857e-02 6.307455539703369141e+00 1.878386735916137695e+00 -2.970814108848571777e-01
3.267000000000000000e+03 2.671162796020507812e+01 5.041099071502685547e+00 -4.000239670276641846e-01 -2.417907565832138062e-01 -1.925444155931472778e-01 7.262636423110961914e-01
3.268000000000000000e+03 2.722066879272460938e+01 1.311924839019775391e+01 -3.448002338409423828e-01 -1.927101314067840576e-01 -1.612531095743179321e-01 5.727463960647583008e-01
3.269000000000000000e+03 6.668836212158203125e+01 -2.693053627014160156e+01 -4.144584238529205322e-01 6.960074901580810547e+00 1.963684916496276855e+00 2.019370943307876587e-01
3.270000000000000000e+03 1.384597587585449219e+01 -2.909766578674316406e+01 1.306164115667343140e-01 -3.922020792961120605e-01 -7.847569882869720459e-02 -2.877143323421478271e-01
3.271000000000000000e+03 2.206643295288085938e+01 -2.319049263000488281e+01 -3.079736232757568359e-02 -1.763749420642852783e-01 -6.215168908238410950e-02 -3.956839144229888916e-01
3.272000000000000000e+03 2.468798255920410156e+01 -2.077257347106933594e+01 -1.380731761455535889e-01 -1.057730987668037415e-01 -7.315388321876525879e-02 -4.559560716152191162e-01
3.273000000000000000e+03 2.443996810913085938e+01 1.791426658630371094e+01 -2.284102290868759155e-01 -4.059991836547851562e-01 -1.903228163719177246e-01 3.734417557716369629e-01
3.274000000000000000e+03 6.730677032470703125e+01 1.581500625610351562e+01 -3.738392293453216553e-01 6.921076774597167969e+00 1.964171290397644043e+00 -2.554293870925903320e-01
3.275000000000000000e+03 6.918188476562500000e+01 -2.018061256408691406e+01 -7.487321496009826660e-01 8.201836585998535156e+00 2.235931158065795898e+00 -3.365207016468048096e-01
3.276000000000000000e+03 6.824781799316406250e+01 -2.024823760986328125e+01 -8.108372688293457031e-01 8.163680076599121094e+00 2.205852985382080078e+00 -1.736938804388046265e-01
3.277000000000000000e+03 1.679299545288085938e+01 2.804360580444335938e+01 2.669740617275238037e-01 -7.741309404373168945e-01 -1.521470695734024048e-01 3.405915200710296631e-01
3.278000000000000000e+03 2.316856765747070312e+01 -1.685547447204589844e+01 -3.862010538578033447e-01 -6.242458149790763855e-02 -1.345876902341842651e-01 -4.585219621658325195e-01
3.279000000000000000e+03 2.305477142333984375e+01 -1.838594245910644531e+01 -2.992129921913146973e-01 -8.904262632131576538e-02 -1.164766773581504822e-01 -4.522456228733062744e-01
3.280000000000000000e+03 6.320255661010742188e+01 -1.010279369354248047e+01 -5.968493819236755371e-01 1.360702419281005859e+01 3.903052568435668945e+00 1.581364870071411133e+00
3.281000000000000000e+03 6.217422866821289062e+01 -1.074089241027832031e+01 -6.243067979812622070e-01 1.101055622100830078e+01 3.115874767303466797e+00 3.148453950881958008e+00
3.282000000000000000e+03 6.428831481933593750e+01 -8.249491691589355469e+00 3.224315643310546875e+00 1.544125556945800781e+01 5.599671363830566406e+00 -1.828067779541015625e+00
3.283000000000000000e+03 6.104226303100585938e+01 -1.037155437469482422e+01 1.528692096471786499e-01 8.362308502197265625e+00 2.554553270339965820e+00 4.252596855163574219e+00
3.284000000000000000e+03 6.236544036865234375e+01 -2.036659479141235352e+00 -7.896152734756469727e-01 1.140382575988769531e+01 3.184262990951538086e+00 -2.981108427047729492e+00
3.285000000000000000e+03 6.010883331298828125e+01 -2.930635690689086914e+00 8.806708455085754395e-01 5.420296192169189453e+00 1.890290021896362305e+00 -4.271751880645751953e+00
3.286000000000000000e+03 6.462208557128906250e+01 -9.195818901062011719e+00 1.365048170089721680e+00 1.417339801788330078e+01 4.661533832550048828e+00 -1.205049872398376465e+00
3.287000000000000000e+03 6.544606018066406250e+01 -5.753311634063720703e+00 5.880936145782470703e+00 1.231069946289062500e+01 5.457490921020507812e+00 9.552162885665893555e-01
3.288000000000000000e+03 6.398980712890625000e+01 -3.157059907913208008e+00 1.915578097105026245e-01 1.440516662597656250e+01 4.379017353057861328e+00 7.810384780168533325e-02
3.289000000000000000e+03 6.198496246337890625e+01 -2.005841970443725586e+00 -6.327070593833923340e-01 1.059239864349365234e+01 2.987907648086547852e+00 -3.386998176574707031e+00
3.290000000000000000e+03 6.423407745361328125e+01 -9.149032592773437500e+00 1.089921236038208008e+00 1.475745868682861328e+01 4.754213809967041016e+00 -8.639167547225952148e-01
3.291000000000000000e+03 6.901867675781250000e+01 -1.319495868682861328e+01 -1.231246888637542725e-01 9.498250961303710938e+00 2.812537908554077148e+00 -1.159338951110839844e+00
3.292000000000000000e+03 5.932835388183593750e+01 -2.352059364318847656e+00 7.006893754005432129e-01 4.040274143218994141e+00 1.422289133071899414e+00 -3.499125957489013672e+00
3.293000000000000000e+03 6.290533447265625000e+01 -1.848373293876647949e+00 -9.109284877777099609e-01 1.195806407928466797e+01 3.314140558242797852e+00 -2.166832685470581055e+00
3.294000000000000000e+03 6.040692520141601562e+01 -1.021684265136718750e+01 6.461979746818542480e-01 6.440740585327148438e+00 2.126081466674804688e+00 4.292301177978515625e+00
3.295000000000000000e+03 5.983360671997070312e+01 -1.102218818664550781e+01 4.728042781352996826e-01 5.402317047119140625e+00 1.762536406517028809e+00 3.673906087875366211e+00
3.296000000000000000e+03 5.885144042968750000e+01 -1.149815940856933594e+01 4.879343807697296143e-01 4.012025833129882812e+00 1.349988102912902832e+00 3.086481809616088867e+00
3.297000000000000000e+03 5.914991378784179688e+01 -1.154734516143798828e+01 4.439203441143035889e-01 4.517333984375000000e+00 1.488376259803771973e+00 3.266760349273681641e+00
3.298000000000000000e+03 5.832677841186523438e+01 -1.193500280380249023e+00 4.146392047405242920e-01 3.361326456069946289e+00 1.132789731025695801e+00 -2.843023777008056641e+00
3.299000000000000000e+03 5.856613540649414062e+01 -1.632146000862121582e+00 5.059170126914978027e-01 3.389899969100952148e+00 1.168745160102844238e+00 -2.970754384994506836e+00
3.300000000000000000e+03 5.812318801879882812e+01 -9.529709815979003906e-02 2.541704475879669189e-01 3.695120573043823242e+00 1.184787273406982422e+00 -2.691550493240356445e+00
3.301000000000000000e+03 5.543746185302734375e+01 -1.413662719726562500e+01 2.497924715280532837e-01 2.147898912429809570e+00 7.193074226379394531e-01 1.678834080696105957e+00
3.302000000000000000e+03 5.694580078125000000e+01 1.057592868804931641e+00 1.884237527847290039e-01 3.030594825744628906e+00 9.657056331634521484e-01 -2.191155672073364258e+00
3.303000000000000000e+03 5.850981903076171875e+01 -1.159846496582031250e+01 5.138267278671264648e-01 3.642296552658081055e+00 1.246837019920349121e+00 2.930719137191772461e+00
3.304000000000000000e+03 5.801055145263671875e+01 -1.296251964569091797e+01 2.920804619789123535e-01 3.616134881973266602e+00 1.172464609146118164e+00 2.606229782104492188e+00
3.305000000000000000e+03 5.784175109863281250e+01 -1.213341903686523438e+01 4.119933247566223145e-01 3.050228595733642578e+00 1.038666605949401855e+00 2.575037240982055664e+00
3.306000000000000000e+03 2.843691253662109375e+01 6.025707721710205078e+00 -4.058827161788940430e-01 -1.432327032089233398e-01 -1.647346317768096924e-01 7.424914836883544922e-01
3.307000000000000000e+03 3.568951034545898438e+01 3.168779850006103516e+00 -5.484055876731872559e-01 8.815406262874603271e-02 -1.380754560232162476e-01 6.609206199645996094e-01
3.308000000000000000e+03 5.306899261474609375e+01 1.570952057838439941e+00 5.745070055127143860e-03 1.278192877769470215e+00 3.851813971996307373e-01 -1.005946278572082520e+00
3.309000000000000000e+03 5.114114761352539062e+01 -1.591125297546386719e+01 1.168553605675697327e-01 1.095508337020874023e+00 3.637091219425201416e-01 6.888428926467895508e-01
3.310000000000000000e+03 5.557323074340820312e+01 1.949931621551513672e+00 1.700946390628814697e-01 2.438400745391845703e+00 7.825486063957214355e-01 -1.740036249160766602e+00
3.311000000000000000e+03 5.388320922851562500e+01 2.274031877517700195e+00 1.179887279868125916e-01 1.750128746032714844e+00 5.604352355003356934e-01 -1.258757948875427246e+00
3.312000000000000000e+03 4.936664581298828125e+01 -1.827835083007812500e+01 2.466323822736740112e-01 1.111811995506286621e+00 4.075333178043365479e-01 5.349064469337463379e-01
3.313000000000000000e+03 3.334842681884765625e+01 1.904430270195007324e+00 -6.122377514839172363e-01 2.079108171164989471e-02 -1.774339973926544189e-01 6.762816309928894043e-01
3.314000000000000000e+03 3.492569351196289062e+01 2.266226291656494141e+00 -6.162105202674865723e-01 5.568129569292068481e-02 -1.681587547063827515e-01 6.663745045661926270e-01
3.315000000000000000e+03 5.035048294067382812e+01 -1.699085426330566406e+01 1.616072803735733032e-01 1.087001800537109375e+00 3.745827376842498779e-01 6.200408339500427246e-01
3.316000000000000000e+03 3.652420425415039062e+01 2.356644392013549805e+00 -6.254377365112304688e-01 8.947991579771041870e-02 -1.607873439788818359e-01 6.395990252494812012e-01
3.317000000000000000e+03 4.005511856079101562e+01 4.237093448638916016e+00 -4.006575942039489746e-01 2.457981705665588379e-01 -4.645782709121704102e-02 4.913972318172454834e-01
3.318000000000000000e+03 7.013161468505859375e+01 -7.971333980560302734e+00 2.113503932952880859e+00 8.722167015075683594e+00 3.250701189041137695e+00 -6.952896714210510254e-01
3.319000000000000000e+03 6.971152496337890625e+01 -8.423815727233886719e+00 2.062494754791259766e+00 8.969750404357910156e+00 3.309673547744750977e+00 -9.254513382911682129e-01
3.320000000000000000e+03 5.512889862060546875e+01 -1.592082881927490234e+01 2.539541423320770264e-01 2.531902551651000977e+00 8.357570171356201172e-01 1.597888946533203125e+00
3.321000000000000000e+03 5.549049377441406250e+01 -1.515132522583007812e+01 2.434007674455642700e-01 2.522404909133911133e+00 8.297417163848876953e-01 1.706810235977172852e+00
3.322000000000000000e+03 4.359820175170898438e+01 2.915551185607910156e+00 -4.641685187816619873e-01 2.978566586971282959e-01 -4.989356175065040588e-02 3.174838721752166748e-01
3.323000000000000000e+03 4.265118026733398438e+01 2.865963459014892578e+00 -5.021334886550903320e-01 2.579117715358734131e-01 -7.326652109622955322e-02 3.798466622829437256e-01
3.324000000000000000e+03 4.251337814331054688e+01 3.761497020721435547e+00 -3.834226727485656738e-01 3.122485876083374023e-01 -2.135222591459751129e-02 3.617280423641204834e-01
3.325000000000000000e+03 4.990133666992187500e+01 3.770406246185302734e+00 -6.139242555946111679e-03 1.005226612091064453e+00 2.997262179851531982e-01 -4.866996705532073975e-01
3.326000000000000000e+03 4.896563339233398438e+01 3.886720418930053711e+00 -5.345259234309196472e-02 8.909237384796142578e-01 2.512413263320922852e-01 -3.452300727367401123e-01
3.327000000000000000e+03 5.089029312133789062e+01 3.474290370941162109e+00 2.882503904402256012e-02 1.150822758674621582e+00 3.538943231105804443e-01 -6.346932053565979004e-01
3.328000000000000000e+03 6.991678619384765625e+01 -4.044689655303955078e+00 1.877425551414489746e+00 8.889492988586425781e+00 3.230075359344482422e+00 9.707481265068054199e-01
3.329000000000000000e+03 5.662173080444335938e+01 -1.427215385437011719e+01 2.448556423187255859e-01 2.903720617294311523e+00 9.445728659629821777e-01 2.052405834197998047e+00
3.330000000000000000e+03 3.960510253906250000e+01 2.213901281356811523e+00 -6.487721800804138184e-01 1.434692889451980591e-01 -1.515908688306808472e-01 5.464420914649963379e-01
3.331000000000000000e+03 4.061766815185546875e+01 2.471268177032470703e+00 -6.088460087776184082e-01 1.751541048288345337e-01 -1.301075667142868042e-01 5.005630850791931152e-01
3.332000000000000000e+03 6.943804931640625000e+01 -1.458821392059326172e+01 -4.154939949512481689e-01 9.153426170349121094e+00 2.621379613876342773e+00 -1.005832910537719727e+00
3.333000000000000000e+03 6.912938690185546875e+01 -1.134384059906005859e+01 6.216626763343811035e-01 9.559620857238769531e+00 3.054384946823120117e+00 -1.370533704757690430e+00
3.334000000000000000e+03 6.949732971191406250e+01 -1.222325420379638672e+01 2.984779477119445801e-01 9.355329513549804688e+00 2.896142244338989258e+00 -1.312630057334899902e+00
3.335000000000000000e+03 2.739158630371093750e+01 2.684823274612426758e+00 -4.161240756511688232e-01 -1.740989238023757935e-01 -1.770668923854827881e-01 6.753227114677429199e-01
3.336000000000000000e+03 2.816844367980957031e+01 2.046964645385742188e+00 -4.500407278537750244e-01 -1.317775398492813110e-01 -1.745454818010330200e-01 6.646459698677062988e-01
3.337000000000000000e+03 7.041628265380859375e+01 -5.960203170776367188e+00 2.182409524917602539e+00 8.536739349365234375e+00 3.215744733810424805e+00 1.775726675987243652e-01
3.338000000000000000e+03 7.060847473144531250e+01 -2.601494073867797852e+00 1.113600492477416992e+00 8.760088920593261719e+00 2.962106704711914062e+00 1.206144809722900391e+00
3.339000000000000000e+03 5.563193130493164062e+01 2.809294700622558594e+00 1.505855172872543335e-01 2.714312553405761719e+00 8.594694137573242188e-01 -1.750690340995788574e+00
3.340000000000000000e+03 6.995121002197265625e+01 -9.022482872009277344e+00 1.761416792869567871e+00 8.941723823547363281e+00 3.210942268371582031e+00 -1.059047937393188477e+00
3.341000000000000000e+03 7.049311828613281250e+01 -9.886944770812988281e+00 1.247477054595947266e+00 8.786141395568847656e+00 3.010085582733154297e+00 -1.196715354919433594e+00
3.342000000000000000e+03 7.007483673095703125e+01 -2.054976701736450195e+00 9.193733334541320801e-01 9.055049896240234375e+00 2.992326974868774414e+00 1.308796882629394531e+00
3.343000000000000000e+03 7.037024688720703125e+01 -7.317685604095458984e+00 2.136060714721679688e+00 8.581861495971679688e+00 3.215376853942871094e+00 -4.302281439304351807e-01
3.344000000000000000e+03 7.044263458251953125e+01 -1.938345146179199219e+01 -6.482884287834167480e-01 8.282915115356445312e+00 2.290388107299804688e+00 -5.967826247215270996e-01
3.345000000000000000e+03 6.983052825927734375e+01 -1.654740142822265625e+01 -6.325725913047790527e-01 8.764042854309082031e+00 2.439440965652465820e+00 -8.032001852989196777e-01
3.346000000000000000e+03 3.481548309326171875e+01 3.089744806289672852e+00 -5.507469773292541504e-01 6.571850925683975220e-02 -1.455085426568984985e-01 6.768821477890014648e-01
3.347000000000000000e+03 5.394233322143554688e+01 -1.639912033081054688e+01 2.550866007804870605e-01 2.089169979095458984e+00 7.032769918441772461e-01 1.292412996292114258e+00
3.348000000000000000e+03 6.930918884277343750e+01 3.959372043609619141e+00 -7.419584393501281738e-01 8.801465034484863281e+00 2.417851924896240234e+00 6.481036543846130371e-01
3.349000000000000000e+03 2.724460983276367188e+01 4.328402996063232422e+00 -4.052946865558624268e-01 -2.089970260858535767e-01 -1.842875182628631592e-01 7.191895246505737305e-01
3.350000000000000000e+03 2.702465057373046875e+01 3.285376071929931641e+00 -4.020671546459197998e-01 -2.025221288204193115e-01 -1.813767850399017334e-01 6.874506473541259766e-01
3.351000000000000000e+03 6.924763488769531250e+01 1.288152098655700684e+00 -3.539355993270874023e-01 9.277282714843750000e+00 2.677004337310791016e+00 1.027034521102905273e+00
3.352000000000000000e+03 6.902312469482421875e+01 5.006856441497802734e+00 -8.192450404167175293e-01 8.629040718078613281e+00 2.342938661575317383e+00 4.748207926750183105e-01
3.353000000000000000e+03 6.796341705322265625e+01 4.805311203002929688e+00 -9.333230853080749512e-01 8.740185737609863281e+00 2.342058658599853516e+00 2.540532648563385010e-01
3.354000000000000000e+03 5.589507675170898438e+01 -1.626405334472656250e+01 2.103351056575775146e-01 3.030997991561889648e+00 9.723999500274658203e-01 1.765474915504455566e+00
3.355000000000000000e+03 5.267208099365234375e+01 -1.680351257324218750e+01 2.498717755079269409e-01 1.706317305564880371e+00 5.868567228317260742e-01 1.036842465400695801e+00
3.356000000000000000e+03 5.349867630004882812e+01 -1.737354660034179688e+01 2.806271910667419434e-01 2.105187416076660156e+00 7.157443761825561523e-01 1.203441023826599121e+00
3.357000000000000000e+03 2.502952575683593750e+01 -1.716179656982421875e+01 -3.628511726856231689e-01 -5.456055328249931335e-02 -1.252235174179077148e-01 -4.844947755336761475e-01
3.358000000000000000e+03 3.845201110839843750e+01 3.888360261917114258e+00 -4.669526517391204834e-01 1.794639080762863159e-01 -8.624661713838577271e-02 5.755313038825988770e-01
3.359000000000000000e+03 7.138671875000000000e+01 -4.135076701641082764e-02 1.997068822383880615e-01 8.586116790771484375e+00 2.635747194290161133e+00 1.258802056312561035e+00
3.360000000000000000e+03 6.795246124267578125e+01 -1.944918823242187500e+01 -8.520260453224182129e-01 8.300199508666992188e+00 2.234452009201049805e+00 -1.605326980352401733e-01
3.361000000000000000e+03 2.850293159484863281e+01 -1.661213684082031250e+01 -4.197815954685211182e-01 -3.547539934515953064e-02 -1.365770995616912842e-01 -5.132321715354919434e-01
3.362000000000000000e+03 4.418284606933593750e+01 -1.569524002075195312e+01 -3.638686835765838623e-01 2.617610991001129150e-01 -3.063227236270904541e-02 -1.653623580932617188e-01
3.363000000000000000e+03 4.587402725219726562e+01 -1.722841835021972656e+01 -3.974216803908348083e-02 5.191352963447570801e-01 1.438179314136505127e-01 5.347440391778945923e-02
3.364000000000000000e+03 3.944968795776367188e+01 3.118678331375122070e+00 -5.404489636421203613e-01 1.713016778230667114e-01 -1.107441857457160950e-01 5.437260270118713379e-01
3.365000000000000000e+03 6.744882965087890625e+01 6.921575069427490234e+00 -9.277228713035583496e-01 8.198882102966308594e+00 2.181347846984863281e+00 -3.343718871474266052e-02
3.366000000000000000e+03 5.474007797241210938e+01 2.107477188110351562e+00 1.501959115266799927e-01 2.046450376510620117e+00 6.589938998222351074e-01 -1.497609019279479980e+00
3.367000000000000000e+03 5.291369247436523438e+01 3.196179628372192383e+00 1.239716112613677979e-01 1.644143223762512207e+00 5.304344892501831055e-01 -1.075355529785156250e+00
3.368000000000000000e+03 3.087502861022949219e+01 2.885183334350585938e+00 -5.070160031318664551e-01 -4.121344164013862610e-02 -1.644688397645950317e-01 7.069130539894104004e-01
3.369000000000000000e+03 2.317404556274414062e+01 -2.063607025146484375e+01 -1.658532768487930298e-01 -1.237952783703804016e-01 -8.689456433057785034e-02 -4.359575212001800537e-01
3.370000000000000000e+03 2.598934173583984375e+01 -1.921842002868652344e+01 -2.420363873243331909e-01 -6.923855096101760864e-02 -9.338247776031494141e-02 -4.866510629653930664e-01
3.371000000000000000e+03 2.939333915710449219e+01 2.473989248275756836e+00 -4.810014069080352783e-01 -9.242919087409973145e-02 -1.720291823148727417e-01 6.904616355895996094e-01
3.372000000000000000e+03 2.937762260437011719e+01 4.302759170532226562e+00 -4.421162009239196777e-01 -9.598193317651748657e-02 -1.614294499158859253e-01 7.289284467697143555e-01
3.373000000000000000e+03 4.710975265502929688e+01 -1.626742172241210938e+01 -1.110041439533233643e-01 5.297633409500122070e-01 1.256277561187744141e-01 1.306539177894592285e-01
3.374000000000000000e+03 2.793879318237304688e+01 7.573067665100097656e+00 -3.909146189689636230e-01 -1.600775420665740967e-01 -1.652976572513580322e-01 7.322276830673217773e-01
3.375000000000000000e+03 2.867392921447753906e+01 1.117299842834472656e+01 -3.312231898307800293e-01 -9.436587244272232056e-02 -1.276767253875732422e-01 6.371113061904907227e-01
3.376000000000000000e+03 2.575936126708984375e+01 1.849930000305175781e+01 -1.408940404653549194e-01 -2.764061391353607178e-01 -1.251900494098663330e-01 3.531462848186492920e-01
3.377000000000000000e+03 4.539707946777343750e+01 2.666841268539428711e+00 -4.251632392406463623e-01 3.671505451202392578e-01 -1.740380190312862396e-02 1.772738397121429443e-01
3.378000000000000000e+03 4.780872726440429688e+01 3.278916597366333008e+00 -1.953530907630920410e-01 6.276770830154418945e-01 1.296971887350082397e-01 -1.291633695363998413e-01
3.379000000000000000e+03 3.597778320312500000e+01 -1.757561492919921875e+01 -2.908147573471069336e-01 4.193225502967834473e-02 -7.466474920511245728e-02 -4.597216248512268066e-01
3.380000000000000000e+03 3.661865234375000000e+01 -1.611951828002929688e+01 -4.674720168113708496e-01 2.766014076769351959e-02 -1.319435685873031616e-01 -4.609124958515167236e-01
3.381000000000000000e+03 3.441385650634765625e+01 -1.683987808227539062e+01 -3.841673731803894043e-01 6.924228742718696594e-03 -1.131729409098625183e-01 -4.884042441844940186e-01
3.382000000000000000e+03 4.479164505004882812e+01 -1.697459411621093750e+01 -1.210482195019721985e-01 4.008443951606750488e-01 8.393885940313339233e-02 -5.697896704077720642e-02
3.383000000000000000e+03 4.282019042968750000e+01 -1.618169784545898438e+01 -3.360889256000518799e-01 2.233941256999969482e-01 -3.380843624472618103e-02 -2.334963977336883545e-01
3.384000000000000000e+03 6.687804412841796875e+01 -2.264452934265136719e+01 -7.131952047348022461e-01 7.542622566223144531e+00 2.048828125000000000e+00 1.765949875116348267e-01
3.385000000000000000e+03 6.404276275634765625e+01 1.439891529083251953e+01 -4.253365695476531982e-01 6.338827610015869141e+00 1.774047374725341797e+00 -5.714824199676513672e-01
3.386000000000000000e+03 6.437525939941406250e+01 1.150584506988525391e+01 -6.244064569473266602e-01 6.752224445343017578e+00 1.838345408439636230e+00 -6.242924332618713379e-01
3.387000000000000000e+03 6.503243255615234375e+01 -2.653032684326171875e+01 -4.171274602413177490e-01 6.641626358032226562e+00 1.867349624633789062e+00 3.792525231838226318e-01
3.388000000000000000e+03 6.735770416259765625e+01 1.416191387176513672e+01 -4.751364290714263916e-01 7.069334030151367188e+00 1.978259325027465820e+00 -2.436007857322692871e-01
3.389000000000000000e+03 3.877674865722656250e+01 -1.729917907714843750e+01 -2.820482254028320312e-01 1.191348060965538025e-01 -4.887402802705764771e-02 -3.886306285858154297e-01
3.390000000000000000e+03 2.590056419372558594e+01 1.647154998779296875e+01 -2.502452731132507324e-01 -2.653788328170776367e-01 -1.546872407197952271e-01 4.332145154476165771e-01
3.391000000000000000e+03 2.933248710632324219e+01 -1.741278648376464844e+01 -3.436754941940307617e-01 -3.364482149481773376e-02 -1.131960898637771606e-01 -5.145573019981384277e-01
3.392000000000000000e+03 2.689452743530273438e+01 -1.692266273498535156e+01 -3.794485032558441162e-01 -3.902657702565193176e-02 -1.255425214767456055e-01 -5.074939131736755371e-01
3.393000000000000000e+03 2.769335937500000000e+01 6.681262969970703125e+00 -4.018879532814025879e-01 -1.862866133451461792e-01 -1.764523684978485107e-01 7.403769493103027344e-01
3.394000000000000000e+03 2.924704933166503906e+01 8.710264205932617188e+00 -3.536858856678009033e-01 -8.475751429796218872e-02 -1.315330117940902710e-01 7.037792205810546875e-01
3.395000000000000000e+03 3.072092437744140625e+01 6.588036537170410156e+00 -3.768524229526519775e-01 -2.527763880789279938e-02 -1.206390187144279480e-01 7.252822518348693848e-01
3.396000000000000000e+03 6.383917999267578125e+01 1.600586318969726562e+01 -3.332274258136749268e-01 6.161128997802734375e+00 1.748370528221130371e+00 -5.355555415153503418e-01
3.397000000000000000e+03 1.780907821655273438e+01 2.943283653259277344e+01 3.263278603553771973e-01 -6.878154873847961426e-01 -1.084462851285934448e-01 2.843259572982788086e-01
3.398000000000000000e+03 1.444433021545410156e+01 2.841923522949218750e+01 2.452142983675003052e-01 -7.959680557250976562e-01 -1.652261316776275635e-01 3.877044618129730225e-01
3.399000000000000000e+03 2.122850418090820312e+01 2.793855094909667969e+01 3.154976665973663330e-01 -5.467424988746643066e-01 -6.937344372272491455e-02 2.222891300916671753e-01
3.400000000000000000e+03 1.833404922485351562e+01 2.672940635681152344e+01 2.415593415498733521e-01 -7.387201189994812012e-01 -1.491482406854629517e-01 3.091022074222564697e-01
3.401000000000000000e+03 1.919695281982421875e+01 2.846627426147460938e+01 3.163703680038452148e-01 -6.585680842399597168e-01 -1.026593148708343506e-01 2.666382491588592529e-01
3.402000000000000000e+03 3.018655776977539062e+01 1.528591346740722656e+01 -1.359454244375228882e-01 5.385031178593635559e-02 -2.462853118777275085e-02 4.533048570156097412e-01
3.403000000000000000e+03 2.810218048095703125e+01 1.496266651153564453e+01 -2.236862033605575562e-01 -8.171622455120086670e-02 -9.162072837352752686e-02 4.799727797508239746e-01
3.404000000000000000e+03 2.673942947387695312e+01 2.164147567749023438e+01 6.252007186412811279e-02 -2.004467844963073730e-01 -4.137801378965377808e-02 2.444554418325424194e-01
3.405000000000000000e+03 6.128894424438476562e+01 -2.527761459350585938e+00 2.270482713356614113e-03 9.180911064147949219e+00 2.754954576492309570e+00 -4.300746917724609375e+00
3.406000000000000000e+03 6.865689086914062500e+01 -2.995940446853637695e+00 1.549926161766052246e+00 9.764909744262695312e+00 3.394450664520263672e+00 1.362546682357788086e+00
3.407000000000000000e+03 6.541191864013671875e+01 -7.149510383605957031e+00 5.704668998718261719e+00 1.242786216735839844e+01 5.439759254455566406e+00 -1.143756151199340820e+00
3.408000000000000000e+03 6.522214508056640625e+01 -7.429158210754394531e+00 5.509912014007568359e+00 1.287481117248535156e+01 5.515417098999023438e+00 -1.509134411811828613e+00
3.409000000000000000e+03 6.463745880126953125e+01 -3.325194835662841797e+00 9.293024539947509766e-01 1.386005592346191406e+01 4.436807632446289062e+00 9.611732363700866699e-01
3.410000000000000000e+03 6.513507843017578125e+01 -3.784582376480102539e+00 2.090095281600952148e+00 1.342404747009277344e+01 4.654242515563964844e+00 1.591211080551147461e+00
3.411000000000000000e+03 6.301633071899414062e+01 -2.402546644210815430e+00 -7.670379281044006348e-01 1.289996147155761719e+01 3.639876842498779297e+00 -1.990123987197875977e+00
3.412000000000000000e+03 6.613717651367187500e+01 -7.983225345611572266e+00 3.917109012603759766e+00 1.171432018280029297e+01 4.689428806304931641e+00 -1.513801455497741699e+00
3.413000000000000000e+03 6.353910446166992188e+01 -2.456686496734619141e+00 -6.246041655540466309e-01 1.335353183746337891e+01 3.818678140640258789e+00 -1.105933666229248047e+00
3.414000000000000000e+03 6.151832580566406250e+01 -2.336342811584472656e+00 -2.524120211601257324e-01 9.739668846130371094e+00 2.846176862716674805e+00 -4.000541687011718750e+00
3.415000000000000000e+03 6.939433288574218750e+01 -4.219040393829345703e+00 2.168147563934326172e+00 9.198786735534667969e+00 3.410080432891845703e+00 9.988170266151428223e-01
3.416000000000000000e+03 6.036708831787109375e+01 -2.163949012756347656e+00 3.744835257530212402e-01 6.561334133148193359e+00 2.080745458602905273e+00 -4.139745712280273438e+00
3.417000000000000000e+03 5.963173675537109375e+01 -1.141442203521728516e+01 4.020520448684692383e-01 5.177354335784912109e+00 1.673821926116943359e+00 3.505069732666015625e+00
3.418000000000000000e+03 6.072656250000000000e+01 -1.060556602478027344e+01 2.331173568964004517e-01 7.518249988555908203e+00 2.325410127639770508e+00 4.132459163665771484e+00
3.419000000000000000e+03 6.081662750244140625e+01 -2.571273565292358398e+00 3.052308261394500732e-01 7.821504592895507812e+00 2.438020706176757812e+00 -4.397698879241943359e+00
3.420000000000000000e+03 6.357135009765625000e+01 -9.804750442504882812e+00 -2.389030456542968750e-01 1.426608085632324219e+01 4.208153247833251953e+00 7.399771213531494141e-01
3.421000000000000000e+03 6.325866317749023438e+01 -2.107919216156005859e+00 -8.232570290565490723e-01 1.260071372985839844e+01 3.533236980438232422e+00 -1.675217866897583008e+00
3.422000000000000000e+03 5.773539352416992188e+01 -1.389839076995849609e+01 2.068296521902084351e-01 3.657466888427734375e+00 1.159289002418518066e+00 2.402303218841552734e+00
3.423000000000000000e+03 5.952095794677734375e+01 -1.723036289215087891e+00 4.546769559383392334e-01 4.874329090118408203e+00 1.598701834678649902e+00 -3.568791389465332031e+00
3.424000000000000000e+03 5.842596817016601562e+01 -4.943017959594726562e-01 2.881440222263336182e-01 3.861291646957397461e+00 1.244830727577209473e+00 -2.858858108520507812e+00
3.425000000000000000e+03 6.044001770019531250e+01 -1.091512298583984375e+01 2.690306901931762695e-01 6.850555419921875000e+00 2.135875940322875977e+00 3.974674224853515625e+00
3.426000000000000000e+03 5.897710418701171875e+01 -1.181698989868164062e+01 4.007245302200317383e-01 4.379785537719726562e+00 1.434152960777282715e+00 3.122056722640991211e+00
3.427000000000000000e+03 5.926733398437500000e+01 -1.202417755126953125e+01 2.936048507690429688e-01 4.804515361785888672e+00 1.529435992240905762e+00 3.174823522567749023e+00
3.428000000000000000e+03 5.871479415893554688e+01 -9.383004903793334961e-01 3.382830619812011719e-01 4.010389328002929688e+00 1.304601788520812988e+00 -3.034793853759765625e+00
3.429000000000000000e+03 5.804256820678710938e+01 6.714342236518859863e-01 1.615247577428817749e-01 3.865995883941650391e+00 1.208256125450134277e+00 -2.586005210876464844e+00
3.430000000000000000e+03 5.869947052001953125e+01 -1.236517429351806641e+01 3.179706335067749023e-01 4.235172271728515625e+00 1.365942835807800293e+00 2.933872699737548828e+00
3.431000000000000000e+03 5.868617630004882812e+01 -1.196800041198730469e+01 3.864612877368927002e-01 4.100672245025634766e+00 1.346140027046203613e+00 2.967356443405151367e+00
3.432000000000000000e+03 5.752218627929687500e+01 5.495794117450714111e-03 2.772352099418640137e-01 3.109599351882934570e+00 1.016050338745117188e+00 -2.446995973587036133e+00
3.433000000000000000e+03 5.761825942993164062e+01 1.604079127311706543e+00 9.797335416078567505e-02 3.743879079818725586e+00 1.152555704116821289e+00 -2.370677947998046875e+00
3.434000000000000000e+03 3.560136795043945312e+01 5.025286197662353516e+00 -4.074308276176452637e-01 1.314038187265396118e-01 -8.280809968709945679e-02 6.550992727279663086e-01
3.435000000000000000e+03 3.564602661132812500e+01 4.056049346923828125e+00 -4.787935614585876465e-01 1.061709001660346985e-01 -1.117867976427078247e-01 6.618683338165283203e-01
3.436000000000000000e+03 3.394376754760742188e+01 2.921244621276855469e+00 -5.540972352027893066e-01 4.434693977236747742e-02 -1.529250890016555786e-01 6.883231401443481445e-01
3.437000000000000000e+03 4.386386871337890625e+01 5.118302345275878906e+00 -1.787756979465484619e-01 4.916469156742095947e-01 9.386137127876281738e-02 1.992908120155334473e-01
3.438000000000000000e+03 4.328819274902343750e+01 4.229954719543457031e+00 -3.025472760200500488e-01 3.816491663455963135e-01 2.373056672513484955e-02 2.873812615871429443e-01
3.439000000000000000e+03 4.255150222778320312e+01 4.599121093750000000e+00 -2.852425277233123779e-01 3.771466016769409180e-01 2.757122181355953217e-02 3.263735771179199219e-01
3.440000000000000000e+03 5.693882369995117188e+01 -1.500550937652587891e+01 1.976501345634460449e-01 3.322590351104736328e+00 1.056072115898132324e+00 2.105835676193237305e+00
3.441000000000000000e+03 5.750060653686523438e+01 -1.514042091369628906e+01 1.278495788574218750e-01 3.794318199157714844e+00 1.176650404930114746e+00 2.209369182586669922e+00
3.442000000000000000e+03 2.892610168457031250e+01 3.141977787017822266e+00 -4.555191695690155029e-01 -1.125365719199180603e-01 -1.704167276620864868e-01 7.047978043556213379e-01
3.443000000000000000e+03 5.023284912109375000e+01 4.662169456481933594e+00 8.657510578632354736e-02 1.205101490020751953e+00 3.875029683113098145e-01 -5.845757722854614258e-01
3.444000000000000000e+03 4.688028717041015625e+01 3.828261137008666992e+00 -1.868754178285598755e-01 6.160722970962524414e-01 1.287590563297271729e-01 -5.838609114289283752e-02
3.445000000000000000e+03 5.112092590332031250e+01 4.246193885803222656e+00 9.710911661386489868e-02 1.341370582580566406e+00 4.315439164638519287e-01 -7.241542935371398926e-01
3.446000000000000000e+03 5.188402557373046875e+01 3.246773958206176758e+00 6.884067505598068237e-02 1.381191253662109375e+00 4.350095987319946289e-01 -8.354470133781433105e-01
3.447000000000000000e+03 6.944560241699218750e+01 -7.881040096282958984e+00 2.431551456451416016e+00 9.042582511901855469e+00 3.442240238189697266e+00 -7.213098406791687012e-01
3.448000000000000000e+03 5.479970550537109375e+01 -1.687493133544921875e+01 2.443439513444900513e-01 2.578043460845947266e+00 8.467162251472473145e-01 1.503506422042846680e+00
3.449000000000000000e+03 3.306809997558593750e+01 2.654446363449096680e+00 -5.588768720626831055e-01 2.100706472992897034e-02 -1.613609492778778076e-01 6.937063336372375488e-01
3.450000000000000000e+03 5.302951812744140625e+01 2.317196130752563477e+00 7.516562193632125854e-02 1.477268099784851074e+00 4.657301008701324463e-01 -1.057466387748718262e+00
3.451000000000000000e+03 6.983964538574218750e+01 -6.919904708862304688e+00 2.448064804077148438e+00 8.790942192077636719e+00 3.371701955795288086e+00 -2.606725990772247314e-01
3.452000000000000000e+03 6.876599884033203125e+01 -1.403104972839355469e+01 -3.961578011512756348e-01 9.465106010437011719e+00 2.720684289932250977e+00 -9.803928136825561523e-01
3.453000000000000000e+03 6.993822479248046875e+01 -3.120868921279907227e+00 1.462453603744506836e+00 9.042598724365234375e+00 3.151515722274780273e+00 1.208839058876037598e+00
3.454000000000000000e+03 5.086345672607421875e+01 -1.757928085327148438e+01 2.452607601881027222e-01 1.320173978805541992e+00 4.696304500102996826e-01 7.320560812950134277e-01
3.455000000000000000e+03 5.213193893432617188e+01 -1.760700035095214844e+01 2.800803184509277344e-01 1.668490290641784668e+00 5.845711827278137207e-01 9.521995186805725098e-01
3.456000000000000000e+03 7.018764495849609375e+01 -1.105851173400878906e+00 5.092290639877319336e-01 9.034277915954589844e+00 2.863052129745483398e+00 1.318318486213684082e+00
3.457000000000000000e+03 7.050180053710937500e+01 -6.047503352165222168e-01 3.366225063800811768e-01 8.917856216430664062e+00 2.776343584060668945e+00 1.296870231628417969e+00
3.458000000000000000e+03 6.944327545166015625e+01 -1.274980640411376953e+01 7.461034506559371948e-02 9.375768661499023438e+00 2.835113763809204102e+00 -1.257063627243041992e+00
3.459000000000000000e+03 3.468535995483398438e+01 3.979611873626708984e+00 -4.850838780403137207e-01 7.892112433910369873e-02 -1.218488290905952454e-01 6.817089319229125977e-01
3.460000000000000000e+03 3.372892379760742188e+01 3.789764881134033203e+00 -4.970838427543640137e-01 5.037135258316993713e-02 -1.340137422084808350e-01 6.968905925750732422e-01
3.461000000000000000e+03 6.872151184082031250e+01 -1.149851512908935547e+01 5.014944672584533691e-01 9.759058952331542969e+00 3.078166007995605469e+00 -1.336983084678649902e+00
3.462000000000000000e+03 5.613054656982421875e+01 -1.547768592834472656e+01 2.234727591276168823e-01 2.958626747131347656e+00 9.546298384666442871e-01 1.868865132331848145e+00
3.463000000000000000e+03 4.613520431518554688e+01 4.618984699249267578e+00 -1.231927871704101562e-01 6.547049283981323242e-01 1.594536453485488892e-01 8.679751306772232056e-03
3.464000000000000000e+03 6.574382781982421875e+01 -8.710760116577148438e+00 2.879796981811523438e+00 1.244770908355712891e+01 4.598251819610595703e+00 -1.715928077697753906e+00
3.465000000000000000e+03 6.992090606689453125e+01 -9.644718170166015625e+00 1.456694483757019043e+00 9.019584655761718750e+00 3.142883777618408203e+00 -1.203681588172912598e+00
3.466000000000000000e+03 5.492575073242187500e+01 3.927903413772583008e+00 1.471863240003585815e-01 2.638276815414428711e+00 8.356389403343200684e-01 -1.538144588470458984e+00
3.467000000000000000e+03 6.986532592773437500e+01 -1.148571491241455078e+01 6.048673987388610840e-01 9.203870773315429688e+00 2.942621469497680664e+00 -1.358085155487060547e+00
3.468000000000000000e+03 6.713835906982421875e+01 -8.063314437866210938e+00 3.396466255187988281e+00 1.061417102813720703e+01 4.203191280364990234e+00 -1.225033998489379883e+00
3.469000000000000000e+03 6.963444519042968750e+01 -1.008318805694580078e+01 1.265376567840576172e+00 9.238210678100585938e+00 3.151076078414916992e+00 -1.320873141288757324e+00
3.470000000000000000e+03 6.948855590820312500e+01 -3.659044742584228516e+00 1.817522406578063965e+00 9.213604927062988281e+00 3.309338331222534180e+00 1.160991191864013672e+00
3.471000000000000000e+03 3.062055969238281250e+01 3.763465881347656250e+00 -4.703543186187744141e-01 -4.957058653235435486e-02 -1.559774726629257202e-01 7.238638997077941895e-01
3.472000000000000000e+03 6.848893737792968750e+01 -1.714651298522949219e+01 -8.315590023994445801e-01 8.830524444580078125e+00 2.399689435958862305e+00 -4.739170968532562256e-01
3.473000000000000000e+03 6.932314300537109375e+01 -1.759382629394531250e+01 -7.460035085678100586e-01 8.653286933898925781e+00 2.372184991836547852e+00 -6.037375330924987793e-01
3.474000000000000000e+03 5.289845275878906250e+01 4.243447303771972656e+00 1.628882288932800293e-01 1.888985753059387207e+00 6.155622005462646484e-01 -1.099864125251770020e+00
3.475000000000000000e+03 6.988522338867187500e+01 -5.179832223802804947e-04 1.060019955039024353e-01 9.173315048217773438e+00 2.783795118331909180e+00 1.257770776748657227e+00
3.476000000000000000e+03 3.005207252502441406e+01 -2.040480422973632812e+01 -9.820275008678436279e-02 -2.202039584517478943e-02 -3.606694191694259644e-02 -4.930258989334106445e-01
3.477000000000000000e+03 6.952629852294921875e+01 -4.783812999725341797e+00 2.341420412063598633e+00 9.039739608764648438e+00 3.414347887039184570e+00 7.745371460914611816e-01
3.478000000000000000e+03 4.158172607421875000e+01 4.754371166229248047e+00 -3.001004457473754883e-01 3.342659771442413330e-01 1.024965289980173111e-02 3.902209997177124023e-01
3.479000000000000000e+03 4.148020172119140625e+01 3.689870595932006836e+00 -4.307365119457244873e-01 2.574283778667449951e-01 -5.199243873357772827e-02 4.336298704147338867e-01
3.480000000000000000e+03 5.143755722045898438e+01 -1.700062179565429688e+01 2.180397212505340576e-01 1.365829944610595703e+00 4.751608967781066895e-01 8.072503209114074707e-01
3.481000000000000000e+03 4.700172424316406250e+01 -1.733275222778320312e+01 2.281798608601093292e-02 6.283665299415588379e-01 1.953553557395935059e-01 1.747473925352096558e-01
3.482000000000000000e+03 6.853681945800781250e+01 3.544798851013183594e+00 -7.983683347702026367e-01 8.978904724121093750e+00 2.454160928726196289e+00 5.522609949111938477e-01
3.483000000000000000e+03 6.827513122558593750e+01 2.508401155471801758e+00 -7.555494308471679688e-01 9.290458679199218750e+00 2.560472965240478516e+00 6.040089130401611328e-01
3.484000000000000000e+03 4.144705581665039062e+01 -1.809946441650390625e+01 -1.048618778586387634e-01 2.639550268650054932e-01 4.772794619202613831e-02 -2.462786138057708740e-01
3.485000000000000000e+03 4.050460052490234375e+01 -1.732766723632812500e+01 -2.367302328348159790e-01 1.826244890689849854e-01 -1.623172499239444733e-02 -3.189348876476287842e-01
3.486000000000000000e+03 3.468530654907226562e+01 -1.798955917358398438e+01 -2.583594024181365967e-01 2.671005949378013611e-02 -6.949479877948760986e-02 -4.773910939693450928e-01
3.487000000000000000e+03 3.711343765258789062e+01 -1.704223442077636719e+01 -3.419070839881896973e-01 6.182869523763656616e-02 -8.402352035045623779e-02 -4.398702383041381836e-01
3.488000000000000000e+03 5.292335510253906250e+01 -1.832357597351074219e+01 3.040538132190704346e-01 2.068813323974609375e+00 7.118601202964782715e-01 1.094771027565002441e+00
3.489000000000000000e+03 6.742893218994140625e+01 -2.024295425415039062e+01 -8.605818152427673340e-01 8.095279693603515625e+00 2.170409202575683594e+00 1.282444316893815994e-02
3.490000000000000000e+03 4.320863342285156250e+01 -1.766192436218261719e+01 -9.744322299957275391e-02 3.378629982471466064e-01 7.212592661380767822e-02 -1.508071571588516235e-01
3.491000000000000000e+03 3.154035758972167969e+01 -1.847223854064941406e+01 -2.400523126125335693e-01 -1.180096343159675598e-02 -7.555598020553588867e-02 -5.065039992332458496e-01
3.492000000000000000e+03 5.386002731323242188e+01 -1.911546516418457031e+01 2.807628810405731201e-01 2.540185451507568359e+00 8.462845087051391602e-01 1.214621543884277344e+00
3.493000000000000000e+03 2.987764739990234375e+01 5.506875991821289062e+00 -4.175740480422973633e-01 -7.212962955236434937e-02 -1.469110995531082153e-01 7.361577749252319336e-01
3.494000000000000000e+03 4.542253494262695312e+01 3.924764871597290039e+00 -2.393597513437271118e-01 5.060052871704101562e-01 7.999366521835327148e-02 1.122710108757019043e-01
3.495000000000000000e+03 6.829013061523437500e+01 8.259254455566406250e+00 -8.139428496360778809e-01 7.977596282958984375e+00 2.149096012115478516e+00 5.588140338659286499e-02
3.496000000000000000e+03 6.924663543701171875e+01 8.545828819274902344e+00 -7.353690862655639648e-01 7.996334075927734375e+00 2.178289413452148438e+00 2.042001783847808838e-01
3.497000000000000000e+03 5.018465805053710938e+01 -1.806002807617187500e+01 2.703256011009216309e-01 1.264370441436767578e+00 4.604088068008422852e-01 6.403762698173522949e-01
3.498000000000000000e+03 4.553637695312500000e+01 -1.849864768981933594e+01 9.695230424404144287e-02 6.017965078353881836e-01 2.096246480941772461e-01 7.483504712581634521e-02
3.499000000000000000e+03 4.967053222656250000e+01 -1.931070709228515625e+01 3.025715649127960205e-01 1.302616357803344727e+00 4.815563857555389404e-01 6.033101081848144531e-01
3.500000000000000000e+03 4.251923370361328125e+01 -1.880395698547363281e+01 1.417923066765069962e-02 3.722660839557647705e-01 1.159335896372795105e-01 -1.534274965524673462e-01
3.501000000000000000e+03 2.894334220886230469e+01 5.147736072540283203e+00 -4.192043244838714600e-01 -1.149957180023193359e-01 -1.602600216865539551e-01 7.389780282974243164e-01
3.502000000000000000e+03 2.975279426574707031e+01 3.502390146255493164e+00 -4.671203196048736572e-01 -8.082013577222824097e-02 -1.643821299076080322e-01 7.175970673561096191e-01
3.503000000000000000e+03 3.322438049316406250e+01 -1.829417419433593750e+01 -2.448932975530624390e-01 8.243090473115444183e-03 -7.099506258964538574e-02 -4.931339025497436523e-01
3.504000000000000000e+03 4.928131484985351562e+01 5.245348930358886719e+00 9.469015896320343018e-02 1.145363926887512207e+00 3.720162212848663330e-01 -4.614404737949371338e-01
3.505000000000000000e+03 4.866031646728515625e+01 4.626372814178466797e+00 1.819150522351264954e-02 9.579954743385314941e-01 2.928560972213745117e-01 -3.443600237369537354e-01
3.506000000000000000e+03 6.616729736328125000e+01 -2.112680435180664062e+01 -8.374260067939758301e-01 7.728930473327636719e+00 2.067451238632202148e+00 3.073453605175018311e-01
3.507000000000000000e+03 6.366828155517578125e+01 -2.315972709655761719e+01 -5.903552174568176270e-01 6.746666908264160156e+00 1.846893548965454102e+00 6.668564677238464355e-01
3.508000000000000000e+03 6.572439575195312500e+01 8.940530776977539062e+00 -8.480338454246520996e-01 7.517658710479736328e+00 2.000887632369995117e+00 -4.550971090793609619e-01
3.509000000000000000e+03 6.562591552734375000e+01 1.149384403228759766e+01 -6.541350483894348145e-01 7.042665481567382812e+00 1.916559100151062012e+00 -4.490473568439483643e-01
3.510000000000000000e+03 6.564318847656250000e+01 1.435177993774414062e+01 -4.591104686260223389e-01 6.699049472808837891e+00 1.871981620788574219e+00 -4.151439666748046875e-01
3.511000000000000000e+03 2.258027648925781250e+01 -2.189726829528808594e+01 -9.953219443559646606e-02 -1.518335044384002686e-01 -7.540971040725708008e-02 -4.184097051620483398e-01
3.512000000000000000e+03 2.504255485534667969e+01 -2.243803977966308594e+01 -3.632162138819694519e-02 -1.154261529445648193e-01 -4.552433267235755920e-02 -4.359084367752075195e-01
3.513000000000000000e+03 2.684463882446289062e+01 1.449306964874267578e+01 -3.176313042640686035e-01 -2.203819602727890015e-01 -1.614039838314056396e-01 5.210503935813903809e-01
3.514000000000000000e+03 2.818177986145019531e+01 1.716879653930664062e+01 -1.353385150432586670e-01 -8.343861252069473267e-02 -6.563314050436019897e-02 3.905548155307769775e-01
3.515000000000000000e+03 2.807160186767578125e+01 1.032509422302246094e+01 -3.636381030082702637e-01 -1.451392173767089844e-01 -1.526331901550292969e-01 6.727158427238464355e-01
3.516000000000000000e+03 2.931504440307617188e+01 7.546982288360595703e+00 -3.750941157341003418e-01 -9.490472078323364258e-02 -1.409996449947357178e-01 7.241477966308593750e-01
3.517000000000000000e+03 6.827708435058593750e+01 -2.721067237854003906e+01 -3.857531249523162842e-01 7.223517894744873047e+00 2.051329374313354492e+00 4.216171056032180786e-02
3.518000000000000000e+03 4.054397583007812500e+01 -1.917526817321777344e+01 -6.553503219038248062e-03 2.741937935352325439e-01 8.029208332300186157e-02 -2.614429593086242676e-01
3.519000000000000000e+03 3.772146224975585938e+01 -1.804927825927734375e+01 -2.089436948299407959e-01 1.032997593283653259e-01 -3.169317916035652161e-02 -4.102288782596588135e-01
3.520000000000000000e+03 2.945713424682617188e+01 1.167472457885742188e+01 -2.945010960102081299e-01 -3.987423330545425415e-02 -1.003125980496406555e-01 6.092714667320251465e-01
3.521000000000000000e+03 2.458783340454101562e+01 -1.923777198791503906e+01 -2.458214163780212402e-01 -8.343344926834106445e-02 -9.877645969390869141e-02 -4.696183800697326660e-01
3.522000000000000000e+03 2.860719490051269531e+01 1.371603298187255859e+01 -2.431215494871139526e-01 -6.351468712091445923e-02 -9.199087321758270264e-02 5.297422409057617188e-01
3.523000000000000000e+03 2.906312370300292969e+01 1.584140300750732422e+01 -1.678333729505538940e-01 -1.840757206082344055e-02 -5.587228387594223022e-02 4.464049637317657471e-01
3.524000000000000000e+03 6.635298919677734375e+01 -1.842957496643066406e+01 -9.868851304054260254e-01 8.441259384155273438e+00 2.236312150955200195e+00 1.904961466789245605e-01
3.525000000000000000e+03 6.364970779418945312e+01 1.773893928527832031e+01 -2.419326156377792358e-01 6.018454551696777344e+00 1.732956647872924805e+00 -5.018584132194519043e-01
3.526000000000000000e+03 2.733438491821289062e+01 -1.982179641723632812e+01 -1.763984560966491699e-01 -5.751629546284675598e-02 -7.017442584037780762e-02 -4.920569956302642822e-01
3.527000000000000000e+03 2.471913337707519531e+01 2.067672348022460938e+01 -4.240616783499717712e-02 -3.820448517799377441e-01 -1.273353099822998047e-01 2.744248509407043457e-01
3.528000000000000000e+03 2.969594192504882812e+01 -1.873998641967773438e+01 -2.355059683322906494e-01 -2.991073578596115112e-02 -7.962501049041748047e-02 -5.099722146987915039e-01
3.529000000000000000e+03 3.065120887756347656e+01 -2.208557701110839844e+01 4.207337275147438049e-02 1.580741489306092262e-03 1.309623476117849350e-02 -4.624820947647094727e-01
3.530000000000000000e+03 6.880311584472656250e+01 -1.111008930206298828e+01 7.119632959365844727e-01 9.732007026672363281e+00 3.133191108703613281e+00 -1.379362821578979492e+00
3.531000000000000000e+03 6.007769393920898438e+01 -2.050180912017822266e+00 4.517066776752471924e-01 5.852961540222167969e+00 1.891400456428527832e+00 -3.945274591445922852e+00
3.532000000000000000e+03 6.020608139038085938e+01 -1.645293354988098145e+00 2.211113274097442627e-01 6.292897701263427734e+00 1.954202771186828613e+00 -3.826069593429565430e+00
3.533000000000000000e+03 6.426352691650390625e+01 -9.898448944091796875e+00 1.724535524845123291e-01 1.378542041778564453e+01 4.187362194061279297e+00 -2.278166711330413818e-01
3.534000000000000000e+03 6.282667541503906250e+01 -1.039611434936523438e+01 -7.311276197433471680e-01 1.266460895538330078e+01 3.580044507980346680e+00 2.287041664123535156e+00
3.535000000000000000e+03 6.580561828613281250e+01 -6.185747146606445312e+00 5.699317932128906250e+00 1.171517276763916016e+01 5.224347114562988281e+00 2.714546024799346924e-01
3.536000000000000000e+03 6.248521041870117188e+01 -1.033968544006347656e+01 -6.649361252784729004e-01 1.214140033721923828e+01 3.442939281463623047e+00 2.893757104873657227e+00
3.537000000000000000e+03 6.570616149902343750e+01 -4.781604290008544922e+00 4.152327537536621094e+00 1.230915451049804688e+01 4.938444614410400391e+00 1.660287261009216309e+00
3.538000000000000000e+03 6.316730117797851562e+01 -1.048168754577636719e+01 -7.494801878929138184e-01 1.292048168182373047e+01 3.651300191879272461e+00 1.741222023963928223e+00
3.539000000000000000e+03 6.075302124023437500e+01 -1.120718860626220703e+01 -2.085020532831549644e-03 7.560506343841552734e+00 2.267526388168334961e+00 3.802033662796020508e+00
3.540000000000000000e+03 6.059274673461914062e+01 -2.389577150344848633e+00 3.641121685504913330e-01 7.164095401763916016e+00 2.258462190628051758e+00 -4.254970073699951172e+00
3.541000000000000000e+03 6.549568939208984375e+01 -4.276125907897949219e+00 3.156668186187744141e+00 1.283371353149414062e+01 4.797114372253417969e+00 1.762186288833618164e+00
3.542000000000000000e+03 6.019796752929687500e+01 -1.130092239379882812e+01 2.380680292844772339e-01 6.325611114501953125e+00 1.969103693962097168e+00 3.747168302536010742e+00
3.543000000000000000e+03 6.034511947631835938e+01 -1.199701023101806641e+01 -4.433133453130722046e-02 6.643046855926513672e+00 1.979614734649658203e+00 3.462809085845947266e+00
3.544000000000000000e+03 5.931076049804687500e+01 -1.313988685607910156e+00 3.461605310440063477e-01 4.717241764068603516e+00 1.519020795822143555e+00 -3.364571332931518555e+00
3.545000000000000000e+03 6.605789947509765625e+01 -4.954373836517333984e+00 4.201003551483154297e+00 1.175887966156005859e+01 4.787964820861816406e+00 1.436991214752197266e+00
3.546000000000000000e+03 6.886018371582031250e+01 -3.591103076934814453e+00 1.885047554969787598e+00 9.539870262145996094e+00 3.427475452423095703e+00 1.243807315826416016e+00
3.547000000000000000e+03 6.114416122436523438e+01 -2.299514770507812500e+00 -5.995593965053558350e-03 8.592810630798339844e+00 2.576044559478759766e+00 -4.168677330017089844e+00
3.548000000000000000e+03 6.153752517700195312e+01 -1.107571792602539062e+01 -3.944906890392303467e-01 9.297378540039062500e+00 2.670866250991821289e+00 3.593264341354370117e+00
3.549000000000000000e+03 6.129952621459960938e+01 -1.072443580627441406e+01 -1.474635750055313110e-01 8.948645591735839844e+00 2.640354633331298828e+00 3.931189060211181641e+00
3.550000000000000000e+03 6.654515075683593750e+01 -4.089398384094238281e+00 2.791676282882690430e+00 1.135279655456542969e+01 4.243341922760009766e+00 1.549420952796936035e+00
3.551000000000000000e+03 6.352201080322265625e+01 -1.056289291381835938e+01 -6.859766840934753418e-01 1.297959613800048828e+01 3.688085794448852539e+00 1.193909645080566406e+00
3.552000000000000000e+03 6.629029083251953125e+01 -5.855329036712646484e+00 4.954882144927978516e+00 1.118547344207763672e+01 4.842106342315673828e+00 5.903082489967346191e-01
3.553000000000000000e+03 5.894751358032226562e+01 -1.428591847419738770e+00 4.388695061206817627e-01 4.104815959930419922e+00 1.363105654716491699e+00 -3.210973978042602539e+00
3.554000000000000000e+03 5.844079971313476562e+01 2.523464560508728027e-01 1.621619015932083130e-01 4.194659233093261719e+00 1.307046413421630859e+00 -2.769599914550781250e+00
3.555000000000000000e+03 5.819492340087890625e+01 -1.335334873199462891e+01 2.260784804821014404e-01 3.981668472290039062e+00 1.262324094772338867e+00 2.633239269256591797e+00
3.556000000000000000e+03 6.914620971679687500e+01 -1.023864650726318359e+01 1.199333190917968750e+00 9.480772972106933594e+00 3.204031944274902344e+00 -1.347835540771484375e+00
3.557000000000000000e+03 5.915259552001953125e+01 -1.246845054626464844e+01 2.177064269781112671e-01 4.778371334075927734e+00 1.498823404312133789e+00 3.035405158996582031e+00
3.558000000000000000e+03 5.879988861083984375e+01 -1.559370458126068115e-01 1.793630421161651611e-01 4.454010486602783203e+00 1.390012145042419434e+00 -2.975355863571166992e+00
3.559000000000000000e+03 5.753398513793945312e+01 9.566245079040527344e-01 1.700859367847442627e-01 3.496504306793212891e+00 1.099977016448974609e+00 -2.405619859695434570e+00
3.560000000000000000e+03 5.479949188232421875e+01 2.999290466308593750e+00 1.643534153699874878e-01 2.345812320709228516e+00 7.530497312545776367e-01 -1.527537584304809570e+00
3.561000000000000000e+03 5.771739196777343750e+01 2.315016984939575195e+00 2.526497282087802887e-02 4.014568328857421875e+00 1.211950063705444336e+00 -2.297671556472778320e+00
3.562000000000000000e+03 5.698958587646484375e+01 1.744527339935302734e+00 1.468516886234283447e-01 3.283494472503662109e+00 1.029103875160217285e+00 -2.174850702285766602e+00
3.563000000000000000e+03 6.943875885009765625e+01 -9.648479461669921875e+00 1.585608959197998047e+00 9.316112518310546875e+00 3.270516395568847656e+00 -1.277742505073547363e+00
3.564000000000000000e+03 5.708846282958984375e+01 2.487619400024414062e+00 8.854445070028305054e-02 3.571295738220214844e+00 1.097952008247375488e+00 -2.141599416732788086e+00
3.565000000000000000e+03 5.673188400268554688e+01 4.299691677093505859e+00 2.899178117513656616e-02 3.603334665298461914e+00 1.089697957038879395e+00 -1.864595293998718262e+00
3.566000000000000000e+03 6.972813415527343750e+01 -5.949542999267578125e+00 2.498375177383422852e+00 8.823250770568847656e+00 3.396487712860107422e+00 2.171349823474884033e-01
3.567000000000000000e+03 6.917385864257812500e+01 -5.979738235473632812e+00 2.862792253494262695e+00 9.120779037475585938e+00 3.595071315765380859e+00 2.222112715244293213e-01
3.568000000000000000e+03 6.796226501464843750e+01 -1.391773891448974609e+01 -5.106803774833679199e-01 9.711460113525390625e+00 2.760233879089355469e+00 -8.247903585433959961e-01
3.569000000000000000e+03 5.081328582763671875e+01 5.489734649658203125e+00 1.672760695219039917e-01 1.529218435287475586e+00 5.089483261108398438e-01 -7.298815846443176270e-01
3.570000000000000000e+03 4.782444000244140625e+01 5.220528602600097656e+00 3.293834626674652100e-02 9.209793210029602051e-01 2.861752808094024658e-01 -2.540888488292694092e-01
3.571000000000000000e+03 5.193344879150390625e+01 4.108821392059326172e+00 1.317714005708694458e-01 1.570506691932678223e+00 5.106834173202514648e-01 -8.855863213539123535e-01
3.572000000000000000e+03 5.162400436401367188e+01 4.878132343292236328e+00 1.513334065675735474e-01 1.613558769226074219e+00 5.294676423072814941e-01 -8.560543060302734375e-01
3.573000000000000000e+03 6.940476989746093750e+01 -2.569509029388427734e+00 1.236865639686584473e+00 9.351775169372558594e+00 3.176592111587524414e+00 1.317469716072082520e+00
3.574000000000000000e+03 3.277853012084960938e+01 3.492969989776611328e+00 -5.084499716758728027e-01 2.218261919915676117e-02 -1.458802074193954468e-01 7.068375945091247559e-01
3.575000000000000000e+03 3.153005027770996094e+01 4.050367355346679688e+00 -4.685451090335845947e-01 -1.629838906228542328e-02 -1.454530507326126099e-01 7.231568694114685059e-01
3.576000000000000000e+03 6.844377899169921875e+01 -1.352723503112792969e+01 -3.352138102054595947e-01 9.645972251892089844e+00 2.793227434158325195e+00 -9.928337335586547852e-01
3.577000000000000000e+03 5.753037643432617188e+01 -1.720119667053222656e+01 5.069295875728130341e-04 4.160146236419677734e+00 1.248195886611938477e+00 1.926133990287780762e+00
3.578000000000000000e+03 5.732174682617187500e+01 -1.575191211700439453e+01 1.115540638566017151e-01 3.755312681198120117e+00 1.160060048103332520e+00 2.113638639450073242e+00
3.579000000000000000e+03 6.972380828857421875e+01 7.282740473747253418e-01 -1.557025462388992310e-01 9.195112228393554688e+00 2.711822986602783203e+00 1.154971122741699219e+00
3.580000000000000000e+03 6.961492919921875000e+01 -1.506969809532165527e+00 6.736410260200500488e-01 9.322725296020507812e+00 2.998909950256347656e+00 1.345813632011413574e+00
3.581000000000000000e+03 6.898919677734375000e+01 -1.625738525390625000e+01 -7.104578018188476562e-01 8.962266921997070312e+00 2.475542783737182617e+00 -6.939105391502380371e-01
3.582000000000000000e+03 6.921222686767578125e+01 -7.300683021545410156e+00 2.711433410644531250e+00 9.106771469116210938e+00 3.545461654663085938e+00 -5.028494596481323242e-01
3.583000000000000000e+03 6.930133056640625000e+01 -9.163676261901855469e+00 1.876794815063476562e+00 9.310255050659179688e+00 3.356115102767944336e+00 -1.202580809593200684e+00
3.584000000000000000e+03 5.441542816162109375e+01 -1.795783233642578125e+01 2.544851601123809814e-01 2.624124526977539062e+00 8.635829091072082520e-01 1.358803868293762207e+00
3.585000000000000000e+03 5.569031524658203125e+01 -1.724434089660644531e+01 1.929432004690170288e-01 3.095764398574829102e+00 9.866123199462890625e-01 1.652193665504455566e+00
3.586000000000000000e+03 3.852878570556640625e+01 4.769362449645996094e+00 -3.746299743652343750e-01 2.193975150585174561e-01 -4.656973481178283691e-02 5.541954040527343750e-01
3.587000000000000000e+03 3.512623214721679688e+01 -1.927665138244628906e+01 -1.240717694163322449e-01 5.686485022306442261e-02 -2.016207575798034668e-02 -4.533737301826477051e-01
3.588000000000000000e+03 3.721606063842773438e+01 -2.001239204406738281e+01 -8.277880027890205383e-03 1.450652182102203369e-01 4.103620350360870361e-02 -3.855863511562347412e-01
3.589000000000000000e+03 6.784803009033203125e+01 -1.803912162780761719e+01 -9.043037891387939453e-01 8.623089790344238281e+00 2.315635681152343750e+00 -2.267980873584747314e-01
3.590000000000000000e+03 6.561559295654296875e+01 -3.826814651489257812e+00 2.339940547943115234e+00 1.264027690887451172e+01 4.494065284729003906e+00 1.658774018287658691e+00
3.591000000000000000e+03 6.854875183105468750e+01 1.561688303947448730e+00 -5.344240069389343262e-01 9.424533843994140625e+00 2.667032957077026367e+00 8.408133387565612793e-01
3.592000000000000000e+03 6.882142639160156250e+01 2.221558332443237305e+00 -6.119884848594665527e-01 9.261411666870117188e+00 2.594826936721801758e+00 8.077093958854675293e-01
3.593000000000000000e+03 5.674973678588867188e+01 -1.565905380249023438e+01 1.675780266523361206e-01 3.399280786514282227e+00 1.070057630538940430e+00 2.011434316635131836e+00
3.594000000000000000e+03 6.898046875000000000e+01 -9.811943054199218750e+00 1.555828571319580078e+00 9.556415557861328125e+00 3.333673238754272461e+00 -1.342594742774963379e+00
3.595000000000000000e+03 6.674639892578125000e+01 5.541800022125244141e+00 -1.020990848541259766e+00 8.479190826416015625e+00 2.237460136413574219e+00 -1.508442461490631104e-01
3.596000000000000000e+03 6.805163574218750000e+01 -1.485830879211425781e+01 -6.767671704292297363e-01 9.459305763244628906e+00 2.634761571884155273e+00 -6.839674711227416992e-01
3.597000000000000000e+03 6.882847595214843750e+01 -1.456615829467773438e+01 -5.031992793083190918e-01 9.334996223449707031e+00 2.649539232254028320e+00 -9.063339233398437500e-01
3.598000000000000000e+03 6.944222259521484375e+01 -6.430397510528564453e+00 2.698251247406005859e+00 8.960153579711914062e+00 3.497521400451660156e+00 -3.183238208293914795e-02
3.599000000000000000e+03 6.860536193847656250e+01 2.244467437267303467e-01 -1.547378003597259521e-01 9.710865974426269531e+00 2.866838455200195312e+00 1.087509512901306152e+00
3.600000000000000000e+03 3.182024192810058594e+01 3.120016336441040039e+00 -5.142011046409606934e-01 -1.146140508353710175e-02 -1.576987504959106445e-01 7.096610069274902344e-01
3.601000000000000000e+03 5.145941162109375000e+01 -1.830770492553710938e+01 3.063377439975738525e-01 1.600064158439636230e+00 5.719205737113952637e-01 8.474230170249938965e-01
3.602000000000000000e+03 5.216494369506835938e+01 -1.918774986267089844e+01 3.285054564476013184e-01 1.951388955116271973e+00 6.839683651924133301e-01 9.597445726394653320e-01
3.603000000000000000e+03 4.431877136230468750e+01 -1.814398956298828125e+01 6.037505343556404114e-03 4.612108767032623291e-01 1.401745080947875977e-01 -4.433040320873260498e-02
3.604000000000000000e+03 4.376428985595703125e+01 -1.662993812561035156e+01 -2.262377887964248657e-01 3.030357360839843750e-01 2.303938195109367371e-02 -1.540511250495910645e-01
3.605000000000000000e+03 5.063551712036132812e+01 -1.888632774353027344e+01 3.091318309307098389e-01 1.481501698493957520e+00 5.371900200843811035e-01 7.249157428741455078e-01
3.606000000000000000e+03 3.070773887634277344e+01 8.689470291137695312e+00 -3.199654817581176758e-01 1.272041583433747292e-03 -9.560803323984146118e-02 6.862896084785461426e-01
3.607000000000000000e+03 6.879920196533203125e+01 6.112644672393798828e+00 -8.484583497047424316e-01 8.404611587524414062e+00 2.266845941543579102e+00 3.080732524394989014e-01
3.608000000000000000e+03 6.773927307128906250e+01 5.852208137512207031e+00 -9.446350336074829102e-01 8.454223632812500000e+00 2.252876758575439453e+00 9.721295535564422607e-02
3.609000000000000000e+03 4.539972305297851562e+01 5.411771297454833984e+00 -8.219387382268905640e-02 6.416950225830078125e-01 1.678503453731536865e-01 4.666367918252944946e-02
3.610000000000000000e+03 4.744223785400390625e+01 4.521092891693115234e+00 -6.714251637458801270e-02 7.424380183219909668e-01 2.025886476039886475e-01 -1.652199625968933105e-01
3.611000000000000000e+03 6.995306396484375000e+01 -6.308130025863647461e-01 3.258737921714782715e-01 9.157513618469238281e+00 2.845016241073608398e+00 1.312535285949707031e+00
3.612000000000000000e+03 4.823198318481445312e+01 -1.850246429443359375e+01 2.200023382902145386e-01 9.471412301063537598e-01 3.501430749893188477e-01 3.901804685592651367e-01
3.613000000000000000e+03 5.121615982055664062e+01 -1.990453910827636719e+01 3.500683903694152832e-01 1.786830663681030273e+00 6.410697102546691895e-01 8.225051164627075195e-01
3.614000000000000000e+03 4.059120178222656250e+01 5.068800449371337891e+00 -3.010954260826110840e-01 3.062363266944885254e-01 1.542265294119715691e-03 4.445407986640930176e-01
3.615000000000000000e+03 3.849113464355468750e+01 -1.914610481262207031e+01 -6.687188148498535156e-02 1.764080077409744263e-01 3.286083787679672241e-02 -3.599490523338317871e-01
3.616000000000000000e+03 6.684260559082031250e+01 9.156169891357421875e+00 -8.159041404724121094e-01 7.676747798919677734e+00 2.058253049850463867e+00 -2.273304015398025513e-01
3.617000000000000000e+03 6.430477905273437500e+01 -2.019619750976562500e+01 -8.555179834365844727e-01 7.481451511383056641e+00 1.987779974937438965e+00 7.196443080902099609e-01
3.618000000000000000e+03 5.389669036865234375e+01 3.167315006256103516e+00 1.600396186113357544e-01 1.974071264266967773e+00 6.402332782745361328e-01 -1.303770661354064941e+00
3.619000000000000000e+03 4.986274337768554688e+01 6.032394409179687500e+00 1.547372043132781982e-01 1.372051239013671875e+00 4.580365419387817383e-01 -5.777401328086853027e-01
3.620000000000000000e+03 4.832059097290039062e+01 5.960519313812255859e+00 9.279707819223403931e-02 1.078538537025451660e+00 3.514006733894348145e-01 -3.434402346611022949e-01
3.621000000000000000e+03 6.523554229736328125e+01 -2.073635864257812500e+01 -8.498563170433044434e-01 7.627644538879394531e+00 2.033336400985717773e+00 4.889599382877349854e-01
3.622000000000000000e+03 6.555259704589843750e+01 1.593597984313964844e+01 -3.712639212608337402e-01 6.551431655883789062e+00 1.854050278663635254e+00 -4.096003770828247070e-01
3.623000000000000000e+03 6.421994781494140625e+01 1.290458869934082031e+01 -5.204535722732543945e-01 6.528703689575195312e+00 1.802475094795227051e+00 -5.976834893226623535e-01
3.624000000000000000e+03 3.754325103759765625e+01 3.958329916000366211e+00 -4.713840186595916748e-01 1.561974883079528809e-01 -9.455595910549163818e-02 6.074372529983520508e-01
3.625000000000000000e+03 3.662819671630859375e+01 4.984147071838378906e+00 -3.937305808067321777e-01 1.638800799846649170e-01 -6.895514577627182007e-02 6.232581734657287598e-01
3.626000000000000000e+03 3.238971710205078125e+01 -2.168052482604980469e+01 3.806094080209732056e-02 3.474585339426994324e-02 2.184203825891017914e-02 -4.511502981185913086e-01
3.627000000000000000e+03 4.399816513061523438e+01 3.742441892623901367e+00 -3.314620256423950195e-01 3.800718784332275391e-01 1.458295620977878571e-02 2.533296942710876465e-01
3.628000000000000000e+03 4.194883728027343750e+01 5.862037181854248047e+00 -1.755802631378173828e-01 4.411920309066772461e-01 7.968352735042572021e-02 3.273771107196807861e-01
3.629000000000000000e+03 3.890394973754882812e+01 6.634151458740234375e+00 -2.099927812814712524e-01 3.194428086280822754e-01 3.283501043915748596e-02 4.870191216468811035e-01
3.630000000000000000e+03 3.936979675292968750e+01 4.627958297729492188e+00 -3.627808988094329834e-01 2.454086095094680786e-01 -3.521168977022171021e-02 5.181078910827636719e-01
3.631000000000000000e+03 2.950668334960937500e+01 6.472071170806884766e+00 -3.907476961612701416e-01 -8.587080985307693481e-02 -1.429855525493621826e-01 7.349600791931152344e-01
3.632000000000000000e+03 3.075357055664062500e+01 7.582763195037841797e+00 -3.494042158126831055e-01 -8.319596759974956512e-03 -1.073171421885490417e-01 7.098843455314636230e-01
3.633000000000000000e+03 4.466826248168945312e+01 4.568095684051513672e+00 -1.955602467060089111e-01 5.060690641403198242e-01 9.315264225006103516e-02 1.513979434967041016e-01
3.634000000000000000e+03 6.457572174072265625e+01 -2.207744789123535156e+01 -7.321156859397888184e-01 7.171927452087402344e+00 1.931943535804748535e+00 5.919970273971557617e-01
3.635000000000000000e+03 4.857224655151367188e+01 -1.970598983764648438e+01 3.088042140007019043e-01 1.155885934829711914e+00 4.394070208072662354e-01 4.625480175018310547e-01
3.636000000000000000e+03 3.011033248901367188e+01 1.297089195251464844e+01 -2.273088544607162476e-01 2.246372587978839874e-02 -6.145353615283966064e-02 5.477071404457092285e-01
3.637000000000000000e+03 3.358441162109375000e+01 -1.970365524291992188e+01 -1.067249476909637451e-01 3.120475448668003082e-02 -2.265605702996253967e-02 -4.697329998016357422e-01
3.638000000000000000e+03 4.686605453491210938e+01 -1.868918418884277344e+01 1.799307763576507568e-01 7.757231593132019043e-01 2.866961658000946045e-01 2.280915528535842896e-01
3.639000000000000000e+03 2.633458900451660156e+01 -2.625111770629882812e+01 1.947939395904541016e-01 -1.036641746759414673e-01 2.733893133699893951e-02 -3.831601142883300781e-01
3.640000000000000000e+03 6.694004821777343750e+01 2.157858085632324219e+01 -1.266911774873733521e-01 6.533230304718017578e+00 1.921961784362792969e+00 -2.871397137641906738e-01
3.641000000000000000e+03 6.543704986572265625e+01 2.108458900451660156e+01 -1.225973889231681824e-01 6.253873348236083984e+00 1.839382767677307129e+00 -3.567948639392852783e-01
3.642000000000000000e+03 6.543927001953125000e+01 1.762233352661132812e+01 -2.750830948352813721e-01 6.415511608123779297e+00 1.842128634452819824e+00 -3.997255265712738037e-01
3.643000000000000000e+03 3.073389434814453125e+01 9.793584823608398438e+00 -2.903894186019897461e-01 1.723370514810085297e-02 -8.194670826196670532e-02 6.606383919715881348e-01
3.644000000000000000e+03 6.111330413818359375e+01 -1.822343587875366211e+00 -1.670041531324386597e-01 8.310832977294921875e+00 2.443148851394653320e+00 -3.928558349609375000e+00
3.645000000000000000e+03 6.158548355102539062e+01 -1.597054362297058105e+00 -5.329691767692565918e-01 9.437795639038085938e+00 2.671447753906250000e+00 -3.520179748535156250e+00
3.646000000000000000e+03 6.506183624267578125e+01 -9.269738197326660156e+00 1.583989262580871582e+00 1.343350696563720703e+01 4.505249023437500000e+00 -1.417974114418029785e+00
3.647000000000000000e+03 6.739337921142578125e+01 -1.181341457366943359e+01 1.547740399837493896e-01 1.049427509307861328e+01 3.194714784622192383e+00 -1.157498002052307129e+00
3.648000000000000000e+03 6.628350830078125000e+01 -4.529627323150634766e+00 3.498415470123291016e+00 1.157367324829101562e+01 4.521626472473144531e+00 1.539486765861511230e+00
3.649000000000000000e+03 6.718775939941406250e+01 -1.232802963256835938e+01 -1.659603267908096313e-01 1.045292663574218750e+01 3.086089849472045898e+00 -9.546347260475158691e-01
3.650000000000000000e+03 6.391392517089843750e+01 -9.856807708740234375e+00 -3.521485254168510437e-02 1.406261920928955078e+01 4.208221435546875000e+00 2.119328677654266357e-01
3.651000000000000000e+03 5.983636093139648438e+01 -1.458252072334289551e+00 3.013179302215576172e-01 5.553864479064941406e+00 1.756554722785949707e+00 -3.663119792938232422e+00
3.652000000000000000e+03 6.631462097167968750e+01 -7.481388568878173828e+00 4.478906631469726562e+00 1.131520843505859375e+01 4.738234519958496094e+00 -1.129263997077941895e+00
3.653000000000000000e+03 6.590894317626953125e+01 -7.582262516021728516e+00 4.672528743743896484e+00 1.184927368164062500e+01 4.956540584564208984e+00 -1.335476517677307129e+00
3.654000000000000000e+03 6.131815719604492188e+01 -1.672132968902587891e+00 -3.383387923240661621e-01 8.746706962585449219e+00 2.522510528564453125e+00 -3.751265287399291992e+00
3.655000000000000000e+03 6.499498748779296875e+01 -8.856011390686035156e+00 2.273061275482177734e+00 1.361832904815673828e+01 4.767416954040527344e+00 -1.617171883583068848e+00
3.656000000000000000e+03 6.733724212646484375e+01 -4.095393180847167969e+00 2.693397998809814453e+00 1.061728000640869141e+01 3.993203401565551758e+00 1.407369971275329590e+00
3.657000000000000000e+03 6.617176818847656250e+01 -7.086292266845703125e+00 4.962900161743164062e+00 1.136654663085937500e+01 4.898833751678466797e+00 -7.964683175086975098e-01
3.658000000000000000e+03 6.618147277832031250e+01 -6.672802925109863281e+00 5.228005409240722656e+00 1.126920413970947266e+01 4.949162960052490234e+00 -3.403666913509368896e-01
3.659000000000000000e+03 6.260279083251953125e+01 -1.097036743164062500e+01 -8.075645565986633301e-01 1.146310424804687500e+01 3.196661949157714844e+00 2.536988019943237305e+00
3.660000000000000000e+03 6.463062286376953125e+01 -9.572112083435058594e+00 8.481676578521728516e-01 1.380669593811035156e+01 4.396459102630615234e+00 -8.967472314834594727e-01
3.661000000000000000e+03 6.425738525390625000e+01 -9.522443771362304688e+00 5.989932417869567871e-01 1.428379535675048828e+01 4.464836597442626953e+00 -5.452721714973449707e-01
3.662000000000000000e+03 6.125973510742187500e+01 -1.126688957214355469e+01 -2.935718894004821777e-01 8.616055488586425781e+00 2.496745109558105469e+00 3.632722139358520508e+00
3.663000000000000000e+03 6.636174774169921875e+01 -5.459400177001953125e+00 4.560352325439453125e+00 1.118847179412841797e+01 4.724647045135498047e+00 9.598740935325622559e-01
3.664000000000000000e+03 6.251644897460937500e+01 -1.645600199699401855e+00 -8.927810192108154297e-01 1.109537315368652344e+01 3.060777664184570312e+00 -2.705374479293823242e+00
3.665000000000000000e+03 6.101037979125976562e+01 -1.145823574066162109e+01 -2.102464735507965088e-01 8.037567138671875000e+00 2.348196268081665039e+00 3.625152587890625000e+00
3.666000000000000000e+03 6.101295852661132812e+01 -1.094284439086914062e+01 -5.222745984792709351e-02 8.175821304321289062e+00 2.437077999114990234e+00 3.911973714828491211e+00
3.667000000000000000e+03 5.996187591552734375e+01 -1.172325420379638672e+01 1.727926880121231079e-01 5.909701824188232422e+00 1.824748277664184570e+00 3.481768369674682617e+00
3.668000000000000000e+03 6.850047302246093750e+01 -8.895379066467285156e+00 2.230459690093994141e+00 9.743137359619140625e+00 3.592079162597656250e+00 -1.256974935531616211e+00
3.669000000000000000e+03 5.934643173217773438e+01 -9.624008536338806152e-01 2.581678628921508789e-01 4.867650032043457031e+00 1.537745356559753418e+00 -3.330122232437133789e+00
3.670000000000000000e+03 6.390574645996093750e+01 -1.023714351654052734e+01 -3.444633781909942627e-01 1.349913120269775391e+01 3.946400403976440430e+00 4.719177484512329102e-01
3.671000000000000000e+03 6.803628540039062500e+01 -3.373265027999877930e+00 1.915030717849731445e+00 1.014184761047363281e+01 3.617063522338867188e+00 1.400561332702636719e+00
3.672000000000000000e+03 6.034826278686523438e+01 -1.219913721084594727e+00 9.178594686090946198e-03 6.671365261077880859e+00 2.004163026809692383e+00 -3.643320798873901367e+00
3.673000000000000000e+03 6.356314849853515625e+01 -1.818079829216003418e+00 -8.511915802955627441e-01 1.236357212066650391e+01 3.453714132308959961e+00 -1.312312841415405273e+00
3.674000000000000000e+03 5.824656677246093750e+01 -1.461016273498535156e+01 5.100857093930244446e-02 4.342247009277343750e+00 1.317976593971252441e+00 2.448196649551391602e+00
3.675000000000000000e+03 5.863085174560546875e+01 -1.316200637817382812e+01 1.875341385602951050e-01 4.358871936798095703e+00 1.363921761512756348e+00 2.781473398208618164e+00
3.676000000000000000e+03 5.909550094604492188e+01 -6.147348284721374512e-01 2.240685671567916870e-01 4.675634860992431641e+00 1.469911098480224609e+00 -3.150094270706176758e+00
3.677000000000000000e+03 5.911668777465820312e+01 -1.300209712982177734e+01 1.158434450626373291e-01 4.923667907714843750e+00 1.511853337287902832e+00 2.925889730453491211e+00
3.678000000000000000e+03 6.904521179199218750e+01 -1.069690418243408203e+01 9.697126746177673340e-01 9.579990386962890625e+00 3.164911031723022461e+00 -1.382499217987060547e+00
3.679000000000000000e+03 5.781293106079101562e+01 -1.596588802337646484e+01 1.153763290494680405e-02 4.221859455108642578e+00 1.270019173622131348e+00 2.143352746963500977e+00
3.680000000000000000e+03 5.838525772094726562e+01 1.043279170989990234e+00 6.241471692919731140e-02 4.292537689208984375e+00 1.306485652923583984e+00 -2.606345653533935547e+00
3.681000000000000000e+03 5.900142669677734375e+01 2.049081802368164062e+00 -1.964222341775894165e-01 5.177891254425048828e+00 1.494440674781799316e+00 -2.558012723922729492e+00
3.682000000000000000e+03 6.877352905273437500e+01 -8.132127761840820312e+00 2.582608699798583984e+00 9.461093902587890625e+00 3.613110780715942383e+00 -9.238286614418029785e-01
3.683000000000000000e+03 6.829247283935546875e+01 -1.208638191223144531e+01 1.775788664817810059e-01 9.960596084594726562e+00 3.041452646255493164e+00 -1.231081008911132812e+00
3.684000000000000000e+03 6.821695709228515625e+01 -1.149724864959716797e+01 4.419180750846862793e-01 1.006698131561279297e+01 3.152669668197631836e+00 -1.306668281555175781e+00
3.685000000000000000e+03 5.576333999633789062e+01 3.676836967468261719e+00 1.228508874773979187e-01 3.006706714630126953e+00 9.388672709465026855e-01 -1.756513357162475586e+00
3.686000000000000000e+03 6.858541870117187500e+01 -1.266775417327880859e+01 7.281982339918613434e-03 9.767798423767089844e+00 2.932523965835571289e+00 -1.192579030990600586e+00
3.687000000000000000e+03 6.883507537841796875e+01 -1.193430614471435547e+01 3.277308940887451172e-01 9.713532447814941406e+00 3.012378931045532227e+00 -1.306736230850219727e+00
3.688000000000000000e+03 6.874245452880859375e+01 -9.369681358337402344e+00 1.853579521179199219e+00 9.656268119812011719e+00 3.452954292297363281e+00 -1.318962574005126953e+00
3.689000000000000000e+03 5.725220108032226562e+01 3.266347646713256836e+00 1.160620246082544327e-02 3.845617771148681641e+00 1.157167196273803711e+00 -2.072708606719970703e+00
3.690000000000000000e+03 5.653049468994140625e+01 3.462528467178344727e+00 8.653029054403305054e-02 3.378212451934814453e+00 1.039422869682312012e+00 -1.930533766746520996e+00
3.691000000000000000e+03 6.968329620361328125e+01 -5.359012603759765625e+00 2.419571876525878906e+00 8.882858276367187500e+00 3.390728950500488281e+00 4.989733994007110596e-01
3.692000000000000000e+03 6.882378387451171875e+01 -4.191232681274414062e+00 2.325786113739013672e+00 9.461606025695800781e+00 3.536217689514160156e+00 1.085437059402465820e+00
3.693000000000000000e+03 6.850518035888671875e+01 -7.594511032104492188e+00 2.988591670989990234e+00 9.527353286743164062e+00 3.754783630371093750e+00 -7.257694005966186523e-01
3.694000000000000000e+03 6.669583129882812500e+01 -7.387226581573486328e+00 4.275107860565185547e+00 1.087049961090087891e+01 4.543682098388671875e+00 -9.441623687744140625e-01
3.695000000000000000e+03 6.924976348876953125e+01 -2.153476178646087646e-01 7.816332578659057617e-02 9.449905395507812500e+00 2.858420610427856445e+00 1.216426730155944824e+00
3.696000000000000000e+03 6.897204589843750000e+01 -1.976000308990478516e+00 9.042203426361083984e-01 9.653870582580566406e+00 3.167427062988281250e+00 1.383521318435668945e+00
3.697000000000000000e+03 5.126174926757812500e+01 6.344276428222656250e+00 2.005525827407836914e-01 1.794270634651184082e+00 5.984469652175903320e-01 -8.302053213119506836e-01
3.698000000000000000e+03 6.519604492187500000e+01 -3.248369693756103516e+00 1.231465101242065430e+00 1.309741020202636719e+01 4.298662662506103516e+00 1.273762226104736328e+00
3.699000000000000000e+03 6.755158996582031250e+01 -1.441385841369628906e+01 -6.974156498908996582e-01 9.703339576721191406e+00 2.701776981353759766e+00 -6.161216497421264648e-01
3.700000000000000000e+03 6.836890411376953125e+01 -1.434815597534179688e+01 -5.381674170494079590e-01 9.508247375488281250e+00 2.691023826599121094e+00 -8.366690278053283691e-01
3.701000000000000000e+03 3.118725395202636719e+01 4.930275440216064453e+00 -4.343815743923187256e-01 -2.486673742532730103e-02 -1.377744823694229126e-01 7.301197648048400879e-01
3.702000000000000000e+03 6.860578918457031250e+01 -6.059719562530517578e+00 3.155356884002685547e+00 9.378804206848144531e+00 3.760248422622680664e+00 1.866746544837951660e-01
3.703000000000000000e+03 6.847460174560546875e+01 -6.830492973327636719e+00 3.180407047271728516e+00 9.449970245361328125e+00 3.789113283157348633e+00 -3.166023492813110352e-01
3.704000000000000000e+03 3.437522125244140625e+01 6.076250553131103516e+00 -3.574023246765136719e-01 1.143471226096153259e-01 -7.291655987501144409e-02 6.695948243141174316e-01
3.705000000000000000e+03 6.677969360351562500e+01 -5.522870540618896484e+00 4.266440391540527344e+00 1.075334930419921875e+01 4.505937099456787109e+00 7.918162345886230469e-01
3.706000000000000000e+03 5.833647918701171875e+01 -1.620323944091796875e+01 -8.155695348978042603e-02 4.635673999786376953e+00 1.366235136985778809e+00 2.157685041427612305e+00
3.707000000000000000e+03 6.827375030517578125e+01 -1.589925575256347656e+01 -7.755035161972045898e-01 9.152173042297363281e+00 2.513000726699829102e+00 -5.832322239875793457e-01
3.708000000000000000e+03 6.789859771728515625e+01 1.860998630523681641e+00 -7.146179080009460449e-01 9.544080734252929688e+00 2.648838996887207031e+00 6.334058046340942383e-01
3.709000000000000000e+03 6.786676025390625000e+01 8.090185523033142090e-01 -4.815689623355865479e-01 9.820889472961425781e+00 2.801796197891235352e+00 8.118078112602233887e-01
3.710000000000000000e+03 6.667477416992187500e+01 -1.550583362579345703e+01 -9.616245031356811523e-01 9.406270027160644531e+00 2.533393621444702148e+00 -1.263999640941619873e-01
3.711000000000000000e+03 6.862667083740234375e+01 -1.519100856781005859e+01 -6.386032104492187500e-01 9.255917549133300781e+00 2.585194349288940430e+00 -7.707499265670776367e-01
3.712000000000000000e+03 6.725822448730468750e+01 2.044483423233032227e+00 -8.601009845733642578e-01 9.616876602172851562e+00 2.627032518386840820e+00 3.979209065437316895e-01
3.713000000000000000e+03 4.650638961791992188e+01 -2.025522232055664062e+01 2.966772615909576416e-01 8.994495272636413574e-01 3.588380217552185059e-01 2.467611730098724365e-01
3.714000000000000000e+03 3.026601028442382812e+01 4.620913982391357422e+00 -4.414208233356475830e-01 -6.237252801656723022e-02 -1.511380076408386230e-01 7.303223013877868652e-01
3.715000000000000000e+03 6.704912567138671875e+01 4.625844955444335938e+00 -1.030374646186828613e+00 8.800907135009765625e+00 2.331159830093383789e+00 4.417434800416231155e-03
3.716000000000000000e+03 6.574440765380859375e+01 4.389039516448974609e+00 -1.112215042114257812e+00 8.712164878845214844e+00 2.279984951019287109e+00 -4.196452498435974121e-01
3.717000000000000000e+03 5.542781829833984375e+01 -1.844260978698730469e+01 1.829400956630706787e-01 3.169980049133300781e+00 1.005876064300537109e+00 1.530543327331542969e+00
3.718000000000000000e+03 5.257310867309570312e+01 5.314729213714599609e+00 1.860872209072113037e-01 1.993308782577514648e+00 6.538187861442565918e-01 -1.044115066528320312e+00
3.719000000000000000e+03 6.636561584472656250e+01 6.572802543640136719e+00 -9.873425960540771484e-01 8.160126686096191406e+00 2.151835203170776367e+00 -2.794847488403320312e-01
3.720000000000000000e+03 4.064815521240234375e+01 -2.140106582641601562e+01 2.150306701660156250e-01 4.010303914546966553e-01 1.848183125257492065e-01 -1.874774247407913208e-01
3.721000000000000000e+03 3.669310379028320312e+01 5.975910663604736328e+00 -3.172785341739654541e-01 2.009676098823547363e-01 -3.489327430725097656e-02 6.023433804512023926e-01
3.722000000000000000e+03 3.559483718872070312e+01 6.072107791900634766e+00 -3.335260450839996338e-01 1.622796356678009033e-01 -5.137392506003379822e-02 6.357064843177795410e-01
3.723000000000000000e+03 3.772285461425781250e+01 5.833346366882324219e+00 -3.048661351203918457e-01 2.376251667737960815e-01 -2.017229422926902771e-02 5.645236372947692871e-01
3.724000000000000000e+03 3.760743331909179688e+01 4.886523246765136719e+00 -3.841312825679779053e-01 1.941424757242202759e-01 -5.699663981795310974e-02 5.894533395767211914e-01
3.725000000000000000e+03 4.167640686035156250e+01 -2.006090545654296875e+01 1.242728531360626221e-01 3.952822089195251465e-01 1.558665186166763306e-01 -1.686076223850250244e-01
3.726000000000000000e+03 4.372275924682617188e+01 -1.941944503784179688e+01 1.259378492832183838e-01 5.068144798278808594e-01 1.898256987333297729e-01 -4.566439241170883179e-02
3.727000000000000000e+03 5.663166427612304688e+01 -1.643068695068359375e+01 1.464747935533523560e-01 3.486373186111450195e+00 1.089854359626770020e+00 1.903044104576110840e+00
3.728000000000000000e+03 4.343803405761718750e+01 6.613767147064208984e+00 -4.775664955377578735e-02 6.012863516807556152e-01 1.660589128732681274e-01 1.766675561666488647e-01
3.729000000000000000e+03 4.295009994506835938e+01 5.544290542602539062e+00 -1.779584586620330811e-01 4.653617739677429199e-01 8.622099459171295166e-02 2.641958594322204590e-01
3.730000000000000000e+03 4.093846893310546875e+01 6.152530670166015625e+00 -1.824653297662734985e-01 3.966647088527679443e-01 6.425981223583221436e-02 3.814833760261535645e-01
3.731000000000000000e+03 3.206606674194335938e+01 9.872100830078125000e+00 -2.485293298959732056e-01 9.207011014223098755e-02 -4.693776369094848633e-02 6.324561238288879395e-01
3.732000000000000000e+03 3.205982971191406250e+01 8.731051445007324219e+00 -2.868354916572570801e-01 7.028262317180633545e-02 -6.496586650609970093e-02 6.664233803749084473e-01
3.733000000000000000e+03 6.540486907958984375e+01 -1.488860893249511719e+01 -1.085745692253112793e+00 9.680574417114257812e+00 2.578448534011840820e+00 3.595193624496459961e-01
3.734000000000000000e+03 5.012145233154296875e+01 -2.044072151184082031e+01 3.777773976325988770e-01 1.575497746467590332e+00 5.859825611114501953e-01 6.730310916900634766e-01
3.735000000000000000e+03 5.217456817626953125e+01 6.295702934265136719e+00 1.929150372743606567e-01 2.029421329498291016e+00 6.667008996009826660e-01 -9.621347188949584961e-01
3.736000000000000000e+03 4.902241897583007812e+01 6.594861507415771484e+00 1.588983386754989624e-01 1.309610724449157715e+00 4.405527114868164062e-01 -4.727079570293426514e-01
3.737000000000000000e+03 4.233530044555664062e+01 6.990101814270019531e+00 -6.438657641410827637e-02 5.466242432594299316e-01 1.446712911128997803e-01 2.550748884677886963e-01
3.738000000000000000e+03 6.287311935424804688e+01 1.277469444274902344e+01 -4.763379395008087158e-01 6.196654319763183594e+00 1.716094970703125000e+00 -7.458296418190002441e-01
3.739000000000000000e+03 6.339433288574218750e+01 1.013148212432861328e+01 -6.809774637222290039e-01 6.680562019348144531e+00 1.799875378608703613e+00 -8.368120789527893066e-01
3.740000000000000000e+03 5.302867126464843750e+01 -2.020182418823242188e+01 3.215295076370239258e-01 2.395553827285766602e+00 8.151249885559082031e-01 1.064232707023620605e+00
3.741000000000000000e+03 3.650518798828125000e+01 -1.871995735168457031e+01 -1.549628227949142456e-01 8.473082631826400757e-02 -2.106960117816925049e-02 -4.308000802993774414e-01
3.742000000000000000e+03 3.188871574401855469e+01 -2.003500175476074219e+01 -1.043225154280662537e-01 6.701659876853227615e-03 -2.928625606000423431e-02 -4.851824343204498291e-01
3.743000000000000000e+03 3.199239730834960938e+01 1.111792564392089844e+01 -2.076923549175262451e-01 1.187060624361038208e-01 -2.669588848948478699e-02 5.923862457275390625e-01
3.744000000000000000e+03 3.073034858703613281e+01 1.090543937683105469e+01 -2.641695439815521240e-01 2.566879987716674805e-02 -7.155022025108337402e-02 6.204786300659179688e-01
3.745000000000000000e+03 6.450968933105468750e+01 1.019522666931152344e+01 -7.266041636466979980e-01 6.997156143188476562e+00 1.881165623664855957e+00 -6.427136063575744629e-01
3.746000000000000000e+03 6.459493255615234375e+01 8.955122947692871094e+00 -8.287172913551330566e-01 7.250972270965576172e+00 1.926676511764526367e+00 -6.728197932243347168e-01
3.747000000000000000e+03 3.870513534545898438e+01 5.673626422882080078e+00 -2.920947968959808350e-01 2.718215882778167725e-01 -6.081964354962110519e-03 5.205056071281433105e-01
3.748000000000000000e+03 6.179586410522460938e+01 -2.343809318542480469e+01 -4.455874562263488770e-01 6.079712390899658203e+00 1.690237402915954590e+00 9.066236019134521484e-01
3.749000000000000000e+03 6.396173858642578125e+01 -2.443555259704589844e+01 -5.291783213615417480e-01 6.638340950012207031e+00 1.832748770713806152e+00 5.847685933113098145e-01
3.750000000000000000e+03 2.671087265014648438e+01 -2.189888381958007812e+01 -4.494608938694000244e-02 -8.422107249498367310e-02 -3.875014930963516235e-02 -4.591449797153472900e-01
3.751000000000000000e+03 3.052295875549316406e+01 1.199565887451171875e+01 -2.468831092119216919e-01 3.031820058822631836e-02 -6.496947258710861206e-02 5.797253251075744629e-01
3.752000000000000000e+03 2.901186752319335938e+01 1.259018898010253906e+01 -2.836462259292602539e-01 -4.782016575336456299e-02 -9.943991899490356445e-02 5.797435641288757324e-01
3.753000000000000000e+03 6.316730499267578125e+01 1.139482212066650391e+01 -5.743128657341003418e-01 6.427989006042480469e+00 1.756102800369262695e+00 -7.865368723869323730e-01
3.754000000000000000e+03 3.104134559631347656e+01 1.359264373779296875e+01 -1.556058675050735474e-01 9.829585254192352295e-02 -1.719300448894500732e-02 5.046393275260925293e-01
3.755000000000000000e+03 2.991868972778320312e+01 1.399757194519042969e+01 -1.766944080591201782e-01 3.133793920278549194e-02 -4.360694065690040588e-02 5.052304863929748535e-01
3.756000000000000000e+03 6.600472259521484375e+01 7.726498603820800781e+00 -9.318208098411560059e-01 7.809789180755615234e+00 2.063390493392944336e+00 -3.973121941089630127e-01
3.757000000000000000e+03 3.815238952636718750e+01 -2.141258239746093750e+01 1.461492627859115601e-01 2.510639727115631104e-01 1.191639676690101624e-01 -3.151581883430480957e-01
3.758000000000000000e+03 3.575502777099609375e+01 -2.075238609313964844e+01 2.719581127166748047e-02 1.119779646396636963e-01 4.175213351845741272e-02 -4.082319736480712891e-01
3.759000000000000000e+03 6.355076217651367188e+01 1.955254745483398438e+01 -1.544357091188430786e-01 5.898391723632812500e+00 1.723186850547790527e+00 -4.671465456485748291e-01
3.760000000000000000e+03 6.579383087158203125e+01 -1.954508018493652344e+01 -9.414597153663635254e-01 8.022398948669433594e+00 2.124281883239746094e+00 3.819999098777770996e-01
3.761000000000000000e+03 6.359563064575195312e+01 -2.128684616088867188e+01 -7.409502267837524414e-01 7.021931171417236328e+00 1.884294271469116211e+00 8.221859931945800781e-01
3.762000000000000000e+03 6.189671325683593750e+01 -1.504636764526367188e+00 -6.848050355911254883e-01 9.933809280395507812e+00 2.774701118469238281e+00 -3.229924440383911133e+00
3.763000000000000000e+03 6.057314300537109375e+01 -1.851654171943664551e+00 1.098965853452682495e-01 7.178365230560302734e+00 2.186478614807128906e+00 -3.984922885894775391e+00
3.764000000000000000e+03 6.105166244506835938e+01 -2.068854331970214844e+00 -6.185662001371383667e-02 8.292468070983886719e+00 2.469183444976806641e+00 -4.037989139556884766e+00
3.765000000000000000e+03 6.145375823974609375e+01 -1.162045860290527344e+01 -4.801837801933288574e-01 8.852190971374511719e+00 2.511602163314819336e+00 3.344037532806396484e+00
3.766000000000000000e+03 6.184034729003906250e+01 -1.087791633605957031e+01 -5.050655603408813477e-01 1.016611099243164062e+01 2.898313522338867188e+00 3.466980934143066406e+00
3.767000000000000000e+03 6.202856445312500000e+01 -1.124930858612060547e+01 -6.897519826889038086e-01 1.018719005584716797e+01 2.849231481552124023e+00 3.061654329299926758e+00
3.768000000000000000e+03 6.658499145507812500e+01 -6.780762672424316406e+00 4.703827381134033203e+00 1.084508705139160156e+01 4.664674282073974609e+00 -3.879198133945465088e-01
3.769000000000000000e+03 6.557949066162109375e+01 -8.987729072570800781e+00 2.296535730361938477e+00 1.276459980010986328e+01 4.518340587615966797e+00 -1.679724931716918945e+00
3.770000000000000000e+03 6.278099060058593750e+01 -1.074989700317382812e+01 -8.181938529014587402e-01 1.201934623718261719e+01 3.360345602035522461e+00 2.349399566650390625e+00
3.771000000000000000e+03 6.802791595458984375e+01 -1.296297264099121094e+01 -2.165600806474685669e-01 9.929287910461425781e+00 2.913818359375000000e+00 -1.023565530776977539e+00
3.772000000000000000e+03 6.625455474853515625e+01 -6.261427879333496094e+00 5.194631099700927734e+00 1.117479705810546875e+01 4.910828590393066406e+00 1.360941529273986816e-01
3.773000000000000000e+03 6.414164733886718750e+01 -2.504623651504516602e+00 -2.894020378589630127e-01 1.335840511322021484e+01 3.920700788497924805e+00 -1.993395537137985229e-01
3.774000000000000000e+03 6.384345245361328125e+01 -2.174765825271606445e+00 -6.178821325302124023e-01 1.299803066253662109e+01 3.714044570922851562e+00 -7.574214339256286621e-01
3.775000000000000000e+03 6.445279693603515625e+01 -2.865588426589965820e+00 2.501876652240753174e-01 1.362226295471191406e+01 4.161735057830810547e+00 4.265798628330230713e-01
3.776000000000000000e+03 6.852093505859375000e+01 -5.555581569671630859e+00 3.117473363876342773e+00 9.472145080566406250e+00 3.776885509490966797e+00 5.184313058853149414e-01
3.777000000000000000e+03 6.648133850097656250e+01 -5.068101406097412109e+00 4.056861877441406250e+00 1.120319843292236328e+01 4.578018188476562500e+00 1.213704586029052734e+00
3.778000000000000000e+03 6.664058685302734375e+01 -4.685122013092041016e+00 3.580747604370117188e+00 1.117777729034423828e+01 4.427557468414306641e+00 1.408469080924987793e+00
3.779000000000000000e+03 6.717186737060546875e+01 -5.580102443695068359e+00 4.010495185852050781e+00 1.037251377105712891e+01 4.314902782440185547e+00 6.630846858024597168e-01
3.780000000000000000e+03 6.053493881225585938e+01 -1.155491256713867188e+01 -9.657826274633407593e-03 7.044106006622314453e+00 2.110334396362304688e+00 3.663184404373168945e+00
3.781000000000000000e+03 6.022618484497070312e+01 -1.254389667510986328e+01 -1.222943216562271118e-01 6.452391624450683594e+00 1.899029254913330078e+00 3.238842010498046875e+00
3.782000000000000000e+03 6.220240783691406250e+01 -1.309713244438171387e+00 -8.503666520118713379e-01 1.037124443054199219e+01 2.856263160705566406e+00 -2.880534648895263672e+00
3.783000000000000000e+03 5.968286514282226562e+01 -1.247547817230224609e+01 7.262334972620010376e-02 5.625449180603027344e+00 1.709421873092651367e+00 3.207890987396240234e+00
3.784000000000000000e+03 6.906994628906250000e+01 -8.650047302246093750e+00 2.153340101242065430e+00 9.362597465515136719e+00 3.454781293869018555e+00 -1.095462560653686523e+00
3.785000000000000000e+03 6.750482940673828125e+01 -1.339092540740966797e+01 -4.624905884265899658e-01 1.002656459808349609e+01 2.869222164154052734e+00 -8.065500855445861816e-01
3.786000000000000000e+03 6.484930419921875000e+01 -2.431748628616333008e+00 1.182926148176193237e-01 1.289100170135498047e+01 3.902788400650024414e+00 5.281037688255310059e-01
3.787000000000000000e+03 6.008536911010742188e+01 -8.252560496330261230e-01 -3.148927539587020874e-02 6.227923393249511719e+00 1.858930110931396484e+00 -3.499533891677856445e+00
3.788000000000000000e+03 5.975679779052734375e+01 -9.744347333908081055e-01 1.756270527839660645e-01 5.511981964111328125e+00 1.706282615661621094e+00 -3.501228094100952148e+00
3.789000000000000000e+03 6.590484619140625000e+01 -9.014919281005859375e+00 2.328505039215087891e+00 1.221404552459716797e+01 4.362765312194824219e+00 -1.636467099189758301e+00
3.790000000000000000e+03 6.661557006835937500e+01 -8.793655395507812500e+00 2.688887834548950195e+00 1.133218193054199219e+01 4.206320762634277344e+00 -1.597957730293273926e+00
3.791000000000000000e+03 6.868605041503906250e+01 -1.011300849914550781e+01 1.339400529861450195e+00 9.804243087768554688e+00 3.343093156814575195e+00 -1.393930435180664062e+00
3.792000000000000000e+03 5.875098800659179688e+01 6.246228814125061035e-01 5.924838781356811523e-02 4.603848457336425781e+00 1.398929119110107422e+00 -2.802303791046142578e+00
3.793000000000000000e+03 6.909290313720703125e+01 -5.468849182128906250e+00 2.751606702804565430e+00 9.187705993652343750e+00 3.581793785095214844e+00 4.873401224613189697e-01
3.794000000000000000e+03 6.832203674316406250e+01 -4.140861034393310547e+00 2.426570653915405273e+00 9.794647216796875000e+00 3.666365385055541992e+00 1.194053292274475098e+00
3.795000000000000000e+03 5.948471069335937500e+01 -4.087173342704772949e-01 1.020401045680046082e-01 5.281897068023681641e+00 1.615181207656860352e+00 -3.226990461349487305e+00
3.796000000000000000e+03 5.877855300903320312e+01 -1.373268508911132812e+01 6.490168720483779907e-02 4.730414867401123047e+00 1.438594937324523926e+00 2.706807374954223633e+00
3.797000000000000000e+03 5.918733215332031250e+01 -1.347398757934570312e+01 1.341983024030923843e-02 5.144118785858154297e+00 1.547261595726013184e+00 2.856311321258544922e+00
3.798000000000000000e+03 5.886885452270507812e+01 -1.479510879516601562e+01 -7.846669107675552368e-02 4.943531990051269531e+00 1.459519505500793457e+00 2.498870849609375000e+00
3.799000000000000000e+03 5.827292633056640625e+01 -1.391900730133056641e+01 1.351421624422073364e-01 4.231424808502197266e+00 1.309970140457153320e+00 2.573137760162353516e+00
3.800000000000000000e+03 5.912751770019531250e+01 2.811550199985504150e-01 3.462941572070121765e-02 4.986061096191406250e+00 1.506207108497619629e+00 -2.987946510314941406e+00
3.801000000000000000e+03 5.857088470458984375e+01 1.763055324554443359e+00 -6.049458310008049011e-02 4.655789375305175781e+00 1.378588438034057617e+00 -2.542685270309448242e+00
3.802000000000000000e+03 5.446942520141601562e+01 6.312247753143310547e+00 1.471884995698928833e-01 2.886523246765136719e+00 9.101135134696960449e-01 -1.363296151161193848e+00
3.803000000000000000e+03 6.670784759521484375e+01 -6.261579990386962891e+00 4.707313537597656250e+00 1.071844291687011719e+01 4.627727031707763672e+00 1.067065894603729248e-01
3.804000000000000000e+03 5.815731430053710938e+01 1.567293047904968262e+00 3.898848220705986023e-02 4.172629833221435547e+00 1.263485550880432129e+00 -2.502690315246582031e+00
3.805000000000000000e+03 6.817522430419921875e+01 -6.577622890472412109e+00 3.393758535385131836e+00 9.652017593383789062e+00 3.913732767105102539e+00 -1.181691139936447144e-01
3.806000000000000000e+03 5.830523681640625000e+01 -1.686610603332519531e+01 -1.128117069602012634e-01 4.663796901702880859e+00 1.365295529365539551e+00 2.051049232482910156e+00
3.807000000000000000e+03 6.504043579101562500e+01 -9.664176940917968750e+00 1.018453598022460938e+00 1.325915622711181641e+01 4.283282756805419922e+00 -1.137880325317382812e+00
3.808000000000000000e+03 6.459539031982421875e+01 -1.309357357025146484e+01 -1.038777828216552734e+00 1.064913463592529297e+01 2.883107185363769531e+00 6.213380694389343262e-01
3.809000000000000000e+03 6.873602294921875000e+01 -9.890391230583190918e-01 3.635782301425933838e-01 9.771505355834960938e+00 3.040524959564208984e+00 1.299298167228698730e+00
3.810000000000000000e+03 6.510241699218750000e+01 -1.908981323242187500e+00 -1.466874629259109497e-01 1.224859237670898438e+01 3.630571365356445312e+00 4.558272361755371094e-01
3.811000000000000000e+03 6.714054107666015625e+01 -1.496082878112792969e+01 -8.468197584152221680e-01 9.586101531982421875e+00 2.621784448623657227e+00 -3.838340342044830322e-01
3.812000000000000000e+03 3.248291778564453125e+01 4.402830600738525391e+00 -4.583604037761688232e-01 2.161329798400402069e-02 -1.310241371393203735e-01 7.157193422317504883e-01
3.813000000000000000e+03 3.212654495239257812e+01 5.315381050109863281e+00 -4.177712500095367432e-01 2.062246948480606079e-02 -1.191446334123611450e-01 7.196970582008361816e-01
3.814000000000000000e+03 6.812739562988281250e+01 -6.039084434509277344e+00 3.446188926696777344e+00 9.645242691040039062e+00 3.927429437637329102e+00 2.402203381061553955e-01
3.815000000000000000e+03 6.831484222412109375e+01 -2.427573204040527344e+00 1.195894598960876465e+00 1.004129409790039062e+01 3.371156692504882812e+00 1.416166067123413086e+00
3.816000000000000000e+03 6.678871917724609375e+01 -3.578600168228149414e+00 2.170742750167846680e+00 1.117879772186279297e+01 4.004861831665039062e+00 1.533852696418762207e+00
3.817000000000000000e+03 5.355505371093750000e+01 5.847003459930419922e+00 1.808038353919982910e-01 2.395242452621459961e+00 7.728138566017150879e-01 -1.210376977920532227e+00
3.818000000000000000e+03 5.396386337280273438e+01 4.199506282806396484e+00 1.693393588066101074e-01 2.248054981231689453e+00 7.252182960510253906e-01 -1.327974796295166016e+00
3.819000000000000000e+03 6.768058013916015625e+01 -3.782742261886596680e+00 2.287328720092773438e+00 1.033342933654785156e+01 3.786227226257324219e+00 1.379063487052917480e+00
3.820000000000000000e+03 6.796302795410156250e+01 -4.017869949340820312e+00 2.377916812896728516e+00 1.012066555023193359e+01 3.749574661254882812e+00 1.305837273597717285e+00
3.821000000000000000e+03 6.861804199218750000e+01 -3.665799796581268311e-01 4.261722415685653687e-02 9.776507377624511719e+00 2.945737361907958984e+00 1.188041925430297852e+00
3.822000000000000000e+03 6.716168975830078125e+01 1.376728892326354980e+00 -7.591937780380249023e-01 9.869982719421386719e+00 2.733236551284790039e+00 4.943000972270965576e-01
3.823000000000000000e+03 3.453741455078125000e+01 4.964766025543212891e+00 -4.224524497985839844e-01 9.227090328931808472e-02 -9.905446320772171021e-02 6.805748343467712402e-01
3.824000000000000000e+03 3.316184997558593750e+01 5.793703079223632812e+00 -3.869040310382843018e-01 6.532091647386550903e-02 -9.647493064403533936e-02 6.980769634246826172e-01
3.825000000000000000e+03 6.713841247558593750e+01 3.752712011337280273e+00 -9.895588159561157227e-01 9.033972740173339844e+00 2.413324117660522461e+00 1.324335336685180664e-01
3.826000000000000000e+03 6.246302795410156250e+01 -1.079928398132324219e+00 -9.359533190727233887e-01 1.051351165771484375e+01 2.873267412185668945e+00 -2.643563032150268555e+00
3.827000000000000000e+03 6.637090301513671875e+01 3.578340768814086914e+00 -1.067492127418518066e+00 9.080164909362792969e+00 2.403801918029785156e+00 -1.206719055771827698e-01
3.828000000000000000e+03 6.775818634033203125e+01 -1.666124725341796875e+01 -8.948209881782531738e-01 9.020875930786132812e+00 2.437816619873046875e+00 -3.525811731815338135e-01
3.829000000000000000e+03 3.082498168945312500e+01 5.754928112030029297e+00 -4.111882150173187256e-01 -3.496557101607322693e-02 -1.338461339473724365e-01 7.295438051223754883e-01
3.830000000000000000e+03 3.965649414062500000e+01 5.449772357940673828e+00 -2.889778316020965576e-01 2.926816940307617188e-01 1.111165969632565975e-03 4.825435280799865723e-01
3.831000000000000000e+03 5.174203872680664062e+01 7.087639331817626953e+00 2.153315693140029907e-01 2.049758434295654297e+00 6.795269846916198730e-01 -8.936100602149963379e-01
3.832000000000000000e+03 6.339019393920898438e+01 -1.959742546081542969e+01 -8.443832397460937500e-01 7.313955783843994141e+00 1.940871715545654297e+00 9.813705682754516602e-01
3.833000000000000000e+03 5.753776168823242188e+01 -1.877889442443847656e+01 -4.761311411857604980e-02 4.287105560302734375e+00 1.271847724914550781e+00 1.693730831146240234e+00
3.834000000000000000e+03 5.099836730957031250e+01 7.785508155822753906e+00 2.405720353126525879e-01 1.952459573745727539e+00 6.579095125198364258e-01 -7.904302477836608887e-01
3.835000000000000000e+03 5.036964416503906250e+01 6.905963420867919922e+00 2.121972590684890747e-01 1.637267947196960449e+00 5.548395514488220215e-01 -6.815173625946044922e-01
3.836000000000000000e+03 5.501178741455078125e+01 -1.990936660766601562e+01 2.006672471761703491e-01 3.178745031356811523e+00 1.013823628425598145e+00 1.334360122680664062e+00
3.837000000000000000e+03 4.946074676513671875e+01 8.237434387207031250e+00 2.445129156112670898e-01 1.639724254608154297e+00 5.652711391448974609e-01 -5.768998265266418457e-01
3.838000000000000000e+03 5.118635940551757812e+01 -2.342237663269042969e+01 4.340518414974212646e-01 2.178125143051147461e+00 7.836530804634094238e-01 7.380396723747253418e-01
3.839000000000000000e+03 5.191556167602539062e+01 -2.110739898681640625e+01 3.793043196201324463e-01 2.154634237289428711e+00 7.601815462112426758e-01 8.921648263931274414e-01
3.840000000000000000e+03 3.570586395263671875e+01 7.210540294647216797e+00 -2.653962969779968262e-01 1.997169256210327148e-01 -1.970381475985050201e-02 6.073345541954040527e-01
3.841000000000000000e+03 3.332708740234375000e+01 1.130894660949707031e+01 -1.567991226911544800e-01 2.010954618453979492e-01 1.328890025615692139e-02 5.544423460960388184e-01
3.842000000000000000e+03 5.598793792724609375e+01 4.555921554565429688e+00 8.173346519470214844e-02 3.296209335327148438e+00 1.013382911682128906e+00 -1.757564187049865723e+00
3.843000000000000000e+03 5.588745117187500000e+01 5.471291065216064453e+00 5.024898424744606018e-02 3.372316598892211914e+00 1.026769638061523438e+00 -1.659764170646667480e+00
3.844000000000000000e+03 4.896514511108398438e+01 -2.079017257690429688e+01 3.925903141498565674e-01 1.394427657127380371e+00 5.361053943634033203e-01 5.332729816436767578e-01
3.845000000000000000e+03 4.757333755493164062e+01 -2.221735191345214844e+01 4.273491203784942627e-01 1.265573143959045410e+00 5.078766942024230957e-01 3.948315978050231934e-01
3.846000000000000000e+03 3.205744934082031250e+01 7.663357734680175781e+00 -3.241146802902221680e-01 5.039203539490699768e-02 -8.211679756641387939e-02 6.880040168762207031e-01
3.847000000000000000e+03 4.781681442260742188e+01 -2.065587234497070312e+01 3.618319928646087646e-01 1.138257861137390137e+00 4.500269591808319092e-01 3.969886004924774170e-01
3.848000000000000000e+03 4.298087692260742188e+01 -2.082745552062988281e+01 2.328115701675415039e-01 5.490387082099914551e-01 2.345550954341888428e-01 -5.480182170867919922e-02
3.849000000000000000e+03 6.203110504150390625e+01 1.116868114471435547e+01 -5.198498964309692383e-01 6.113756656646728516e+00 1.678172111511230469e+00 -9.241591095924377441e-01
3.850000000000000000e+03 6.352565002441406250e+01 9.020139694213867188e+00 -7.735698223114013672e-01 6.904811382293701172e+00 1.839372515678405762e+00 -8.815659880638122559e-01
3.851000000000000000e+03 4.745655822753906250e+01 6.953884601593017578e+00 1.335347741842269897e-01 1.085603237152099609e+00 3.657414019107818604e-01 -2.671853601932525635e-01
3.852000000000000000e+03 6.374612045288085938e+01 7.478938102722167969e+00 -9.070849418640136719e-01 7.327109813690185547e+00 1.926007390022277832e+00 -9.274815320968627930e-01
3.853000000000000000e+03 6.530895233154296875e+01 6.253691673278808594e+00 -1.021562695503234863e+00 8.076425552368164062e+00 2.116458892822265625e+00 -5.361584424972534180e-01
3.854000000000000000e+03 3.412659454345703125e+01 -2.128773689270019531e+01 3.614852949976921082e-02 6.968658417463302612e-02 3.175053372979164124e-02 -4.330399334430694580e-01
3.855000000000000000e+03 3.945878982543945312e+01 -2.029050064086914062e+01 7.764793932437896729e-02 2.748426795005798340e-01 1.057471781969070435e-01 -2.843675613403320312e-01
3.856000000000000000e+03 5.652127075195312500e+01 -1.866821479797363281e+01 7.814403623342514038e-02 3.711223840713500977e+00 1.136810421943664551e+00 1.638478279113769531e+00
3.857000000000000000e+03 5.661581802368164062e+01 -1.741110610961914062e+01 1.041502729058265686e-01 3.641993761062622070e+00 1.123843193054199219e+00 1.789525866508483887e+00
3.858000000000000000e+03 6.279344558715820312e+01 -2.416904830932617188e+01 -4.794641733169555664e-01 6.295520782470703125e+00 1.744817018508911133e+00 7.608038783073425293e-01
3.859000000000000000e+03 6.273401260375976562e+01 7.960663795471191406e+00 -7.822085022926330566e-01 6.801340103149414062e+00 1.805739521980285645e+00 -1.107700109481811523e+00
3.860000000000000000e+03 6.196550369262695312e+01 -2.561170005798339844e+01 -3.370121419429779053e-01 5.927797317504882812e+00 1.677235484123229980e+00 7.410502433776855469e-01
3.861000000000000000e+03 6.253673934936523438e+01 1.427304840087890625e+01 -3.757151067256927490e-01 5.967799663543701172e+00 1.677625417709350586e+00 -7.042506337165832520e-01
3.862000000000000000e+03 6.181550979614257812e+01 1.770710754394531250e+01 -1.840719282627105713e-01 5.558405876159667969e+00 1.612300157546997070e+00 -5.973612070083618164e-01
3.863000000000000000e+03 4.632648086547851562e+01 6.279394626617431641e+00 4.176673665642738342e-02 8.559397459030151367e-01 2.693119645118713379e-01 -1.115062162280082703e-01
3.864000000000000000e+03 4.270073318481445312e+01 8.200465202331542969e+00 3.223155066370964050e-02 6.748847365379333496e-01 2.121348828077316284e-01 1.765143722295761108e-01
3.865000000000000000e+03 4.123766326904296875e+01 7.284292221069335938e+00 -8.628463745117187500e-02 4.943798184394836426e-01 1.224285513162612915e-01 3.237029016017913818e-01
3.866000000000000000e+03 3.992432022094726562e+01 6.423312664031982422e+00 -1.985760182142257690e-01 3.542648255825042725e-01 4.670663923025131226e-02 4.427860379219055176e-01
3.867000000000000000e+03 3.618675994873046875e+01 9.934245109558105469e+00 -1.095734238624572754e-01 3.318609893321990967e-01 6.668626517057418823e-02 5.060275197029113770e-01
3.868000000000000000e+03 2.831093978881835938e+01 -2.110247230529785156e+01 -7.683824747800827026e-02 -5.258936434984207153e-02 -3.882828354835510254e-02 -4.832534790039062500e-01
3.869000000000000000e+03 3.096923255920410156e+01 -2.542281532287597656e+01 2.636322081089019775e-01 2.638386934995651245e-02 8.700481802225112915e-02 -3.791663050651550293e-01
3.870000000000000000e+03 6.564562225341796875e+01 2.255715942382812500e+01 -7.221762090921401978e-02 6.209391117095947266e+00 1.841151952743530273e+00 -3.282923698425292969e-01
3.871000000000000000e+03 6.470686340332031250e+01 2.502722358703613281e+01 3.971889149397611618e-03 5.947224140167236328e+00 1.785358905792236328e+00 -3.259334266185760498e-01
3.872000000000000000e+03 6.665850830078125000e+01 -1.444570827484130859e+01 -8.614579439163208008e-01 9.826866149902343750e+00 2.689622402191162109e+00 -2.741824686527252197e-01
3.873000000000000000e+03 6.574917602539062500e+01 -3.318881511688232422e+00 1.636361718177795410e+00 1.236894989013671875e+01 4.201593399047851562e+00 1.503416657447814941e+00
3.874000000000000000e+03 6.535491943359375000e+01 -2.655964136123657227e+00 6.195412278175354004e-01 1.260278892517089844e+01 3.966699123382568359e+00 1.003108978271484375e+00
3.875000000000000000e+03 6.310834503173828125e+01 -1.087627410888671875e+01 -8.509091138839721680e-01 1.222901153564453125e+01 3.413430929183959961e+00 1.874675154685974121e+00
3.876000000000000000e+03 6.115487670898437500e+01 -1.174331855773925781e+01 -3.646403551101684570e-01 8.250558853149414062e+00 2.365775585174560547e+00 3.412351369857788086e+00
3.877000000000000000e+03 6.078792953491210938e+01 -1.212060260772705078e+01 -2.715449035167694092e-01 7.429226875305175781e+00 2.147304534912109375e+00 3.364117383956909180e+00
3.878000000000000000e+03 6.655680084228515625e+01 -7.072218894958496094e+00 4.604885101318359375e+00 1.094360446929931641e+01 4.664546966552734375e+00 -7.006552815437316895e-01
3.879000000000000000e+03 6.086531448364257812e+01 -1.569894313812255859e+00 -1.324179768562316895e-01 7.807878494262695312e+00 2.302638053894042969e+00 -3.805292367935180664e+00
3.880000000000000000e+03 5.961359405517578125e+01 -1.298562908172607422e+01 5.325966048985719681e-04 5.620112419128417969e+00 1.686193466186523438e+00 3.065564155578613281e+00
3.881000000000000000e+03 6.348318862915039062e+01 -1.096564102172851562e+01 -8.270462751388549805e-01 1.237055587768554688e+01 3.463052988052368164e+00 1.351790904998779297e+00
3.882000000000000000e+03 6.671148681640625000e+01 -5.893424034118652344e+00 4.582859516143798828e+00 1.074552536010742188e+01 4.598515510559082031e+00 4.925794303417205811e-01
3.883000000000000000e+03 6.689770507812500000e+01 -5.145966529846191406e+00 3.874660491943359375e+00 1.071274280548095703e+01 4.376220703125000000e+00 1.032280683517456055e+00
3.884000000000000000e+03 6.825859832763671875e+01 -9.946568489074707031e+00 1.474120140075683594e+00 1.004387092590332031e+01 3.455397367477416992e+00 -1.437514424324035645e+00
3.885000000000000000e+03 6.121488189697265625e+01 -1.212260723114013672e+01 -4.642103612422943115e-01 8.191596984863281250e+00 2.318216085433959961e+00 3.218832492828369141e+00
3.886000000000000000e+03 6.167482376098632812e+01 -1.078762412071228027e+00 -6.409773826599121094e-01 9.162658691406250000e+00 2.556504487991333008e+00 -3.212995052337646484e+00
3.887000000000000000e+03 6.531052398681640625e+01 -8.771368026733398438e+00 2.503648519515991211e+00 1.310667705535888672e+01 4.683097839355468750e+00 -1.690893292427062988e+00
3.888000000000000000e+03 6.819319915771484375e+01 -8.452557563781738281e+00 2.623377561569213867e+00 9.871776580810546875e+00 3.748546123504638672e+00 -1.168933033943176270e+00
3.889000000000000000e+03 6.692708587646484375e+01 -4.356463432312011719e+00 3.030668020248413086e+00 1.092039108276367188e+01 4.185317516326904297e+00 1.436785578727722168e+00
3.890000000000000000e+03 6.001580429077148438e+01 -1.125365018844604492e+00 1.321889460086822510e-01 5.993414402008056641e+00 1.837681055068969727e+00 -3.617879867553710938e+00
3.891000000000000000e+03 6.847980499267578125e+01 -5.093174457550048828e+00 2.984949111938476562e+00 9.550345420837402344e+00 3.760588407516479492e+00 7.431905269622802734e-01
3.892000000000000000e+03 6.716931915283203125e+01 -2.561743736267089844e+00 1.199118971824645996e+00 1.089497184753417969e+01 3.628227233886718750e+00 1.433349370956420898e+00
3.893000000000000000e+03 5.997852325439453125e+01 -9.466964751482009888e-02 -1.306005865335464478e-01 6.114960193634033203e+00 1.795307874679565430e+00 -3.202362060546875000e+00
3.894000000000000000e+03 5.877394866943359375e+01 1.319562435150146484e+00 -4.882356524467468262e-02 4.793316364288330078e+00 1.423347830772399902e+00 -2.642854452133178711e+00
3.895000000000000000e+03 5.954970550537109375e+01 -1.342069816589355469e+01 -7.593771070241928101e-02 5.572031497955322266e+00 1.648828148841857910e+00 2.911741495132446289e+00
3.896000000000000000e+03 6.770707702636718750e+01 -7.382532596588134766e+00 3.473901987075805664e+00 9.991109848022460938e+00 4.039503574371337891e+00 -7.137860655784606934e-01
3.897000000000000000e+03 6.800817871093750000e+01 -9.143859863281250000e+00 2.145215511322021484e+00 1.012805271148681641e+01 3.681980371475219727e+00 -1.377108573913574219e+00
3.898000000000000000e+03 6.732173156738281250e+01 -1.051406860351562500e+01 9.592580795288085938e-01 1.073440647125244141e+01 3.508099555969238281e+00 -1.397160172462463379e+00
3.899000000000000000e+03 6.825248718261718750e+01 -9.541780471801757812e+00 1.808979392051696777e+00 1.000228595733642578e+01 3.543379545211791992e+00 -1.404724121093750000e+00
3.900000000000000000e+03 5.866196823120117188e+01 -1.552730560302734375e+01 -1.045594513416290283e-01 4.829997062683105469e+00 1.417631268501281738e+00 2.336878776550292969e+00
3.901000000000000000e+03 6.462188720703125000e+01 -9.937175750732421875e+00 4.134678840637207031e-01 1.345165729522705078e+01 4.159537792205810547e+00 -6.075931191444396973e-01
3.902000000000000000e+03 6.852512359619140625e+01 -1.053990745544433594e+01 1.076600074768066406e+00 9.929825782775878906e+00 3.301927804946899414e+00 -1.418541789054870605e+00
3.903000000000000000e+03 6.815574645996093750e+01 -4.551445484161376953e+00 2.750734329223632812e+00 9.815507888793945312e+00 3.769872665405273438e+00 1.047961711883544922e+00
3.904000000000000000e+03 6.387108230590820312e+01 -1.104091167449951172e+01 -7.506456375122070312e-01 1.241610622406005859e+01 3.499638080596923828e+00 8.607966303825378418e-01
3.905000000000000000e+03 6.853292846679687500e+01 -1.523084878921508789e+00 6.051002144813537598e-01 9.903055191040039062e+00 3.152446508407592773e+00 1.343431234359741211e+00
3.906000000000000000e+03 6.651718139648437500e+01 -7.855124473571777344e+00 3.939911603927612305e+00 1.118734550476074219e+01 4.538177013397216797e+00 -1.309708714485168457e+00
3.907000000000000000e+03 6.817421722412109375e+01 -7.147544860839843750e+00 3.341565132141113281e+00 9.636142730712890625e+00 3.893312454223632812e+00 -5.159816741943359375e-01
3.908000000000000000e+03 5.903436660766601562e+01 1.004786372184753418e+00 -7.574699074029922485e-02 5.061378955841064453e+00 1.495689511299133301e+00 -2.793491363525390625e+00
3.909000000000000000e+03 6.472425842285156250e+01 3.196265697479248047e+00 -1.172970652580261230e+00 8.992479324340820312e+00 2.345852613449096680e+00 -7.912414073944091797e-01
3.910000000000000000e+03 6.766539764404296875e+01 -1.546107387542724609e+01 -8.234957456588745117e-01 9.364539146423339844e+00 2.562312841415405273e+00 -4.798698723316192627e-01
3.911000000000000000e+03 6.704915618896484375e+01 -1.746679496765136719e+01 -9.796307682991027832e-01 8.777198791503906250e+00 2.339270353317260742e+00 -5.399252474308013916e-02
3.912000000000000000e+03 6.764579010009765625e+01 -1.131791877746582031e+01 4.527992606163024902e-01 1.043479633331298828e+01 3.266278743743896484e+00 -1.285658717155456543e+00
3.913000000000000000e+03 6.783882141113281250e+01 -1.079782104492187500e+01 8.419316411018371582e-01 1.034694957733154297e+01 3.356664419174194336e+00 -1.391028285026550293e+00
3.914000000000000000e+03 6.707144165039062500e+01 -1.392442321777343750e+01 -6.992504596710205078e-01 9.976111412048339844e+00 2.783058404922485352e+00 -5.363421440124511719e-01
3.915000000000000000e+03 5.857006454467773438e+01 2.635075807571411133e+00 -1.505939215421676636e-01 4.776039123535156250e+00 1.387633562088012695e+00 -2.366175174713134766e+00
3.916000000000000000e+03 6.773656463623046875e+01 -1.231440639495849609e+01 -1.580530777573585510e-02 1.020438480377197266e+01 3.056573629379272461e+00 -1.106197714805603027e+00
3.917000000000000000e+03 6.711872863769531250e+01 -6.226583957672119141e+00 4.238589286804199219e+00 1.034194183349609375e+01 4.374159336090087891e+00 1.574000120162963867e-01
3.918000000000000000e+03 6.803703308105468750e+01 -5.668671131134033203e+00 3.422864437103271484e+00 9.734164237976074219e+00 3.947108507156372070e+00 4.894494712352752686e-01
3.919000000000000000e+03 6.044992446899414062e+01 -1.602885437011718750e+01 -5.213346481323242188e-01 6.343401432037353516e+00 1.746619939804077148e+00 2.176235914230346680e+00
3.920000000000000000e+03 6.755012512207031250e+01 -3.150130987167358398e+00 1.726747393608093262e+00 1.052926158905029297e+01 3.676802635192871094e+00 1.480837106704711914e+00
3.921000000000000000e+03 6.767967987060546875e+01 -2.641819953918457031e+00 1.327943682670593262e+00 1.046154594421386719e+01 3.536847114562988281e+00 1.448133349418640137e+00
3.922000000000000000e+03 6.770403289794921875e+01 -4.628911614418029785e-02 -2.264686673879623413e-01 1.009966754913330078e+01 2.961959838867187500e+00 9.701244235038757324e-01
3.923000000000000000e+03 6.834120941162109375e+01 9.353856444358825684e-01 -4.136545360088348389e-01 9.605710983276367188e+00 2.757616758346557617e+00 9.149761795997619629e-01
3.924000000000000000e+03 5.795988464355468750e+01 3.047384738922119141e+00 -7.239473611116409302e-02 4.320547103881835938e+00 1.274445652961730957e+00 -2.220788002014160156e+00
3.925000000000000000e+03 5.743844985961914062e+01 4.079420566558837891e+00 -5.783599615097045898e-02 4.092808723449707031e+00 1.210491776466369629e+00 -2.006569147109985352e+00
3.926000000000000000e+03 3.161820983886718750e+01 6.172985076904296875e+00 -3.873165249824523926e-01 1.068641990423202515e-02 -1.129890382289886475e-01 7.197290062904357910e-01
3.927000000000000000e+03 6.716035461425781250e+01 -1.610387992858886719e+01 -9.339427351951599121e-01 9.196994781494140625e+00 2.478915452957153320e+00 -2.446010112762451172e-01
3.928000000000000000e+03 6.661968231201171875e+01 1.948778510093688965e+00 -9.431884288787841797e-01 9.723978996276855469e+00 2.634237051010131836e+00 1.843071430921554565e-01
3.929000000000000000e+03 4.522262191772460938e+01 7.211917400360107422e+00 6.964146345853805542e-02 8.368964791297912598e-01 2.719613909721374512e-01 -2.628610096871852875e-02
3.930000000000000000e+03 4.449473190307617188e+01 6.103226661682128906e+00 -5.873131379485130310e-02 6.325181126594543457e-01 1.721360534429550171e-01 9.832200407981872559e-02
3.931000000000000000e+03 3.348321533203125000e+01 4.746080398559570312e+00 -4.392601847648620605e-01 5.972225219011306763e-02 -1.138613820075988770e-01 7.001318931579589844e-01
3.932000000000000000e+03 6.496760559082031250e+01 7.266419410705566406e+00 -9.578538537025451660e-01 7.701759815216064453e+00 2.023171663284301758e+00 -6.329571008682250977e-01
3.933000000000000000e+03 3.683330154418945312e+01 7.011692047119140625e+00 -2.481073737144470215e-01 2.468138933181762695e-01 -3.880422736983746290e-04 5.737361311912536621e-01
3.934000000000000000e+03 4.014410018920898438e+01 7.518749237060546875e+00 -1.084170863032341003e-01 4.386413395404815674e-01 9.906727820634841919e-02 3.866106271743774414e-01
3.935000000000000000e+03 3.791107177734375000e+01 8.749881744384765625e+00 -1.127737462520599365e-01 3.745839893817901611e-01 7.854307442903518677e-02 4.695416688919067383e-01
3.936000000000000000e+03 5.308716201782226562e+01 6.800292968750000000e+00 1.975758671760559082e-01 2.379148721694946289e+00 7.730173468589782715e-01 -1.119009494781494141e+00
3.937000000000000000e+03 5.252323913574218750e+01 7.721431732177734375e+00 2.168998420238494873e-01 2.351817131042480469e+00 7.706151008605957031e-01 -9.995517134666442871e-01
3.938000000000000000e+03 5.411217117309570312e+01 -2.134066581726074219e+01 2.625679373741149902e-01 2.973505258560180664e+00 9.708219170570373535e-01 1.139157295227050781e+00
3.939000000000000000e+03 5.521269989013671875e+01 4.879060745239257812e+00 1.156326904892921448e-01 2.953247308731079102e+00 9.206640124320983887e-01 -1.562263250350952148e+00
3.940000000000000000e+03 3.339379119873046875e+01 9.950055122375488281e+00 -2.029442489147186279e-01 1.734633594751358032e-01 -8.844268508255481720e-03 5.972917079925537109e-01
3.941000000000000000e+03 5.949085617065429688e+01 2.377778768539428711e+00 -3.298701047897338867e-01 5.611414432525634766e+00 1.584463357925415039e+00 -2.501964569091796875e+00
3.942000000000000000e+03 6.436872100830078125e+01 7.982487678527832031e+00 -8.972557783126831055e-01 7.405198574066162109e+00 1.952382802963256836e+00 -7.417668700218200684e-01
3.943000000000000000e+03 6.646596527099609375e+01 -1.673524475097656250e+01 -1.026113510131835938e+00 8.968026161193847656e+00 2.382573843002319336e+00 7.038729637861251831e-02
3.944000000000000000e+03 4.302123260498046875e+01 9.520880699157714844e+00 1.156743913888931274e-01 8.152454495429992676e-01 2.792759537696838379e-01 1.031490415334701538e-01
3.945000000000000000e+03 5.006633758544921875e+01 1.008644962310791016e+01 2.666420042514801025e-01 1.998469471931457520e+00 6.795334219932556152e-01 -6.495231389999389648e-01
3.946000000000000000e+03 3.910512924194335938e+01 8.824822425842285156e+00 -6.377285718917846680e-02 4.566970765590667725e-01 1.178772673010826111e-01 4.005641341209411621e-01
3.947000000000000000e+03 4.854751586914062500e+01 9.458095550537109375e+00 2.577562332153320312e-01 1.593374848365783691e+00 5.553393363952636719e-01 -4.778102934360504150e-01
3.948000000000000000e+03 4.850690841674804688e+01 7.325244903564453125e+00 1.894040852785110474e-01 1.330958008766174316e+00 4.561086297035217285e-01 -4.166598618030548096e-01
3.949000000000000000e+03 6.268021392822265625e+01 -2.055253028869628906e+01 -7.219422459602355957e-01 6.849309921264648438e+00 1.838210344314575195e+00 1.045888781547546387e+00
3.950000000000000000e+03 6.488989257812500000e+01 -1.911424446105957031e+01 -9.557395577430725098e-01 7.934917926788330078e+00 2.093753576278686523e+00 6.065217256546020508e-01
3.951000000000000000e+03 6.097498703002929688e+01 1.080836677551269531e+01 -4.655486047267913818e-01 5.805354595184326172e+00 1.601941823959350586e+00 -1.056107521057128906e+00
3.952000000000000000e+03 6.249278259277343750e+01 8.852867126464843750e+00 -6.998446583747863770e-01 6.546366691589355469e+00 1.753956556320190430e+00 -1.068253755569458008e+00
3.953000000000000000e+03 4.444327545166015625e+01 -2.145295906066894531e+01 3.320701122283935547e-01 7.432603836059570312e-01 3.225991427898406982e-01 7.985913753509521484e-02
3.954000000000000000e+03 4.506088638305664062e+01 -1.990835380554199219e+01 2.194298058748245239e-01 6.797009110450744629e-01 2.697392106056213379e-01 8.493717014789581299e-02
3.955000000000000000e+03 4.029782104492187500e+01 8.726867675781250000e+00 -2.579125948250293732e-02 5.273997187614440918e-01 1.504825502634048462e-01 3.323430418968200684e-01
3.956000000000000000e+03 6.161782836914062500e+01 1.249246501922607422e+01 -4.224867522716522217e-01 5.859737396240234375e+00 1.631175160408020020e+00 -8.779028058052062988e-01
3.957000000000000000e+03 6.273971939086914062e+01 -2.232875251770019531e+01 -6.043134927749633789e-01 6.583365917205810547e+00 1.793715715408325195e+00 8.741143345832824707e-01
3.958000000000000000e+03 6.250127792358398438e+01 -2.817629241943359375e+01 -2.248672693967819214e-01 5.865513324737548828e+00 1.692193746566772461e+00 5.483569502830505371e-01
3.959000000000000000e+03 6.434802246093750000e+01 -2.869513130187988281e+01 -2.594818472862243652e-01 6.268841266632080078e+00 1.802807927131652832e+00 3.867303133010864258e-01
3.960000000000000000e+03 5.839456558227539062e+01 -2.481032562255859375e+01 -8.245878666639328003e-02 4.757469177246093750e+00 1.402503013610839844e+00 9.684562087059020996e-01
3.961000000000000000e+03 3.172647476196289062e+01 1.248287582397460938e+01 -1.729106158018112183e-01 1.207744032144546509e-01 -1.564086228609085083e-02 5.374732017517089844e-01
3.962000000000000000e+03 3.160920333862304688e+01 1.494288539886474609e+01 -9.209656715393066406e-02 1.580134630203247070e-01 1.977506838738918304e-02 4.501718878746032715e-01
3.963000000000000000e+03 6.217335891723632812e+01 1.590775489807128906e+01 -2.746888399124145508e-01 5.755388259887695312e+00 1.644209742546081543e+00 -6.578521728515625000e-01
3.964000000000000000e+03 3.286714172363281250e+01 -2.351779556274414062e+01 1.825223565101623535e-01 7.341338694095611572e-02 7.678072154521942139e-02 -4.098703265190124512e-01
3.965000000000000000e+03 3.773298263549804688e+01 -2.440130996704101562e+01 3.624933958053588867e-01 3.435375988483428955e-01 2.118093073368072510e-01 -2.514249980449676514e-01
3.966000000000000000e+03 6.580331420898437500e+01 2.681127357482910156e+01 3.057861141860485077e-02 6.131280422210693359e+00 1.848557710647583008e+00 -2.773220241069793701e-01
3.967000000000000000e+03 6.113820266723632812e+01 1.396204090118408203e+01 -3.194082081317901611e-01 5.604006290435791016e+00 1.585379362106323242e+00 -8.262001872062683105e-01
3.968000000000000000e+03 6.199679183959960938e+01 2.388085556030273438e+01 2.551903389394283295e-02 5.426183700561523438e+00 1.635510802268981934e+00 -4.105096459388732910e-01
3.969000000000000000e+03 6.156657028198242188e+01 2.174506759643554688e+01 -1.990692131221294403e-02 5.395700931549072266e+00 1.612738251686096191e+00 -4.803944230079650879e-01
3.970000000000000000e+03 6.127831268310546875e+01 -1.257036399841308594e+01 -5.518518686294555664e-01 8.137514114379882812e+00 2.275698661804199219e+00 3.023825645446777344e+00
3.971000000000000000e+03 6.689752960205078125e+01 -7.719453811645507812e+00 3.860924720764160156e+00 1.076476573944091797e+01 4.387707233428955078e+00 -1.137268662452697754e+00
3.972000000000000000e+03 6.411869812011718750e+01 -1.874052524566650391e+00 -6.264218688011169434e-01 1.259914970397949219e+01 3.591818332672119141e+00 -5.242702960968017578e-01
3.973000000000000000e+03 6.290227890014648438e+01 -1.174451589584350586e+00 -9.808440208435058594e-01 1.111194038391113281e+01 3.039329051971435547e+00 -2.041697740554809570e+00
3.974000000000000000e+03 6.547895812988281250e+01 -8.534950256347656250e+00 3.087945938110351562e+00 1.274954795837402344e+01 4.751248359680175781e+00 -1.783003807067871094e+00
3.975000000000000000e+03 6.626975250244140625e+01 -3.431726694107055664e+00 1.928624749183654785e+00 1.179482936859130859e+01 4.117036342620849609e+00 1.579786539077758789e+00
3.976000000000000000e+03 6.759286499023437500e+01 -1.009612369537353516e+01 1.351304054260253906e+00 1.055448627471923828e+01 3.571737051010131836e+00 -1.472541689872741699e+00
3.977000000000000000e+03 6.554984283447265625e+01 -9.402595520019531250e+00 1.670269131660461426e+00 1.267758178710937500e+01 4.304355144500732422e+00 -1.504943847656250000e+00
3.978000000000000000e+03 6.586719512939453125e+01 2.384677648544311523e+00 -1.083847999572753906e+00 9.498726844787597656e+00 2.524463653564453125e+00 -2.042515724897384644e-01
3.979000000000000000e+03 6.605711364746093750e+01 -1.301968574523925781e+01 -7.128509283065795898e-01 1.059084987640380859e+01 2.963399648666381836e+00 -2.931309938430786133e-01
3.980000000000000000e+03 6.064896774291992188e+01 -7.120718955993652344e-01 -2.720214724540710449e-01 7.188263893127441406e+00 2.074872732162475586e+00 -3.417349338531494141e+00
3.981000000000000000e+03 6.602194976806640625e+01 -8.521922111511230469e+00 3.151699066162109375e+00 1.200819683074951172e+01 4.547968864440917969e+00 -1.662153959274291992e+00
3.982000000000000000e+03 6.771442413330078125e+01 -5.841113090515136719e+00 3.753935813903808594e+00 9.975247383117675781e+00 4.118754863739013672e+00 4.014130532741546631e-01
3.983000000000000000e+03 6.445206451416015625e+01 -2.122481107711791992e+00 -3.762579262256622314e-01 1.287122344970703125e+01 3.748489856719970703e+00 -7.458744198083877563e-02
3.984000000000000000e+03 6.729720306396484375e+01 -3.658530473709106445e+00 2.299750328063964844e+00 1.071232986450195312e+01 3.903624057769775391e+00 1.497366309165954590e+00
3.985000000000000000e+03 6.077070999145507812e+01 -1.261657142639160156e+01 -3.518204092979431152e-01 7.319967269897460938e+00 2.090444087982177734e+00 3.162339925765991211e+00
3.986000000000000000e+03 6.089123535156250000e+01 -1.315221405029296875e+01 -4.645263552665710449e-01 7.336566448211669922e+00 2.061612129211425781e+00 2.939243316650390625e+00
3.987000000000000000e+03 6.305773162841796875e+01 -1.128860092163085938e+01 -9.264096021652221680e-01 1.161880588531494141e+01 3.207719087600708008e+00 1.957939147949218750e+00
3.988000000000000000e+03 6.731728363037109375e+01 -5.223642349243164062e+00 3.682613849639892578e+00 1.034425163269042969e+01 4.208059787750244141e+00 8.946014642715454102e-01
3.989000000000000000e+03 6.716024017333984375e+01 -9.733230590820312500e+00 1.663636565208435059e+00 1.091211318969726562e+01 3.772724866867065430e+00 -1.515975236892700195e+00
3.990000000000000000e+03 6.009532546997070312e+01 -1.307971572875976562e+01 -1.805397272109985352e-01 6.294373989105224609e+00 1.834150314331054688e+00 3.035352945327758789e+00
3.991000000000000000e+03 6.116630935668945312e+01 -1.404512047767639160e+00 -3.468162119388580322e-01 8.426143646240234375e+00 2.423798322677612305e+00 -3.659224033355712891e+00
3.992000000000000000e+03 6.710236358642578125e+01 -5.910542011260986328e+00 4.251451492309570312e+00 1.037122535705566406e+01 4.386803150177001953e+00 4.085733294486999512e-01
3.993000000000000000e+03 6.592559814453125000e+01 -2.762497663497924805e+00 1.059824705123901367e+00 1.207733154296875000e+01 3.941146850585937500e+00 1.336529493331909180e+00
3.994000000000000000e+03 6.670201110839843750e+01 -2.310977935791015625e+00 8.317417502403259277e-01 1.125365447998046875e+01 3.625618696212768555e+00 1.320036768913269043e+00
3.995000000000000000e+03 6.038703536987304688e+01 -3.331088125705718994e-01 -2.596999704837799072e-01 6.786642074584960938e+00 1.958082556724548340e+00 -3.302642345428466797e+00
3.996000000000000000e+03 5.938948440551757812e+01 7.810404300689697266e-01 -1.209050565958023071e-01 5.408839702606201172e+00 1.586380362510681152e+00 -2.915388822555541992e+00
3.997000000000000000e+03 6.646039581298828125e+01 -2.891179084777832031e+00 1.361972570419311523e+00 1.156091403961181641e+01 3.876866102218627930e+00 1.458204150199890137e+00
3.998000000000000000e+03 6.702232360839843750e+01 -4.744703769683837891e+00 3.412196397781372070e+00 1.069396495819091797e+01 4.231848239898681641e+00 1.226183295249938965e+00
3.999000000000000000e+03 6.796212005615234375e+01 -6.321084022521972656e+00 3.578144550323486328e+00 9.737101554870605469e+00 3.994573831558227539e+00 5.313369631767272949e-02
4.000000000000000000e+03 6.748332214355468750e+01 -6.190220355987548828e+00 3.988786935806274414e+00 1.010131072998046875e+01 4.227029323577880859e+00 1.921449750661849976e-01
4.001000000000000000e+03 5.939421844482421875e+01 -1.377797222137451172e+01 -8.903972059488296509e-02 5.401855468750000000e+00 1.593844771385192871e+00 2.788627386093139648e+00
4.002000000000000000e+03 5.909529495239257812e+01 -1.417133235931396484e+01 -6.621971726417541504e-02 5.106204509735107422e+00 1.511995434761047363e+00 2.656132698059082031e+00
4.003000000000000000e+03 6.750042724609375000e+01 -7.872958183288574219e+00 3.403042316436767578e+00 1.027302932739257812e+01 4.102821350097656250e+00 -1.079896569252014160e+00
4.004000000000000000e+03 6.682901000976562500e+01 -6.574168682098388672e+00 4.619997978210449219e+00 1.064290809631347656e+01 4.578871726989746094e+00 -1.877742111682891846e-01
4.005000000000000000e+03 6.695729064941406250e+01 -1.291659545898437500e+01 -4.451177120208740234e-01 1.037853050231933594e+01 2.980023622512817383e+00 -7.365380525588989258e-01
4.006000000000000000e+03 6.747985076904296875e+01 -4.807006359100341797e+00 3.275945901870727539e+00 1.033045864105224609e+01 4.081921100616455078e+00 1.104498982429504395e+00
4.007000000000000000e+03 6.800420379638671875e+01 -1.908397555351257324e+00 7.840832471847534180e-01 1.025239467620849609e+01 3.310943603515625000e+00 1.373947620391845703e+00
4.008000000000000000e+03 6.805032348632812500e+01 -1.035505485534667969e+01 1.158610939979553223e+00 1.021884250640869141e+01 3.413236141204833984e+00 -1.435556173324584961e+00
4.009000000000000000e+03 6.772171783447265625e+01 -8.763809204101562500e+00 2.523728609085083008e+00 1.028610420227050781e+01 3.842949867248535156e+00 -1.365790486335754395e+00
4.010000000000000000e+03 6.792213439941406250e+01 -7.765548706054687500e+00 3.187952756881713867e+00 9.917792320251464844e+00 3.931723594665527344e+00 -9.132035374641418457e-01
4.011000000000000000e+03 6.579729461669921875e+01 -1.535924053192138672e+01 -1.065670728683471680e+00 9.482183456420898438e+00 2.524953842163085938e+00 2.093512862920761108e-01
4.012000000000000000e+03 6.491157531738281250e+01 3.878019332885742188e+00 -1.149178028106689453e+00 8.725914001464843750e+00 2.273020744323730469e+00 -6.970376372337341309e-01
4.013000000000000000e+03 5.932110977172851562e+01 -1.702869224548339844e+01 -3.043206334114074707e-01 5.392722606658935547e+00 1.526520490646362305e+00 2.042210578918457031e+00
4.014000000000000000e+03 5.793917465209960938e+01 -1.797032165527343750e+01 -9.636828303337097168e-02 4.440390586853027344e+00 1.303206682205200195e+00 1.820740580558776855e+00
4.015000000000000000e+03 5.884996795654296875e+01 3.818780422210693359e+00 -2.706026136875152588e-01 5.090273380279541016e+00 1.445901155471801758e+00 -2.169039726257324219e+00
4.016000000000000000e+03 6.428014373779296875e+01 -1.109657001495361328e+01 -6.258419752120971680e-01 1.237233543395996094e+01 3.523947954177856445e+00 4.046929776668548584e-01
4.017000000000000000e+03 6.757090759277343750e+01 -9.411501884460449219e+00 1.965752005577087402e+00 1.052409744262695312e+01 3.746954917907714844e+00 -1.483702659606933594e+00
4.018000000000000000e+03 6.707479858398437500e+01 -1.098757553100585938e+01 5.647274851799011230e-01 1.086275291442871094e+01 3.428244113922119141e+00 -1.279465913772583008e+00
4.019000000000000000e+03 6.612220764160156250e+01 -1.596690464019775391e+01 -1.054532766342163086e+00 9.248277664184570312e+00 2.458123445510864258e+00 1.408938467502593994e-01
4.020000000000000000e+03 6.623493957519531250e+01 -1.493859481811523438e+01 -9.853115081787109375e-01 9.663595199584960938e+00 2.603485345840454102e+00 -2.266086637973785400e-02
4.021000000000000000e+03 5.856115341186523438e+01 4.536736011505126953e+00 -2.586542069911956787e-01 4.849015235900878906e+00 1.377108335494995117e+00 -2.006496667861938477e+00
4.022000000000000000e+03 6.674084472656250000e+01 7.039126157760620117e-01 -6.903795003890991211e-01 1.022899341583251953e+01 2.861584186553955078e+00 4.908584654331207275e-01
4.023000000000000000e+03 6.648568725585937500e+01 2.723686695098876953e+00 -1.028789639472961426e+00 9.410694122314453125e+00 2.514571428298950195e+00 5.834695417433977127e-03
4.024000000000000000e+03 6.798847961425781250e+01 -5.802239179611206055e-01 4.354033246636390686e-02 1.010629558563232422e+01 3.044950723648071289e+00 1.138584136962890625e+00
4.025000000000000000e+03 6.712245941162109375e+01 -1.805416107177734375e+00 5.303067564964294434e-01 1.085808658599853516e+01 3.416517972946166992e+00 1.263109683990478516e+00
4.026000000000000000e+03 6.510141754150390625e+01 4.605293273925781250e+00 -1.122339606285095215e+00 8.563882827758789062e+00 2.232462882995605469e+00 -6.197333931922912598e-01
4.027000000000000000e+03 6.107598876953125000e+01 -1.910040283203125000e+01 -6.004562973976135254e-01 6.352777957916259766e+00 1.725696444511413574e+00 1.494185686111450195e+00
4.028000000000000000e+03 6.741137695312500000e+01 4.389826953411102295e-01 -4.783199727535247803e-01 1.011118412017822266e+01 2.889859199523925781e+00 7.629748582839965820e-01
4.029000000000000000e+03 6.689754486083984375e+01 1.473895460367202759e-01 -5.021662116050720215e-01 1.038135528564453125e+01 2.963756561279296875e+00 6.711370944976806641e-01
4.030000000000000000e+03 6.633815002441406250e+01 4.393635749816894531e+00 -1.063300728797912598e+00 8.770102500915527344e+00 2.312040567398071289e+00 -1.813297867774963379e-01
4.031000000000000000e+03 5.725572586059570312e+01 4.872140407562255859e+00 -7.320756465196609497e-02 4.024018287658691406e+00 1.185243248939514160e+00 -1.874317765235900879e+00
4.032000000000000000e+03 3.251979446411132812e+01 6.742489814758300781e+00 -3.497204184532165527e-01 5.751570686697959900e-02 -8.766141533851623535e-02 6.990616917610168457e-01
4.033000000000000000e+03 6.445511627197265625e+01 -1.454972076416015625e+01 -1.121070027351379395e+00 9.594543457031250000e+00 2.542042016983032227e+00 8.226686120033264160e-01
4.034000000000000000e+03 5.431838226318359375e+01 5.260271549224853516e+00 1.519181281328201294e-01 2.631629705429077148e+00 8.350642919540405273e-01 -1.364548921585083008e+00
4.035000000000000000e+03 3.804751586914062500e+01 7.767380237579345703e+00 -1.587438583374023438e-01 3.331848680973052979e-01 5.233230069279670715e-02 4.934732317924499512e-01
4.036000000000000000e+03 6.405652618408203125e+01 6.779316425323486328e+00 -9.654791951179504395e-01 7.592563152313232422e+00 1.988125205039978027e+00 -9.011850953102111816e-01
4.037000000000000000e+03 5.972025299072265625e+01 3.334745645523071289e+00 -4.438542425632476807e-01 5.828269481658935547e+00 1.615324497222900391e+00 -2.281099081039428711e+00
4.038000000000000000e+03 5.342138671875000000e+01 8.434611320495605469e+00 1.837189793586730957e-01 2.769472122192382812e+00 8.859573602676391602e-01 -1.111392021179199219e+00
4.039000000000000000e+03 5.100680160522460938e+01 9.392312049865722656e+00 2.556015551090240479e-01 2.170845508575439453e+00 7.279341220855712891e-01 -7.827349901199340820e-01
4.040000000000000000e+03 6.539076995849609375e+01 -1.803820991516113281e+01 -1.030247211456298828e+00 8.395522117614746094e+00 2.209582328796386719e+00 4.653600752353668213e-01
4.041000000000000000e+03 5.929591751098632812e+01 -1.590880298614501953e+01 -2.655270099639892578e-01 5.408071994781494141e+00 1.542763471603393555e+00 2.267416238784790039e+00
4.042000000000000000e+03 4.715044784545898438e+01 8.319658279418945312e+00 1.850230544805526733e-01 1.195624113082885742e+00 4.141941666603088379e-01 -2.703663110733032227e-01
4.043000000000000000e+03 6.117566299438476562e+01 7.712358951568603516e+00 -6.320028305053710938e-01 6.191937446594238281e+00 1.667980313301086426e+00 -1.367156147956848145e+00
4.044000000000000000e+03 6.357462310791015625e+01 8.145098686218261719e+00 -8.189468979835510254e-01 7.045488834381103516e+00 1.867962598800659180e+00 -9.121774435043334961e-01
4.045000000000000000e+03 4.575368118286132812e+01 8.577970504760742188e+00 1.599399596452713013e-01 1.039551973342895508e+00 3.598476052284240723e-01 -1.265558749437332153e-01
4.046000000000000000e+03 3.599643325805664062e+01 8.489510536193847656e+00 -1.847341805696487427e-01 2.623279392719268799e-01 2.327812463045120239e-02 5.578803420066833496e-01
4.047000000000000000e+03 3.906472778320312500e+01 7.681580543518066406e+00 -1.381927132606506348e-01 3.807428777217864990e-01 7.276504486799240112e-02 4.501411616802215576e-01
4.048000000000000000e+03 4.469403076171875000e+01 1.054957485198974609e+01 2.159899920225143433e-01 1.095945477485656738e+00 3.935806155204772949e-01 -8.077650517225265503e-02
4.049000000000000000e+03 4.149464797973632812e+01 8.507781982421875000e+00 5.398631561547517776e-03 5.997305512428283691e-01 1.815387457609176636e-01 2.597638964653015137e-01
4.050000000000000000e+03 6.182938385009765625e+01 -2.152696800231933594e+01 -5.700662136077880859e-01 6.344372749328613281e+00 1.732292056083679199e+00 1.078440546989440918e+00
4.051000000000000000e+03 3.464909744262695312e+01 8.621739387512207031e+00 -2.170091867446899414e-01 2.050834149122238159e-01 -3.577734110876917839e-03 6.032892465591430664e-01
4.052000000000000000e+03 5.830523300170898438e+01 1.070018672943115234e+01 -2.099150568246841431e-01 4.777650356292724609e+00 1.370320558547973633e+00 -1.207405924797058105e+00
4.053000000000000000e+03 5.405105209350585938e+01 7.390949726104736328e+00 1.562876403331756592e-01 2.858298301696777344e+00 9.043757915496826172e-01 -1.254561662673950195e+00
4.054000000000000000e+03 3.472531890869140625e+01 1.141397762298583984e+01 -9.987009316682815552e-02 2.974404692649841309e-01 5.927111208438873291e-02 5.057684779167175293e-01
4.055000000000000000e+03 6.000973892211914062e+01 1.025446414947509766e+01 -4.019357860088348389e-01 5.482456684112548828e+00 1.524156332015991211e+00 -1.202746033668518066e+00
4.056000000000000000e+03 6.234017944335937500e+01 9.968598365783691406e+00 -6.087186932563781738e-01 6.326215744018554688e+00 1.715249180793762207e+00 -9.835669994354248047e-01
4.057000000000000000e+03 6.150031280517578125e+01 8.792967796325683594e+00 -6.122678518295288086e-01 6.198312759399414062e+00 1.675813436508178711e+00 -1.189660906791687012e+00
4.058000000000000000e+03 5.371645736694335938e+01 -2.408903694152832031e+01 3.185805082321166992e-01 3.030761718750000000e+00 1.004802703857421875e+00 8.857322335243225098e-01
4.059000000000000000e+03 5.669819641113281250e+01 -2.184869766235351562e+01 5.547351762652397156e-02 4.001451015472412109e+00 1.217077374458312988e+00 1.308826088905334473e+00
4.060000000000000000e+03 2.718181419372558594e+01 1.600920677185058594e+01 -2.251696735620498657e-01 -1.689392477273941040e-01 -1.182326748967170715e-01 4.405421912670135498e-01
4.061000000000000000e+03 5.180709838867187500e+01 8.588540077209472656e+00 2.346778213977813721e-01 2.292633771896362305e+00 7.581934928894042969e-01 -8.829138278961181641e-01
4.062000000000000000e+03 5.765888214111328125e+01 -1.997933959960937500e+01 -6.995865702629089355e-02 4.416641712188720703e+00 1.304005026817321777e+00 1.546932458877563477e+00
4.063000000000000000e+03 5.636569595336914062e+01 -2.021067619323730469e+01 7.775662839412689209e-02 3.791749954223632812e+00 1.160851955413818359e+00 1.439311146736145020e+00
4.064000000000000000e+03 5.518920516967773438e+01 -2.277512931823730469e+01 1.779883205890655518e-01 3.519750118255615234e+00 1.109321594238281250e+00 1.127330183982849121e+00
4.065000000000000000e+03 3.937451553344726562e+01 -2.284387588500976562e+01 2.972872555255889893e-01 3.943528234958648682e-01 2.074920237064361572e-01 -2.181006222963333130e-01
4.066000000000000000e+03 4.972701263427734375e+01 -2.608453750610351562e+01 5.093205571174621582e-01 2.082124471664428711e+00 7.774335145950317383e-01 5.507743954658508301e-01
4.067000000000000000e+03 3.957573318481445312e+01 -2.614543914794921875e+01 4.975265264511108398e-01 5.528587102890014648e-01 3.151155710220336914e-01 -1.368263214826583862e-01
4.068000000000000000e+03 3.478750228881835938e+01 -2.314238739013671875e+01 1.943460702896118164e-01 1.376797556877136230e-01 9.960775077342987061e-02 -3.782762289047241211e-01
4.069000000000000000e+03 5.942460632324218750e+01 1.958996391296386719e+01 -1.330126263201236725e-02 4.895563125610351562e+00 1.464678525924682617e+00 -5.966494083404541016e-01
4.070000000000000000e+03 6.060779190063476562e+01 1.559549617767333984e+01 -2.118308097124099731e-01 5.356313228607177734e+00 1.543344736099243164e+00 -7.617078423500061035e-01
4.071000000000000000e+03 5.727679443359375000e+01 7.791445732116699219e+00 -1.235876902937889099e-01 4.285824775695800781e+00 1.248671174049377441e+00 -1.513810873031616211e+00
4.072000000000000000e+03 3.605030822753906250e+01 1.311485958099365234e+01 2.172872424125671387e-02 4.512516558170318604e-01 1.418941169977188110e-01 3.922353088855743408e-01
4.073000000000000000e+03 3.303757095336914062e+01 1.445679855346679688e+01 -5.360431224107742310e-02 2.471513301134109497e-01 5.806410312652587891e-02 4.384737908840179443e-01
4.074000000000000000e+03 7.126582336425781250e+01 -3.399858856201171875e+01 -9.093590825796127319e-02 7.446691513061523438e+00 2.206726789474487305e+00 2.180281840264797211e-02
4.075000000000000000e+03 6.072500610351562500e+01 -1.170406460762023926e+00 -1.658671349287033081e-01 7.404438972473144531e+00 2.171571493148803711e+00 -3.630772829055786133e+00
4.076000000000000000e+03 6.110652542114257812e+01 -1.083536267280578613e+00 -3.852938413619995117e-01 8.277074813842773438e+00 2.367534160614013672e+00 -3.493801116943359375e+00
4.077000000000000000e+03 6.425470733642578125e+01 -1.477518796920776367e+00 -7.445296049118041992e-01 1.215273284912109375e+01 3.422461032867431641e+00 -5.260216593742370605e-01
4.078000000000000000e+03 6.557769012451171875e+01 -2.084755659103393555e+00 1.779040247201919556e-01 1.206385993957519531e+01 3.672528982162475586e+00 8.256351947784423828e-01
4.079000000000000000e+03 6.637577056884765625e+01 -8.378441810607910156e+00 3.275639533996582031e+00 1.150767707824707031e+01 4.434995174407958984e+00 -1.548866271972656250e+00
4.080000000000000000e+03 6.624092102050781250e+01 -8.917861938476562500e+00 2.508726358413696289e+00 1.172810268402099609e+01 4.271048545837402344e+00 -1.619794368743896484e+00
4.081000000000000000e+03 6.300637817382812500e+01 -1.497841715812683105e+00 -1.000268816947937012e+00 1.163306999206542969e+01 3.189840316772460938e+00 -2.024522781372070312e+00
4.082000000000000000e+03 5.991183853149414062e+01 -1.352847480773925781e+01 -1.983444541692733765e-01 5.991155147552490234e+00 1.737843275070190430e+00 2.878872632980346680e+00
4.083000000000000000e+03 6.017661666870117188e+01 -5.808891654014587402e-01 -1.221751272678375244e-01 6.431086540222167969e+00 1.892673373222351074e+00 -3.417292833328247070e+00
4.084000000000000000e+03 6.598741912841796875e+01 -9.421460151672363281e+00 1.766281485557556152e+00 1.209238338470458984e+01 4.157599449157714844e+00 -1.537361145019531250e+00
4.085000000000000000e+03 6.272635269165039062e+01 -1.126337814331054688e+01 -8.802790641784667969e-01 1.125882434844970703e+01 3.113563776016235352e+00 2.330054998397827148e+00
4.086000000000000000e+03 6.335308456420898438e+01 -1.411358833312988281e+00 -9.983137845993041992e-01 1.176721763610839844e+01 3.230670928955078125e+00 -1.661518812179565430e+00
4.087000000000000000e+03 6.315999221801757812e+01 -1.043097138404846191e+00 -1.021091938018798828e+00 1.120002841949462891e+01 3.053681135177612305e+00 -1.861233949661254883e+00
4.088000000000000000e+03 6.337237930297851562e+01 7.300013899803161621e-01 -1.165074706077575684e+00 9.781924247741699219e+00 2.585054874420166016e+00 -1.572859168052673340e+00
4.089000000000000000e+03 6.109549331665039062e+01 -6.367224454879760742e-01 -4.734543561935424805e-01 7.949207782745361328e+00 2.242726087570190430e+00 -3.303113698959350586e+00
4.090000000000000000e+03 6.758802795410156250e+01 -6.493011474609375000e+00 3.887702465057373047e+00 1.001839351654052734e+01 4.171828746795654297e+00 -9.753122925758361816e-02
4.091000000000000000e+03 6.426893615722656250e+01 -1.028382110595703125e+01 -1.637072563171386719e-01 1.330900382995605469e+01 3.943588972091674805e+00 2.035588584840297699e-02
4.092000000000000000e+03 6.343611526489257812e+01 -1.138313007354736328e+01 -9.280453920364379883e-01 1.181901645660400391e+01 3.267291307449340820e+00 1.466887354850769043e+00
4.093000000000000000e+03 6.641284942626953125e+01 -1.255037212371826172e+01 -4.707007110118865967e-01 1.074064731597900391e+01 3.080983877182006836e+00 -6.079755425453186035e-01
4.094000000000000000e+03 6.427803039550781250e+01 -1.068181991577148438e+01 -4.329014420509338379e-01 1.283017730712890625e+01 3.719182729721069336e+00 2.280506342649459839e-01
4.095000000000000000e+03 6.698083496093750000e+01 -3.041175603866577148e+00 1.563121318817138672e+00 1.105366039276123047e+01 3.785034418106079102e+00 1.489020705223083496e+00
4.096000000000000000e+03 6.751129150390625000e+01 -5.664443016052246094e+00 3.842110157012939453e+00 1.010696983337402344e+01 4.184724330902099609e+00 5.358714461326599121e-01
4.097000000000000000e+03 6.675483703613281250e+01 -8.231428146362304688e+00 3.347064018249511719e+00 1.106386375427246094e+01 4.323278427124023438e+00 -1.429947972297668457e+00
4.098000000000000000e+03 6.769906616210937500e+01 -4.386862754821777344e+00 2.849064350128173828e+00 1.025782680511474609e+01 3.932067394256591797e+00 1.245219707489013672e+00
4.099000000000000000e+03 6.774240875244140625e+01 -5.375294685363769531e+00 3.497276782989501953e+00 9.976064682006835938e+00 4.042002677917480469e+00 7.158758640289306641e-01
4.100000000000000000e+03 6.033908843994140625e+01 -8.385753035545349121e-01 -1.182241663336753845e-01 6.663216114044189453e+00 1.963497519493103027e+00 -3.489311218261718750e+00
4.101000000000000000e+03 6.780218505859375000e+01 -6.091980934143066406e+00 3.731088876724243164e+00 9.877305030822753906e+00 4.082518100738525391e+00 2.313835024833679199e-01
4.102000000000000000e+03 6.471489715576171875e+01 -1.112589073181152344e+01 -4.589578509330749512e-01 1.225251674652099609e+01 3.538067817687988281e+00 -1.859381422400474548e-02
4.103000000000000000e+03 6.787979125976562500e+01 -9.750122070312500000e+00 1.673223972320556641e+00 1.034146976470947266e+01 3.604408264160156250e+00 -1.475241661071777344e+00
4.104000000000000000e+03 6.728011322021484375e+01 -9.023492813110351562e+00 2.329603433609008789e+00 1.068719768524169922e+01 3.905040502548217773e+00 -1.482147693634033203e+00
4.105000000000000000e+03 6.767633056640625000e+01 -1.432996153831481934e+00 3.849365413188934326e-01 1.038191127777099609e+01 3.230054378509521484e+00 1.249176621437072754e+00
4.106000000000000000e+03 6.605355072021484375e+01 -9.335108399391174316e-01 -3.285829722881317139e-01 1.114836788177490234e+01 3.245935678482055664e+00 6.293817162513732910e-01
4.107000000000000000e+03 6.742289733886718750e+01 -7.045984268188476562e+00 3.855249643325805664e+00 1.016656303405761719e+01 4.206543922424316406e+00 -5.079730153083801270e-01
4.108000000000000000e+03 6.780757904052734375e+01 -6.815802574157714844e+00 3.703870773315429688e+00 9.873574256896972656e+00 4.073233604431152344e+00 -3.277862668037414551e-01
4.109000000000000000e+03 6.657098388671875000e+01 -1.345493030548095703e+01 -7.049722671508789062e-01 1.024190330505371094e+01 2.861079216003417969e+00 -4.293405115604400635e-01
4.110000000000000000e+03 6.665017700195312500e+01 -1.202981662750244141e+01 -1.948034465312957764e-01 1.083004856109619141e+01 3.190573453903198242e+00 -8.556649088859558105e-01
4.111000000000000000e+03 5.954670333862304688e+01 5.964997410774230957e-02 -2.231459692120552063e-02 5.459144115447998047e+00 1.631048798561096191e+00 -3.132493734359741211e+00
4.112000000000000000e+03 6.741949462890625000e+01 -8.408185958862304688e+00 2.887805461883544922e+00 1.044278717041015625e+01 3.999177694320678711e+00 -1.318656444549560547e+00
4.113000000000000000e+03 6.685142517089843750e+01 -1.149731349945068359e+01 1.952383667230606079e-01 1.087095832824707031e+01 3.319859027862548828e+00 -1.101302862167358398e+00
4.114000000000000000e+03 6.781249237060546875e+01 -8.133058547973632812e+00 3.002082109451293945e+00 1.006297969818115234e+01 3.919518709182739258e+00 -1.105964064598083496e+00
4.115000000000000000e+03 6.749350738525390625e+01 -2.205365896224975586e+00 9.205318093299865723e-01 1.059479999542236328e+01 3.454599618911743164e+00 1.392559289932250977e+00
4.116000000000000000e+03 6.739430236816406250e+01 -9.300166368484497070e-01 8.595941215753555298e-02 1.048043251037597656e+01 3.169917583465576172e+00 1.107096314430236816e+00
4.117000000000000000e+03 6.577808380126953125e+01 -1.442970752716064453e+01 -1.012695789337158203e+00 9.915709495544433594e+00 2.670904159545898438e+00 1.207987517118453979e-01
4.118000000000000000e+03 6.713313293457031250e+01 -3.984582424163818359e-01 -2.353511005640029907e-01 1.049378204345703125e+01 3.077529430389404297e+00 8.946275115013122559e-01
4.119000000000000000e+03 6.598857116699218750e+01 -1.224145412445068359e+01 -4.748817682266235352e-01 1.097617149353027344e+01 3.150386810302734375e+00 -4.965232610702514648e-01
4.120000000000000000e+03 5.996108245849609375e+01 2.717269897460937500e+00 -4.695206582546234131e-01 5.984646797180175781e+00 1.654537916183471680e+00 -2.413842439651489258e+00
4.121000000000000000e+03 6.618257904052734375e+01 -1.395471477508544922e+01 -8.761156201362609863e-01 1.012084579467773438e+01 2.773418903350830078e+00 -1.708816289901733398e-01
4.122000000000000000e+03 5.909688186645507812e+01 3.065148353576660156e+00 -2.905411124229431152e-01 5.237499713897705078e+00 1.484087586402893066e+00 -2.314711332321166992e+00
4.123000000000000000e+03 5.816135406494140625e+01 3.874709129333496094e+00 -1.478210240602493286e-01 4.542899131774902344e+00 1.318523526191711426e+00 -2.106600522994995117e+00
4.124000000000000000e+03 6.666320800781250000e+01 1.287012338638305664e+00 -8.490219712257385254e-01 9.971421241760253906e+00 2.736719846725463867e+00 3.124312460422515869e-01
4.125000000000000000e+03 5.914202117919921875e+01 -1.820552253723144531e+01 -2.968559265136718750e-01 5.235722064971923828e+00 1.481659889221191406e+00 1.817957282066345215e+00
4.126000000000000000e+03 6.105764389038085938e+01 -1.773311233520507812e+01 -6.496775746345520020e-01 6.562190532684326172e+00 1.773753881454467773e+00 1.715331315994262695e+00
4.127000000000000000e+03 6.536853027343750000e+01 2.849663019180297852e+00 -1.136902332305908203e+00 9.282821655273437500e+00 2.443775653839111328e+00 -4.458619654178619385e-01
4.128000000000000000e+03 6.562919616699218750e+01 3.621239185333251953e+00 -1.121949553489685059e+00 8.988971710205078125e+00 2.360106706619262695e+00 -3.963547050952911377e-01
4.129000000000000000e+03 6.460248565673828125e+01 5.117212295532226562e+00 -1.077644944190979004e+00 8.223556518554687500e+00 2.143773555755615234e+00 -7.886590361595153809e-01
4.130000000000000000e+03 6.558110046386718750e+01 -1.702823257446289062e+01 -1.063124775886535645e+00 8.761131286621093750e+00 2.309401988983154297e+00 3.825007081031799316e-01
4.131000000000000000e+03 5.678586959838867188e+01 5.711922645568847656e+00 -4.516737908124923706e-02 3.852706909179687500e+00 1.142261862754821777e+00 -1.709966182708740234e+00
4.132000000000000000e+03 6.098984146118164062e+01 -2.070249748229980469e+01 -5.191363692283630371e-01 6.089993953704833984e+00 1.671257257461547852e+00 1.283525228500366211e+00
4.133000000000000000e+03 3.758819961547851562e+01 1.154978942871093750e+01 1.581418514251708984e-02 4.931115210056304932e-01 1.526777148246765137e-01 3.839459419250488281e-01
4.134000000000000000e+03 3.903701400756835938e+01 1.157151985168457031e+01 6.804613769054412842e-02 6.020576357841491699e-01 2.010311335325241089e-01 3.074777424335479736e-01
4.135000000000000000e+03 6.481657409667968750e+01 -1.618754577636718750e+01 -1.096592545509338379e+00 8.906152725219726562e+00 2.342867851257324219e+00 6.651604771614074707e-01
4.136000000000000000e+03 5.263969039916992188e+01 9.422754287719726562e+00 2.138005495071411133e-01 2.636726856231689453e+00 8.551582694053649902e-01 -9.654043316841125488e-01
4.137000000000000000e+03 4.838975143432617188e+01 8.322287559509277344e+00 2.253075838088989258e-01 1.411579489707946777e+00 4.910661280155181885e-01 -4.346684217453002930e-01
4.138000000000000000e+03 4.605627822875976562e+01 1.011322784423828125e+01 2.350823432207107544e-01 1.253777146339416504e+00 4.466578662395477295e-01 -2.030083090066909790e-01
4.139000000000000000e+03 4.735279464721679688e+01 9.755036354064941406e+00 2.506418526172637939e-01 1.408487915992736816e+00 4.977389276027679443e-01 -3.296568095684051514e-01
4.140000000000000000e+03 6.030863189697265625e+01 4.140376567840576172e+00 -5.948548316955566406e-01 6.202863216400146484e+00 1.682402491569519043e+00 -2.044224023818969727e+00
4.141000000000000000e+03 5.934238433837890625e+01 1.145125293731689453e+01 -2.900254726409912109e-01 5.155118465423583984e+00 1.459527850151062012e+00 -1.120207786560058594e+00
4.142000000000000000e+03 6.433145904541015625e+01 5.949045658111572266e+00 -1.028734803199768066e+00 7.870441436767578125e+00 2.052511930465698242e+00 -8.690314292907714844e-01
4.143000000000000000e+03 6.220088958740234375e+01 7.367550373077392578e+00 -7.625612616539001465e-01 6.727604389190673828e+00 1.789512872695922852e+00 -1.244475364685058594e+00
4.144000000000000000e+03 5.961661911010742188e+01 1.325351595878601074e+00 -2.636378407478332520e-01 5.715465545654296875e+00 1.635548233985900879e+00 -2.753595352172851562e+00
4.145000000000000000e+03 6.424015045166015625e+01 3.808267116546630859e+00 -1.141349673271179199e+00 8.577491760253906250e+00 2.230842828750610352e+00 -9.594216346740722656e-01
4.146000000000000000e+03 6.140623474121093750e+01 9.756940841674804688e+00 -5.508589148521423340e-01 6.056259155273437500e+00 1.651620149612426758e+00 -1.093684792518615723e+00
4.147000000000000000e+03 4.895331573486328125e+01 1.065959167480468750e+01 2.800214886665344238e-01 1.825971245765686035e+00 6.317977905273437500e-01 -5.203524827957153320e-01
4.148000000000000000e+03 5.031352996826171875e+01 8.558947563171386719e+00 2.521707415580749512e-01 1.869554281234741211e+00 6.365175247192382812e-01 -6.915840506553649902e-01
4.149000000000000000e+03 3.584031295776367188e+01 1.492635059356689453e+01 8.309012651443481445e-02 5.036010146141052246e-01 1.760073304176330566e-01 3.299069702625274658e-01
4.150000000000000000e+03 6.183465576171875000e+01 -1.982512474060058594e+01 -6.703312993049621582e-01 6.609775066375732422e+00 1.781833171844482422e+00 1.274684667587280273e+00
4.151000000000000000e+03 5.998766326904296875e+01 -2.159871864318847656e+01 -3.513983488082885742e-01 5.529001712799072266e+00 1.553280949592590332e+00 1.270213246345520020e+00
4.152000000000000000e+03 5.944467544555664062e+01 -2.616466331481933594e+01 -1.221175491809844971e-01 5.098988056182861328e+00 1.493061184883117676e+00 8.536409139633178711e-01
4.153000000000000000e+03 3.334763336181640625e+01 8.716232299804687500e+00 -2.505646944046020508e-01 1.364322155714035034e-01 -3.423973917961120605e-02 6.350340843200683594e-01
4.154000000000000000e+03 5.558395004272460938e+01 6.658671379089355469e+00 5.800270289182662964e-02 3.432402849197387695e+00 1.047121644020080566e+00 -1.476231932640075684e+00
4.155000000000000000e+03 4.744595718383789062e+01 -2.401546287536621094e+01 5.014533400535583496e-01 1.436579108238220215e+00 5.814097523689270020e-01 3.832063674926757812e-01
4.156000000000000000e+03 4.600117874145507812e+01 -2.192712593078613281e+01 3.966193199157714844e-01 1.004212021827697754e+00 4.202494025230407715e-01 2.291284799575805664e-01
4.157000000000000000e+03 5.873857498168945312e+01 -1.956855583190917969e+01 -2.226156592369079590e-01 5.009266853332519531e+00 1.435995459556579590e+00 1.609646320343017578e+00
4.158000000000000000e+03 4.554206085205078125e+01 -2.371610832214355469e+01 4.757083058357238770e-01 1.077895164489746094e+00 4.660810530185699463e-01 2.145381420850753784e-01
4.159000000000000000e+03 6.074347305297851562e+01 -2.473750877380371094e+01 -2.937586605548858643e-01 5.585774421691894531e+00 1.587604761123657227e+00 9.014147520065307617e-01
4.160000000000000000e+03 6.083072662353515625e+01 -2.732565879821777344e+01 -1.710784137248992920e-01 5.446879386901855469e+00 1.582740306854248047e+00 7.084462046623229980e-01
4.161000000000000000e+03 3.319430541992187500e+01 7.559105873107910156e+00 -3.034628033638000488e-01 1.046293750405311584e-01 -5.965002998709678650e-02 6.686699986457824707e-01
4.162000000000000000e+03 6.084312820434570312e+01 -2.256810379028320312e+01 -4.104117453098297119e-01 5.811694622039794922e+00 1.620384812355041504e+00 1.084343075752258301e+00
4.163000000000000000e+03 5.882211303710937500e+01 -2.249508285522460938e+01 -1.915306001901626587e-01 4.954557895660400391e+00 1.428908109664916992e+00 1.219331502914428711e+00
4.164000000000000000e+03 5.659706115722656250e+01 1.333108997344970703e+01 -1.485234405845403671e-02 4.181987762451171875e+00 1.250140666961669922e+00 -9.811912775039672852e-01
4.165000000000000000e+03 4.938224792480468750e+01 -2.394871711730957031e+01 4.812074303627014160e-01 1.811137557029724121e+00 6.877034902572631836e-01 5.786368250846862793e-01
4.166000000000000000e+03 5.199055862426757812e+01 -2.539895057678222656e+01 4.251122176647186279e-01 2.567326545715332031e+00 8.977316021919250488e-01 7.236978411674499512e-01
4.167000000000000000e+03 3.574649810791015625e+01 1.681853675842285156e+01 1.419121623039245605e-01 5.734763145446777344e-01 2.146165370941162109e-01 2.683387398719787598e-01
4.168000000000000000e+03 3.356478500366210938e+01 1.588704776763916016e+01 3.288307040929794312e-02 3.409238159656524658e-01 1.121420636773109436e-01 3.653615415096282959e-01
4.169000000000000000e+03 2.823320579528808594e+01 -2.526025581359863281e+01 1.755722165107727051e-01 -6.106495484709739685e-02 3.435217961668968201e-02 -3.976617753505706787e-01
4.170000000000000000e+03 2.955167198181152344e+01 -2.707286071777343750e+01 3.036531507968902588e-01 -1.123694330453872681e-02 8.772485703229904175e-02 -3.547914326190948486e-01
4.171000000000000000e+03 3.113565635681152344e+01 -2.371154785156250000e+01 1.679591685533523560e-01 2.646051533520221710e-02 5.832590535283088684e-02 -4.257433116436004639e-01
4.172000000000000000e+03 6.155120849609375000e+01 1.967090988159179688e+01 -9.731554985046386719e-02 5.447251319885253906e+00 1.604980826377868652e+00 -5.357828140258789062e-01
4.173000000000000000e+03 6.003351593017578125e+01 1.743492698669433594e+01 -1.142681539058685303e-01 5.121513843536376953e+00 1.502173662185668945e+00 -6.945308446884155273e-01
4.174000000000000000e+03 6.160659408569335938e+01 -6.535272002220153809e-01 -6.831952333450317383e-01 8.884021759033203125e+00 2.460247755050659180e+00 -3.067783594131469727e+00
4.175000000000000000e+03 6.107624816894531250e+01 -1.245133727788925171e-01 -5.449753403663635254e-01 7.737912178039550781e+00 2.157881021499633789e+00 -3.115700721740722656e+00
4.176000000000000000e+03 6.467506408691406250e+01 -1.689398574829101562e+01 -1.075845479965209961e+00 8.576096534729003906e+00 2.250075340270996094e+00 7.353923916816711426e-01
4.177000000000000000e+03 6.047982406616210938e+01 -1.334683322906494141e+01 -3.500926792621612549e-01 6.777359962463378906e+00 1.928180217742919922e+00 2.936457633972167969e+00
4.178000000000000000e+03 6.710437011718750000e+01 -6.793720722198486328e+00 4.205296039581298828e+00 1.039439868927001953e+01 4.379908561706542969e+00 -3.855248689651489258e-01
4.179000000000000000e+03 6.728658294677734375e+01 -7.558110237121582031e+00 3.702561140060424805e+00 1.038291072845458984e+01 4.225641727447509766e+00 -9.272737503051757812e-01
4.180000000000000000e+03 6.446743011474609375e+01 2.550735712051391602e+00 -1.180833578109741211e+00 9.227844238281250000e+00 2.414103269577026367e+00 -8.691407442092895508e-01
4.181000000000000000e+03 6.223610305786132812e+01 -1.157362747192382812e+01 -7.937185764312744141e-01 1.026141929626464844e+01 2.840310096740722656e+00 2.781138420104980469e+00
4.182000000000000000e+03 6.389290618896484375e+01 -1.580789327621459961e+00 -8.359305858612060547e-01 1.217290782928466797e+01 3.401093006134033203e+00 -9.288107752799987793e-01
4.183000000000000000e+03 6.267690658569335938e+01 -8.482242226600646973e-01 -9.749419689178466797e-01 1.042416477203369141e+01 2.834766864776611328e+00 -2.281394481658935547e+00
4.184000000000000000e+03 6.463813781738281250e+01 -1.031070518493652344e+01 2.569755353033542633e-02 1.303976154327392578e+01 3.919637680053710938e+00 -3.485737442970275879e-01
4.185000000000000000e+03 6.628935241699218750e+01 -9.800798416137695312e+00 1.434673786163330078e+00 1.171876907348632812e+01 3.946032762527465820e+00 -1.485082864761352539e+00
4.186000000000000000e+03 6.549253082275390625e+01 -9.851014137268066406e+00 1.052065849304199219e+00 1.260437965393066406e+01 4.096933841705322266e+00 -1.258324265480041504e+00
4.187000000000000000e+03 6.701190185546875000e+01 -8.621247291564941406e+00 2.808503150939941406e+00 1.089185237884521484e+01 4.110106468200683594e+00 -1.469174623489379883e+00
4.188000000000000000e+03 6.569274139404296875e+01 -1.350302314758300781e+01 -8.947631716728210449e-01 1.037886142730712891e+01 2.845229387283325195e+00 -5.599108990281820297e-03
4.189000000000000000e+03 6.614037322998046875e+01 1.139483451843261719e+00 -9.179790616035461426e-01 1.006387138366699219e+01 2.743767738342285156e+00 1.034663990139961243e-01
4.190000000000000000e+03 6.614478302001953125e+01 -2.151691675186157227e+00 5.039131641387939453e-01 1.167186450958251953e+01 3.652733325958251953e+00 1.142058491706848145e+00
4.191000000000000000e+03 6.569637298583984375e+01 -1.583966493606567383e+00 -6.349003314971923828e-02 1.172380161285400391e+01 3.498093366622924805e+00 7.044013738632202148e-01
4.192000000000000000e+03 6.684116363525390625e+01 -9.269711494445800781e+00 2.078044652938842773e+00 1.117979717254638672e+01 3.977352619171142578e+00 -1.558017969131469727e+00
4.193000000000000000e+03 5.973630905151367188e+01 -1.394629001617431641e+01 -2.030351310968399048e-01 5.747647762298583984e+00 1.663383841514587402e+00 2.741953849792480469e+00
4.194000000000000000e+03 5.953826904296875000e+01 -1.437781715393066406e+01 -2.050015628337860107e-01 5.575280666351318359e+00 1.611083745956420898e+00 2.610587835311889648e+00
4.195000000000000000e+03 6.370351409912109375e+01 -1.164094328880310059e+00 -9.892966747283935547e-01 1.170144748687744141e+01 3.213645219802856445e+00 -1.218507766723632812e+00
4.196000000000000000e+03 6.467357635498046875e+01 -1.634177565574645996e+00 -5.321378707885742188e-01 1.225097846984863281e+01 3.515652179718017578e+00 -6.604421883821487427e-02
4.197000000000000000e+03 6.639472961425781250e+01 -9.368393898010253906e+00 1.936441302299499512e+00 1.156710338592529297e+01 4.051063537597656250e+00 -1.571821093559265137e+00
4.198000000000000000e+03 6.621004486083984375e+01 -1.525965929031372070e+00 7.662833482027053833e-02 1.138504505157470703e+01 3.438502073287963867e+00 9.201959371566772461e-01
4.199000000000000000e+03 6.226050949096679688e+01 -1.210571861267089844e+01 -8.476397991180419922e-01 9.820436477661132812e+00 2.691838979721069336e+00 2.592442512512207031e+00
4.200000000000000000e+03 6.632899475097656250e+01 -6.871371716260910034e-02 -5.806177258491516113e-01 1.063910293579101562e+01 3.017545461654663086e+00 4.773976802825927734e-01
4.201000000000000000e+03 6.596726226806640625e+01 -1.022614574432373047e+01 8.455737829208374023e-01 1.194049358367919922e+01 3.835819959640502930e+00 -1.247688293457031250e+00
4.202000000000000000e+03 6.797019195556640625e+01 -4.984655857086181641e+00 3.142354726791381836e+00 9.866898536682128906e+00 3.902776002883911133e+00 8.725461959838867188e-01
4.203000000000000000e+03 6.244170761108398438e+01 5.294502258300781250e+00 -9.109985232353210449e-01 7.280647277832031250e+00 1.910894632339477539e+00 -1.429364323616027832e+00
4.204000000000000000e+03 5.983585739135742188e+01 -1.767750930786132812e+01 -4.270778596401214600e-01 5.758347511291503906e+00 1.599380850791931152e+00 1.888326525688171387e+00
4.205000000000000000e+03 6.566728210449218750e+01 -1.163243961334228516e+01 -3.251442313194274902e-01 1.146329879760742188e+01 3.341446399688720703e+00 -5.027237534523010254e-01
4.206000000000000000e+03 6.604205322265625000e+01 1.756088972091674805e+00 -1.000920534133911133e+00 9.823650360107421875e+00 2.646818876266479492e+00 -1.354728173464536667e-02
4.207000000000000000e+03 6.339498138427734375e+01 1.349420666694641113e+00 -1.151737809181213379e+00 9.397749900817871094e+00 2.473803520202636719e+00 -1.464627265930175781e+00
4.208000000000000000e+03 6.382521057128906250e+01 4.703320503234863281e+00 -1.073476910591125488e+00 8.058826446533203125e+00 2.095604896545410156e+00 -1.072113394737243652e+00
4.209000000000000000e+03 6.574462890625000000e+01 7.481125593185424805e-01 -9.131425023078918457e-01 1.034246158599853516e+01 2.828795671463012695e+00 1.092093717306852341e-02
4.210000000000000000e+03 5.992002487182617188e+01 1.852657318115234375e+00 -3.835669159889221191e-01 6.040297985076904297e+00 1.697019338607788086e+00 -2.636728525161743164e+00
4.211000000000000000e+03 5.806578826904296875e+01 5.312491416931152344e+00 -2.182766646146774292e-01 4.617249011993408203e+00 1.319691658020019531e+00 -1.868083477020263672e+00
4.212000000000000000e+03 6.548874664306640625e+01 -1.621765327453613281e+01 -1.092765212059020996e+00 9.084019660949707031e+00 2.397376298904418945e+00 3.909597694873809814e-01
4.213000000000000000e+03 3.475560379028320312e+01 9.969770431518554688e+00 -1.581060290336608887e-01 2.471807748079299927e-01 2.672242559492588043e-02 5.582096576690673828e-01
4.214000000000000000e+03 6.313508987426757812e+01 6.486896038055419922e+00 -9.306290149688720703e-01 7.347290039062500000e+00 1.924998402595520020e+00 -1.141484141349792480e+00
4.215000000000000000e+03 6.125392913818359375e+01 1.173846840858459473e+00 -7.201096415519714355e-01 7.570034027099609375e+00 2.054977416992187500e+00 -2.596031188964843750e+00
4.216000000000000000e+03 6.023707580566406250e+01 -1.505976772308349609e+01 -4.061923623085021973e-01 6.225751399993896484e+00 1.745867729187011719e+00 2.469585657119750977e+00
4.217000000000000000e+03 6.396835708618164062e+01 -1.864793777465820312e+01 -9.471587538719177246e-01 7.786919593811035156e+00 2.051928281784057617e+00 8.874481916427612305e-01
4.218000000000000000e+03 5.751462173461914062e+01 6.172696590423583984e+00 -1.511310189962387085e-01 4.372600555419921875e+00 1.266440868377685547e+00 -1.718491792678833008e+00
4.219000000000000000e+03 5.516268157958984375e+01 8.008828163146972656e+00 6.549458950757980347e-02 3.400172948837280273e+00 1.039700269699096680e+00 -1.331703662872314453e+00
4.220000000000000000e+03 6.253099060058593750e+01 -1.897225570678710938e+01 -8.023991584777832031e-01 7.109086513519287109e+00 1.892006278038024902e+00 1.242046236991882324e+00
4.221000000000000000e+03 5.927480316162109375e+01 -2.057819938659667969e+01 -2.917827665805816650e-01 5.259979248046875000e+00 1.490458965301513672e+00 1.446448206901550293e+00
4.222000000000000000e+03 5.173941802978515625e+01 1.033287620544433594e+01 2.341457158327102661e-01 2.474049091339111328e+00 8.124584555625915527e-01 -8.340045213699340820e-01
4.223000000000000000e+03 6.025817871093750000e+01 -1.985374259948730469e+01 -4.496271312236785889e-01 5.815643310546875000e+00 1.609804868698120117e+00 1.481060624122619629e+00
4.224000000000000000e+03 4.952251434326171875e+01 1.189411354064941406e+01 2.921251058578491211e-01 2.074444055557250977e+00 7.099707722663879395e-01 -5.721401572227478027e-01
4.225000000000000000e+03 4.642229080200195312e+01 1.162056827545166016e+01 2.810733616352081299e-01 1.459547877311706543e+00 5.221863985061645508e-01 -2.654824852943420410e-01
4.226000000000000000e+03 6.003885650634765625e+01 8.411317825317382812e+00 -4.651865065097808838e-01 5.606752395629882812e+00 1.542469739913940430e+00 -1.390887618064880371e+00
4.227000000000000000e+03 6.067869567871093750e+01 9.282654762268066406e+00 -5.054585337638854980e-01 5.827671051025390625e+00 1.596663713455200195e+00 -1.234924554824829102e+00
4.228000000000000000e+03 5.862363433837890625e+01 1.279958534240722656e+01 -1.841784417629241943e-01 4.860766410827636719e+00 1.402976393699645996e+00 -1.023715734481811523e+00
4.229000000000000000e+03 5.642372131347656250e+01 1.106013679504394531e+01 -3.236433491110801697e-02 4.063995361328125000e+00 1.209489226341247559e+00 -1.157157897949218750e+00
4.230000000000000000e+03 5.069980621337890625e+01 1.115449523925781250e+01 2.689263522624969482e-01 2.282037019729614258e+00 7.652890086174011230e-01 -7.083550691604614258e-01
4.231000000000000000e+03 5.810251998901367188e+01 -2.124347877502441406e+01 -1.141078323125839233e-01 4.647140979766845703e+00 1.359910011291503906e+00 1.392014265060424805e+00
4.232000000000000000e+03 5.766537475585937500e+01 -2.768432807922363281e+01 7.449837028980255127e-02 4.453343868255615234e+00 1.358352661132812500e+00 7.609929442405700684e-01
4.233000000000000000e+03 5.352856826782226562e+01 1.032677459716796875e+01 1.633509248495101929e-01 3.010153770446777344e+00 9.520514011383056641e-01 -1.016019463539123535e+00
4.234000000000000000e+03 5.255067825317382812e+01 1.135476589202880859e+01 2.115976363420486450e-01 2.806515455245971680e+00 9.054339528083801270e-01 -8.789953589439392090e-01
4.235000000000000000e+03 4.207672119140625000e+01 -2.238514328002929688e+01 3.343348801136016846e-01 5.728716254234313965e-01 2.721619606018066406e-01 -7.432159036397933960e-02
4.236000000000000000e+03 4.504609298706054688e+01 -2.571208190917968750e+01 5.467428565025329590e-01 1.164629340171813965e+00 5.134117007255554199e-01 1.990386992692947388e-01
4.237000000000000000e+03 5.445367050170898438e+01 1.357063674926757812e+01 1.239194646477699280e-01 3.522325754165649414e+00 1.093873620033264160e+00 -8.964766860008239746e-01
4.238000000000000000e+03 3.211988830566406250e+01 1.669335174560546875e+01 4.140060395002365112e-03 2.296360433101654053e-01 7.013282924890518188e-02 3.593620359897613525e-01
4.239000000000000000e+03 3.000451660156250000e+01 1.648244667053222656e+01 -9.384582936763763428e-02 6.068409234285354614e-02 -9.948520921170711517e-03 4.032217860221862793e-01
4.240000000000000000e+03 3.752014160156250000e+01 1.319551753997802734e+01 7.714132964611053467e-02 5.659596920013427734e-01 1.929302960634231567e-01 3.258064091205596924e-01
4.241000000000000000e+03 4.330300521850585938e+01 1.095497226715087891e+01 1.880535483360290527e-01 9.618886113166809082e-01 3.449826538562774658e-01 3.512270003557205200e-02
4.242000000000000000e+03 3.765480422973632812e+01 1.000454807281494141e+01 -5.300229787826538086e-02 4.218955338001251221e-01 1.106679737567901611e-01 4.379363656044006348e-01
4.243000000000000000e+03 4.189749526977539062e+01 1.127444076538085938e+01 1.579109579324722290e-01 8.393473625183105469e-01 2.991774976253509521e-01 1.325024366378784180e-01
4.244000000000000000e+03 4.435460662841796875e+01 9.102284431457519531e+00 1.386302113533020020e-01 9.136005640029907227e-01 3.156692385673522949e-01 1.997413113713264465e-03
4.245000000000000000e+03 5.971048355102539062e+01 -2.368194580078125000e+01 -2.450028508901596069e-01 5.274181365966796875e+00 1.508753538131713867e+00 1.059013843536376953e+00
4.246000000000000000e+03 7.293558502197265625e+01 2.458411979675292969e+01 -2.737296745181083679e-02 7.496661186218261719e+00 2.240786314010620117e+00 -1.213231459259986877e-01
4.247000000000000000e+03 5.915815734863281250e+01 1.504694652557373047e+01 -1.506736725568771362e-01 4.967981338500976562e+00 1.445192337036132812e+00 -8.542111515998840332e-01
4.248000000000000000e+03 5.558472442626953125e+01 1.472171020507812500e+01 7.235961407423019409e-02 3.888105392456054688e+00 1.188139438629150391e+00 -8.741763830184936523e-01
4.249000000000000000e+03 7.048170471191406250e+01 3.254604339599609375e+01 4.104723408818244934e-02 6.890902519226074219e+00 2.079584836959838867e+00 -1.277132630348205566e-01
4.250000000000000000e+03 6.004360961914062500e+01 9.952791929244995117e-01 -3.430427014827728271e-01 6.228835582733154297e+00 1.765737891197204590e+00 -2.872229337692260742e+00
4.251000000000000000e+03 6.231959915161132812e+01 -6.926702260971069336e-01 -9.193983674049377441e-01 9.972475051879882812e+00 2.715923070907592773e+00 -2.623421669006347656e+00
4.252000000000000000e+03 6.530724334716796875e+01 -1.459415435791015625e+00 -3.229058384895324707e-01 1.186048603057861328e+01 3.461274147033691406e+00 3.838390111923217773e-01
4.253000000000000000e+03 6.383007812500000000e+01 2.141918897628784180e+00 -1.166503906250000000e+00 9.228599548339843750e+00 2.418628692626953125e+00 -1.174564599990844727e+00
4.254000000000000000e+03 6.015219497680664062e+01 2.840042114257812500e-01 -2.642576992511749268e-01 6.310184478759765625e+00 1.813778042793273926e+00 -3.080920219421386719e+00
4.255000000000000000e+03 6.533441925048828125e+01 -7.274524569511413574e-01 -6.512703895568847656e-01 1.128357982635498047e+01 3.189692974090576172e+00 1.226314678788185120e-01
4.256000000000000000e+03 6.447312164306640625e+01 -1.363117599487304688e+01 -1.084405541419982910e+00 1.021067714691162109e+01 2.737881422042846680e+00 7.570464015007019043e-01
4.257000000000000000e+03 6.196595001220703125e+01 -1.182248210906982422e+01 -7.370262145996093750e-01 9.623275756835937500e+00 2.665874719619750977e+00 2.902385473251342773e+00
4.258000000000000000e+03 6.557685852050781250e+01 -1.055565166473388672e+01 3.528451621532440186e-01 1.214791488647460938e+01 3.750227928161621094e+00 -9.392672777175903320e-01
4.259000000000000000e+03 6.657309722900390625e+01 -6.930476427078247070e-01 -2.739207744598388672e-01 1.085724925994873047e+01 3.174998521804809570e+00 7.770898342132568359e-01
4.260000000000000000e+03 6.494133758544921875e+01 -1.143954753875732422e+00 -6.290743350982666016e-01 1.174976539611816406e+01 3.336207389831542969e+00 -2.590155228972434998e-02
4.261000000000000000e+03 6.383916473388671875e+01 -1.146851539611816406e+01 -8.788785338401794434e-01 1.189719009399414062e+01 3.305493354797363281e+00 1.017958641052246094e+00
4.262000000000000000e+03 6.569091033935546875e+01 -1.257158470153808594e+01 -6.981539130210876465e-01 1.089373970031738281e+01 3.058675765991210938e+00 -2.056680172681808472e-01
4.263000000000000000e+03 6.499747467041015625e+01 -2.934241890907287598e-01 -8.650093674659729004e-01 1.108969593048095703e+01 3.067405939102172852e+00 -2.014023512601852417e-01
4.264000000000000000e+03 6.298869705200195312e+01 -1.169387245178222656e+01 -9.580128788948059082e-01 1.103018569946289062e+01 3.021651744842529297e+00 1.971337676048278809e+00
4.265000000000000000e+03 6.537732696533203125e+01 -1.397498035430908203e+01 -1.023331761360168457e+00 1.011747074127197266e+01 2.728241682052612305e+00 2.647410333156585693e-01
4.266000000000000000e+03 6.363100051879882812e+01 -1.284879970550537109e+01 -1.077421903610229492e+00 1.047702312469482422e+01 2.819880247116088867e+00 1.329967737197875977e+00
4.267000000000000000e+03 6.268006896972656250e+01 -1.156536197662353516e+01 -8.954461216926574707e-01 1.083569335937500000e+01 2.982074260711669922e+00 2.327864408493041992e+00
4.268000000000000000e+03 6.615160369873046875e+01 -1.176831245422363281e+01 -2.305961698293685913e-01 1.117125320434570312e+01 3.282196998596191406e+00 -7.104053497314453125e-01
4.269000000000000000e+03 6.520751190185546875e+01 -1.265515327453613281e+01 -8.281541466712951660e-01 1.092720985412597656e+01 3.029716730117797852e+00 9.414155036211013794e-02
4.270000000000000000e+03 6.529058074951171875e+01 -1.016639995574951172e+01 5.923736095428466797e-01 1.262099933624267578e+01 3.964011907577514648e+00 -9.801281094551086426e-01
4.271000000000000000e+03 5.976869964599609375e+01 5.374037027359008789e-01 -1.903169006109237671e-01 5.810894012451171875e+00 1.686173200607299805e+00 -2.984909772872924805e+00
4.272000000000000000e+03 6.164252853393554688e+01 -1.226687133312225342e-01 -7.742494344711303711e-01 8.606577873229980469e+00 2.349698543548583984e+00 -2.876029968261718750e+00
4.273000000000000000e+03 6.174226379394531250e+01 -1.248694801330566406e+01 -7.243384122848510742e-01 8.870697021484375000e+00 2.443907737731933594e+00 2.814213752746582031e+00
4.274000000000000000e+03 6.622351074218750000e+01 5.598135590553283691e-01 -7.764083147048950195e-01 1.040854930877685547e+01 2.889642238616943359e+00 2.959262132644653320e-01
4.275000000000000000e+03 6.339124298095703125e+01 -8.044948577880859375e-01 -1.057144880294799805e+00 1.108076572418212891e+01 3.007086277008056641e+00 -1.587940573692321777e+00
4.276000000000000000e+03 6.413468170166015625e+01 -9.712067246437072754e-01 -9.333204627037048340e-01 1.164717197418212891e+01 3.214155435562133789e+00 -8.030017018318176270e-01
4.277000000000000000e+03 6.680410766601562500e+01 -1.293088197708129883e+00 1.172883287072181702e-01 1.094240951538085938e+01 3.317909479141235352e+00 1.052172183990478516e+00
4.278000000000000000e+03 6.468175506591796875e+01 -1.070441913604736328e+01 -2.457001358270645142e-01 1.265533447265625000e+01 3.722890138626098633e+00 -1.821987777948379517e-01
4.279000000000000000e+03 6.649972534179687500e+01 -1.064778900146484375e+01 6.522566080093383789e-01 1.137617588043212891e+01 3.608529567718505859e+00 -1.249019026756286621e+00
4.280000000000000000e+03 6.216988754272460938e+01 -1.245056819915771484e+01 -8.461762070655822754e-01 9.420113563537597656e+00 2.572181224822998047e+00 2.569609642028808594e+00
4.281000000000000000e+03 6.578950500488281250e+01 -3.445180058479309082e-01 -6.388259530067443848e-01 1.091542720794677734e+01 3.082980394363403320e+00 2.993409335613250732e-01
4.282000000000000000e+03 6.018672943115234375e+01 -1.550153827667236328e+01 -4.558789730072021484e-01 6.151787281036376953e+00 1.708772420883178711e+00 2.308890104293823242e+00
4.283000000000000000e+03 5.988390731811523438e+01 -1.648707771301269531e+01 -4.105651080608367920e-01 5.885510444641113281e+00 1.642483592033386230e+00 2.127441167831420898e+00
4.284000000000000000e+03 6.149488067626953125e+01 3.895707428455352783e-01 -7.602080106735229492e-01 8.234254837036132812e+00 2.242214202880859375e+00 -2.756088495254516602e+00
4.285000000000000000e+03 6.183657455444335938e+01 -1.296741771697998047e+01 -7.894129753112792969e-01 8.707817077636718750e+00 2.375521183013916016e+00 2.602012634277343750e+00
4.286000000000000000e+03 6.680373382568359375e+01 -1.015022468566894531e+01 1.206046700477600098e+00 1.121012115478515625e+01 3.724850416183471680e+00 -1.446774363517761230e+00
4.287000000000000000e+03 6.510923767089843750e+01 -1.528661060333251953e+01 -1.112761735916137695e+00 9.415302276611328125e+00 2.490762233734130859e+00 5.353340506553649902e-01
4.288000000000000000e+03 6.496282958984375000e+01 -1.415399169921875000e+01 -1.084803223609924316e+00 9.987221717834472656e+00 2.670725584030151367e+00 4.957915842533111572e-01
4.289000000000000000e+03 6.340466308593750000e+01 5.608251094818115234e+00 -9.921030402183532715e-01 7.647404670715332031e+00 1.996590495109558105e+00 -1.134812474250793457e+00
4.290000000000000000e+03 6.552707672119140625e+01 1.817379593849182129e+00 -1.088254332542419434e+00 9.789622306823730469e+00 2.610410213470458984e+00 -2.996559441089630127e-01
4.291000000000000000e+03 6.300062942504882812e+01 4.302336692810058594e+00 -1.021596908569335938e+00 7.811365127563476562e+00 2.036930561065673828e+00 -1.402431607246398926e+00
4.292000000000000000e+03 6.228665924072265625e+01 -1.124120950698852539e-01 -9.600077867507934570e-01 9.430262565612792969e+00 2.541076183319091797e+00 -2.484615325927734375e+00
4.293000000000000000e+03 6.041352081298828125e+01 -1.838239288330078125e+01 -5.219777226448059082e-01 6.055449962615966797e+00 1.660041689872741699e+00 1.700360894203186035e+00
4.294000000000000000e+03 6.085434722900390625e+01 3.721338510513305664e+00 -6.923968791961669922e-01 6.614887714385986328e+00 1.776747226715087891e+00 -2.014784336090087891e+00
4.295000000000000000e+03 5.954650115966796875e+01 4.058519840240478516e+00 -4.262801408767700195e-01 5.624925613403320312e+00 1.559593677520751953e+00 -2.118191957473754883e+00
4.296000000000000000e+03 6.217619705200195312e+01 6.382172107696533203e+00 -8.203977942466735840e-01 6.886139869689941406e+00 1.819722652435302734e+00 -1.360180020332336426e+00
4.297000000000000000e+03 6.187488174438476562e+01 1.190763354301452637e+00 -9.131799340248107910e-01 8.289910316467285156e+00 2.213019132614135742e+00 -2.340846776962280273e+00
4.298000000000000000e+03 6.362201690673828125e+01 3.462957859039306641e+00 -1.133311510086059570e+00 8.496973991394042969e+00 2.209098577499389648e+00 -1.231106996536254883e+00
4.299000000000000000e+03 5.933519744873046875e+01 4.894283771514892578e+00 -4.141101539134979248e-01 5.409414768218994141e+00 1.498591423034667969e+00 -1.952681183815002441e+00
4.300000000000000000e+03 5.892303466796875000e+01 5.855959415435791016e+00 -3.370960950851440430e-01 5.141616344451904297e+00 1.441356062889099121e+00 -1.814132213592529297e+00
4.301000000000000000e+03 5.820879745483398438e+01 8.699074745178222656e+00 -2.362058162689208984e-01 4.743299961090087891e+00 1.352128267288208008e+00 -1.410400748252868652e+00
4.302000000000000000e+03 6.417116546630859375e+01 -1.590550041198730469e+01 -1.101188421249389648e+00 8.818830490112304688e+00 2.315292835235595703e+00 9.563229680061340332e-01
4.303000000000000000e+03 6.387985229492187500e+01 -1.657896423339843750e+01 -1.071569681167602539e+00 8.432888984680175781e+00 2.208395957946777344e+00 1.060588121414184570e+00
4.304000000000000000e+03 6.473767089843750000e+01 -1.507723045349121094e+01 -1.107112765312194824e+00 9.443025588989257812e+00 2.500773668289184570e+00 6.488162875175476074e-01
4.305000000000000000e+03 5.965138626098632812e+01 -1.900347709655761719e+01 -3.740510642528533936e-01 5.557076454162597656e+00 1.554907560348510742e+00 1.662658095359802246e+00
4.306000000000000000e+03 6.175164031982421875e+01 -1.834399032592773438e+01 -7.364084124565124512e-01 6.842556953430175781e+00 1.831844568252563477e+00 1.490825176239013672e+00
4.307000000000000000e+03 6.026930618286132812e+01 5.061757087707519531e+00 -5.915364027023315430e-01 6.077908515930175781e+00 1.645911574363708496e+00 -1.889988899230957031e+00
4.308000000000000000e+03 5.991601943969726562e+01 6.304864883422851562e+00 -5.017295479774475098e-01 5.739495277404785156e+00 1.571329712867736816e+00 -1.686829686164855957e+00
4.309000000000000000e+03 5.439632415771484375e+01 9.219962120056152344e+00 1.175731122493743896e-01 3.216969490051269531e+00 1.000362753868103027e+00 -1.162726879119873047e+00
4.310000000000000000e+03 5.730202102661132812e+01 9.837381362915039062e+00 -1.318144649267196655e-01 4.390161037445068359e+00 1.277503967285156250e+00 -1.294569730758666992e+00
4.311000000000000000e+03 5.748899459838867188e+01 1.197778606414794922e+01 -1.166094467043876648e-01 4.480221748352050781e+00 1.309083580970764160e+00 -1.102406501770019531e+00
4.312000000000000000e+03 5.918639373779296875e+01 7.562399387359619141e+00 -3.848701417446136475e-01 5.267333984375000000e+00 1.464739084243774414e+00 -1.550286412239074707e+00
4.313000000000000000e+03 5.911390686035156250e+01 9.517831802368164062e+00 -3.225365877151489258e-01 5.114898204803466797e+00 1.437708497047424316e+00 -1.325825333595275879e+00
4.314000000000000000e+03 3.906272125244140625e+01 1.010703563690185547e+01 7.242238614708185196e-03 5.245308876037597656e-01 1.595319360494613647e-01 3.576897084712982178e-01
4.315000000000000000e+03 3.615024948120117188e+01 1.148494720458984375e+01 -3.824416175484657288e-02 3.952842652797698975e-01 1.071120351552963257e-01 4.459609985351562500e-01
4.316000000000000000e+03 5.144496536254882812e+01 1.230378150939941406e+01 2.512376010417938232e-01 2.581954240798950195e+00 8.499575853347778320e-01 -7.437362670898437500e-01
4.317000000000000000e+03 4.773107910156250000e+01 1.115551757812500000e+01 2.872736454010009766e-01 1.635708093643188477e+00 5.768945217132568359e-01 -3.934240043163299561e-01
4.318000000000000000e+03 5.824967193603515625e+01 6.863221645355224609e+00 -2.502873539924621582e-01 4.793131351470947266e+00 1.362853169441223145e+00 -1.684810519218444824e+00
4.319000000000000000e+03 5.628098678588867188e+01 8.858930587768554688e+00 -2.882963046431541443e-02 3.906170129776000977e+00 1.163202166557312012e+00 -1.343308806419372559e+00
4.320000000000000000e+03 5.345048522949218750e+01 1.243971920013427734e+01 1.706775724887847900e-01 3.149669170379638672e+00 9.961040616035461426e-01 -8.972246646881103516e-01
4.321000000000000000e+03 4.730243301391601562e+01 -2.604899597167968750e+01 5.526020526885986328e-01 1.552361965179443359e+00 6.314892172813415527e-01 3.567776083946228027e-01
4.322000000000000000e+03 3.742536163330078125e+01 1.497340679168701172e+01 1.464096009731292725e-01 6.414169669151306152e-01 2.363479584455490112e-01 2.643204033374786377e-01
4.323000000000000000e+03 5.751732635498046875e+01 -2.337275314331054688e+01 -1.055996026843786240e-02 4.350422382354736328e+00 1.301958680152893066e+00 1.129313230514526367e+00
4.324000000000000000e+03 5.675978469848632812e+01 -2.585247802734375000e+01 9.560982137918472290e-02 4.123180389404296875e+00 1.265637040138244629e+00 8.837652802467346191e-01
4.325000000000000000e+03 6.796540832519531250e+01 3.191843414306640625e+01 7.315658777952194214e-02 6.427711486816406250e+00 1.950260519981384277e+00 -1.877797693014144897e-01
4.326000000000000000e+03 3.899873733520507812e+01 1.685486221313476562e+01 2.425329834222793579e-01 8.682444691658020020e-01 3.332332372665405273e-01 1.407502293586730957e-01
4.327000000000000000e+03 3.531200790405273438e+01 1.869521713256835938e+01 2.053649723529815674e-01 5.849508047103881836e-01 2.370947301387786865e-01 2.096131592988967896e-01
4.328000000000000000e+03 4.171057128906250000e+01 9.833330154418945312e+00 8.588019758462905884e-02 7.156231403350830078e-01 2.404510080814361572e-01 1.947996467351913452e-01
4.329000000000000000e+03 3.702619552612304688e+01 1.912025070190429688e+01 2.594061493873596191e-01 7.510673999786376953e-01 3.031420707702636719e-01 1.510432809591293335e-01
4.330000000000000000e+03 4.097007369995117188e+01 -2.413488769531250000e+01 4.145204722881317139e-01 5.778929591178894043e-01 2.977240383625030518e-01 -1.000765264034271240e-01
4.331000000000000000e+03 5.229988479614257812e+01 1.351385593414306641e+01 2.277820110321044922e-01 2.907274723052978516e+00 9.405170083045959473e-01 -7.708266377449035645e-01
4.332000000000000000e+03 5.355283737182617188e+01 -2.745336151123046875e+01 3.657843470573425293e-01 3.144230604171752930e+00 1.053004503250122070e+00 7.032292485237121582e-01
4.333000000000000000e+03 4.198691177368164062e+01 -2.728021240234375000e+01 5.812512636184692383e-01 8.701786994934082031e-01 4.354290068149566650e-01 8.576658554375171661e-03
4.334000000000000000e+03 6.138345336914062500e+01 -1.305738162994384766e+01 -6.497806310653686523e-01 8.096570968627929688e+00 2.234036922454833984e+00 2.798096418380737305e+00
4.335000000000000000e+03 6.107817840576171875e+01 -1.368689727783203125e+01 -5.976369976997375488e-01 7.448603630065917969e+00 2.055289983749389648e+00 2.669706344604492188e+00
4.336000000000000000e+03 6.426833343505859375e+01 -1.153433227539062500e+01 -7.802463769912719727e-01 1.190235710144042969e+01 3.336633205413818359e+00 5.636187195777893066e-01
4.337000000000000000e+03 6.560843658447265625e+01 -1.150585651397705078e+00 -3.811255097389221191e-01 1.148349666595458984e+01 3.330711364746093750e+00 4.547590911388397217e-01
4.338000000000000000e+03 6.012515258789062500e+01 -1.409277915954589844e+01 -3.221724331378936768e-01 6.217632293701171875e+00 1.768638014793395996e+00 2.728379726409912109e+00
4.339000000000000000e+03 6.423887634277343750e+01 -1.200084686279296875e+01 -9.136859774589538574e-01 1.144521808624267578e+01 3.159459590911865234e+00 7.225964665412902832e-01
4.340000000000000000e+03 6.560717773437500000e+01 -1.211145877838134766e+01 -5.569294095039367676e-01 1.122452259063720703e+01 3.200278043746948242e+00 -2.891539335250854492e-01
4.341000000000000000e+03 6.518521118164062500e+01 -1.112219619750976562e+01 -2.431493699550628662e-01 1.208985900878906250e+01 3.554013013839721680e+00 -4.008568227291107178e-01
4.342000000000000000e+03 6.336532211303710938e+01 -1.181694221496582031e+01 -1.001857399940490723e+00 1.125796318054199219e+01 3.076831817626953125e+00 1.594749093055725098e+00
4.343000000000000000e+03 6.459617614746093750e+01 -7.204530239105224609e-01 -8.602614402770996094e-01 1.143903636932373047e+01 3.173632383346557617e+00 -4.198945760726928711e-01
4.344000000000000000e+03 6.498094177246093750e+01 -1.370490646362304688e+01 -1.043224573135375977e+00 1.026902580261230469e+01 2.767740488052368164e+00 4.317238032817840576e-01
4.345000000000000000e+03 6.514939117431640625e+01 -1.321723556518554688e+01 -9.557947516441345215e-01 1.056895923614501953e+01 2.883949518203735352e+00 2.644660174846649170e-01
4.346000000000000000e+03 6.448199462890625000e+01 -1.543284034729003906e+01 -1.134915709495544434e+00 9.175108909606933594e+00 2.412057876586914062e+00 8.184373378753662109e-01
4.347000000000000000e+03 6.225983047485351562e+01 5.375916957855224609e-01 -9.747026562690734863e-01 8.989911079406738281e+00 2.404562473297119141e+00 -2.334038019180297852e+00
4.348000000000000000e+03 6.184667205810546875e+01 1.705102086067199707e+00 -9.104630947113037109e-01 7.989684581756591797e+00 2.123766422271728516e+00 -2.247104644775390625e+00
4.349000000000000000e+03 6.540377807617187500e+01 1.850208938121795654e-01 -8.775563836097717285e-01 1.068605232238769531e+01 2.942548751831054688e+00 -6.796712428331375122e-02
4.350000000000000000e+03 6.628536987304687500e+01 -1.120519828796386719e+01 1.838804930448532104e-01 1.135497283935546875e+01 3.461656093597412109e+00 -9.880340695381164551e-01
4.351000000000000000e+03 6.396501922607421875e+01 -4.782241880893707275e-01 -1.056817412376403809e+00 1.110777187347412109e+01 3.015286207199096680e+00 -1.071985721588134766e+00
4.352000000000000000e+03 6.492301177978515625e+01 -1.463135719299316406e+01 -1.119439125061035156e+00 9.699718475341796875e+00 2.574083805084228516e+00 5.689736008644104004e-01
4.353000000000000000e+03 6.057608413696289062e+01 2.205286733806133270e-02 -3.776844441890716553e-01 7.034980297088623047e+00 1.997188806533813477e+00 -3.154493093490600586e+00
4.354000000000000000e+03 6.324149703979492188e+01 1.762909650802612305e+00 -1.131961226463317871e+00 9.071394920349121094e+00 2.381829977035522461e+00 -1.502478599548339844e+00
4.355000000000000000e+03 6.494433593750000000e+01 6.001245379447937012e-01 -1.061465740203857422e+00 1.046643924713134766e+01 2.821492195129394531e+00 -4.505454301834106445e-01
4.356000000000000000e+03 6.503186035156250000e+01 2.182500839233398438e+00 -1.160144090652465820e+00 9.584790229797363281e+00 2.527393817901611328e+00 -5.824454426765441895e-01
4.357000000000000000e+03 5.996541213989257812e+01 -1.450965404510498047e+01 -3.316276073455810547e-01 6.069080352783203125e+00 1.721235871315002441e+00 2.612052202224731445e+00
4.358000000000000000e+03 6.229029846191406250e+01 2.926324367523193359e+00 -9.757589101791381836e-01 7.852900505065917969e+00 2.063142538070678711e+00 -1.854458093643188477e+00
4.359000000000000000e+03 6.032386016845703125e+01 2.304502010345458984e+00 -5.307204127311706543e-01 6.413121223449707031e+00 1.764720320701599121e+00 -2.439625024795532227e+00
4.360000000000000000e+03 6.470793914794921875e+01 -1.206599521636962891e+01 -8.034293055534362793e-01 1.142335319519042969e+01 3.185976982116699219e+00 3.121783137321472168e-01
4.361000000000000000e+03 6.044295883178710938e+01 -1.712079620361328125e+01 -5.407544970512390137e-01 6.233089447021484375e+00 1.707700490951538086e+00 1.927762150764465332e+00
4.362000000000000000e+03 6.492244720458984375e+01 -1.566376495361328125e+01 -1.115602016448974609e+00 9.160706520080566406e+00 2.413531303405761719e+00 6.239539980888366699e-01
4.363000000000000000e+03 6.536331939697265625e+01 -1.564186668395996094e+01 -1.112357258796691895e+00 9.307229995727539062e+00 2.458461999893188477e+00 4.302693307399749756e-01
4.364000000000000000e+03 6.401583099365234375e+01 -5.167109146714210510e-02 -1.091655254364013672e+00 1.072075271606445312e+01 2.888729095458984375e+00 -1.081369638442993164e+00
4.365000000000000000e+03 6.349002838134765625e+01 2.524411439895629883e+00 -1.146935939788818359e+00 8.816428184509277344e+00 2.300847530364990234e+00 -1.363532662391662598e+00
4.366000000000000000e+03 6.476876831054687500e+01 1.550867676734924316e+00 -1.160994648933410645e+00 9.812249183654785156e+00 2.595376253128051758e+00 -6.840914487838745117e-01
4.367000000000000000e+03 6.428689575195312500e+01 1.886610746383666992e+00 -1.196044683456420898e+00 9.550267219543457031e+00 2.506266593933105469e+00 -9.712063074111938477e-01
4.368000000000000000e+03 6.312270355224609375e+01 3.101222038269042969e+00 -1.100878000259399414e+00 8.365314483642578125e+00 2.179331064224243164e+00 -1.470398068428039551e+00
4.369000000000000000e+03 6.060842514038085938e+01 -1.524641227722167969e+01 -5.606428384780883789e-01 6.639914035797119141e+00 1.823781371116638184e+00 2.305726766586303711e+00
4.370000000000000000e+03 6.353946304321289062e+01 -1.732339477539062500e+01 -1.000742912292480469e+00 8.016689300537109375e+00 2.104784011840820312e+00 1.120555758476257324e+00
4.371000000000000000e+03 6.031526184082031250e+01 3.483054876327514648e+00 -5.780944228172302246e-01 6.262095928192138672e+00 1.705200433731079102e+00 -2.217087507247924805e+00
4.372000000000000000e+03 6.107043838500976562e+01 6.441993236541748047e+00 -6.633343100547790527e-01 6.303571701049804688e+00 1.692071318626403809e+00 -1.538269519805908203e+00
4.373000000000000000e+03 6.317204284667968750e+01 -1.616018104553222656e+01 -1.023799180984497070e+00 8.249584197998046875e+00 2.167735338211059570e+00 1.358599305152893066e+00
4.374000000000000000e+03 6.309630584716796875e+01 -1.813180923461914062e+01 -9.195450544357299805e-01 7.582612037658691406e+00 1.998920083045959473e+00 1.188302516937255859e+00
4.375000000000000000e+03 6.230723953247070312e+01 -1.759184265136718750e+01 -8.530371189117431641e-01 7.330426692962646484e+00 1.943216800689697266e+00 1.475767612457275391e+00
4.376000000000000000e+03 6.160296630859375000e+01 -1.706643867492675781e+01 -7.613043785095214844e-01 7.019412517547607422e+00 1.877432465553283691e+00 1.726529002189636230e+00
4.377000000000000000e+03 5.540136718750000000e+01 1.010847282409667969e+01 4.247929528355598450e-02 3.632652282714843750e+00 1.102539539337158203e+00 -1.175886988639831543e+00
4.378000000000000000e+03 5.549197769165039062e+01 1.232047462463378906e+01 4.908363521099090576e-02 3.782382965087890625e+00 1.149439930915832520e+00 -1.022837400436401367e+00
4.379000000000000000e+03 4.503248977661132812e+01 1.207930088043212891e+01 2.696640789508819580e-01 1.288192152976989746e+00 4.673568606376647949e-01 -1.475712060928344727e-01
4.380000000000000000e+03 4.387423324584960938e+01 1.414741516113281250e+01 2.958409786224365234e-01 1.293347954750061035e+00 4.767566919326782227e-01 -9.110244363546371460e-02
4.381000000000000000e+03 3.901879119873046875e+01 1.493794441223144531e+01 1.950779855251312256e-01 7.767364382743835449e-01 2.915443181991577148e-01 1.939458250999450684e-01
4.382000000000000000e+03 5.102167892456054688e+01 1.452504920959472656e+01 2.756392955780029297e-01 2.652867078781127930e+00 8.785519003868103027e-01 -6.422927975654602051e-01
4.383000000000000000e+03 5.557073974609375000e+01 -2.957229804992675781e+01 2.694349884986877441e-01 3.831435918807983398e+00 1.230261325836181641e+00 6.026791930198669434e-01
4.384000000000000000e+03 4.449244689941406250e+01 -2.798236274719238281e+01 6.129155158996582031e-01 1.239427924156188965e+00 5.557029843330383301e-01 1.614210754632949829e-01
4.385000000000000000e+03 3.281844711303710938e+01 1.849255371093750000e+01 9.305718541145324707e-02 3.234142065048217773e-01 1.249414160847663879e-01 2.840521037578582764e-01
4.386000000000000000e+03 3.431881332397460938e+01 1.734763908386230469e+01 1.071276962757110596e-01 4.404297173023223877e-01 1.642672270536422729e-01 2.947232127189636230e-01
4.387000000000000000e+03 5.447610092163085938e+01 1.130236530303955078e+01 1.094420179724693298e-01 3.399930953979492188e+00 1.052811861038208008e+00 -1.031595349311828613e+00
4.388000000000000000e+03 6.038495635986328125e+01 -1.465214633941650391e+01 -4.315842986106872559e-01 6.468545436859130859e+00 1.811088323593139648e+00 2.527689695358276367e+00
4.389000000000000000e+03 6.409751892089843750e+01 -1.297790908813476562e+01 -1.066262722015380859e+00 1.058697032928466797e+01 2.856212139129638672e+00 9.603934884071350098e-01
4.390000000000000000e+03 6.153860473632812500e+01 -1.356693935394287109e+01 -7.343354225158691406e-01 8.073638916015625000e+00 2.201791048049926758e+00 2.551892280578613281e+00
4.391000000000000000e+03 6.127717208862304688e+01 7.389200329780578613e-01 -7.033532261848449707e-01 7.762130737304687500e+00 2.117633342742919922e+00 -2.687453746795654297e+00
4.392000000000000000e+03 6.462698364257812500e+01 1.001771837472915649e-01 -1.037024974822998047e+00 1.078970909118652344e+01 2.925805330276489258e+00 -5.806902647018432617e-01
4.393000000000000000e+03 6.230340576171875000e+01 1.078225731849670410e+00 -9.676853418350219727e-01 8.629040718078613281e+00 2.298406600952148438e+00 -2.154632568359375000e+00
4.394000000000000000e+03 6.378823471069335938e+01 -1.191831493377685547e+01 -9.803926348686218262e-01 1.138615894317626953e+01 3.121729850769042969e+00 1.142239212989807129e+00
4.395000000000000000e+03 6.324614715576171875e+01 -1.226718521118164062e+01 -1.026952862739562988e+00 1.068013381958007812e+01 2.895954132080078125e+00 1.691513538360595703e+00
4.396000000000000000e+03 6.283043289184570312e+01 -1.207739734649658203e+01 -9.751654267311096191e-01 1.046808242797851562e+01 2.847875356674194336e+00 2.083924531936645508e+00
4.397000000000000000e+03 6.270071792602539062e+01 -1.275688934326171875e+01 -9.911463856697082520e-01 9.826920509338378906e+00 2.650732278823852539e+00 2.086637020111083984e+00
4.398000000000000000e+03 6.350011062622070312e+01 -3.839512765407562256e-01 -1.084834814071655273e+00 1.084690189361572266e+01 2.928620100021362305e+00 -1.443945288658142090e+00
4.399000000000000000e+03 6.432501983642578125e+01 -2.973083853721618652e-01 -1.039901614189147949e+00 1.108117008209228516e+01 3.012380599975585938e+00 -7.714150547981262207e-01
4.400000000000000000e+03 6.571151733398437500e+01 -1.109011650085449219e+01 3.461455181241035461e-02 1.178566741943359375e+01 3.546084403991699219e+00 -7.774613499641418457e-01
4.401000000000000000e+03 6.206275939941406250e+01 -1.634938621520996094e+01 -8.615646362304687500e-01 7.529481410980224609e+00 2.000375032424926758e+00 1.736061453819274902e+00
4.402000000000000000e+03 6.517724609375000000e+01 -1.210413074493408203e+01 -6.857953667640686035e-01 1.136252784729003906e+01 3.203019618988037109e+00 -4.600461199879646301e-02
4.403000000000000000e+03 6.097978210449218750e+01 -1.656434822082519531e+01 -6.509302854537963867e-01 6.721159458160400391e+00 1.821068763732910156e+00 1.956550717353820801e+00
4.404000000000000000e+03 6.170019531250000000e+01 -1.410454559326171875e+01 -8.007126450538635254e-01 8.010236740112304688e+00 2.162857294082641602e+00 2.329180955886840820e+00
4.405000000000000000e+03 6.472129058837890625e+01 -1.157786464691162109e+01 -6.438642144203186035e-01 1.185934925079345703e+01 3.364645481109619141e+00 1.487915068864822388e-01
4.406000000000000000e+03 6.518972778320312500e+01 -1.159959983825683594e+01 -4.816316068172454834e-01 1.173412609100341797e+01 3.375748395919799805e+00 -2.167355716228485107e-01
4.407000000000000000e+03 6.067596435546875000e+01 7.668035030364990234e-01 -5.101613998413085938e-01 7.002174854278564453e+00 1.947604060173034668e+00 -2.853258371353149414e+00
4.408000000000000000e+03 6.293978118896484375e+01 -1.968404948711395264e-01 -1.063482999801635742e+00 1.017441368103027344e+01 2.733279228210449219e+00 -1.979996562004089355e+00
4.409000000000000000e+03 6.376314544677734375e+01 5.627778172492980957e-01 -1.154112219810485840e+00 1.009595489501953125e+01 2.682552814483642578e+00 -1.280235409736633301e+00
4.410000000000000000e+03 6.036858749389648438e+01 6.475875973701477051e-01 -3.962533473968505859e-01 6.653864860534667969e+00 1.877283573150634766e+00 -2.970237731933593750e+00
4.411000000000000000e+03 6.447097778320312500e+01 9.581514596939086914e-01 -1.161295056343078613e+00 1.013112926483154297e+01 2.690950155258178711e+00 -8.351112604141235352e-01
4.412000000000000000e+03 6.355041885375976562e+01 -1.551999378204345703e+01 -1.089957833290100098e+00 8.742949485778808594e+00 2.295897483825683594e+00 1.261323571205139160e+00
4.413000000000000000e+03 6.281447219848632812e+01 1.639686226844787598e+00 -1.084450006484985352e+00 8.814244270324707031e+00 2.318938255310058594e+00 -1.826780080795288086e+00
4.414000000000000000e+03 6.233201980590820312e+01 1.635718822479248047e+00 -1.003673553466796875e+00 8.438789367675781250e+00 2.230534791946411133e+00 -2.063252925872802734e+00
4.415000000000000000e+03 6.046930694580078125e+01 2.846887588500976562e+00 -5.881809592247009277e-01 6.452989578247070312e+00 1.759442567825317383e+00 -2.313338756561279297e+00
4.416000000000000000e+03 6.273026275634765625e+01 2.193952798843383789e+00 -1.055530786514282227e+00 8.425196647644042969e+00 2.210899591445922852e+00 -1.786708235740661621e+00
4.417000000000000000e+03 6.247121810913085938e+01 3.681986808776855469e+00 -9.825062751770019531e-01 7.723095893859863281e+00 2.022176980972290039e+00 -1.631238102912902832e+00
4.418000000000000000e+03 6.368859481811523438e+01 9.897425174713134766e-01 -1.171786665916442871e+00 9.789452552795410156e+00 2.585299730300903320e+00 -1.328276753425598145e+00
4.419000000000000000e+03 6.158506774902343750e+01 3.944689989089965820e+00 -8.297870159149169922e-01 7.112425804138183594e+00 1.884791612625122070e+00 -1.856236457824707031e+00
4.420000000000000000e+03 6.166817474365234375e+01 3.025103330612182617e+00 -8.847874999046325684e-01 7.481843471527099609e+00 1.979116797447204590e+00 -2.028863191604614258e+00
4.421000000000000000e+03 6.136367797851562500e+01 5.110295772552490234e+00 -7.664974927902221680e-01 6.719433307647705078e+00 1.785880804061889648e+00 -1.711039066314697266e+00
4.422000000000000000e+03 4.687766265869140625e+01 1.313043689727783203e+01 3.140691816806793213e-01 1.675661206245422363e+00 5.969191193580627441e-01 -3.235339522361755371e-01
4.423000000000000000e+03 5.021417999267578125e+01 1.317735004425048828e+01 2.903862893581390381e-01 2.354855298995971680e+00 7.935724258422851562e-01 -6.163297295570373535e-01
4.424000000000000000e+03 5.442434692382812500e+01 1.610250282287597656e+01 1.495679616928100586e-01 3.619274854660034180e+00 1.130652904510498047e+00 -7.613090872764587402e-01
4.425000000000000000e+03 4.055462265014648438e+01 1.307308006286621094e+01 1.805438995361328125e-01 8.251744508743286133e-01 3.017154932022094727e-01 1.654012054204940796e-01
4.426000000000000000e+03 4.075394821166992188e+01 1.664648056030273438e+01 2.892175614833831787e-01 1.058640480041503906e+00 4.043574035167694092e-01 5.350415781140327454e-02
4.427000000000000000e+03 3.902965164184570312e+01 1.318571186065673828e+01 1.338580399751663208e-01 6.923305988311767578e-01 2.478565871715545654e-01 2.489296197891235352e-01
4.428000000000000000e+03 4.039797210693359375e+01 1.003780746459960938e+01 5.004137754440307617e-02 6.199914216995239258e-01 2.010098397731781006e-01 2.798346281051635742e-01
4.429000000000000000e+03 4.207400512695312500e+01 1.284762382507324219e+01 2.174989283084869385e-01 9.717072248458862305e-01 3.567618429660797119e-01 7.406794279813766479e-02
4.430000000000000000e+03 4.541865539550781250e+01 1.366798973083496094e+01 3.089395165443420410e-01 1.483198285102844238e+00 5.376413464546203613e-01 -2.044308930635452271e-01
4.431000000000000000e+03 3.706823730468750000e+01 2.142673683166503906e+01 3.321225643157958984e-01 8.328558206558227539e-01 3.494935035705566406e-01 8.871728926897048950e-02
4.432000000000000000e+03 3.379159164428710938e+01 2.040170288085937500e+01 2.273457348346710205e-01 4.791813492774963379e-01 2.119581252336502075e-01 1.979106217622756958e-01
4.433000000000000000e+03 6.095032501220703125e+01 -1.563067913055419922e+01 -6.439799666404724121e-01 6.860368251800537109e+00 1.864916563034057617e+00 2.198286533355712891e+00
4.434000000000000000e+03 6.179000854492187500e+01 7.067213654518127441e-01 -8.611178398132324219e-01 8.449496269226074219e+00 2.276513338088989258e+00 -2.553966999053955078e+00
4.435000000000000000e+03 6.396089553833007812e+01 -1.351518917083740234e+01 -1.113239645957946777e+00 1.012222290039062500e+01 2.702695131301879883e+00 1.097059011459350586e+00
4.436000000000000000e+03 6.418434143066406250e+01 -1.248386192321777344e+01 -1.015465617179870605e+00 1.101999282836914062e+01 3.001358270645141602e+00 8.501253724098205566e-01
4.437000000000000000e+03 6.360103607177734375e+01 9.777326136827468872e-02 -1.124721407890319824e+00 1.046026420593261719e+01 2.800662994384765625e+00 -1.383395314216613770e+00
4.438000000000000000e+03 6.467574310302734375e+01 -1.257748317718505859e+01 -9.451264739036560059e-01 1.099872398376464844e+01 3.016079425811767578e+00 4.841735959053039551e-01
4.439000000000000000e+03 6.447171020507812500e+01 -1.412538051605224609e+01 -1.128173589706420898e+00 9.869304656982421875e+00 2.622339248657226562e+00 8.183622360229492188e-01
4.440000000000000000e+03 6.276754379272460938e+01 -1.685122871398925781e+01 -9.538474678993225098e-01 7.812475681304931641e+00 2.057588577270507812e+00 1.430606007575988770e+00
4.441000000000000000e+03 6.383884811401367188e+01 -1.490394401550292969e+01 -1.126798510551452637e+00 9.203560829162597656e+00 2.423028707504272461e+00 1.165393710136413574e+00
4.442000000000000000e+03 6.074867630004882812e+01 1.160107970237731934e+00 -5.823645591735839844e-01 7.040767669677734375e+00 1.937520980834960938e+00 -2.709231615066528320e+00
4.443000000000000000e+03 6.067667770385742188e+01 4.040196239948272705e-01 -4.684027135372161865e-01 7.114784240722656250e+00 1.993914484977722168e+00 -3.008322238922119141e+00
4.444000000000000000e+03 6.303326797485351562e+01 1.112326025962829590e+00 -1.117409467697143555e+00 9.333936691284179688e+00 2.464958190917968750e+00 -1.726802229881286621e+00
4.445000000000000000e+03 6.310732650756835938e+01 3.275663852691650391e-01 -1.122305274009704590e+00 9.911830902099609375e+00 2.636857509613037109e+00 -1.792307853698730469e+00
4.446000000000000000e+03 6.121795272827148438e+01 2.221072196960449219e+00 -7.686610221862792969e-01 7.255320549011230469e+00 1.945997953414916992e+00 -2.319142103195190430e+00
4.447000000000000000e+03 6.095576477050781250e+01 -1.445168209075927734e+01 -6.113141775131225586e-01 7.191012859344482422e+00 1.973909497261047363e+00 2.502927541732788086e+00
4.448000000000000000e+03 6.226750183105468750e+01 2.259824275970458984e+00 -9.939318895339965820e-01 8.136124610900878906e+00 2.142657995223999023e+00 -1.972102642059326172e+00
4.449000000000000000e+03 4.824373245239257812e+01 1.255101585388183594e+01 3.063455224037170410e-01 1.875944137573242188e+00 6.546868681907653809e-01 -4.442271590232849121e-01
4.450000000000000000e+03 4.227087783813476562e+01 1.453199481964111328e+01 2.713578343391418457e-01 1.112945079803466797e+00 4.152908921241760254e-01 1.282818336039781570e-02
4.451000000000000000e+03 4.357577133178710938e+01 1.250256061553955078e+01 2.496680915355682373e-01 1.124231576919555664e+00 4.121699035167694092e-01 -3.393528610467910767e-02
4.452000000000000000e+03 4.886553192138671875e+01 1.807625007629394531e+01 3.450547754764556885e-01 2.405462265014648438e+00 8.251551389694213867e-01 -4.320229291915893555e-01
4.453000000000000000e+03 5.328385925292968750e+01 1.478654384613037109e+01 1.947398781776428223e-01 3.241936683654785156e+00 1.031002998352050781e+00 -7.741177082061767578e-01
4.454000000000000000e+03 5.688714599609375000e+01 1.583787441253662109e+01 1.905051060020923615e-02 4.291429996490478516e+00 1.293144106864929199e+00 -8.177106976509094238e-01
4.455000000000000000e+03 4.280119323730468750e+01 1.818191719055175781e+01 3.610668480396270752e-01 1.402751803398132324e+00 5.291455984115600586e-01 -7.964167743921279907e-02
4.456000000000000000e+03 4.092121124267578125e+01 1.859290122985839844e+01 3.426554501056671143e-01 1.169409990310668945e+00 4.536196589469909668e-01 4.960833583027124405e-03
4.457000000000000000e+03 5.837854766845703125e+01 1.680244636535644531e+01 -4.807591810822486877e-02 4.725347042083740234e+00 1.403181314468383789e+00 -7.607980370521545410e-01
4.458000000000000000e+03 5.578194427490234375e+01 1.743517494201660156e+01 1.033385843038558960e-01 3.990802288055419922e+00 1.228242278099060059e+00 -7.381514906883239746e-01
4.459000000000000000e+03 5.742683029174804688e+01 1.879543685913085938e+01 5.733562260866165161e-02 4.422966003417968750e+00 1.344090580940246582e+00 -6.711367368698120117e-01
4.460000000000000000e+03 3.916549682617187500e+01 2.098430633544921875e+01 3.654645681381225586e-01 1.050761103630065918e+00 4.248676896095275879e-01 3.497269004583358765e-02
4.461000000000000000e+03 6.731838226318359375e+01 3.472231292724609375e+01 1.066228747367858887e-01 6.286523342132568359e+00 1.917943954467773438e+00 -1.289313435554504395e-01
4.462000000000000000e+03 2.616884231567382812e+01 2.428473663330078125e+01 1.842006146907806396e-01 -2.275751084089279175e-01 -1.301234588027000427e-02 1.953767985105514526e-01
4.463000000000000000e+03 6.796732330322265625e+01 -3.312686920166015625e+01 -1.286990791559219360e-01 6.852312088012695312e+00 2.017083883285522461e+00 5.581013113260269165e-02
4.464000000000000000e+03 6.239201354980468750e+01 -1.332074356079101562e+01 -9.481325745582580566e-01 9.119236946105957031e+00 2.451331377029418945e+00 2.200517654418945312e+00
4.465000000000000000e+03 6.251848983764648438e+01 -1.567226886749267578e+01 -9.587054252624511719e-01 8.067808151245117188e+00 2.132730960845947266e+00 1.693724870681762695e+00
4.466000000000000000e+03 6.127767562866210938e+01 -1.418014717102050781e+01 -6.848147511482238770e-01 7.506537914276123047e+00 2.046516895294189453e+00 2.496248722076416016e+00
4.467000000000000000e+03 6.159926223754882812e+01 -1.455926609039306641e+01 -7.907887697219848633e-01 7.774228096008300781e+00 2.095031738281250000e+00 2.257875442504882812e+00
4.468000000000000000e+03 6.268759918212890625e+01 7.471498250961303711e-01 -1.078700780868530273e+00 9.271152496337890625e+00 2.457735538482666016e+00 -2.057871341705322266e+00
4.469000000000000000e+03 6.371498489379882812e+01 -1.238059425354003906e+01 -1.040865778923034668e+00 1.090427684783935547e+01 2.959023237228393555e+00 1.246354699134826660e+00
4.470000000000000000e+03 6.316392898559570312e+01 -1.273429012298583984e+01 -1.048702120780944824e+00 1.024099636077880859e+01 2.757688283920288086e+00 1.721101880073547363e+00
4.471000000000000000e+03 6.351038742065429688e+01 -1.332615947723388672e+01 -1.106333136558532715e+00 1.003166580200195312e+01 2.677599668502807617e+00 1.429907798767089844e+00
4.472000000000000000e+03 6.408700561523437500e+01 -1.436322689056396484e+01 -1.136190295219421387e+00 9.643130302429199219e+00 2.552081823348999023e+00 1.027127027511596680e+00
4.473000000000000000e+03 6.199898147583007812e+01 -1.506331539154052734e+01 -8.797624111175537109e-01 7.926228046417236328e+00 2.113939762115478516e+00 1.998414635658264160e+00
4.474000000000000000e+03 6.141378021240234375e+01 1.676452994346618652e+00 -8.039255738258361816e-01 7.628915309906005859e+00 2.047497034072875977e+00 -2.418447494506835938e+00
4.475000000000000000e+03 6.335159301757812500e+01 -1.458417892456054688e+01 -1.088329792022705078e+00 9.081827163696289062e+00 2.398049116134643555e+00 1.443920493125915527e+00
4.476000000000000000e+03 6.146924209594726562e+01 9.444203972816467285e-01 -7.616019248962402344e-01 7.883890628814697266e+00 2.136686563491821289e+00 -2.631896734237670898e+00
4.477000000000000000e+03 6.142097473144531250e+01 -1.598120784759521484e+01 -7.592650651931762695e-01 7.199835777282714844e+00 1.932171225547790527e+00 1.991542935371398926e+00
4.478000000000000000e+03 6.105027770996093750e+01 2.925809383392333984e+00 -7.316275238990783691e-01 6.982484817504882812e+00 1.875257253646850586e+00 -2.146769046783447266e+00
4.479000000000000000e+03 6.292881393432617188e+01 -1.420454692840576172e+01 -1.054428458213806152e+00 9.067668914794921875e+00 2.403972148895263672e+00 1.712824106216430664e+00
4.480000000000000000e+03 6.175045394897460938e+01 2.299161434173583984e+00 -8.965776562690734863e-01 7.727034091949462891e+00 2.049136877059936523e+00 -2.142418384552001953e+00
4.481000000000000000e+03 4.047721099853515625e+01 1.148301792144775391e+01 1.178664043545722961e-01 7.210747003555297852e-01 2.516823410987854004e-01 2.233680039644241333e-01
4.482000000000000000e+03 4.250905227661132812e+01 1.631665229797363281e+01 3.186433613300323486e-01 1.255920767784118652e+00 4.723692536354064941e-01 -3.688449785113334656e-02
4.483000000000000000e+03 8.696705818176269531e+00 3.825308609008789062e+01 1.892339289188385010e-01 -7.500392198562622070e-01 -1.682415902614593506e-01 1.412118226289749146e-01
4.484000000000000000e+03 6.121120452880859375e+01 -1.484280776977539062e+01 -7.085416316986083984e-01 7.373474121093750000e+00 1.999479770660400391e+00 2.285957574844360352e+00
4.485000000000000000e+03 6.197974014282226562e+01 -1.346089458465576172e+01 -8.518397212028503418e-01 8.612695693969726562e+00 2.328256845474243164e+00 2.408422231674194336e+00
4.486000000000000000e+03 6.312236404418945312e+01 -1.317105674743652344e+01 -1.067740559577941895e+00 9.862293243408203125e+00 2.638365745544433594e+00 1.709758520126342773e+00
4.487000000000000000e+03 6.294427490234375000e+01 -1.350698566436767578e+01 -1.056432604789733887e+00 9.495334625244140625e+00 2.531670570373535156e+00 1.793007016181945801e+00
4.488000000000000000e+03 6.216767883300781250e+01 -1.401870346069335938e+01 -9.156652688980102539e-01 8.501079559326171875e+00 2.275624513626098633e+00 2.158947706222534180e+00
4.489000000000000000e+03 6.145115280151367188e+01 -1.537191104888916016e+01 -7.539111971855163574e-01 7.374717235565185547e+00 1.986241817474365234e+00 2.088768720626831055e+00
4.490000000000000000e+03 6.152033615112304688e+01 1.256753087043762207e+00 -8.099288344383239746e-01 7.863999843597412109e+00 2.116221189498901367e+00 -2.531651973724365234e+00
4.491000000000000000e+03 6.297159194946289062e+01 -1.510787010192871094e+01 -1.043022155761718750e+00 8.610507011413574219e+00 2.270245313644409180e+00 1.581394910812377930e+00
4.492000000000000000e+03 6.370116806030273438e+01 -1.406365299224853516e+01 -1.126022815704345703e+00 9.638336181640625000e+00 2.553694009780883789e+00 1.260550975799560547e+00
4.493000000000000000e+03 4.422657394409179688e+01 1.587251281738281250e+01 3.338634371757507324e-01 1.469222426414489746e+00 5.409257411956787109e-01 -1.418456286191940308e-01
4.494000000000000000e+03 4.314197921752929688e+01 2.011427688598632812e+01 3.929880559444427490e-01 1.540408611297607422e+00 5.800189971923828125e-01 -1.139604598283767700e-01
4.495000000000000000e+03 5.050064086914062500e+01 1.707137107849121094e+01 3.065277934074401855e-01 2.696659088134765625e+00 9.009560346603393555e-01 -5.405600070953369141e-01
4.496000000000000000e+03 5.196971511840820312e+01 1.595373439788818359e+01 2.556971013545989990e-01 2.977549791336059570e+00 9.699741005897521973e-01 -6.605901122093200684e-01
4.497000000000000000e+03 3.110844421386718750e+01 1.934709358215332031e+01 8.056516945362091064e-02 1.907954961061477661e-01 8.140819519758224487e-02 2.804906666278839111e-01
4.498000000000000000e+03 6.248922348022460938e+01 -1.460221862792968750e+01 -9.780130386352539062e-01 8.504668235778808594e+00 2.257996320724487305e+00 1.879205584526062012e+00
4.499000000000000000e+03 6.276841354370117188e+01 -1.317544460296630859e+01 -1.025565147399902344e+00 9.578574180603027344e+00 2.565902709960937500e+00 1.957271337509155273e+00
4.500000000000000000e+03 6.260133361816406250e+01 -1.377606582641601562e+01 -1.003768920898437500e+00 9.047574996948242188e+00 2.413141727447509766e+00 1.945882678031921387e+00
4.501000000000000000e+03 4.587605285644531250e+01 1.532473850250244141e+01 3.398219645023345947e-01 1.684628367424011230e+00 6.073350906372070312e-01 -2.537940144538879395e-01
4.502000000000000000e+03 5.444298553466796875e+01 1.894340705871582031e+01 1.888590157032012939e-01 3.720745325088500977e+00 1.172881364822387695e+00 -6.294697523117065430e-01
4.503000000000000000e+03 3.337222290039062500e+01 -2.800144195556640625e+01 4.314039945602416992e-01 1.452469229698181152e-01 1.729952692985534668e-01 -2.992228567600250244e-01
4.504000000000000000e+03 4.742639923095703125e+01 1.469374370574951172e+01 3.318787813186645508e-01 1.906714200973510742e+00 6.715779304504394531e-01 -3.687935471534729004e-01
4.505000000000000000e+03 4.601574707031250000e+01 2.358783149719238281e+01 4.443532824516296387e-01 2.143471717834472656e+00 7.763475179672241211e-01 -2.271849960088729858e-01
4.506000000000000000e+03 5.294982147216796875e+01 2.044483375549316406e+01 2.792396843433380127e-01 3.354865312576293945e+00 1.090231537818908691e+00 -5.271645784378051758e-01
4.507000000000000000e+03 4.772258758544921875e+01 2.094308280944824219e+01 3.836652636528015137e-01 2.373606920242309570e+00 8.271816372871398926e-01 -3.391492664813995361e-01
4.508000000000000000e+03 4.704370880126953125e+01 1.890213966369628906e+01 3.759960532188415527e-01 2.127452373504638672e+00 7.510345578193664551e-01 -3.234637677669525146e-01
4.509000000000000000e+03 4.464263153076171875e+01 1.767273330688476562e+01 3.659322857856750488e-01 1.647923231124877930e+00 6.041566729545593262e-01 -1.803458034992218018e-01
4.510000000000000000e+03 4.982397079467773438e+01 2.003843879699707031e+01 3.510400354862213135e-01 2.705483675003051758e+00 9.169570803642272949e-01 -4.517906606197357178e-01
4.511000000000000000e+03 4.145509719848632812e+01 2.266784858703613281e+01 4.239590167999267578e-01 1.400654554367065430e+00 5.473840832710266113e-01 -5.811151862144470215e-02
4.512000000000000000e+03 6.408329010009765625e+01 2.813208198547363281e+01 7.718713581562042236e-02 5.759565830230712891e+00 1.751025915145874023e+00 -2.940610647201538086e-01
4.513000000000000000e+03 6.284302139282226562e+01 2.601906585693359375e+01 5.850523337721824646e-02 5.573776245117187500e+00 1.689684391021728516e+00 -3.538145720958709717e-01
4.514000000000000000e+03 5.465656280517578125e+01 2.214730453491210938e+01 2.346526682376861572e-01 3.785696506500244141e+00 1.206104755401611328e+00 -4.960318207740783691e-01
4.515000000000000000e+03 5.680937194824218750e+01 2.258889579772949219e+01 1.523786336183547974e-01 4.273283958435058594e+00 1.327698826789855957e+00 -5.114814043045043945e-01
4.516000000000000000e+03 4.793790054321289062e+01 2.303605270385742188e+01 4.093088507652282715e-01 2.515630006790161133e+00 8.774816989898681641e-01 -3.371775448322296143e-01
4.517000000000000000e+03 4.808111572265625000e+01 1.632493400573730469e+01 3.451371788978576660e-01 2.149505376815795898e+00 7.483927607536315918e-01 -4.086078405380249023e-01
4.518000000000000000e+03 7.223994445800781250e+01 -4.120934677124023438e+01 7.422810420393943787e-03 7.591398715972900391e+00 2.279646396636962891e+00 -8.310965262353420258e-03
4.519000000000000000e+03 7.027582550048828125e+01 -3.590684509277343750e+01 -5.367850884795188904e-02 7.221343517303466797e+00 2.150299549102783203e+00 5.121113732457160950e-02
4.520000000000000000e+03 3.575206756591796875e+01 -2.776513099670410156e+01 4.866344630718231201e-01 3.296648561954498291e-01 2.448897808790206909e-01 -2.459783852100372314e-01
4.521000000000000000e+03 2.380139160156250000e+01 2.458572578430175781e+01 1.692630052566528320e-01 -4.156721532344818115e-01 -7.392274588346481323e-02 2.099373042583465576e-01
4.522000000000000000e+03 1.091514778137207031e+01 3.460503387451171875e+01 2.450955510139465332e-01 -7.256976366043090820e-01 -1.441806256771087646e-01 2.654928267002105713e-01
4.523000000000000000e+03 5.926030731201171875e+01 2.205412483215332031e+01 6.176708266139030457e-02 4.846423149108886719e+00 1.472457170486450195e+00 -5.072716474533081055e-01
4.524000000000000000e+03 5.309331130981445312e+01 1.743416213989257812e+01 2.284178435802459717e-01 3.312535047531127930e+00 1.062285900115966797e+00 -6.501104831695556641e-01
4.525000000000000000e+03 5.157942199707031250e+01 1.874289894104003906e+01 2.991426885128021240e-01 3.017336130142211914e+00 9.949436187744140625e-01 -5.535462498664855957e-01
4.526000000000000000e+03 3.075167083740234375e+01 1.746264648437500000e+01 -3.058502264320850372e-02 1.320836246013641357e-01 3.044958040118217468e-02 3.525917530059814453e-01
4.527000000000000000e+03 2.926944160461425781e+01 1.957208442687988281e+01 2.854812890291213989e-02 3.781887516379356384e-02 1.991010084748268127e-02 2.981865108013153076e-01
4.528000000000000000e+03 6.365396118164062500e+01 -3.103518295288085938e+01 -1.211559176445007324e-01 5.942621707916259766e+00 1.746439695358276367e+00 3.574807047843933105e-01
4.529000000000000000e+03 6.140188217163085938e+01 -3.044142341613769531e+01 -5.533448234200477600e-02 5.442863464355468750e+00 1.616258740425109863e+00 5.034064650535583496e-01
4.530000000000000000e+03 2.564353752136230469e+01 -2.425761795043945312e+01 7.097163051366806030e-02 -1.172736510634422302e-01 -1.389060541987419128e-02 -4.130590260028839111e-01
4.531000000000000000e+03 2.727633094787597656e+01 -2.839762878417968750e+01 3.217000663280487061e-01 -7.286773622035980225e-02 7.464969903230667114e-02 -3.361861109733581543e-01
4.532000000000000000e+03 2.413425064086914062e+01 -2.696334648132324219e+01 1.837922930717468262e-01 -1.648747622966766357e-01 5.675260908901691437e-03 -3.605957329273223877e-01
4.533000000000000000e+03 4.887193298339843750e+01 1.397904682159423828e+01 3.174974918365478516e-01 2.127394199371337891e+00 7.334675192832946777e-01 -4.909414947032928467e-01
4.534000000000000000e+03 1.133442401885986328e+01 -3.439542770385742188e+01 1.626600474119186401e-01 -4.263014793395996094e-01 -7.909242808818817139e-02 -1.964357197284698486e-01
4.535000000000000000e+03 3.760785293579101562e+01 2.347107505798339844e+01 3.848079741001129150e-01 9.409402012825012207e-01 3.977244496345520020e-01 3.399306163191795349e-02
4.536000000000000000e+03 1.507317638397216797e+01 -2.728542709350585938e+01 9.927004575729370117e-02 -3.703064322471618652e-01 -8.131092041730880737e-02 -3.087492287158966064e-01
4.537000000000000000e+03 2.972449302673339844e+01 -2.424242401123046875e+01 1.588303893804550171e-01 -2.363473549485206604e-02 4.055869579315185547e-02 -4.178754687309265137e-01
4.538000000000000000e+03 7.495360565185546875e+01 -3.854942703247070312e+01 -4.572372138500213623e-02 8.086571693420410156e+00 2.412254333496093750e+00 -2.567249536514282227e-02
4.539000000000000000e+03 1.341555404663085938e+01 3.300753021240234375e+01 2.934214770793914795e-01 -7.301842570304870605e-01 -1.310288459062576294e-01 2.944906353950500488e-01
4.540000000000000000e+03 1.641609191894531250e+01 3.088692665100097656e+01 3.351964354515075684e-01 -7.150009274482727051e-01 -1.139413490891456604e-01 2.966246306896209717e-01
4.541000000000000000e+03 2.161176681518554688e+01 2.125970840454101562e+01 -7.693002372980117798e-02 -6.405873894691467285e-01 -2.152552157640457153e-01 2.920970320701599121e-01
4.542000000000000000e+03 2.339821434020996094e+01 1.919155311584472656e+01 -1.902906447649002075e-01 -5.156868696212768555e-01 -2.117932587862014771e-01 3.297591209411621094e-01
4.543000000000000000e+03 4.340716552734375000e+01 -3.368034362792968750e+01 7.331156134605407715e-01 1.319241523742675781e+00 6.157071590423583984e-01 7.638098299503326416e-02
4.544000000000000000e+03 4.960240554809570312e+01 -2.836056709289550781e+01 5.465268492698669434e-01 2.210419893264770508e+00 8.270840048789978027e-01 4.794682264328002930e-01
4.545000000000000000e+03 8.177495956420898438e+00 -4.093062973022460938e+01 9.956403821706771851e-02 -4.965743422508239746e-01 -1.191030889749526978e-01 -3.531939163804054260e-02
4.546000000000000000e+03 1.376912307739257812e+01 -3.274588012695312500e+01 1.843729019165039062e-01 -4.000098407268524170e-01 -6.469108164310455322e-02 -2.317866086959838867e-01
4.547000000000000000e+03 2.390831375122070312e+01 2.756683158874511719e+01 3.358829915523529053e-01 -3.538357019424438477e-01 -5.385818425565958023e-03 1.746084988117218018e-01
4.548000000000000000e+03 6.572263336181640625e+01 3.031147575378417969e+01 9.034873545169830322e-02 6.060811042785644531e+00 1.845347881317138672e+00 -2.376036345958709717e-01
4.549000000000000000e+03 6.414434814453125000e+01 3.427191925048828125e+01 1.639341264963150024e-01 5.724500179290771484e+00 1.766530394554138184e+00 -1.880736500024795532e-01
4.550000000000000000e+03 1.557957553863525391e+01 2.947891998291015625e+01 2.817797958850860596e-01 -7.676590085029602051e-01 -1.457637697458267212e-01 3.437831997871398926e-01
4.551000000000000000e+03 5.937577438354492188e+01 -2.930864524841308594e+01 4.552325233817100525e-03 4.946112632751464844e+00 1.485199570655822754e+00 6.220361590385437012e-01
4.552000000000000000e+03 4.173920822143554688e+01 2.489205169677734375e+01 4.468715786933898926e-01 1.513459205627441406e+00 5.880992412567138672e-01 -7.971481233835220337e-02
4.553000000000000000e+03 4.116297149658203125e+01 2.058129310607910156e+01 3.796702325344085693e-01 1.288523197174072266e+00 5.004580020904541016e-01 -3.342796862125396729e-02
4.554000000000000000e+03 3.103574562072753906e+01 -2.924867630004882812e+01 4.352904260158538818e-01 6.531298160552978516e-02 1.501810252666473389e-01 -2.945455610752105713e-01
4.555000000000000000e+03 1.255217456817626953e+01 -3.721621322631835938e+01 2.092958688735961914e-01 -4.182003736495971680e-01 -6.267135590314865112e-02 -1.325189769268035889e-01
4.556000000000000000e+03 2.307789611816406250e+01 -3.741091156005859375e+01 4.629446864128112793e-01 -2.101992517709732056e-01 7.582362741231918335e-02 -1.257412582635879517e-01
4.557000000000000000e+03 3.493423461914062500e+01 -3.444128036499023438e+01 6.864369511604309082e-01 4.009850621223449707e-01 3.262266218662261963e-01 -1.192811205983161926e-01
4.558000000000000000e+03 3.152918624877929688e+01 -3.659459686279296875e+01 6.652897000312805176e-01 2.000766843557357788e-01 2.596099078655242920e-01 -1.139518022537231445e-01
4.559000000000000000e+03 4.290665817260742188e+01 -3.706597518920898438e+01 7.696657180786132812e-01 1.334885954856872559e+00 6.313654780387878418e-01 4.451966285705566406e-02
4.560000000000000000e+03 6.644418334960937500e+01 -3.622524642944335938e+01 -1.350898854434490204e-02 6.417095661163330078e+00 1.921076059341430664e+00 8.423115313053131104e-02
4.561000000000000000e+03 5.970970916748046875e+01 3.529472732543945312e+01 2.642973959445953369e-01 4.857712745666503906e+00 1.536602973937988281e+00 -1.519798338413238525e-01
4.562000000000000000e+03 6.308080291748046875e+01 3.725457763671875000e+01 2.149895727634429932e-01 5.473533153533935547e+00 1.706556797027587891e+00 -1.191093772649765015e-01
4.563000000000000000e+03 5.231804656982421875e+01 3.784954452514648438e+01 4.468402266502380371e-01 3.491867780685424805e+00 1.181612372398376465e+00 -9.220676124095916748e-02
4.564000000000000000e+03 4.447759246826171875e+01 3.713837814331054688e+01 5.641511082649230957e-01 2.115909814834594727e+00 8.040182590484619141e-01 -5.613714829087257385e-02
4.565000000000000000e+03 3.536608505249023438e+01 3.775649642944335938e+01 6.347028613090515137e-01 8.668501973152160645e-01 4.504659175872802734e-01 -1.448082271963357925e-02
4.566000000000000000e+03 1.868997383117675781e+01 3.698048019409179688e+01 4.720563888549804688e-01 -5.326261520385742188e-01 -1.817092485725879669e-02 1.197386384010314941e-01
4.567000000000000000e+03 2.268531417846679688e+01 3.747291183471679688e+01 5.463991165161132812e-01 -3.101336359977722168e-01 7.087963819503784180e-02 7.453205436468124390e-02
4.568000000000000000e+03 1.553149223327636719e+01 3.525643157958984375e+01 3.829286396503448486e-01 -6.610243320465087891e-01 -8.342871069908142090e-02 2.027459591627120972e-01
4.569000000000000000e+03 3.156323623657226562e+01 2.176945304870605469e+01 2.157673686742782593e-01 2.694022357463836670e-01 1.455508768558502197e-01 1.993369907140731812e-01
4.570000000000000000e+03 4.985363769531250000e+01 2.364330291748046875e+01 3.790506124496459961e-01 2.829234123229980469e+00 9.624853730201721191e-01 -3.729497790336608887e-01
4.571000000000000000e+03 6.074708175659179688e+01 2.703779602050781250e+01 1.265871375799179077e-01 5.120636463165283203e+00 1.574167132377624512e+00 -3.422658145427703857e-01
4.572000000000000000e+03 1.561306285858154297e+01 -3.059543228149414062e+01 1.885738521814346313e-01 -3.694529831409454346e-01 -5.426373332738876343e-02 -2.688042521476745605e-01
4.573000000000000000e+03 1.579777145385742188e+01 -3.504339981079101562e+01 2.630791068077087402e-01 -3.714966475963592529e-01 -3.252526745200157166e-02 -1.833019405603408813e-01
4.574000000000000000e+03 2.008042335510253906e+01 -2.459759140014648438e+01 2.068031206727027893e-02 -2.356295734643936157e-01 -6.448478251695632935e-02 -3.592227399349212646e-01
4.575000000000000000e+03 2.183614158630371094e+01 -2.714119338989257812e+01 1.585968434810638428e-01 -2.149334549903869629e-01 -1.690098270773887634e-02 -3.479779362678527832e-01
4.576000000000000000e+03 1.767330360412597656e+01 -2.606628036499023438e+01 7.484856992959976196e-02 -3.121524453163146973e-01 -7.119116187095642090e-02 -3.279651403427124023e-01
4.577000000000000000e+03 3.268829345703125000e+01 2.430029869079589844e+01 3.309471309185028076e-01 3.950162827968597412e-01 2.177890241146087646e-01 1.267594546079635620e-01
4.578000000000000000e+03 2.658771324157714844e+01 2.681344795227050781e+01 3.424824774265289307e-01 -1.415467411279678345e-01 6.028071790933609009e-02 1.440234482288360596e-01
4.579000000000000000e+03 6.015859222412109375e+01 -3.314167022705078125e+01 9.905610233545303345e-02 5.050079345703125000e+00 1.544740676879882812e+00 4.006672799587249756e-01
4.580000000000000000e+03 2.912784004211425781e+01 2.214110946655273438e+01 1.683801859617233276e-01 5.247399210929870605e-02 6.625625491142272949e-02 2.129653841257095337e-01
4.581000000000000000e+03 5.602125167846679688e+01 2.048297119140625000e+01 1.507858037948608398e-01 4.122735023498535156e+00 1.282056212425231934e+00 -5.986535549163818359e-01
4.582000000000000000e+03 3.960496520996093750e+01 2.540593338012695312e+01 4.453384876251220703e-01 1.208724975585937500e+00 4.962190389633178711e-01 -3.394082188606262207e-02
4.583000000000000000e+03 4.921827697753906250e+01 2.560159492492675781e+01 4.129733145236968994e-01 2.757061004638671875e+00 9.510102868080139160e-01 -3.053942024707794189e-01
4.584000000000000000e+03 4.703004074096679688e+01 -3.382666397094726562e+01 6.756069660186767578e-01 1.978848576545715332e+00 7.963366508483886719e-01 1.887076646089553833e-01
4.585000000000000000e+03 7.213281250000000000e+01 -3.875545501708984375e+01 -8.462184108793735504e-03 7.549978256225585938e+00 2.262454748153686523e+00 -1.019272394478321075e-02
4.586000000000000000e+03 2.014925003051757812e+01 3.367681121826171875e+01 4.685569703578948975e-01 -5.036421418190002441e-01 -1.052555162459611893e-02 1.706084609031677246e-01
4.587000000000000000e+03 4.705470275878906250e+01 -2.830114364624023438e+01 6.079273819923400879e-01 1.663838624954223633e+00 6.815297603607177734e-01 3.265503346920013428e-01
4.588000000000000000e+03 6.294972610473632812e+01 -3.701778030395507812e+01 8.989087492227554321e-02 5.633111953735351562e+00 1.716900825500488281e+00 1.573848575353622437e-01
4.589000000000000000e+03 2.381451034545898438e+01 -3.416836929321289062e+01 4.335611760616302490e-01 -1.877995133399963379e-01 7.372849434614181519e-02 -2.153881341218948364e-01
4.590000000000000000e+03 2.311830329895019531e+01 3.415584945678710938e+01 5.198381543159484863e-01 -3.016935884952545166e-01 6.544338166713714600e-02 1.250471472740173340e-01
4.591000000000000000e+03 3.490971374511718750e+01 2.251159858703613281e+01 3.172729909420013428e-01 6.301542520523071289e-01 2.842281758785247803e-01 1.374119371175765991e-01
4.592000000000000000e+03 3.993918609619140625e+01 -3.288246154785156250e+01 7.176213264465332031e-01 8.361622095108032227e-01 4.661350548267364502e-01 -2.746277861297130585e-02
4.593000000000000000e+03 3.471614074707031250e+01 -2.991101264953613281e+01 5.666658878326416016e-01 2.983960509300231934e-01 2.595185637474060059e-01 -2.158801853656768799e-01
4.594000000000000000e+03 5.534112167358398438e+01 -3.444017791748046875e+01 3.714565038681030273e-01 3.790444374084472656e+00 1.248570322990417480e+00 3.500317037105560303e-01
4.595000000000000000e+03 5.180998992919921875e+01 3.491608047485351562e+01 4.373640120029449463e-01 3.425575017929077148e+00 1.158881664276123047e+00 -1.640252470970153809e-01
4.596000000000000000e+03 5.306467819213867188e+01 3.079283905029296875e+01 3.783648014068603516e-01 3.538162231445312500e+00 1.174958109855651855e+00 -2.727304399013519287e-01
4.597000000000000000e+03 5.115414047241210938e+01 2.530990409851074219e+01 3.710071444511413574e-01 3.125698566436767578e+00 1.049011707305908203e+00 -3.771942257881164551e-01
4.598000000000000000e+03 4.631595993041992188e+01 2.728174591064453125e+01 4.763292372226715088e-01 2.294025897979736328e+00 8.311065435409545898e-01 -2.027844339609146118e-01
4.599000000000000000e+03 5.461692810058593750e+01 2.653293418884277344e+01 2.945749759674072266e-01 3.849514722824096680e+00 1.243226885795593262e+00 -3.786447942256927490e-01
4.600000000000000000e+03 3.830183410644531250e+01 -2.865315437316894531e+01 5.729346871376037598e-01 5.410664677619934082e-01 3.342003524303436279e-01 -1.404146105051040649e-01
4.601000000000000000e+03 3.265684890747070312e+01 -3.177470970153808594e+01 5.675877928733825684e-01 1.819040626287460327e-01 2.248475551605224609e-01 -2.113427966833114624e-01
4.602000000000000000e+03 5.167951965332031250e+01 -2.936364936828613281e+01 4.820546805858612061e-01 2.736856460571289062e+00 9.656733870506286621e-01 5.344094634056091309e-01
4.603000000000000000e+03 5.176921463012695312e+01 -3.645751953125000000e+01 5.466487407684326172e-01 3.011374711990356445e+00 1.067407011985778809e+00 2.390393614768981934e-01
4.604000000000000000e+03 2.379531669616699219e+01 3.086366081237792969e+01 4.437068700790405273e-01 -3.038080930709838867e-01 4.196963459253311157e-02 1.467482894659042358e-01
4.605000000000000000e+03 4.409341812133789062e+01 2.669137191772460938e+01 4.812206625938415527e-01 1.956230401992797852e+00 7.312353253364562988e-01 -1.716054677963256836e-01
4.606000000000000000e+03 1.782989120483398438e+01 -3.203725433349609375e+01 2.623886466026306152e-01 -3.306247591972351074e-01 -2.047082968056201935e-02 -2.535216212272644043e-01
4.607000000000000000e+03 2.194957542419433594e+01 -2.492577362060546875e+01 5.561890825629234314e-02 -1.987701356410980225e-01 -4.294537007808685303e-02 -3.761046528816223145e-01
4.608000000000000000e+03 3.456167221069335938e+01 2.646875953674316406e+01 4.357637465000152588e-01 6.403208374977111816e-01 3.228253722190856934e-01 7.679490745067596436e-02
4.609000000000000000e+03 2.070777893066406250e+01 -3.315244293212890625e+01 3.418274819850921631e-01 -2.668721675872802734e-01 2.248659916222095490e-02 -2.370906323194503784e-01
4.610000000000000000e+03 2.456819152832031250e+01 -2.955437088012695312e+01 3.125549554824829102e-01 -1.572387367486953735e-01 4.659486562013626099e-02 -3.123708665370941162e-01
4.611000000000000000e+03 4.724452972412109375e+01 2.499508476257324219e+01 4.375761449337005615e-01 2.446870565414428711e+00 8.653339743614196777e-01 -2.648500502109527588e-01
4.612000000000000000e+03 2.651393127441406250e+01 3.151578903198242188e+01 4.850075840950012207e-01 -9.462682902812957764e-02 1.171142235398292542e-01 1.087851375341415405e-01
4.613000000000000000e+03 4.783787536621093750e+01 3.100914573669433594e+01 4.794131815433502197e-01 2.650768041610717773e+00 9.390543699264526367e-01 -1.951676905155181885e-01
4.614000000000000000e+03 5.590677261352539062e+01 2.943272018432617188e+01 3.004207015037536621e-01 4.121900081634521484e+00 1.326696276664733887e+00 -3.136811852455139160e-01
4.615000000000000000e+03 5.048311614990234375e+01 -3.320947647094726562e+01 5.665555000305175781e-01 2.606680631637573242e+00 9.519708156585693359e-01 3.442855179309844971e-01
4.616000000000000000e+03 3.699218368530273438e+01 -3.150566482543945312e+01 6.539939641952514648e-01 5.281398892402648926e-01 3.546401560306549072e-01 -1.357639580965042114e-01
4.617000000000000000e+03 5.478563690185546875e+01 3.379648208618164062e+01 3.586491048336029053e-01 3.927830934524536133e+00 1.285943984985351562e+00 -2.019016593694686890e-01
4.618000000000000000e+03 6.209148788452148438e+01 2.939859390258789062e+01 1.386330276727676392e-01 5.399453163146972656e+00 1.661425828933715820e+00 -2.860986888408660889e-01
4.619000000000000000e+03 6.368664932250976562e+01 3.171708869934082031e+01 1.438805460929870605e-01 5.688026905059814453e+00 1.749572277069091797e+00 -2.262825220823287964e-01
4.620000000000000000e+03 1.966007041931152344e+01 -2.676148796081542969e+01 1.243332624435424805e-01 -2.659765183925628662e-01 -4.249297827482223511e-02 -3.401955068111419678e-01
4.621000000000000000e+03 3.604680252075195312e+01 2.447618103027343750e+01 3.893786966800689697e-01 8.167570233345031738e-01 3.618407249450683594e-01 6.787525862455368042e-02
4.622000000000000000e+03 2.835515022277832031e+01 2.907519912719726562e+01 4.161635637283325195e-01 1.708503626286983490e-02 1.299745738506317139e-01 1.046958640217781067e-01
4.623000000000000000e+03 2.163428497314453125e+01 -2.990189170837402344e+01 2.751072645187377930e-01 -2.354194074869155884e-01 1.190635189414024353e-02 -3.016264438629150391e-01
4.624000000000000000e+03 3.970865249633789062e+01 2.814897537231445312e+01 5.093547701835632324e-01 1.315831303596496582e+00 5.475558042526245117e-01 -5.338709428906440735e-02
4.625000000000000000e+03 4.605954742431640625e+01 3.395730972290039062e+01 5.420209169387817383e-01 2.366951227188110352e+00 8.726916313171386719e-01 -1.093385964632034302e-01
4.626000000000000000e+03 4.829103851318359375e+01 3.785038757324218750e+01 5.311716198921203613e-01 2.741434574127197266e+00 9.817818999290466309e-01 -8.265605568885803223e-02
4.627000000000000000e+03 2.995761680603027344e+01 3.631959533691406250e+01 6.075180768966674805e-01 2.923300564289093018e-01 2.699544429779052734e-01 2.819837443530559540e-02
4.628000000000000000e+03 4.894516754150390625e+01 3.494898605346679688e+01 5.004550218582153320e-01 2.813996076583862305e+00 9.943353533744812012e-01 -1.273899227380752563e-01
4.629000000000000000e+03 2.846471405029296875e+01 3.338768768310546875e+01 5.445269942283630371e-01 1.169226989150047302e-01 1.984349042177200317e-01 6.167736276984214783e-02
4.630000000000000000e+03 4.309080123901367188e+01 2.877526664733886719e+01 5.229449868202209473e-01 1.854517221450805664e+00 7.132386565208435059e-01 -1.268661171197891235e-01
4.631000000000000000e+03 3.698182678222656250e+01 2.807995796203613281e+01 4.981780946254730225e-01 1.000524759292602539e+00 4.496108591556549072e-01 8.572233840823173523e-03
4.632000000000000000e+03 3.826482391357421875e+01 3.374434661865234375e+01 6.043280363082885742e-01 1.254280447959899902e+00 5.575825572013854980e-01 -2.700202912092208862e-02
4.633000000000000000e+03 4.205436706542968750e+01 2.710088729858398438e+01 5.025207996368408203e-01 1.628805637359619141e+00 6.393979191780090332e-01 -1.027868241071701050e-01
4.634000000000000000e+03 5.754216766357421875e+01 3.233450698852539062e+01 2.815372347831726074e-01 4.392113685607910156e+00 1.402095198631286621e+00 -2.310531586408615112e-01
4.635000000000000000e+03 3.290154266357421875e+01 3.425066757202148438e+01 5.900494456291198730e-01 5.528438687324523926e-01 3.428680002689361572e-01 1.483176369220018387e-02
4.636000000000000000e+03 4.089523315429687500e+01 3.079116821289062500e+01 5.501241683959960938e-01 1.525668144226074219e+00 6.227377057075500488e-01 -8.409897983074188232e-02
4.637000000000000000e+03 1.761380958557128906e+01 -7.533785820007324219e+00 -3.062864579260349274e-02 -6.024759262800216675e-02 -2.726287208497524261e-02 -4.406780004501342773e-02
4.638000000000000000e+03 1.860103416442871094e+01 -3.500620365142822266e+00 -1.459513907320797443e-03 2.819492714479565620e-03 4.079936479683965445e-04 4.980823490768671036e-03
4.639000000000000000e+03 3.874780237674713135e-01 2.095323801040649414e+00 -1.426428207196295261e-04 -1.841243210947141051e-04 -9.803014836506918073e-05 1.078137938748113811e-04
4.640000000000000000e+03 5.896398925781250000e+01 -4.131947040557861328e+00 6.004762053489685059e-01 1.499355554580688477e+00 6.299495100975036621e-01 -2.301522731781005859e+00
4.641000000000000000e+03 6.002510833740234375e+01 -4.721037864685058594e+00 1.680169582366943359e+00 2.228373289108276367e+00 1.172562837600708008e+00 -3.273937702178955078e+00
4.642000000000000000e+03 6.061878585815429688e+01 -4.759670734405517578e+00 2.477107048034667969e+00 4.264050483703613281e+00 2.022347211837768555e+00 -4.838044166564941406e+00
4.643000000000000000e+03 6.082547760009765625e+01 -4.737383842468261719e+00 2.644855976104736328e+00 5.439934730529785156e+00 2.425437211990356445e+00 -5.474962711334228516e+00
4.644000000000000000e+03 6.151740646362304688e+01 -4.430858612060546875e+00 1.465046405792236328e+00 1.148616600036621094e+01 3.885363578796386719e+00 -6.291845321655273438e+00
4.645000000000000000e+03 6.234985733032226562e+01 -4.187951564788818359e+00 7.173536717891693115e-02 1.618659782409667969e+01 4.877500057220458984e+00 -3.916455030441284180e+00
4.646000000000000000e+03 6.286013412475585938e+01 -4.874608993530273438e+00 1.654842615127563477e+00 2.075316238403320312e+01 6.722401618957519531e+00 -5.008547902107238770e-01
4.647000000000000000e+03 6.302112197875976562e+01 -4.541461467742919922e+00 1.147382497787475586e+00 1.891315078735351562e+01 6.018159866333007812e+00 -5.816263556480407715e-01
4.648000000000000000e+03 6.342238998413085938e+01 -5.259258270263671875e+00 5.248804569244384766e+00 1.926784896850585938e+01 7.354996204376220703e+00 2.320818662643432617e+00
4.649000000000000000e+03 6.380749511718750000e+01 -5.057528018951416016e+00 4.720007419586181641e+00 1.734729194641113281e+01 6.620190143585205078e+00 2.231478929519653320e+00
4.650000000000000000e+03 6.400217437744140625e+01 -5.765847206115722656e+00 8.310151100158691406e+00 1.596253108978271484e+01 7.281805038452148438e+00 1.948332667350769043e+00
4.651000000000000000e+03 6.412755584716796875e+01 -6.746600627899169922e+00 8.975746154785156250e+00 1.521170711517333984e+01 7.256236076354980469e+00 -1.090696215629577637e+00
4.652000000000000000e+03 6.321562576293945312e+01 -7.613586425781250000e+00 4.174598693847656250e+00 2.042679405212402344e+01 7.380417346954345703e+00 -1.794623255729675293e+00
4.653000000000000000e+03 6.267230224609375000e+01 -7.957933425903320312e+00 1.057851433753967285e+00 2.048233795166015625e+01 6.462056636810302734e+00 1.827339768409729004e+00
4.654000000000000000e+03 6.246783828735351562e+01 -8.050373077392578125e+00 7.077991366386413574e-01 1.938538551330566406e+01 6.027955532073974609e+00 3.300116777420043945e+00
4.655000000000000000e+03 6.180636596679687500e+01 -8.041067123413085938e+00 1.432041525840759277e+00 1.457092857360839844e+01 4.800890922546386719e+00 6.696919441223144531e+00
4.656000000000000000e+03 6.122158432006835938e+01 -8.001861572265625000e+00 2.814469575881958008e+00 8.400957107543945312e+00 3.364628076553344727e+00 6.582454204559326172e+00
4.657000000000000000e+03 6.102832031250000000e+01 -8.016585350036621094e+00 2.940594911575317383e+00 6.744841575622558594e+00 2.905631065368652344e+00 6.186401844024658203e+00
4.658000000000000000e+03 6.082954788208007812e+01 -8.041156768798828125e+00 2.745290279388427734e+00 5.423701286315917969e+00 2.450697422027587891e+00 5.468502998352050781e+00
4.659000000000000000e+03 6.089039611816406250e+01 -8.321526527404785156e+00 2.363037586212158203e+00 6.661124706268310547e+00 2.707248687744140625e+00 5.732217788696289062e+00
4.660000000000000000e+03 1.295585393905639648e+00 2.716772794723510742e+00 2.286664130224380642e-05 -3.334425564389675856e-04 -9.317276999354362488e-05 1.443670771550387144e-04
4.661000000000000000e+03 1.385599899291992188e+01 2.569447994232177734e+00 -6.814691587351262569e-04 -6.296926294453442097e-04 -3.933485422749072313e-04 -7.593407062813639641e-04
4.662000000000000000e+03 1.006273746490478516e+01 -2.119800758361816406e+01 -1.636935770511627197e-01 -3.758453428745269775e-01 -1.618616729974746704e-01 -3.183792829513549805e-01
4.663000000000000000e+03 5.985685348510742188e+01 -8.281553268432617188e+00 1.596847176551818848e+00 2.241402387619018555e+00 1.151474833488464355e+00 3.231669902801513672e+00
4.664000000000000000e+03 6.020815277099609375e+01 -8.881748199462890625e+00 1.650468230247497559e+00 4.429672241210937500e+00 1.824042201042175293e+00 4.378641605377197266e+00
4.665000000000000000e+03 6.051869583129882812e+01 -4.348226070404052734e+00 2.141098737716674805e+00 4.840590476989746094e+00 2.094506740570068359e+00 -4.932067871093750000e+00
4.666000000000000000e+03 6.078775787353515625e+01 -4.450481891632080078e+00 2.326905488967895508e+00 5.997055530548095703e+00 2.497188329696655273e+00 -5.519862174987792969e+00
4.667000000000000000e+03 6.066665267944335938e+01 -4.203462600708007812e+00 1.923886656761169434e+00 5.903301239013671875e+00 2.348156213760375977e+00 -5.225128173828125000e+00
4.668000000000000000e+03 6.139939880371093750e+01 -8.217378616333007812e+00 2.080947637557983398e+00 1.022009658813476562e+01 3.690313339233398438e+00 6.465047836303710938e+00
4.669000000000000000e+03 6.156887435913085938e+01 -8.278656959533691406e+00 1.605229973793029785e+00 1.185944652557373047e+01 4.039402961730957031e+00 6.440407752990722656e+00
4.670000000000000000e+03 6.214449310302734375e+01 -8.791585922241210938e+00 1.104735136032104492e-01 1.460932159423828125e+01 4.415938854217529297e+00 4.381969451904296875e+00
4.671000000000000000e+03 6.238621139526367188e+01 -8.976174354553222656e+00 -1.430538594722747803e-01 1.498363876342773438e+01 4.452175617218017578e+00 3.571291446685791016e+00
4.672000000000000000e+03 6.288879776000976562e+01 -8.561441421508789062e+00 3.650574088096618652e-01 1.740017890930175781e+01 5.329570770263671875e+00 1.546850681304931641e+00
4.673000000000000000e+03 6.302806472778320312e+01 -8.168125152587890625e+00 1.393640279769897461e+00 1.921022605895996094e+01 6.181159973144531250e+00 3.313436806201934814e-01
4.674000000000000000e+03 6.313457107543945312e+01 -8.575863838195800781e+00 6.729397177696228027e-01 1.739219284057617188e+01 5.419539928436279297e+00 6.973252892494201660e-01
4.675000000000000000e+03 6.330701065063476562e+01 -8.199547767639160156e+00 1.836203217506408691e+00 1.844704055786132812e+01 6.084973335266113281e+00 -4.924134910106658936e-01
4.676000000000000000e+03 6.356203079223632812e+01 -7.629814624786376953e+00 4.993486404418945312e+00 1.861815071105957031e+01 7.083491325378417969e+00 -2.253498077392578125e+00
4.677000000000000000e+03 6.411518859863281250e+01 -7.594592571258544922e+00 5.442391872406005859e+00 1.592641067504882812e+01 6.410640716552734375e+00 -2.225020170211791992e+00
4.678000000000000000e+03 6.433847045898437500e+01 -7.462569713592529297e+00 5.975796699523925781e+00 1.513463401794433594e+01 6.333129405975341797e+00 -2.125469684600830078e+00
4.679000000000000000e+03 6.446865844726562500e+01 -6.781930446624755859e+00 7.924111366271972656e+00 1.421141719818115234e+01 6.640658378601074219e+00 -1.014657258987426758e+00
4.680000000000000000e+03 6.437628173828125000e+01 -5.862353324890136719e+00 7.924269199371337891e+00 1.463377380371093750e+01 6.767412662506103516e+00 1.371835112571716309e+00
4.681000000000000000e+03 6.419808197021484375e+01 -4.968734741210937500e+00 4.672538757324218750e+00 1.572511768341064453e+01 6.119297027587890625e+00 2.156379699707031250e+00
4.682000000000000000e+03 6.337280273437500000e+01 -4.374595642089843750e+00 1.416612267494201660e+00 1.770435523986816406e+01 5.736290454864501953e+00 3.477225899696350098e-01
4.683000000000000000e+03 6.251303100585937500e+01 -3.796882629394531250e+00 -2.018015831708908081e-01 1.524928283691406250e+01 4.514244079589843750e+00 -3.100466728210449219e+00
4.684000000000000000e+03 6.210157394409179688e+01 -3.971831083297729492e+00 1.835385710000991821e-01 1.438034915924072266e+01 4.369166374206542969e+00 -4.554834842681884766e+00
4.685000000000000000e+03 6.170723342895507812e+01 -4.351364135742187500e+00 1.084751963615417480e+00 1.289744663238525391e+01 4.194659709930419922e+00 -6.052746772766113281e+00
4.686000000000000000e+03 6.135897445678710938e+01 -4.253477573394775391e+00 1.561845779418945312e+00 1.014389896392822266e+01 3.511723279953002930e+00 -6.019298076629638672e+00
4.687000000000000000e+03 6.113333892822265625e+01 -4.555154800415039062e+00 2.264616250991821289e+00 8.093561172485351562e+00 3.107453107833862305e+00 -6.273337364196777344e+00
4.688000000000000000e+03 2.044037580490112305e+00 3.717973327636718750e+01 1.193703338503837585e-02 -8.951445221900939941e-01 -2.649622559547424316e-01 5.522097274661064148e-02
4.689000000000000000e+03 1.329605865478515625e+01 2.979291343688964844e+01 2.428873628377914429e-01 -7.709012627601623535e-01 -1.584041714668273926e-01 3.797842860221862793e-01
4.690000000000000000e+03 6.340567398071289062e+01 -8.504130363464355469e+00 1.230497479438781738e+00 1.738502693176269531e+01 5.584657192230224609e+00 -2.125683128833770752e-01
4.691000000000000000e+03 6.357357025146484375e+01 -8.170918464660644531e+00 2.607936620712280273e+00 1.761104011535644531e+01 6.065692901611328125e+00 -1.316718816757202148e+00
4.692000000000000000e+03 6.116247558593750000e+01 -8.481370925903320312e+00 1.901314735412597656e+00 8.655131340026855469e+00 3.166933774948120117e+00 6.050481319427490234e+00
4.693000000000000000e+03 6.185109329223632812e+01 -8.954694747924804688e+00 3.259648084640502930e-01 1.278021907806396484e+01 3.931855201721191406e+00 4.935545444488525391e+00
4.694000000000000000e+03 6.145261383056640625e+01 -3.676871538162231445e+00 5.792831778526306152e-01 1.057099914550781250e+01 3.345084667205810547e+00 -5.204795360565185547e+00
4.695000000000000000e+03 6.144741439819335938e+01 -3.987033605575561523e+00 9.065098166465759277e-01 1.060871219635009766e+01 3.454566717147827148e+00 -5.574319839477539062e+00
4.696000000000000000e+03 6.102602005004882812e+01 -3.908541202545166016e+00 1.367507100105285645e+00 7.962260723114013672e+00 2.798930406570434570e+00 -5.539243221282958984e+00
4.697000000000000000e+03 6.083890151977539062e+01 -4.034138202667236328e+00 1.557079315185546875e+00 6.973958015441894531e+00 2.559311151504516602e+00 -5.386693000793457031e+00
4.698000000000000000e+03 6.018517494201660156e+00 -3.371665716171264648e+00 -6.764956924598664045e-05 -4.695316602010279894e-05 -3.438082057982683182e-05 -2.611442760098725557e-04
4.699000000000000000e+03 6.083985137939453125e+01 -8.663376808166503906e+00 1.766863942146301270e+00 7.010060310363769531e+00 2.633077383041381836e+00 5.467643260955810547e+00
4.700000000000000000e+03 6.099563598632812500e+01 -9.043039321899414062e+00 1.201535940170288086e+00 8.088653564453125000e+00 2.787056922912597656e+00 5.312486171722412109e+00
4.701000000000000000e+03 6.221587753295898438e+01 -9.213963508605957031e+00 -1.152473315596580505e-01 1.381064128875732422e+01 4.108618259429931641e+00 3.829493284225463867e+00
4.702000000000000000e+03 9.184098243713378906e+00 -2.244071769714355469e+01 -1.074400991201400757e-01 -3.416993021965026855e-01 -1.347418278455734253e-01 -3.198583424091339111e-01
4.703000000000000000e+03 5.718478393554687500e+01 -9.743997573852539062e+00 -2.906243316829204559e-02 1.012302279472351074e+00 2.949719727039337158e-01 1.496574163436889648e+00
4.704000000000000000e+03 6.493437194824218750e+01 -6.330530643463134766e+00 7.180128097534179688e+00 1.305661678314208984e+01 6.071023464202880859e+00 1.223838701844215393e-01
4.705000000000000000e+03 6.531340026855468750e+01 -6.424625396728515625e+00 6.531404972076416016e+00 1.238065338134765625e+01 5.673617362976074219e+00 -6.967459619045257568e-02
4.706000000000000000e+03 6.355732727050781250e+01 -4.182196140289306641e+00 1.234263062477111816e+00 1.681070327758789062e+01 5.413489818572998047e+00 4.769803285598754883e-01
4.707000000000000000e+03 6.265778350830078125e+01 -3.460528612136840820e+00 -3.894185125827789307e-01 1.470288372039794922e+01 4.294039726257324219e+00 -2.723453998565673828e+00
4.708000000000000000e+03 6.224284744262695312e+01 -3.621697187423706055e+00 -2.426686584949493408e-01 1.407953071594238281e+01 4.151058673858642578e+00 -3.817994832992553711e+00
4.709000000000000000e+03 5.960824584960937500e+01 -3.549023628234863281e+00 1.209926843643188477e+00 3.359766721725463867e+00 1.370908021926879883e+00 -3.645308494567871094e+00
4.710000000000000000e+03 6.473565673828125000e+01 -7.301188468933105469e+00 6.312393188476562500e+00 1.387394905090332031e+01 6.055902481079101562e+00 -1.694383382797241211e+00
4.711000000000000000e+03 6.444399261474609375e+01 -7.268570899963378906e+00 6.670287609100341797e+00 1.456085777282714844e+01 6.369343280792236328e+00 -1.845092058181762695e+00
4.712000000000000000e+03 6.478901672363281250e+01 -6.848048686981201172e+00 7.154506206512451172e+00 1.353088283538818359e+01 6.205616474151611328e+00 -9.775861501693725586e-01
4.713000000000000000e+03 6.501276397705078125e+01 -6.045793056488037109e+00 6.911810398101806641e+00 1.295499992370605469e+01 5.960043430328369141e+00 6.312960982322692871e-01
4.714000000000000000e+03 6.423057556152343750e+01 -4.313629627227783203e+00 2.563729047775268555e+00 1.552597427368164062e+01 5.426910877227783203e+00 1.626195907592773438e+00
4.715000000000000000e+03 3.277130508422851562e+01 2.896219444274902344e+01 4.693417847156524658e-01 4.660474061965942383e-01 2.806167602539062500e-01 5.038356781005859375e-02
4.716000000000000000e+03 5.740768432617187500e+01 -3.117348432540893555e+00 1.926262862980365753e-02 1.093950390815734863e+00 3.339639008045196533e-01 -1.635557413101196289e+00
4.717000000000000000e+03 5.761646652221679688e+01 -2.555282831192016602e+00 3.573421537876129150e-01 1.720494031906127930e+00 6.233508586883544922e-01 -2.110174179077148438e+00
4.718000000000000000e+03 4.137308597564697266e+00 -2.259607315063476562e+01 -4.860398545861244202e-02 -1.587563157081604004e-01 -6.220808997750282288e-02 -1.522796005010604858e-01
4.719000000000000000e+03 4.857742309570312500e+00 -2.330984687805175781e+01 -5.907477810978889465e-02 -1.944890320301055908e-01 -7.606914639472961426e-02 -1.937881112098693848e-01
4.720000000000000000e+03 6.296347808837890625e+01 -9.305969238281250000e+00 -2.608480453491210938e-01 1.521412372589111328e+01 4.485982894897460938e+00 1.842235445976257324e+00
4.721000000000000000e+03 8.914628982543945312e+00 2.534928703308105469e+01 -4.190338030457496643e-02 -5.950673818588256836e-01 -1.910912245512008667e-01 4.901363551616668701e-01
4.722000000000000000e+03 1.473688793182373047e+01 3.105245208740234375e+01 3.138329088687896729e-01 -7.393460273742675781e-01 -1.276539415121078491e-01 3.237134814262390137e-01
4.723000000000000000e+03 5.977705001831054688e+01 -3.174331188201904297e+00 1.029143810272216797e+00 4.178472042083740234e+00 1.562284827232360840e+00 -3.931638956069946289e+00
4.724000000000000000e+03 6.133032226562500000e+01 -3.406242370605468750e+00 4.572622478008270264e-01 9.748992919921875000e+00 3.061876535415649414e+00 -5.035456657409667969e+00
4.725000000000000000e+03 6.100102615356445312e+01 -3.594835996627807617e+00 1.015311002731323242e+00 8.108837127685546875e+00 2.737244367599487305e+00 -5.260149002075195312e+00
4.726000000000000000e+03 3.166956186294555664e+00 1.874052619934082031e+01 -3.539868816733360291e-02 -4.343706741929054260e-02 -2.365072630345821381e-02 1.612243615090847015e-02
4.727000000000000000e+03 6.403046417236328125e+01 -8.399699211120605469e+00 2.537839174270629883e+00 1.595541858673095703e+01 5.547977447509765625e+00 -1.504976511001586914e+00
4.728000000000000000e+03 6.459600067138671875e+01 -8.446699142456054688e+00 2.918771982192993164e+00 1.458308601379394531e+01 5.250557422637939453e+00 -1.787324547767639160e+00
4.729000000000000000e+03 6.586225128173828125e+01 -5.794328689575195312e+00 5.420348167419433594e+00 1.172626876831054688e+01 5.143985271453857422e+00 7.686622142791748047e-01
4.730000000000000000e+03 6.132611465454101562e+01 -8.999673843383789062e+00 9.177777171134948730e-01 9.919927597045898438e+00 3.251311540603637695e+00 5.428022384643554688e+00
4.731000000000000000e+03 2.161903381347656250e+01 1.378171682357788086e+00 -1.210071370005607605e-01 -4.002826511859893799e-01 -1.563869416713714600e-01 3.615104556083679199e-01
4.732000000000000000e+03 2.258747673034667969e+01 8.250484466552734375e-01 -1.643594801425933838e-01 -3.410752713680267334e-01 -1.516304314136505127e-01 4.024670124053955078e-01
4.733000000000000000e+03 6.851667404174804688e+00 4.988268852233886719e+00 1.694563979981467128e-04 -9.244894026778638363e-04 -2.265099028591066599e-04 -2.580683212727308273e-04
4.734000000000000000e+03 6.037564468383789062e+01 -3.821904659271240234e+00 1.539226889610290527e+00 5.261096000671386719e+00 2.040096759796142578e+00 -4.681239128112792969e+00
4.735000000000000000e+03 4.369744777679443359e+00 4.497567176818847656e+00 4.359524973551742733e-05 -1.011766216834075749e-04 -1.727441122056916356e-05 7.523051317548379302e-05
4.736000000000000000e+03 6.305242538452148438e+01 -9.007485389709472656e+00 7.460757344961166382e-02 1.610944366455078125e+01 4.855215072631835938e+00 1.405849814414978027e+00
4.737000000000000000e+03 6.382357025146484375e+01 -8.789200782775878906e+00 1.276056170463562012e+00 1.600307464599609375e+01 5.183739662170410156e+00 -7.131062746047973633e-01
4.738000000000000000e+03 6.509622192382812500e+01 -6.970839500427246094e+00 6.391559123992919922e+00 1.292253684997558594e+01 5.794229030609130859e+00 -1.049317717552185059e+00
4.739000000000000000e+03 6.487551879882812500e+01 -7.583567619323730469e+00 5.365591049194335938e+00 1.374152278900146484e+01 5.732134342193603516e+00 -1.853672623634338379e+00
4.740000000000000000e+03 6.552700042724609375e+01 -7.749339580535888672e+00 4.691257953643798828e+00 1.252854442596435547e+01 5.165940761566162109e+00 -1.613790631294250488e+00
4.741000000000000000e+03 6.003009033203125000e+01 -3.793027162551879883e+00 1.436992168426513672e+00 4.135277748107910156e+00 1.671681046485900879e+00 -4.170895576477050781e+00
4.742000000000000000e+03 6.074753189086914062e+01 -3.540024995803833008e+00 1.148323297500610352e+00 7.115513324737548828e+00 2.479151010513305664e+00 -5.046853542327880859e+00
4.743000000000000000e+03 6.049362564086914062e+01 -3.682528972625732422e+00 1.404832005500793457e+00 5.915729999542236328e+00 2.196168661117553711e+00 -4.826190471649169922e+00
4.744000000000000000e+03 5.064820289611816406e+00 -5.037792205810546875e+00 2.042303676716983318e-04 -3.278607618995010853e-04 -3.708911390276625752e-05 -3.106571966782212257e-04
4.745000000000000000e+03 6.357195281982421875e+01 -9.123456954956054688e+00 4.159980714321136475e-01 1.560552310943603516e+01 4.806456565856933594e+00 2.200990915298461914e-01
4.746000000000000000e+03 6.323410415649414062e+01 -9.738265037536621094e+00 -4.013250470161437988e-01 1.435145473480224609e+01 4.185039043426513672e+00 1.369783282279968262e+00
4.747000000000000000e+03 6.304215240478515625e+01 -3.198776960372924805e+00 -4.397273659706115723e-01 1.457906150817871094e+01 4.241800308227539062e+00 -1.759573340415954590e+00
4.748000000000000000e+03 6.295951843261718750e+01 -3.567008733749389648e+00 -2.287721931934356689e-01 1.537108802795410156e+01 4.542694568634033203e+00 -1.809433102607727051e+00
4.749000000000000000e+03 6.296407699584960938e+01 -2.874144554138183594e+00 -6.100223064422607422e-01 1.365765190124511719e+01 3.914288759231567383e+00 -2.012253284454345703e+00
4.750000000000000000e+03 6.240209197998046875e+01 -2.812431573867797852e+00 -5.859210491180419922e-01 1.278284835815429688e+01 3.659078121185302734e+00 -3.148022174835205078e+00
4.751000000000000000e+03 6.215514373779296875e+01 -2.961195945739746094e+00 -4.348509609699249268e-01 1.237788581848144531e+01 3.582910299301147461e+00 -3.720592021942138672e+00
4.752000000000000000e+03 6.156291198730468750e+01 -3.238425970077514648e+00 1.667277514934539795e-01 1.058910465240478516e+01 3.226749658584594727e+00 -4.706573486328125000e+00
4.753000000000000000e+03 6.161452865600585938e+01 -8.953467369079589844e+00 6.443216204643249512e-01 1.148096656799316406e+01 3.637586355209350586e+00 5.324409008026123047e+00
4.754000000000000000e+03 6.188724136352539062e+01 -9.173583030700683594e+00 1.589803248643875122e-01 1.240071868896484375e+01 3.767909526824951172e+00 4.626716613769531250e+00
4.755000000000000000e+03 6.202986145019531250e+01 -9.387469291687011719e+00 -1.172281131148338318e-01 1.251358604431152344e+01 3.718907356262207031e+00 4.174765586853027344e+00
4.756000000000000000e+03 6.226713562011718750e+01 -9.500398635864257812e+00 -3.311529457569122314e-01 1.327496147155761719e+01 3.883142709732055664e+00 3.625494956970214844e+00
4.757000000000000000e+03 6.251987457275390625e+01 -9.951589584350585938e+00 -5.641431212425231934e-01 1.287695121765136719e+01 3.693842411041259766e+00 2.940830230712890625e+00
4.758000000000000000e+03 6.407666015625000000e+01 -7.969826698303222656e+00 4.021039485931396484e+00 1.614721107482910156e+01 6.050475120544433594e+00 -2.036137580871582031e+00
4.759000000000000000e+03 6.528239440917968750e+01 -7.979440212249755859e+00 4.334851741790771484e+00 1.305488967895507812e+01 5.216922283172607422e+00 -1.805809140205383301e+00
4.760000000000000000e+03 6.446354675292968750e+01 -8.050254821777343750e+00 4.042887210845947266e+00 1.494896507263183594e+01 5.697556018829345703e+00 -2.025197982788085938e+00
4.761000000000000000e+03 5.749762344360351562e+01 -2.191579580307006836e+00 3.166903853416442871e-01 1.812154173851013184e+00 6.386533975601196289e-01 -2.150354385375976562e+00
4.762000000000000000e+03 1.419471263885498047e+01 -2.466985702514648438e+01 7.871771231293678284e-03 -3.770407736301422119e-01 -1.107507050037384033e-01 -3.185891211032867432e-01
4.763000000000000000e+03 1.588025569915771484e+01 -2.021940803527832031e+01 -2.233956903219223022e-01 -3.134942352771759033e-01 -1.610669791698455811e-01 -3.281941115856170654e-01
4.764000000000000000e+03 6.054310989379882812e+01 -3.485638141632080078e+00 1.163123846054077148e+00 6.342566013336181641e+00 2.251706838607788086e+00 -4.708429813385009766e+00
4.765000000000000000e+03 6.048060989379882812e+01 -3.266330242156982422e+00 9.647412896156311035e-01 6.202870368957519531e+00 2.150283575057983398e+00 -4.594231128692626953e+00
4.766000000000000000e+03 6.358335113525390625e+01 -9.454677581787109375e+00 8.050799369812011719e-02 1.490294933319091797e+01 4.495037078857421875e+00 4.663267433643341064e-01
4.767000000000000000e+03 6.451389312744140625e+01 -5.441116809844970703e+00 6.409841537475585938e+00 1.444802474975585938e+01 6.257359981536865234e+00 1.868920087814331055e+00
4.768000000000000000e+03 6.475155639648437500e+01 -5.717038631439208984e+00 6.772861480712890625e+00 1.377001190185546875e+01 6.162861824035644531e+00 1.401138067245483398e+00
4.769000000000000000e+03 6.479020690917968750e+01 -5.470454692840576172e+00 6.200299739837646484e+00 1.379077434539794922e+01 5.997322082519531250e+00 1.682273268699645996e+00
4.770000000000000000e+03 6.105628967285156250e+01 -3.256519079208374023e+00 5.921177268028259277e-01 8.608223915100097656e+00 2.760102510452270508e+00 -4.907321453094482422e+00
4.771000000000000000e+03 6.448883056640625000e+01 -5.665035247802734375e+00 7.087561607360839844e+00 1.436770343780517578e+01 6.436579227447509766e+00 1.656280875205993652e+00
4.772000000000000000e+03 6.282092285156250000e+01 -2.619243860244750977e+00 -7.191025018692016602e-01 1.305974769592285156e+01 3.702193498611450195e+00 -2.284138202667236328e+00
4.773000000000000000e+03 5.494969844818115234e+00 3.513807296752929688e+01 9.982980042695999146e-02 -7.512890100479125977e-01 -1.954377591609954834e-01 1.931160390377044678e-01
4.774000000000000000e+03 6.342259216308593750e+01 -3.958454370498657227e+00 6.452645063400268555e-01 1.646110153198242188e+01 5.131909847259521484e+00 -1.663945466279983521e-01
4.775000000000000000e+03 8.445271492004394531e+00 -2.680237388610839844e+01 2.993130497634410858e-02 -3.737758398056030273e-01 -1.031533628702163696e-01 -2.877046763896942139e-01
4.776000000000000000e+03 5.746881866455078125e+01 -1.144804668426513672e+01 4.544592499732971191e-01 2.345878601074218750e+00 8.401013612747192383e-01 2.320898294448852539e+00
4.777000000000000000e+03 6.233396148681640625e+01 -2.460697412490844727e+00 -6.891926527023315430e-01 1.199427032470703125e+01 3.391523361206054688e+00 -3.158125400543212891e+00
4.778000000000000000e+03 6.262818145751953125e+01 -2.732215166091918945e+00 -6.613974571228027344e-01 1.298691082000732422e+01 3.697654008865356445e+00 -2.681277036666870117e+00
4.779000000000000000e+03 6.179601669311523438e+01 -9.554946899414062500e+00 -3.877446986734867096e-03 1.149850845336914062e+01 3.448389291763305664e+00 4.392690181732177734e+00
4.780000000000000000e+03 5.580963134765625000e+01 -2.571650266647338867e+00 -4.681763648986816406e-01 7.502218484878540039e-01 8.461363613605499268e-02 -1.059297680854797363e+00
4.781000000000000000e+03 6.272277069091796875e+01 -2.183613538742065430e+00 -8.252074718475341797e-01 1.223248100280761719e+01 3.422182083129882812e+00 -2.447467327117919922e+00
4.782000000000000000e+03 6.135515213012695312e+01 -1.017529582977294922e+01 4.720986634492874146e-02 9.384811401367187500e+00 2.829606533050537109e+00 4.306298732757568359e+00
4.783000000000000000e+03 6.500778961181640625e+01 -4.624921798706054688e+00 3.818172931671142578e+00 1.361131477355957031e+01 5.228846549987792969e+00 1.899632692337036133e+00
4.784000000000000000e+03 6.538468170166015625e+01 -4.988519668579101562e+00 4.609108924865722656e+00 1.277180576324462891e+01 5.214274406433105469e+00 1.671936869621276855e+00
4.785000000000000000e+03 2.144899368286132812e+01 -1.828217697143554688e+01 -3.078542351722717285e-01 -1.142019554972648621e-01 -1.266168504953384399e-01 -4.256322085857391357e-01
4.786000000000000000e+03 6.496715545654296875e+01 -7.896161556243896484e+00 4.541238784790039062e+00 1.368748378753662109e+01 5.468616485595703125e+00 -1.898205161094665527e+00
4.787000000000000000e+03 6.493435668945312500e+01 -8.504920005798339844e+00 3.010951042175292969e+00 1.382195568084716797e+01 5.049871921539306641e+00 -1.799723505973815918e+00
4.788000000000000000e+03 6.578423309326171875e+01 -8.129587173461914062e+00 3.759765863418579102e+00 1.220590305328369141e+01 4.789700508117675781e+00 -1.652155637741088867e+00
4.789000000000000000e+03 5.819426345825195312e+01 -1.077081871032714844e+01 5.967058539390563965e-01 2.681951522827148438e+00 9.835972189903259277e-01 2.661597251892089844e+00
4.790000000000000000e+03 5.856980514526367188e+01 -1.048835277557373047e+01 7.152891159057617188e-01 2.945982694625854492e+00 1.098381519317626953e+00 2.888805627822875977e+00
4.791000000000000000e+03 6.467594909667968750e+01 -8.172643661499023438e+00 3.766550779342651367e+00 1.444926834106445312e+01 5.464745521545410156e+00 -1.989513754844665527e+00
4.792000000000000000e+03 6.355051422119140625e+01 -1.017559528350830078e+01 -4.932833909988403320e-01 1.362020969390869141e+01 3.938077926635742188e+00 9.926006793975830078e-01
4.793000000000000000e+03 4.894553375244140625e+01 2.812125587463378906e+01 4.417666792869567871e-01 2.794146537780761719e+00 9.707739353179931641e-01 -2.571594417095184326e-01
4.794000000000000000e+03 5.185564804077148438e+01 2.787304878234863281e+01 3.804529905319213867e-01 3.275457859039306641e+00 1.096773266792297363e+00 -3.198081254959106445e-01
4.795000000000000000e+03 5.503826141357421875e+01 -2.563246536254882812e+01 2.420081794261932373e-01 3.586349010467529297e+00 1.148507118225097656e+00 8.779342174530029297e-01
4.796000000000000000e+03 7.040705680847167969e+00 -2.632004547119140625e+01 2.864297013729810715e-03 -3.429848849773406982e-01 -1.020361781120300293e-01 -2.664060890674591064e-01
4.797000000000000000e+03 6.032913970947265625e+01 -3.608066320419311523e+00 1.350419282913208008e+00 5.313348293304443359e+00 1.999130368232727051e+00 -4.585408210754394531e+00
4.798000000000000000e+03 6.391168594360351562e+01 -9.489589691162109375e+00 3.082394003868103027e-01 1.464480686187744141e+01 4.485913753509521484e+00 -7.301380485296249390e-02
4.799000000000000000e+03 6.184839248657226562e+01 -1.027919101715087891e+01 -3.637072443962097168e-01 1.077484798431396484e+01 3.123342037200927734e+00 3.766532897949218750e+00
4.800000000000000000e+03 6.205973434448242188e+01 -1.008885860443115234e+01 -4.140595495700836182e-01 1.164394187927246094e+01 3.368964672088623047e+00 3.620368719100952148e+00
4.801000000000000000e+03 5.761465072631835938e+01 -1.659369945526123047e+00 3.855337500572204590e-01 2.281489372253417969e+00 8.001069426536560059e-01 -2.359352827072143555e+00
4.802000000000000000e+03 5.627722167968750000e+01 -1.505681037902832031e+00 8.276955783367156982e-02 1.437873601913452148e+00 4.561929404735565186e-01 -1.619237661361694336e+00
4.803000000000000000e+03 5.698666000366210938e+01 -1.577184438705444336e+00 2.736082971096038818e-01 1.862035393714904785e+00 6.406930685043334961e-01 -2.010264635086059570e+00
4.804000000000000000e+03 5.451631164550781250e+01 -2.895678997039794922e+00 -1.056306958198547363e+00 3.596939742565155029e-01 -2.089838832616806030e-01 -5.180314779281616211e-01
4.805000000000000000e+03 9.810409545898437500e+00 -2.530120277404785156e+01 -8.893701597116887569e-04 -3.819787502288818359e-01 -1.148604303598403931e-01 -3.133843243122100830e-01
4.806000000000000000e+03 6.213983154296875000e+01 -1.036741733551025391e+01 -5.410485863685607910e-01 1.132485961914062500e+01 3.235143184661865234e+00 3.379235029220581055e+00
4.807000000000000000e+03 2.179702377319335938e+01 -2.004461097717285156e+01 -2.184167951345443726e-01 -1.386656761169433594e-01 -1.071247458457946777e-01 -4.162722826004028320e-01
4.808000000000000000e+03 6.026640319824218750e+01 -3.232229948043823242e+00 1.073161602020263672e+00 5.603067398071289062e+00 2.002868652343750000e+00 -4.437910556793212891e+00
4.809000000000000000e+03 6.389200973510742188e+01 -1.063147258758544922e+01 -5.793082118034362793e-01 1.295223236083984375e+01 3.711877346038818359e+00 6.858107447624206543e-01
4.810000000000000000e+03 6.039536666870117188e+01 -2.679255723953247070e+00 6.650444865226745605e-01 6.360201358795166016e+00 2.107573747634887695e+00 -4.346983432769775391e+00
4.811000000000000000e+03 6.164071273803710938e+01 -1.996859073638916016e+00 -4.365116059780120850e-01 9.774846076965332031e+00 2.801500320434570312e+00 -3.734671115875244141e+00
4.812000000000000000e+03 6.095611953735351562e+01 -2.396587848663330078e+00 1.462869346141815186e-01 8.219739913940429688e+00 2.509808063507080078e+00 -4.285114765167236328e+00
4.813000000000000000e+03 6.105124282836914062e+01 -2.615724563598632812e+00 1.907460391521453857e-01 8.475174903869628906e+00 2.599776029586791992e+00 -4.438346385955810547e+00
4.814000000000000000e+03 4.351279830932617188e+01 2.215520095825195312e+01 4.169456064701080322e-01 1.691162586212158203e+00 6.324324607849121094e-01 -1.370124369859695435e-01
4.815000000000000000e+03 6.547879791259765625e+01 -8.234220504760742188e+00 3.706751585006713867e+00 1.272692012786865234e+01 4.930101394653320312e+00 -1.806703090667724609e+00
4.816000000000000000e+03 6.494506072998046875e+01 -8.201107025146484375e+00 3.672000646591186523e+00 1.383542728424072266e+01 5.252228260040283203e+00 -1.898468613624572754e+00
4.817000000000000000e+03 6.521347808837890625e+01 -8.499041557312011719e+00 3.131426811218261719e+00 1.338607501983642578e+01 4.955250740051269531e+00 -1.781988739967346191e+00
4.818000000000000000e+03 7.331176757812500000e+01 -2.745263290405273438e+01 -2.134482711553573608e-01 7.901151657104492188e+00 2.306310892105102539e+00 -2.118295580148696899e-01
4.819000000000000000e+03 2.449155998229980469e+01 2.559562921524047852e+00 -2.988615036010742188e-01 -3.289038538932800293e-01 -1.883296072483062744e-01 5.977382063865661621e-01
4.820000000000000000e+03 5.964201736450195312e+01 -1.201140975952148438e+01 1.794111877679824829e-01 5.451991081237792969e+00 1.689420700073242188e+00 3.311382770538330078e+00
4.821000000000000000e+03 2.958069801330566406e+01 1.082745933532714844e+01 -3.070338964462280273e-01 -4.406174272298812866e-02 -1.053286865353584290e-01 6.385766267776489258e-01
4.822000000000000000e+03 7.144874572753906250e+01 2.526518058776855469e+01 -2.925474755465984344e-02 7.193784713745117188e+00 2.149358987808227539e+00 -1.707728058099746704e-01
4.823000000000000000e+03 2.737478065490722656e+01 -2.351925086975097656e+01 6.257592141628265381e-02 -8.028364926576614380e-02 -5.312318913638591766e-03 -4.325120449066162109e-01
4.824000000000000000e+03 2.349647521972656250e+01 -2.300586700439453125e+01 -3.023314848542213440e-02 -1.477384716272354126e-01 -5.339148640632629395e-02 -4.131235778331756592e-01
4.825000000000000000e+03 2.704529571533203125e+01 6.132123470306396484e+00 -4.029703736305236816e-01 -2.251314520835876465e-01 -1.884305477142333984e-01 7.380381822586059570e-01
4.826000000000000000e+03 6.016700744628906250e+01 -2.389076948165893555e+00 5.897368788719177246e-01 5.815430641174316406e+00 1.921550273895263672e+00 -4.113672733306884766e+00
4.827000000000000000e+03 4.555637741088867188e+01 2.154857254028320312e+01 4.065954089164733887e-01 1.986297726631164551e+00 7.178679704666137695e-01 -2.180564850568771362e-01
4.828000000000000000e+03 4.510482025146484375e+01 1.956397056579589844e+01 3.922906219959259033e-01 1.833236575126647949e+00 6.676581501960754395e-01 -2.065002620220184326e-01
4.829000000000000000e+03 7.488685607910156250e+01 -2.601891326904296875e+01 -1.741659939289093018e-01 8.076258659362792969e+00 2.370627880096435547e+00 -2.907806038856506348e-01
4.830000000000000000e+03 7.258281707763671875e+01 -2.666003990173339844e+01 -2.700424790382385254e-01 7.840424537658691406e+00 2.271114587783813477e+00 -2.304490357637405396e-01
4.831000000000000000e+03 7.062490081787109375e+01 -2.524778747558593750e+01 -4.347091317176818848e-01 7.691489696502685547e+00 2.177034139633178711e+00 -2.010857164859771729e-01
4.832000000000000000e+03 2.484469223022460938e+01 1.280389189720153809e+00 -3.038358390331268311e-01 -2.579087316989898682e-01 -1.685233712196350098e-01 5.466777086257934570e-01
4.833000000000000000e+03 6.128767013549804688e+01 -2.156203269958496094e+00 -1.861671507358551025e-01 8.932366371154785156e+00 2.623859882354736328e+00 -3.998048543930053711e+00
4.834000000000000000e+03 6.140798187255859375e+01 -1.241430044174194336e+00 -5.050879716873168945e-01 8.833142280578613281e+00 2.498416423797607422e+00 -3.449005603790283203e+00
4.835000000000000000e+03 6.136155319213867188e+01 -1.927258014678955078e+00 -2.690086066722869873e-01 9.025887489318847656e+00 2.627063751220703125e+00 -3.870463371276855469e+00
4.836000000000000000e+03 5.780623245239257812e+01 -1.257587146759033203e+01 3.811386525630950928e-01 3.245293855667114258e+00 1.087929725646972656e+00 2.558194637298583984e+00
4.837000000000000000e+03 6.231225967407226562e+01 -1.108808231353759766e+01 -7.539018988609313965e-01 1.078205680847167969e+01 3.008446455001831055e+00 2.858006715774536133e+00
4.838000000000000000e+03 6.249422073364257812e+01 -1.068714809417724609e+01 -7.488740682601928711e-01 1.168123435974121094e+01 3.279708147048950195e+00 2.789257764816284180e+00
4.839000000000000000e+03 6.174622726440429688e+01 -1.144330024719238281e+01 -5.897487998008728027e-01 9.516104698181152344e+00 2.677906751632690430e+00 3.256183624267578125e+00
4.840000000000000000e+03 6.085316848754882812e+01 -1.172702693939208984e+01 -1.979442089796066284e-01 7.612040519714355469e+00 2.224228858947753906e+00 3.524738311767578125e+00
4.841000000000000000e+03 5.958091735839843750e+01 -1.188394069671630859e+00 2.927403151988983154e-01 5.199903964996337891e+00 1.647793292999267578e+00 -3.509607553482055664e+00
4.842000000000000000e+03 5.942888259887695312e+01 -1.172231674194335938e+01 3.621903359889984131e-01 5.000133514404296875e+00 1.608697175979614258e+00 3.375563859939575195e+00
4.843000000000000000e+03 6.706214904785156250e+01 -7.251132965087890625e+00 4.041180133819580078e+00 1.049429035186767578e+01 4.360641002655029297e+00 -7.401486635208129883e-01
4.844000000000000000e+03 3.439275360107421875e+01 1.461428833007812500e+01 1.540741510689258575e-02 3.853826522827148438e-01 1.202370226383209229e-01 3.934102654457092285e-01
4.845000000000000000e+03 7.258045959472656250e+01 2.577186393737792969e+01 -2.113104611635208130e-02 7.404356002807617188e+00 2.214967489242553711e+00 -1.411352008581161499e-01
4.846000000000000000e+03 6.795935821533203125e+01 2.025161170959472656e+01 -1.630836576223373413e-01 6.750064849853515625e+00 1.976094365119934082e+00 -2.571500539779663086e-01
4.847000000000000000e+03 6.719174957275390625e+01 -6.533756256103515625e+00 4.230515480041503906e+00 1.028997898101806641e+01 4.356148242950439453e+00 -1.137623265385627747e-01
4.848000000000000000e+03 6.499855041503906250e+01 -1.030302143096923828e+01 2.508484125137329102e-01 1.277353572845458984e+01 3.907315254211425781e+00 -6.735312938690185547e-01
4.849000000000000000e+03 6.497676849365234375e+01 -9.989955902099609375e+00 6.059409976005554199e-01 1.307110404968261719e+01 4.103113651275634766e+00 -8.749318718910217285e-01
4.850000000000000000e+03 6.511311340332031250e+01 -1.067767620086669922e+01 -1.220538187772035599e-02 1.241498374938964844e+01 3.720833539962768555e+00 -5.474237203598022461e-01
4.851000000000000000e+03 2.615042877197265625e+01 -2.050543594360351562e+01 -1.301800459623336792e-01 -7.995206117630004883e-02 -6.303963065147399902e-02 -4.736028313636779785e-01
4.852000000000000000e+03 6.684847259521484375e+01 -6.983679771423339844e+00 4.283486843109130859e+00 1.060800933837890625e+01 4.467448711395263672e+00 -5.362786650657653809e-01
4.853000000000000000e+03 7.258801269531250000e+01 -2.418910980224609375e+01 -3.663395345211029053e-01 7.926705360412597656e+00 2.268109798431396484e+00 -3.768017888069152832e-01
4.854000000000000000e+03 7.219338226318359375e+01 -2.325893020629882812e+01 -4.100079834461212158e-01 7.946123600006103516e+00 2.260834693908691406e+00 -4.266342520713806152e-01
4.855000000000000000e+03 7.265863800048828125e+01 2.224989700317382812e+01 -6.418437510728836060e-02 7.506367206573486328e+00 2.232654809951782227e+00 -1.101042106747627258e-01
4.856000000000000000e+03 2.664122772216796875e+01 -1.435026264190673828e+01 -5.416440367698669434e-01 -2.187245339155197144e-02 -1.690549552440643311e-01 -4.787480831146240234e-01
4.857000000000000000e+03 6.080171585083007812e+01 -2.153691768646240234e+00 9.763685613870620728e-02 7.819515228271484375e+00 2.375145673751831055e+00 -4.128063678741455078e+00
4.858000000000000000e+03 5.958488464355468750e+01 -7.614629864692687988e-01 1.434280276298522949e-01 5.270534515380859375e+00 1.624188780784606934e+00 -3.360066652297973633e+00
4.859000000000000000e+03 5.983332824707031250e+01 -7.375685572624206543e-01 4.775224253535270691e-02 5.772444248199462891e+00 1.746058940887451172e+00 -3.445957899093627930e+00
4.860000000000000000e+03 6.743592071533203125e+01 -5.919061660766601562e+00 3.978819131851196289e+00 1.013212013244628906e+01 4.233282089233398438e+00 3.752146065235137939e-01
4.861000000000000000e+03 6.026472854614257812e+01 -1.368952846527099609e+01 -3.138744533061981201e-01 6.363599777221679688e+00 1.814917564392089844e+00 2.823835372924804688e+00
4.862000000000000000e+03 6.902099609375000000e+01 -2.235545921325683594e+01 -6.527664661407470703e-01 7.867537498474121094e+00 2.164431333541870117e+00 -1.794459670782089233e-01
4.863000000000000000e+03 6.162139129638671875e+01 -1.202708244323730469e+01 -6.280947327613830566e-01 8.958648681640625000e+00 2.499166250228881836e+00 3.054608821868896484e+00
4.864000000000000000e+03 5.839165115356445312e+01 -1.212781238555908203e+01 3.828583657741546631e-01 3.730406284332275391e+00 1.233979344367980957e+00 2.813799142837524414e+00
4.865000000000000000e+03 5.778216171264648438e+01 -1.333217144012451172e+01 2.823622524738311768e-01 3.544246435165405273e+00 1.147982597351074219e+00 2.487777233123779297e+00
4.866000000000000000e+03 6.270579528808593750e+01 -1.359410762786865234e+00 -9.373382329940795898e-01 1.104393291473388672e+01 3.031978607177734375e+00 -2.375076055526733398e+00
4.867000000000000000e+03 2.812450027465820312e+01 -1.746257591247558594e+01 -3.345077931880950928e-01 -3.568460419774055481e-02 -1.110577210783958435e-01 -5.152512788772583008e-01
4.868000000000000000e+03 5.841023254394531250e+01 -1.272111129760742188e+01 2.894961833953857422e-01 4.010727882385253906e+00 1.290067315101623535e+00 2.792126417160034180e+00
4.869000000000000000e+03 5.838072967529296875e+01 -1.866054153442382812e+01 -1.717967391014099121e-01 4.812877655029296875e+00 1.392324328422546387e+00 1.731690526008605957e+00
4.870000000000000000e+03 6.196400070190429688e+01 -8.736048340797424316e-01 -7.730721235275268555e-01 9.494040489196777344e+00 2.616290330886840820e+00 -2.893323659896850586e+00
4.871000000000000000e+03 5.986694335937500000e+01 -4.414674341678619385e-01 -3.162060678005218506e-02 5.954148769378662109e+00 1.776758432388305664e+00 -3.337059259414672852e+00
4.872000000000000000e+03 2.874152374267578125e+01 -1.463034343719482422e+01 -5.652247667312622070e-01 -3.011027351021766663e-02 -1.786005198955535889e-01 -4.924978017807006836e-01
4.873000000000000000e+03 7.178718566894531250e+01 -2.241007804870605469e+01 -4.737121462821960449e-01 7.987552165985107422e+00 2.254152059555053711e+00 -4.712804853916168213e-01
4.874000000000000000e+03 7.278840637207031250e+01 1.822796630859375000e+01 -1.528832018375396729e-01 7.623622417449951172e+00 2.241221666336059570e+00 -2.074929326772689819e-02
4.875000000000000000e+03 3.311620330810546875e+01 1.283149909973144531e+01 -1.028025373816490173e-01 2.243573516607284546e-01 3.646644577383995056e-02 4.989627897739410400e-01
4.876000000000000000e+03 6.064072036743164062e+01 -1.377151203155517578e+01 -4.861783385276794434e-01 6.979945182800292969e+00 1.948130130767822266e+00 2.771325349807739258e+00
4.877000000000000000e+03 6.864596557617187500e+01 -4.675722122192382812e+00 2.648886919021606445e+00 9.503632545471191406e+00 3.645755767822265625e+00 9.478552937507629395e-01
4.878000000000000000e+03 7.272838592529296875e+01 -1.887742614746093750e+01 -4.303518831729888916e-01 8.130183219909667969e+00 2.309949636459350586e+00 -8.228811025619506836e-01
4.879000000000000000e+03 5.589760208129882812e+01 -1.379496669769287109e+01 2.721999585628509521e-01 2.295506000518798828e+00 7.703117728233337402e-01 1.807885646820068359e+00
4.880000000000000000e+03 6.246879196166992188e+01 -1.137414646148681641e+01 -8.363134860992431641e-01 1.074100780487060547e+01 2.971408128738403320e+00 2.649804115295410156e+00
4.881000000000000000e+03 2.743270492553710938e+01 2.112502813339233398e+00 -4.204133450984954834e-01 -1.637091636657714844e-01 -1.752367615699768066e-01 6.574523448944091797e-01
4.882000000000000000e+03 7.157455444335937500e+01 1.824035263061523438e+01 -1.810827255249023438e-01 7.443086624145507812e+00 2.178601026535034180e+00 -5.871535092592239380e-02
4.883000000000000000e+03 6.226367568969726562e+01 -1.287484931945800781e+01 -9.052000045776367188e-01 9.242755889892578125e+00 2.501266717910766602e+00 2.411317348480224609e+00
4.884000000000000000e+03 5.867624282836914062e+01 -1.751063728332519531e+01 -2.008015513420104980e-01 4.912089824676513672e+00 1.413386464118957520e+00 1.948575139045715332e+00
4.885000000000000000e+03 6.297918319702148438e+01 -6.900817751884460449e-01 -1.024980068206787109e+00 1.056503582000732422e+01 2.862016677856445312e+00 -1.987559676170349121e+00
4.886000000000000000e+03 4.966600799560546875e+01 -1.745355033874511719e+01 1.867135167121887207e-01 1.058560252189636230e+00 3.735821545124053955e-01 5.342479944229125977e-01
4.887000000000000000e+03 6.897299194335937500e+01 -4.978116035461425781e+00 2.644989252090454102e+00 9.281750679016113281e+00 3.578022003173828125e+00 7.525471448898315430e-01
4.888000000000000000e+03 6.830099487304687500e+01 -3.747420549392700195e+00 2.074262380599975586e+00 9.903367042541503906e+00 3.593288898468017578e+00 1.267256855964660645e+00
4.889000000000000000e+03 6.527406311035156250e+01 1.180321931838989258e+00 -1.080733537673950195e+00 1.011957263946533203e+01 2.711651563644409180e+00 -3.501103818416595459e-01
4.890000000000000000e+03 6.420704650878906250e+01 4.135830402374267578e-01 -1.146969318389892578e+00 1.043882942199707031e+01 2.787558078765869141e+00 -9.733883738517761230e-01
4.891000000000000000e+03 6.055670547485351562e+01 -1.422731876373291016e+01 -4.880547821521759033e-01 6.784649848937988281e+00 1.888978481292724609e+00 2.625629663467407227e+00
4.892000000000000000e+03 6.079605484008789062e+01 -1.483808231353759766e+01 -5.626474618911743164e-01 6.871157646179199219e+00 1.892553091049194336e+00 2.382272958755493164e+00
4.893000000000000000e+03 6.892461395263671875e+01 -6.769515037536621094e+00 2.990349054336547852e+00 9.233110427856445312e+00 3.667037963867187500e+00 -2.282538115978240967e-01
4.894000000000000000e+03 6.250028610229492188e+01 -1.183482170104980469e+01 -9.012392759323120117e-01 1.035213088989257812e+01 2.835267543792724609e+00 2.482595682144165039e+00
4.895000000000000000e+03 7.228012847900390625e+01 -9.783970832824707031e+00 9.713122844696044922e-01 8.021549224853515625e+00 2.697858333587646484e+00 -9.801906943321228027e-01
4.896000000000000000e+03 7.177590942382812500e+01 -1.046412944793701172e+01 8.339414596557617188e-01 8.265907287597656250e+00 2.729954719543457031e+00 -1.133422970771789551e+00
4.897000000000000000e+03 5.711554718017578125e+01 -1.440401840209960938e+01 2.123532146215438843e-01 3.303274869918823242e+00 1.054688453674316406e+00 2.181177854537963867e+00
4.898000000000000000e+03 6.819763946533203125e+01 -1.115633964538574219e+00 3.339544534683227539e-01 1.010363101959228516e+01 3.131275653839111328e+00 1.267868638038635254e+00
4.899000000000000000e+03 6.440853881835937500e+01 -1.773066139221191406e+01 -1.039088129997253418e+00 8.227663040161132812e+00 2.156572580337524414e+00 8.096606731414794922e-01
4.900000000000000000e+03 5.395668029785156250e+01 6.588783860206604004e-01 -1.605410315096378326e-02 1.289753079414367676e+00 3.821097016334533691e-01 -1.139101386070251465e+00
4.901000000000000000e+03 5.415573501586914062e+01 2.877300605177879333e-02 -9.202007204294204712e-02 1.155230998992919922e+00 3.189632594585418701e-01 -1.108842849731445312e+00
4.902000000000000000e+03 5.080883026123046875e+01 -1.654387092590332031e+01 1.543620079755783081e-01 1.130241751670837402e+00 3.853811025619506836e-01 6.740220785140991211e-01
4.903000000000000000e+03 3.985049819946289062e+01 -1.394272613525390625e+01 -8.006945848464965820e-01 4.269139841198921204e-02 -2.274009585380554199e-01 -3.993024230003356934e-01
4.904000000000000000e+03 6.255159759521484375e+01 -1.236464118957519531e+01 -9.462116956710815430e-01 9.995689392089843750e+00 2.714843273162841797e+00 2.248401403427124023e+00
4.905000000000000000e+03 7.075057983398437500e+01 -2.133840179443359375e+01 -5.849518179893493652e-01 8.060415267944335938e+00 2.242639064788818359e+00 -4.583431184291839600e-01
4.906000000000000000e+03 7.170619964599609375e+01 -1.867104530334472656e+01 -5.334675312042236328e-01 8.257053375244140625e+00 2.317075729370117188e+00 -7.737196087837219238e-01
4.907000000000000000e+03 3.694814682006835938e+01 -1.478050518035888672e+01 -6.504114270210266113e-01 1.265463512390851974e-02 -1.913270354270935059e-01 -4.599052965641021729e-01
4.908000000000000000e+03 6.834296417236328125e+01 -1.098307132720947266e+01 7.693957686424255371e-01 1.002931118011474609e+01 3.239612102508544922e+00 -1.377272844314575195e+00
4.909000000000000000e+03 6.402980041503906250e+01 1.332357406616210938e+00 -1.188975095748901367e+00 9.739565849304199219e+00 2.565177202224731445e+00 -1.098397374153137207e+00
4.910000000000000000e+03 6.857700347900390625e+01 -6.491210460662841797e+00 3.145183324813842773e+00 9.355916976928710938e+00 3.750330209732055664e+00 -3.500692173838615417e-02
4.911000000000000000e+03 5.916902542114257812e+01 1.471356391906738281e+00 -1.667438894510269165e-01 5.294508457183837891e+00 1.538329482078552246e+00 -2.695282459259033203e+00
4.912000000000000000e+03 5.823673248291015625e+01 2.108678102493286133e+00 -2.903630584478378296e-02 4.346925735473632812e+00 1.295366764068603516e+00 -2.427875280380249023e+00
4.913000000000000000e+03 6.106569290161132812e+01 3.257115185260772705e-01 -5.891435742378234863e-01 7.628556728363037109e+00 2.111823797225952148e+00 -2.924427747726440430e+00
4.914000000000000000e+03 6.101191329956054688e+01 6.901479363441467285e-01 -6.338453292846679688e-01 7.511718273162841797e+00 2.063361883163452148e+00 -2.775193452835083008e+00
4.915000000000000000e+03 6.814169311523437500e+01 3.973657190799713135e-01 -2.712354958057403564e-01 9.850550651550292969e+00 2.873794555664062500e+00 1.004284262657165527e+00
4.916000000000000000e+03 6.759552001953125000e+01 1.230991125106811523e+00 -6.424650549888610840e-01 9.818025588989257812e+00 2.752668142318725586e+00 6.648098230361938477e-01
4.917000000000000000e+03 6.720701599121093750e+01 8.925514221191406250e-01 -6.406817436218261719e-01 1.004666996002197266e+01 2.821796417236328125e+00 6.170715093612670898e-01
4.918000000000000000e+03 5.765444183349609375e+01 -1.451616668701171875e+01 1.594632565975189209e-01 3.757658958435058594e+00 1.175136685371398926e+00 2.324991941452026367e+00
4.919000000000000000e+03 5.806624221801757812e+01 -1.530420589447021484e+01 2.456864714622497559e-02 4.319621086120605469e+00 1.303256869316101074e+00 2.294216394424438477e+00
4.920000000000000000e+03 6.854411315917968750e+01 9.255730628967285156e+00 -7.507671713829040527e-01 7.844981670379638672e+00 2.128264427185058594e+00 4.296147823333740234e-02
4.921000000000000000e+03 5.885854721069335938e+01 -1.649300193786621094e+01 -1.957480162382125854e-01 5.072745323181152344e+00 1.463099241256713867e+00 2.136403322219848633e+00
4.922000000000000000e+03 7.116656494140625000e+01 -1.083923625946044922e+01 7.989804744720458984e-01 8.612746238708496094e+00 2.823518037796020508e+00 -1.267333388328552246e+00
4.923000000000000000e+03 6.950791168212890625e+01 -1.909072303771972656e+01 -7.534164786338806152e-01 8.383337974548339844e+00 2.288976430892944336e+00 -4.708504676818847656e-01
4.924000000000000000e+03 5.940903472900390625e+01 -1.490530776977539062e+01 -2.190183401107788086e-01 5.504964828491210938e+00 1.585783958435058594e+00 2.463542222976684570e+00
4.925000000000000000e+03 7.035068511962890625e+01 -5.244575977325439453e+00 2.119120836257934570e+00 8.596323013305664062e+00 3.214632987976074219e+00 5.008352994918823242e-01
4.926000000000000000e+03 6.935283660888671875e+01 -8.746016621589660645e-01 3.723869919776916504e-01 9.448666572570800781e+00 2.946316003799438477e+00 1.304521441459655762e+00
4.927000000000000000e+03 6.106316375732421875e+01 9.649059176445007324e-01 -6.660005450248718262e-01 7.463940143585205078e+00 2.039381980895996094e+00 -2.695437908172607422e+00
4.928000000000000000e+03 5.732932662963867188e+01 -1.638348388671875000e+01 6.581549346446990967e-02 3.920792102813720703e+00 1.195982217788696289e+00 2.025624036788940430e+00
4.929000000000000000e+03 5.983762741088867188e+01 -1.494687652587890625e+01 -3.291526138782501221e-01 6.002801418304443359e+00 1.702094674110412598e+00 2.524643659591674805e+00
4.930000000000000000e+03 5.639152908325195312e+01 -1.483649730682373047e+01 2.248993366956710815e-01 2.951281070709228516e+00 9.528540968894958496e-01 1.967567205429077148e+00
4.931000000000000000e+03 6.312957000732421875e+01 2.261090040206909180e+00 -1.128921031951904297e+00 8.741348266601562500e+00 2.283728122711181641e+00 -1.540013313293457031e+00
4.932000000000000000e+03 7.005782318115234375e+01 -1.810838317871093750e+01 -6.861191391944885254e-01 8.509550094604492188e+00 2.347029447555541992e+00 -6.653723120689392090e-01
4.933000000000000000e+03 5.965132141113281250e+01 -1.538385009765625000e+01 -3.173967301845550537e-01 5.730107307434082031e+00 1.623813152313232422e+00 2.397865533828735352e+00
4.934000000000000000e+03 6.327935791015625000e+01 -1.378442859649658203e+01 -1.090007305145263672e+00 9.551191329956054688e+00 2.538355350494384766e+00 1.552333712577819824e+00
4.935000000000000000e+03 4.986645889282226562e+01 -1.520900249481201172e+01 -8.620838820934295654e-02 7.208037972450256348e-01 1.903786212205886841e-01 4.127015173435211182e-01
4.936000000000000000e+03 6.912641906738281250e+01 3.587531745433807373e-01 -1.102530807256698608e-01 9.476665496826171875e+00 2.809923648834228516e+00 1.156778931617736816e+00
4.937000000000000000e+03 6.882802581787109375e+01 7.395346760749816895e-01 -2.921624481678009033e-01 9.511704444885253906e+00 2.765862464904785156e+00 1.031716108322143555e+00
4.938000000000000000e+03 3.101547622680664062e+01 1.047198534011840820e+00 -5.861206650733947754e-01 -3.383604437112808228e-02 -1.859870105981826782e-01 6.534199714660644531e-01
4.939000000000000000e+03 3.296281814575195312e+01 -1.414401978254318237e-01 -7.389373183250427246e-01 8.528813719749450684e-03 -2.191225439310073853e-01 6.051424741744995117e-01
4.940000000000000000e+03 7.084889984130859375e+01 -1.762684631347656250e+01 -5.875011682510375977e-01 8.475353240966796875e+00 2.366355657577514648e+00 -8.121484518051147461e-01
4.941000000000000000e+03 6.363759613037109375e+01 1.681495308876037598e+00 -1.165964722633361816e+00 9.314883232116699219e+00 2.444675445556640625e+00 -1.306070804595947266e+00
4.942000000000000000e+03 6.281406021118164062e+01 2.667033672332763672e+00 -1.057887196540832520e+00 8.285410881042480469e+00 2.168256998062133789e+00 -1.641100287437438965e+00
4.943000000000000000e+03 3.787852096557617188e+01 6.802258491516113281e+00 -2.275922447443008423e-01 2.923871874809265137e-01 1.943847723305225372e-02 5.268902778625488281e-01
4.944000000000000000e+03 4.692860794067382812e+01 5.238576412200927734e+00 -3.468067850917577744e-03 8.093999624252319336e-01 2.417795658111572266e-01 -1.371490359306335449e-01
4.945000000000000000e+03 6.391038894653320312e+01 2.713685989379882812e+00 -1.162711262702941895e+00 8.933633804321289062e+00 2.331276655197143555e+00 -1.115542769432067871e+00
4.946000000000000000e+03 6.073449707031250000e+01 1.924248695373535156e+00 -6.315336823463439941e-01 6.874132156372070312e+00 1.872779607772827148e+00 -2.491819143295288086e+00
4.947000000000000000e+03 6.103687286376953125e+01 1.495866537094116211e+00 -6.831406354904174805e-01 7.261414051055908203e+00 1.973482012748718262e+00 -2.560670614242553711e+00
4.948000000000000000e+03 6.036042785644531250e+01 1.462453961372375488e+00 -4.814929962158203125e-01 6.534401416778564453e+00 1.815872550010681152e+00 -2.711557149887084961e+00
4.949000000000000000e+03 3.712070083618164062e+01 8.099391937255859375e+00 -1.689854711294174194e-01 3.107983171939849854e-01 4.254385083913803101e-02 5.274446010589599609e-01
4.950000000000000000e+03 3.292581939697265625e+01 1.002363562583923340e+00 -6.572231054306030273e-01 8.039808832108974457e-03 -1.947550028562545776e-01 6.526494622230529785e-01
4.951000000000000000e+03 6.432220458984375000e+01 -1.501789665222167969e+01 -1.116055727005004883e+00 9.308312416076660156e+00 2.457677125930786133e+00 8.728060722351074219e-01
4.952000000000000000e+03 6.933757019042968750e+01 -1.174360561370849609e+01 4.720843434333801270e-01 9.438882827758789062e+00 2.973290205001831055e+00 -1.336784482002258301e+00
4.953000000000000000e+03 3.660186767578125000e+01 4.039472103118896484e+00 -4.755924642086029053e-01 1.332793235778808594e-01 -1.026939451694488525e-01 6.372419595718383789e-01
4.954000000000000000e+03 6.717976379394531250e+01 8.072218894958496094e+00 -8.805454969406127930e-01 7.920540332794189453e+00 2.111998558044433594e+00 -1.436733454465866089e-01
4.955000000000000000e+03 4.816870880126953125e+01 4.050297737121582031e+00 -8.814153820276260376e-02 7.777740955352783203e-01 2.068897783756256104e-01 -2.180329561233520508e-01
4.956000000000000000e+03 6.904689025878906250e+01 -1.239242649078369141e+01 1.618714332580566406e-01 9.598054885864257812e+00 2.927978038787841797e+00 -1.263333201408386230e+00
4.957000000000000000e+03 3.657650756835937500e+01 3.159778594970703125e+00 -5.525091886520385742e-01 1.076636910438537598e-01 -1.334536373615264893e-01 6.400334835052490234e-01
4.958000000000000000e+03 6.298741531372070312e+01 7.262259960174560547e+00 -8.537065982818603516e-01 7.112889766693115234e+00 1.877754926681518555e+00 -1.115536689758300781e+00
4.959000000000000000e+03 6.793226623535156250e+01 3.876561164855957031e+00 -9.111344218254089355e-01 8.987306594848632812e+00 2.422851800918579102e+00 3.492548167705535889e-01
4.960000000000000000e+03 6.604023742675781250e+01 5.046442508697509766e+00 -1.070450544357299805e+00 8.515424728393554688e+00 2.233492136001586914e+00 -3.341138362884521484e-01
4.961000000000000000e+03 6.536402893066406250e+01 5.337005138397216797e+00 -1.060202240943908691e+00 8.316958427429199219e+00 2.177026987075805664e+00 -5.105310678482055664e-01
4.962000000000000000e+03 4.428276443481445312e+01 2.703299760818481445e+00 -4.609600007534027100e-01 3.272131085395812988e-01 -4.012407362461090088e-02 2.688062191009521484e-01
4.963000000000000000e+03 4.400474166870117188e+01 1.467364072799682617e+00 -7.024643421173095703e-01 2.092379778623580933e-01 -1.479679048061370850e-01 3.371955156326293945e-01
4.964000000000000000e+03 3.930109024047851562e+01 3.906954050064086914e+00 -4.600543379783630371e-01 1.973054260015487671e-01 -7.882466912269592285e-02 5.396703481674194336e-01
4.965000000000000000e+03 4.161389923095703125e+01 2.733769893646240234e+00 -5.552279353141784668e-01 2.093226462602615356e-01 -1.037715896964073181e-01 4.481356143951416016e-01
4.966000000000000000e+03 1.488040065765380859e+01 1.046121835708618164e+00 4.867883762926794589e-05 3.496536228340119123e-04 1.194997385027818382e-04 3.607157123042270541e-05
4.967000000000000000e+03 1.433596038818359375e+01 8.109902739524841309e-01 7.419745088554918766e-05 -5.569547647610306740e-05 5.550593868974829093e-06 2.836830972228199244e-04
4.968000000000000000e+03 1.339948463439941406e+01 9.943951964378356934e-01 2.608239010442048311e-04 -6.606888200622051954e-05 5.842649989062920213e-05 -2.210791762990993448e-06
4.969000000000000000e+03 1.399857616424560547e+01 1.078236818313598633e+00 -3.383753355592489243e-04 -1.159100138465873897e-04 -1.362856128253042698e-04 -8.076039375737309456e-05
4.970000000000000000e+03 1.342517852783203125e+01 2.516243755817413330e-01 -6.432431837311014533e-05 8.993352821562439203e-05 7.682763680350035429e-06 1.034617071127286181e-05
4.971000000000000000e+03 1.503903388977050781e+01 3.840551078319549561e-01 -4.173776687821373343e-05 -4.705163883045315742e-05 -2.663682244019582868e-05 -4.261119102011434734e-05
4.972000000000000000e+03 1.424006271362304688e+01 2.423980534076690674e-01 1.578827504999935627e-05 -6.262686383706750348e-06 2.857676690837251954e-06 -2.700504182939766906e-06
4.973000000000000000e+03 1.447602939605712891e+01 1.142013788223266602e+00 3.239122161176055670e-04 -4.548037395579740405e-05 8.352955046575516462e-05 6.977992597967386246e-05
4.974000000000000000e+03 1.113503360748291016e+01 3.384475409984588623e-01 -6.176898750709369779e-05 -1.702584122540429235e-04 -6.960822065593674779e-05 4.150969471083953977e-05
4.975000000000000000e+03 1.115649890899658203e+01 1.078244447708129883e+00 -3.331433108542114496e-04 3.304388155811466277e-05 -9.002983279060572386e-05 -2.678389428183436394e-04
4.976000000000000000e+03 1.038435840606689453e+01 3.729175329208374023e-01 -2.472262713126838207e-04 1.009723200695589185e-04 -4.387618537293747067e-05 -1.133377227233722806e-04
4.977000000000000000e+03 1.188578510284423828e+01 3.038018345832824707e-01 -1.278205163544043899e-04 2.010785101447254419e-04 2.197739559051115066e-05 -6.537030276376754045e-05
4.978000000000000000e+03 1.263660717010498047e+01 2.689834535121917725e-01 4.283116868464276195e-05 -1.876570895547047257e-04 -4.344777698861435056e-05 -2.030839141298201866e-06
4.979000000000000000e+03 1.266393947601318359e+01 1.008509635925292969e+00 -2.295185258844867349e-04 7.117549102986231446e-06 -6.672029121546074748e-05 -1.499479694757610559e-04
4.980000000000000000e+03 1.040289020538330078e+01 1.112849831581115723e+00 1.081685550161637366e-04 6.758178642485290766e-05 5.272509952192194760e-05 2.479079121258109808e-04
4.981000000000000000e+03 1.191018390655517578e+01 1.043463349342346191e+00 1.181374536827206612e-04 -3.041452691832091659e-05 2.631687857501674443e-05 6.253212632145732641e-05
4.982000000000000000e+03 9.630480766296386719e+00 3.871794641017913818e-01 -1.466783432988449931e-04 5.260332909529097378e-05 -2.822250462486408651e-05 1.253730151802301407e-04
4.983000000000000000e+03 8.873666763305664062e+00 3.829238712787628174e-01 -3.091830876655876637e-04 -2.401029341854155064e-04 -1.647858007345348597e-04 -1.785549102351069450e-04
4.984000000000000000e+03 9.660673141479492188e+00 1.127179503440856934e+00 -3.475041594356298447e-04 -1.800000172806903720e-04 -1.582512486493214965e-04 -4.185755969956517220e-04
4.985000000000000000e+03 8.116720199584960938e+00 3.805542886257171631e-01 -1.794453419279307127e-04 4.408849345054477453e-04 7.843187631806358695e-05 1.876608293969184160e-04
4.986000000000000000e+03 7.360193252563476562e+00 3.795430362224578857e-01 -3.517222066875547171e-04 -6.164631340652704239e-04 -2.904555876739323139e-04 -2.228717785328626633e-04
4.987000000000000000e+03 5.847065925598144531e+00 3.768712580204010010e-01 -3.445305628702044487e-04 -8.236797293648123741e-04 -3.504630876705050468e-04 -2.345642133150249720e-04
4.988000000000000000e+03 5.091114044189453125e+00 3.758820295333862305e-01 -1.409766409778967500e-04 8.316254825331270695e-04 2.071946510113775730e-04 2.493721840437501669e-04
4.989000000000000000e+03 3.579006433486938477e+00 3.681437373161315918e-01 -6.164950173115357757e-05 6.629612762480974197e-04 1.803935301722958684e-04 2.190103259636089206e-04
4.990000000000000000e+03 2.823871612548828125e+00 3.614119887351989746e-01 -1.895463501568883657e-04 -5.339849740266799927e-04 -2.170593943446874619e-04 -1.503126550232991576e-04
4.991000000000000000e+03 2.070111274719238281e+00 3.578882515430450439e-01 1.966023774002678692e-05 3.949476522393524647e-04 1.243823644472286105e-04 1.577665534568950534e-04
4.992000000000000000e+03 2.362852334976196289e+00 1.097888231277465820e+00 -1.391317928209900856e-04 -3.851322107948362827e-04 -1.572791952639818192e-04 -1.600671566848177463e-05
4.993000000000000000e+03 1.328713655471801758e+00 3.659794926643371582e-01 -5.668883386533707380e-05 -2.573324891272932291e-04 -9.420639980817213655e-05 -6.845451571280136704e-05
4.994000000000000000e+03 1.647709608078002930e+00 1.105979442596435547e+00 -8.558230547350831330e-06 3.013410314451903105e-04 8.783484372543171048e-05 9.611355199012905359e-05
4.995000000000000000e+03 6.516475677490234375e-01 3.939257264137268066e-01 2.900578874687198550e-05 9.733000479172915220e-05 3.790073969867080450e-05 3.148461109958589077e-05
4.996000000000000000e+03 3.489431142807006836e-01 9.570703506469726562e-01 4.534832260105758905e-05 4.114563853363506496e-05 2.594818943180143833e-05 -2.364650026720482856e-05
4.997000000000000000e+03 3.090358018875122070e+00 1.101411938667297363e+00 -4.996084044250892475e-06 4.750613588839769363e-04 1.410195836797356606e-04 1.605295983608812094e-04
4.998000000000000000e+03 3.819237709045410156e+00 1.108143687248229980e+00 -2.203602780355140567e-04 -5.509690381586551666e-04 -2.313987934030592442e-04 -7.419152098009362817e-05
4.999000000000000000e+03 4.335169315338134766e+00 3.733847737312316895e-01 -2.844155824277549982e-04 -7.653008797205984592e-04 -3.149149415548890829e-04 -2.014673664234578609e-04
5.000000000000000000e+03 6.008533000946044922e+00 1.116871237754821777e+00 -4.127272040932439268e-05 6.617757608182728291e-04 1.861509081209078431e-04 3.313384950160980225e-04
5.001000000000000000e+03 6.603851795196533203e+00 3.786112964153289795e-01 -1.793797855498269200e-04 7.562038372270762920e-04 1.730472285998985171e-04 2.394001057837158442e-04
5.002000000000000000e+03 8.930113792419433594e+00 1.122923851013183594e+00 3.427053161431103945e-05 3.108109231106936932e-04 1.035244349623098969e-04 3.832169750239700079e-04
5.003000000000000000e+03 8.199422836303710938e+00 1.120554327964782715e+00 -3.781984560191631317e-04 -4.116815107408910990e-04 -2.369639987591654062e-04 -4.471951397135853767e-04
5.004000000000000000e+03 7.469150543212890625e+00 1.119543075561523438e+00 -1.182837195301544853e-06 5.380241200327873230e-04 1.610523904673755169e-04 4.049541312269866467e-04
5.005000000000000000e+03 6.739063739776611328e+00 1.118611335754394531e+00 -3.520562895573675632e-04 -5.932238418608903885e-04 -2.835840277839452028e-04 -3.668054414447396994e-04
5.006000000000000000e+03 5.278835773468017578e+00 1.115882039070129395e+00 -2.874564379453659058e-04 -6.424844032153487206e-04 -2.789822465274482965e-04 -2.105901367031037807e-04
5.007000000000000000e+03 4.549146175384521484e+00 1.113384723663330078e+00 -4.812703991774469614e-05 6.345485453493893147e-04 1.759264414431527257e-04 2.281958441017195582e-04
5.008000000000000000e+03 9.968983530998229980e-01 1.133925795555114746e+00 -3.833761729765683413e-05 -3.042996977455914021e-04 -1.027911930577829480e-04 6.082007530494593084e-05
5.009000000000000000e+03 7.947246074676513672e+00 -3.790149092674255371e-01 -7.715611718595027924e-05 1.322540047112852335e-04 1.652936589380260557e-05 3.400904097361490130e-05
5.010000000000000000e+03 8.798082351684570312e+00 -1.121163964271545410e+00 -2.925401349784806371e-05 1.271280343644320965e-04 2.936220698757097125e-05 1.107726857298985124e-04
5.011000000000000000e+03 9.582462310791015625e+00 -3.862577378749847412e-01 -4.395721407490782440e-05 1.680842542555183172e-04 3.723811096278950572e-05 3.190142524545080960e-05
5.012000000000000000e+03 7.128131389617919922e+00 -3.778152763843536377e-01 -1.058837078744545579e-04 -9.943171608028933406e-05 -6.159462645882740617e-05 -2.485396180418320000e-05
5.013000000000000000e+03 6.302709579467773438e+00 -3.771458566188812256e-01 -1.041043651639483869e-04 6.535390275530517101e-05 -1.162513854069402441e-05 3.775709774345159531e-05
5.014000000000000000e+03 5.439445972442626953e+00 -3.834656774997711182e-01 -1.011021813610568643e-04 -1.913906999106984586e-05 -3.607237522373907268e-05 -5.312670327839441597e-05
5.015000000000000000e+03 4.549984931945800781e+00 -3.402172923088073730e-01 -4.281652581994421780e-05 -1.146225713455351070e-05 -1.628363497729878873e-05 2.775728535198140889e-05
5.016000000000000000e+03 4.365737915039062500e+00 -8.721476197242736816e-01 -2.540393033996224403e-04 3.917093999916687608e-05 -6.446050974773243070e-05 -8.714612340554594994e-05
5.017000000000000000e+03 2.784216165542602539e+00 -7.810403704643249512e-01 -1.167275258922018111e-04 4.308543066144920886e-05 -2.209262675023637712e-05 -1.414789876434952021e-04
5.018000000000000000e+03 1.180924773216247559e+00 -3.613742887973785400e-01 5.312165740178897977e-05 -2.081585807900410146e-05 9.691740160633344203e-06 2.242454684164840728e-05
5.019000000000000000e+03 4.100910127162933350e-01 -5.529776215553283691e-01 -1.038376740325475112e-05 -2.963718998216791078e-06 -4.004245965916197747e-06 -8.996790711535140872e-06
5.020000000000000000e+03 7.475960254669189453e-01 -1.101374268531799316e+00 -1.869335101218894124e-04 4.744707985082641244e-05 -4.184593126410618424e-05 -2.364093415962997824e-05
5.021000000000000000e+03 9.582078933715820312e+00 -1.126257777214050293e+00 -5.530919952434487641e-05 -1.413091958966106176e-04 -5.898551899008452892e-05 -5.225107088335789740e-05
5.022000000000000000e+03 8.013586997985839844e+00 -1.119014978408813477e+00 -8.527367026545107365e-05 -1.020895433612167835e-04 -5.620896263280883431e-05 -7.825256034266203642e-05
5.023000000000000000e+03 7.227835178375244141e+00 -1.117815256118774414e+00 -5.471332769957371056e-05 8.899458771338686347e-05 1.028437782224500552e-05 1.117222054745070636e-04
5.024000000000000000e+03 6.435775756835937500e+00 -1.117145895957946777e+00 -6.959561869734898210e-05 -5.315072485245764256e-05 -3.682390524772927165e-05 -1.021237621898762882e-04
5.025000000000000000e+03 5.605874538421630859e+00 -1.123465657234191895e+00 -1.199055186589248478e-04 4.246752359904348850e-05 -2.323139779036864638e-05 1.118999789468944073e-04
5.026000000000000000e+03 4.870606899261474609e+00 -1.221678614616394043e+00 6.411961658159270883e-05 -1.726425398373976350e-05 1.405660987074952573e-05 -1.356054417556151748e-04
5.027000000000000000e+03 4.215381145477294922e+00 -1.291930317878723145e+00 3.499731246847659349e-05 -3.223124804208055139e-05 8.298203511003521271e-07 1.509201538283377886e-04
5.028000000000000000e+03 3.483533143997192383e+00 -1.264367222785949707e+00 -1.964152470463886857e-04 3.755523721338249743e-05 -4.765800622408278286e-05 -2.401506353635340929e-04
5.029000000000000000e+03 2.720056772232055664e+00 -1.259521603584289551e+00 1.097429776564240456e-04 -1.310145216848468408e-05 2.899245919252280146e-05 1.745189656503498554e-04
5.030000000000000000e+03 1.356012225151062012e+00 -1.203287243843078613e+00 2.723449142649769783e-04 -6.001556175760924816e-05 6.369881157297641039e-05 1.845226324803661555e-05
5.031000000000000000e+03 1.973117947578430176e+00 -8.476541042327880859e-01 -6.536355795105919242e-05 -2.432303335808683187e-05 -2.690597648324910551e-05 1.116405401262454689e-04
5.032000000000000000e+03 8.765102386474609375e+00 -3.811639845371246338e-01 -7.980793452588841319e-05 -1.557436189614236355e-04 -7.066546822898089886e-05 -1.919909118441864848e-05
5.033000000000000000e+03 3.694828748703002930e+00 -2.827752828598022461e-01 -9.533099364489316940e-05 5.195331141294445843e-06 -2.704069993342272937e-05 -3.161063068546354771e-05
5.034000000000000000e+03 2.863922595977783203e+00 -2.815187871456146240e-01 -2.061638770101126283e-05 7.817684490873944014e-06 -3.839610599243314937e-06 2.240414323750883341e-05
5.035000000000000000e+03 1.994147539138793945e+00 -3.323310017585754395e-01 -3.893268149113282561e-05 -1.025124856823822483e-05 -1.475517910876078531e-05 -5.305155718815512955e-05
5.036000000000000000e+03 1.978801369667053223e+00 -1.275323033332824707e+00 -1.957147615030407906e-04 -1.913935739139560610e-05 -6.445623148465529084e-05 -1.943704119184985757e-04
5.037000000000000000e+03 3.578665971755981445e+00 -7.871425151824951172e-01 3.237932105548679829e-05 -1.853612411650829017e-05 4.152958808845141903e-06 9.164422954199835658e-05
5.038000000000000000e+03 1.511178874969482422e+01 -1.151870131492614746e+00 -4.832330887438729405e-05 -4.475159585126675665e-05 -2.792247141769621521e-05 -1.676029933150857687e-05
5.039000000000000000e+03 1.328532791137695312e+01 -1.267471551895141602e+00 3.400541027076542377e-05 7.124023250071331859e-05 3.157369064865633845e-05 4.611780605046078563e-05
5.040000000000000000e+03 1.480503654479980469e+01 -5.744030475616455078e-01 3.599411138566210866e-05 -1.240076653630239889e-05 7.078003818605793640e-06 2.080465310427825898e-05
5.041000000000000000e+03 1.453040313720703125e+01 -1.313965797424316406e+00 -3.544997161952778697e-05 9.254631731892004609e-05 1.712890298222191632e-05 2.547874373703962192e-07
5.042000000000000000e+03 1.393833351135253906e+01 -1.278923630714416504e+00 -6.825559921708190814e-06 -6.481875607278198004e-05 -2.149329520761966705e-05 -2.775568100332748145e-05
5.043000000000000000e+03 1.336329460144042969e+01 -5.279909372329711914e-01 -1.171694657386979088e-05 -1.062743758666329086e-04 -3.539739554980769753e-05 -2.497810964996460825e-05
5.044000000000000000e+03 1.411463356018066406e+01 -5.394020080566406250e-01 9.518577826383989304e-06 7.925534009700641036e-05 2.663217492226976901e-05 1.836933915910776705e-05
5.045000000000000000e+03 1.111242771148681641e+01 -4.403275847434997559e-01 -1.130492091760970652e-05 1.582866825629025698e-04 4.409452594700269401e-05 2.137065712304320186e-05
5.046000000000000000e+03 1.260764503479003906e+01 -5.095726251602172852e-01 1.508703280705958605e-05 1.159423482022248209e-04 3.930881575797684491e-05 2.167229285987559706e-05
5.047000000000000000e+03 1.185993289947509766e+01 -4.741277396678924561e-01 -2.094674528052564710e-05 -1.373476698063313961e-04 -4.748832361656241119e-05 -7.733307029411662370e-06
5.048000000000000000e+03 1.109096240997314453e+01 -1.180124521255493164e+00 -3.660088259493932128e-05 -1.558376097818836570e-04 -5.773154771304689348e-05 -1.517504006187664345e-05
5.049000000000000000e+03 1.036482620239257812e+01 -4.067706167697906494e-01 -4.239062764099799097e-05 -1.784239284461364150e-04 -6.624437082791700959e-05 -1.002909266389906406e-05
5.050000000000000000e+03 1.034629440307617188e+01 -1.146702885627746582e+00 -1.351148330286378041e-05 1.551048335386440158e-04 4.247800461598671973e-05 7.766765338601544499e-05
5.051000000000000000e+03 1.258031177520751953e+01 -1.249099493026733398e+00 -5.005417551728896797e-05 -1.020673953462392092e-04 -4.563647235045209527e-05 -2.733020301093347371e-05
5.052000000000000000e+03 1.183553314208984375e+01 -1.213789224624633789e+00 2.929641595983412117e-05 1.220353733515366912e-04 4.539953806670382619e-05 4.146834180573932827e-05
5.053000000000000000e+03 6.201589584350585938e+01 -6.399721622467041016e+00 3.323484039306640625e+01 6.267807006835937500e+00 1.185079383850097656e+01 1.224514770507812500e+01
5.054000000000000000e+03 6.201980209350585938e+01 -6.418793201446533203e+00 3.044912910461425781e+01 1.876394844055175781e+01 1.476392364501953125e+01 2.349927711486816406e+01
5.055000000000000000e+03 6.202735137939453125e+01 -6.436739444732666016e+00 2.798381805419921875e+01 3.080641365051269531e+01 1.763706970214843750e+01 2.740799522399902344e+01
5.056000000000000000e+03 6.203824615478515625e+01 -6.452872753143310547e+00 2.403425216674804688e+01 4.321722412109375000e+01 2.017544174194335938e+01 2.851322364807128906e+01
5.057000000000000000e+03 6.205207443237304688e+01 -6.466576099395751953e+00 2.058191490173339844e+01 5.469376373291015625e+01 2.258270263671875000e+01 2.655827140808105469e+01
5.058000000000000000e+03 6.206830596923828125e+01 -6.477325439453125000e+00 1.724905395507812500e+01 6.426763916015625000e+01 2.445500755310058594e+01 2.219575500488281250e+01
5.059000000000000000e+03 6.208631896972656250e+01 -6.484708786010742188e+00 1.567882251739501953e+01 7.140339660644531250e+01 2.612466621398925781e+01 1.589845561981201172e+01
5.060000000000000000e+03 6.210542678833007812e+01 -6.488444328308105469e+00 1.565254783630371094e+01 7.527171325683593750e+01 2.727727890014648438e+01 8.634307861328125000e+00
5.061000000000000000e+03 6.212489700317382812e+01 -6.488388061523437500e+00 1.781890296936035156e+01 7.596953582763671875e+01 2.813653182983398438e+01 1.440153598785400391e+00
5.062000000000000000e+03 6.214397811889648438e+01 -6.484543323516845703e+00 2.172192001342773438e+01 7.378089904785156250e+01 2.865084457397460938e+01 -4.715405464172363281e+00
5.063000000000000000e+03 6.216194915771484375e+01 -6.477056503295898438e+00 2.688509559631347656e+01 6.949993896484375000e+01 2.891551017761230469e+01 -9.079397201538085938e+00
5.064000000000000000e+03 6.217811965942382812e+01 -6.466214179992675781e+00 3.243959426879882812e+01 6.404769134521484375e+01 2.894618606567382812e+01 -1.128648757934570312e+01
5.065000000000000000e+03 6.219186782836914062e+01 -6.452431678771972656e+00 3.780196762084960938e+01 5.856740951538085938e+01 2.891081428527832031e+01 -1.128495025634765625e+01
5.066000000000000000e+03 6.220267105102539062e+01 -6.436235904693603516e+00 4.223386764526367188e+01 5.366061019897460938e+01 2.876834487915039062e+01 -9.441361427307128906e+00
5.067000000000000000e+03 6.221011734008789062e+01 -6.418246746063232422e+00 4.536709594726562500e+01 5.017744827270507812e+01 2.866336250305175781e+01 -6.227928638458251953e+00
5.068000000000000000e+03 6.221391677856445312e+01 -6.399152755737304688e+00 4.698815917968750000e+01 4.831082534790039062e+01 2.858969497680664062e+01 -2.151374816894531250e+00
5.069000000000000000e+03 6.221392440795898438e+01 -6.379684925079345703e+00 4.699423599243164062e+01 4.830725479125976562e+01 2.859044647216796875e+01 2.160012722015380859e+00
5.070000000000000000e+03 6.221014404296875000e+01 -6.360587596893310547e+00 4.538346862792968750e+01 5.015658950805664062e+01 2.866201782226562500e+01 6.235594272613525391e+00
5.071000000000000000e+03 6.220271682739257812e+01 -6.342591762542724609e+00 4.225572586059570312e+01 5.365949630737304688e+01 2.877456665039062500e+01 9.465214729309082031e+00
5.072000000000000000e+03 6.219192886352539062e+01 -6.326385974884033203e+00 3.781645965576171875e+01 5.852052307128906250e+01 2.890109634399414062e+01 1.132577323913574219e+01
5.073000000000000000e+03 6.217819213867187500e+01 -6.312590599060058594e+00 3.247735977172851562e+01 6.404785919189453125e+01 2.895756530761718750e+01 1.132675647735595703e+01
5.074000000000000000e+03 6.216203308105468750e+01 -6.301733493804931641e+00 2.686721229553222656e+01 6.948695373535156250e+01 2.890625190734863281e+01 9.141772270202636719e+00
5.075000000000000000e+03 6.214406585693359375e+01 -6.294229984283447266e+00 2.171124649047851562e+01 7.377706146240234375e+01 2.864649200439453125e+01 4.794359207153320312e+00
5.076000000000000000e+03 6.212498474121093750e+01 -6.290367603302001953e+00 1.777035331726074219e+01 7.597921752929687500e+01 2.812487220764160156e+01 -1.365442633628845215e+00
5.077000000000000000e+03 6.210551834106445312e+01 -6.290293693542480469e+00 1.561728286743164062e+01 7.531217193603515625e+01 2.727883529663085938e+01 -8.546283721923828125e+00
5.078000000000000000e+03 6.208641052246093750e+01 -6.294011116027832031e+00 1.554152488708496094e+01 7.141147613525390625e+01 2.608590126037597656e+01 -1.584757137298583984e+01
5.079000000000000000e+03 6.206838607788085938e+01 -6.301378250122070312e+00 1.715140533447265625e+01 6.437000274658203125e+01 2.445642089843750000e+01 -2.210404396057128906e+01
5.080000000000000000e+03 6.205214691162109375e+01 -6.312112331390380859e+00 2.045258522033691406e+01 5.471521377563476562e+01 2.255033874511718750e+01 -2.652429199218750000e+01
5.081000000000000000e+03 6.203830337524414062e+01 -6.325802803039550781e+00 2.385636520385742188e+01 4.330102539062500000e+01 2.014721679687500000e+01 -2.849262428283691406e+01
5.082000000000000000e+03 6.202739334106445312e+01 -6.341926097869873047e+00 2.786053848266601562e+01 3.089595603942871094e+01 1.762694931030273438e+01 -2.738743972778320312e+01
5.083000000000000000e+03 6.201983261108398438e+01 -6.359865188598632812e+00 3.030447196960449219e+01 1.879876327514648438e+01 1.473097038269042969e+01 -2.351112937927246094e+01
5.084000000000000000e+03 6.201590728759765625e+01 -6.378933429718017578e+00 3.313011169433593750e+01 6.315006732940673828e+00 1.183353519439697266e+01 -1.228152179718017578e+01
