# el_label, x, y, sXX, sYY, sZZ, sXY
1.000000000000000000e+00 1.269876003265380859e+01 -1.557516753673553467e-01 -2.745361328125000000e-01 -1.278806567192077637e+00 -4.660028219223022461e-01 -1.581639766693115234e+00
2.000000000000000000e+00 1.250006008148193359e+01 -1.673918515443801880e-01 2.236049175262451172e+00 4.433940649032592773e-01 8.038330078125000000e-01 4.746307730674743652e-01
3.000000000000000000e+00 1.230135917663574219e+01 -1.790320128202438354e-01 1.256778597831726074e+00 -1.672973334789276123e-01 3.268443644046783447e-01 2.870029583573341370e-02
4.000000000000000000e+00 1.210265922546386719e+01 -1.906721740961074829e-01 8.771818876266479492e-01 1.630556024610996246e-02 2.680462300777435303e-01 1.975047588348388672e-01
5.000000000000000000e+00 1.270786190032958984e+01 -2.134426683187484741e-01 8.462121009826660156e+00 -1.736798644065856934e+00 2.017596721649169922e+00 6.793617606163024902e-01
6.000000000000000000e+00 1.251522922515869141e+01 -2.635434865951538086e-01 3.904642581939697266e+00 2.498497813940048218e-01 1.246347665786743164e+00 7.267819643020629883e-01
7.000000000000000000e+00 1.232259750366210938e+01 -3.136443197727203369e-01 3.486352443695068359e+00 2.770253419876098633e-01 1.129013299942016602e+00 1.204747438430786133e+00
8.000000000000000000e+00 1.212996482849121094e+01 -3.637451529502868652e-01 2.494242906570434570e+00 7.841964811086654663e-02 7.717987895011901855e-01 8.137562870979309082e-01
9.000000000000000000e+00 1.272802162170410156e+01 -2.682578265666961670e-01 1.144599628448486328e+01 1.049010515213012695e+00 3.748502254486083984e+00 4.797080993652343750e+00
1.000000000000000000e+01 1.254882812500000000e+01 -3.549020886421203613e-01 6.885170936584472656e+00 4.641588330268859863e-01 2.204798936843872070e+00 2.811789035797119141e+00
1.100000000000000000e+01 1.236963558197021484e+01 -4.415463805198669434e-01 4.583532333374023438e+00 1.098636627197265625e+00 1.704650640487670898e+00 2.295646905899047852e+00
1.200000000000000000e+01 1.219044303894042969e+01 -5.281906127929687500e-01 3.666272401809692383e+00 7.574726343154907227e-01 1.327123522758483887e+00 2.196765184402465820e+00
1.300000000000000000e+01 1.275846672058105469e+01 -3.180995583534240723e-01 1.212384510040283203e+01 4.594971656799316406e+00 5.015645027160644531e+00 8.100561141967773438e+00
1.400000000000000000e+01 1.259957027435302734e+01 -4.379716217517852783e-01 7.570276737213134766e+00 2.953628301620483398e+00 3.157171487808227539e+00 5.146724224090576172e+00
1.500000000000000000e+01 1.244067382812500000e+01 -5.578436851501464844e-01 5.473315238952636719e+00 2.216657638549804688e+00 2.306991815567016602e+00 4.113965034484863281e+00
1.600000000000000000e+01 1.228177738189697266e+01 -6.777157783508300781e-01 3.980979919433593750e+00 2.256386995315551758e+00 1.871210098266601562e+00 3.415272235870361328e+00
1.700000000000000000e+01 1.279803276062011719e+01 -3.610605299472808838e-01 1.083773899078369141e+01 9.680579185485839844e+00 6.155495643615722656e+00 1.013382625579833984e+01
1.800000000000000000e+01 1.266551303863525391e+01 -5.095732212066650391e-01 7.147601604461669922e+00 5.930709362030029297e+00 3.923493385314941406e+00 6.965390205383300781e+00
1.900000000000000000e+01 1.253299427032470703e+01 -6.580859422683715820e-01 5.045043945312500000e+00 4.737054347991943359e+00 2.934629678726196289e+00 5.394430160522460938e+00
2.000000000000000000e+01 1.240047550201416016e+01 -8.065986633300781250e-01 3.753886938095092773e+00 3.890119075775146484e+00 2.293201923370361328e+00 4.704716205596923828e+00
2.100000000000000000e+01 1.284520435333251953e+01 -3.954967558383941650e-01 8.729286193847656250e+00 1.470179176330566406e+01 7.029323101043701172e+00 1.068819522857666016e+01
2.200000000000000000e+01 1.274413394927978516e+01 -5.669669508934020996e-01 5.781359195709228516e+00 9.740628242492675781e+00 4.656596183776855469e+00 7.552717685699462891e+00
2.300000000000000000e+01 1.264306354522705078e+01 -7.384371757507324219e-01 4.015053272247314453e+00 7.446722507476806641e+00 3.438532829284667969e+00 6.140087127685546875e+00
2.400000000000000000e+01 1.254199218750000000e+01 -9.099074006080627441e-01 2.725363492965698242e+00 6.270017623901367188e+00 2.698614358901977539e+00 5.045322895050048828e+00
2.500000000000000000e+01 1.289817905426025391e+01 -4.200904667377471924e-01 6.521090507507324219e+00 1.951160621643066406e+01 7.809809207916259766e+00 9.501997947692871094e+00
2.600000000000000000e+01 1.283242416381835938e+01 -6.079564690589904785e-01 4.235357761383056641e+00 1.325745773315429688e+01 5.247844696044921875e+00 7.150425434112548828e+00
2.700000000000000000e+01 1.276666927337646484e+01 -7.958225607872009277e-01 2.611850261688232422e+00 1.038349819183349609e+01 3.898604631423950195e+00 5.690362930297851562e+00
2.800000000000000000e+01 1.270091438293457031e+01 -9.836885929107666016e-01 1.510917663574218750e+00 8.593283653259277344e+00 3.031260490417480469e+00 4.861821174621582031e+00
2.900000000000000000e+01 1.295492744445800781e+01 -4.339005351066589355e-01 5.054244995117187500e+00 2.322212409973144531e+01 8.482911109924316406e+00 7.123273849487304688e+00
3.000000000000000000e+01 1.292700481414794922e+01 -6.309732794761657715e-01 2.876213550567626953e+00 1.620793724060058594e+01 5.725244998931884766e+00 5.565692901611328125e+00
3.100000000000000000e+01 1.289908218383789062e+01 -8.280460238456726074e-01 1.486923575401306152e+00 1.284263515472412109e+01 4.298867702484130859e+00 4.551476955413818359e+00
3.200000000000000000e+01 1.287115955352783203e+01 -1.025118708610534668e+00 3.823679089546203613e-01 1.067390918731689453e+01 3.316883087158203125e+00 3.683816194534301758e+00
3.300000000000000000e+01 1.301327800750732422e+01 -4.363984763622283936e-01 4.424044132232666016e+00 2.536234474182128906e+01 8.935916900634765625e+00 3.971702814102172852e+00
3.400000000000000000e+01 1.302425670623779297e+01 -6.351364850997924805e-01 2.432925701141357422e+00 1.830299377441406250e+01 6.220776081085205078e+00 3.361994266510009766e+00
3.500000000000000000e+01 1.303523445129394531e+01 -8.338745236396789551e-01 7.262562513351440430e-01 1.440621471405029297e+01 4.539741516113281250e+00 2.616164684295654297e+00
3.600000000000000000e+01 1.304621315002441406e+01 -1.032612562179565430e+00 -8.913701027631759644e-02 1.203026390075683594e+01 3.582338094711303711e+00 2.137726306915283203e+00
3.700000000000000000e+01 1.307099914550781250e+01 -4.274887144565582275e-01 5.580341339111328125e+00 2.619022178649902344e+01 9.531168937683105469e+00 7.905898094177246094e-01
3.800000000000000000e+01 1.312045860290527344e+01 -6.202868819236755371e-01 2.353806972503662109e+00 1.901530647277832031e+01 6.410733699798583984e+00 8.085060119628906250e-01
3.900000000000000000e+01 1.316991710662841797e+01 -8.130850791931152344e-01 1.194516777992248535e+00 1.517586994171142578e+01 4.911116123199462891e+00 5.144460797309875488e-01
4.000000000000000000e+01 1.321937561035156250e+01 -1.005883216857910156e+00 -2.363115400075912476e-01 1.231701660156250000e+01 3.624211311340332031e+00 1.227690577507019043e-01
4.100000000000000000e+01 1.312588119506835938e+01 -4.075121879577636719e-01 6.967276573181152344e+00 2.527827072143554688e+01 9.673664093017578125e+00 -2.033942461013793945e+00
4.200000000000000000e+01 1.321192836761474609e+01 -5.869926810264587402e-01 3.973270893096923828e+00 1.892895698547363281e+01 6.870668411254882812e+00 -1.357968807220458984e+00
4.300000000000000000e+01 1.329797554016113281e+01 -7.664731740951538086e-01 1.657493710517883301e+00 1.463644504547119141e+01 4.888181686401367188e+00 -1.665879011154174805e+00
4.400000000000000000e+01 1.338402175903320312e+01 -9.459537267684936523e-01 1.030667662620544434e+00 1.204450511932373047e+01 3.922551870346069336e+00 -1.572331190109252930e+00
4.500000000000000000e+01 1.317582416534423828e+01 -3.772333264350891113e-01 9.923976898193359375e+00 2.400137138366699219e+01 1.017760467529296875e+01 -3.653522729873657227e+00
4.600000000000000000e+01 1.329516601562500000e+01 -5.365279912948608398e-01 5.440104961395263672e+00 1.741046333312988281e+01 6.855170249938964844e+00 -3.263981103897094727e+00
4.700000000000000000e+01 1.341450881958007812e+01 -6.958225965499877930e-01 3.594966650009155273e+00 1.374095916748046875e+01 5.200777530670166016e+00 -2.955361366271972656e+00
4.800000000000000000e+01 1.353385066986083984e+01 -8.551172018051147461e-01 1.944948077201843262e+00 1.041237258911132812e+01 3.707196235656738281e+00 -3.191606998443603516e+00
4.900000000000000000e+01 1.321891689300537109e+01 -3.378108739852905273e-01 1.240355682373046875e+01 2.156275939941406250e+01 1.018989467620849609e+01 -4.524034500122070312e+00
5.000000000000000000e+01 1.336698722839355469e+01 -4.708238542079925537e-01 7.956436634063720703e+00 1.598348617553710938e+01 7.181976795196533203e+00 -3.927925348281860352e+00
5.100000000000000000e+01 1.351505756378173828e+01 -6.038368344306945801e-01 5.253360748291015625e+00 1.168353271484375000e+01 5.081068038940429688e+00 -3.860379934310913086e+00
5.200000000000000000e+01 1.366312789916992188e+01 -7.368497848510742188e-01 3.759280681610107422e+00 9.008731842041015625e+00 3.830403566360473633e+00 -3.733897209167480469e+00
5.300000000000000000e+01 1.325350952148437500e+01 -2.907533645629882812e-01 1.499306774139404297e+01 1.984102630615234375e+01 1.045022869110107422e+01 -4.137413024902343750e+00
5.400000000000000000e+01 1.342464256286621094e+01 -3.923946619033813477e-01 1.010874080657958984e+01 1.380100154876708984e+01 7.172922611236572266e+00 -3.880399465560913086e+00
5.500000000000000000e+01 1.359577560424804688e+01 -4.940359592437744141e-01 7.314584732055664062e+00 1.007449626922607422e+01 5.216724395751953125e+00 -3.658518075942993164e+00
5.600000000000000000e+01 1.376690769195556641e+01 -5.956772565841674805e-01 5.222901344299316406e+00 6.891079902648925781e+00 3.634194374084472656e+00 -3.556944370269775391e+00
5.700000000000000000e+01 1.327827930450439453e+01 -2.378615736961364746e-01 1.703273773193359375e+01 1.815933418273925781e+01 1.055762100219726562e+01 -2.887265443801879883e+00
5.800000000000000000e+01 1.346592617034912109e+01 -3.042416870594024658e-01 1.186353683471679688e+01 1.222002315521240234e+01 7.225068092346191406e+00 -2.930722951889038086e+00
5.900000000000000000e+01 1.365357208251953125e+01 -3.706217706203460693e-01 8.920918464660644531e+00 8.486677169799804688e+00 5.222278594970703125e+00 -2.699504852294921875e+00
6.000000000000000000e+01 1.384121799468994141e+01 -4.370018839836120605e-01 6.827190399169921875e+00 5.270966529846191406e+00 3.629447221755981445e+00 -2.712965965270996094e+00
6.100000000000000000e+01 1.329227924346923828e+01 -1.811595112085342407e-01 1.798191261291503906e+01 1.687222862243652344e+01 1.045624256134033203e+01 -1.283109068870544434e+00
6.200000000000000000e+01 1.348925781250000000e+01 -2.097382396459579468e-01 1.308930778503417969e+01 1.155141162872314453e+01 7.392215728759765625e+00 -1.154166340827941895e+00
6.300000000000000000e+01 1.368623638153076172e+01 -2.383169680833816528e-01 9.774932861328125000e+00 7.212050914764404297e+00 5.096095085144042969e+00 -1.296485185623168945e+00
6.400000000000000000e+01 1.388321495056152344e+01 -2.668957114219665527e-01 7.701988220214843750e+00 4.738982677459716797e+00 3.732291460037231445e+00 -1.305218577384948730e+00
6.500000000000000000e+01 1.329497146606445312e+01 -1.228169724345207214e-01 1.838037490844726562e+01 1.730759620666503906e+01 1.070639133453369141e+01 7.551210522651672363e-01
6.600000000000000000e+01 1.349374485015869141e+01 -1.125006750226020813e-01 1.314921665191650391e+01 1.073311614990234375e+01 7.164700031280517578e+00 7.336761951446533203e-01
6.700000000000000000e+01 1.369251823425292969e+01 -1.021843776106834412e-01 1.000107479095458984e+01 7.771815299987792969e+00 5.331867218017578125e+00 5.661696195602416992e-01
6.800000000000000000e+01 1.389129161834716797e+01 -9.186808019876480103e-02 7.470998287200927734e+00 4.012344360351562500e+00 3.445002794265747070e+00 4.196920096874237061e-01
6.900000000000000000e+01 1.328625392913818359e+01 -6.506656110286712646e-02 1.738380622863769531e+01 1.733669662475585938e+01 1.041615104675292969e+01 2.771869659423828125e+00
7.000000000000000000e+01 1.347921562194824219e+01 -1.624999009072780609e-02 1.253165435791015625e+01 1.204839897155761719e+01 7.374015808105468750e+00 2.431145668029785156e+00
7.100000000000000000e+01 1.367217731475830078e+01 3.256658464670181274e-02 9.169707298278808594e+00 7.789687156677246094e+00 5.087818622589111328e+00 2.449622392654418945e+00
7.200000000000000000e+01 1.386513900756835938e+01 8.138315379619598389e-02 7.098263740539550781e+00 5.550180912017822266e+00 3.794533252716064453e+00 2.026182413101196289e+00
7.300000000000000000e+01 1.326646041870117188e+01 -1.011826377362012863e-02 1.596574783325195312e+01 1.903153991699218750e+01 1.049918556213378906e+01 4.105794429779052734e+00
7.400000000000000000e+01 1.344622611999511719e+01 7.533050328493118286e-02 1.072001838684082031e+01 1.314848232269287109e+01 7.160550117492675781e+00 3.926425457000732422e+00
7.500000000000000000e+01 1.362599182128906250e+01 1.607792824506759644e-01 7.960878849029541016e+00 9.451601028442382812e+00 5.223743915557861328e+00 3.549360275268554688e+00
7.600000000000000000e+01 1.380575847625732422e+01 2.462280541658401489e-01 5.629365444183349609e+00 6.640673160552978516e+00 3.681011438369750977e+00 3.489213943481445312e+00
7.700000000000000000e+01 1.323634719848632812e+01 3.992519527673721313e-02 1.343391036987304688e+01 2.092728042602539062e+01 1.030835723876953125e+01 4.922491073608398438e+00
7.800000000000000000e+01 1.339603900909423828e+01 1.587362736463546753e-01 8.698075294494628906e+00 1.503101921081542969e+01 7.118728637695312500e+00 4.439004421234130859e+00
7.900000000000000000e+01 1.355572986602783203e+01 2.775473594665527344e-01 5.966394901275634766e+00 1.123647785186767578e+01 5.160861968994140625e+00 4.086163520812988281e+00
8.000000000000000000e+01 1.371542072296142578e+01 3.963584303855895996e-01 3.964320898056030273e+00 8.270531654357910156e+00 3.670455694198608398e+00 4.139860630035400391e+00
8.100000000000000000e+01 1.319706916809082031e+01 8.314879983663558960e-02 1.063720226287841797e+01 2.297443962097167969e+01 1.008349227905273438e+01 4.728337764739990234e+00
8.200000000000000000e+01 1.333057403564453125e+01 2.307756096124649048e-01 6.366748332977294922e+00 1.700372695922851562e+01 7.011142730712890625e+00 3.963698387145996094e+00
8.300000000000000000e+01 1.346407890319824219e+01 3.784024119377136230e-01 3.866994380950927734e+00 1.300503540039062500e+01 5.061608791351318359e+00 3.851063251495361328e+00
8.400000000000000000e+01 1.359758472442626953e+01 5.260292291641235352e-01 2.495049238204956055e+00 1.008798217773437500e+01 3.774909496307373047e+00 3.812296390533447266e+00
8.500000000000000000e+01 1.315012645721435547e+01 1.178984865546226501e-01 7.982955455780029297e+00 2.498376846313476562e+01 9.890017509460449219e+00 3.324474573135375977e+00
8.600000000000000000e+01 1.325233745574951172e+01 2.886917591094970703e-01 4.090188503265380859e+00 1.844576644897460938e+01 6.760786533355712891e+00 2.679788112640380859e+00
8.700000000000000000e+01 1.335454750061035156e+01 4.594850242137908936e-01 2.254182100296020508e+00 1.448792362213134766e+01 5.022631645202636719e+00 2.626141548156738281e+00
8.800000000000000000e+01 1.345675849914550781e+01 6.302782893180847168e-01 8.671891689300537109e-01 1.155578136444091797e+01 3.726891040802001953e+00 2.744560003280639648e+00
8.900000000000000000e+01 1.309731769561767578e+01 1.428444981575012207e-01 5.523012638092041016e+00 2.607477188110351562e+01 9.479335784912109375e+00 9.731582403182983398e-01
9.000000000000000000e+01 1.316432189941406250e+01 3.302684426307678223e-01 2.701253652572631836e+00 1.922892761230468750e+01 6.579054355621337891e+00 5.436968207359313965e-01
9.100000000000000000e+01 1.323132610321044922e+01 5.176923871040344238e-01 8.850710391998291016e-01 1.514625358581542969e+01 4.809397697448730469e+00 8.293696641921997070e-01
9.200000000000000000e+01 1.329833126068115234e+01 7.051163315773010254e-01 -2.737334184348583221e-02 1.245991706848144531e+01 3.729763031005859375e+00 1.073628425598144531e+00
9.300000000000000000e+01 1.304066181182861328e+01 1.570321917533874512e-01 4.318179130554199219e+00 2.606170654296875000e+01 9.113965988159179688e+00 -2.140638113021850586e+00
9.400000000000000000e+01 1.306989669799804688e+01 3.539146184921264648e-01 1.845061182975769043e+00 1.883476448059082031e+01 6.203947544097900391e+00 -1.932222604751586914e+00
9.500000000000000000e+01 1.309913063049316406e+01 5.507970452308654785e-01 5.560209155082702637e-01 1.494874382019042969e+01 4.651429176330566406e+00 -1.353060245513916016e+00
9.600000000000000000e+01 1.312836551666259766e+01 7.476794719696044922e-01 -5.265828371047973633e-01 1.230801296234130859e+01 3.534429073333740234e+00 -8.228411674499511719e-01
9.700000000000000000e+01 1.298232936859130859e+01 1.599186807870864868e-01 4.096707344055175781e+00 2.445103263854980469e+01 8.564321517944335938e+00 -5.486714839935302734e+00
9.800000000000000000e+01 1.297267436981201172e+01 3.587254285812377930e-01 2.148329257965087891e+00 1.728715133666992188e+01 5.830644130706787109e+00 -4.327915668487548828e+00
9.900000000000000000e+01 1.296302032470703125e+01 5.575321316719055176e-01 7.745624184608459473e-01 1.368522071838378906e+01 4.337934970855712891e+00 -3.427596330642700195e+00
1.000000000000000000e+02 1.295336532592773438e+01 7.563388943672180176e-01 -7.429265230894088745e-02 1.136268901824951172e+01 3.386518716812133789e+00 -2.673865079879760742e+00
1.010000000000000000e+02 1.292455005645751953e+01 1.513934731483459473e-01 5.125955581665039062e+00 2.128129196166992188e+01 7.922173976898193359e+00 -8.295679092407226562e+00
1.020000000000000000e+02 1.287637615203857422e+01 3.445167243480682373e-01 3.210535287857055664e+00 1.464271736145019531e+01 5.355976104736328125e+00 -6.250000953674316406e+00
1.030000000000000000e+02 1.282820224761962891e+01 5.376400351524353027e-01 1.703400611877441406e+00 1.149183654785156250e+01 3.958570957183837891e+00 -4.952145576477050781e+00
1.040000000000000000e+02 1.278002834320068359e+01 7.307632565498352051e-01 8.719537854194641113e-01 9.635681152343750000e+00 3.152290344238281250e+00 -4.034553050994873047e+00
1.050000000000000000e+02 1.286953639984130859e+01 1.317828148603439331e-01 7.233112335205078125e+00 1.684377861022949219e+01 7.223067283630371094e+00 -1.007729816436767578e+01
1.060000000000000000e+02 1.278468608856201172e+01 3.118323087692260742e-01 4.572521209716796875e+00 1.115829181671142578e+01 4.719244003295898438e+00 -7.194357395172119141e+00
1.070000000000000000e+02 1.269983577728271484e+01 4.918818175792694092e-01 3.137447834014892578e+00 8.761419296264648438e+00 3.569660186767578125e+00 -5.670123577117919922e+00
1.080000000000000000e+02 1.261498641967773438e+01 6.719313263893127441e-01 1.950267553329467773e+00 7.205043792724609375e+00 2.746593475341796875e+00 -4.691696643829345703e+00
1.090000000000000000e+02 1.281939315795898438e+01 1.018371656537055969e-01 9.224029541015625000e+00 1.158952045440673828e+01 6.244064807891845703e+00 -1.030972099304199219e+01
1.100000000000000000e+02 1.270111370086669922e+01 2.619228959083557129e-01 6.261100292205810547e+00 7.448142528533935547e+00 4.112772941589355469e+00 -6.988233089447021484e+00
1.110000000000000000e+02 1.258283519744873047e+01 4.220086336135864258e-01 4.197329521179199219e+00 5.705898284912109375e+00 2.970968246459960938e+00 -5.407733917236328125e+00
1.120000000000000000e+02 1.246455574035644531e+01 5.820943117141723633e-01 3.110821485519409180e+00 4.929080486297607422e+00 2.411970615386962891e+00 -4.519593238830566406e+00
1.130000000000000000e+02 1.277603912353515625e+01 6.270245462656021118e-02 1.113202285766601562e+01 6.437613487243652344e+00 5.270890712738037109e+00 -8.791103363037109375e+00
1.140000000000000000e+02 1.262885665893554688e+01 1.966983675956726074e-01 6.858023643493652344e+00 3.861392021179199219e+00 3.215824604034423828e+00 -5.655137062072753906e+00
1.150000000000000000e+02 1.248167514801025391e+01 3.306942880153656006e-01 5.106892108917236328e+00 3.203633785247802734e+00 2.493157863616943359e+00 -4.304314613342285156e+00
1.160000000000000000e+02 1.233449363708496094e+01 4.646901786327362061e-01 3.521600246429443359e+00 2.658039331436157227e+00 1.853891849517822266e+00 -3.554608583450317383e+00
1.170000000000000000e+02 1.274113273620605469e+01 1.587625592947006226e-02 1.096141242980957031e+01 1.914530158042907715e+00 3.862782955169677734e+00 -5.893716812133789062e+00
1.180000000000000000e+02 1.257068061828613281e+01 1.186547055840492249e-01 6.799514293670654297e+00 1.269429683685302734e+00 2.420683145523071289e+00 -3.420648097991943359e+00
1.190000000000000000e+02 1.240022850036621094e+01 2.214331477880477905e-01 4.495131492614746094e+00 1.371827721595764160e+00 1.760087847709655762e+00 -2.680841445922851562e+00
1.200000000000000000e+02 1.222977638244628906e+01 3.242115974426269531e-01 3.724985361099243164e+00 1.336047887802124023e+00 1.518309950828552246e+00 -2.475066423416137695e+00
1.210000000000000000e+02 1.271601104736328125e+01 -3.684952110052108765e-02 8.947604179382324219e+00 -1.341248869895935059e+00 2.281906604766845703e+00 -1.749463319778442383e+00
1.220000000000000000e+02 1.252881145477294922e+01 3.077841550111770630e-02 4.182159423828125000e+00 3.023834228515625000e-01 1.345362782478332520e+00 -1.146188855171203613e+00
1.230000000000000000e+02 1.234161186218261719e+01 9.840635210275650024e-02 3.722318649291992188e+00 6.347846984863281250e-01 1.307131052017211914e+00 -1.569750308990478516e+00
1.240000000000000000e+02 1.215441131591796875e+01 1.660342812538146973e-01 2.743886232376098633e+00 2.328271865844726562e-01 8.930140137672424316e-01 -1.136857151985168457e+00
1.250000000000000000e+02 1.270163536071777344e+01 -9.345719963312149048e-02 7.063941955566406250e-01 -1.682606339454650879e+00 -2.928636372089385986e-01 1.391710638999938965e+00
1.260000000000000000e+02 1.250485134124755859e+01 -6.356771290302276611e-02 2.701105833053588867e+00 6.665994524955749512e-01 1.010311603546142578e+00 -6.956642866134643555e-01
1.270000000000000000e+02 1.230806732177734375e+01 -3.367823362350463867e-02 1.657395362854003906e+00 -2.511298954486846924e-01 4.218796193599700928e-01 -2.385623902082443237e-01
1.280000000000000000e+02 1.211128330230712891e+01 -3.788751550018787384e-03 1.203954219818115234e+00 1.895188093185424805e-01 4.180419147014617920e-01 -2.864438891410827637e-01
1.290000000000000000e+02 9.909620285034179688e+00 -7.809807658195495605e-01 -5.317885279655456543e-01 1.310819089412689209e-01 -1.202119961380958557e-01 3.512673377990722656e-01
1.300000000000000000e+02 8.695174217224121094e+00 -1.250904798507690430e+00 -6.668913364410400391e-01 1.506715863943099976e-01 -1.548659205436706543e-01 2.090491652488708496e-01
1.310000000000000000e+02 9.145074844360351562e+00 -5.085136890411376953e-01 -1.070386767387390137e+00 -9.347086772322654724e-03 -3.239201605319976807e-01 1.059745252132415771e-01
1.320000000000000000e+02 9.667083740234375000e+00 -1.944922655820846558e-01 -1.195168614387512207e+00 2.249803580343723297e-02 -3.518011868000030518e-01 1.530565973371267319e-02
1.330000000000000000e+02 7.876955032348632812e+00 -7.489719390869140625e-01 -1.039999842643737793e+00 5.072722211480140686e-02 -2.967818081378936768e-01 1.841868273913860321e-03
1.340000000000000000e+02 7.076358795166015625e+00 -6.875223517417907715e-01 -1.071767807006835938e+00 1.796928606927394867e-02 -3.161395490169525146e-01 -8.490695804357528687e-02
1.350000000000000000e+02 6.459586620330810547e+00 -3.291052281856536865e-01 -1.188414454460144043e+00 3.500086441636085510e-02 -3.460240662097930908e-01 -8.455988019704818726e-02
1.360000000000000000e+02 5.162468910217285156e+00 -4.188351929187774658e-01 -9.372324347496032715e-01 -7.127558928914368153e-04 -2.813835442066192627e-01 -1.162701845169067383e-01
1.370000000000000000e+02 4.320610523223876953e+00 -3.981221318244934082e-01 -7.061292529106140137e-01 -1.467976998537778854e-02 -2.162427008152008057e-01 -1.087902113795280457e-01
1.380000000000000000e+02 2.989867448806762695e+00 -6.523498892784118652e-01 -3.770279586315155029e-01 -6.391048431396484375e-03 -1.150256991386413574e-01 -1.642550975084304810e-01
1.390000000000000000e+02 1.116444587707519531e+00 -3.904409706592559814e-01 -4.014527052640914917e-02 -8.268708363175392151e-03 -1.452419348061084747e-02 -2.340380661189556122e-02
1.400000000000000000e+02 6.990860104560852051e-01 -1.130440950393676758e+00 -2.129152603447437286e-02 -4.298696666955947876e-02 -1.928354799747467041e-02 -4.752158373594284058e-02
1.410000000000000000e+02 3.948691785335540771e-01 -5.613470077514648438e-01 -2.651440678164362907e-03 -8.727634325623512268e-03 -3.413722617551684380e-03 -5.027205683290958405e-03
1.420000000000000000e+02 9.833090782165527344e+00 -1.269301772117614746e+00 -1.636123508214950562e-01 2.679930925369262695e-01 3.131422400474548340e-02 5.969347953796386719e-01
1.430000000000000000e+02 8.611868858337402344e+00 -7.574334144592285156e-01 -9.120436310768127441e-01 6.727094948291778564e-02 -2.534317970275878906e-01 1.023722141981124878e-01
1.440000000000000000e+02 7.878969192504882812e+00 -1.248446345329284668e+00 -7.818723917007446289e-01 1.292169094085693359e-01 -1.957966387271881104e-01 5.584255978465080261e-02
1.450000000000000000e+02 7.021584510803222656e+00 -1.202909946441650391e+00 -8.435247540473937988e-01 9.354510158300399780e-02 -2.249938994646072388e-01 -1.219818666577339172e-01
1.460000000000000000e+02 6.203778266906738281e+00 -1.228735566139221191e+00 -8.367041349411010742e-01 6.351312994956970215e-02 -2.319573014974594116e-01 -1.785838305950164795e-01
1.470000000000000000e+02 5.484034061431884766e+00 -1.232956647872924805e+00 -6.994515657424926758e-01 3.452597185969352722e-02 -1.994776725769042969e-01 -2.517286241054534912e-01
1.480000000000000000e+02 4.738000392913818359e+00 -1.158835172653198242e+00 -6.141387820243835449e-01 1.527683227322995663e-03 -1.837833374738693237e-01 -2.760092318058013916e-01
1.490000000000000000e+02 3.897563934326171875e+00 -1.138122081756591797e+00 -4.870172739028930664e-01 -1.926533691585063934e-02 -1.518847793340682983e-01 -2.875672876834869385e-01
1.500000000000000000e+02 2.997914314270019531e+00 -1.180927395820617676e+00 -3.144497573375701904e-01 -4.519337415695190430e-02 -1.078929454088211060e-01 -2.614958882331848145e-01
1.510000000000000000e+02 2.142652988433837891e+00 -1.228095054626464844e+00 -1.818784177303314209e-01 -6.600153446197509766e-02 -7.436398416757583618e-02 -1.960139274597167969e-01
1.520000000000000000e+02 2.242757081985473633e+00 -7.217008471488952637e-01 -1.906482726335525513e-01 -2.215382270514965057e-02 -6.384062767028808594e-02 -1.365702897310256958e-01
1.530000000000000000e+02 9.882248878479003906e+00 -6.007431149482727051e-01 -6.554545760154724121e-01 1.165886744856834412e-01 -1.616597771644592285e-01 2.077585607767105103e-01
1.540000000000000000e+02 9.811087608337402344e+00 -4.371460676193237305e-01 -8.768556118011474609e-01 9.415858983993530273e-02 -2.348091155290603638e-01 1.709835529327392578e-01
1.550000000000000000e+02 9.683146476745605469e+00 -6.665977835655212402e-01 -7.272010445594787598e-01 4.735064879059791565e-02 -2.039551138877868652e-01 2.547775804996490479e-01
1.560000000000000000e+02 9.445545196533203125e+00 -1.285337686538696289e+00 -4.011159241199493408e-01 2.233503460884094238e-01 -5.332967638969421387e-02 4.906105995178222656e-01
1.570000000000000000e+02 8.651358604431152344e+00 -2.665285766124725342e-01 -1.395004749298095703e+00 1.103865099139511585e-03 -4.181702435016632080e-01 6.877642590552568436e-03
1.580000000000000000e+02 3.577710628509521484e+00 -3.032386302947998047e-01 -4.870950877666473389e-01 -2.114271000027656555e-02 -1.524713337421417236e-01 -7.658616453409194946e-02
1.590000000000000000e+02 1.677262067794799805e+00 -5.716835856437683105e-01 -9.165532886981964111e-02 -2.183635719120502472e-02 -3.404750674962997437e-02 -6.590890884399414062e-02
1.600000000000000000e+02 7.900777339935302734e+00 -2.605256140232086182e-01 -1.420191884040832520e+00 1.746379770338535309e-02 -4.208184480667114258e-01 -2.101664990186691284e-02
1.610000000000000000e+02 7.125693321228027344e+00 -2.446124255657196045e-01 -1.382590770721435547e+00 -1.514662243425846100e-02 -4.193212091922760010e-01 -2.619027160108089447e-02
1.620000000000000000e+02 5.870636463165283203e+00 -6.958145499229431152e-01 -9.947366118431091309e-01 1.440369896590709686e-02 -2.940998673439025879e-01 -1.412294656038284302e-01
1.630000000000000000e+02 9.911058425903320312e+00 -9.489943385124206543e-01 -3.108715415000915527e-01 1.862546652555465698e-01 -3.738506138324737549e-02 4.847572743892669678e-01
1.640000000000000000e+02 9.790430068969726562e+00 -8.613032102584838867e-01 -5.102438330650329590e-01 1.666089594364166260e-01 -1.030904501676559448e-01 3.726472854614257812e-01
1.650000000000000000e+02 9.885369300842285156e+00 -1.122577428817749023e+00 -1.717885285615921021e-01 1.996022909879684448e-01 8.344128727912902832e-03 5.526987910270690918e-01
1.660000000000000000e+02 1.385300993919372559e+00 -1.192627549171447754e+00 -8.641466498374938965e-02 -8.192521333694458008e-02 -5.050196126103401184e-02 -1.159840971231460571e-01
1.670000000000000000e+02 2.179786205291748047e+00 -2.536057829856872559e-01 -1.637064218521118164e-01 2.686254680156707764e-03 -4.830604791641235352e-02 -3.522296249866485596e-02
1.680000000000000000e+02 2.903507947921752930e+00 -2.314224690198898315e-01 -2.703179121017456055e-01 7.890882552601397038e-04 -8.085864782333374023e-02 -2.561002224683761597e-02
1.690000000000000000e+02 9.465025901794433594e+00 -8.754780888557434082e-01 -6.171728968620300293e-01 1.037264391779899597e-01 -1.540339440107345581e-01 2.720252871513366699e-01
1.700000000000000000e+02 9.721214294433593750e+00 -1.032481312751770020e+00 -3.990630507469177246e-01 2.701778411865234375e-01 -3.866556286811828613e-02 4.457261562347412109e-01
1.710000000000000000e+02 1.174034023284912109e+01 1.269092082977294922e+00 8.581248521804809570e-01 2.240458011627197266e+00 9.295748472213745117e-01 -2.302951097488403320e+00
1.720000000000000000e+02 1.012586879730224609e+01 1.175845980644226074e+00 8.986990898847579956e-02 3.160837292671203613e-01 1.217860877513885498e-01 -5.726284980773925781e-01
1.730000000000000000e+02 1.277479076385498047e+01 1.034377217292785645e+00 -3.450002372264862061e-01 8.314132690429687500e+00 2.390739679336547852e+00 -2.808623790740966797e+00
1.740000000000000000e+02 1.257337856292724609e+01 1.270144462585449219e+00 -4.044883549213409424e-01 6.252722263336181641e+00 1.754470109939575195e+00 -2.713067770004272461e+00
1.750000000000000000e+02 1.348916339874267578e+01 9.215955138206481934e-01 -6.243350505828857422e-01 9.471396446228027344e+00 2.654118299484252930e+00 2.223716020584106445e+00
1.760000000000000000e+02 1.352405166625976562e+01 -1.126832008361816406e+00 -4.367965161800384521e-01 9.236280441284179688e+00 2.639845132827758789e+00 -2.152874469757080078e+00
1.770000000000000000e+02 1.262062454223632812e+01 -1.161228537559509277e+00 8.038944005966186523e-01 7.385882377624511719e+00 2.456933021545410156e+00 4.173313617706298828e+00
1.780000000000000000e+02 1.190618801116943359e+01 -1.992866843938827515e-01 4.842388629913330078e-01 2.023508772253990173e-02 1.513421833515167236e-01 1.517386585474014282e-01
1.790000000000000000e+02 1.150646018981933594e+01 -2.035126984119415283e-01 -9.523928165435791016e-02 6.465770304203033447e-02 -9.174473583698272705e-03 1.489120423793792725e-01
1.800000000000000000e+02 1.010011196136474609e+01 -1.342263519763946533e-01 -1.070106506347656250e+00 -4.991704970598220825e-02 -3.360070884227752686e-01 5.127757042646408081e-02
1.810000000000000000e+02 1.224106884002685547e+01 -9.583972096443176270e-01 2.727934837341308594e+00 3.349082469940185547e+00 1.823105216026306152e+00 3.841155767440795898e+00
1.820000000000000000e+02 1.321497249603271484e+01 -1.494742989540100098e+00 -1.650043368339538574e+00 8.123062133789062500e+00 1.941905617713928223e+00 2.184130102396011353e-01
1.830000000000000000e+02 1.413815975189208984e+01 2.733295261859893799e-01 3.783689498901367188e+00 2.958350419998168945e+00 2.022611856460571289e+00 2.462192058563232422e+00
1.840000000000000000e+02 1.408070659637451172e+01 7.101827859878540039e-01 1.179427981376647949e+00 3.398789167404174805e+00 1.373465180397033691e+00 4.122117519378662109e+00
1.850000000000000000e+02 1.010570621490478516e+01 1.255573779344558716e-01 -7.073517441749572754e-01 -3.451431542634963989e-02 -2.225598245859146118e-01 -2.134491503238677979e-02
1.860000000000000000e+02 1.031089496612548828e+01 1.250817179679870605e-01 -5.983619093894958496e-01 4.420629888772964478e-02 -1.662466824054718018e-01 -2.192145958542823792e-02
1.870000000000000000e+02 1.122354793548583984e+01 9.852456450462341309e-01 9.421618580818176270e-01 8.851677775382995605e-01 5.481988787651062012e-01 -1.371008515357971191e+00
1.880000000000000000e+02 1.011634922027587891e+01 9.658244848251342773e-01 1.150701846927404404e-02 2.072445601224899292e-01 6.562547385692596436e-02 -4.293988645076751709e-01
1.890000000000000000e+02 1.117505931854248047e+01 3.101965785026550293e-01 4.361770153045654297e-01 1.474449634552001953e-01 1.750865876674652100e-01 -3.888538181781768799e-01
1.900000000000000000e+02 1.131169128417968750e+01 5.272727459669113159e-02 2.320978604257106781e-02 5.896029248833656311e-02 2.465102449059486389e-02 -1.208178028464317322e-01
1.910000000000000000e+02 1.150582027435302734e+01 4.097825288772583008e-02 2.866819798946380615e-01 -2.279753983020782471e-02 7.916533201932907104e-02 -1.505268663167953491e-01
1.920000000000000000e+02 1.170419788360595703e+01 4.016016423702239990e-02 5.564956665039062500e-01 9.181652963161468506e-02 1.944936662912368774e-01 -1.888754069805145264e-01
1.930000000000000000e+02 1.190885829925537109e+01 2.541059441864490509e-02 8.314564228057861328e-01 -4.944367334246635437e-02 2.346038222312927246e-01 -2.141683697700500488e-01
1.940000000000000000e+02 1.396631336212158203e+01 8.544854521751403809e-01 9.722498059272766113e-02 4.484926700592041016e+00 1.374645590782165527e+00 4.011594295501708984e+00
1.950000000000000000e+02 1.355319976806640625e+01 7.700366973876953125e-01 1.894605457782745361e-01 9.848314285278320312e+00 3.011332273483276367e+00 2.773676156997680664e+00
1.960000000000000000e+02 1.314686679840087891e+01 9.688538908958435059e-01 -1.008412957191467285e+00 1.038997840881347656e+01 2.814469575881958008e+00 -5.226006507873535156e-01
1.970000000000000000e+02 1.180669212341308594e+01 6.558462381362915039e-01 1.991420269012451172e+00 1.259196639060974121e+00 9.751850366592407227e-01 -1.961248636245727539e+00
1.980000000000000000e+02 1.231161403656005859e+01 -1.261955738067626953e+00 1.228859424591064453e+00 4.741775989532470703e+00 1.791190624237060547e+00 3.788459062576293945e+00
1.990000000000000000e+02 1.272109699249267578e+01 -1.397058129310607910e+00 -4.639049768447875977e-01 7.681483745574951172e+00 2.165273666381835938e+00 3.072043895721435547e+00
2.000000000000000000e+02 1.402027225494384766e+01 -4.923889636993408203e-01 5.285567283630371094e+00 3.129035711288452148e+00 2.524380922317504883e+00 -2.642539978027343750e+00
2.010000000000000000e+02 1.092842578887939453e+01 -4.390117228031158447e-01 -1.394700258970260620e-01 6.067520752549171448e-02 -2.363844402134418488e-02 3.307625353336334229e-01
2.020000000000000000e+02 1.022987937927246094e+01 -1.389277219772338867e+00 5.973379686474800110e-02 4.109797775745391846e-01 1.412140727043151855e-01 8.920328021049499512e-01
2.030000000000000000e+02 1.039277935028076172e+01 -1.056732058525085449e+00 7.319772243499755859e-02 2.433798462152481079e-01 9.497327357530593872e-02 7.213583588600158691e-01
2.040000000000000000e+02 1.030517864227294922e+01 -1.508547812700271606e-01 -1.022058010101318359e+00 6.449005752801895142e-02 -2.872703671455383301e-01 6.524910032749176025e-02
2.050000000000000000e+02 1.224722480773925781e+01 -1.483280658721923828e+00 4.849095344543457031e-01 4.532270431518554688e+00 1.505154013633728027e+00 3.441313505172729492e+00
2.060000000000000000e+02 1.204191970825195312e+01 -1.487779736518859863e+00 8.014618754386901855e-01 3.415261268615722656e+00 1.265017032623291016e+00 3.078370571136474609e+00
2.070000000000000000e+02 1.144901275634765625e+01 -1.408118128776550293e+00 9.640020728111267090e-01 1.435525774955749512e+00 7.198583483695983887e-01 2.190472126007080078e+00
2.080000000000000000e+02 1.433649921417236328e+01 2.579021453857421875e-01 2.909191846847534180e+00 -2.183892488479614258e+00 2.175897955894470215e-01 7.703751325607299805e-01
2.090000000000000000e+02 1.410757541656494141e+01 -9.617317467927932739e-02 5.997509002685546875e+00 1.809194326400756836e+00 2.342010974884033203e+00 3.265693783760070801e-01
2.100000000000000000e+02 1.425503730773925781e+01 -8.459845185279846191e-01 1.982559323310852051e+00 8.232631683349609375e-01 8.417467474937438965e-01 -3.455712318420410156e+00
2.110000000000000000e+02 1.398429489135742188e+01 -8.851665258407592773e-01 2.262187004089355469e+00 4.035369396209716797e+00 1.889266848564147949e+00 -3.687950611114501953e+00
2.120000000000000000e+02 1.013280296325683594e+01 1.388592720031738281e+00 1.210431456565856934e-01 4.738951623439788818e-01 1.784814894199371338e-01 -6.719747185707092285e-01
2.130000000000000000e+02 1.053792285919189453e+01 1.362200260162353516e+00 3.194648921489715576e-01 6.397042274475097656e-01 2.877507507801055908e-01 -9.442679882049560547e-01
2.140000000000000000e+02 1.116952991485595703e+01 1.176054954528808594e+00 6.720533967018127441e-01 1.000985622406005859e+00 5.019116997718811035e-01 -1.443119287490844727e+00
2.150000000000000000e+02 1.252410507202148438e+01 8.396770358085632324e-01 1.442060947418212891e+00 6.373050212860107422e+00 2.344533205032348633e+00 -4.036076068878173828e+00
2.160000000000000000e+02 1.322660732269287109e+01 -1.236774444580078125e+00 -8.654882311820983887e-01 1.017062664031982422e+01 2.791541576385498047e+00 8.821313828229904175e-02
2.170000000000000000e+02 1.208614158630371094e+01 -1.144717812538146973e+00 1.875133514404296875e+00 2.906670570373535156e+00 1.434541225433349609e+00 3.475387334823608398e+00
2.180000000000000000e+02 1.381792736053466797e+01 -8.502832651138305664e-01 2.609217405319213867e+00 6.525544166564941406e+00 2.740428447723388672e+00 -3.697596549987792969e+00
2.190000000000000000e+02 1.242835426330566406e+01 -1.078896880149841309e+00 1.873402476310729980e+00 5.329402923583984375e+00 2.160841464996337891e+00 4.450322151184082031e+00
2.200000000000000000e+02 1.391625118255615234e+01 -6.703621745109558105e-01 4.387282371520996094e+00 4.682450294494628906e+00 2.720919847488403320e+00 -3.504987001419067383e+00
2.210000000000000000e+02 1.194061946868896484e+01 -4.042081236839294434e-01 1.940916538238525391e+00 1.006547510623931885e-01 6.124714016914367676e-01 8.983108401298522949e-01
2.220000000000000000e+02 1.282074928283691406e+01 -1.227239727973937988e+00 -2.137180417776107788e-01 8.950166702270507812e+00 2.620934724807739258e+00 3.273287534713745117e+00
2.230000000000000000e+02 1.195104789733886719e+01 -1.324096918106079102e+00 1.280116319656372070e+00 2.875194311141967773e+00 1.246593236923217773e+00 3.031636714935302734e+00
2.240000000000000000e+02 1.302927970886230469e+01 -1.255190134048461914e+00 -8.980013132095336914e-01 9.915381431579589844e+00 2.705214023590087891e+00 1.743018507957458496e+00
2.250000000000000000e+02 1.369559288024902344e+01 -1.318902850151062012e+00 -1.994621157646179199e-01 7.293735980987548828e+00 2.128282070159912109e+00 -2.326572179794311523e+00
2.260000000000000000e+02 1.210188674926757812e+01 -7.885176539421081543e-01 3.053683042526245117e+00 1.634905219078063965e+00 1.406576514244079590e+00 3.021336555480957031e+00
2.270000000000000000e+02 1.333065032958984375e+01 9.303379654884338379e-01 -9.373044967651367188e-01 1.023537635803222656e+01 2.789421558380126953e+00 1.119923591613769531e+00
2.280000000000000000e+02 1.389511299133300781e+01 5.402220487594604492e-01 2.896582126617431641e+00 5.906916618347167969e+00 2.641049623489379883e+00 3.923506975173950195e+00
2.290000000000000000e+02 1.399347114562988281e+01 3.862060606479644775e-01 3.786281585693359375e+00 3.847779750823974609e+00 2.290218353271484375e+00 3.517388343811035156e+00
2.300000000000000000e+02 1.362188339233398438e+01 9.048147797584533691e-01 -4.575419425964355469e-01 7.985054016113281250e+00 2.258253574371337891e+00 3.038040399551391602e+00
2.310000000000000000e+02 1.218654537200927734e+01 6.257560253143310547e-01 2.782728433609008789e+00 2.607054471969604492e+00 1.616934895515441895e+00 -3.182816505432128906e+00
2.320000000000000000e+02 1.235675430297851562e+01 7.434518337249755859e-01 2.220957756042480469e+00 4.376151084899902344e+00 1.979132533073425293e+00 -3.900966167449951172e+00
2.330000000000000000e+02 1.202821445465087891e+01 4.653061926364898682e-01 2.639743089675903320e+00 1.047888278961181641e+00 1.106289386749267578e+00 -2.110560655593872070e+00
2.340000000000000000e+02 1.260510635375976562e+01 1.065384268760681152e+00 1.668099015951156616e-01 6.657258510589599609e+00 2.047220468521118164e+00 -3.070009708404541016e+00
2.350000000000000000e+02 1.295685863494873047e+01 9.866659045219421387e-01 -7.677496075630187988e-01 9.627599716186523438e+00 2.657955169677734375e+00 -1.958411693572998047e+00
2.360000000000000000e+02 1.177825164794921875e+01 1.010432481765747070e+00 1.392637610435485840e+00 1.915700435638427734e+00 9.925014376640319824e-01 -2.262807130813598633e+00
2.370000000000000000e+02 1.351757812500000000e+01 1.144451022148132324e+00 -1.274687886238098145e+00 7.772193908691406250e+00 1.949251770973205566e+00 2.018521308898925781e+00
2.380000000000000000e+02 1.215822315216064453e+01 1.264529824256896973e+00 5.836935043334960938e-01 3.903903484344482422e+00 1.346279025077819824e+00 -2.831402301788330078e+00
2.390000000000000000e+02 1.315710163116455078e+01 1.220389485359191895e+00 -1.488384127616882324e+00 8.368183135986328125e+00 2.063939809799194336e+00 -1.630313694477081299e-01
2.400000000000000000e+02 1.354817104339599609e+01 -1.420810222625732422e+00 -1.207083821296691895e+00 7.546771049499511719e+00 1.901906132698059082e+00 -1.894993543624877930e+00
2.410000000000000000e+02 1.433070850372314453e+01 -5.060973167419433594e-01 3.406426906585693359e+00 -3.383914828300476074e-01 9.204106330871582031e-01 -1.790635704994201660e+00
2.420000000000000000e+02 1.334282493591308594e+01 1.188281416893005371e+00 -1.452876091003417969e+00 8.355969429016113281e+00 2.070928096771240234e+00 9.287100434303283691e-01
2.430000000000000000e+02 1.368539524078369141e+01 -1.011009573936462402e+00 1.312139868736267090e+00 8.226710319519042969e+00 2.861654996871948242e+00 -3.122485399246215820e+00
2.440000000000000000e+02 1.385402774810791016e+01 -1.197594165802001953e+00 3.227473497390747070e-01 4.854710578918457031e+00 1.553237438201904297e+00 -2.901727914810180664e+00
2.450000000000000000e+02 1.434359645843505859e+01 -3.092387616634368896e-01 4.043077945709228516e+00 -8.817834258079528809e-01 9.483883380889892578e-01 -6.234682202339172363e-01
2.460000000000000000e+02 1.418482780456542969e+01 5.592429637908935547e-01 2.021929979324340820e+00 3.448025941848754883e+00 1.640986800193786621e+00 3.645999193191528320e+00
2.470000000000000000e+02 1.413633823394775391e+01 -8.518047332763671875e-01 2.510088205337524414e+00 2.263624191284179688e+00 1.432113766670227051e+00 -3.532521486282348633e+00
2.480000000000000000e+02 1.409411525726318359e+01 9.168010950088500977e-02 5.075909614562988281e+00 1.695137381553649902e+00 2.031314134597778320e+00 1.846056818962097168e+00
2.490000000000000000e+02 1.428163433074951172e+01 4.130147099494934082e-01 1.833977460861206055e+00 7.974815368652343750e-01 7.894377112388610840e-01 2.305669069290161133e+00
2.500000000000000000e+02 1.416385746002197266e+01 -9.757053852081298828e-01 1.263327836990356445e+00 2.000777482986450195e+00 9.792315363883972168e-01 -4.063704967498779297e+00
2.510000000000000000e+02 1.435167407989501953e+01 8.165198564529418945e-02 4.681071281433105469e+00 -1.857793927192687988e+00 8.469831943511962891e-01 7.881283760070800781e-01
2.520000000000000000e+02 1.409230136871337891e+01 -2.973653078079223633e-01 5.756962776184082031e+00 1.713838696479797363e+00 2.241240501403808594e+00 -1.105131626129150391e+00
2.530000000000000000e+02 1.368261528015136719e+01 1.078712224960327148e+00 -6.607880592346191406e-01 6.912575721740722656e+00 1.875536322593688965e+00 3.034204721450805664e+00
2.540000000000000000e+02 1.381958580017089844e+01 7.012059688568115234e-01 1.368413209915161133e+00 6.789066791534423828e+00 2.447243928909301758e+00 3.783648729324340820e+00
2.550000000000000000e+02 1.282107830047607422e+01 -1.533423185348510742e+00 -1.090945363044738770e+00 7.579694271087646484e+00 1.946624755859375000e+00 2.276078701019287109e+00
2.560000000000000000e+02 1.301630496978759766e+01 -1.506599307060241699e+00 -1.381164312362670898e+00 8.211730957031250000e+00 2.049170017242431641e+00 1.487999200820922852e+00
2.570000000000000000e+02 1.174686622619628906e+01 -1.229542016983032227e+00 1.475240111351013184e+00 1.840865015983581543e+00 9.948315620422363281e-01 2.690845251083374023e+00
2.580000000000000000e+02 1.005810451507568359e+01 -1.406179308891296387e+00 -9.680064022541046143e-02 4.739919602870941162e-01 1.131573989987373352e-01 7.641116380691528320e-01
2.590000000000000000e+02 1.245788669586181641e+01 -1.514672398567199707e+00 -2.260141633450984955e-02 5.743022918701171875e+00 1.716126441955566406e+00 3.270499229431152344e+00
2.600000000000000000e+02 1.008542346954345703e+01 -1.223870992660522461e+00 -9.423089027404785156e-02 2.861430048942565918e-01 5.757363885641098022e-02 6.420935392379760742e-01
2.610000000000000000e+02 1.110284328460693359e+01 -1.867224574089050293e-01 -5.066072940826416016e-01 4.322626069188117981e-02 -1.390143036842346191e-01 1.313984245061874390e-01
2.620000000000000000e+02 1.010426425933837891e+01 -7.843275666236877441e-01 -3.556157052516937256e-01 1.454496830701828003e-01 -6.304980069398880005e-02 4.071643054485321045e-01
2.630000000000000000e+02 1.130343246459960938e+01 -1.962375491857528687e-01 -3.125026822090148926e-01 -4.933166131377220154e-02 -1.085503026843070984e-01 1.346105486154556274e-01
2.640000000000000000e+02 1.162414932250976562e+01 -9.435048699378967285e-01 1.634304404258728027e+00 7.815734744071960449e-01 7.247633934020996094e-01 1.860895514488220215e+00
2.650000000000000000e+02 1.073105812072753906e+01 -4.597482383251190186e-01 -2.664753794670104980e-01 8.079186955001205206e-05 -7.991836965084075928e-02 3.153676390647888184e-01
2.660000000000000000e+02 1.072414875030517578e+01 -7.726843953132629395e-01 1.851099431514739990e-01 1.620103567838668823e-01 1.041360944509506226e-01 6.570542454719543457e-01
2.670000000000000000e+02 1.030160427093505859e+01 -5.954492092132568359e-01 -4.671992361545562744e-01 5.676199123263359070e-02 -1.231311783194541931e-01 3.377259671688079834e-01
2.680000000000000000e+02 1.193902111053466797e+01 2.479712665081024170e-01 2.048893451690673828e+00 4.140625000000000000e-01 7.388867735862731934e-01 -1.051821589469909668e+00
2.690000000000000000e+02 1.029974079132080078e+01 5.785314440727233887e-01 -6.035487167537212372e-03 6.391701102256774902e-02 1.736445724964141846e-02 -3.145587444305419922e-01
2.700000000000000000e+02 1.094192981719970703e+01 1.346936941146850586e+00 4.607519805431365967e-01 9.993910193443298340e-01 4.380429089069366455e-01 -1.283396005630493164e+00
2.710000000000000000e+02 1.113626194000244141e+01 1.353759884834289551e+00 5.787456035614013672e-01 1.172901391983032227e+00 5.254940986633300781e-01 -1.458454728126525879e+00
2.720000000000000000e+02 1.131354427337646484e+01 1.326190114021301270e+00 7.008526921272277832e-01 1.392799973487854004e+00 6.280958056449890137e-01 -1.702103972434997559e+00
2.730000000000000000e+02 1.033485126495361328e+01 1.376016616821289062e+00 2.016341239213943481e-01 4.769170582294464111e-01 2.035653591156005859e-01 -7.940053939819335938e-01
2.740000000000000000e+02 1.151460266113281250e+01 1.273540735244750977e+00 8.239156007766723633e-01 1.672651529312133789e+00 7.489701509475708008e-01 -1.916182756423950195e+00
2.750000000000000000e+02 1.236888885498046875e+01 1.259784221649169922e+00 2.240673154592514038e-01 4.915606021881103516e+00 1.541902065277099609e+00 -2.783437013626098633e+00
2.760000000000000000e+02 1.277114009857177734e+01 1.259913206100463867e+00 -9.226527810096740723e-01 7.536659717559814453e+00 1.984202146530151367e+00 -2.121534585952758789e+00
2.770000000000000000e+02 1.296504592895507812e+01 1.241183161735534668e+00 -1.239841103553771973e+00 8.047716140747070312e+00 2.042362689971923828e+00 -1.347152829170227051e+00
2.780000000000000000e+02 1.011546802520751953e+01 -1.016662001609802246e+00 -1.542886346578598022e-01 2.137050777673721313e-01 1.782493479549884796e-02 5.774530172348022461e-01
2.790000000000000000e+02 1.009899616241455078e+01 -3.522476851940155029e-01 -9.300603866577148438e-01 6.391886621713638306e-03 -2.771005630493164062e-01 1.695454716682434082e-01
2.800000000000000000e+02 1.042698955535888672e+01 -1.366056323051452637e+00 1.724682152271270752e-01 5.104240179061889648e-01 2.048676759004592896e-01 1.000566005706787109e+00
2.810000000000000000e+02 1.032693958282470703e+01 3.695657849311828613e-01 -3.102479577064514160e-01 2.792724780738353729e-02 -8.469621092081069946e-02 -1.569405049085617065e-01
2.820000000000000000e+02 1.010692977905273438e+01 7.589154839515686035e-01 -4.735207557678222656e-02 8.720707893371582031e-02 1.195650082081556320e-02 -3.804248273372650146e-01
2.830000000000000000e+02 1.192014598846435547e+01 8.521766066551208496e-01 1.823972463607788086e+00 2.008218050003051758e+00 1.149657130241394043e+00 -2.566986560821533203e+00
2.840000000000000000e+02 1.170896244049072266e+01 -2.044248431921005249e-01 1.674886494874954224e-01 -5.099340528249740601e-02 3.494857624173164368e-02 1.771002411842346191e-01
2.850000000000000000e+02 1.109761238098144531e+01 -1.097126364707946777e+00 8.315220475196838379e-01 5.911775231361389160e-01 4.268098771572113037e-01 1.359969377517700195e+00
2.860000000000000000e+02 1.122285652160644531e+01 -1.397234916687011719e+00 8.242172598838806152e-01 1.027459859848022461e+00 5.555031299591064453e-01 1.827955961227416992e+00
2.870000000000000000e+02 1.189292621612548828e+01 -8.318058252334594727e-01 2.421158313751220703e+00 1.264990091323852539e+00 1.105844497680664062e+00 2.382524251937866211e+00
2.880000000000000000e+02 1.091124725341796875e+01 -1.220159649848937988e+00 5.572592616081237793e-01 5.526378154754638672e-01 3.329690992832183838e-01 1.295820713043212891e+00
2.890000000000000000e+02 1.065041065216064453e+01 -1.386968016624450684e+00 3.166057467460632324e-01 6.427744030952453613e-01 2.878140509128570557e-01 1.234328508377075195e+00
2.900000000000000000e+02 1.070801353454589844e+01 -1.802895516157150269e-01 -8.191036581993103027e-01 3.855849057435989380e-02 -2.341635525226593018e-01 1.069346889853477478e-01
2.910000000000000000e+02 1.110999488830566406e+01 -4.272592961788177490e-01 5.895026028156280518e-02 8.365051820874214172e-03 2.019459381699562073e-02 3.599222600460052490e-01
2.920000000000000000e+02 1.071767616271972656e+01 1.174058914184570312e-01 -3.832831680774688721e-01 1.951031759381294250e-02 -1.091318503022193909e-01 -3.936957940459251404e-02
2.930000000000000000e+02 1.111715412139892578e+01 7.972744852304458618e-02 -1.596357971429824829e-01 1.020880602300167084e-02 -4.482809826731681824e-02 -7.615981251001358032e-02
2.940000000000000000e+02 1.091926765441894531e+01 1.067735925316810608e-01 -2.869303226470947266e-01 1.636819168925285339e-02 -8.116863667964935303e-02 -6.058319285511970520e-02
2.950000000000000000e+02 1.074473381042480469e+01 3.990175724029541016e-01 8.381015062332153320e-02 8.902592211961746216e-02 5.185082182288169861e-02 -3.358480632305145264e-01
2.960000000000000000e+02 1.067378520965576172e+01 -1.090453028678894043e+00 3.447779119014739990e-01 3.783449232578277588e-01 2.169368416070938110e-01 9.497647285461425781e-01
2.970000000000000000e+02 1.098201465606689453e+01 -8.153011202812194824e-01 5.043438076972961426e-01 2.072056531906127930e-01 2.134648412466049194e-01 8.302232027053833008e-01
2.980000000000000000e+02 1.162161064147949219e+01 4.971678853034973145e-01 1.552673220634460449e+00 4.789833724498748779e-01 6.094970107078552246e-01 -1.198167920112609863e+00
2.990000000000000000e+02 1.161992645263671875e+01 8.595179915428161621e-01 1.324833035469055176e+00 1.224068760871887207e+00 7.646705508232116699e-01 -1.844185471534729004e+00
3.000000000000000000e+02 1.030904865264892578e+01 9.464933872222900391e-01 1.194881498813629150e-01 2.277104705572128296e-01 1.041595861315727234e-01 -5.357072949409484863e-01
3.010000000000000000e+02 1.032608127593994141e+01 1.157578110694885254e+00 2.094601988792419434e-01 3.733614385128021240e-01 1.748464852571487427e-01 -6.738939285278320312e-01
3.020000000000000000e+02 1.063763332366943359e+01 5.927426815032958984e-01 2.734653949737548828e-01 1.595769226551055908e-01 1.299126893281936646e-01 -4.162994325160980225e-01
3.030000000000000000e+02 1.182529163360595703e+01 -6.464205980300903320e-01 2.179865121841430664e+00 4.968544840812683105e-01 8.030158877372741699e-01 1.622262120246887207e+00
3.040000000000000000e+02 1.174291610717773438e+01 -4.401647448539733887e-01 1.390626668930053711e+00 1.552350670099258423e-01 4.637585282325744629e-01 7.288003563880920410e-01
3.050000000000000000e+02 1.152718925476074219e+01 -4.503596425056457520e-01 9.164028763771057129e-01 5.710483342409133911e-02 2.920522987842559814e-01 6.391136050224304199e-01
3.060000000000000000e+02 1.131015777587890625e+01 -4.450244307518005371e-01 3.661268055438995361e-01 1.293362230062484741e-01 1.486389040946960449e-01 4.951377809047698975e-01
3.070000000000000000e+02 1.144371700286865234e+01 3.840042650699615479e-01 9.982112050056457520e-01 2.221587300300598145e-01 3.661109805107116699e-01 -6.558274626731872559e-01
3.080000000000000000e+02 1.117403507232666016e+01 -7.588955163955688477e-01 7.392075061798095703e-01 3.101642429828643799e-01 3.148115277290344238e-01 9.337510466575622559e-01
3.090000000000000000e+02 1.144518852233886719e+01 -8.304561376571655273e-01 1.390993833541870117e+00 5.368619561195373535e-01 5.783567428588867188e-01 1.420161485671997070e+00
3.100000000000000000e+02 1.053155899047851562e+01 1.132208228111267090e+00 3.300573825836181641e-01 4.193465113639831543e-01 2.248211801052093506e-01 -7.879932522773742676e-01
3.110000000000000000e+02 1.028259181976318359e+01 7.538998723030090332e-01 1.089600287377834320e-02 1.917095780372619629e-01 6.078167632222175598e-02 -3.815977871417999268e-01
3.120000000000000000e+02 1.010744667053222656e+01 5.541800856590270996e-01 -1.952768266201019287e-01 4.225352406501770020e-02 -4.590699076652526855e-02 -1.744593232870101929e-01
3.130000000000000000e+02 1.011151313781738281e+01 3.443748056888580322e-01 -4.587910473346710205e-01 -9.172289632260799408e-03 -1.403890103101730347e-01 -1.471709161996841431e-01
3.140000000000000000e+02 1.051009178161621094e+01 9.043091535568237305e-01 2.597748637199401855e-01 2.959328293800354004e-01 1.667122989892959595e-01 -6.175079941749572754e-01
3.150000000000000000e+02 1.074048423767089844e+01 1.350824236869812012e+00 4.126681983470916748e-01 7.778744697570800781e-01 3.571628034114837646e-01 -1.101108074188232422e+00
3.160000000000000000e+02 1.073564147949218750e+01 8.388385176658630371e-01 4.221283197402954102e-01 3.175272047519683838e-01 2.218966633081436157e-01 -7.232047915458679199e-01
3.170000000000000000e+02 1.051454544067382812e+01 1.206533536314964294e-01 -4.950408935546875000e-01 -1.739534363150596619e-02 -1.537308692932128906e-01 -4.625777527689933777e-02
3.180000000000000000e+02 1.053732490539550781e+01 3.713271617889404297e-01 -2.003184109926223755e-01 6.171231716871261597e-02 -4.158182814717292786e-02 -1.852457970380783081e-01
3.190000000000000000e+02 1.096706104278564453e+01 3.963410258293151855e-01 3.004492521286010742e-01 8.792330324649810791e-02 1.165117695927619934e-01 -3.764316439628601074e-01
3.200000000000000000e+02 1.134730529785156250e+01 2.413852214813232422e-01 5.178639888763427734e-01 3.255908563733100891e-02 1.651269197463989258e-01 -3.577943146228790283e-01
3.210000000000000000e+02 1.170595550537109375e+01 2.730948328971862793e-01 1.429563403129577637e+00 2.198537141084671021e-01 4.948251247406005859e-01 -7.614754438400268555e-01
3.220000000000000000e+02 1.009679508209228516e+01 -5.676240921020507812e-01 -5.544288754463195801e-01 4.194776341319084167e-02 -1.537443250417709351e-01 2.506981194019317627e-01
3.230000000000000000e+02 1.050809192657470703e+01 -1.674487292766571045e-01 -9.367958903312683105e-01 -3.124660067260265350e-02 -2.904127538204193115e-01 1.003496497869491577e-01
3.240000000000000000e+02 1.031029987335205078e+01 -3.831085860729217529e-01 -7.024717330932617188e-01 2.733524329960346222e-02 -2.025409340858459473e-01 1.880249083042144775e-01
3.250000000000000000e+02 1.034220886230468750e+01 -7.993565797805786133e-01 -1.567664295434951782e-01 1.115322709083557129e-01 -1.357024814933538437e-02 4.900731444358825684e-01
3.260000000000000000e+02 1.051795291900634766e+01 -4.224089384078979492e-01 -4.710561037063598633e-01 7.992134243249893188e-02 -1.173404231667518616e-01 2.562666535377502441e-01
3.270000000000000000e+02 1.090498065948486328e+01 -1.829397231340408325e-01 -6.833101511001586914e-01 -3.347694873809814453e-02 -2.150361388921737671e-01 1.184687092900276184e-01
3.280000000000000000e+02 1.143705940246582031e+01 1.002472519874572754e+00 1.105462074279785156e+00 1.208039283752441406e+00 6.940504312515258789e-01 -1.692080378532409668e+00
3.290000000000000000e+02 1.194943237304687500e+01 1.049431681632995605e+00 1.270806670188903809e+00 2.798289537429809570e+00 1.220728874206542969e+00 -2.747536897659301758e+00
3.300000000000000000e+02 1.201078224182128906e+01 -5.976803898811340332e-01 2.797145128250122070e+00 5.793688297271728516e-01 1.012954115867614746e+00 1.745614528656005859e+00
3.310000000000000000e+02 1.195020294189453125e+01 1.281288862228393555e+00 7.565960288047790527e-01 3.064929723739624023e+00 1.146457791328430176e+00 -2.549480438232421875e+00
3.320000000000000000e+02 1.212706375122070312e+01 1.028087854385375977e+00 1.182796239852905273e+00 3.477415323257446289e+00 1.398063421249389648e+00 -3.029891729354858398e+00
3.330000000000000000e+02 1.242739391326904297e+01 1.022106289863586426e+00 7.593261599540710449e-01 5.375514984130859375e+00 1.840452313423156738e+00 -3.428103923797607422e+00
3.340000000000000000e+02 1.374111461639404297e+01 8.296647667884826660e-01 -1.300328820943832397e-01 7.227019309997558594e+00 2.129096031188964844e+00 3.398019552230834961e+00
3.350000000000000000e+02 1.383494091033935547e+01 9.807732701301574707e-01 -4.134039580821990967e-01 5.974018573760986328e+00 1.668184399604797363e+00 3.631401062011718750e+00
3.360000000000000000e+02 1.435889530181884766e+01 -1.074935942888259888e-01 4.467932701110839844e+00 -2.184105873107910156e+00 6.851480603218078613e-01 7.162155508995056152e-01
3.370000000000000000e+02 1.413870716094970703e+01 -5.740620493888854980e-01 4.425420761108398438e+00 1.923681497573852539e+00 1.904730677604675293e+00 -2.689365148544311523e+00
3.380000000000000000e+02 1.430925273895263672e+01 -6.848587989807128906e-01 2.949859857559204102e+00 4.712610840797424316e-01 1.026336312294006348e+00 -2.771847724914550781e+00
3.390000000000000000e+02 1.401965332031250000e+01 -1.079553246498107910e+00 1.733540892601013184e+00 3.524716615676879883e+00 1.577477216720581055e+00 -4.043926239013671875e+00
3.400000000000000000e+02 1.339275646209716797e+01 -1.477632880210876465e+00 -1.819133520126342773e+00 8.146558761596679688e+00 1.898227691650390625e+00 -6.782237291336059570e-01
3.410000000000000000e+02 1.340916728973388672e+01 -1.277212142944335938e+00 -5.900365710258483887e-01 9.224978446960449219e+00 2.590482473373413086e+00 -1.089168906211853027e+00
3.420000000000000000e+02 1.264466762542724609e+01 -1.543159484863281250e+00 -5.216574072837829590e-01 6.612671375274658203e+00 1.827304244041442871e+00 2.960676193237304688e+00
3.430000000000000000e+02 1.252751445770263672e+01 -1.330133080482482910e+00 4.052940011024475098e-01 6.437401771545410156e+00 2.052808761596679688e+00 3.808281898498535156e+00
3.440000000000000000e+02 1.185962009429931641e+01 -1.490636110305786133e+00 8.276634216308593750e-01 2.590226411819458008e+00 1.025367021560668945e+00 2.814607143402099609e+00
3.450000000000000000e+02 1.166913509368896484e+01 -1.452670335769653320e+00 9.971020221710205078e-01 2.071968317031860352e+00 9.207210540771484375e-01 2.530746698379516602e+00
3.460000000000000000e+02 1.151411342620849609e+01 -1.141367316246032715e+00 1.358421087265014648e+00 1.107604980468750000e+00 7.398078441619873047e-01 1.992717981338500977e+00
3.470000000000000000e+02 1.102935695648193359e+01 -1.430552124977111816e+00 6.705511212348937988e-01 9.144980907440185547e-01 4.755147695541381836e-01 1.627334594726562500e+00
3.480000000000000000e+02 1.085132026672363281e+01 -1.425671577453613281e+00 4.879557788372039795e-01 7.180603146553039551e-01 3.618048131465911865e-01 1.346094012260437012e+00
3.490000000000000000e+02 1.210320758819580078e+01 8.245097994804382324e-01 2.007591009140014648e+00 2.668849229812622070e+00 1.402932047843933105e+00 -3.041005849838256836e+00
3.500000000000000000e+02 1.269006347656250000e+01 9.006164669990539551e-01 2.982889115810394287e-01 8.031216621398925781e+00 2.498851776123046875e+00 -3.522382736206054688e+00
3.510000000000000000e+02 1.368077564239501953e+01 6.821061372756958008e-01 1.370769619941711426e+00 8.448005676269531250e+00 2.945632457733154297e+00 3.638013839721679688e+00
3.520000000000000000e+02 1.403528213500976562e+01 -7.104182243347167969e-01 3.933018445968627930e+00 3.851484537124633789e+00 2.335350990295410156e+00 -3.462526082992553711e+00
3.530000000000000000e+02 1.415928077697753906e+01 -7.060424089431762695e-01 3.203010559082031250e+00 1.520472764968872070e+00 1.417044997215270996e+00 -3.284014225006103516e+00
3.540000000000000000e+02 1.095263290405273438e+01 1.121217727661132812e+00 6.399216055870056152e-01 7.331629991531372070e-01 4.119253754615783691e-01 -1.166462302207946777e+00
3.550000000000000000e+02 1.110544967651367188e+01 6.471765041351318359e-01 8.077131509780883789e-01 3.545034527778625488e-01 3.486649990081787109e-01 -8.067061305046081543e-01
3.560000000000000000e+02 1.048856830596923828e+01 -6.698386669158935547e-01 -2.098393887281417847e-01 1.275633573532104492e-01 -2.468280680477619171e-02 4.434291720390319824e-01
3.570000000000000000e+02 1.103911590576171875e+01 -6.080084443092346191e-01 2.841531634330749512e-01 8.735759556293487549e-02 1.114532276988029480e-01 5.762915611267089844e-01
3.580000000000000000e+02 1.170071315765380859e+01 -7.605780363082885742e-01 1.858967900276184082e+00 5.606451034545898438e-01 7.258839011192321777e-01 1.549552559852600098e+00
3.590000000000000000e+02 1.185027027130126953e+01 -1.030237436294555664e+00 2.035684108734130859e+00 1.608813524246215820e+00 1.093349337577819824e+00 2.593893051147460938e+00
3.600000000000000000e+02 1.098511219024658203e+01 8.648589253425598145e-01 6.209218502044677734e-01 4.632124304771423340e-01 3.252402842044830322e-01 -9.461514949798583984e-01
3.610000000000000000e+02 1.074026489257812500e+01 1.110711693763732910e+00 4.865245521068572998e-01 5.771080255508422852e-01 3.190897703170776367e-01 -9.637777805328369141e-01
3.620000000000000000e+02 1.226312160491943359e+01 9.201653599739074707e-01 1.523183107376098633e+00 4.174832820892333984e+00 1.709404706954956055e+00 -3.411324977874755859e+00
3.630000000000000000e+02 1.129327106475830078e+01 5.090463161468505859e-01 9.174435734748840332e-01 2.128765732049942017e-01 3.390960395336151123e-01 -7.536137104034423828e-01
3.640000000000000000e+02 1.130552768707275391e+01 8.153236508369445801e-01 1.026607632637023926e+00 6.946830749511718750e-01 5.163872241973876953e-01 -1.323084235191345215e+00
3.650000000000000000e+02 1.130356407165527344e+01 -9.806816577911376953e-01 1.139531016349792480e+00 4.961570501327514648e-01 4.907064139842987061e-01 1.447220683097839355e+00
3.660000000000000000e+02 1.150992393493652344e+01 2.311341017484664917e-01 7.683491110801696777e-01 1.621068418025970459e-01 2.791367769241333008e-01 -4.746755659580230713e-01
3.670000000000000000e+02 1.152203464508056641e+01 -6.683215498924255371e-01 1.306340098381042480e+00 3.430695235729217529e-01 4.948228597640991211e-01 1.148973107337951660e+00
3.680000000000000000e+02 1.133960914611816406e+01 -6.684086322784423828e-01 8.984181880950927734e-01 1.592980474233627319e-01 3.173148632049560547e-01 8.763968944549560547e-01
3.690000000000000000e+02 1.145887565612792969e+01 6.758190393447875977e-01 1.362966060638427734e+00 6.755647063255310059e-01 6.115592122077941895e-01 -1.325495123863220215e+00
3.700000000000000000e+02 1.044516563415527344e+01 6.945875883102416992e-01 7.475433498620986938e-02 1.133364289999008179e-01 5.642722919583320618e-02 -4.463502168655395508e-01
3.710000000000000000e+02 1.182103347778320312e+01 1.817218017578125000e+01 1.655110716819763184e+00 1.323462843894958496e+00 8.935720920562744141e-01 -1.216218709945678711e+00
3.720000000000000000e+02 1.300711441040039062e+01 1.733516883850097656e+01 1.938434839248657227e+00 2.269553899765014648e+00 1.262396693229675293e+00 -2.036644697189331055e+00
3.730000000000000000e+02 1.586968898773193359e+01 1.421445178985595703e+01 2.377741575241088867e+00 7.120160102844238281e+00 2.849370479583740234e+00 -3.580766201019287109e+00
3.740000000000000000e+02 2.046463775634765625e+01 1.201306152343750000e+01 1.146194219589233398e+00 9.283006668090820312e+00 3.128760337829589844e+00 -1.431226730346679688e+00
3.750000000000000000e+02 2.688403701782226562e+01 2.256505012512207031e+00 1.358096361160278320e+00 9.422667503356933594e+00 3.234229087829589844e+00 -2.967098029330372810e-03
3.760000000000000000e+02 3.467399597167968750e+01 -3.106209039688110352e-01 1.275672674179077148e+00 8.073398590087890625e+00 2.804721355438232422e+00 -2.925844863057136536e-02
3.770000000000000000e+02 4.414178085327148438e+01 -8.433793067932128906e+00 6.136656403541564941e-01 7.671459197998046875e+00 2.485537290573120117e+00 -3.825697004795074463e-01
3.780000000000000000e+02 5.033256530761718750e+01 -1.830361747741699219e+01 4.726955294609069824e-02 7.732912540435791016e+00 2.334054470062255859e+00 -4.639770388603210449e-01
3.790000000000000000e+02 5.161494064331054688e+01 -2.212208747863769531e+01 -9.022714942693710327e-02 7.775167465209960938e+00 2.305482149124145508e+00 -4.305295646190643311e-01
3.800000000000000000e+02 5.781799316406250000e+01 -3.286169433593750000e+01 -2.723709642887115479e-01 7.877257347106933594e+00 2.281466007232666016e+00 -2.232120484113693237e-01
3.810000000000000000e+02 6.617324066162109375e+01 -3.726889419555664062e+01 -1.343131363391876221e-01 7.930756092071533203e+00 2.338932752609252930e+00 -9.103019535541534424e-02
3.820000000000000000e+02 6.702119445800781250e+01 -4.081181716918945312e+01 -1.270516067743301392e-01 7.946544647216796875e+00 2.345848083496093750e+00 -2.801417373120784760e-02
3.830000000000000000e+02 7.270001983642578125e+01 -3.540188217163085938e+01 -4.686792194843292236e-02 7.991932392120361328e+00 2.383519411087036133e+00 -7.758508622646331787e-02
3.840000000000000000e+02 7.791484832763671875e+01 -4.161014556884765625e+01 1.214336138218641281e-03 8.149754524230957031e+00 2.445290803909301758e+00 3.353638458065688610e-04
3.850000000000000000e+02 7.776088714599609375e+01 -3.673986816406250000e+01 -5.510261747986078262e-03 8.112849235534667969e+00 2.432201623916625977e+00 -1.828826032578945160e-02
3.860000000000000000e+02 7.789685058593750000e+01 -3.041902351379394531e+01 -3.834608942270278931e-03 8.021399497985839844e+00 2.405269384384155273e+00 -4.485158622264862061e-02
3.870000000000000000e+02 7.799127197265625000e+01 -2.350500488281250000e+01 -1.777330879122018814e-03 7.866528511047363281e+00 2.359425306320190430e+00 -5.643741041421890259e-02
3.880000000000000000e+02 7.803205108642578125e+01 -1.658250045776367188e+01 1.935369451530277729e-03 7.685057640075683594e+00 2.306097984313964844e+00 -5.595318973064422607e-02
3.890000000000000000e+02 7.798189544677734375e+01 -9.652444839477539062e+00 2.396430587396025658e-03 7.526436328887939453e+00 2.258649826049804688e+00 -4.314637184143066406e-02
3.900000000000000000e+02 7.797881317138671875e+01 -2.660490036010742188e+00 5.858567543327808380e-03 7.428705215454101562e+00 2.230369091033935547e+00 -1.792320422828197479e-02
3.910000000000000000e+02 7.800136566162109375e+01 4.305628776550292969e+00 3.636843524873256683e-03 7.417686462402343750e+00 2.226397037506103516e+00 1.097452361136674881e-02
3.920000000000000000e+02 7.799421691894531250e+01 1.122163867950439453e+01 4.102827981114387512e-03 7.491529464721679688e+00 2.248689651489257812e+00 3.493321314454078674e-02
3.930000000000000000e+02 7.794432067871093750e+01 1.955080223083496094e+01 2.303899731487035751e-03 7.656199932098388672e+00 2.297551155090332031e+00 5.074527859687805176e-02
3.940000000000000000e+02 7.649367523193359375e+01 2.233905982971191406e+01 -2.363735577091574669e-03 7.721746921539306641e+00 2.315814971923828125e+00 8.246915042400360107e-02
3.950000000000000000e+02 7.932418060302734375e+01 3.196192359924316406e+01 1.313520828261971474e-03 7.941422939300537109e+00 2.382821083068847656e+00 1.230634097009897232e-02
3.960000000000000000e+02 7.901965332031250000e+01 3.740579986572265625e+01 1.572528999531641603e-04 8.000068664550781250e+00 2.400067806243896484e+00 4.341082647442817688e-03
3.970000000000000000e+02 7.196515655517578125e+01 3.626664733886718750e+01 -5.350447446107864380e-02 7.889876842498779297e+00 2.350911617279052734e+00 7.081723213195800781e-02
3.980000000000000000e+02 7.157740783691406250e+01 3.845920562744140625e+01 -5.790656432509422302e-02 7.899070739746093750e+00 2.352349281311035156e+00 4.661894217133522034e-02
3.990000000000000000e+02 7.247563934326171875e+01 3.171211433410644531e+01 -3.519205749034881592e-02 7.853904247283935547e+00 2.345613718032836914e+00 1.088152080774307251e-01
4.000000000000000000e+02 7.265438079833984375e+01 2.155218124389648438e+01 1.873355591669678688e-03 7.714802742004394531e+00 2.315002918243408203e+00 1.504140049219131470e-01
4.010000000000000000e+02 7.216397857666015625e+01 1.845055198669433594e+01 1.154086086899042130e-02 7.672450065612792969e+00 2.305197238922119141e+00 1.506145745515823364e-01
4.020000000000000000e+02 7.234244537353515625e+01 8.734079360961914062e+00 4.439053684473037720e-02 7.557243824005126953e+00 2.280490159988403320e+00 8.387418091297149658e-02
4.030000000000000000e+02 7.202012634277343750e+01 1.598568558692932129e+00 5.710698291659355164e-02 7.531536102294921875e+00 2.276592969894409180e+00 -1.340454182354733348e-04
4.040000000000000000e+02 7.268116760253906250e+01 -5.273191928863525391e+00 4.599810019135475159e-02 7.553113937377929688e+00 2.279733657836914062e+00 -8.513689786195755005e-02
4.050000000000000000e+02 7.254339599609375000e+01 -1.240562152862548828e+01 2.578595094382762909e-02 7.643108844757080078e+00 2.300668478012084961e+00 -1.511812210083007812e-01
4.060000000000000000e+02 6.634859466552734375e+01 -1.678286552429199219e+01 3.403881937265396118e-02 7.717449188232421875e+00 2.325446367263793945e+00 -2.609795928001403809e-01
4.070000000000000000e+02 6.454579162597656250e+01 -2.383586311340332031e+01 -4.916024580597877502e-02 7.803246021270751953e+00 2.326225757598876953e+00 -2.791522443294525146e-01
4.080000000000000000e+02 6.435355377197265625e+01 -3.050695419311523438e+01 -1.300569027662277222e-01 7.874794960021972656e+00 2.323421478271484375e+00 -2.152061462402343750e-01
4.090000000000000000e+02 6.520107269287109375e+01 -3.370426559448242188e+01 -1.396983414888381958e-01 7.908860683441162109e+00 2.330748558044433594e+00 -1.569893956184387207e-01
4.100000000000000000e+02 7.382184600830078125e+01 -3.224333572387695312e+01 -3.065844625234603882e-02 7.973729610443115234e+00 2.382921457290649414e+00 -1.000857725739479065e-01
4.110000000000000000e+02 7.247541809082031250e+01 -3.120639801025390625e+01 -3.522613272070884705e-02 7.939867973327636719e+00 2.371392488479614258e+00 -1.224972903728485107e-01
4.120000000000000000e+02 7.091895294189453125e+01 -2.367423057556152344e+01 -1.930620148777961731e-02 7.821324825286865234e+00 2.340605497360229492e+00 -1.962174922227859497e-01
4.130000000000000000e+02 7.933603668212890625e+01 -2.223942947387695312e+01 -8.858796209096908569e-04 7.842850685119628906e+00 2.352589368820190430e+00 -2.065062150359153748e-02
4.140000000000000000e+02 7.310373687744140625e+01 -1.900241279602050781e+01 2.576288301497697830e-03 7.752222061157226562e+00 2.326439380645751953e+00 -1.648786216974258423e-01
4.150000000000000000e+02 1.609279251098632812e+01 1.608301544189453125e+01 1.498629570007324219e+00 6.148265838623046875e+00 2.294068574905395508e+00 -2.376306295394897461e+00
4.160000000000000000e+02 1.656870079040527344e+01 1.300414276123046875e+01 1.767014145851135254e+00 8.131689071655273438e+00 2.969610929489135742e+00 -3.595993280410766602e+00
4.170000000000000000e+02 1.980023193359375000e+01 7.990167617797851562e+00 1.055306911468505859e+00 1.139626026153564453e+01 3.735470056533813477e+00 -1.809609770774841309e+00
4.180000000000000000e+02 1.897929191589355469e+01 3.501466274261474609e+00 3.528197109699249268e-01 1.327089977264404297e+01 4.087115764617919922e+00 -7.131375670433044434e-01
4.190000000000000000e+02 1.905569267272949219e+01 7.116386890411376953e-01 1.033761650323867798e-01 1.251882171630859375e+01 3.786659479141235352e+00 -4.485747963190078735e-02
4.200000000000000000e+02 1.897367668151855469e+01 -4.585365295410156250e+00 9.421021342277526855e-01 1.508863544464111328e+01 4.809221267700195312e+00 1.634507775306701660e+00
4.210000000000000000e+02 1.964718055725097656e+01 -5.583800792694091797e+00 1.855186462402343750e+00 1.360413837432861328e+01 4.637797355651855469e+00 2.060605525970458984e+00
4.220000000000000000e+02 1.817404747009277344e+01 -7.833673477172851562e+00 1.971042156219482422e+00 1.098929309844970703e+01 3.888100624084472656e+00 4.051335334777832031e+00
4.230000000000000000e+02 1.748473739624023438e+01 -9.031394958496093750e+00 2.102614402770996094e+00 8.889799118041992188e+00 3.297724008560180664e+00 3.917288303375244141e+00
4.240000000000000000e+02 1.267354297637939453e+01 -1.585767364501953125e+01 1.392883181571960449e+00 2.553689002990722656e+00 1.183971643447875977e+00 1.869805216789245605e+00
4.250000000000000000e+02 1.071879577636718750e+01 -1.787121200561523438e+01 1.474986553192138672e+00 1.365536451339721680e+00 8.521568775177001953e-01 1.062185645103454590e+00
4.260000000000000000e+02 7.120036602020263672e+00 -1.825215911865234375e+01 1.801828742027282715e+00 5.390057086944580078e+00 2.157565593719482422e+00 -1.065203547477722168e+00
4.270000000000000000e+02 8.485334396362304688e+00 -1.845444297790527344e+01 2.604039192199707031e+00 3.021195888519287109e+00 1.687570452690124512e+00 -1.376827359199523926e+00
4.280000000000000000e+02 7.714604377746582031e+00 -2.652075767517089844e+01 -4.265797138214111328e-01 2.716882944107055664e+00 6.870909333229064941e-01 7.486630082130432129e-01
4.290000000000000000e+02 7.013660907745361328e+00 -3.441369628906250000e+01 -2.640263736248016357e-01 2.425796508789062500e+00 6.485310792922973633e-01 4.059374630451202393e-01
4.300000000000000000e+02 8.301921844482421875e+00 -4.066162872314453125e+01 -2.797152400016784668e-01 2.763328552246093750e+00 7.450839877128601074e-01 8.222963660955429077e-02
4.310000000000000000e+02 1.196109485626220703e+01 -3.391080093383789062e+01 -5.024760961532592773e-01 3.769249200820922852e+00 9.800319075584411621e-01 4.842077195644378662e-01
4.320000000000000000e+02 1.790122413635253906e+01 -4.045228958129882812e+01 -7.680453658103942871e-01 5.006457328796386719e+00 1.271523594856262207e+00 7.308882474899291992e-02
4.330000000000000000e+02 1.436052322387695312e+01 -2.884896659851074219e+01 -4.605286121368408203e-01 4.364621639251708984e+00 1.171227931976318359e+00 5.854827165603637695e-01
4.340000000000000000e+02 1.383191204071044922e+01 -2.602516174316406250e+01 -2.329646795988082886e-01 4.207620620727539062e+00 1.192396879196166992e+00 6.658135652542114258e-01
4.350000000000000000e+02 2.506898498535156250e+01 -1.862619400024414062e+01 -1.927752941846847534e-01 7.571436882019042969e+00 2.213598489761352539e+00 1.887144148349761963e-01
4.360000000000000000e+02 1.920693588256835938e+01 -1.156885051727294922e+01 8.668326735496520996e-01 8.373657226562500000e+00 2.772147178649902344e+00 1.965560793876647949e+00
4.370000000000000000e+02 2.000155448913574219e+01 -3.145904064178466797e+00 6.933520436286926270e-01 1.297802734375000000e+01 4.101413726806640625e+00 1.330890178680419922e+00
4.380000000000000000e+02 2.026356887817382812e+01 3.755654096603393555e+00 6.789411902427673340e-01 1.207068443298339844e+01 3.824887752532958984e+00 -8.036987781524658203e-01
4.390000000000000000e+02 1.917520141601562500e+01 1.107499217987060547e+01 1.387048482894897461e+00 9.916159629821777344e+00 3.390962600708007812e+00 -1.967310547828674316e+00
4.400000000000000000e+02 1.819641494750976562e+01 9.074134826660156250e+00 1.182080864906311035e+00 1.205107879638671875e+01 3.969948053359985352e+00 -2.754428625106811523e+00
4.410000000000000000e+02 5.711124420166015625e+00 -1.813814735412597656e+01 6.860072016716003418e-01 4.283188819885253906e+00 1.490758895874023438e+00 7.631844282150268555e-01
4.420000000000000000e+02 2.997556209564208984e+00 -1.565733814239501953e+01 7.090123295783996582e-01 -6.541293263435363770e-01 1.646490953862667084e-02 1.610950231552124023e-01
4.430000000000000000e+02 1.573920249938964844e+00 -1.483540248870849609e+01 2.058957964181900024e-01 -3.208249330520629883e+00 -9.007060527801513672e-01 -7.740667462348937988e-02
4.440000000000000000e+02 5.613976001739501953e+00 -1.585950946807861328e+01 2.264335632324218750e+00 3.946949720382690430e+00 1.863385558128356934e+00 -5.714772269129753113e-02
4.450000000000000000e+02 7.124638080596923828e+00 -1.695504379272460938e+01 1.916566848754882812e+00 8.558237075805664062e+00 3.142441034317016602e+00 -2.179590463638305664e+00
4.460000000000000000e+02 7.115858197212219238e-01 -2.338786125183105469e+01 -4.141473025083541870e-02 -1.532904148101806641e+00 -4.722956717014312744e-01 3.209545612335205078e-01
4.470000000000000000e+02 7.317757010459899902e-01 -2.480449104309082031e+01 -1.495444495230913162e-02 -9.628267884254455566e-01 -2.933343648910522461e-01 2.677175700664520264e-01
4.480000000000000000e+02 8.639077544212341309e-01 -3.202115631103515625e+01 -2.371404506266117096e-02 6.686437726020812988e-01 1.934789121150970459e-01 1.083470508456230164e-01
4.490000000000000000e+02 2.377133607864379883e+00 -3.739793014526367188e+01 -9.596147574484348297e-03 1.436760425567626953e+00 4.281492829322814941e-01 1.781522333621978760e-01
4.500000000000000000e+02 5.763847231864929199e-01 -3.733432006835937500e+01 1.494934782385826111e-02 1.232402205467224121e+00 3.742054700851440430e-01 3.814589604735374451e-02
4.510000000000000000e+02 6.411948204040527344e+00 -1.426988410949707031e+01 1.431040287017822266e+00 7.217218399047851562e+00 2.594477653503417969e+00 5.397405028343200684e-01
4.520000000000000000e+02 7.353541374206542969e+00 -1.359084224700927734e+01 1.346562027931213379e+00 7.839486598968505859e+00 2.755814552307128906e+00 2.094536066055297852e+00
4.530000000000000000e+02 8.838272094726562500e+00 -1.147604274749755859e+01 1.370714902877807617e+00 4.091179370880126953e+00 1.638568282127380371e+00 2.174851894378662109e+00
4.540000000000000000e+02 1.127653694152832031e+01 -8.237650871276855469e+00 8.725199103355407715e-01 2.069954872131347656e+00 8.827424049377441406e-01 1.407214045524597168e+00
4.550000000000000000e+02 1.291692447662353516e+01 -6.052866935729980469e+00 1.468709260225296021e-01 1.370100498199462891e+00 4.550914168357849121e-01 6.549311280250549316e-01
4.560000000000000000e+02 1.260829734802246094e+01 -1.818572640419006348e+00 -1.046105146408081055e+00 5.949549198150634766e+00 1.471033215522766113e+00 2.383830308914184570e+00
4.570000000000000000e+02 1.301637363433837891e+01 -1.777719855308532715e+00 -1.811312317848205566e+00 6.847439765930175781e+00 1.510838270187377930e+00 9.501447081565856934e-01
4.580000000000000000e+02 1.415070247650146484e+01 -1.236635565757751465e+00 6.448695659637451172e-01 2.132854223251342773e+00 8.333171606063842773e-01 -4.038249015808105469e+00
4.590000000000000000e+02 1.427408790588378906e+01 -1.091116309165954590e+00 1.766292810440063477e+00 1.401969313621520996e+00 9.504786729812622070e-01 -4.116917610168457031e+00
4.600000000000000000e+02 1.453504848480224609e+01 6.363070011138916016e-02 3.467095613479614258e+00 -4.109706401824951172e+00 -1.927831470966339111e-01 1.134130954742431641e+00
4.610000000000000000e+02 1.097169876098632812e+01 1.599893689155578613e+00 3.718028962612152100e-01 1.195555567741394043e+00 4.702075421810150146e-01 -1.384755611419677734e+00
4.620000000000000000e+02 1.035527801513671875e+01 1.724739551544189453e+00 1.973364204168319702e-01 7.339231371879577637e-01 2.793778479099273682e-01 -9.188876152038574219e-01
4.630000000000000000e+02 5.004126429557800293e-01 6.401252746582031250e+00 -5.094842519611120224e-03 -8.293263912200927734e-01 -2.503263652324676514e-01 1.152509450912475586e-01
4.640000000000000000e+02 1.159963607788085938e+00 2.145301103591918945e+00 -3.553792089223861694e-02 -1.057848110795021057e-01 -4.239682108163833618e-02 1.065398305654525757e-01
4.650000000000000000e+02 1.399264335632324219e+01 8.060743331909179688e+00 2.000768184661865234e-01 1.374770760536193848e+00 4.724542796611785889e-01 -4.829367399215698242e-01
4.660000000000000000e+02 1.210687160491943359e+01 1.147091197967529297e+01 4.611464738845825195e-01 1.420703053474426270e+00 5.645548701286315918e-01 -9.285719394683837891e-01
4.670000000000000000e+02 9.697783470153808594e+00 1.248029041290283203e+01 4.728966653347015381e-01 2.257176160812377930e+00 8.190218210220336914e-01 -1.246551990509033203e+00
4.680000000000000000e+02 8.458361625671386719e+00 1.520511913299560547e+01 2.006891250610351562e+00 5.556098937988281250e+00 2.268897056579589844e+00 -2.692297935485839844e+00
4.690000000000000000e+02 2.797077417373657227e+00 1.621672058105468750e+01 6.966024041175842285e-01 -1.395417690277099609e+00 -2.096446007490158081e-01 3.116128444671630859e-01
4.700000000000000000e+02 1.691539525985717773e+00 1.896789932250976562e+01 1.125199943780899048e-01 -2.764012813568115234e+00 -7.954478263854980469e-01 -4.779720008373260498e-01
4.710000000000000000e+02 5.754941105842590332e-01 2.049017524719238281e+01 -4.638926684856414795e-02 -3.926327228546142578e+00 -1.191815018653869629e+00 -2.729929387569427490e-01
4.720000000000000000e+02 7.613954544067382812e+00 1.717103958129882812e+01 3.030075073242187500e+00 1.077472114562988281e+01 4.141438961029052734e+00 2.022733390331268311e-01
4.730000000000000000e+02 5.582343339920043945e-01 1.491390800476074219e+01 -4.775223508477210999e-02 -4.392861366271972656e+00 -1.332184076309204102e+00 2.029578536748886108e-01
4.740000000000000000e+02 1.599488019943237305e+00 9.160717010498046875e+00 -6.582710891962051392e-02 -1.127617478370666504e+00 -3.580333590507507324e-01 5.037718415260314941e-01
4.750000000000000000e+02 9.068886756896972656e+00 1.153810501098632812e+01 -1.777239888906478882e-01 2.744707822799682617e+00 7.700951099395751953e-01 -9.342553615570068359e-01
4.760000000000000000e+02 1.048135757446289062e+01 1.886890029907226562e+01 1.920619249343872070e+00 5.950428247451782227e-01 7.546986341476440430e-01 -4.089689552783966064e-01
4.770000000000000000e+02 9.011107444763183594e+00 2.070348548889160156e+01 6.391993761062622070e-01 3.468021392822265625e+00 1.232166290283203125e+00 4.992665350437164307e-01
4.780000000000000000e+02 6.245942592620849609e+00 2.345632743835449219e+01 -2.220711410045623779e-01 2.309338092803955078e+00 6.261801123619079590e-01 -7.596082091331481934e-01
4.790000000000000000e+02 1.526231479644775391e+01 2.104654693603515625e+01 5.133673548698425293e-01 4.777595996856689453e+00 1.587288975715637207e+00 -1.347117543220520020e+00
4.800000000000000000e+02 5.779022693634033203e+00 1.890493392944335938e+00 -3.298369348049163818e-01 5.296675115823745728e-02 -8.306105434894561768e-02 1.806087791919708252e-01
4.810000000000000000e+02 1.007926177978515625e+01 1.786022186279296875e+00 1.292004585266113281e-01 6.041743755340576172e-01 2.200124561786651611e-01 -8.277848362922668457e-01
4.820000000000000000e+02 1.062010574340820312e+01 -1.666225314140319824e+00 2.088077962398529053e-01 8.910238146781921387e-01 3.299494981765747070e-01 1.287253499031066895e+00
4.830000000000000000e+02 3.806492567062377930e+00 -1.983721017837524414e+00 -3.670704066753387451e-01 -3.430020064115524292e-03 -1.111501231789588928e-01 -4.092909097671508789e-01
4.840000000000000000e+02 5.869339108467102051e-01 -1.073865604400634766e+01 2.982376515865325928e-02 -3.536789178848266602e+00 -1.052089571952819824e+00 -3.059890866279602051e-01
4.850000000000000000e+02 8.057818412780761719e+00 -1.255387878417968750e+01 1.374824166297912598e+00 5.232435703277587891e+00 1.982177972793579102e+00 2.628958940505981445e+00
4.860000000000000000e+02 2.278406906127929688e+01 -4.072684860229492188e+01 -9.232735633850097656e-01 5.976533889770507812e+00 1.515978097915649414e+00 3.650436922907829285e-02
4.870000000000000000e+02 1.930772590637207031e+01 -3.649380874633789062e+01 -7.971217036247253418e-01 5.319594860076904297e+00 1.356741905212402344e+00 2.085983455181121826e-01
4.880000000000000000e+02 2.436705970764160156e+01 -3.362180328369140625e+01 -8.883780837059020996e-01 6.319837093353271484e+00 1.629437685012817383e+00 1.310254335403442383e-01
4.890000000000000000e+02 2.304724121093750000e+01 -2.244071197509765625e+01 -4.804201424121856689e-01 6.873639106750488281e+00 1.917965650558471680e+00 3.733287751674652100e-01
4.900000000000000000e+02 2.604546165466308594e+01 -1.585707283020019531e+01 8.495350182056427002e-02 7.896577835083007812e+00 2.394459486007690430e+00 4.211855307221412659e-02
4.910000000000000000e+02 2.791117477416992188e+01 -8.621350288391113281e+00 1.163486003875732422e+00 8.519768714904785156e+00 2.904976367950439453e+00 -1.700475811958312988e-01
4.920000000000000000e+02 2.808647918701171875e+01 -2.986458063125610352e+00 1.489572763442993164e+00 8.968288421630859375e+00 3.137358427047729492e+00 7.433102279901504517e-02
4.930000000000000000e+02 2.846885490417480469e+01 2.991796493530273438e+00 1.372858166694641113e+00 8.935982704162597656e+00 3.092652320861816406e+00 2.586718462407588959e-02
4.940000000000000000e+02 2.762779617309570312e+01 -4.081029510498046875e+01 -9.796863794326782227e-01 6.680104255676269531e+00 1.710125327110290527e+00 -1.045987475663423538e-03
4.950000000000000000e+02 2.835807800292968750e+01 -3.043320274353027344e+01 -8.298390507698059082e-01 6.975530147552490234e+00 1.843707323074340820e+00 -1.352926250547170639e-02
4.960000000000000000e+02 2.748165702819824219e+01 -2.164716148376464844e+01 -4.198041558265686035e-01 7.478502750396728516e+00 2.117609739303588867e+00 -4.784536361694335938e-02
4.970000000000000000e+02 3.189933776855468750e+01 -1.594960021972656250e+01 1.607375144958496094e-01 7.916000366210937500e+00 2.423021316528320312e+00 -4.128496646881103516e-01
4.980000000000000000e+02 3.753441238403320312e+01 -1.321654033660888672e+01 4.434821307659149170e-01 7.815737247467041016e+00 2.477765798568725586e+00 -5.251753330230712891e-01
4.990000000000000000e+02 3.475762176513671875e+01 -2.917729377746582031e+00 1.240733623504638672e+00 8.035399436950683594e+00 2.782840013504028320e+00 -1.526696830987930298e-01
5.000000000000000000e+02 4.214696502685546875e+01 -4.044287490844726562e+01 -7.543233036994934082e-01 7.708273887634277344e+00 2.086185216903686523e+00 -4.844075068831443787e-02
5.010000000000000000e+02 3.730656814575195312e+01 -4.067461395263671875e+01 -8.756606578826904297e-01 7.506737232208251953e+00 1.989323019981384277e+00 -4.379430785775184631e-02
5.020000000000000000e+02 3.576564788818359375e+01 -2.939313697814941406e+01 -6.671791672706604004e-01 7.556421756744384766e+00 2.066772699356079102e+00 -2.711879909038543701e-01
5.030000000000000000e+02 3.537688827514648438e+01 -2.138767433166503906e+01 -2.588115930557250977e-01 7.723456859588623047e+00 2.239393472671508789e+00 -4.417489171028137207e-01
5.040000000000000000e+02 4.326714706420898438e+01 -1.456472396850585938e+01 2.773196399211883545e-01 7.732491493225097656e+00 2.402943372726440430e+00 -5.083856582641601562e-01
5.050000000000000000e+02 4.277207565307617188e+01 -1.060826969146728516e+01 5.399988889694213867e-01 7.701632022857666016e+00 2.472489356994628906e+00 -4.481596946716308594e-01
5.060000000000000000e+02 4.114430999755859375e+01 -3.640462875366210938e+01 -7.375933527946472168e-01 7.686413764953613281e+00 2.084645986557006836e+00 -1.610908955335617065e-01
5.070000000000000000e+02 4.555212783813476562e+01 -2.915095138549804688e+01 -4.493918716907501221e-01 7.790021419525146484e+00 2.202188730239868164e+00 -3.538297116756439209e-01
5.080000000000000000e+02 4.142646026611328125e+01 -2.185637855529785156e+01 -1.751620918512344360e-01 7.776428699493408203e+00 2.280380010604858398e+00 -4.936071932315826416e-01
5.090000000000000000e+02 4.550437927246093750e+01 -1.604481887817382812e+01 1.745274066925048828e-01 7.724172115325927734e+00 2.369609832763671875e+00 -5.092216134071350098e-01
5.100000000000000000e+02 4.708324432373046875e+01 -3.995277786254882812e+01 -6.027367711067199707e-01 7.821298599243164062e+00 2.165568590164184570e+00 -8.063206821680068970e-02
5.110000000000000000e+02 5.222902679443359375e+01 -3.994465255737304688e+01 -4.710716009140014648e-01 7.871949195861816406e+00 2.220263242721557617e+00 -7.298301160335540771e-02
5.120000000000000000e+02 4.861799621582031250e+01 -3.277045822143554688e+01 -4.697270393371582031e-01 7.827475070953369141e+00 2.207324504852294922e+00 -2.621753811836242676e-01
5.130000000000000000e+02 5.021111297607421875e+01 -2.470530128479003906e+01 -1.967600435018539429e-01 7.802606105804443359e+00 2.281753778457641602e+00 -4.136531054973602295e-01
5.140000000000000000e+02 6.222970962524414062e+01 -4.070117950439453125e+01 -2.181764245033264160e-01 7.916702747344970703e+00 2.309557914733886719e+00 -3.565058484673500061e-02
5.150000000000000000e+02 5.733474731445312500e+01 -4.044372177124023438e+01 -3.324099481105804443e-01 7.900735855102539062e+00 2.270497798919677734e+00 -5.213077738881111145e-02
5.160000000000000000e+02 6.229103851318359375e+01 4.051211547851562500e+01 -2.029538601636886597e-01 7.881600856781005859e+00 2.303594112396240234e+00 3.883401677012443542e-02
5.170000000000000000e+02 6.303151321411132812e+01 3.189037132263183594e+01 -1.424632668495178223e-01 7.841535568237304688e+00 2.309721708297729492e+00 1.911422610282897949e-01
5.180000000000000000e+02 6.665654754638671875e+01 2.653529357910156250e+01 -5.159325897693634033e-02 7.788212299346923828e+00 2.320985555648803711e+00 2.064696103334426880e-01
5.190000000000000000e+02 6.645786285400390625e+01 1.619534111022949219e+01 5.103907734155654907e-02 7.670688152313232422e+00 2.316518306732177734e+00 2.122076302766799927e-01
5.200000000000000000e+02 6.577411651611328125e+01 1.011153888702392578e+01 1.189093887805938721e-01 7.611175537109375000e+00 2.319025516510009766e+00 1.522326469421386719e-01
5.210000000000000000e+02 6.633049011230468750e+01 3.191045522689819336e+00 1.457792967557907104e-01 7.576099395751953125e+00 2.316563606262207031e+00 2.754151821136474609e-02
5.220000000000000000e+02 6.668469238281250000e+01 -1.221633338928222656e+01 7.813392579555511475e-02 7.660140991210937500e+00 2.321482419967651367e+00 -2.261794656515121460e-01
5.230000000000000000e+02 6.097587203979492188e+01 -1.524730396270751953e+01 9.225843101739883423e-02 7.696016788482666016e+00 2.336482524871826172e+00 -3.172051906585693359e-01
5.240000000000000000e+02 5.750174331665039062e+01 -2.207265281677246094e+01 -5.362755060195922852e-02 7.778692245483398438e+00 2.317519426345825195e+00 -3.662859201431274414e-01
5.250000000000000000e+02 5.993587493896484375e+01 -2.300168228149414062e+01 -6.114310398697853088e-02 7.787962436676025391e+00 2.318045854568481445e+00 -3.370766639709472656e-01
5.260000000000000000e+02 5.731079101562500000e+01 4.070889282226562500e+01 -3.171510100364685059e-01 7.893595695495605469e+00 2.272933244705200195e+00 4.630220681428909302e-02
5.270000000000000000e+02 6.125609970092773438e+01 3.659046936035156250e+01 -2.077263146638870239e-01 7.873507022857666016e+00 2.299734115600585938e+00 1.209115535020828247e-01
5.280000000000000000e+02 5.897647857666015625e+01 2.964028549194335938e+01 -1.702047437429428101e-01 7.834001541137695312e+00 2.299139022827148438e+00 2.573794126510620117e-01
5.290000000000000000e+02 5.853126525878906250e+01 2.658719444274902344e+01 -1.144202053546905518e-01 7.803869247436523438e+00 2.306834697723388672e+00 2.921407222747802734e-01
5.300000000000000000e+02 5.783277893066406250e+01 1.589501667022705078e+01 1.299496889114379883e-01 7.684111118316650391e+00 2.344218254089355469e+00 3.024344444274902344e-01
5.310000000000000000e+02 5.951593780517578125e+01 2.418283700942993164e+00 3.002631962299346924e-01 7.582322120666503906e+00 2.364775657653808594e+00 2.080820873379707336e-02
5.320000000000000000e+02 5.872871017456054688e+01 -2.925380468368530273e+00 3.089148700237274170e-01 7.587374687194824219e+00 2.368886947631835938e+00 -1.237704530358314514e-01
5.330000000000000000e+02 5.836277770996093750e+01 -1.141049957275390625e+01 1.971667557954788208e-01 7.649434089660644531e+00 2.353980302810668945e+00 -3.054105639457702637e-01
5.340000000000000000e+02 5.139416122436523438e+01 -1.581951522827148438e+01 1.452656239271163940e-01 7.706602573394775391e+00 2.355560302734375000e+00 -4.380026757717132568e-01
5.350000000000000000e+02 5.874450302124023438e+01 -1.678100204467773438e+01 6.696172058582305908e-02 7.718573570251464844e+00 2.335660696029663086e+00 -3.515732884407043457e-01
5.360000000000000000e+02 5.243698883056640625e+01 4.075836181640625000e+01 -4.411478042602539062e-01 7.896707534790039062e+00 2.236667871475219727e+00 4.002021625638008118e-02
5.370000000000000000e+02 5.226292419433593750e+01 2.998210906982421875e+01 -2.876560091972351074e-01 7.849507808685302734e+00 2.268555641174316406e+00 3.042479157447814941e-01
5.380000000000000000e+02 5.186818695068359375e+01 2.327356529235839844e+01 -6.567934155464172363e-02 7.787091732025146484e+00 2.316423654556274414e+00 3.985576331615447998e-01
5.390000000000000000e+02 4.900465774536132812e+01 1.446847534179687500e+01 2.961202859878540039e-01 7.691088199615478516e+00 2.396162509918212891e+00 3.916909694671630859e-01
5.400000000000000000e+02 5.144320297241210938e+01 8.990977287292480469e+00 4.323803484439849854e-01 7.619017124176025391e+00 2.415419340133666992e+00 2.484193295240402222e-01
5.410000000000000000e+02 5.212701416015625000e+01 3.782627105712890625e+00 5.109160542488098145e-01 7.581756114959716797e+00 2.427801609039306641e+00 7.902890443801879883e-02
5.420000000000000000e+02 5.026482391357421875e+01 -1.412029981613159180e+00 5.677910447120666504e-01 7.584237575531005859e+00 2.445608615875244141e+00 -9.509409964084625244e-02
5.430000000000000000e+02 5.395739364624023438e+01 -1.108331871032714844e+01 2.823820114135742188e-01 7.644711017608642578e+00 2.378127813339233398e+00 -3.454203605651855469e-01
5.440000000000000000e+02 4.802312850952148438e+01 -1.096423625946044922e+01 4.029084444046020508e-01 7.657192230224609375e+00 2.418030261993408203e+00 -4.130782186985015869e-01
5.450000000000000000e+02 4.260533142089843750e+01 4.044689178466796875e+01 -7.251450419425964355e-01 7.798597335815429688e+00 2.122035741806030273e+00 5.689755454659461975e-02
5.460000000000000000e+02 4.287253570556640625e+01 3.015384483337402344e+01 -4.816488623619079590e-01 7.829314708709716797e+00 2.204299688339233398e+00 3.456612825393676758e-01
5.470000000000000000e+02 4.752060317993164062e+01 2.529303359985351562e+01 -1.836928129196166992e-01 7.817549228668212891e+00 2.290156841278076172e+00 4.181061387062072754e-01
5.480000000000000000e+02 4.412995910644531250e+01 1.340236282348632812e+01 4.294125735759735107e-01 7.716357707977294922e+00 2.443731069564819336e+00 4.293902218341827393e-01
5.490000000000000000e+02 4.366646957397460938e+01 5.716507911682128906e+00 7.748097777366638184e-01 7.660270214080810547e+00 2.530524015426635742e+00 1.973893791437149048e-01
5.500000000000000000e+02 3.910916900634765625e+01 -4.223445892333984375e+00 9.966676235198974609e-01 7.762772083282470703e+00 2.627831935882568359e+00 -2.370050698518753052e-01
5.510000000000000000e+02 4.458982467651367188e+01 -3.098244667053222656e+00 7.823591828346252441e-01 7.626801967620849609e+00 2.522748231887817383e+00 -1.708279103040695190e-01
5.520000000000000000e+02 3.748731994628906250e+01 4.045374679565429688e+01 -8.517240881919860840e-01 7.648915290832519531e+00 2.039157390594482422e+00 5.845582857728004456e-02
5.530000000000000000e+02 3.839855957031250000e+01 2.841782188415527344e+01 -5.139481425285339355e-01 7.747117042541503906e+00 2.169950485229492188e+00 3.708434998989105225e-01
5.540000000000000000e+02 3.762001419067382812e+01 2.538187980651855469e+01 -3.612005710601806641e-01 7.772552013397216797e+00 2.223405361175537109e+00 4.248265027999877930e-01
5.550000000000000000e+02 3.705567550659179688e+01 1.451522827148437500e+01 4.764069318771362305e-01 7.861307621002197266e+00 2.501314401626586914e+00 4.746657609939575195e-01
5.560000000000000000e+02 3.319121170043945312e+01 1.028337097167968750e+01 8.967869877815246582e-01 8.090146064758300781e+00 2.696079969406127930e+00 3.403768241405487061e-01
5.570000000000000000e+02 3.755015563964843750e+01 3.393913030624389648e+00 1.108659982681274414e+00 7.872568130493164062e+00 2.694368362426757812e+00 1.196250095963478088e-01
5.580000000000000000e+02 3.479525375366210938e+01 2.438959360122680664e+00 1.240144729614257812e+00 8.055500030517578125e+00 2.788693428039550781e+00 9.367033094167709351e-02
5.590000000000000000e+02 3.254484939575195312e+01 4.083568191528320312e+01 -9.613346457481384277e-01 7.358557224273681641e+00 1.919166684150695801e+00 2.032070234417915344e-02
5.600000000000000000e+02 3.227679824829101562e+01 3.754177474975585938e+01 -9.530944228172302246e-01 7.364825725555419922e+00 1.923519372940063477e+00 8.477925509214401245e-02
5.610000000000000000e+02 3.225399017333984375e+01 2.943061447143554688e+01 -6.883367896080017090e-01 7.531682014465332031e+00 2.053003549575805664e+00 2.355887591838836670e-01
5.620000000000000000e+02 3.106637382507324219e+01 2.368734931945800781e+01 -3.436562418937683105e-01 7.689639091491699219e+00 2.203794956207275391e+00 3.072509467601776123e-01
5.630000000000000000e+02 3.036687850952148438e+01 1.568014049530029297e+01 4.209089577198028564e-01 8.029910087585449219e+00 2.535245656967163086e+00 3.413606286048889160e-01
5.640000000000000000e+02 3.056681823730468750e+01 7.026797771453857422e+00 1.212982416152954102e+00 8.444181442260742188e+00 2.897149085998535156e+00 1.759435534477233887e-01
5.650000000000000000e+02 2.816567039489746094e+01 1.179384136199951172e+01 8.786423802375793457e-01 8.372609138488769531e+00 2.775375604629516602e+00 1.250353604555130005e-01
5.660000000000000000e+02 1.789862060546875000e+01 4.016315841674804688e+01 -8.482441306114196777e-01 5.143903255462646484e+00 1.288697719573974609e+00 -9.940886497497558594e-02
5.670000000000000000e+02 2.301886940002441406e+01 4.045335769653320312e+01 -1.001756668090820312e+00 6.147701263427734375e+00 1.543783426284790039e+00 -3.199277445673942566e-02
5.680000000000000000e+02 2.407324409484863281e+01 2.986448669433593750e+01 -7.849071621894836426e-01 6.678151130676269531e+00 1.767973184585571289e+00 -9.736909717321395874e-02
5.690000000000000000e+02 2.437269210815429688e+01 2.381305122375488281e+01 -4.445215761661529541e-01 7.131107807159423828e+00 2.005975961685180664e+00 -1.653333902359008789e-01
5.700000000000000000e+02 2.281376266479492188e+01 1.596025085449218750e+01 5.330085158348083496e-01 8.118887901306152344e+00 2.595568895339965820e+00 -5.050671696662902832e-01
5.710000000000000000e+02 2.136976814270019531e+01 1.805614089965820312e+01 2.449014931917190552e-01 7.562217712402343750e+00 2.342135667800903320e+00 -6.771390438079833984e-01
5.720000000000000000e+02 1.845082855224609375e+01 3.580945968627929688e+01 -8.312839269638061523e-01 5.336945056915283203e+00 1.351698398590087891e+00 -2.585923075675964355e-01
5.730000000000000000e+02 1.608454704284667969e+01 3.002300262451171875e+01 -5.801869630813598633e-01 5.036065578460693359e+00 1.336763620376586914e+00 -5.280360579490661621e-01
5.740000000000000000e+02 1.884807777404785156e+01 2.452853584289550781e+01 -2.943917810916900635e-01 5.986279487609863281e+00 1.707566380500793457e+00 -6.785392165184020996e-01
5.750000000000000000e+02 1.272137737274169922e+01 4.056634140014648438e+01 -6.077728867530822754e-01 3.910136938095092773e+00 9.907092452049255371e-01 -1.186494827270507812e-01
5.760000000000000000e+02 4.850915431976318359e+00 4.033945083618164062e+01 -1.489587575197219849e-01 1.642009973526000977e+00 4.479153454303741455e-01 -4.759468883275985718e-02
5.770000000000000000e+02 7.776273727416992188e+00 3.204912567138671875e+01 -3.686992526054382324e-01 2.499477863311767578e+00 6.392335891723632812e-01 -6.113705039024353027e-01
5.780000000000000000e+02 1.998000741004943848e+00 4.163664245605468750e+01 -1.212756484746932983e-01 1.126411914825439453e+00 3.015408515930175781e-01 -3.429127112030982971e-02
5.790000000000000000e+02 4.286884784698486328e+00 3.771791458129882812e+01 -6.487559527158737183e-02 1.420066714286804199e+00 4.065573215484619141e-01 -1.316362470388412476e-01
5.800000000000000000e+02 2.089455366134643555e+00 3.585202789306640625e+01 -5.919148214161396027e-03 9.052481651306152344e-01 2.697986960411071777e-01 -2.222657501697540283e-01
5.810000000000000000e+02 2.200103044509887695e+00 2.871878051757812500e+01 -8.731058239936828613e-02 9.964747726917266846e-02 3.701068460941314697e-03 -4.849295020103454590e-01
5.820000000000000000e+02 7.932112121582031250e+01 1.674392127990722656e+01 -8.225148194469511509e-04 7.577629089355468750e+00 2.273041963577270508e+00 1.700694486498832703e-02
5.830000000000000000e+02 7.315982055664062500e+01 2.034576225280761719e+01 4.142052028328180313e-03 7.692621231079101562e+00 2.309028863906860352e+00 1.395913064479827881e-01
5.840000000000000000e+02 7.299436187744140625e+01 2.476257896423339844e+01 -1.395117584615945816e-02 7.765738487243652344e+00 2.325536251068115234e+00 1.399915516376495361e-01
5.850000000000000000e+02 7.927849578857421875e+01 2.372751235961914062e+01 1.551843131892383099e-03 7.753578186035156250e+00 2.326539039611816406e+00 1.911199279129505157e-02
5.860000000000000000e+02 6.580049896240234375e+01 1.429161739349365234e+01 8.276640623807907104e-02 7.648793697357177734e+00 2.319468021392822266e+00 2.040845155715942383e-01
5.870000000000000000e+02 5.521509170532226562e+01 1.782416915893554688e+01 1.022338792681694031e-01 7.712567329406738281e+00 2.344440460205078125e+00 3.495446145534515381e-01
5.880000000000000000e+02 5.086526870727539062e+01 1.755234527587890625e+01 1.384727954864501953e-01 7.722993850708007812e+00 2.358439922332763672e+00 4.013581871986389160e-01
5.890000000000000000e+02 3.930601119995117188e+01 1.663944244384765625e+01 2.758653759956359863e-01 7.809538364410400391e+00 2.425621032714843750e+00 4.999957680702209473e-01
5.900000000000000000e+02 3.469445419311523438e+01 1.706283187866210938e+01 2.782479822635650635e-01 7.900689601898193359e+00 2.453681230545043945e+00 4.704623222351074219e-01
5.910000000000000000e+02 2.724229431152343750e+01 1.611239433288574219e+01 4.036060869693756104e-01 8.094948768615722656e+00 2.549566507339477539e+00 1.285965144634246826e-01
5.920000000000000000e+02 3.166580963134765625e+01 9.441943168640136719e+00 1.018587827682495117e+00 8.246408462524414062e+00 2.779498815536499023e+00 2.740367352962493896e-01
5.930000000000000000e+02 4.087841796875000000e+01 1.061835956573486328e+01 6.708461642265319824e-01 7.751013278961181641e+00 2.526557683944702148e+00 3.929538130760192871e-01
5.940000000000000000e+02 4.934195709228515625e+01 1.012981319427490234e+01 4.549068510532379150e-01 7.640240192413330078e+00 2.428544044494628906e+00 2.978028357028961182e-01
5.950000000000000000e+02 5.500162887573242188e+01 6.791667461395263672e+00 3.779869675636291504e-01 7.597817897796630859e+00 2.392741441726684570e+00 1.594137847423553467e-01
5.960000000000000000e+02 6.376583099365234375e+01 9.865074157714843750e+00 1.531011313199996948e-01 7.614592075347900391e+00 2.330307960510253906e+00 1.598909944295883179e-01
5.970000000000000000e+02 7.933551025390625000e+01 8.392099380493164062e+00 -6.437298907258082181e-06 7.415721416473388672e+00 2.224714517593383789e+00 9.389315731823444366e-03
5.980000000000000000e+02 7.241018676757812500e+01 1.287309551239013672e+01 2.933117561042308807e-02 7.596438884735107422e+00 2.287730932235717773e+00 1.178029179573059082e-01
5.990000000000000000e+02 3.926918792724609375e+01 2.345706462860107422e+00 1.057689905166625977e+00 7.769955158233642578e+00 2.648293495178222656e+00 7.229828834533691406e-02
6.000000000000000000e+02 5.891671371459960938e+01 5.155377388000488281e+00 2.988839149475097656e-01 7.587439060211181641e+00 2.365896940231323242e+00 8.606892824172973633e-02
6.010000000000000000e+02 6.305870819091796875e+01 3.834322452545166016e+00 2.126186490058898926e-01 7.583276271820068359e+00 2.338768482208251953e+00 4.394179955124855042e-02
6.020000000000000000e+02 7.933193206787109375e+01 2.834156036376953125e+00 1.092828970286063850e-04 7.370515823364257812e+00 2.211187362670898438e+00 1.814412651583552361e-03
6.030000000000000000e+02 7.199425506591796875e+01 4.595998287200927734e+00 5.489334464073181152e-02 7.536468982696533203e+00 2.277408599853515625e+00 3.785834461450576782e-02
6.040000000000000000e+02 2.133035278320312500e+01 5.423955917358398438e+00 9.434835910797119141e-01 1.120925235748291016e+01 3.645820856094360352e+00 -8.796058297157287598e-01
6.050000000000000000e+02 4.643444061279296875e+01 -4.240343570709228516e+00 6.829385161399841309e-01 7.614085674285888672e+00 2.489107131958007812e+00 -2.185254544019699097e-01
6.060000000000000000e+02 5.708950042724609375e+01 -4.312292575836181641e+00 3.389394581317901611e-01 7.590397357940673828e+00 2.378801107406616211e+00 -1.613284796476364136e-01
6.070000000000000000e+02 7.932488250732421875e+01 -5.533629894256591797e+00 -1.910896971821784973e-04 7.421347618103027344e+00 2.226346969604492188e+00 -1.047907304018735886e-02
6.080000000000000000e+02 6.990136718750000000e+01 -4.237500667572021484e+00 8.574154973030090332e-02 7.570117473602294922e+00 2.296757698059082031e+00 -8.612496405839920044e-02
6.090000000000000000e+02 2.140741920471191406e+01 -2.073536396026611328e+00 8.682639598846435547e-01 1.178959846496582031e+01 3.797358751296997070e+00 7.731180787086486816e-01
6.100000000000000000e+02 3.184762954711914062e+01 -1.671804666519165039e+00 1.381482481956481934e+00 8.343690872192382812e+00 2.917551994323730469e+00 -5.851256847381591797e-02
6.110000000000000000e+02 5.816062545776367188e+01 -9.410505294799804688e+00 2.367148101329803467e-01 7.632111072540283203e+00 2.360647678375244141e+00 -2.691374421119689941e-01
6.120000000000000000e+02 6.757096099853515625e+01 -1.068053150177001953e+01 8.142878115177154541e-02 7.641582489013671875e+00 2.316903352737426758e+00 -1.972841620445251465e-01
6.130000000000000000e+02 7.933069610595703125e+01 -1.250413322448730469e+01 1.400950830429792404e-03 7.564409255981445312e+00 2.269742965698242188e+00 -1.818885095417499542e-02
6.140000000000000000e+02 7.136414337158203125e+01 -9.532018661499023438e+00 5.030499771237373352e-02 7.608614444732666016e+00 2.297675848007202148e+00 -1.431293338537216187e-01
6.150000000000000000e+02 1.675703811645507812e+01 -1.021541309356689453e+01 1.886866211891174316e+00 7.176653861999511719e+00 2.719056129455566406e+00 3.598456621170043945e+00
6.160000000000000000e+02 2.045820045471191406e+01 -1.224958038330078125e+01 5.810778737068176270e-01 8.551665306091308594e+00 2.739822864532470703e+00 1.283918261528015137e+00
6.170000000000000000e+02 2.570422744750976562e+01 -1.222231292724609375e+01 6.066889762878417969e-01 8.453199386596679688e+00 2.717966556549072266e+00 2.250164188444614410e-02
6.180000000000000000e+02 3.550922012329101562e+01 -1.181000423431396484e+01 5.954130291938781738e-01 7.877335548400878906e+00 2.541824579238891602e+00 -4.816592037677764893e-01
6.190000000000000000e+02 6.486710357666015625e+01 -1.581105232238769531e+01 5.438236892223358154e-02 7.703222751617431641e+00 2.327281475067138672e+00 -2.747080624103546143e-01
6.200000000000000000e+02 1.359410667419433594e+01 -1.479560947418212891e+01 1.693688154220581055e+00 3.330582618713378906e+00 1.507281303405761719e+00 2.282012462615966797e+00
6.210000000000000000e+02 1.486343193054199219e+01 -1.556823348999023438e+01 1.012666702270507812e+00 4.582984447479248047e+00 1.678695321083068848e+00 2.102217912673950195e+00
6.220000000000000000e+02 1.809004402160644531e+01 -2.569225502014160156e+01 -4.427052438259124756e-01 5.486681938171386719e+00 1.513192892074584961e+00 6.189201474189758301e-01
6.230000000000000000e+02 1.181664657592773438e+01 -2.254146385192871094e+01 3.206779360771179199e-01 3.569960832595825195e+00 1.167191624641418457e+00 6.421982049942016602e-01
6.240000000000000000e+02 2.166689491271972656e+01 -1.730307197570800781e+01 -6.146236509084701538e-02 7.281044483184814453e+00 2.165874719619750977e+00 7.107673883438110352e-01
6.250000000000000000e+02 2.961140060424804688e+01 -1.842236709594726562e+01 -1.282423883676528931e-01 7.797997474670410156e+00 2.300926446914672852e+00 -2.491320520639419556e-01
6.260000000000000000e+02 3.185839080810546875e+01 -1.835595893859863281e+01 -6.970228254795074463e-02 7.788438796997070312e+00 2.315620899200439453e+00 -3.805736601352691650e-01
6.270000000000000000e+02 7.286985015869140625e+01 -2.120027542114257812e+01 -4.789131693542003632e-03 7.791399478912353516e+00 2.335983037948608398e+00 -1.665844023227691650e-01
6.280000000000000000e+02 6.649314117431640625e+01 -2.151045417785644531e+01 -1.783315651118755341e-02 7.780052185058593750e+00 2.328665733337402344e+00 -2.636844515800476074e-01
6.290000000000000000e+02 1.131198692321777344e+01 1.070573616027832031e+01 2.730359137058258057e-01 1.697227358818054199e+00 5.910789966583251953e-01 -9.239845871925354004e-01
6.300000000000000000e+02 1.614506721496582031e+01 -3.032108497619628906e+01 -5.930616855621337891e-01 4.858897209167480469e+00 1.279750585556030273e+00 4.648045897483825684e-01
6.310000000000000000e+02 7.213657379150390625e+00 -3.233542251586914062e+01 -2.668684720993041992e-01 2.472924470901489258e+00 6.618167757987976074e-01 5.275238156318664551e-01
6.320000000000000000e+02 2.130641937255859375e+01 -2.236033821105957031e+01 -4.256868064403533936e-01 6.464806079864501953e+00 1.811735749244689941e+00 5.714983940124511719e-01
6.330000000000000000e+02 2.829895401000976562e+01 -2.728811454772949219e+01 -7.216107249259948730e-01 7.138064861297607422e+00 1.924936294555664062e+00 -3.415670990943908691e-02
6.340000000000000000e+02 4.054093170166015625e+01 -2.545119476318359375e+01 -4.099470973014831543e-01 7.735394954681396484e+00 2.197634458541870117e+00 -4.258717298507690430e-01
6.350000000000000000e+02 7.931536865234375000e+01 -2.641438102722167969e+01 1.086669217329472303e-04 7.959648132324218750e+00 2.387927055358886719e+00 -1.929046027362346649e-02
6.360000000000000000e+02 2.501947784423828125e+01 -3.033234405517578125e+01 -8.173474669456481934e-01 6.588868141174316406e+00 1.731456160545349121e+00 1.385426372289657593e-01
6.370000000000000000e+02 2.819293785095214844e+01 -3.382456588745117188e+01 -9.142237901687622070e-01 6.857533931732177734e+00 1.782992959022521973e+00 -5.012233741581439972e-03
6.380000000000000000e+02 3.620155715942382812e+01 -3.321796798706054688e+01 -7.900442481040954590e-01 7.515723705291748047e+00 2.017703771591186523e+00 -1.937549859285354614e-01
6.390000000000000000e+02 5.414176559448242188e+01 -3.155723953247070312e+01 -3.163822591304779053e-01 7.853111267089843750e+00 2.261018753051757812e+00 -2.763202786445617676e-01
6.400000000000000000e+02 7.932119750976562500e+01 -3.334022140502929688e+01 -1.207365770824253559e-03 8.110979080200195312e+00 2.432931661605834961e+00 -1.071998011320829391e-02
6.410000000000000000e+02 8.328694701194763184e-01 -3.054849815368652344e+01 -1.174201257526874542e-02 4.638994336128234863e-01 1.356472223997116089e-01 1.362097859382629395e-01
6.420000000000000000e+02 6.941359710693359375e+01 3.137277984619140625e+01 -5.738070234656333923e-02 7.835263729095458984e+00 2.333364963531494141e+00 1.400203555822372437e-01
6.430000000000000000e+02 7.940772247314453125e+01 2.925132179260253906e+01 4.947900888510048389e-04 7.886765003204345703e+00 2.366178035736083984e+00 1.422312296926975250e-02
6.440000000000000000e+02 6.390354919433593750e+01 2.152049636840820312e+01 -3.166993847116827965e-03 7.736558914184570312e+00 2.320017576217651367e+00 2.591732740402221680e-01
6.450000000000000000e+02 5.555827331542968750e+01 2.648529052734375000e+01 -1.451587378978729248e-01 7.812233924865722656e+00 2.300122737884521484e+00 3.314798176288604736e-01
6.460000000000000000e+02 4.961399459838867188e+01 2.644309043884277344e+01 -2.118987590074539185e-01 7.826401710510253906e+00 2.284350872039794922e+00 3.872670233249664307e-01
6.470000000000000000e+02 3.962643051147460938e+01 2.187259674072265625e+01 -1.012868657708168030e-01 7.800146579742431641e+00 2.309658050537109375e+00 4.877491891384124756e-01
6.480000000000000000e+02 2.820310020446777344e+01 2.492288780212402344e+01 -5.117933750152587891e-01 7.456779003143310547e+00 2.083495616912841797e+00 1.269711852073669434e-01
6.490000000000000000e+02 2.195578002929687500e+01 2.507706260681152344e+01 -4.733802378177642822e-01 6.664858818054199219e+00 1.857443571090698242e+00 -3.685680925846099854e-01
6.500000000000000000e+02 6.185469818115234375e+01 2.896286582946777344e+01 -1.207022741436958313e-01 7.818387031555175781e+00 2.309305429458618164e+00 2.360882461071014404e-01
6.510000000000000000e+02 5.987463760375976562e+01 3.293728637695312500e+01 -2.010223269462585449e-01 7.855582714080810547e+00 2.296368122100830078e+00 1.957118362188339233e-01
6.520000000000000000e+02 4.802231597900390625e+01 3.328484725952148438e+01 -4.602752923965454102e-01 7.864484310150146484e+00 2.221262693405151367e+00 2.646539509296417236e-01
6.530000000000000000e+02 3.564669799804687500e+01 3.261719131469726562e+01 -7.685297131538391113e-01 7.611521720886230469e+00 2.052897691726684570e+00 2.347428202629089355e-01
6.540000000000000000e+02 3.199743843078613281e+01 3.251722717285156250e+01 -8.342111706733703613e-01 7.411424636840820312e+00 1.973164081573486328e+00 1.634065657854080200e-01
6.550000000000000000e+02 2.538224601745605469e+01 3.211781692504882812e+01 -8.821474313735961914e-01 6.814882278442382812e+00 1.779820442199707031e+00 -4.088718071579933167e-02
6.560000000000000000e+02 1.495773410797119141e+01 3.495480728149414062e+01 -6.859415769577026367e-01 4.531983375549316406e+00 1.153812646865844727e+00 -3.315865695476531982e-01
6.570000000000000000e+02 2.219639301300048828e+00 3.161344337463378906e+01 -6.467070430517196655e-02 5.454642772674560547e-01 1.442380845546722412e-01 -3.297255933284759521e-01
6.580000000000000000e+02 1.503736782073974609e+01 1.534468364715576172e+01 2.471412897109985352e+00 5.296723842620849609e+00 2.330440998077392578e+00 -3.384998083114624023e+00
6.590000000000000000e+02 1.777528762817382812e+01 1.044204521179199219e+01 1.464726090431213379e+00 1.105501461029052734e+01 3.755922317504882812e+00 -3.383552551269531250e+00
6.600000000000000000e+02 1.845884132385253906e+01 7.672224521636962891e+00 5.557288527488708496e-01 1.218933677673339844e+01 3.823519468307495117e+00 -2.226293563842773438e+00
6.610000000000000000e+02 1.867111015319824219e+01 6.280527591705322266e+00 5.391266942024230957e-01 1.266747474670410156e+01 3.961980342864990234e+00 -1.834506273269653320e+00
6.620000000000000000e+02 1.884949874877929688e+01 4.892482757568359375e+00 3.845797479152679443e-01 1.324375152587890625e+01 4.088499546051025391e+00 -1.342060327529907227e+00
6.630000000000000000e+02 1.901266288757324219e+01 -6.909148097038269043e-01 1.455542910844087601e-02 1.256151103973388672e+01 3.772819757461547852e+00 6.852436810731887817e-02
6.640000000000000000e+02 1.893047714233398438e+01 -3.369052648544311523e+00 -6.196866929531097412e-02 1.387775707244873047e+01 4.144736289978027344e+00 4.028358757495880127e-01
6.650000000000000000e+02 1.878215980529785156e+01 -6.637414455413818359e+00 1.908246278762817383e+00 1.355097484588623047e+01 4.637766361236572266e+00 3.335854530334472656e+00
6.660000000000000000e+02 1.527697849273681641e+01 -1.256780529022216797e+01 1.958912372589111328e+00 5.400631904602050781e+00 2.207863330841064453e+00 3.062462091445922852e+00
6.670000000000000000e+02 1.446830749511718750e+01 -1.370527362823486328e+01 1.907630443572998047e+00 4.359045505523681641e+00 1.880002737045288086e+00 2.747720003128051758e+00
6.680000000000000000e+02 9.804338455200195312e+00 -1.914109802246093750e+01 1.776991009712219238e+00 1.736895442008972168e+00 1.054165959358215332e+00 -2.591005060821771622e-03
6.690000000000000000e+02 9.627940177917480469e+00 -1.038912963867187500e+01 1.208163857460021973e+00 3.147741317749023438e+00 1.306771516799926758e+00 1.981855273246765137e+00
6.700000000000000000e+02 1.043992519378662109e+01 -9.307751655578613281e+00 1.130661845207214355e+00 2.645737886428833008e+00 1.132919907569885254e+00 1.643549084663391113e+00
6.710000000000000000e+02 1.373524093627929688e+01 -2.339271545410156250e+00 -1.919221639633178711e+00 3.623271465301513672e+00 5.112149119377136230e-01 -1.729019284248352051e+00
6.720000000000000000e+02 1.381157684326171875e+01 1.246373176574707031e+00 -1.000793099403381348e+00 5.577622890472412109e+00 1.373048901557922363e+00 3.120635271072387695e+00
6.730000000000000000e+02 1.345521163940429688e+01 9.236214637756347656e+00 1.931828558444976807e-01 1.447347879409790039e+00 4.921592175960540771e-01 -6.627360582351684570e-01
6.740000000000000000e+02 9.419589042663574219e+00 1.436680698394775391e+01 1.499545931816101074e+00 2.378868103027343750e+00 1.163524150848388672e+00 -2.029866695404052734e+00
6.750000000000000000e+02 9.572379112243652344e+00 1.812066793441772461e+00 -5.186330154538154602e-02 4.575516879558563232e-01 1.217065155506134033e-01 -5.571470260620117188e-01
6.760000000000000000e+02 8.082927703857421875e+00 1.844886541366577148e+00 -3.022029399871826172e-01 2.050461471080780029e-01 -2.914704009890556335e-02 -1.091169044375419617e-01
6.770000000000000000e+02 8.047723770141601562e+00 2.548382282257080078e+00 -1.989350020885467529e-01 3.399913012981414795e-01 4.231688380241394043e-02 -1.723966151475906372e-01
6.780000000000000000e+02 7.315632343292236328e+00 1.860745668411254883e+00 -3.255537450313568115e-01 1.267918050289154053e-01 -5.962858349084854126e-02 1.727500744163990021e-02
6.790000000000000000e+02 5.012530803680419922e+00 1.909616827964782715e+00 -3.106608390808105469e-01 3.487361222505569458e-02 -8.273616433143615723e-02 2.150613665580749512e-01
6.800000000000000000e+02 2.974644899368286133e+00 4.074900150299072266e+00 -9.477648884057998657e-02 -1.422373503446578979e-01 -7.110415399074554443e-02 3.405780494213104248e-01
6.810000000000000000e+02 4.246977329254150391e+00 1.937322258949279785e+00 -2.453508973121643066e-01 -6.404169369488954544e-03 -7.552652060985565186e-02 2.401567697525024414e-01
6.820000000000000000e+02 3.478525638580322266e+00 1.977608919143676758e+00 -1.978576630353927612e-01 -3.486338630318641663e-02 -6.981631368398666382e-02 2.274952679872512817e-01
6.830000000000000000e+02 1.932475090026855469e+00 2.090041399002075195e+00 -7.942353188991546631e-02 -1.057381406426429749e-01 -5.554850399494171143e-02 1.548485904932022095e-01
6.840000000000000000e+02 1.057368373870849609e+01 1.646278738975524902e+00 2.199981808662414551e-01 8.710994124412536621e-01 3.273292779922485352e-01 -1.041257023811340332e+00
6.850000000000000000e+02 1.077481269836425781e+01 1.625330209732055664e+00 2.839300930500030518e-01 1.088853836059570312e+00 4.118351936340332031e-01 -1.252362728118896484e+00
6.860000000000000000e+02 1.217705249786376953e+01 1.602381348609924316e+00 -2.760996818542480469e-01 4.104679584503173828e+00 1.148573994636535645e+00 -2.178922653198242188e+00
6.870000000000000000e+02 1.154443264007568359e+01 1.551460385322570801e+00 4.677284061908721924e-01 2.058148384094238281e+00 7.577630877494812012e-01 -1.988681316375732422e+00
6.880000000000000000e+02 1.327028942108154297e+01 1.518275022506713867e+00 -1.928945422172546387e+00 6.909481525421142578e+00 1.494160771369934082e+00 5.298603177070617676e-01
6.890000000000000000e+02 1.306620025634765625e+01 1.568197131156921387e+00 -1.723187446594238281e+00 6.592384815216064453e+00 1.460759282112121582e+00 -4.367191791534423828e-01
6.900000000000000000e+02 1.375072002410888672e+01 1.591332912445068359e+00 -1.412647962570190430e+00 4.682770252227783203e+00 9.810367226600646973e-01 2.194294929504394531e+00
6.910000000000000000e+02 1.393158912658691406e+01 1.129916310310363770e+00 -3.882305026054382324e-01 5.117725372314453125e+00 1.418848395347595215e+00 3.913093328475952148e+00
6.920000000000000000e+02 1.452344131469726562e+01 7.003129720687866211e-01 2.447547167539596558e-01 -1.934771537780761719e+00 -5.070050358772277832e-01 2.921062469482421875e+00
6.930000000000000000e+02 1.452049446105957031e+01 -7.524383664131164551e-01 1.662958502769470215e+00 -1.808068037033081055e+00 -4.353288561105728149e-02 -2.699334859848022461e+00
6.940000000000000000e+02 1.371228122711181641e+01 -1.753471255302429199e+00 -1.699605345726013184e+00 5.065608501434326172e+00 1.009800910949707031e+00 -1.954895973205566406e+00
6.950000000000000000e+02 1.300098514556884766e+01 -2.026229619979858398e+00 -1.840242028236389160e+00 6.302058219909667969e+00 1.338544845581054688e+00 9.147716760635375977e-01
6.960000000000000000e+02 1.219920349121093750e+01 -1.795210838317871094e+00 -1.940319240093231201e-01 4.338198184967041016e+00 1.243249773979187012e+00 2.722717285156250000e+00
6.970000000000000000e+02 1.100416564941406250e+01 -1.759367227554321289e+00 4.333683550357818604e-01 1.197360038757324219e+00 4.892185330390930176e-01 1.753406167030334473e+00
6.980000000000000000e+02 1.044340324401855469e+01 -1.652151107788085938e+00 1.948244571685791016e-01 6.868973970413208008e-01 2.645165622234344482e-01 1.220945358276367188e+00
6.990000000000000000e+02 9.998970031738281250e+00 -1.710978746414184570e+00 -4.945229366421699524e-02 5.569468140602111816e-01 1.522483676671981812e-01 9.333169460296630859e-01
7.000000000000000000e+02 9.498129844665527344e+00 -1.752197623252868652e+00 -2.457711249589920044e-01 4.299868047237396240e-01 5.526470765471458435e-02 6.573188304901123047e-01
7.010000000000000000e+02 9.511518478393554688e+00 -2.312217235565185547e+00 -2.294243425130844116e-01 7.742169499397277832e-01 1.634377986192703247e-01 8.264204263687133789e-01
7.020000000000000000e+02 8.728149414062500000e+00 -1.793092966079711914e+00 -4.431388676166534424e-01 3.228539526462554932e-01 -3.608547523617744446e-02 3.625745475292205811e-01
7.030000000000000000e+02 6.284935474395751953e+00 -1.879221558570861816e+00 -6.251586675643920898e-01 1.312891691923141479e-01 -1.481608450412750244e-01 -2.189602255821228027e-01
7.040000000000000000e+02 5.461801528930664062e+00 -1.911549210548400879e+00 -5.749843120574951172e-01 9.876720607280731201e-02 -1.428651362657546997e-01 -3.135893940925598145e-01
7.050000000000000000e+02 4.635151386260986328e+00 -1.946507334709167480e+00 -4.728035330772399902e-01 2.318400517106056213e-02 -1.348858624696731567e-01 -3.811296820640563965e-01
7.060000000000000000e+02 2.972016334533691406e+00 -2.025349855422973633e+00 -2.741726338863372803e-01 -9.610000997781753540e-02 -1.110817939043045044e-01 -3.965731263160705566e-01
7.070000000000000000e+02 3.140569925308227539e+00 -3.049290657043457031e+00 -2.273907363414764404e-01 -8.779927343130111694e-02 -9.455700218677520752e-02 -5.027532577514648438e-01
7.080000000000000000e+02 2.127949237823486328e+00 -2.079366683959960938e+00 -1.562670022249221802e-01 -1.625319272279739380e-01 -9.563967585563659668e-02 -3.103619813919067383e-01
7.090000000000000000e+02 1.279428720474243164e+00 -2.142136335372924805e+00 -6.090366840362548828e-02 -2.037771493196487427e-01 -7.940424978733062744e-02 -1.997224241495132446e-01
7.100000000000000000e+02 4.274482727050781250e-01 -2.189947605133056641e+00 -1.929774321615695953e-02 -1.779949963092803955e-01 -5.918782204389572144e-02 -6.504715979099273682e-02
7.110000000000000000e+02 2.061165809631347656e+00 -4.154310607910156250e+01 -1.036963015794754028e-01 1.512423396110534668e+00 4.226181507110595703e-01 2.942925319075584412e-02
7.120000000000000000e+02 9.092838764190673828e-01 -3.852828216552734375e+01 1.407013647258281708e-02 1.351578235626220703e+00 4.096944928169250488e-01 6.643317639827728271e-02
7.130000000000000000e+02 6.846910119056701660e-01 -3.485362243652343750e+01 -4.173297900706529617e-03 9.674606323242187500e-01 2.889862060546875000e-01 6.868328154087066650e-02
7.140000000000000000e+02 8.172592520713806152e-01 -3.346017074584960938e+01 -7.553718052804470062e-03 8.276032209396362305e-01 2.460148483514785767e-01 8.012542873620986938e-02
7.150000000000000000e+02 7.923291325569152832e-01 -2.909291267395019531e+01 -1.696804538369178772e-02 2.017906010150909424e-01 5.544677004218101501e-02 1.613539457321166992e-01
7.160000000000000000e+02 7.646357417106628418e-01 -2.765557479858398438e+01 -9.833164513111114502e-03 -1.139892116189002991e-01 -3.714671358466148376e-02 1.855137497186660767e-01
7.170000000000000000e+02 7.466441392898559570e-01 -2.622634887695312500e+01 -3.128453344106674194e-02 -4.970399439334869385e-01 -1.584973484277725220e-01 2.234108895063400269e-01
7.180000000000000000e+02 6.820818781852722168e-01 -2.197241401672363281e+01 -5.938961170613765717e-03 -2.221889734268188477e+00 -6.683486104011535645e-01 3.693927526473999023e-01
7.190000000000000000e+02 1.931622982025146484e+00 -2.048280906677246094e+01 1.159909553825855255e-02 -1.422384381294250488e+00 -4.232355952262878418e-01 9.512820839881896973e-01
7.200000000000000000e+02 6.429616808891296387e-01 -1.913415908813476562e+01 3.124293126165866852e-02 -3.845502614974975586e+00 -1.144277930259704590e+00 3.778640925884246826e-01
7.210000000000000000e+02 6.023464202880859375e-01 -1.629988098144531250e+01 7.270376384258270264e-02 -5.001816749572753906e+00 -1.478734016418457031e+00 1.498868316411972046e-01
7.220000000000000000e+02 5.383036136627197266e-01 -1.490985870361328125e+01 3.954451158642768860e-02 -5.144758224487304688e+00 -1.531564116477966309e+00 6.146146450191736221e-03
7.230000000000000000e+02 5.458255410194396973e-01 -1.354303455352783203e+01 7.841631025075912476e-02 -4.864590644836425781e+00 -1.435852289199829102e+00 -1.532316058874130249e-01
7.240000000000000000e+02 3.480759859085083008e+00 -1.375138950347900391e+01 7.049474120140075684e-01 1.731403470039367676e-01 2.634263336658477783e-01 -6.706783771514892578e-01
7.250000000000000000e+02 5.807049870491027832e-01 -9.324753761291503906e+00 -3.688057512044906616e-02 -2.754229307174682617e+00 -8.373329043388366699e-01 -2.872705757617950439e-01
7.260000000000000000e+02 5.986611843109130859e-01 -7.919907569885253906e+00 1.540950965136289597e-02 -2.046010017395019531e+00 -6.091801524162292480e-01 -2.587650120258331299e-01
7.270000000000000000e+02 3.978921175003051758e+00 -2.947867393493652344e+00 -3.057681322097778320e-01 -7.841474143788218498e-04 -9.196568280458450317e-02 -4.980749487876892090e-01
7.280000000000000000e+02 4.198740959167480469e+00 -3.939429998397827148e+00 -2.435518950223922729e-01 9.279953688383102417e-02 -4.522570595145225525e-02 -5.602988600730895996e-01
7.290000000000000000e+02 3.237091445922851562e+01 -3.727021789550781250e+01 -9.337320923805236816e-01 7.204846382141113281e+00 1.881334304809570312e+00 -6.556335091590881348e-02
7.300000000000000000e+02 1.295753860473632812e+01 -4.047279357910156250e+01 -5.473751425743103027e-01 3.952764987945556641e+00 1.021616935729980469e+00 1.180931329727172852e-01
7.310000000000000000e+02 7.552493286132812500e+01 4.055881881713867188e+01 -1.233243569731712341e-02 7.958350658416748047e+00 2.383805513381958008e+00 2.077701501548290253e-02
7.320000000000000000e+02 7.799112701416015625e+01 4.173119735717773438e+01 2.678912598639726639e-03 8.003143310546875000e+00 2.401746749877929688e+00 -7.118826033547520638e-04
7.330000000000000000e+02 7.862608337402343750e+01 3.876177597045898438e+01 -2.081042155623435974e-03 8.003890037536621094e+00 2.400542736053466797e+00 2.774496097117662430e-03
7.340000000000000000e+02 7.663990020751953125e+01 3.790357971191406250e+01 -1.381030492484569550e-02 7.962473392486572266e+00 2.384598970413208008e+00 2.597081474959850311e-02
7.350000000000000000e+02 7.923907470703125000e+01 3.469159698486328125e+01 6.185975507833063602e-05 7.980716705322265625e+00 2.394233465194702148e+00 9.133917279541492462e-03
7.360000000000000000e+02 7.769501495361328125e+01 3.437630844116210938e+01 -8.370369672775268555e-03 7.945972442626953125e+00 2.381280660629272461e+00 3.069456107914447784e-02
7.370000000000000000e+02 7.927967834472656250e+01 3.332600402832031250e+01 -2.277819439768791199e-03 7.963162422180175781e+00 2.388265371322631836e+00 1.098263356834650040e-02
7.380000000000000000e+02 7.937500000000000000e+01 3.060422134399414062e+01 -1.847735024057328701e-03 7.916240215301513672e+00 2.374317884445190430e+00 1.270529907196760178e-02
7.390000000000000000e+02 7.713035583496093750e+01 2.878367614746093750e+01 -2.276988932862877846e-03 7.845930099487304688e+00 2.353096008300781250e+00 6.041564792394638062e-02
7.400000000000000000e+02 7.929235076904296875e+01 2.653346061706542969e+01 3.344593569636344910e-04 7.821354866027832031e+00 2.346506834030151367e+00 1.692376285791397095e-02
7.410000000000000000e+02 7.627648925781250000e+01 2.520219612121582031e+01 -4.495720844715833664e-03 7.776461601257324219e+00 2.331589698791503906e+00 8.169379830360412598e-02
7.420000000000000000e+02 7.927359771728515625e+01 2.513582420349121094e+01 -2.080283127725124359e-03 7.788445472717285156e+00 2.335909605026245117e+00 1.896343939006328583e-02
7.430000000000000000e+02 7.930142211914062500e+01 2.092703437805175781e+01 1.685165334492921829e-03 7.682167530059814453e+00 2.305155754089355469e+00 1.872012950479984283e-02
7.440000000000000000e+02 7.931078338623046875e+01 1.952922630310058594e+01 -1.199939870275557041e-03 7.646600246429443359e+00 2.293620109558105469e+00 1.845837756991386414e-02
7.450000000000000000e+02 7.931723785400390625e+01 1.813529396057128906e+01 1.719564548693597317e-03 7.611486911773681641e+00 2.283962011337280273e+00 1.772313565015792847e-02
7.460000000000000000e+02 7.932609558105468750e+01 1.396215438842773438e+01 -4.728612548206001520e-04 7.514496326446533203e+00 2.254206895828247070e+00 1.513418368995189667e-02
7.470000000000000000e+02 7.932886505126953125e+01 1.256783390045166016e+01 1.554815680719912052e-03 7.485811233520507812e+00 2.246209859848022461e+00 1.381882838904857635e-02
7.480000000000000000e+02 7.933145904541015625e+01 1.117470073699951172e+01 -1.875236775958910584e-04 7.459593772888183594e+00 2.237821817398071289e+00 1.257057115435600281e-02
7.490000000000000000e+02 7.933613586425781250e+01 7.003301620483398438e+00 1.708548865281045437e-03 7.398755073547363281e+00 2.220139026641845703e+00 7.411274593323469162e-03
7.500000000000000000e+02 7.933582305908203125e+01 5.614288806915283203e+00 8.728849206818267703e-05 7.385494232177734375e+00 2.215674400329589844e+00 5.708821583539247513e-03
7.510000000000000000e+02 7.933392333984375000e+01 4.225167274475097656e+00 1.758948201313614845e-03 7.376035690307617188e+00 2.213338375091552734e+00 3.566245315596461296e-03
7.520000000000000000e+02 7.932592010498046875e+01 5.039250850677490234e-02 7.515468314522877336e-05 7.371351242065429688e+00 2.211427927017211914e+00 -2.228862373158335686e-03
7.530000000000000000e+02 7.932468414306640625e+01 -1.345513701438903809e+00 1.974948914721608162e-03 7.377760410308837891e+00 2.213920593261718750e+00 -4.572997801005840302e-03
7.540000000000000000e+02 7.797780609130859375e+01 -4.061105728149414062e+00 3.690588055178523064e-03 7.441847324371337891e+00 2.233661413192749023e+00 -2.325908467173576355e-02
7.550000000000000000e+02 7.932414245605468750e+01 -4.137688636779785156e+00 2.076059579849243164e-03 7.402783393859863281e+00 2.221457719802856445e+00 -8.738459087908267975e-03
7.560000000000000000e+02 7.932633209228515625e+01 -8.321607589721679688e+00 -3.119839821010828018e-04 7.469468116760253906e+00 2.240746736526489258e+00 -1.409962866455316544e-02
7.570000000000000000e+02 7.798544311523437500e+01 -1.104857826232910156e+01 3.883299883455038071e-03 7.554419994354248047e+00 2.267491102218627930e+00 -4.698505997657775879e-02
7.580000000000000000e+02 7.932778930664062500e+01 -1.111126708984375000e+01 -3.767094749491661787e-04 7.530212879180908203e+00 2.258950948715209961e+00 -1.698076166212558746e-02
7.590000000000000000e+02 7.933641052246093750e+01 -1.528398227691650391e+01 1.178562990389764309e-03 7.639039039611816406e+00 2.292065382003784180e+00 -1.990702003240585327e-02
7.600000000000000000e+02 7.803980255126953125e+01 -1.796115303039550781e+01 -1.863690122263506055e-04 7.721091270446777344e+00 2.316271543502807617e+00 -5.665282160043716431e-02
7.610000000000000000e+02 7.934296417236328125e+01 -1.806501388549804688e+01 9.579769684933125973e-04 7.719281196594238281e+00 2.316071748733520508e+00 -2.069399505853652954e-02
7.620000000000000000e+02 7.932994842529296875e+01 -2.363292884826660156e+01 5.324038211256265640e-04 7.882948875427246094e+00 2.365044355392456055e+00 -2.041791006922721863e-02
7.630000000000000000e+02 7.796084594726562500e+01 -2.489647293090820312e+01 -7.791495299898087978e-04 7.900650501251220703e+00 2.369961261749267578e+00 -5.531766265630722046e-02
7.640000000000000000e+02 7.932324218750000000e+01 -2.502558708190917969e+01 -8.438070653937757015e-04 7.922089576721191406e+00 2.376373767852783203e+00 -1.995101571083068848e-02
7.650000000000000000e+02 7.930640411376953125e+01 -2.918933486938476562e+01 -2.757961046881973743e-04 8.029242515563964844e+00 2.408689975738525391e+00 -1.748233102262020111e-02
7.660000000000000000e+02 7.791206359863281250e+01 -3.178841781616210938e+01 -5.784691311419010162e-03 8.047527313232421875e+00 2.412522792816162109e+00 -3.983189538121223450e-02
7.670000000000000000e+02 7.931282806396484375e+01 -3.195873832702636719e+01 -1.529417815618216991e-03 8.088376998901367188e+00 2.426054239273071289e+00 -1.349246408790349960e-02
7.680000000000000000e+02 7.931126403808593750e+01 -3.604940032958984375e+01 -7.367797661572694778e-04 8.140447616577148438e+00 2.441913127899169922e+00 -5.661664530634880066e-03
7.690000000000000000e+02 7.919141387939453125e+01 -3.736013793945312500e+01 -1.585558173246681690e-03 8.147289276123046875e+00 2.443711042404174805e+00 -3.135147970169782639e-03
7.700000000000000000e+02 7.894178771972656250e+01 -3.865415573120117188e+01 -2.338889498787466437e-05 8.150618553161621094e+00 2.445178747177124023e+00 -2.437175018712878227e-03
7.710000000000000000e+02 7.856078338623046875e+01 -4.001272201538085938e+01 -3.233521711081266403e-03 8.150353431701660156e+00 2.444135904312133789e+00 5.196399870328605175e-04
7.720000000000000000e+02 5.974979400634765625e+00 3.817676544189453125e+01 -1.816292703151702881e-01 2.013483285903930664e+00 5.495561957359313965e-01 -1.988585591316223145e-01
7.730000000000000000e+02 2.780809974670410156e+01 4.089955139160156250e+01 -1.030570268630981445e+00 6.910106182098388672e+00 1.763860702514648438e+00 2.161412127315998077e-02
7.740000000000000000e+02 4.757880020141601562e+01 4.071118545532226562e+01 -5.749754309654235840e-01 7.881581783294677734e+00 2.191981792449951172e+00 5.356699228286743164e-02
7.750000000000000000e+02 6.731256103515625000e+01 4.069274902343750000e+01 -1.202415674924850464e-01 7.881843566894531250e+00 2.328480482101440430e+00 3.245698660612106323e-02
7.760000000000000000e+02 3.867312371730804443e-01 2.188606023788452148e+00 -2.109500952064990997e-02 -9.681379795074462891e-02 -3.537264093756675720e-02 2.837733924388885498e-02
7.770000000000000000e+02 2.774148225784301758e+00 3.082693576812744141e+00 -1.137093007564544678e-01 -1.133268848061561584e-01 -6.811085343360900879e-02 2.736040651798248291e-01
7.780000000000000000e+02 4.527682304382324219e+00 4.522061824798583984e+00 -1.980103403329849243e-01 1.191121116280555725e-01 -2.366946823894977570e-02 3.462027013301849365e-01
7.790000000000000000e+02 3.888653039932250977e+00 4.663681983947753906e+00 -1.352523863315582275e-01 -2.854046784341335297e-02 -4.913785681128501892e-02 3.943437039852142334e-01
7.800000000000000000e+02 5.392286777496337891e-01 9.240435600280761719e+00 -2.720123156905174255e-02 -1.713612079620361328e+00 -5.222440361976623535e-01 2.049302309751510620e-01
7.810000000000000000e+02 5.660859346389770508e-01 1.208600234985351562e+01 -5.342617258429527283e-02 -3.020065784454345703e+00 -9.220476150512695312e-01 2.978993058204650879e-01
7.820000000000000000e+02 1.687871813774108887e+00 1.205737972259521484e+01 -1.862656674347817898e-03 -1.872986435890197754e+00 -5.624547004699707031e-01 7.107751965522766113e-01
7.830000000000000000e+02 1.677351117134094238e+00 1.626256561279296875e+01 1.967253834009170532e-01 -2.914423942565917969e+00 -8.153095245361328125e-01 2.419442385435104370e-01
7.840000000000000000e+02 7.372538566589355469e+00 1.573810482025146484e+01 1.649878621101379395e+00 7.402253627777099609e+00 2.715639591217041016e+00 -7.663303017616271973e-01
7.850000000000000000e+02 5.628187656402587891e-01 1.910263442993164062e+01 1.278200149536132812e-01 -4.493960380554199219e+00 -1.309842109680175781e+00 -1.951256692409515381e-01
7.860000000000000000e+02 6.135886311531066895e-01 2.187196350097656250e+01 8.008491247892379761e-02 -3.200800657272338867e+00 -9.362147450447082520e-01 -3.389912247657775879e-01
7.870000000000000000e+02 6.671686768531799316e-01 2.325721931457519531e+01 -4.965918511152267456e-02 -2.455131769180297852e+00 -7.514373064041137695e-01 -3.447771668434143066e-01
7.880000000000000000e+02 2.014859914779663086e+00 2.290294075012207031e+01 -2.798820473253726959e-02 -1.321016311645507812e+00 -4.047013819217681885e-01 -8.099925518035888672e-01
7.890000000000000000e+02 7.093980312347412109e-01 2.466463470458984375e+01 -8.957535028457641602e-03 -1.823919415473937988e+00 -5.498631000518798828e-01 -2.952664494514465332e-01
7.900000000000000000e+02 7.364658117294311523e-01 2.894940567016601562e+01 -6.861836183816194534e-03 -4.374001026153564453e-01 -1.332785934209823608e-01 -1.795360594987869263e-01
7.910000000000000000e+02 7.351527214050292969e-01 3.037360763549804688e+01 -2.899265848100185394e-02 -1.356576681137084961e-01 -4.939509928226470947e-02 -1.410176157951354980e-01
7.920000000000000000e+02 2.199947118759155273e+00 3.016427612304687500e+01 -7.232548296451568604e-02 3.330900669097900391e-01 7.822937518358230591e-02 -4.011400043964385986e-01
7.930000000000000000e+02 7.371876835823059082e-01 3.179726982116699219e+01 -3.193077864125370979e-03 1.062585115432739258e-01 3.091963008046150208e-02 -1.146679297089576721e-01
7.940000000000000000e+02 7.012065649032592773e-01 3.601938629150390625e+01 -1.749594137072563171e-02 6.346352100372314453e-01 1.851417869329452515e-01 -6.647762656211853027e-02
7.950000000000000000e+02 2.324911594390869141e+00 3.814823532104492188e+01 8.541265502572059631e-03 1.103199958801269531e+00 3.335223495960235596e-01 -1.852661967277526855e-01
7.960000000000000000e+02 8.718661665916442871e-01 3.873727416992187500e+01 -2.075584046542644501e-02 9.378041625022888184e-01 2.751145064830780029e-01 -7.427883893251419067e-02
7.970000000000000000e+02 1.249313831329345703e+00 4.008369827270507812e+01 4.111579060554504395e-02 1.073462724685668945e+00 3.343735635280609131e-01 -1.063364446163177490e-01
7.980000000000000000e+02 1.470860767364501953e+01 -1.329306244850158691e+00 6.564764976501464844e-01 -2.835068941116333008e+00 -6.535776853561401367e-01 -3.327378273010253906e+00
7.990000000000000000e+02 1.505039882659912109e+01 2.736960172653198242e+00 -1.104608327150344849e-01 -1.362738370895385742e+00 -4.419597685337066650e-01 8.419145941734313965e-01
8.000000000000000000e+02 1.454308509826660156e+01 -9.970445185899734497e-02 5.239802837371826172e+00 -4.148882865905761719e+00 3.272760510444641113e-01 2.598572969436645508e-01
8.010000000000000000e+02 1.393446540832519531e+01 -1.590700507164001465e+00 -1.321282386779785156e+00 3.332723855972290039e+00 6.034324169158935547e-01 -2.588195085525512695e+00
8.020000000000000000e+02 1.453794956207275391e+01 4.263871908187866211e-01 2.219866514205932617e-01 -3.643863677978515625e+00 -1.026563167572021484e+00 1.796002507209777832e+00
8.030000000000000000e+02 1.404089736938476562e+01 -1.377771377563476562e+00 7.705118507146835327e-02 2.182948112487792969e+00 6.779997944831848145e-01 -3.328214883804321289e+00
8.040000000000000000e+02 1.440620613098144531e+01 -9.505200386047363281e-01 9.860106706619262695e-01 -2.611521184444427490e-01 2.174575775861740112e-01 -3.321307659149169922e+00
8.050000000000000000e+02 1.456208610534667969e+01 -2.807057797908782959e-01 2.513379812240600586e+00 -4.631900787353515625e+00 -6.355563402175903320e-01 8.438031077384948730e-01
8.060000000000000000e+02 1.463440227508544922e+01 -3.032245114445686340e-02 4.059818744659423828e+00 -5.109287738800048828e+00 -3.148406744003295898e-01 6.121388673782348633e-01
8.070000000000000000e+02 1.434482669830322266e+01 9.636335372924804688e-01 1.730947345495223999e-01 5.259947180747985840e-01 2.097268253564834595e-01 3.537177801132202148e+00
8.080000000000000000e+02 1.510174369812011719e+01 1.481463670730590820e+00 -2.835801243782043457e-01 -6.203729629516601562e+00 -1.946192979812622070e+00 1.612135529518127441e+00
8.090000000000000000e+02 1.402669906616210938e+01 1.256214141845703125e+00 -5.875982642173767090e-01 3.942281484603881836e+00 1.006404995918273926e+00 3.554813146591186523e+00
8.100000000000000000e+02 1.452735137939453125e+01 1.494197845458984375e+00 -2.998419404029846191e-01 -1.567799746990203857e-01 -1.369865834712982178e-01 3.338730335235595703e+00
8.110000000000000000e+02 1.364842700958251953e+01 1.351717829704284668e+00 -1.253041386604309082e+00 6.042063713073730469e+00 1.436706662178039551e+00 2.466617345809936523e+00
8.120000000000000000e+02 1.477772617340087891e+01 -4.345729649066925049e-01 1.062306165695190430e+00 -6.806169033050537109e+00 -1.723158836364746094e+00 3.928509056568145752e-01
8.130000000000000000e+02 1.281335353851318359e+01 -1.796357274055480957e+00 -1.432167410850524902e+00 6.675440788269042969e+00 1.572982072830200195e+00 1.849803566932678223e+00
8.140000000000000000e+02 1.484517765045166016e+01 -2.560273408889770508e+00 -8.005687594413757324e-01 -3.268318414688110352e+00 -1.220666170120239258e+00 -2.011456012725830078e+00
8.150000000000000000e+02 1.436002445220947266e+01 -1.704521536827087402e+00 -7.634469866752624512e-01 -1.943773627281188965e-01 -2.873473167419433594e-01 -3.108300209045410156e+00
8.160000000000000000e+02 1.425460815429687500e+01 -2.424384355545043945e+00 -1.430648922920227051e+00 -8.359738625586032867e-03 -4.317025840282440186e-01 -2.299308300018310547e+00
8.170000000000000000e+02 1.343924617767333984e+01 -1.781699061393737793e+00 -1.818146824836730957e+00 6.114917278289794922e+00 1.289031147956848145e+00 -9.580174684524536133e-01
8.180000000000000000e+02 1.366663360595703125e+01 -4.917084693908691406e+00 -1.432995647192001343e-01 9.041442871093750000e-01 2.282534092664718628e-01 1.258208602666854858e-01
8.190000000000000000e+02 1.201123523712158203e+01 -1.753422617912292480e+00 1.341894418001174927e-01 3.586698770523071289e+00 1.116266369819641113e+00 2.894209861755371094e+00
8.200000000000000000e+02 1.122592830657958984e+01 -1.757319331169128418e+00 4.911188483238220215e-01 1.550703763961791992e+00 6.125468015670776367e-01 2.041792392730712891e+00
8.210000000000000000e+02 1.023937797546386719e+01 -1.679770708084106445e+00 7.420873641967773438e-02 6.578084230422973633e-01 2.196051478385925293e-01 1.071257233619689941e+00
8.220000000000000000e+02 8.785181045532226562e+00 -2.417965650558471680e+00 -3.407581150531768799e-01 5.720469355583190918e-01 6.938665360212326050e-02 5.051575303077697754e-01
8.230000000000000000e+02 1.162621784210205078e+01 -1.750534534454345703e+00 3.529701232910156250e-01 2.323993921279907227e+00 8.030892014503479004e-01 2.449472188949584961e+00
8.240000000000000000e+02 1.240070629119873047e+01 -1.820043683052062988e+00 -6.120965480804443359e-01 5.123825073242187500e+00 1.353518605232238770e+00 2.666773319244384766e+00
8.250000000000000000e+02 1.182099056243896484e+01 -1.757946372032165527e+00 3.600542247295379639e-01 2.813274860382080078e+00 9.519987702369689941e-01 2.638844013214111328e+00
8.260000000000000000e+02 1.139482116699218750e+01 -4.867271423339843750e+00 -7.176372408866882324e-01 2.106714010238647461e+00 4.167229831218719482e-01 8.260637521743774414e-01
8.270000000000000000e+02 1.216859245300292969e+01 -5.412530899047851562e+00 -3.584155738353729248e-01 1.925165772438049316e+00 4.700250625610351562e-01 6.198088526725769043e-01
8.280000000000000000e+02 1.025605964660644531e+01 -1.992403864860534668e+00 7.987577468156814575e-02 8.333587050437927246e-01 2.739703655242919922e-01 1.237630248069763184e+00
8.290000000000000000e+02 1.048257160186767578e+01 -1.881012201309204102e+00 1.347134113311767578e-01 8.076625466346740723e-01 2.827127873897552490e-01 1.261910200119018555e+00
8.300000000000000000e+02 1.432376289367675781e+01 -3.761334180831909180e+00 -7.967964410781860352e-01 -4.151337146759033203e-01 -3.635790348052978516e-01 -7.895344495773315430e-01
8.310000000000000000e+02 1.143546485900878906e+01 -1.731474041938781738e+00 4.133764505386352539e-01 1.873761057853698730e+00 6.861412525177001953e-01 2.174191951751708984e+00
8.320000000000000000e+02 9.479660987854003906e+00 2.460172176361083984e+00 -9.980530291795730591e-02 6.913350224494934082e-01 1.774589121341705322e-01 -6.161109209060668945e-01
8.330000000000000000e+02 8.841338157653808594e+00 1.827372193336486816e+00 -1.638040840625762939e-01 2.695610821247100830e-01 3.172710165381431580e-02 -2.992389202117919922e-01
8.340000000000000000e+02 1.134971237182617188e+01 1.566697478294372559e+00 5.281558632850646973e-01 1.694487333297729492e+00 6.667929887771606445e-01 -1.815066695213317871e+00
8.350000000000000000e+02 1.115498447418212891e+01 1.564183950424194336e+00 4.415638148784637451e-01 1.422283530235290527e+00 5.591542124748229980e-01 -1.583816647529602051e+00
8.360000000000000000e+02 1.238598346710205078e+01 1.554461359977722168e+00 -5.758455395698547363e-01 4.944117069244384766e+00 1.310481429100036621e+00 -2.223270416259765625e+00
8.370000000000000000e+02 1.256156539916992188e+01 4.608928680419921875e+00 -8.579705953598022461e-01 2.025402307510375977e+00 3.502295613288879395e-01 -1.423691362142562866e-01
8.380000000000000000e+02 1.401576137542724609e+01 3.646142005920410156e+00 -6.481093168258666992e-01 1.178558230400085449e+00 1.591346710920333862e-01 8.432581424713134766e-01
8.390000000000000000e+02 1.253695583343505859e+01 1.772447347640991211e+00 -1.144871473312377930e+00 5.094922065734863281e+00 1.185015201568603516e+00 -1.588110208511352539e+00
8.400000000000000000e+02 1.193817996978759766e+01 1.606541872024536133e+00 8.293013274669647217e-02 3.158624887466430664e+00 9.724664688110351562e-01 -2.220003604888916016e+00
8.410000000000000000e+02 1.346280765533447266e+01 1.453678369522094727e+00 -1.856953859329223633e+00 6.494086265563964844e+00 1.391139626502990723e+00 1.130907893180847168e+00
8.420000000000000000e+02 6.547173023223876953e+00 1.875240325927734375e+00 -3.679353892803192139e-01 1.034427881240844727e-01 -7.934778183698654175e-02 1.149790957570075989e-01
8.430000000000000000e+02 5.776134967803955078e+00 2.675353288650512695e+00 -2.742787897586822510e-01 1.325848847627639771e-01 -4.250817000865936279e-02 1.949753165245056152e-01
8.440000000000000000e+02 1.534427881240844727e+00 7.744760990142822266e+00 -5.912776291370391846e-02 -8.708829283714294434e-01 -2.790032029151916504e-01 4.221231043338775635e-01
8.450000000000000000e+02 4.390768527984619141e+00 3.671277761459350586e+00 -1.612615734338760376e-01 3.196698427200317383e-02 -3.878837823867797852e-02 3.294107913970947266e-01
8.460000000000000000e+02 1.212772727012634277e+00 3.455857515335083008e+00 -2.799175679683685303e-02 -2.425734698772430420e-01 -8.116956800222396851e-02 1.563321053981781006e-01
8.470000000000000000e+02 2.705759048461914062e+00 2.030505895614624023e+00 -1.291051357984542847e-01 -7.238054275512695312e-02 -6.044570356607437134e-02 2.123716473579406738e-01
8.480000000000000000e+02 1.999688029289245605e+00 3.279924631118774414e+00 -5.815587192773818970e-02 -2.019916474819183350e-01 -7.804425805807113647e-02 2.419897019863128662e-01
8.490000000000000000e+02 6.532233238220214844e+00 2.630439281463623047e+00 -2.518398761749267578e-01 1.734910905361175537e-01 -2.350463345646858215e-02 1.116437539458274841e-01
8.500000000000000000e+02 5.027342319488525391e+00 2.730823755264282227e+00 -2.245196700096130371e-01 5.755630880594253540e-02 -5.008900910615921021e-02 2.594889700412750244e-01
8.510000000000000000e+02 1.006984329223632812e+01 2.392009973526000977e+00 -7.831791043281555176e-02 9.538253545761108398e-01 2.626522183418273926e-01 -8.571359515190124512e-01
8.520000000000000000e+02 8.786651611328125000e+00 2.504667043685913086e+00 -1.787552982568740845e-01 4.938530325889587402e-01 9.452932327985763550e-02 -3.697183728218078613e-01
8.530000000000000000e+02 7.921564579010009766e+00 -1.824441075325012207e+00 -5.828337073326110840e-01 2.476270645856857300e-01 -1.005619913339614868e-01 1.011646240949630737e-01
8.540000000000000000e+02 1.062434291839599609e+01 -2.097250938415527344e+00 2.230586111545562744e-02 1.275680661201477051e+00 3.893959522247314453e-01 1.452786445617675781e+00
8.550000000000000000e+02 4.802197456359863281e+00 -2.837844848632812500e+00 -3.719197511672973633e-01 1.224809512495994568e-01 -7.483164221048355103e-02 -4.511495828628540039e-01
8.560000000000000000e+02 7.219135761260986328e+00 -2.564426183700561523e+00 -4.728973507881164551e-01 3.704893589019775391e-01 -3.072239086031913757e-02 -2.283476665616035461e-02
8.570000000000000000e+02 1.947754740715026855e+00 -6.761902809143066406e+00 -7.572097331285476685e-02 -9.216512441635131836e-01 -2.992116808891296387e-01 -6.124912500381469727e-01
8.580000000000000000e+02 6.700971722602844238e-01 -6.476268291473388672e+00 -7.243319414556026459e-03 -1.414067983627319336e+00 -4.263933897018432617e-01 -2.614263892173767090e-01
8.590000000000000000e+02 2.553352832794189453e+00 -4.193118095397949219e+00 -1.293102353811264038e-01 -2.771244347095489502e-01 -1.219304054975509644e-01 -5.653085708618164062e-01
8.600000000000000000e+02 4.788577854633331299e-01 -3.571958303451538086e+00 -9.504321031272411346e-03 -4.785256981849670410e-01 -1.464090049266815186e-01 -1.141906902194023132e-01
8.610000000000000000e+02 9.967211723327636719e+00 -4.556214809417724609e+00 -4.949415922164916992e-01 1.798728346824645996e+00 3.911360204219818115e-01 8.440148234367370605e-01
8.620000000000000000e+02 7.105145931243896484e+00 -1.851087331771850586e+00 -6.355031132698059082e-01 2.250585854053497314e-01 -1.231333538889884949e-01 -6.126755848526954651e-02
8.630000000000000000e+02 6.421928405761718750e+00 -2.641730546951293945e+00 -4.719873964786529541e-01 3.123554289340972900e-01 -4.788959026336669922e-02 -1.897849589586257935e-01
8.640000000000000000e+02 5.617610454559326172e+00 -2.733623981475830078e+00 -4.306614398956298828e-01 1.945682317018508911e-01 -7.082796096801757812e-02 -3.528454899787902832e-01
8.650000000000000000e+02 7.833282470703125000e+00 -2.005605888366699219e+01 3.686523437500000000e-02 3.986120700836181641e+00 1.206895828247070312e+00 -1.913645863533020020e-01
8.660000000000000000e+02 7.633909225463867188e+00 1.876163864135742188e+01 1.936085462570190430e+00 7.107448101043701172e+00 2.713059902191162109e+00 1.002095937728881836e+00
8.670000000000000000e+02 5.585120916366577148e-01 1.631550598144531250e+01 1.592059135437011719e-01 -4.776212692260742188e+00 -1.385102033615112305e+00 5.402500554919242859e-02
8.680000000000000000e+02 9.032739639282226562e+00 1.894459152221679688e+01 3.221598863601684570e+00 3.123416900634765625e+00 1.903504729270935059e+00 2.202970743179321289e+00
8.690000000000000000e+02 6.896865844726562500e+00 -1.570149612426757812e+01 1.254223585128784180e+00 1.039845180511474609e+01 3.495802879333496094e+00 -3.399503231048583984e-02
8.700000000000000000e+02 6.540833115577697754e-01 -2.055432510375976562e+01 -1.740171201527118683e-02 -3.019087553024291992e+00 -9.109467864036560059e-01 3.919266462326049805e-01
8.710000000000000000e+02 1.279644393920898438e+01 1.917146110534667969e+01 1.403056859970092773e+00 2.621425390243530273e+00 1.207344651222229004e+00 -1.669853925704956055e+00
8.720000000000000000e+02 6.942587852478027344e+00 1.432158660888671875e+01 4.077304601669311523e-01 3.739367008209228516e+00 1.244129300117492676e+00 2.297921180725097656e-01
8.730000000000000000e+02 1.949959874153137207e+00 -1.761183929443359375e+01 2.928761541843414307e-01 -2.183822154998779297e+00 -5.672837495803833008e-01 6.656054854393005371e-01
8.740000000000000000e+02 1.841452479362487793e+00 -1.614742088317871094e+01 3.058313131332397461e-01 -2.643006563186645508e+00 -7.011525630950927734e-01 3.007515966892242432e-01
8.750000000000000000e+02 1.398038768768310547e+01 -1.672498130798339844e+01 9.640969634056091309e-01 3.847175359725952148e+00 1.443381667137145996e+00 1.884240508079528809e+00
8.760000000000000000e+02 1.172642421722412109e+01 -1.690305519104003906e+01 1.269400119781494141e+00 2.008045673370361328e+00 9.832336902618408203e-01 1.491805315017700195e+00
8.770000000000000000e+02 1.126968955993652344e+01 1.248241233825683594e+01 8.107401728630065918e-01 1.559401750564575195e+00 7.110425829887390137e-01 -1.186008095741271973e+00
8.780000000000000000e+02 1.265859413146972656e+01 8.781444549560546875e+00 1.055587679147720337e-01 1.520629405975341797e+00 4.878564476966857910e-01 -5.755403637886047363e-01
8.790000000000000000e+02 1.513794231414794922e+01 -1.384256958961486816e+00 1.367844194173812866e-01 -8.496274948120117188e+00 -2.507847309112548828e+00 -1.892131090164184570e+00
8.800000000000000000e+02 1.498357009887695312e+01 -2.505069375038146973e-01 3.095618963241577148e+00 -7.484970569610595703e+00 -1.316805601119995117e+00 2.994583249092102051e-01
8.810000000000000000e+02 1.966421318054199219e+01 9.550951957702636719e+00 1.285789370536804199e+00 1.052210330963134766e+01 3.542367696762084961e+00 -1.931706190109252930e+00
8.820000000000000000e+02 1.397527408599853516e+01 1.819403648376464844e+01 1.389531970024108887e+00 3.655298233032226562e+00 1.513449072837829590e+00 -1.983446240425109863e+00
8.830000000000000000e+02 1.435684394836425781e+01 6.811170578002929688e+00 -7.555552572011947632e-02 1.254916429519653320e+00 3.538082838058471680e-01 -3.099544346332550049e-01
8.840000000000000000e+02 1.248450469970703125e+01 5.892168998718261719e+00 -5.679837465286254883e-01 1.687992572784423828e+00 3.360026478767395020e-01 -1.546378731727600098e-01
8.850000000000000000e+02 1.407225322723388672e+01 1.638265228271484375e+01 2.336784362792968750e+00 3.555435657501220703e+00 1.767665982246398926e+00 -2.635107755661010742e+00
8.860000000000000000e+02 1.720067977905273438e+01 1.174806594848632812e+01 1.705482602119445801e+00 9.400820732116699219e+00 3.331891059875488281e+00 -3.548837900161743164e+00
8.870000000000000000e+02 1.776764106750488281e+01 1.372744178771972656e+01 1.550423979759216309e+00 8.190585136413574219e+00 2.922302722930908203e+00 -2.604555130004882812e+00
8.880000000000000000e+02 1.905172538757324219e+01 2.112057447433471680e+00 1.299202293157577515e-01 1.285419940948486328e+01 3.895235776901245117e+00 -2.718328535556793213e-01
8.890000000000000000e+02 1.876677703857421875e+01 -9.706347465515136719e+00 1.187923312187194824e+00 9.391021728515625000e+00 3.173683404922485352e+00 2.604159832000732422e+00
8.900000000000000000e+02 9.038823127746582031e+00 -2.069615936279296875e+01 7.679772973060607910e-01 3.396952867507934570e+00 1.249479055404663086e+00 -4.623766541481018066e-01
8.910000000000000000e+02 1.306829166412353516e+01 -1.787949943542480469e+01 9.670802354812622070e-01 3.207111597061157227e+00 1.252257585525512695e+00 1.624521493911743164e+00
8.920000000000000000e+02 1.485060214996337891e+01 4.061450958251953125e+00 -2.245534360408782959e-01 5.560710430145263672e-01 9.945528954267501831e-02 3.123197257518768311e-01
8.930000000000000000e+02 1.335054874420166016e+01 4.320132732391357422e+00 -7.197752594947814941e-01 1.788415431976318359e+00 3.205920755863189697e-01 2.876002788543701172e-01
8.940000000000000000e+02 1.053176784515380859e+01 1.161368179321289062e+01 2.597742080688476562e-01 2.094964265823364258e+00 7.064215540885925293e-01 -1.081666469573974609e+00
8.950000000000000000e+02 1.079853057861328125e+01 -1.723706841468811035e+00 3.217625617980957031e-01 9.996550083160400391e-01 3.964252769947052002e-01 1.569285988807678223e+00
8.960000000000000000e+02 8.135204315185546875e+00 -3.201142549514770508e+00 -3.620591461658477783e-01 7.323017716407775879e-01 1.110727787017822266e-01 3.083378970623016357e-01
8.970000000000000000e+02 1.211212158203125000e+01 -7.160645961761474609e+00 5.502326488494873047e-01 1.730913996696472168e+00 6.843439936637878418e-01 1.043200969696044922e+00
8.980000000000000000e+02 1.602902221679687500e+01 -1.139709758758544922e+01 1.864403486251831055e+00 6.251429557800292969e+00 2.434749841690063477e+00 3.278999090194702148e+00
8.990000000000000000e+02 1.798290061950683594e+01 -1.087284851074218750e+01 1.249157786369323730e+00 8.201705932617187500e+00 2.835259199142456055e+00 2.791323900222778320e+00
9.000000000000000000e+02 9.817880630493164062e+00 1.076375293731689453e+01 -8.687264285981655121e-03 2.057347536087036133e+00 6.145980954170227051e-01 -7.872744798660278320e-01
9.010000000000000000e+02 1.458966636657714844e+01 5.442472457885742188e+00 -9.868704527616500854e-02 1.071960091590881348e+00 2.919819355010986328e-01 -9.501912631094455719e-03
9.020000000000000000e+02 1.345603370666503906e+01 6.805576324462890625e+00 -1.191487312316894531e-01 1.454254031181335449e+00 4.005315899848937988e-01 -2.757305204868316650e-01
9.030000000000000000e+02 1.992822456359863281e+01 6.551642417907714844e+00 7.219131588935852051e-01 1.182477092742919922e+01 3.764005184173583984e+00 -1.387301445007324219e+00
9.040000000000000000e+02 1.723232841491699219e+01 -1.204326343536376953e+01 1.346867442131042480e+00 6.955029964447021484e+00 2.490569353103637695e+00 2.758131504058837891e+00
9.050000000000000000e+02 1.647806358337402344e+01 -1.322235298156738281e+01 1.313937783241271973e+00 6.091305255889892578e+00 2.221572875976562500e+00 2.494488000869750977e+00
9.060000000000000000e+02 1.844319725036621094e+01 1.244257164001464844e+01 1.256206870079040527e+00 9.153895378112792969e+00 3.123030662536621094e+00 -2.437256813049316406e+00
9.070000000000000000e+02 1.282359886169433594e+01 1.038054561614990234e+01 3.841889202594757080e-01 1.483401417732238770e+00 5.602771043777465820e-01 -7.504882812500000000e-01
9.080000000000000000e+02 2.031208610534667969e+01 -7.408686637878417969e+00 1.681889772415161133e+00 1.076864814758300781e+01 3.735161542892456055e+00 1.273928523063659668e+00
9.090000000000000000e+02 1.569490814208984375e+01 -1.440217494964599609e+01 1.184213161468505859e+00 5.315571308135986328e+00 1.949935317039489746e+00 2.273096084594726562e+00
9.100000000000000000e+02 1.507882690429687500e+01 1.716709327697753906e+01 1.346395730972290039e+00 4.909503936767578125e+00 1.876769900321960449e+00 -2.393775224685668945e+00
9.110000000000000000e+02 1.337108135223388672e+01 -3.025594949722290039e+00 -2.003711462020874023e+00 2.655656814575195312e+00 1.955835670232772827e-01 -6.440540552139282227e-01
9.120000000000000000e+02 1.036442375183105469e+01 1.344802188873291016e+01 1.129663825035095215e+00 2.094929218292236328e+00 9.673779010772705078e-01 -1.495323777198791504e+00
9.130000000000000000e+02 8.883592605590820312e+00 -9.594928741455078125e+00 5.863896012306213379e-01 3.165309429168701172e+00 1.125509738922119141e+00 1.256983280181884766e+00
9.140000000000000000e+02 9.679200172424316406e+00 -8.564527511596679688e+00 4.804778993129730225e-01 2.535202980041503906e+00 9.047042727470397949e-01 1.207073330879211426e+00
9.150000000000000000e+02 2.029087448120117188e+01 -6.281588077545166016e-01 3.428949117660522461e-01 1.231155014038085938e+01 3.796333551406860352e+00 3.014574348926544189e-01
9.160000000000000000e+02 2.008256340026855469e+01 5.151396274566650391e+00 8.372955918312072754e-01 1.200341892242431641e+01 3.852214336395263672e+00 -1.051022171974182129e+00
9.170000000000000000e+02 2.045342445373535156e+01 2.336285829544067383e+00 5.859219431877136230e-01 1.210619926452636719e+01 3.807636499404907227e+00 -4.947139918804168701e-01
9.180000000000000000e+02 2.015619850158691406e+01 -1.978276014328002930e+00 3.176555037498474121e-01 1.252823448181152344e+01 3.853766918182373047e+00 5.622203350067138672e-01
9.190000000000000000e+02 6.641362190246582031e+00 -1.055844879150390625e+01 6.642093509435653687e-02 3.107010364532470703e+00 9.520294070243835449e-01 -8.281952468678355217e-04
9.200000000000000000e+02 7.884064674377441406e+00 1.388356304168701172e+01 -2.077786028385162354e-01 4.467929840087890625e+00 1.278045296669006348e+00 -4.534719586372375488e-01
9.210000000000000000e+02 1.051095294952392578e+01 -7.543601512908935547e+00 3.363096714019775391e-01 2.269754648208618164e+00 7.818192839622497559e-01 1.035789132118225098e+00
9.220000000000000000e+02 1.895899963378906250e+01 -2.057972431182861328e+00 1.777747720479965210e-01 1.297158718109130859e+01 3.944808721542358398e+00 2.966117858886718750e-01
9.230000000000000000e+02 7.778932189941406250e+01 3.305505752563476562e+01 -3.379444824531674385e-03 7.928266048431396484e+00 2.377465963363647461e+00 3.506547585129737854e-02
9.240000000000000000e+02 7.917132568359375000e+01 3.605288696289062500e+01 -2.988615538924932480e-03 7.992829799652099609e+00 2.396952390670776367e+00 6.065056659281253815e-03
9.250000000000000000e+02 7.930913543701171875e+01 -2.780134201049804688e+01 -7.883345824666321278e-04 7.995435237884521484e+00 2.398394107818603516e+00 -1.849221438169479370e-02
9.260000000000000000e+02 7.712351989746093750e+01 -3.770760726928710938e+01 -8.614470250904560089e-03 8.104513168334960938e+00 2.428769588470458984e+00 -1.783549413084983826e-02
9.270000000000000000e+02 7.932866668701171875e+01 -3.470604324340820312e+01 -1.516984310001134872e-03 8.128185272216796875e+00 2.438000440597534180e+00 -7.856293581426143646e-03
9.280000000000000000e+02 7.934179687500000000e+01 -2.084589195251464844e+01 8.197143906727433205e-04 7.801824569702148438e+00 2.340793132781982422e+00 -2.090078778564929962e-02
9.290000000000000000e+02 7.790509033203125000e+01 -2.765491676330566406e+01 -2.263104775920510292e-03 7.964751720428466797e+00 2.388746738433837891e+00 -5.186770856380462646e-02
9.300000000000000000e+02 7.792870330810546875e+01 -2.627754974365234375e+01 -2.283136360347270966e-03 7.933615207672119141e+00 2.379399538040161133e+00 -5.431196466088294983e-02
9.310000000000000000e+02 7.930744934082031250e+01 -3.057536888122558594e+01 -9.959291201084852219e-04 8.060753822326660156e+00 2.417927503585815430e+00 -1.610338501632213593e-02
9.320000000000000000e+02 7.792838287353515625e+01 -3.315589904785156250e+01 -7.115661166608333588e-03 8.071528434753417969e+00 2.419323921203613281e+00 -3.203106299042701721e-02
9.330000000000000000e+02 7.482701873779296875e+01 -3.718464660644531250e+01 -2.396509051322937012e-02 8.044174194335937500e+00 2.406062841415405273e+00 -5.157883092761039734e-02
9.340000000000000000e+02 7.619743347167968750e+01 -3.880547332763671875e+01 -1.093337871134281158e-02 8.099614143371582031e+00 2.426604270935058594e+00 -2.619425207376480103e-02
9.350000000000000000e+02 7.797848510742187500e+01 1.400797080993652344e+01 3.497760975733399391e-03 7.540328025817871094e+00 2.263147830963134766e+00 4.203449189662933350e-02
9.360000000000000000e+02 7.932366943359375000e+01 1.535385990142822266e+01 1.555571914650499821e-03 7.545162677764892578e+00 2.264015436172485352e+00 1.605317182838916779e-02
9.370000000000000000e+02 7.791905975341796875e+01 2.095245552062988281e+01 -1.149266143329441547e-03 7.688387393951416016e+00 2.306171417236328125e+00 5.222734436392784119e-02
9.380000000000000000e+02 7.928993988037109375e+01 2.232587814331054688e+01 -1.407257281243801117e-03 7.718029022216796875e+00 2.314986705780029297e+00 1.924938522279262543e-02
9.390000000000000000e+02 7.791455078125000000e+01 3.173117065429687500e+01 -3.803347004577517509e-03 7.909556388854980469e+00 2.371726036071777344e+00 3.718300536274909973e-02
9.400000000000000000e+02 7.805865478515625000e+01 2.804191207885742188e+01 -1.477588200941681862e-03 7.842108726501464844e+00 2.352189302444458008e+00 4.409708827733993530e-02
9.410000000000000000e+02 7.936286926269531250e+01 2.790008735656738281e+01 -1.674391212873160839e-03 7.852890968322753906e+00 2.355365037918090820e+00 1.586394943296909332e-02
9.420000000000000000e+02 7.780020141601562500e+01 2.522141265869140625e+01 -5.330676503945142031e-05 7.781980514526367188e+00 2.334578275680541992e+00 5.211159586906433105e-02
9.430000000000000000e+02 7.783573913574218750e+01 2.378007125854492188e+01 -1.996897859498858452e-03 7.751260757446289062e+00 2.324779033660888672e+00 5.307135358452796936e-02
9.440000000000000000e+02 7.795581817626953125e+01 1.816219139099121094e+01 -6.116440636105835438e-05 7.625661373138427734e+00 2.287679910659790039e+00 4.926211014389991760e-02
9.450000000000000000e+02 7.796893310546875000e+01 1.539716911315917969e+01 1.006739446893334389e-03 7.567493915557861328e+00 2.270550251007080078e+00 4.507014900445938110e-02
9.460000000000000000e+02 7.796139526367187500e+01 1.678029251098632812e+01 2.921172184869647026e-03 7.595878601074218750e+00 2.279639959335327148e+00 4.741139709949493408e-02
9.470000000000000000e+02 7.798693084716796875e+01 1.261310291290283203e+01 1.863853074610233307e-03 7.514909267425537109e+00 2.255031824111938477e+00 3.886625915765762329e-02
9.480000000000000000e+02 7.664403533935546875e+01 1.126095962524414062e+01 7.062685210257768631e-03 7.519053459167480469e+00 2.257834911346435547e+00 5.533649399876594543e-02
9.490000000000000000e+02 7.800644683837890625e+01 8.447451591491699219e+00 4.718694370239973068e-03 7.452666759490966797e+00 2.237215757369995117e+00 2.605879679322242737e-02
9.500000000000000000e+02 7.933398437500000000e+01 9.782381057739257812e+00 1.609664643183350563e-03 7.436093807220458984e+00 2.231311082839965820e+00 1.090213935822248459e-02
9.510000000000000000e+02 7.934427642822265625e+01 -1.945470619201660156e+01 -7.841890910640358925e-04 7.760474205017089844e+00 2.327907085418701172e+00 -2.070049755275249481e-02
9.520000000000000000e+02 7.666432189941406250e+01 7.119490146636962891e+00 1.126616168767213821e-02 7.470819473266601562e+00 2.244625806808471680e+00 3.346716612577438354e-02
9.530000000000000000e+02 7.798490905761718750e+01 1.402253508567810059e-01 5.655015818774700165e-03 7.413637161254882812e+00 2.225787639617919922e+00 -6.254916079342365265e-03
9.540000000000000000e+02 7.932893371582031250e+01 1.442866802215576172e+00 1.851198845542967319e-03 7.368922233581542969e+00 2.211232185363769531e+00 -4.466286045499145985e-04
9.550000000000000000e+02 7.932582855224609375e+01 -6.927726745605468750e+00 2.003249945119023323e-03 7.443587303161621094e+00 2.233677148818969727e+00 -1.254705619066953659e-02
9.560000000000000000e+02 7.933351135253906250e+01 -1.389452075958251953e+01 -4.633954085875302553e-04 7.600880146026611328e+00 2.280125141143798828e+00 -1.901333779096603394e-02
9.570000000000000000e+02 7.823812866210937500e+01 2.920417785644531250e+01 -3.020779695361852646e-03 7.871488571166992188e+00 2.360540390014648438e+00 3.713349625468254089e-02
9.580000000000000000e+02 7.841007232666015625e+01 4.020294952392578125e+01 -4.733560606837272644e-03 8.004062652587890625e+00 2.399798870086669922e+00 -6.300285458564758301e-04
9.590000000000000000e+02 7.465451812744140625e+01 3.850276184082031250e+01 -2.643607184290885925e-02 7.933499813079833984e+00 2.372119188308715820e+00 3.095224313437938690e-02
9.600000000000000000e+02 7.423394012451171875e+01 3.670431900024414062e+01 -3.255851194262504578e-02 7.915184497833251953e+00 2.364787817001342773e+00 4.863616451621055603e-02
9.610000000000000000e+02 7.800126647949218750e+01 9.832625389099121094e+00 2.744247904047369957e-03 7.470699787139892578e+00 2.242033243179321289e+00 3.095113113522529602e-02
9.620000000000000000e+02 7.663678741455078125e+01 2.052384316921234131e-01 1.084080152213573456e-02 7.449504375457763672e+00 2.238103628158569336e+00 -8.746182546019554138e-03
9.630000000000000000e+02 7.799569702148437500e+01 2.919766187667846680e+00 5.444143433123826981e-03 7.412734031677246094e+00 2.225453376770019531e+00 5.057569127529859543e-03
9.640000000000000000e+02 7.663639068603515625e+01 -1.194884181022644043e+00 1.292824372649192810e-02 7.454458713531494141e+00 2.240216255187988281e+00 -1.853803917765617371e-02
9.650000000000000000e+02 7.932414245605468750e+01 -2.741900444030761719e+00 -9.686671546660363674e-06 7.388269424438476562e+00 2.216477870941162109e+00 -6.393716670572757721e-03
9.660000000000000000e+02 7.797994232177734375e+01 -6.859532833099365234e+00 3.077158704400062561e-03 7.478102207183837891e+00 2.244353771209716797e+00 -3.408870846033096313e-02
9.670000000000000000e+02 7.797859191894531250e+01 -5.463064670562744141e+00 5.540603771805763245e-03 7.458157062530517578e+00 2.239109277725219727e+00 -2.923199720680713654e-02
9.680000000000000000e+02 7.932670593261718750e+01 -9.716964721679687500e+00 1.732867909595370293e-03 7.498387813568115234e+00 2.250036239624023438e+00 -1.574406772851943970e-02
9.690000000000000000e+02 7.800629425048828125e+01 -1.382441902160644531e+01 2.875064034014940262e-03 7.616738796234130859e+00 2.285884141921997070e+00 -5.271801352500915527e-02
9.700000000000000000e+02 7.799439239501953125e+01 -1.244027328491210938e+01 1.619169022887945175e-03 7.584789752960205078e+00 2.275922536849975586e+00 -5.007364973425865173e-02
9.710000000000000000e+02 7.934020996093750000e+01 -1.667442512512207031e+01 -6.853983504697680473e-04 7.678718566894531250e+00 2.303410053253173828e+00 -2.025198377668857574e-02
9.720000000000000000e+02 7.803485870361328125e+01 -2.072185134887695312e+01 -8.847975987009704113e-04 7.794001579284667969e+00 2.337934970855712891e+00 -5.729308351874351501e-02
9.730000000000000000e+02 7.804222869873046875e+01 -1.933858680725097656e+01 1.033041044138371944e-03 7.757260322570800781e+00 2.327487945556640625e+00 -5.725141987204551697e-02
9.740000000000000000e+02 1.362568616867065430e+00 -3.987614822387695312e+01 3.048444166779518127e-02 1.476011991500854492e+00 4.519489109516143799e-01 1.025440394878387451e-01
9.750000000000000000e+02 7.165064811706542969e-01 3.739802932739257812e+01 2.447926811873912811e-02 7.892521023750305176e-01 2.441194057464599609e-01 -8.226491510868072510e-02
9.760000000000000000e+02 7.237918972969055176e-01 3.462293243408203125e+01 -3.431335208006203175e-04 4.837741851806640625e-01 1.450293213129043579e-01 -8.755754679441452026e-02
9.770000000000000000e+02 7.382046580314636230e-01 3.321592330932617188e+01 -1.266029663383960724e-02 3.074837028980255127e-01 8.844702690839767456e-02 -9.764104336500167847e-02
9.780000000000000000e+02 7.368900179862976074e-01 2.752309608459472656e+01 -4.180591553449630737e-02 -8.115438222885131836e-01 -2.560049295425415039e-01 -2.190465629100799561e-01
9.790000000000000000e+02 7.302338480949401855e-01 2.609271240234375000e+01 -1.146916020661592484e-02 -1.273660421371459961e+00 -3.855388760566711426e-01 -2.763350605964660645e-01
9.800000000000000000e+02 5.215380191802978516e-01 -3.616204833984375000e+01 -2.098256722092628479e-02 1.103473663330078125e+00 3.247473239898681641e-01 4.250149428844451904e-02
9.810000000000000000e+02 2.483993053436279297e+00 -3.386969375610351562e+01 -3.328384086489677429e-02 1.255479931831359863e+00 3.666588068008422852e-01 2.586830258369445801e-01
9.820000000000000000e+02 3.604680299758911133e+00 2.551555442810058594e+01 -2.584787011146545410e-01 4.632198214530944824e-01 6.142233684659004211e-02 -9.015679359436035156e-01
9.830000000000000000e+02 2.210020065307617188e+00 3.447634124755859375e+01 -2.750208228826522827e-02 7.967517375946044922e-01 2.307748943567276001e-01 -2.255417555570602417e-01
9.840000000000000000e+02 2.253189563751220703e+00 3.305815505981445312e+01 -3.894656524062156677e-02 7.038167715072631836e-01 1.994610577821731567e-01 -2.672701179981231689e-01
9.850000000000000000e+02 3.229140281677246094e+00 3.912890625000000000e+01 -3.690915927290916443e-02 1.140810489654541016e+00 3.311704099178314209e-01 -1.458014547824859619e-01
9.860000000000000000e+02 2.344708681106567383e+00 -2.912033843994140625e+01 -6.609088182449340820e-02 6.974591612815856934e-01 1.894104778766632080e-01 4.037923216819763184e-01
9.870000000000000000e+02 2.230751752853393555e+00 -2.619338226318359375e+01 -9.019402414560317993e-02 1.928544193506240845e-01 3.079811856150627136e-02 5.651148557662963867e-01
9.880000000000000000e+02 6.414540410041809082e-01 -1.771207427978515625e+01 5.129974707961082458e-02 -4.551325321197509766e+00 -1.350007653236389160e+00 2.860692739486694336e-01
9.890000000000000000e+02 1.464987993240356445e+00 -3.654267120361328125e+01 -2.082110568881034851e-02 1.237763404846191406e+00 3.650827109813690186e-01 1.227725446224212646e-01
9.900000000000000000e+02 5.180518627166748047e-01 7.822131156921386719e+00 -1.375958789139986038e-02 -1.213598847389221191e+00 -3.682075142860412598e-01 1.429851800203323364e-01
9.910000000000000000e+02 5.602401494979858398e-01 1.771118545532226562e+01 -4.650257900357246399e-02 -4.796696186065673828e+00 -1.452959656715393066e+00 -7.294383645057678223e-02
9.920000000000000000e+02 1.843449831008911133e+00 2.157991218566894531e+01 -1.278112176805734634e-02 -1.791256427764892578e+00 -5.412112474441528320e-01 -8.416967988014221191e-01
9.930000000000000000e+02 5.613102316856384277e-01 1.350413513183593750e+01 9.154705703258514404e-02 -3.761687040328979492e+00 -1.101042032241821289e+00 2.490863054990768433e-01
9.940000000000000000e+02 5.093245983123779297e+00 1.888999938964843750e+01 1.387925863265991211e+00 1.824823498725891113e+00 9.638248682022094727e-01 -7.570766806602478027e-01
9.950000000000000000e+02 1.723614215850830078e+00 -9.426185607910156250e+00 -7.821130752563476562e-02 -1.695968627929687500e+00 -5.322539806365966797e-01 -7.294027805328369141e-01
9.960000000000000000e+02 3.500118732452392578e+00 -3.844238662719726562e+01 -1.517717447131872177e-02 1.585043191909790039e+00 4.709597826004028320e-01 1.838019490242004395e-01
9.970000000000000000e+02 4.536558151245117188e+00 -3.649862289428710938e+01 -7.540513575077056885e-02 1.772793889045715332e+00 5.092166066169738770e-01 2.368282973766326904e-01
9.980000000000000000e+02 2.624264955520629883e+00 -3.228538894653320312e+01 -6.321160495281219482e-02 1.136643528938293457e+00 3.220295608043670654e-01 3.091815412044525146e-01
9.990000000000000000e+02 2.272656679153442383e+00 -2.765036010742187500e+01 -8.949927985668182373e-02 4.561997354030609131e-01 1.100101396441459656e-01 4.840897917747497559e-01
1.000000000000000000e+03 3.738936424255371094e+00 -2.764460372924804688e+01 -1.751954257488250732e-01 1.091807484626770020e+00 2.749836146831512451e-01 6.395044326782226562e-01
1.001000000000000000e+03 2.034859657287597656e+00 -2.189764404296875000e+01 -1.310380697250366211e-01 -9.042593240737915039e-01 -3.105892241001129150e-01 9.075399637222290039e-01
1.002000000000000000e+03 2.198516130447387695e+00 -2.474989128112792969e+01 -1.464141458272933960e-01 -1.058066114783287048e-01 -7.566622644662857056e-02 6.870705485343933105e-01
1.003000000000000000e+03 4.628870010375976562e+00 -1.699250030517578125e+01 1.201299190521240234e+00 2.111921787261962891e+00 9.939663410186767578e-01 5.919151902198791504e-01
1.004000000000000000e+03 4.516946792602539062e+00 -1.608233070373535156e+01 1.235269665718078613e+00 1.980564355850219727e+00 9.647501707077026367e-01 3.421422541141510010e-01
1.005000000000000000e+03 1.902242541313171387e+00 -1.907065200805664062e+01 6.151954457163810730e-02 -1.863669037818908691e+00 -5.406448841094970703e-01 8.786547183990478516e-01
1.006000000000000000e+03 1.806643128395080566e+00 -1.231636524200439453e+01 1.223752573132514954e-01 -2.311710357666015625e+00 -6.568005084991455078e-01 -6.931709051132202148e-01
1.007000000000000000e+03 5.865798592567443848e-01 -1.215818691253662109e+01 1.491112541407346725e-02 -4.278776645660400391e+00 -1.279159665107727051e+00 -2.577004432678222656e-01
1.008000000000000000e+03 6.511506557464599609e+00 -1.229411125183105469e+01 2.987825870513916016e-01 4.380256175994873047e+00 1.403711676597595215e+00 -3.744570165872573853e-02
1.009000000000000000e+03 1.404887676239013672e+00 -3.412760257720947266e+00 -4.742326959967613220e-02 -4.472063779830932617e-01 -1.483888924121856689e-01 -3.181191682815551758e-01
1.010000000000000000e+03 6.210178732872009277e-01 -4.999620914459228516e+00 -4.898141697049140930e-02 -9.408636093139648438e-01 -2.969534993171691895e-01 -2.024828493595123291e-01
1.011000000000000000e+03 4.592455327510833740e-01 4.979706764221191406e+00 -1.480397023260593414e-02 -5.260196328163146973e-01 -1.622470766305923462e-01 8.317200839519500732e-02
1.012000000000000000e+03 3.692747116088867188e+00 3.828771352767944336e+00 -1.479371786117553711e-01 -3.047613054513931274e-02 -5.352399125695228577e-02 3.306353390216827393e-01
1.013000000000000000e+03 1.667714595794677734e+00 1.060357666015625000e+01 -9.262690693140029907e-02 -1.489187002182006836e+00 -4.745441675186157227e-01 7.017108798027038574e-01
1.014000000000000000e+03 5.594497919082641602e-01 1.066298770904541016e+01 7.193718105554580688e-03 -2.313765287399291992e+00 -6.919714212417602539e-01 2.308113574981689453e-01
1.015000000000000000e+03 1.670958280563354492e+00 1.348845005035400391e+01 3.279037028551101685e-02 -2.309363603591918945e+00 -6.829719543457031250e-01 7.676334381103515625e-01
1.016000000000000000e+03 1.687972784042358398e+00 1.762232017517089844e+01 3.443260490894317627e-01 -2.975227117538452148e+00 -7.892703413963317871e-01 -1.465947329998016357e-01
1.017000000000000000e+03 2.826062679290771484e+00 1.886649703979492188e+01 5.444234609603881836e-01 -1.240814089775085449e+00 -2.089172154664993286e-01 -5.923237800598144531e-01
1.018000000000000000e+03 2.126213312149047852e+00 2.432477569580078125e+01 -1.113259270787239075e-01 -8.238425850868225098e-01 -2.805505692958831787e-01 -8.237937688827514648e-01
1.019000000000000000e+03 7.312211036682128906e+00 -1.152187061309814453e+01 3.335273861885070801e-01 4.853519439697265625e+00 1.556113958358764648e+00 9.849603772163391113e-01
1.020000000000000000e+03 9.993543624877929688e+00 -2.136315107345581055e+00 -9.209375828504562378e-02 7.725743055343627930e-01 2.041441649198532104e-01 1.098884105682373047e+00
1.021000000000000000e+03 1.027950286865234375e+01 -2.321663141250610352e+00 -9.898842126131057739e-02 1.041047215461730957e+00 2.826176583766937256e-01 1.270466566085815430e+00
1.022000000000000000e+03 1.164703655242919922e+01 -2.287986278533935547e+00 -3.886757493019104004e-01 2.731369018554687500e+00 7.028079628944396973e-01 2.163519144058227539e+00
1.023000000000000000e+03 1.308260345458984375e+01 -2.579070091247558594e+00 -1.976932048797607422e+00 4.434320449829101562e+00 7.372165918350219727e-01 2.116074413061141968e-01
1.024000000000000000e+03 1.256507205963134766e+01 1.506603002548217773e+00 -8.763436675071716309e-01 5.935861110687255859e+00 1.517855167388916016e+00 -2.105355978012084961e+00
1.025000000000000000e+03 1.133191108703613281e+01 2.148911952972412109e+00 -1.360647082328796387e-01 2.134218454360961914e+00 5.994461178779602051e-01 -1.581690430641174316e+00
1.026000000000000000e+03 1.480096530914306641e+01 -8.037850260734558105e-01 -1.510280072689056396e-01 -5.086510181427001953e+00 -1.571261525154113770e+00 -2.048637866973876953e+00
1.027000000000000000e+03 1.456180858612060547e+01 -4.935499429702758789e-01 1.785858869552612305e+00 -2.963140487670898438e+00 -3.531844615936279297e-01 -1.185388207435607910e+00
1.028000000000000000e+03 1.512654018402099609e+01 -6.559445858001708984e-01 -2.083261013031005859e+00 -1.137967872619628906e+01 -4.038881778717041016e+00 -1.297255873680114746e+00
1.029000000000000000e+03 1.322064018249511719e+01 -1.776641011238098145e+00 -1.893186092376708984e+00 6.731066703796386719e+00 1.451364159584045410e+00 2.188542634248733521e-01
1.030000000000000000e+03 1.426849460601806641e+01 -1.392045259475708008e+00 4.974859058856964111e-01 9.513996839523315430e-01 4.346656799316406250e-01 -3.894577980041503906e+00
1.031000000000000000e+03 1.411009407043457031e+01 1.521704316139221191e+00 -5.320316553115844727e-01 2.979354381561279297e+00 7.341967821121215820e-01 3.237694501876831055e+00
1.032000000000000000e+03 1.432490062713623047e+01 2.643031835556030273e+00 -9.947916269302368164e-01 3.434273004531860352e-01 -1.954092979431152344e-01 1.925603866577148438e+00
1.033000000000000000e+03 1.048568534851074219e+01 2.192215442657470703e+00 -3.052113577723503113e-02 1.144647479057312012e+00 3.342379033565521240e-01 -1.091915965080261230e+00
1.034000000000000000e+03 1.072543334960937500e+01 1.910860061645507812e+00 1.932200640439987183e-01 1.243142008781433105e+00 4.309086203575134277e-01 -1.239421010017395020e+00
1.035000000000000000e+03 1.334335613250732422e+01 1.842246770858764648e+00 -1.861897945404052734e+00 5.637029647827148438e+00 1.132539510726928711e+00 8.490056991577148438e-01
1.036000000000000000e+03 1.242311000823974609e+01 7.473167419433593750e+00 -1.859813928604125977e-01 1.586462855339050293e+00 4.201444387435913086e-01 -4.044363498687744141e-01
1.037000000000000000e+03 1.030667209625244141e+01 -2.848386526107788086e+00 -3.030102550983428955e-01 1.459021329879760742e+00 3.468033373355865479e-01 1.299734115600585938e+00
1.038000000000000000e+03 9.456687927246093750e+00 3.144648075103759766e+00 -2.404347509145736694e-01 9.152204990386962891e-01 2.024357318878173828e-01 -5.879516601562500000e-01
1.039000000000000000e+03 1.316829967498779297e+01 7.794377803802490234e+00 -7.371404767036437988e-02 1.456986308097839355e+00 4.149816930294036865e-01 -4.308903813362121582e-01
1.040000000000000000e+03 3.538012742996215820e+00 2.922940015792846680e+00 -1.487808376550674438e-01 -5.299296602606773376e-02 -6.053214147686958313e-02 2.996034026145935059e-01
1.041000000000000000e+03 4.285519599914550781e+00 2.809086561203002930e+00 -2.088012397289276123e-01 1.754596643149852753e-02 -5.737658217549324036e-02 2.783660888671875000e-01
1.042000000000000000e+03 5.089073181152343750e+00 3.559443950653076172e+00 -2.203353792428970337e-01 1.390440911054611206e-01 -2.438738383352756500e-02 2.729955911636352539e-01
1.043000000000000000e+03 5.807003021240234375e+00 3.471497297286987305e+00 -2.087387740612030029e-01 1.967368274927139282e-01 -3.600582014769315720e-03 2.115245759487152100e-01
1.044000000000000000e+03 8.028012275695800781e+00 3.275164127349853516e+00 -2.415724247694015503e-01 5.360640287399291992e-01 8.834748715162277222e-02 -1.905789375305175781e-01
1.045000000000000000e+03 7.284298896789550781e+00 3.334861993789672852e+00 -2.110819667577743530e-01 3.893119096755981445e-01 5.346897989511489868e-02 -3.016372025012969971e-02
1.046000000000000000e+03 7.290791988372802734e+00 2.589683055877685547e+00 -2.722373008728027344e-01 2.665135860443115234e-01 -1.717114937491714954e-03 -7.384006399661302567e-03
1.047000000000000000e+03 1.010554122924804688e+01 3.052537918090820312e+00 -2.447138428688049316e-01 1.229491591453552246e+00 2.954333126544952393e-01 -8.465272188186645508e-01
1.048000000000000000e+03 8.021930694580078125e+00 4.026638507843017578e+00 -2.418843358755111694e-01 6.973180174827575684e-01 1.366301029920578003e-01 -1.949054598808288574e-01
1.049000000000000000e+03 2.283364295959472656e+00 -3.198679447174072266e+00 -1.257350295782089233e-01 -2.879083454608917236e-01 -1.240930110216140747e-01 -4.799285531044006348e-01
1.050000000000000000e+03 3.408298730850219727e+00 -6.253427505493164062e+00 -1.840254068374633789e-01 -1.370442509651184082e-01 -9.632089734077453613e-02 -7.489066123962402344e-01
1.051000000000000000e+03 6.601689815521240234e+00 -3.407011270523071289e+00 -3.819005787372589111e-01 4.859787821769714355e-01 3.122345730662345886e-02 -1.734311580657958984e-01
1.052000000000000000e+03 1.714498877525329590e+00 -4.679361343383789062e+00 -6.717372685670852661e-02 -6.220704317092895508e-01 -2.067732363939285278e-01 -4.900318086147308350e-01
1.053000000000000000e+03 8.897602081298828125e+00 -3.107630968093872070e+00 -3.457103967666625977e-01 9.411104917526245117e-01 1.786200255155563354e-01 6.214919090270996094e-01
1.054000000000000000e+03 8.010218620300292969e+00 -2.494978427886962891e+00 -4.309264421463012695e-01 4.908027350902557373e-01 1.796288974583148956e-02 2.267594337463378906e-01
1.055000000000000000e+03 5.034711360931396484e+00 -3.719780921936035156e+00 -3.132843375205993652e-01 2.419330328702926636e-01 -2.140539139509201050e-02 -4.801113009452819824e-01
1.056000000000000000e+03 7.368034839630126953e+00 -3.294631481170654297e+00 -3.901188671588897705e-01 6.413469910621643066e-01 7.536842674016952515e-02 6.612972170114517212e-02
1.057000000000000000e+03 5.827811717987060547e+00 -3.547332525253295898e+00 -3.550976216793060303e-01 3.984733819961547852e-01 1.301272772252559662e-02 -3.296565711498260498e-01
1.058000000000000000e+03 1.134234428405761719e+01 -6.510889053344726562e+00 8.754391223192214966e-03 1.932416558265686035e+00 5.823512673377990723e-01 9.502278566360473633e-01
1.059000000000000000e+03 4.070901274681091309e-01 3.574007987976074219e+00 3.425148082897067070e-03 -2.705506384372711182e-01 -8.013764768838882446e-02 6.241500377655029297e-02
1.060000000000000000e+03 2.121949386596679688e+01 8.148086547851562500e+00 1.191751003265380859e+00 1.053172969818115234e+01 3.517044067382812500e+00 -1.249985933303833008e+00
1.061000000000000000e+03 2.122060203552246094e+01 6.754887580871582031e+00 1.104189157485961914e+00 1.098304080963134766e+01 3.626169204711914062e+00 -1.136013627052307129e+00
1.062000000000000000e+03 2.181484031677246094e+01 1.128612613677978516e+01 1.179762005805969238e+00 9.324399948120117188e+00 3.151248693466186523e+00 -9.940811395645141602e-01
1.063000000000000000e+03 1.056093502044677734e+01 9.952827453613281250e+00 -1.018689647316932678e-01 1.935751795768737793e+00 5.501648783683776855e-01 -7.515041232109069824e-01
1.064000000000000000e+03 8.271429061889648438e+00 1.220242977142333984e+01 -3.488344550132751465e-01 2.984572649002075195e+00 7.907214760780334473e-01 -3.468243181705474854e-01
1.065000000000000000e+03 1.304402542114257812e+01 -4.368209362030029297e+00 -9.764739274978637695e-01 1.720630526542663574e+00 2.232469767332077026e-01 6.999787688255310059e-02
1.066000000000000000e+03 1.351445007324218750e+01 5.285497665405273438e+00 -5.169219374656677246e-01 1.466760039329528809e+00 2.849514484405517578e-01 7.224058359861373901e-02
1.067000000000000000e+03 1.060193252563476562e+01 -5.875238895416259766e+00 -2.437630444765090942e-01 2.071621179580688477e+00 5.483574271202087402e-01 8.087435960769653320e-01
1.068000000000000000e+03 8.804055213928222656e+00 1.325765609741210938e+01 3.698407113552093506e-01 3.700514554977416992e+00 1.221106529235839844e+00 -1.594415903091430664e+00
1.069000000000000000e+03 2.791091442108154297e+00 1.205086612701416016e+01 -1.065254881978034973e-01 -7.262156605720520020e-01 -2.498223334550857544e-01 1.066772699356079102e+00
1.070000000000000000e+03 2.801099300384521484e+00 2.010338020324707031e+01 2.420841008424758911e-01 -1.067103624343872070e+00 -2.475058436393737793e-01 -9.394825100898742676e-01
1.071000000000000000e+03 1.215780067443847656e+01 -2.840358018875122070e+00 -1.419369816780090332e+00 3.391345977783203125e+00 5.915928483009338379e-01 1.454047560691833496e+00
1.072000000000000000e+03 1.186413860321044922e+01 -2.579290390014648438e+00 -8.938569426536560059e-01 3.257247447967529297e+00 7.090171575546264648e-01 1.864422559738159180e+00
1.073000000000000000e+03 9.760162353515625000e+00 -6.815340518951416016e+00 -9.334065020084381104e-02 2.103247165679931641e+00 6.029719710350036621e-01 8.152143955230712891e-01
1.074000000000000000e+03 1.848835754394531250e+01 -1.271890068054199219e+01 8.084241151809692383e-01 7.625927925109863281e+00 2.530305624008178711e+00 2.043973207473754883e+00
1.075000000000000000e+03 6.316479206085205078e+00 1.735247611999511719e+01 3.013110637664794922e+00 3.380675315856933594e+00 1.918135762214660645e+00 -1.936781108379364014e-01
1.076000000000000000e+03 1.540335845947265625e+01 -1.757378959655761719e+01 5.522531270980834961e-01 4.806218624114990234e+00 1.607541561126708984e+00 1.686619520187377930e+00
1.077000000000000000e+03 1.624510192871093750e+01 -1.633809661865234375e+01 6.127483248710632324e-01 5.422446250915527344e+00 1.810558319091796875e+00 1.801815152168273926e+00
1.078000000000000000e+03 1.202572059631347656e+01 9.762124061584472656e+00 1.238024756312370300e-01 1.582576751708984375e+00 5.119137763977050781e-01 -7.415365576744079590e-01
1.079000000000000000e+03 2.011954689025878906e+01 -4.024876594543457031e+00 1.167248964309692383e+00 1.232681560516357422e+01 4.048219203948974609e+00 1.602455019950866699e+00
1.080000000000000000e+03 2.095776939392089844e+01 -3.281357765197753906e+00 1.066522598266601562e+00 1.169626331329345703e+01 3.828835725784301758e+00 9.074245691299438477e-01
1.081000000000000000e+03 7.800241088867187500e+01 -3.570913696289062500e+01 -6.416530348360538483e-03 8.105756759643554688e+00 2.429801940917968750e+00 -1.940066739916801453e-02
1.082000000000000000e+03 7.306591033935546875e+01 -3.757203674316406250e+01 -4.070574045181274414e-02 8.006061553955078125e+00 2.389606952667236328e+00 -5.325220152735710144e-02
1.083000000000000000e+03 7.507276153564453125e+01 -3.285666275024414062e+01 -2.522516250610351562e-02 8.006137847900390625e+00 2.394273757934570312e+00 -7.672172039747238159e-02
1.084000000000000000e+03 7.680757904052734375e+01 -3.575208663940429688e+01 -1.223128568381071091e-02 8.076180458068847656e+00 2.419184684753417969e+00 -3.547313436865806580e-02
1.085000000000000000e+03 7.543326568603515625e+01 -2.175201606750488281e+01 -1.988730626180768013e-03 7.808997154235839844e+00 2.342102527618408203e+00 -1.177693158388137817e-01
1.086000000000000000e+03 7.789490509033203125e+01 -2.903943634033203125e+01 -2.931736642494797707e-03 7.994310855865478516e+00 2.397413730621337891e+00 -4.902795329689979553e-02
1.087000000000000000e+03 7.519668579101562500e+01 1.546329307556152344e+01 8.876719512045383453e-03 7.603612422943115234e+00 2.283746719360351562e+00 9.500434249639511108e-02
1.088000000000000000e+03 7.659854888916015625e+01 1.543027019500732422e+01 6.298343650996685028e-03 7.586782932281494141e+00 2.277924299240112305e+00 7.083220034837722778e-02
1.089000000000000000e+03 7.757899475097656250e+01 3.567420196533203125e+01 -7.703131996095180511e-03 7.960950374603271484e+00 2.385974168777465820e+00 2.515980601310729980e-02
1.090000000000000000e+03 7.617381286621093750e+01 3.272847366333007812e+01 -1.235622540116310120e-02 7.899016857147216797e+00 2.365998268127441406e+00 5.938344076275825500e-02
1.091000000000000000e+03 7.801639556884765625e+01 -2.211271667480468750e+01 -5.878591400687582791e-05 7.830445289611816406e+00 2.349115848541259766e+00 -5.724013224244117737e-02
1.092000000000000000e+03 7.665816497802734375e+01 -2.333458328247070312e+01 -2.493283711373806000e-03 7.851055145263671875e+00 2.354568719863891602e+00 -8.892964571714401245e-02
1.093000000000000000e+03 7.642906188964843750e+01 -3.028047180175781250e+01 -9.211727418005466461e-03 7.989268779754638672e+00 2.394016981124877930e+00 -7.212551683187484741e-02
1.094000000000000000e+03 7.643331909179687500e+01 -2.888455390930175781e+01 -8.100668899714946747e-03 7.963803291320800781e+00 2.386710882186889648e+00 -7.818189263343811035e-02
1.095000000000000000e+03 7.795173645019531250e+01 -3.448111724853515625e+01 -5.236983764916658401e-03 8.091410636901855469e+00 2.425852060317993164e+00 -2.538380585610866547e-02
1.096000000000000000e+03 7.518186950683593750e+01 -2.448632812500000000e+01 -7.272578775882720947e-03 7.863741397857666016e+00 2.356940507888793945e+00 -1.177143901586532593e-01
1.097000000000000000e+03 7.645178985595703125e+01 -2.748357009887695312e+01 -6.254516076296567917e-03 7.936762809753417969e+00 2.379152536392211914e+00 -8.367537707090377808e-02
1.098000000000000000e+03 7.657837677001953125e+01 -2.472379112243652344e+01 -4.459770396351814270e-03 7.882205486297607422e+00 2.363323688507080078e+00 -8.753821998834609985e-02
1.099000000000000000e+03 7.649050903320312500e+01 -3.301794433593750000e+01 -1.562897674739360809e-02 8.034914016723632812e+00 2.405785560607910156e+00 -5.663971230387687683e-02
1.100000000000000000e+03 7.485847473144531250e+01 -3.021035957336425781e+01 -1.805124990642070770e-02 7.960302352905273438e+00 2.382675409317016602e+00 -9.804349392652511597e-02
1.101000000000000000e+03 7.647125244140625000e+01 -3.164677619934082031e+01 -1.257167849689722061e-02 8.011665344238281250e+00 2.399728059768676758e+00 -6.474684923887252808e-02
1.102000000000000000e+03 7.468640136718750000e+01 -4.009839248657226562e+01 -1.895781233906745911e-02 8.054209709167480469e+00 2.410575389862060547e+00 -2.952971868216991425e-02
1.103000000000000000e+03 7.788034820556640625e+01 2.236197662353515625e+01 1.316034351475536823e-03 7.720032691955566406e+00 2.316404581069946289e+00 5.252728611230850220e-02
1.104000000000000000e+03 7.660162353515625000e+01 1.954180717468261719e+01 5.390403093770146370e-04 7.664556980133056641e+00 2.299528837203979492e+00 7.905855774879455566e-02
1.105000000000000000e+03 7.513301086425781250e+01 2.223212432861328125e+01 -1.717914128676056862e-04 7.721501827239990234e+00 2.316399097442626953e+00 1.072180941700935364e-01
1.106000000000000000e+03 7.657312774658203125e+01 2.093091964721679688e+01 2.338245045393705368e-03 7.692193984985351562e+00 2.308359622955322266e+00 8.053487539291381836e-02
1.107000000000000000e+03 7.663533782958984375e+01 1.264865207672119141e+01 8.022703230381011963e-03 7.539577484130859375e+00 2.264280080795288086e+00 6.092563644051551819e-02
1.108000000000000000e+03 7.527151489257812500e+01 8.546098709106445312e+00 1.912682503461837769e-02 7.511950016021728516e+00 2.259322881698608398e+00 5.549981072545051575e-02
1.109000000000000000e+03 7.661997985839843750e+01 1.404164791107177734e+01 5.163320805877447128e-03 7.562503337860107422e+00 2.270299911499023438e+00 6.646521389484405518e-02
1.110000000000000000e+03 7.638652801513671875e+01 2.375883293151855469e+01 -9.958808077499270439e-04 7.749744415283203125e+00 2.324624538421630859e+00 8.179947733879089355e-02
1.111000000000000000e+03 7.779245758056640625e+01 2.670557975769042969e+01 -3.044259035959839821e-03 7.813771724700927734e+00 2.343218326568603516e+00 5.146605521440505981e-02
1.112000000000000000e+03 7.671495056152343750e+01 -2.195186042785644531e+01 -2.175373956561088562e-03 7.819382667541503906e+00 2.345162153244018555e+00 -8.944608271121978760e-02
1.113000000000000000e+03 7.807076263427734375e+01 3.042694664001464844e+01 -1.522038597613573074e-03 7.890436649322509766e+00 2.366674423217773438e+00 3.757438063621520996e-02
1.114000000000000000e+03 7.580353546142578125e+01 2.818690299987792969e+01 -8.610261604189872742e-03 7.825794219970703125e+00 2.345155239105224609e+00 8.405850082635879517e-02
1.115000000000000000e+03 7.675262451171875000e+01 -1.785394287109375000e+01 2.427141182124614716e-03 7.722166061401367188e+00 2.317378044128417969e+00 -8.859390765428543091e-02
1.116000000000000000e+03 7.674873352050781250e+01 -2.057319068908691406e+01 2.658058947417885065e-04 7.786674499511718750e+00 2.336081981658935547e+00 -8.947727829217910767e-02
1.117000000000000000e+03 7.527750396728515625e+01 -8.155293464660644531e+00 1.835530810058116913e-02 7.549044132232666016e+00 2.270219802856445312e+00 -8.012058585882186890e-02
1.118000000000000000e+03 7.801920318603515625e+01 -1.520359325408935547e+01 6.893685786053538322e-04 7.650370597839355469e+00 2.295317888259887695e+00 -5.441343784332275391e-02
1.119000000000000000e+03 7.525201416015625000e+01 -1.170506596565246582e+00 2.124962210655212402e-02 7.485044956207275391e+00 2.251888275146484375e+00 -2.379599213600158691e-02
1.120000000000000000e+03 7.798071289062500000e+01 -8.254130363464355469e+00 4.755822475999593735e-03 7.500597953796386719e+00 2.251606225967407227e+00 -3.895108401775360107e-02
1.121000000000000000e+03 7.800666809082031250e+01 5.686182975769042969e+00 5.198983475565910339e-03 7.425926208496093750e+00 2.229337453842163086e+00 1.591889187693595886e-02
1.122000000000000000e+03 7.663565063476562500e+01 2.988257646560668945e+00 1.078488398343324661e-02 7.449149131774902344e+00 2.237980127334594727e+00 9.094941429793834686e-03
1.123000000000000000e+03 7.599393463134765625e+01 3.667126464843750000e+01 -1.735232770442962646e-02 7.937638282775878906e+00 2.376085758209228516e+00 3.759874403476715088e-02
1.124000000000000000e+03 7.736749267578125000e+01 3.689237594604492188e+01 -9.754234924912452698e-03 7.972006320953369141e+00 2.388675689697265625e+00 2.230389229953289032e-02
1.125000000000000000e+03 7.800852203369140625e+01 7.066393852233886719e+00 3.379105590283870697e-03 7.437756538391113281e+00 2.232340812683105469e+00 2.148254401981830597e-02
1.126000000000000000e+03 7.665815734863281250e+01 5.748235225677490234e+00 1.020060759037733078e-02 7.460746288299560547e+00 2.241283893585205078e+00 2.603185921907424927e-02
1.127000000000000000e+03 7.798131561279296875e+01 -1.259243965148925781e+00 3.800549078732728958e-03 7.419447898864746094e+00 2.226974487304687500e+00 -1.154969073832035065e-02
1.128000000000000000e+03 7.663734436035156250e+01 -2.598719120025634766e+00 1.099969819188117981e-02 7.463035583496093750e+00 2.242210626602172852e+00 -2.703225985169410706e-02
1.129000000000000000e+03 7.663238525390625000e+01 -9.604746818542480469e+00 9.482171386480331421e-03 7.549985885620117188e+00 2.267840385437011719e+00 -6.760425865650177002e-02
1.130000000000000000e+03 7.673522186279296875e+01 -1.650152015686035156e+01 1.901590498164296150e-03 7.691065311431884766e+00 2.307890176773071289e+00 -8.708681911230087280e-02
1.131000000000000000e+03 7.601047515869140625e+01 3.538977050781250000e+01 -1.985655911266803741e-02 7.927566051483154297e+00 2.372312784194946289e+00 4.722214490175247192e-02
1.132000000000000000e+03 7.437303161621093750e+01 3.521332168579101562e+01 -3.056184016168117523e-02 7.904685974121093750e+00 2.362237215042114258e+00 6.134534999728202820e-02
1.133000000000000000e+03 7.659226226806640625e+01 1.817331504821777344e+01 4.396419972181320190e-03 7.637203693389892578e+00 2.292479991912841797e+00 7.716836780309677124e-02
1.134000000000000000e+03 7.665328979492187500e+01 9.875277519226074219e+00 9.702253155410289764e-03 7.500491142272949219e+00 2.253057956695556641e+00 4.862505942583084106e-02
1.135000000000000000e+03 7.799003601074218750e+01 1.531372904777526855e+00 3.748693503439426422e-03 7.411456108093261719e+00 2.224561452865600586e+00 -6.126150401541963220e-05
1.136000000000000000e+03 7.663329315185546875e+01 -8.202980995178222656e+00 8.381625637412071228e-03 7.527513027191162109e+00 2.260768413543701172e+00 -6.067254021763801575e-02
1.137000000000000000e+03 7.670796203613281250e+01 -1.514351367950439453e+01 4.731634166091680527e-03 7.660163879394531250e+00 2.299468755722045898e+00 -8.540204912424087524e-02
1.138000000000000000e+03 7.664405822753906250e+01 4.372504711151123047e+00 1.218633633106946945e-02 7.453380107879638672e+00 2.239670038223266602e+00 1.707354374229907990e-02
1.139000000000000000e+03 7.531562805175781250e+01 -3.981356143951416016e+00 2.057887054979801178e-02 7.501965999603271484e+00 2.256763458251953125e+00 -4.771201685070991516e-02
1.140000000000000000e+03 7.663716125488281250e+01 -6.808961391448974609e+00 1.122409943491220474e-02 7.506721973419189453e+00 2.255383729934692383e+00 -5.347947776317596436e-02
1.141000000000000000e+03 7.664083862304687500e+01 -4.006686687469482422e+00 1.274806167930364609e-02 7.474312782287597656e+00 2.246118307113647461e+00 -3.676061332225799561e-02
1.142000000000000000e+03 7.665283966064453125e+01 -1.239909839630126953e+01 7.123571820557117462e-03 7.602359771728515625e+00 2.282845020294189453e+00 -7.877626270055770874e-02
1.143000000000000000e+03 7.663748931884765625e+01 -1.100621032714843750e+01 6.712326779961585999e-03 7.575433254241943359e+00 2.274643659591674805e+00 -7.373300939798355103e-02
1.144000000000000000e+03 7.675962066650390625e+01 -1.920637130737304688e+01 -1.754474069457501173e-04 7.754485130310058594e+00 2.326292991638183594e+00 -8.915758877992630005e-02
1.145000000000000000e+03 7.549349975585937500e+01 -1.907344627380371094e+01 1.742578460834920406e-03 7.751567840576171875e+00 2.325993061065673828e+00 -1.176939085125923157e-01
1.146000000000000000e+03 2.108833885192871094e+01 -1.119851016998291016e+01 8.133277893066406250e-01 8.879167556762695312e+00 2.907748699188232422e+00 1.029257416725158691e+00
1.147000000000000000e+03 1.957921409606933594e+01 -8.548790931701660156e+00 1.335542440414428711e+00 1.075480461120605469e+01 3.627104043960571289e+00 1.972907304763793945e+00
1.148000000000000000e+03 8.105142593383789062e+00 -1.059284019470214844e+01 5.383753180503845215e-01 3.656475067138671875e+00 1.258455157279968262e+00 1.353941559791564941e+00
1.149000000000000000e+03 6.571274757385253906e+00 1.305138969421386719e+01 -2.810039222240447998e-01 3.176884412765502930e+00 8.687641620635986328e-01 2.426941096782684326e-01
1.150000000000000000e+03 2.849094629287719727e+00 -1.084621238708496094e+01 -9.111263602972030640e-02 -6.778723597526550293e-01 -2.306955009698867798e-01 -9.663485288619995117e-01
1.151000000000000000e+03 4.743855476379394531e+00 3.628519821166992188e+01 -1.367547661066055298e-01 1.599061250686645508e+00 4.386919438838958740e-01 -2.524902224540710449e-01
1.152000000000000000e+03 2.199795246124267578e+00 2.726610565185546875e+01 -1.039455160498619080e-01 -1.565473377704620361e-01 -7.814785838127136230e-02 -5.782181620597839355e-01
1.153000000000000000e+03 3.641328573226928711e+00 2.997936439514160156e+01 -1.495241820812225342e-01 8.562756776809692383e-01 2.120254486799240112e-01 -5.903361439704895020e-01
1.154000000000000000e+03 2.179209232330322266e+00 2.579698753356933594e+01 -1.062306016683578491e-01 -4.305553138256072998e-01 -1.610357761383056641e-01 -6.728524565696716309e-01
1.155000000000000000e+03 3.647618293762207031e+00 2.702886581420898438e+01 -1.899668276309967041e-01 6.172134876251220703e-01 1.281739920377731323e-01 -7.686033248901367188e-01
1.156000000000000000e+03 6.456173419952392578e+00 2.994060897827148438e+01 -3.111528158187866211e-01 2.022362709045410156e+00 5.133629441261291504e-01 -6.655194759368896484e-01
1.157000000000000000e+03 3.685933589935302734e+00 3.144280433654785156e+01 -1.456378102302551270e-01 1.027594685554504395e+00 2.645870447158813477e-01 -5.122972726821899414e-01
1.158000000000000000e+03 3.530231952667236328e+00 2.397762107849121094e+01 -1.928558051586151123e-01 3.856869041919708252e-01 5.784932896494865417e-02 -9.928495883941650391e-01
1.159000000000000000e+03 3.651167631149291992e+00 2.851551628112792969e+01 -1.875821948051452637e-01 7.246119379997253418e-01 1.611089259386062622e-01 -6.791297793388366699e-01
1.160000000000000000e+03 2.013818502426147461e+00 3.711354064941406250e+01 -4.181679710745811462e-02 9.843903779983520508e-01 2.827720940113067627e-01 -1.547033488750457764e-01
1.161000000000000000e+03 3.829347372055053711e+00 3.448726272583007812e+01 -9.138305485248565674e-02 1.324039220809936523e+00 3.697968423366546631e-01 -3.416768014430999756e-01
1.162000000000000000e+03 3.893334627151489258e+00 3.295664596557617188e+01 -1.293283104896545410e-01 1.231958031654357910e+00 3.307889401912689209e-01 -4.245056807994842529e-01
1.163000000000000000e+03 3.219442129135131836e+00 -3.599761962890625000e+01 -3.864779323339462280e-02 1.431232810020446777e+00 4.177755117416381836e-01 2.308702319860458374e-01
1.164000000000000000e+03 4.065742015838623047e+00 -3.480742263793945312e+01 -7.758554071187973022e-02 1.686671614646911621e+00 4.827258288860321045e-01 2.681085467338562012e-01
1.165000000000000000e+03 2.456444501876831055e+00 -3.063725852966308594e+01 -6.747851520776748657e-02 9.174717068672180176e-01 2.549979686737060547e-01 3.520341813564300537e-01
1.166000000000000000e+03 3.837508916854858398e+00 -2.911512756347656250e+01 -1.566870212554931641e-01 1.231712937355041504e+00 3.225077688694000244e-01 5.620505213737487793e-01
1.167000000000000000e+03 5.162546634674072266e+00 -2.765170860290527344e+01 -2.718468606472015381e-01 1.676186084747314453e+00 4.213017523288726807e-01 7.425116300582885742e-01
1.168000000000000000e+03 3.670428991317749023e+00 -1.664138984680175781e+01 9.812633991241455078e-01 3.976210057735443115e-01 4.136653244495391846e-01 5.798196196556091309e-01
1.169000000000000000e+03 4.723760128021240234e+00 -1.070742702484130859e+01 -3.238751366734504700e-02 1.506020426750183105e+00 4.420898854732513428e-01 -8.356347680091857910e-01
1.170000000000000000e+03 1.648901462554931641e+00 -1.366216754913330078e+01 2.783733308315277100e-01 -2.850846529006958008e+00 -7.717419862747192383e-01 -4.877617061138153076e-01
1.171000000000000000e+03 3.407144784927368164e+00 2.242677688598632812e+01 -1.267487853765487671e-01 1.155855059623718262e-01 -3.348981728777289391e-03 -1.174395799636840820e+00
1.172000000000000000e+03 1.719503402709960938e+00 2.029128456115722656e+01 1.992898732423782349e-01 -2.377317190170288086e+00 -6.534081697463989258e-01 -6.841315031051635742e-01
1.173000000000000000e+03 4.606093883514404297e+00 1.232991695404052734e+01 -1.777516156435012817e-01 1.044068694114685059e+00 2.598951160907745361e-01 1.031177759170532227e+00
1.174000000000000000e+03 5.479866981506347656e+00 -1.929784774780273438e+01 4.379952847957611084e-01 3.329274892807006836e+00 1.130181074142456055e+00 7.894018888473510742e-01
1.175000000000000000e+03 1.776199221611022949e+00 -8.090059280395507812e+00 -2.533459290862083435e-02 -1.326638936996459961e+00 -4.055920541286468506e-01 -6.882973313331604004e-01
1.176000000000000000e+03 4.194991111755371094e+00 -7.538772583007812500e+00 -2.120594084262847900e-01 3.918931484222412109e-01 5.395012348890304565e-02 -7.895478010177612305e-01
1.177000000000000000e+03 2.529553174972534180e+00 7.686282634735107422e+00 -1.346769630908966064e-01 -4.753875732421875000e-01 -1.830193549394607544e-01 5.164615511894226074e-01
1.178000000000000000e+03 1.506723761558532715e+00 6.298332691192626953e+00 -4.051155224442481995e-02 -6.065633296966552734e-01 -1.941224634647369385e-01 3.046922087669372559e-01
1.179000000000000000e+03 1.666692495346069336e+00 1.488807296752929688e+01 2.483678311109542847e-01 -2.723567485809326172e+00 -7.425599098205566406e-01 5.129857063293457031e-01
1.180000000000000000e+03 6.180933952331542969e+00 1.595668220520019531e+01 2.113761663436889648e+00 4.249874114990234375e+00 1.909090757369995117e+00 1.135896444320678711e+00
1.181000000000000000e+03 2.624957323074340820e+00 9.057456016540527344e+00 -1.612452715635299683e-01 -5.774106979370117188e-01 -2.215967923402786255e-01 7.149169445037841797e-01
1.182000000000000000e+03 3.099381923675537109e+00 -7.218646049499511719e+00 -1.091925203800201416e-01 -2.772629559040069580e-01 -1.159366443753242493e-01 -8.403254747390747070e-01
1.183000000000000000e+03 2.444924354553222656e+00 -5.659002304077148438e+00 -7.860415428876876831e-02 -4.881162047386169434e-01 -1.700161099433898926e-01 -6.428582668304443359e-01
1.184000000000000000e+03 1.745612978935241699e+00 -1.082364368438720703e+01 4.189453274011611938e-02 -1.970012068748474121e+00 -5.784352421760559082e-01 -7.787267565727233887e-01
1.185000000000000000e+03 3.373990774154663086e+00 -2.174795150756835938e+01 -1.456855982542037964e-01 4.774875044822692871e-01 9.954057633876800537e-02 1.125816345214843750e+00
1.186000000000000000e+03 2.141649246215820312e+00 -2.331862258911132812e+01 -1.112952455878257751e-01 -4.639348685741424561e-01 -1.725690364837646484e-01 8.045920729637145996e-01
1.187000000000000000e+03 2.010309696197509766e+00 -3.527637863159179688e+01 -2.563397213816642761e-02 1.281955957412719727e+00 3.768965899944305420e-01 1.723839044570922852e-01
1.188000000000000000e+03 3.055246114730834961e+00 2.116992568969726562e+01 2.096320092678070068e-01 -4.994448721408843994e-01 -8.694385737180709839e-02 -1.126399636268615723e+00
1.189000000000000000e+03 2.922423839569091797e+00 -8.325775146484375000e+00 -1.681063175201416016e-01 -4.859478473663330078e-01 -1.962162554264068604e-01 -8.720159530639648438e-01
1.190000000000000000e+03 3.697854995727539062e+00 -2.617012023925781250e+01 -2.286024242639541626e-01 9.451535344123840332e-01 2.149653434753417969e-01 7.731946110725402832e-01
1.191000000000000000e+03 3.131236076354980469e+00 -2.038547515869140625e+01 -1.174796968698501587e-01 1.079793944954872131e-01 -2.850089455023407936e-03 1.206520557403564453e+00
1.192000000000000000e+03 2.483653068542480469e+00 -1.437900352478027344e+01 5.099151134490966797e-01 -1.489544749259948730e+00 -2.938888967037200928e-01 -3.159320652484893799e-01
1.193000000000000000e+03 3.023604154586791992e+00 -1.229740428924560547e+01 3.482366502285003662e-01 -4.684528410434722900e-01 -3.606485947966575623e-02 -9.034547805786132812e-01
1.194000000000000000e+03 2.765239715576171875e+00 1.052959251403808594e+01 -1.904419362545013428e-01 -5.512743592262268066e-01 -2.225148826837539673e-01 8.211247324943542480e-01
1.195000000000000000e+03 9.094768524169921875e+00 9.918649673461914062e+00 -3.709195256233215332e-01 2.174934625625610352e+00 5.412045121192932129e-01 -5.431563854217529297e-01
1.196000000000000000e+03 4.734078407287597656e+00 1.348803234100341797e+01 5.281466245651245117e-02 1.537217259407043457e+00 4.770095646381378174e-01 9.828230738639831543e-01
1.197000000000000000e+03 2.735323190689086914e+00 1.349836540222167969e+01 1.896278411149978638e-01 -1.048896312713623047e+00 -2.577805519104003906e-01 9.373097419738769531e-01
1.198000000000000000e+03 3.825741767883300781e+00 1.484136390686035156e+01 7.556788325309753418e-01 8.990103006362915039e-02 2.536739706993103027e-01 8.285837769508361816e-01
1.199000000000000000e+03 3.962604999542236328e+00 1.750436592102050781e+01 1.257800340652465820e+00 1.268783807754516602e-01 4.154036045074462891e-01 -1.805659532546997070e-01
1.200000000000000000e+03 8.102920532226562500e+00 -8.799879074096679688e+00 6.849800050258636475e-02 2.680190563201904297e+00 8.246065378189086914e-01 6.713833212852478027e-01
1.201000000000000000e+03 7.370758056640625000e+00 -9.735089302062988281e+00 5.206284672021865845e-02 3.287429094314575195e+00 1.001847505569458008e+00 4.628317654132843018e-01
1.202000000000000000e+03 1.917067527770996094e+01 1.458583259582519531e+01 9.684085249900817871e-01 8.117648124694824219e+00 2.725816965103149414e+00 -1.617980003356933594e+00
1.203000000000000000e+03 1.728721046447753906e+01 1.696016120910644531e+01 8.503861427307128906e-01 6.568696975708007812e+00 2.225724935531616211e+00 -1.850655794143676758e+00
1.204000000000000000e+03 1.699358558654785156e+01 1.493671321868896484e+01 1.524846553802490234e+00 7.117179870605468750e+00 2.592607975006103516e+00 -2.521289110183715820e+00
1.205000000000000000e+03 1.619937515258789062e+01 1.803274917602539062e+01 8.490854501724243164e-01 5.671287059783935547e+00 1.956111788749694824e+00 -1.829757213592529297e+00
1.206000000000000000e+03 2.156499290466308594e+01 4.114569187164306641e+00 9.647678136825561523e-01 1.133792400360107422e+01 3.690807580947875977e+00 -6.729222536087036133e-01
1.207000000000000000e+03 1.452646636962890625e+01 -1.882440948486328125e+01 6.406533122062683105e-01 4.225158691406250000e+00 1.459743499755859375e+00 1.480165004730224609e+00
1.208000000000000000e+03 1.977051925659179688e+01 1.322561359405517578e+01 1.145549535751342773e+00 8.782995223999023438e+00 2.978563308715820312e+00 -1.549217820167541504e+00
1.209000000000000000e+03 1.777341079711914062e+01 -1.390348911285400391e+01 7.878952026367187500e-01 6.759416103363037109e+00 2.264193534851074219e+00 2.022715806961059570e+00
1.210000000000000000e+03 2.001384162902832031e+01 -1.045196819305419922e+01 8.781479597091674805e-01 9.327464103698730469e+00 3.061683654785156250e+00 1.591768741607666016e+00
1.211000000000000000e+03 1.695248413085937500e+01 -1.842905998229980469e+01 2.567272782325744629e-01 5.541049957275390625e+00 1.739333152770996094e+00 1.397685766220092773e+00
1.212000000000000000e+03 2.063392448425292969e+01 -4.722001552581787109e+00 1.553347229957580566e+00 1.179233360290527344e+01 4.003704547882080078e+00 1.326383471488952637e+00
1.213000000000000000e+03 2.159485816955566406e+01 -4.029074668884277344e+00 1.319891929626464844e+00 1.130565071105957031e+01 3.787662744522094727e+00 1.092718482017517090e+00
1.214000000000000000e+03 2.129878425598144531e+01 9.697956085205078125e+00 1.259815931320190430e+00 9.943381309509277344e+00 3.360959291458129883e+00 -1.209762692451477051e+00
1.215000000000000000e+03 1.827797698974609375e+01 1.583130550384521484e+01 9.765744805335998535e-01 7.372931003570556641e+00 2.504851818084716797e+00 -1.722738623619079590e+00
1.216000000000000000e+03 5.639486312866210938e+00 -1.286899757385253906e+01 7.042579650878906250e-01 3.390825748443603516e+00 1.228525161743164062e+00 -3.393595516681671143e-01
1.217000000000000000e+03 2.044907188415527344e+01 8.461101651191711426e-01 3.031273484230041504e-01 1.215993785858154297e+01 3.738919496536254883e+00 -1.486295163631439209e-01
1.218000000000000000e+03 2.187632179260253906e+01 2.805809974670410156e+00 8.179097771644592285e-01 1.129857826232910156e+01 3.634946346282958984e+00 -4.794651567935943604e-01
1.219000000000000000e+03 1.300376224517822266e+01 2.120246124267578125e+01 9.559707045555114746e-01 3.538383960723876953e+00 1.348306417465209961e+00 -1.002526640892028809e+00
1.220000000000000000e+03 1.155624675750732422e+01 2.015711212158203125e+01 1.923089981079101562e+00 2.046687841415405273e+00 1.190933346748352051e+00 -5.914160013198852539e-01
1.221000000000000000e+03 5.755032539367675781e+00 -8.268224716186523438e+00 -1.672977060079574585e-01 1.592827081680297852e+00 4.276588261127471924e-01 -4.318082630634307861e-01
1.222000000000000000e+03 5.130591392517089844e+00 -3.980791854858398438e+01 -1.471642702817916870e-01 1.999939680099487305e+00 5.558326244354248047e-01 6.985491514205932617e-02
1.223000000000000000e+03 9.274115562438964844e+00 -3.729344177246093750e+01 -3.550180792808532715e-01 3.035396814346313477e+00 8.041136264801025391e-01 2.835257649421691895e-01
1.224000000000000000e+03 5.770201683044433594e+00 -1.700338554382324219e+01 1.684505105018615723e+00 4.398550033569335938e+00 1.824916601181030273e+00 9.920483231544494629e-01
1.225000000000000000e+03 5.200214862823486328e+00 -1.462274742126464844e+01 1.384173631668090820e+00 3.610698699951171875e+00 1.498461723327636719e+00 -4.727586805820465088e-01
1.226000000000000000e+03 1.088820743560791016e+01 -2.208000659942626953e+00 -1.785161718726158142e-02 1.560893774032592773e+00 4.629126489162445068e-01 1.735669255256652832e+00
1.227000000000000000e+03 9.633052825927734375e+00 -2.983832120895385742e+00 -3.003484904766082764e-01 1.079429030418395996e+00 2.337241619825363159e-01 9.322242140769958496e-01
1.228000000000000000e+03 1.111311817169189453e+01 1.785123348236083984e+00 3.254282176494598389e-01 1.547031521797180176e+00 5.617379546165466309e-01 -1.541732430458068848e+00
1.229000000000000000e+03 1.188753128051757812e+01 -2.023332595825195312e+00 -2.767620086669921875e-01 3.312707185745239258e+00 9.107835292816162109e-01 2.432009696960449219e+00
1.230000000000000000e+03 1.121811389923095703e+01 -2.150865554809570312e+00 -4.027584195137023926e-02 1.931508541107177734e+00 5.673698186874389648e-01 1.947665572166442871e+00
1.231000000000000000e+03 1.231999874114990234e+01 -2.267305850982666016e+00 -1.141015648841857910e+00 4.362877845764160156e+00 9.665586352348327637e-01 1.896510124206542969e+00
1.232000000000000000e+03 1.217083358764648438e+01 1.981324672698974609e+00 -7.657400369644165039e-01 3.894318103790283203e+00 9.385734200477600098e-01 -1.757161378860473633e+00
1.233000000000000000e+03 1.203293895721435547e+01 2.270277738571166992e+00 -8.380902409553527832e-01 3.532894849777221680e+00 8.084414005279541016e-01 -1.454240679740905762e+00
1.234000000000000000e+03 1.070131015777587891e+01 3.024431467056274414e+00 -4.254690706729888916e-01 1.642554879188537598e+00 3.651257455348968506e-01 -9.907823801040649414e-01
1.235000000000000000e+03 1.379990673065185547e+01 -3.409767389297485352e+00 -1.527592778205871582e+00 1.214079976081848145e+00 -9.405384212732315063e-02 -9.390021562576293945e-01
1.236000000000000000e+03 1.243998718261718750e+01 2.116965293884277344e+00 -1.190234899520874023e+00 4.509377956390380859e+00 9.957429170608520508e-01 -1.217657446861267090e+00
1.237000000000000000e+03 1.338664436340332031e+01 -2.199735164642333984e+00 -2.033241510391235352e+00 4.804356098175048828e+00 8.313343524932861328e-01 -6.026954650878906250e-01
1.238000000000000000e+03 4.611243724822998047e+00 5.382796764373779297e+00 -1.895822435617446899e-01 1.922549009323120117e-01 8.017989457584917545e-04 4.246353507041931152e-01
1.239000000000000000e+03 8.759907722473144531e+00 3.214464902877807617e+00 -1.952419877052307129e-01 6.936473846435546875e-01 1.495216190814971924e-01 -3.997007310390472412e-01
1.240000000000000000e+03 7.297253608703613281e+00 4.104455471038818359e+00 -2.789156436920166016e-01 5.714186429977416992e-01 8.775089681148529053e-02 -2.601654268801212311e-02
1.241000000000000000e+03 6.542874813079833984e+00 3.398157119750976562e+00 -2.556656897068023682e-01 3.114981353282928467e-01 1.674973219633102417e-02 1.053364947438240051e-01
1.242000000000000000e+03 5.265381336212158203e+00 5.321058750152587891e+00 -2.543340921401977539e-01 3.399049639701843262e-01 2.567126043140888214e-02 3.270184993743896484e-01
1.243000000000000000e+03 1.384327411651611328e+00 4.838305473327636719e+00 -2.289688773453235626e-02 -4.184710979461669922e-01 -1.324103921651840210e-01 2.466601580381393433e-01
1.244000000000000000e+03 8.756234169006347656e+00 3.952367782592773438e+00 -3.133967816829681396e-01 8.994621634483337402e-01 1.758196055889129639e-01 -3.542255163192749023e-01
1.245000000000000000e+03 3.342600107192993164e+00 -4.028258323669433594e+00 -1.793168485164642334e-01 -9.010212868452072144e-02 -8.082569390535354614e-02 -5.920288562774658203e-01
1.246000000000000000e+03 8.399795532226562500e+00 -4.659706115722656250e+00 -3.633926510810852051e-01 1.328378081321716309e+00 2.894956171512603760e-01 4.157297313213348389e-01
1.247000000000000000e+03 7.306514739990234375e+00 -5.724757671356201172e+00 -3.436880707740783691e-01 1.454522609710693359e+00 3.332503437995910645e-01 6.072165817022323608e-02
1.248000000000000000e+03 5.354014873504638672e+00 -4.562178611755371094e+00 -2.774065136909484863e-01 4.627579450607299805e-01 5.560542643070220947e-02 -4.587258994579315186e-01
1.249000000000000000e+03 6.815882682800292969e+00 -4.167038917541503906e+00 -3.551210761070251465e-01 7.882030606269836426e-01 1.299245953559875488e-01 -9.395629167556762695e-02
1.250000000000000000e+03 1.046323871612548828e+01 -3.540556430816650391e+00 -5.230484008789062500e-01 1.726878643035888672e+00 3.611490726470947266e-01 1.170659780502319336e+00
1.251000000000000000e+03 8.031212806701660156e+00 4.809131145477294922e+00 -3.444683253765106201e-01 8.726027011871337891e-01 1.584403216838836670e-01 -1.328671127557754517e-01
1.252000000000000000e+03 9.167362213134765625e+00 -5.328842639923095703e+00 -4.047301709651947021e-01 1.702211737632751465e+00 3.892444968223571777e-01 5.939698219299316406e-01
1.253000000000000000e+03 9.142896652221679688e+00 -4.586295604705810547e+00 -3.830900192260742188e-01 1.541119337081909180e+00 3.474088013172149658e-01 6.777474284172058105e-01
1.254000000000000000e+03 7.426659584045410156e+00 1.269305896759033203e+01 2.022352814674377441e-02 2.950252532958984375e+00 8.911428451538085938e-01 -2.384093105792999268e-01
1.255000000000000000e+03 3.750063419342041016e+00 1.352869319915771484e+01 2.052479684352874756e-01 1.799798458814620972e-01 1.155683472752571106e-01 1.226734161376953125e+00
1.256000000000000000e+03 1.229617118835449219e+01 4.071461677551269531e+00 -9.385726451873779297e-01 2.244580030441284180e+00 3.918022215366363525e-01 -2.619440257549285889e-01
1.257000000000000000e+03 1.241329956054687500e+01 3.202660083770751953e+00 -1.417537689208984375e+00 2.998294115066528320e+00 4.742268919944763184e-01 -3.211503922939300537e-01
1.258000000000000000e+03 1.126691055297851562e+01 9.112289428710937500e+00 -4.975026100873947144e-02 1.682500123977661133e+00 4.898249506950378418e-01 -6.456381082534790039e-01
1.259000000000000000e+03 1.278003692626953125e+01 6.753002643585205078e+00 -2.935845851898193359e-01 1.556507468223571777e+00 3.788768649101257324e-01 -3.138537406921386719e-01
1.260000000000000000e+03 7.393737316131591797e+00 6.951827526092529297e+00 -3.696480691432952881e-01 1.116429805755615234e+00 2.240345180034637451e-01 3.528937697410583496e-02
1.261000000000000000e+03 1.150349426269531250e+01 -2.942987918853759766e+00 -8.384462594985961914e-01 2.599101543426513672e+00 5.281965732574462891e-01 1.660399913787841797e+00
1.262000000000000000e+03 8.445022583007812500e+00 1.067827701568603516e+01 -3.278392255306243896e-01 2.219481945037841797e+00 5.674928426742553711e-01 -2.749638855457305908e-01
1.263000000000000000e+03 8.272225379943847656e+00 -3.928236722946166992e+00 -3.637647926807403564e-01 1.074955582618713379e+00 2.133572548627853394e-01 3.879548311233520508e-01
1.264000000000000000e+03 1.270313072204589844e+01 -2.125937652587890625e+01 5.676352977752685547e-01 3.548663854598999023e+00 1.234889745712280273e+00 8.397865891456604004e-01
1.265000000000000000e+03 1.124690151214599609e+01 -2.021134948730468750e+01 1.009612321853637695e+00 2.852071285247802734e+00 1.158505082130432129e+00 6.990641355514526367e-01
1.266000000000000000e+03 3.109542369842529297e+00 -1.906786346435546875e+01 2.748181223869323730e-01 -2.166370004415512085e-01 1.745433732867240906e-02 1.187533140182495117e+00
1.267000000000000000e+03 7.147532463073730469e+00 -6.467721939086914062e+00 -2.814649939537048340e-01 1.623350620269775391e+00 4.025656878948211670e-01 1.225159969180822372e-03
1.268000000000000000e+03 8.878447532653808594e+00 -7.772171020507812500e+00 4.686329513788223267e-02 2.461567640304565430e+00 7.525292634963989258e-01 6.970634460449218750e-01
1.269000000000000000e+03 6.326771736145019531e+00 1.884883499145507812e+01 1.503373265266418457e+00 4.219700336456298828e+00 1.716922044754028320e+00 -1.192537307739257812e+00
1.270000000000000000e+03 2.826308727264404297e+00 1.755087471008300781e+01 5.828721523284912109e-01 -1.263019323348999023e+00 -2.040441483259201050e-01 -1.729192435741424561e-01
1.271000000000000000e+03 7.523664855957031250e+01 1.407648468017578125e+01 1.259219367057085037e-02 7.581373691558837891e+00 2.278189897537231445e+00 8.806781470775604248e-02
1.272000000000000000e+03 7.523040008544921875e+01 2.345443218946456909e-01 2.351806685328483582e-02 7.480536460876464844e+00 2.251216411590576172e+00 -1.268532779067754745e-02
1.273000000000000000e+03 7.380384826660156250e+01 -1.220655083656311035e+00 3.731935471296310425e-02 7.510732173919677734e+00 2.264415502548217773e+00 -3.116292320191860199e-02
1.274000000000000000e+03 7.399575042724609375e+01 -5.356971740722656250e+00 3.059500642120838165e-02 7.537400245666503906e+00 2.270398616790771484e+00 -7.272354513406753540e-02
1.275000000000000000e+03 7.664105224609375000e+01 -5.413826465606689453e+00 1.007871329784393311e-02 7.489524364471435547e+00 2.249880790710449219e+00 -4.503103718161582947e-02
1.276000000000000000e+03 7.528674316406250000e+01 -2.572343826293945312e+00 2.320436201989650726e-02 7.491528034210205078e+00 2.254419565200805664e+00 -3.639144450426101685e-02
1.277000000000000000e+03 7.663587951660156250e+01 1.598396301269531250e+00 1.268964074552059174e-02 7.447665214538574219e+00 2.238106489181518555e+00 -5.023913690820336342e-04
1.278000000000000000e+03 7.521681976318359375e+01 1.641196250915527344e+00 2.169510535895824432e-02 7.479328632354736328e+00 2.250307083129882812e+00 5.224678316153585911e-04
1.279000000000000000e+03 7.525867462158203125e+01 7.179390430450439453e+00 1.940542273223400116e-02 7.500082015991210938e+00 2.255846261978149414e+00 4.605887085199356079e-02
1.280000000000000000e+03 7.283327484130859375e+01 3.453516769409179688e+01 -4.113203659653663635e-02 7.881650447845458984e+00 2.352155447006225586e+00 8.348080515861511230e-02
1.281000000000000000e+03 7.639692687988281250e+01 3.139012145996093750e+01 -7.863899692893028259e-03 7.882498741149902344e+00 2.362390518188476562e+00 6.348888576030731201e-02
1.282000000000000000e+03 7.521640777587890625e+01 4.438066005706787109e+00 2.095961943268775940e-02 7.484950542449951172e+00 2.251773118972778320e+00 2.425359375774860382e-02
1.283000000000000000e+03 7.524131011962890625e+01 5.815412998199462891e+00 2.163698151707649231e-02 7.490901947021484375e+00 2.253761529922485352e+00 3.452622890472412109e-02
1.284000000000000000e+03 7.366439819335937500e+01 3.086563110351562500e+00 3.665610775351524353e-02 7.508802890777587891e+00 2.263637781143188477e+00 1.612963899970054626e-02
1.285000000000000000e+03 7.425153350830078125e+01 -1.897929000854492188e+01 1.338227652013301849e-03 7.749811649322509766e+00 2.325345039367675781e+00 -1.440309733152389526e-01
1.286000000000000000e+03 7.391796112060546875e+01 -9.519076347351074219e+00 2.701179496943950653e-02 7.585938930511474609e+00 2.283885240554809570e+00 -1.096402853727340698e-01
1.287000000000000000e+03 7.667808532714843750e+01 -1.377750205993652344e+01 4.259774927049875259e-03 7.630754470825195312e+00 2.290504217147827148e+00 -8.237472176551818848e-02
1.288000000000000000e+03 7.533045196533203125e+01 -1.376134109497070312e+01 1.010471303015947342e-02 7.643148899078369141e+00 2.295976161956787109e+00 -1.099191084504127502e-01
1.289000000000000000e+03 7.666163635253906250e+01 8.493358612060546875e+00 9.129847399890422821e-03 7.484191417694091797e+00 2.247996330261230469e+00 4.178364574909210205e-02
1.290000000000000000e+03 7.526937866210937500e+01 9.924402236938476562e+00 1.602529548108577728e-02 7.526078224182128906e+00 2.262631177902221680e+00 6.546175479888916016e-02
1.291000000000000000e+03 7.548816680908203125e+01 -2.040682792663574219e+01 -1.356804161332547665e-03 7.780980110168457031e+00 2.333887100219726562e+00 -1.177795380353927612e-01
1.292000000000000000e+03 7.542434692382812500e+01 -1.644661903381347656e+01 6.167253945022821426e-03 7.695981502532958984e+00 2.310644626617431641e+00 -1.158622428774833679e-01
1.293000000000000000e+03 7.527667236328125000e+01 -1.097796630859375000e+01 1.507820747792720795e-02 7.592979907989501953e+00 2.282417297363281250e+00 -9.805681556463241577e-02
1.294000000000000000e+03 7.529352569580078125e+01 -1.238140201568603516e+01 1.107042934745550156e-02 7.617660045623779297e+00 2.288619041442871094e+00 -1.048408523201942444e-01
1.295000000000000000e+03 7.527325439453125000e+01 -9.563295364379882812e+00 1.539677660912275314e-02 7.570290565490722656e+00 2.275706291198730469e+00 -8.955252170562744141e-02
1.296000000000000000e+03 7.526127624511718750e+01 1.130725002288818359e+01 1.565770432353019714e-02 7.542709827423095703e+00 2.267510175704956055e+00 7.381334900856018066e-02
1.297000000000000000e+03 7.383230590820312500e+01 9.999816894531250000e+00 2.744879387319087982e-02 7.549209117889404297e+00 2.272997379302978516e+00 8.112043887376785278e-02
1.298000000000000000e+03 7.658561706542968750e+01 1.680689811706542969e+01 3.027207218110561371e-03 7.611814498901367188e+00 2.284452438354492188e+00 7.454665750265121460e-02
1.299000000000000000e+03 7.519837951660156250e+01 1.820628547668457031e+01 4.195229150354862213e-03 7.648611068725585938e+00 2.295841932296752930e+00 1.018997728824615479e-01
1.300000000000000000e+03 7.528480529785156250e+01 2.086863708496093750e+01 -1.783590123523026705e-04 7.696881771087646484e+00 2.309010982513427734e+00 1.059878244996070862e-01
1.301000000000000000e+03 7.528461456298828125e+01 1.953776550292968750e+01 5.643959622830152512e-03 7.669741153717041016e+00 2.302615404129028320e+00 1.035354584455490112e-01
1.302000000000000000e+03 7.372211456298828125e+01 1.834456634521484375e+01 1.006141304969787598e-02 7.660010337829589844e+00 2.301021575927734375e+00 1.268102824687957764e-01
1.303000000000000000e+03 7.494287872314453125e+01 -2.873480415344238281e+01 -1.437923684716224670e-02 7.935567855834960938e+00 2.376356601715087891e+00 -1.064404174685478210e-01
1.304000000000000000e+03 7.416690826416015625e+01 -2.150819206237792969e+01 -4.784291144460439682e-03 7.801325798034667969e+00 2.338962316513061523e+00 -1.422912627458572388e-01
1.305000000000000000e+03 7.500623321533203125e+01 -2.588093948364257812e+01 -9.943705983459949493e-03 7.890610218048095703e+00 2.364199876785278320e+00 -1.154463440179824829e-01
1.306000000000000000e+03 7.649893188476562500e+01 -2.610410308837890625e+01 -3.921254537999629974e-03 7.909533500671386719e+00 2.371683597564697266e+00 -8.546753972768783569e-02
1.307000000000000000e+03 7.533657836914062500e+01 -2.310464096069335938e+01 -5.413767881691455841e-03 7.836800575256347656e+00 2.349416017532348633e+00 -1.179381459951400757e-01
1.308000000000000000e+03 7.342588806152343750e+01 2.332921218872070312e+01 -3.876463510096073151e-03 7.741498947143554688e+00 2.321286678314208984e+00 1.363750696182250977e-01
1.309000000000000000e+03 7.616012573242187500e+01 2.669635009765625000e+01 -2.514907857403159142e-03 7.803294658660888672e+00 2.340233802795410156e+00 8.073417842388153076e-02
1.310000000000000000e+03 7.445488739013671875e+01 2.645429039001464844e+01 -9.819144383072853088e-03 7.792413711547851562e+00 2.334778308868408203e+00 1.096261963248252869e-01
1.311000000000000000e+03 7.525340270996093750e+01 2.957256698608398438e+01 -9.574449621140956879e-03 7.844891071319580078e+00 2.350594997406005859e+00 8.793670684099197388e-02
1.312000000000000000e+03 7.424406433105468750e+01 2.779335784912109375e+01 -8.452057838439941406e-03 7.807600975036621094e+00 2.339744806289672852e+00 1.084100231528282166e-01
1.313000000000000000e+03 7.335301208496093750e+01 -2.990381622314453125e+01 -2.666532248258590698e-02 7.937766075134277344e+00 2.373330116271972656e+00 -1.211778968572616577e-01
1.314000000000000000e+03 7.455619812011718750e+01 -3.567484664916992188e+01 -2.727269195020198822e-02 8.021698951721191406e+00 2.398327827453613281e+00 -6.090445816516876221e-02
1.315000000000000000e+03 7.429937744140625000e+01 3.386913681030273438e+01 -2.762111276388168335e-02 7.887166500091552734e+00 2.357863664627075195e+00 7.840721309185028076e-02
1.316000000000000000e+03 7.647290039062500000e+01 -3.441697692871093750e+01 -1.554393954575061798e-02 8.055830001831054688e+00 2.412085771560668945e+00 -4.586531594395637512e-02
1.317000000000000000e+03 7.483336639404296875e+01 -3.422731399536132812e+01 -2.715352177619934082e-02 8.021100997924804688e+00 2.398184061050415039e+00 -6.805411726236343384e-02
1.318000000000000000e+03 7.586683654785156250e+01 -3.645173263549804688e+01 -1.902062818408012390e-02 8.073101997375488281e+00 2.416224479675292969e+00 -4.055467993021011353e-02
1.319000000000000000e+03 7.670130920410156250e+01 3.006656074523925781e+01 -6.797942798584699631e-03 7.862617492675781250e+00 2.356745958328247070e+00 6.467454135417938232e-02
1.320000000000000000e+03 1.400215435028076172e+01 2.012631797790527344e+01 1.113841414451599121e+00 3.791774511337280273e+00 1.471684813499450684e+00 -1.456598520278930664e+00
1.321000000000000000e+03 4.808686256408691406e+00 2.207873725891113281e+01 -9.783360362052917480e-02 1.591898679733276367e+00 4.482195377349853516e-01 -1.081200480461120605e+00
1.322000000000000000e+03 2.754922151565551758e+00 1.487128353118896484e+01 3.826895654201507568e-01 -1.217231512069702148e+00 -2.503625750541687012e-01 8.207287192344665527e-01
1.323000000000000000e+03 6.099951744079589844e+00 -2.085666847229003906e+01 -2.098863720893859863e-01 3.016767501831054688e+00 8.420643210411071777e-01 5.670324563980102539e-01
1.324000000000000000e+03 5.012153625488281250e+00 2.525469207763671875e+01 -2.783209979534149170e-01 1.397434949874877930e+00 3.357341885566711426e-01 -8.918658494949340820e-01
1.325000000000000000e+03 5.056378841400146484e+00 2.986724090576171875e+01 -2.454404979944229126e-01 1.420608758926391602e+00 3.525504767894744873e-01 -6.825060844421386719e-01
1.326000000000000000e+03 3.948148488998413086e+00 1.886219596862792969e+01 8.171365261077880859e-01 4.413769841194152832e-01 3.775540590286254883e-01 -8.413672447204589844e-01
1.327000000000000000e+03 4.916047096252441406e+00 2.044581794738769531e+01 4.382166564464569092e-01 1.709805727005004883e+00 6.444067358970642090e-01 -1.338091611862182617e+00
1.328000000000000000e+03 6.747941017150878906e+00 -2.487487983703613281e+01 -4.431439936161041260e-01 2.482579946517944336e+00 6.118307709693908691e-01 7.879617214202880859e-01
1.329000000000000000e+03 3.617321252822875977e+00 -2.319930267333984375e+01 -3.334284126758575439e-01 7.163852453231811523e-01 1.148870438337326050e-01 1.014618515968322754e+00
1.330000000000000000e+03 5.114327430725097656e+00 -2.317379760742187500e+01 -3.007291555404663086e-01 1.806343317031860352e+00 4.516842663288116455e-01 8.902291655540466309e-01
1.331000000000000000e+03 4.453970432281494141e+00 -1.800314140319824219e+01 9.863446354866027832e-01 1.900868177413940430e+00 8.661638498306274414e-01 1.087529301643371582e+00
1.332000000000000000e+03 5.146010875701904297e+00 -2.039831161499023438e+01 -2.448136806488037109e-01 2.437282323837280273e+00 6.577405929565429688e-01 1.099881887435913086e+00
1.333000000000000000e+03 4.293612957000732422e+00 -1.913316535949707031e+01 2.088964581489562988e-01 1.621250629425048828e+00 5.490441322326660156e-01 1.236453056335449219e+00
1.334000000000000000e+03 3.858753919601440430e+00 -9.649536132812500000e+00 -1.963238865137100220e-01 4.014030694961547852e-01 6.152375787496566772e-02 -9.712706804275512695e-01
1.335000000000000000e+03 2.825375795364379883e+00 -9.529592514038085938e+00 -9.507514536380767822e-03 -5.986111164093017578e-01 -1.824356019496917725e-01 -9.052193164825439453e-01
1.336000000000000000e+03 4.121465206146240234e+00 -1.203726863861083984e+01 1.610831767320632935e-01 1.137918472290039062e+00 3.897005021572113037e-01 -9.406554698944091797e-01
1.337000000000000000e+03 6.153450012207031250e+00 2.195438957214355469e+01 -2.592427730560302734e-01 2.662563562393188477e+00 7.209962606430053711e-01 -7.922780513763427734e-01
1.338000000000000000e+03 5.103207588195800781e+00 2.681662940979003906e+01 -3.308945894241333008e-01 1.374168634414672852e+00 3.129822313785552979e-01 -8.591405153274536133e-01
1.339000000000000000e+03 4.899086475372314453e+00 2.368822479248046875e+01 -3.702512979507446289e-01 1.375570774078369141e+00 3.015958368778228760e-01 -1.023909449577331543e+00
1.340000000000000000e+03 5.775603294372558594e+00 9.595373153686523438e+00 -3.891006410121917725e-01 1.117278218269348145e+00 2.184532731771469116e-01 5.080190300941467285e-01
1.341000000000000000e+03 5.215785503387451172e+00 -2.465363311767578125e+01 -3.732796013355255127e-01 1.704638361930847168e+00 3.994076251983642578e-01 9.253205060958862305e-01
1.342000000000000000e+03 3.678874969482421875e+00 -2.469188308715820312e+01 -2.303490489721298218e-01 8.321184515953063965e-01 1.805308163166046143e-01 8.601728081703186035e-01
1.343000000000000000e+03 3.985684156417846680e+00 -3.062066268920898438e+01 -1.398155987262725830e-01 1.388024687767028809e+00 3.744627237319946289e-01 4.742451310157775879e-01
1.344000000000000000e+03 5.297538280487060547e+00 -2.909912300109863281e+01 -2.542477548122406006e-01 1.802984356880187988e+00 4.646209776401519775e-01 6.339664459228515625e-01
1.345000000000000000e+03 5.898590564727783203e+00 -1.122368717193603516e+01 2.805164754390716553e-01 3.027883291244506836e+00 9.925199151039123535e-01 -1.117266863584518433e-01
1.346000000000000000e+03 5.420835971832275391e+00 3.252474212646484375e+01 -2.255951613187789917e-01 1.686400294303894043e+00 4.382415413856506348e-01 -5.333334207534790039e-01
1.347000000000000000e+03 6.132365703582763672e+00 3.632151031494140625e+01 -2.152585685253143311e-01 1.994596242904663086e+00 5.338013172149658203e-01 -3.119634091854095459e-01
1.348000000000000000e+03 8.522771835327148438e+00 8.972017288208007812e+00 -4.832501411437988281e-01 1.828701972961425781e+00 4.036355316638946533e-01 -1.284380108118057251e-01
1.349000000000000000e+03 4.547370433807373047e+00 -6.045468330383300781e+00 -2.570884227752685547e-01 3.697746694087982178e-01 3.380587324500083923e-02 -6.643554568290710449e-01
1.350000000000000000e+03 7.028016567230224609e+00 -3.055046081542968750e+01 -3.250814378261566162e-01 2.440639495849609375e+00 6.346673965454101562e-01 6.235145330429077148e-01
1.351000000000000000e+03 5.483933925628662109e+00 -3.059527015686035156e+01 -2.231307178735733032e-01 1.912653326988220215e+00 5.068567991256713867e-01 5.598273277282714844e-01
1.352000000000000000e+03 4.192083835601806641e+00 -3.220689773559570312e+01 -1.286637336015701294e-01 1.543090343475341797e+00 4.243279993534088135e-01 3.936967551708221436e-01
1.353000000000000000e+03 5.120498657226562500e+00 -3.362716674804687500e+01 -1.497571170330047607e-01 1.903549075126647949e+00 5.261375904083251953e-01 3.955397903919219971e-01
1.354000000000000000e+03 5.113788127899169922e+00 2.837092399597167969e+01 -2.494775950908660889e-01 1.417076230049133301e+00 3.502795994281768799e-01 -7.505180835723876953e-01
1.355000000000000000e+03 6.736461639404296875e+00 3.376329421997070312e+01 -2.783136665821075439e-01 2.176215410232543945e+00 5.693705677986145020e-01 -5.097282528877258301e-01
1.356000000000000000e+03 5.353420257568359375e+00 3.501589584350585938e+01 -1.666394770145416260e-01 1.782015800476074219e+00 4.846128821372985840e-01 -3.545574247837066650e-01
1.357000000000000000e+03 5.021975994110107422e+00 3.125375747680664062e+01 -2.176882177591323853e-01 1.442747116088867188e+00 3.675176501274108887e-01 -5.891631841659545898e-01
1.358000000000000000e+03 3.542543411254882812e+00 7.603550910949707031e+00 -1.942794620990753174e-01 -7.893086224794387817e-02 -8.196309953927993774e-02 6.222465038299560547e-01
1.359000000000000000e+03 3.263662338256835938e+00 4.872280120849609375e+00 -1.098714172840118408e-01 -1.150400713086128235e-01 -6.747344881296157837e-02 3.839235901832580566e-01
1.360000000000000000e+03 5.870944976806640625e+00 4.290555953979492188e+00 -2.503279149532318115e-01 3.404029309749603271e-01 2.702250145375728607e-02 2.159578949213027954e-01
1.361000000000000000e+03 3.129964590072631836e+00 -4.867712974548339844e+00 -1.764771640300750732e-01 -1.741200089454650879e-01 -1.051791533827781677e-01 -6.289104223251342773e-01
1.362000000000000000e+03 6.458645820617675781e+00 -3.692312240600585938e+01 -1.832139045000076294e-01 2.379299402236938477e+00 6.588256359100341797e-01 2.348953634500503540e-01
1.363000000000000000e+03 1.983223152160644531e+01 -1.339557933807373047e+01 5.082104206085205078e-01 7.852017879486083984e+00 2.508068561553955078e+00 1.431990981101989746e+00
1.364000000000000000e+03 1.610556602478027344e+01 -1.979317092895507812e+01 2.213776111602783203e-01 5.041632175445556641e+00 1.578902959823608398e+00 1.258037090301513672e+00
1.365000000000000000e+03 1.860250663757324219e+01 -1.928001594543457031e+01 -3.854701668024063110e-02 6.141431808471679688e+00 1.830865502357482910e+00 1.081012010574340820e+00
1.366000000000000000e+03 6.593991756439208984e+00 -8.969380378723144531e+00 -1.834804713726043701e-01 2.284132003784179688e+00 6.301954984664916992e-01 -1.441060602664947510e-01
1.367000000000000000e+03 2.193907928466796875e+01 -8.126809120178222656e+00 1.476173758506774902e+00 9.874998092651367188e+00 3.405351400375366211e+00 8.682047724723815918e-01
1.368000000000000000e+03 2.098074150085449219e+01 -6.261079788208007812e+00 2.018051147460937500e+00 1.082490253448486328e+01 3.852886199951171875e+00 1.310501456260681152e+00
1.369000000000000000e+03 5.119018554687500000e+00 -9.030837059020996094e+00 -2.477083057165145874e-01 1.307444810867309570e+00 3.179209828376770020e-01 -7.242372035980224609e-01
1.370000000000000000e+03 2.265427207946777344e+01 1.276966667175292969e+01 9.245061874389648438e-01 8.705451011657714844e+00 2.888987064361572266e+00 -6.640148758888244629e-01
1.371000000000000000e+03 1.703303718566894531e+01 -1.511507034301757812e+01 6.809555888175964355e-01 6.097693920135498047e+00 2.033594846725463867e+00 1.907974004745483398e+00
1.372000000000000000e+03 2.326157379150390625e+01 3.447817564010620117e+00 1.117614388465881348e+00 1.059657287597656250e+01 3.514256238937377930e+00 -3.782043457031250000e-01
1.373000000000000000e+03 2.287602233886718750e+01 4.587474822998046875e+00 1.088099241256713867e+00 1.060211372375488281e+01 3.507063865661621094e+00 -5.638275742530822754e-01
1.374000000000000000e+03 1.214514064788818359e+01 -1.900714302062988281e+01 1.177281498908996582e+00 2.845435380935668945e+00 1.206815123558044434e+00 1.128723621368408203e+00
1.375000000000000000e+03 8.562534332275390625e+00 2.225827980041503906e+01 3.319368064403533936e-01 3.211608171463012695e+00 1.063063502311706543e+00 -1.023119240999221802e-01
1.376000000000000000e+03 2.297607803344726562e+01 -3.592823743820190430e+00 1.415238022804260254e+00 1.068895912170410156e+01 3.631258964538574219e+00 7.199772596359252930e-01
1.377000000000000000e+03 2.153664588928222656e+01 -6.449384689331054688e-01 5.778830647468566895e-01 1.168743324279785156e+01 3.679594993591308594e+00 2.476873546838760376e-01
1.378000000000000000e+03 2.238739585876464844e+01 1.721980214118957520e+00 8.619681596755981445e-01 1.122616004943847656e+01 3.626438617706298828e+00 -2.029184699058532715e-01
1.379000000000000000e+03 1.917400932312011719e+01 -1.460097122192382812e+01 3.886859714984893799e-01 7.303904533386230469e+00 2.307777166366577148e+00 1.484765410423278809e+00
1.380000000000000000e+03 2.255790138244628906e+01 6.808159351348876953e+00 1.198708891868591309e+00 1.030577278137207031e+01 3.451344251632690430e+00 -7.795790433883666992e-01
1.381000000000000000e+03 2.281532478332519531e+01 -2.021552801132202148e+00 1.102665066719055176e+00 1.085998249053955078e+01 3.588794231414794922e+00 5.107902884483337402e-01
1.382000000000000000e+03 1.774376487731933594e+01 -1.711840629577636719e+01 2.547975480556488037e-01 6.112903594970703125e+00 1.910310268402099609e+00 1.464803695678710938e+00
1.383000000000000000e+03 2.116596412658691406e+01 1.332831859588623047e+01 9.740061163902282715e-01 8.681295394897460938e+00 2.896590471267700195e+00 -9.912217259407043457e-01
1.384000000000000000e+03 1.518490505218505859e+01 -2.112287330627441406e+01 2.387335896492004395e-01 4.582757949829101562e+00 1.446447491645812988e+00 1.091178894042968750e+00
1.385000000000000000e+03 1.970337486267089844e+01 1.698167991638183594e+01 4.753443300724029541e-01 7.477459907531738281e+00 2.385841369628906250e+00 -1.164407372474670410e+00
1.386000000000000000e+03 1.625601768493652344e+01 2.002348136901855469e+01 5.365073680877685547e-01 5.340017795562744141e+00 1.762957572937011719e+00 -1.448444485664367676e+00
1.387000000000000000e+03 2.417746734619140625e+01 8.133329391479492188e+00 1.248024940490722656e+00 9.487409591674804688e+00 3.220630407333374023e+00 -4.671418070793151855e-01
1.388000000000000000e+03 1.508828449249267578e+01 1.908663940429687500e+01 8.081443905830383301e-01 4.692867755889892578e+00 1.650303602218627930e+00 -1.863517403602600098e+00
1.389000000000000000e+03 2.167390632629394531e+01 7.280323505401611328e-01 6.890876293182373047e-01 1.160108757019042969e+01 3.687052726745605469e+00 -7.732123881578445435e-02
1.390000000000000000e+03 5.939074039459228516e+00 1.459766292572021484e+01 6.003690958023071289e-01 3.547186851501464844e+00 1.244266748428344727e+00 6.963132619857788086e-01
1.391000000000000000e+03 5.034809589385986328e+00 1.608933258056640625e+01 1.761942625045776367e+00 1.549888014793395996e+00 9.935491681098937988e-01 4.067727923393249512e-01
1.392000000000000000e+03 5.078583717346191406e+00 -1.170303630828857422e+01 2.091637551784515381e-01 2.467077970504760742e+00 8.028725385665893555e-01 -5.458647012710571289e-01
1.393000000000000000e+03 1.148972892761230469e+01 -2.011667251586914062e+00 1.005203574895858765e-01 2.364705324172973633e+00 7.395677566528320312e-01 2.267263412475585938e+00
1.394000000000000000e+03 1.086764907836914062e+01 -2.721304893493652344e+00 -3.490058779716491699e-01 1.795696854591369629e+00 4.340073168277740479e-01 1.576702475547790527e+00
1.395000000000000000e+03 1.300387763977050781e+01 2.647205591201782227e+00 -1.611102938652038574e+00 3.844619750976562500e+00 6.700549721717834473e-01 1.170736178755760193e-01
1.396000000000000000e+03 1.199067115783691406e+01 2.869669675827026367e+00 -9.860467910766601562e-01 3.015956163406372070e+00 6.089728474617004395e-01 -9.450828433036804199e-01
1.397000000000000000e+03 1.274108791351318359e+01 2.324109077453613281e+00 -1.754686594009399414e+00 4.531933307647705078e+00 8.331740498542785645e-01 -4.901642501354217529e-01
1.398000000000000000e+03 1.323922729492187500e+01 2.229034662246704102e+00 -1.888036131858825684e+00 4.348390579223632812e+00 7.381062507629394531e-01 6.015151739120483398e-01
1.399000000000000000e+03 1.339222526550292969e+01 3.107125759124755859e+00 -1.605488657951354980e+00 2.728301763534545898e+00 3.368439674377441406e-01 8.741922378540039062e-01
1.400000000000000000e+03 1.179214477539062500e+01 -3.323666334152221680e+00 -1.206411004066467285e+00 2.907891988754272461e+00 5.104443430900573730e-01 1.160562396049499512e+00
1.401000000000000000e+03 9.777174949645996094e+00 -3.734133005142211914e+00 -4.348546266555786133e-01 1.541727185249328613e+00 3.320617973804473877e-01 9.750627875328063965e-01
1.402000000000000000e+03 1.267104339599609375e+01 -3.655935287475585938e+00 -1.522537112236022949e+00 2.726317644119262695e+00 3.611341416835784912e-01 3.784039020538330078e-01
1.403000000000000000e+03 1.264185619354248047e+01 5.251873493194580078e+00 -6.742300987243652344e-01 1.925108790397644043e+00 3.752636015415191650e-01 -1.065493673086166382e-01
1.404000000000000000e+03 1.317237663269042969e+01 6.132474899291992188e+00 -2.967583239078521729e-01 1.486029386520385742e+00 3.567813336849212646e-01 -1.246461495757102966e-01
1.405000000000000000e+03 1.124184799194335938e+01 3.513447761535644531e+00 -7.712554931640625000e-01 2.097565174102783203e+00 3.978929221630096436e-01 -7.620128393173217773e-01
1.406000000000000000e+03 5.181140899658203125e+00 4.409986972808837891e+00 -1.890751719474792480e-01 1.960870325565338135e-01 2.103558275848627090e-03 3.092387616634368896e-01
1.407000000000000000e+03 6.583524227142333984e+00 4.187808036804199219e+00 -2.203999459743499756e-01 4.242115020751953125e-01 6.114346906542778015e-02 1.056271493434906006e-01
1.408000000000000000e+03 6.101179599761962891e+00 5.862130641937255859e+00 -3.306964635848999023e-01 6.364187002182006836e-01 9.171667695045471191e-02 2.455492019653320312e-01
1.409000000000000000e+03 9.870746612548828125e+00 9.207971572875976562e+00 -2.520051300525665283e-01 1.825937390327453613e+00 4.721796810626983643e-01 -5.050484538078308105e-01
1.410000000000000000e+03 1.187609100341796875e+01 5.789741992950439453e+00 -5.436633825302124023e-01 1.799878001213073730e+00 3.768643736839294434e-01 -3.315870761871337891e-01
1.411000000000000000e+03 7.332003593444824219e+00 4.923716068267822266e+00 -2.615710794925689697e-01 7.010253071784973145e-01 1.318362653255462646e-01 -3.256615996360778809e-02
1.412000000000000000e+03 6.652134895324707031e+00 5.001821994781494141e+00 -3.181839287281036377e-01 6.317164897918701172e-01 9.405977278947830200e-02 1.028776541352272034e-01
1.413000000000000000e+03 4.592721939086914062e+00 -4.869060993194580078e+00 -2.522471547126770020e-01 2.399329543113708496e-01 -3.694259328767657280e-03 -5.812991261482238770e-01
1.414000000000000000e+03 3.906851291656494141e+00 -5.435581684112548828e+00 -1.778438538312911987e-01 7.992316037416458130e-02 -2.937620878219604492e-02 -6.682123541831970215e-01
1.415000000000000000e+03 1.189793586730957031e+01 8.264849662780761719e+00 -1.513362824916839600e-01 1.622971296310424805e+00 4.414905011653900146e-01 -5.195721387863159180e-01
1.416000000000000000e+03 7.536201477050781250e+00 -4.033199310302734375e+00 -3.497565984725952148e-01 8.727275133132934570e-01 1.568912714719772339e-01 1.115477010607719421e-01
1.417000000000000000e+03 6.700190544128417969e+00 -5.835009098052978516e+00 -3.321062326431274414e-01 1.169549345970153809e+00 2.512329518795013428e-01 -2.075925469398498535e-01
1.418000000000000000e+03 6.391662597656250000e+00 -5.105314731597900391e+00 -3.185029327869415283e-01 9.397951364517211914e-01 1.863876581192016602e-01 -2.316856980323791504e-01
1.419000000000000000e+03 5.737051486968994141e+00 -5.346935749053955078e+00 -3.154830336570739746e-01 7.171040773391723633e-01 1.204863041639328003e-01 -4.479130804538726807e-01
1.420000000000000000e+03 1.288033103942871094e+01 3.647149085998535156e+00 -1.202048063278198242e+00 2.480930566787719727e+00 3.836647868156433105e-01 2.381666302680969238e-01
1.421000000000000000e+03 9.463787078857421875e+00 3.868043422698974609e+00 -3.164795339107513428e-01 1.128009676933288574e+00 2.434590458869934082e-01 -5.641312003135681152e-01
1.422000000000000000e+03 1.131300926208496094e+01 4.962946414947509766e+00 -7.097717523574829102e-01 1.808563470840454102e+00 3.296375274658203125e-01 -4.519323408603668213e-01
1.423000000000000000e+03 1.120402145385742188e+01 7.639973640441894531e+00 -2.922465503215789795e-01 1.664560437202453613e+00 4.116941392421722412e-01 -4.609337449073791504e-01
1.424000000000000000e+03 1.130741977691650391e+01 -2.548014879226684570e+00 -4.404705464839935303e-01 2.390218257904052734e+00 5.849243402481079102e-01 1.872358679771423340e+00
1.425000000000000000e+03 1.134661674499511719e+01 -3.729697465896606445e+00 -8.045302629470825195e-01 2.218856573104858398e+00 4.242978990077972412e-01 1.201315522193908691e+00
1.426000000000000000e+03 1.011439132690429688e+01 3.743106126785278320e+00 -4.435204863548278809e-01 1.396340370178222656e+00 2.858459651470184326e-01 -6.738933324813842773e-01
1.427000000000000000e+03 1.053377246856689453e+01 7.046390056610107422e+00 -4.632547199726104736e-01 1.691945672035217285e+00 3.686072826385498047e-01 -4.036188125610351562e-01
1.428000000000000000e+03 9.029474258422851562e+00 -3.839728832244873047e+00 -3.690814673900604248e-01 1.231136918067932129e+00 2.586166262626647949e-01 6.502380967140197754e-01
1.429000000000000000e+03 8.094719886779785156e+00 5.616815567016601562e+00 -3.795355856418609619e-01 1.067461490631103516e+00 2.063777744770050049e-01 -1.499054580926895142e-01
1.430000000000000000e+03 7.830991744995117188e+00 1.126133155822753906e+01 -2.555920481681823730e-01 2.443145036697387695e+00 6.562658548355102539e-01 -3.202874958515167236e-01
1.431000000000000000e+03 7.694730281829833984e+00 1.033460330963134766e+01 -6.204855442047119141e-01 2.219083309173583984e+00 4.795792996883392334e-01 -2.617004141211509705e-02
1.432000000000000000e+03 1.077851867675781250e+01 -4.269073486328125000e+00 -6.571233868598937988e-01 2.138499259948730469e+00 4.444127678871154785e-01 1.067323446273803711e+00
1.433000000000000000e+03 9.873422622680664062e+00 -5.418998241424560547e+00 -4.205305874347686768e-01 1.934272527694702148e+00 4.541225731372833252e-01 7.964404225349426270e-01
1.434000000000000000e+03 3.912500619888305664e+00 1.616644477844238281e+01 1.011589169502258301e+00 2.781442403793334961e-01 3.869200050830841064e-01 4.931145608425140381e-01
1.435000000000000000e+03 5.112296581268310547e+00 1.745360755920410156e+01 1.639458179473876953e+00 2.146558284759521484e+00 1.135804891586303711e+00 -2.590389251708984375e-01
1.436000000000000000e+03 7.066592216491699219e+00 1.157739448547363281e+01 -5.937713384628295898e-01 2.589798927307128906e+00 5.988082885742187500e-01 1.483239382505416870e-01
1.437000000000000000e+03 4.258605480194091797e+00 1.137491607666015625e+01 -3.390701413154602051e-01 6.399877667427062988e-01 9.027529507875442505e-02 9.205920100212097168e-01
1.438000000000000000e+03 2.728030681610107422e+00 5.347453117370605469e+00 -1.106994003057479858e-01 -2.736264169216156006e-01 -1.152977496385574341e-01 3.804726302623748779e-01
1.439000000000000000e+03 8.441984176635742188e+00 -6.142024517059326172e+00 -2.388697564601898193e-01 1.834899067878723145e+00 4.788087904453277588e-01 4.108204841613769531e-01
1.440000000000000000e+03 7.122363567352294922e+00 -2.142919349670410156e+01 2.868999727070331573e-03 3.087584972381591797e+00 9.271361827850341797e-01 3.989429473876953125e-01
1.441000000000000000e+03 6.675652027130126953e+00 -1.960982131958007812e+01 1.432809680700302124e-01 3.692481040954589844e+00 1.150728583335876465e+00 4.186329245567321777e-01
1.442000000000000000e+03 8.260667800903320312e+00 -2.212177276611328125e+01 -2.003820687532424927e-01 3.283555507659912109e+00 9.249520301818847656e-01 4.133129715919494629e-01
1.443000000000000000e+03 9.583318710327148438e+00 -2.292752838134765625e+01 6.233073398470878601e-02 3.385273933410644531e+00 1.034281373023986816e+00 2.449818104505538940e-01
1.444000000000000000e+03 7.566247940063476562e+00 2.044389533996582031e+01 2.296581268310546875e-01 3.834593772888183594e+00 1.219275593757629395e+00 7.100474834442138672e-02
1.445000000000000000e+03 7.478250122070312500e+01 3.093096923828125000e+01 -1.684193126857280731e-02 7.857004642486572266e+00 2.352048873901367188e+00 8.839963376522064209e-02
1.446000000000000000e+03 7.366703033447265625e+01 2.897483825683593750e+01 -1.764439232647418976e-02 7.823375225067138672e+00 2.341719388961791992e+00 1.119996532797813416e-01
1.447000000000000000e+03 7.493175506591796875e+01 -2.729279327392578125e+01 -1.007585413753986359e-02 7.912266254425048828e+00 2.370657205581665039e+00 -1.104693636298179626e-01
1.448000000000000000e+03 7.352636718750000000e+01 -2.861104393005371094e+01 -2.123133838176727295e-02 7.919661521911621094e+00 2.369529008865356445e+00 -1.264638155698776245e-01
1.449000000000000000e+03 7.382579803466796875e+01 2.199140930175781250e+01 -2.117986790835857391e-03 7.718399524688720703e+00 2.314884424209594727e+00 1.298594772815704346e-01
1.450000000000000000e+03 7.490807342529296875e+01 2.362247276306152344e+01 -6.000331602990627289e-03 7.746933937072753906e+00 2.322280168533325195e+00 1.101680174469947815e-01
1.451000000000000000e+03 7.404561614990234375e+01 -2.280481338500976562e+01 -5.708446726202964783e-03 7.822209358215332031e+00 2.344950199127197266e+00 -1.426266133785247803e-01
1.452000000000000000e+03 7.525481414794921875e+01 1.268876743316650391e+01 1.213001366704702377e-02 7.561415195465087891e+00 2.272063493728637695e+00 8.151612430810928345e-02
1.453000000000000000e+03 7.376351928710937500e+01 1.547979354858398438e+01 1.659535430371761322e-02 7.618604660034179688e+00 2.290560007095336914e+00 1.165182441473007202e-01
1.454000000000000000e+03 7.516606140136718750e+01 1.684106826782226562e+01 8.583489805459976196e-03 7.626562595367431641e+00 2.290543794631958008e+00 9.955743700265884399e-02
1.455000000000000000e+03 7.382260894775390625e+01 8.622220993041992188e+00 2.956438809633255005e-02 7.535639286041259766e+00 2.269561052322387695e+00 7.021416723728179932e-02
1.456000000000000000e+03 7.467163848876953125e+01 2.504188919067382812e+01 -5.728084128350019455e-03 7.771894931793212891e+00 2.329849958419799805e+00 1.099218279123306274e-01
1.457000000000000000e+03 7.413549804687500000e+01 -1.771117019653320312e+01 6.159322801977396011e-03 7.724427700042724609e+00 2.319176197052001953e+00 -1.433392763137817383e-01
1.458000000000000000e+03 7.426966094970703125e+01 -2.024009132385253906e+01 -1.107249758206307888e-03 7.776798248291015625e+00 2.332707405090332031e+00 -1.431312412023544312e-01
1.459000000000000000e+03 7.529187774658203125e+01 -6.766074180603027344e+00 1.759659685194492340e-02 7.531694889068603516e+00 2.264787435531616211e+00 -7.015691697597503662e-02
1.460000000000000000e+03 7.390998077392578125e+01 -8.100384712219238281e+00 2.749126404523849487e-02 7.567469596862792969e+00 2.278488159179687500e+00 -9.729079902172088623e-02
1.461000000000000000e+03 7.367497253417968750e+01 4.510147571563720703e+00 3.658813983201980591e-02 7.512309074401855469e+00 2.264669179916381836e+00 2.985440567135810852e-02
1.462000000000000000e+03 7.372511291503906250e+01 2.085442841053009033e-01 3.635515272617340088e-02 7.508301734924316406e+00 2.263396978378295898e+00 -1.502087432891130447e-02
1.463000000000000000e+03 7.368425750732421875e+01 1.649047613143920898e+00 3.867291286587715149e-02 7.507139682769775391e+00 2.263743638992309570e+00 -6.782193668186664581e-04
1.464000000000000000e+03 7.520457458496093750e+01 3.043926715850830078e+00 2.321892231702804565e-02 7.480898857116699219e+00 2.251235246658325195e+00 1.174456346780061722e-02
1.465000000000000000e+03 7.383438110351562500e+01 1.137908554077148438e+01 2.255378104746341705e-02 7.563879013061523438e+00 2.275929689407348633e+00 9.115640074014663696e-02
1.466000000000000000e+03 7.391882324218750000e+01 -2.618257761001586914e+00 3.362864628434181213e-02 7.516140460968017578e+00 2.264930725097656250e+00 -4.430280253291130066e-02
1.467000000000000000e+03 7.401609039306640625e+01 -3.995513677597045898e+00 3.510342910885810852e-02 7.523663043975830078e+00 2.267629861831665039e+00 -5.905521661043167114e-02
1.468000000000000000e+03 7.392483520507812500e+01 -6.712347984313964844e+00 3.003801405429840088e-02 7.550565242767333984e+00 2.274181127548217773e+00 -8.529303967952728271e-02
1.469000000000000000e+03 7.531369018554687500e+01 -5.383276462554931641e+00 2.140249684453010559e-02 7.514816284179687500e+00 2.260865688323974609e+00 -6.009586900472640991e-02
1.470000000000000000e+03 7.546120452880859375e+01 -1.776008605957031250e+01 2.224316587671637535e-03 7.723911285400390625e+00 2.317840814590454102e+00 -1.172035709023475647e-01
1.471000000000000000e+03 7.407897949218750000e+01 -1.643215751647949219e+01 7.298029493540525436e-03 7.702899932861328125e+00 2.313059329986572266e+00 -1.418610066175460815e-01
1.472000000000000000e+03 7.391678619384765625e+01 -1.095427799224853516e+01 2.175251953303813934e-02 7.608374595642089844e+00 2.289038181304931641e+00 -1.201313808560371399e-01
1.473000000000000000e+03 7.391814422607421875e+01 -1.238608074188232422e+01 1.948982290923595428e-02 7.630762577056884766e+00 2.295075654983520508e+00 -1.284995824098587036e-01
1.474000000000000000e+03 7.367352294921875000e+01 1.687905502319335938e+01 1.120763178914785385e-02 7.638743400573730469e+00 2.294985294342041016e+00 1.230670362710952759e-01
1.475000000000000000e+03 7.340505218505859375e+01 -2.558024215698242188e+01 -1.549542974680662155e-02 7.869427204132080078e+00 2.356179475784301758e+00 -1.459483802318572998e-01
1.476000000000000000e+03 7.377441406250000000e+01 7.259855270385742188e+00 3.342482075095176697e-02 7.525652885437011719e+00 2.267723321914672852e+00 5.677386373281478882e-02
1.477000000000000000e+03 7.538085937500000000e+01 -1.511656284332275391e+01 6.516214460134506226e-03 7.669450759887695312e+00 2.302790164947509766e+00 -1.129644066095352173e-01
1.478000000000000000e+03 7.395675659179687500e+01 -1.378321838378906250e+01 1.447621360421180725e-02 7.653324127197265625e+00 2.300340175628662109e+00 -1.348587572574615479e-01
1.479000000000000000e+03 7.384801483154296875e+01 1.411391925811767578e+01 1.796045526862144470e-02 7.597555637359619141e+00 2.284654855728149414e+00 1.088609024882316589e-01
1.480000000000000000e+03 7.384641265869140625e+01 1.274911880493164062e+01 2.178436703979969025e-02 7.578897476196289062e+00 2.280204534530639648e+00 9.960602968931198120e-02
1.481000000000000000e+03 7.498962402343750000e+01 -3.159732246398925781e+01 -2.072789520025253296e-02 7.982095241546630859e+00 2.388410329818725586e+00 -8.945719897747039795e-02
1.482000000000000000e+03 7.412129211425781250e+01 2.077035140991210938e+01 2.903078217059373856e-03 7.698374271392822266e+00 2.310383319854736328e+00 1.237012296915054321e-01
1.483000000000000000e+03 7.403596496582031250e+01 -1.513203430175781250e+01 1.235954556614160538e-02 7.677368164062500000e+00 2.306918382644653320e+00 -1.397693604230880737e-01
1.484000000000000000e+03 7.328849792480468750e+01 -2.713716506958007812e+01 -2.000126987695693970e-02 7.893516063690185547e+00 2.362054586410522461e+00 -1.405820548534393311e-01
1.485000000000000000e+03 7.309156799316406250e+01 3.027686691284179688e+01 -2.073019742965698242e-02 7.836263656616210938e+00 2.344660043716430664e+00 1.133504286408424377e-01
1.486000000000000000e+03 5.596170902252197266e+00 -3.214728927612304688e+01 -2.110616564750671387e-01 2.030764818191528320e+00 5.459109544754028320e-01 5.030041337013244629e-01
1.487000000000000000e+03 6.733165264129638672e+00 -2.902904319763183594e+01 -3.148485422134399414e-01 2.278822660446166992e+00 5.891922116279602051e-01 6.991224884986877441e-01
1.488000000000000000e+03 5.137194156646728516e+00 -2.618635940551757812e+01 -3.059397935867309570e-01 1.678625583648681641e+00 4.118057489395141602e-01 7.842963337898254395e-01
1.489000000000000000e+03 6.299852848052978516e+00 -2.264948081970214844e+01 -4.762155711650848389e-01 2.599132299423217773e+00 6.368750333786010742e-01 8.000436425209045410e-01
1.490000000000000000e+03 3.860608339309692383e+00 -1.079978656768798828e+01 7.963132113218307495e-02 6.003292202949523926e-01 2.039881646633148193e-01 -8.962199687957763672e-01
1.491000000000000000e+03 1.217299747467041016e+01 2.239548492431640625e+01 7.987416982650756836e-01 3.248189210891723633e+00 1.214079260826110840e+00 -7.237458825111389160e-01
1.492000000000000000e+03 1.026105594635009766e+01 2.800258255004882812e+01 -3.479902446269989014e-01 3.318739652633666992e+00 8.912248015403747559e-01 -6.600108742713928223e-01
1.493000000000000000e+03 5.427302360534667969e+00 1.211600017547607422e+01 -3.335596323013305664e-01 1.786513924598693848e+00 4.358862638473510742e-01 6.919319629669189453e-01
1.494000000000000000e+03 7.392527580261230469e+00 -2.347603988647460938e+01 -2.280509173870086670e-01 2.808684349060058594e+00 7.741900682449340820e-01 6.074915528297424316e-01
1.495000000000000000e+03 6.421224594116210938e+00 2.498049545288085938e+01 -3.981331288814544678e-01 2.142362833023071289e+00 5.232688784599304199e-01 -8.696392774581909180e-01
1.496000000000000000e+03 1.016666603088378906e+01 -2.512462806701660156e+01 -2.162064164876937866e-01 3.466801166534423828e+00 9.751784205436706543e-01 5.269814133644104004e-01
1.497000000000000000e+03 6.245485305786132812e+00 3.142524147033691406e+01 -2.938287556171417236e-01 1.922965884208679199e+00 4.887411296367645264e-01 -6.213583946228027344e-01
1.498000000000000000e+03 8.623435974121093750e+00 -3.030333900451660156e+01 -3.649997711181640625e-01 2.870088100433349609e+00 7.515264749526977539e-01 6.560026407241821289e-01
1.499000000000000000e+03 3.786627054214477539e+00 2.023527908325195312e+01 3.976504802703857422e-01 3.919473588466644287e-01 2.368793487548828125e-01 -9.824470877647399902e-01
1.500000000000000000e+03 4.890079021453857422e+00 1.476138401031494141e+01 9.337571263313293457e-01 1.718497872352600098e+00 7.956765294075012207e-01 1.253825902938842773e+00
1.501000000000000000e+03 6.590652942657470703e+00 2.831385803222656250e+01 -3.520291447639465332e-01 2.081384897232055664e+00 5.188067555427551270e-01 -7.856382727622985840e-01
1.502000000000000000e+03 4.615136623382568359e+00 -1.332128524780273438e+01 1.017542243003845215e+00 2.414531946182250977e+00 1.029622197151184082e+00 -5.882316827774047852e-01
1.503000000000000000e+03 3.831507444381713867e+00 1.026064777374267578e+01 -2.636578977108001709e-01 1.066452339291572571e-01 -4.710379615426063538e-02 8.815465569496154785e-01
1.504000000000000000e+03 4.831941604614257812e+00 9.876641273498535156e+00 -4.204864799976348877e-01 8.495512604713439941e-01 1.287194490432739258e-01 6.688562631607055664e-01
1.505000000000000000e+03 3.625840425491333008e+00 8.903796195983886719e+00 -2.845818400382995605e-01 9.265403263270854950e-03 -8.259493112564086914e-02 6.889391541481018066e-01
1.506000000000000000e+03 6.691223621368408203e+00 9.388495445251464844e+00 -5.859538912773132324e-01 1.606647253036499023e+00 3.062080144882202148e-01 2.897536754608154297e-01
1.507000000000000000e+03 6.512671947479248047e+00 -2.764970016479492188e+01 -3.506403565406799316e-01 2.246380805969238281e+00 5.687221884727478027e-01 7.211883068084716797e-01
1.508000000000000000e+03 4.485219955444335938e+00 7.590836524963378906e+00 -3.079429566860198975e-01 3.355207741260528564e-01 8.273350074887275696e-03 5.249685049057006836e-01
1.509000000000000000e+03 7.627296924591064453e+00 9.254524230957031250e+00 -3.888118565082550049e-01 1.696302652359008789e+00 3.922472596168518066e-01 -3.973507881164550781e-02
1.510000000000000000e+03 4.611747741699218750e+00 8.705429077148437500e+00 -3.223024308681488037e-01 4.298331141471862793e-01 3.225919976830482483e-02 6.760061383247375488e-01
1.511000000000000000e+03 7.256409168243408203e+00 -8.075696945190429688e+00 -1.661006361246109009e-01 2.303807258605957031e+00 6.413120031356811523e-01 9.581146389245986938e-02
1.512000000000000000e+03 9.268904685974121094e+00 -6.069523811340332031e+00 -2.598931193351745605e-01 1.993515014648437500e+00 5.200865864753723145e-01 6.032746434211730957e-01
1.513000000000000000e+03 4.068934440612792969e+00 -8.579734802246093750e+00 -1.288011670112609863e-01 4.900157749652862549e-01 1.083643808960914612e-01 -8.233651518821716309e-01
1.514000000000000000e+03 5.108450412750244141e+00 -5.648978710174560547e+00 -2.441012710332870483e-01 5.455960631370544434e-01 9.044843912124633789e-02 -5.609844923019409180e-01
1.515000000000000000e+03 4.916030406951904297e+00 -6.659022331237792969e+00 -2.215184718370437622e-01 6.078780293464660645e-01 1.159078702330589294e-01 -6.385291814804077148e-01
1.516000000000000000e+03 4.236236095428466797e+00 -6.646694660186767578e+00 -2.006232440471649170e-01 3.335481584072113037e-01 3.987747430801391602e-02 -7.147732377052307129e-01
1.517000000000000000e+03 1.436366653442382812e+01 2.211141014099121094e+01 5.566428899765014648e-01 4.280698776245117188e+00 1.451202511787414551e+00 -1.084954023361206055e+00
1.518000000000000000e+03 9.432729721069335938e+00 2.453883361816406250e+01 -3.018749877810478210e-02 3.175103425979614258e+00 9.434747695922851562e-01 -4.942594170570373535e-01
1.519000000000000000e+03 2.062385749816894531e+01 1.571298027038574219e+01 6.741170883178710938e-01 8.031610488891601562e+00 2.611718177795410156e+00 -9.915732741355895996e-01
1.520000000000000000e+03 2.182025909423828125e+01 -1.279922580718994141e+01 4.996601343154907227e-01 8.366477966308593750e+00 2.659841537475585938e+00 7.561362385749816895e-01
1.521000000000000000e+03 2.376745986938476562e+01 -1.180860519409179688e+01 6.676605939865112305e-01 8.561352729797363281e+00 2.768704175949096680e+00 3.228461444377899170e-01
1.522000000000000000e+03 5.953108310699462891e+00 -9.731080055236816406e+00 -4.815523326396942139e-02 2.431849479675292969e+00 7.151082754135131836e-01 -2.221898287534713745e-01
1.523000000000000000e+03 2.209197616577148438e+01 -1.042520904541015625e+01 9.644543528556823730e-01 9.074392318725585938e+00 3.011653900146484375e+00 7.566853761672973633e-01
1.524000000000000000e+03 2.105412483215332031e+01 -9.370797157287597656e+00 1.180051565170288086e+00 9.556215286254882812e+00 3.220880031585693359e+00 9.852164983749389648e-01
1.525000000000000000e+03 1.361952114105224609e+01 -2.004482078552246094e+01 6.182441115379333496e-01 3.826356172561645508e+00 1.333380103111267090e+00 1.187431812286376953e+00
1.526000000000000000e+03 2.295539474487304688e+01 -5.177165508270263672e+00 1.755861282348632812e+00 1.014373302459716797e+01 3.569878339767456055e+00 7.681452631950378418e-01
1.527000000000000000e+03 2.249012184143066406e+01 -6.696140289306640625e+00 1.689934253692626953e+00 1.005692768096923828e+01 3.524058580398559570e+00 6.622734665870666504e-01
1.528000000000000000e+03 1.954549217224121094e+01 -2.167742919921875000e+01 -2.837931811809539795e-01 6.159493446350097656e+00 1.762710094451904297e+00 7.762685418128967285e-01
1.529000000000000000e+03 2.273191642761230469e+01 8.085249900817871094e+00 1.263508558273315430e+00 9.953252792358398438e+00 3.365028381347656250e+00 -7.806670665740966797e-01
1.530000000000000000e+03 2.720659255981445312e+01 8.714323043823242188e+00 1.171611070632934570e+00 8.832187652587890625e+00 3.001139640808105469e+00 -4.665334522724151611e-02
1.531000000000000000e+03 2.461555290222167969e+01 4.053333282470703125e+00 1.220834374427795410e+00 9.966715812683105469e+00 3.356265068054199219e+00 -2.991673350334167480e-01
1.532000000000000000e+03 2.476550102233886719e+01 6.986411094665527344e+00 1.287722945213317871e+00 9.586606979370117188e+00 3.262298822402954102e+00 -3.774270117282867432e-01
1.533000000000000000e+03 1.733994674682617188e+01 1.901402664184570312e+01 4.087287485599517822e-01 6.058057785034179688e+00 1.940035939216613770e+00 -1.493816018104553223e+00
1.534000000000000000e+03 2.276659584045410156e+01 7.237190604209899902e-01 8.687523007392883301e-01 1.098963642120361328e+01 3.557516574859619141e+00 -1.694710552692413330e-02
1.535000000000000000e+03 2.367135238647460938e+01 2.319462537765502930e+00 1.063026905059814453e+00 1.052575016021728516e+01 3.476633071899414062e+00 -2.455001175403594971e-01
1.536000000000000000e+03 2.282014274597167969e+01 -5.413629412651062012e-01 9.680586457252502441e-01 1.107690429687500000e+01 3.613488912582397461e+00 2.792703807353973389e-01
1.537000000000000000e+03 2.400213241577148438e+01 1.130375146865844727e+00 1.101580739021301270e+00 1.052951622009277344e+01 3.489329099655151367e+00 3.754596924409270287e-03
1.538000000000000000e+03 2.456256103515625000e+01 -3.012007951736450195e+00 1.474861979484558105e+00 9.966869354248046875e+00 3.432519435882568359e+00 4.631389379501342773e-01
1.539000000000000000e+03 2.432770347595214844e+01 -1.589794278144836426e+00 1.278921842575073242e+00 1.031412982940673828e+01 3.477915525436401367e+00 3.586113154888153076e-01
1.540000000000000000e+03 1.419099140167236328e+01 -2.233998298645019531e+01 1.858191043138504028e-01 4.296307086944580078e+00 1.344637870788574219e+00 9.164860844612121582e-01
1.541000000000000000e+03 1.778576278686523438e+01 -2.078931427001953125e+01 -5.856116488575935364e-02 5.667018413543701172e+00 1.682537198066711426e+00 1.026019692420959473e+00
1.542000000000000000e+03 6.256497383117675781e+00 1.186034774780273438e+01 -2.899759411811828613e-01 2.005367517471313477e+00 5.146174430847167969e-01 4.865357577800750732e-01
1.543000000000000000e+03 2.288945579528808594e+01 9.476083755493164062e+00 1.220314502716064453e+00 9.512571334838867188e+00 3.219865798950195312e+00 -7.283992767333984375e-01
1.544000000000000000e+03 2.339745140075683594e+01 1.416108036041259766e+01 7.376800179481506348e-01 8.475999832153320312e+00 2.764103889465332031e+00 -4.532272219657897949e-01
1.545000000000000000e+03 2.128148269653320312e+01 -1.402697849273681641e+01 2.903121113777160645e-01 8.044841766357421875e+00 2.500546216964721680e+00 8.978973031044006348e-01
1.546000000000000000e+03 7.201420593261718750e+01 4.107183456420898438e+01 -4.564587026834487915e-02 7.906019210815429688e+00 2.358112096786499023e+00 1.342099625617265701e-02
1.547000000000000000e+03 1.947910690307617188e+01 1.944926643371582031e+01 1.337721347808837891e-01 6.809220790863037109e+00 2.082897901535034180e+00 -9.911004304885864258e-01
1.548000000000000000e+03 2.183866310119628906e+01 1.474845790863037109e+01 6.993132233619689941e-01 8.327186584472656250e+00 2.707949876785278320e+00 -7.647915482521057129e-01
1.549000000000000000e+03 1.100308036804199219e+01 2.076845169067382812e+00 -2.402710169553756714e-02 1.608281731605529785e+00 4.752763807773590088e-01 -1.408636093139648438e+00
1.550000000000000000e+03 1.123900413513183594e+01 3.052708864212036133e+00 -6.162143945693969727e-01 2.235338449478149414e+00 4.857372343540191650e-01 -1.094069600105285645e+00
1.551000000000000000e+03 1.103592395782470703e+01 -3.254800796508789062e+00 -6.991227865219116211e-01 2.237831354141235352e+00 4.616125524044036865e-01 1.381734490394592285e+00
1.552000000000000000e+03 5.966630935668945312e+00 5.116436958312988281e+00 -2.406589835882186890e-01 4.506095051765441895e-01 6.298515945672988892e-02 2.450994402170181274e-01
1.553000000000000000e+03 6.405335426330566406e+00 6.408574581146240234e+00 -3.381938934326171875e-01 7.716896533966064453e-01 1.300487220287322998e-01 1.481957882642745972e-01
1.554000000000000000e+03 1.197382926940917969e+01 5.307250499725341797e+00 -7.222371697425842285e-01 1.857215642929077148e+00 3.404935300350189209e-01 -3.161046802997589111e-01
1.555000000000000000e+03 1.188955497741699219e+01 -3.943552732467651367e+00 -1.075084924697875977e+00 2.533157587051391602e+00 4.374217987060546875e-01 8.447015285491943359e-01
1.556000000000000000e+03 6.688859462738037109e+00 5.835265159606933594e+00 -2.902418375015258789e-01 7.337509393692016602e-01 1.330527216196060181e-01 1.568340063095092773e-01
1.557000000000000000e+03 7.380238533020019531e+00 5.862179756164550781e+00 -4.050973951816558838e-01 9.399635195732116699e-01 1.604598313570022583e-01 3.548520803451538086e-02
1.558000000000000000e+03 1.070811080932617188e+01 3.626626729965209961e+00 -5.385220646858215332e-01 1.751691699028015137e+00 3.639509081840515137e-01 -8.003087043762207031e-01
1.559000000000000000e+03 7.055550575256347656e+00 -4.927124023437500000e+00 -3.282061815261840820e-01 1.033229708671569824e+00 2.115070372819900513e-01 -5.944885686039924622e-02
1.560000000000000000e+03 5.519626140594482422e+00 -6.373874664306640625e+00 -3.110119998455047607e-01 9.140983223915100098e-01 1.809259057044982910e-01 -5.668597817420959473e-01
1.561000000000000000e+03 5.866603851318359375e+00 -7.071736812591552734e+00 -2.806343436241149902e-01 1.340465426445007324e+00 3.179493546485900879e-01 -4.000627994537353516e-01
1.562000000000000000e+03 8.767318725585937500e+00 4.713403224945068359e+00 -3.442949056625366211e-01 1.078510522842407227e+00 2.202647030353546143e-01 -3.262253105640411377e-01
1.563000000000000000e+03 9.187198638916015625e+00 6.337350368499755859e+00 -5.391071438789367676e-01 1.486012816429138184e+00 2.840717136859893799e-01 -2.505984008312225342e-01
1.564000000000000000e+03 1.057427597045898438e+01 8.446324348449707031e+00 -2.978703677654266357e-01 1.777579665184020996e+00 4.439128041267395020e-01 -5.204460620880126953e-01
1.565000000000000000e+03 9.968846321105957031e+00 7.825192451477050781e+00 -3.598721921443939209e-01 1.675615668296813965e+00 3.947230577468872070e-01 -3.946813046932220459e-01
1.566000000000000000e+03 8.210173606872558594e+00 6.953790664672851562e+00 -5.116823911666870117e-01 1.364633321762084961e+00 2.558853030204772949e-01 -7.893104106187820435e-02
1.567000000000000000e+03 9.479204177856445312e+00 5.522964477539062500e+00 -4.347755312919616699e-01 1.400078892707824707e+00 2.895910143852233887e-01 -3.861889243125915527e-01
1.568000000000000000e+03 1.179983425140380859e+01 7.020588397979736328e+00 -3.494414389133453369e-01 1.679222583770751953e+00 3.989343345165252686e-01 -4.029758572578430176e-01
1.569000000000000000e+03 9.537909507751464844e+00 4.659165859222412109e+00 -4.589772820472717285e-01 1.303914189338684082e+00 2.534810602664947510e-01 -4.518567323684692383e-01
1.570000000000000000e+03 6.842409610748291016e+00 1.049407672882080078e+01 -3.553447425365447998e-01 1.758515596389770508e+00 4.209512770175933838e-01 2.147038727998733521e-01
1.571000000000000000e+03 7.442246437072753906e+00 8.098136901855468750e+00 -5.409003496170043945e-01 1.460331320762634277e+00 2.758293151855468750e-01 9.634789079427719116e-02
1.572000000000000000e+03 1.222188568115234375e+01 6.500861167907714844e+00 -3.524868786334991455e-01 1.651802182197570801e+00 3.897945880889892578e-01 -2.996308803558349609e-01
1.573000000000000000e+03 7.714720249176025391e+00 -4.781858444213867188e+00 -3.692198693752288818e-01 1.228704690933227539e+00 2.578454613685607910e-01 1.812133789062500000e-01
1.574000000000000000e+03 2.222086524963378906e+01 -1.161231994628906250e+01 6.774325370788574219e-01 8.770282745361328125e+00 2.834314584732055664e+00 6.788260340690612793e-01
1.575000000000000000e+03 7.077661132812500000e+01 -2.589348793029785156e+01 -3.077363595366477966e-02 7.856463432312011719e+00 2.347707033157348633e+00 -1.849214136600494385e-01
1.576000000000000000e+03 6.965503692626953125e+01 -3.120189666748046875e+01 -5.951552838087081909e-02 7.912294387817382812e+00 2.355833768844604492e+00 -1.527870893478393555e-01
1.577000000000000000e+03 7.131690979003906250e+01 -3.271612930297851562e+01 -5.400269106030464172e-02 7.944024562835693359e+00 2.367006540298461914e+00 -1.222053915262222290e-01
1.578000000000000000e+03 7.310990905761718750e+01 -3.365824890136718750e+01 -4.385069012641906738e-02 7.974880218505859375e+00 2.379308938980102539e+00 -9.518720209598541260e-02
1.579000000000000000e+03 1.060190773010253906e+01 2.142144393920898438e+01 1.257527709007263184e+00 2.980228185653686523e+00 1.271326780319213867e+00 2.038500756025314331e-01
1.580000000000000000e+03 7.279622650146484375e+01 -2.248401832580566406e+01 -9.211711585521697998e-03 7.812360286712646484e+00 2.340944528579711914e+00 -1.660846322774887085e-01
1.581000000000000000e+03 7.381878662109375000e+01 -2.415072059631347656e+01 -1.086105592548847198e-02 7.846381664276123047e+00 2.350656270980834961e+00 -1.448332816362380981e-01
1.582000000000000000e+03 7.261612701416015625e+01 -2.365968704223632812e+01 -1.231978833675384521e-02 7.833135604858398438e+00 2.346244812011718750e+00 -1.643908321857452393e-01
1.583000000000000000e+03 1.088258934020996094e+01 2.505990791320800781e+01 -4.581122845411300659e-02 3.550112485885620117e+00 1.051290392875671387e+00 -5.558416247367858887e-01
1.584000000000000000e+03 9.799529075622558594e+00 3.204668807983398438e+01 -4.472509920597076416e-01 3.080505132675170898e+00 7.899762392044067383e-01 -6.198088526725769043e-01
1.585000000000000000e+03 7.265304565429687500e+01 2.628205490112304688e+01 -1.582804508507251740e-02 7.787808895111083984e+00 2.331594228744506836e+00 1.361779421567916870e-01
1.586000000000000000e+03 7.203083801269531250e+01 2.281543540954589844e+01 -6.565334741026163101e-03 7.734987735748291016e+00 2.318526744842529297e+00 1.569112539291381836e-01
1.587000000000000000e+03 7.031243133544921875e+01 1.697448730468750000e+01 2.550061047077178955e-02 7.661351203918457031e+00 2.306055545806884766e+00 1.700744479894638062e-01
1.588000000000000000e+03 7.204570007324218750e+01 1.682450866699218750e+01 1.979203522205352783e-02 7.648900032043457031e+00 2.300607681274414062e+00 1.457568556070327759e-01
1.589000000000000000e+03 7.085247039794921875e+01 1.022229957580566406e+01 5.316984280943870544e-02 7.583640098571777344e+00 2.291043043136596680e+00 1.095199137926101685e-01
1.590000000000000000e+03 7.235229492187500000e+01 1.010969734191894531e+01 3.713848069310188293e-02 7.568936824798583984e+00 2.281822681427001953e+00 9.662610292434692383e-02
1.591000000000000000e+03 7.253550720214843750e+01 -8.069418907165527344e+00 4.271618276834487915e-02 7.581581592559814453e+00 2.287289381027221680e+00 -1.138229072093963623e-01
1.592000000000000000e+03 7.259941101074218750e+01 -9.489590644836425781e+00 3.627166897058486938e-02 7.599475383758544922e+00 2.290724277496337891e+00 -1.269617974758148193e-01
1.593000000000000000e+03 7.259704589843750000e+01 -1.093155670166015625e+01 3.333935886621475220e-02 7.618840694427490234e+00 2.295654058456420898e+00 -1.398753672838211060e-01
1.594000000000000000e+03 7.019300842285156250e+01 4.695816516876220703e+00 8.256153017282485962e-02 7.555412292480468750e+00 2.291392087936401367e+00 4.400296881794929504e-02
1.595000000000000000e+03 7.225741577148437500e+01 -1.413092017173767090e+00 5.295102298259735107e-02 7.534448146820068359e+00 2.276219606399536133e+00 -3.858529031276702881e-02
1.596000000000000000e+03 7.173027801513671875e+01 -4.577404499053955078e+00 5.746205896139144897e-02 7.559310436248779297e+00 2.285031795501708984e+00 -8.301243185997009277e-02
1.597000000000000000e+03 7.278670501708984375e+01 -4.078524589538574219e+00 4.497652128338813782e-02 7.541509151458740234e+00 2.275945663452148438e+00 -6.776165962219238281e-02
1.598000000000000000e+03 7.266934967041015625e+01 -1.642647933959960938e+01 1.334860734641551971e-02 7.706981182098388672e+00 2.316098928451538086e+00 -1.702366173267364502e-01
1.599000000000000000e+03 7.270855712890625000e+01 -1.774997711181640625e+01 5.946507211774587631e-03 7.729802608489990234e+00 2.320724725723266602e+00 -1.709274202585220337e-01
1.600000000000000000e+03 7.371548461914062500e+01 5.901596546173095703e+00 3.415628895163536072e-02 7.518178939819335938e+00 2.265700578689575195e+00 4.476149380207061768e-02
1.601000000000000000e+03 7.268172454833984375e+01 2.784803199768066406e+01 -1.898583583533763885e-02 7.806108474731445312e+00 2.336136817932128906e+00 1.300083696842193604e-01
1.602000000000000000e+03 7.271173858642578125e+01 -1.520893669128417969e+01 1.717914082109928131e-02 7.681105613708496094e+00 2.309485435485839844e+00 -1.611680686473846436e-01
1.603000000000000000e+03 7.400969696044921875e+01 1.964407730102539062e+01 4.499745089560747147e-03 7.680315017700195312e+00 2.305444478988647461e+00 1.266068220138549805e-01
1.604000000000000000e+03 7.163887023925781250e+01 -2.748069572448730469e+01 -3.075178340077400208e-02 7.884207725524902344e+00 2.356036901473999023e+00 -1.610158234834671021e-01
1.605000000000000000e+03 6.587004184722900391e+00 2.661568450927734375e+01 -3.226236999034881592e-01 2.158190965652465820e+00 5.506702065467834473e-01 -7.775624990463256836e-01
1.606000000000000000e+03 8.155071258544921875e+00 -2.543127250671386719e+01 -3.142387568950653076e-01 2.922696352005004883e+00 7.825372815132141113e-01 6.399694681167602539e-01
1.607000000000000000e+03 6.502953529357910156e+00 -2.629046630859375000e+01 -3.436613678932189941e-01 2.207793474197387695e+00 5.592396259307861328e-01 8.139212131500244141e-01
1.608000000000000000e+03 6.233351230621337891e+00 2.041948509216308594e+01 3.740707039833068848e-01 3.780642747879028320e+00 1.246414065361022949e+00 -7.779676914215087891e-01
1.609000000000000000e+03 5.678576946258544922e+00 1.331788349151611328e+01 -3.336612507700920105e-02 2.255119085311889648e+00 6.665259003639221191e-01 8.434455394744873047e-01
1.610000000000000000e+03 5.132920742034912109e+00 1.099800872802734375e+01 -3.737267553806304932e-01 1.051194548606872559e+00 2.032403349876403809e-01 7.676439881324768066e-01
1.611000000000000000e+03 7.922361850738525391e+00 2.853146171569824219e+01 -3.908598124980926514e-01 2.611680030822753906e+00 6.662460565567016602e-01 -7.322570085525512695e-01
1.612000000000000000e+03 5.484698295593261719e+00 6.176867961883544922e+00 -2.716310620307922363e-01 4.366108477115631104e-01 4.949393868446350098e-02 3.451474010944366455e-01
1.613000000000000000e+03 5.994166374206542969e+00 1.072336483001708984e+01 -5.575261712074279785e-01 1.714077711105346680e+00 3.469654619693756104e-01 4.860236346721649170e-01
1.614000000000000000e+03 5.166467666625976562e+00 -7.466198921203613281e+00 -2.991297245025634766e-01 9.900283813476562500e-01 2.072696089744567871e-01 -6.719671487808227539e-01
1.615000000000000000e+03 6.426131725311279297e+00 -7.573508262634277344e+00 -2.534633278846740723e-01 1.614790797233581543e+00 4.083982408046722412e-01 -2.363011538982391357e-01
1.616000000000000000e+03 2.385377693176269531e+01 -8.588688850402832031e+00 1.303961634635925293e+00 9.182973861694335938e+00 3.146080732345581055e+00 2.922593951225280762e-01
1.617000000000000000e+03 2.503573036193847656e+01 2.886504173278808594e+00 1.250891804695129395e+00 9.974787712097167969e+00 3.367703914642333984e+00 -1.442198902368545532e-01
1.618000000000000000e+03 2.598521614074707031e+01 4.674552917480468750e+00 1.305159091949462891e+00 9.491751670837402344e+00 3.239073276519775391e+00 -1.477582603693008423e-01
1.619000000000000000e+03 2.451961135864257812e+01 -5.405474185943603516e+00 1.601894974708557129e+00 9.702438354492187500e+00 3.391299962997436523e+00 4.072141349315643311e-01
1.620000000000000000e+03 2.614347076416015625e+01 -2.263461351394653320e+00 1.442796945571899414e+00 9.512759208679199219e+00 3.286666870117187500e+00 1.847138404846191406e-01
1.621000000000000000e+03 6.949341583251953125e+01 3.504922866821289062e+01 -7.571645826101303101e-02 7.867057323455810547e+00 2.337402343750000000e+00 1.043665260076522827e-01
1.622000000000000000e+03 1.934526443481445312e+01 -1.790183448791503906e+01 2.262063138186931610e-02 6.583589553833007812e+00 1.981863021850585938e+00 1.113413214683532715e+00
1.623000000000000000e+03 7.900246620178222656e+00 2.461019897460937500e+01 -2.421305477619171143e-01 2.866252183914184570e+00 7.872365117073059082e-01 -5.671627521514892578e-01
1.624000000000000000e+03 1.363012790679931641e+01 2.330670738220214844e+01 3.607679009437561035e-01 4.163608551025390625e+00 1.357313036918640137e+00 -7.957493662834167480e-01
1.625000000000000000e+03 1.848128128051757812e+01 -1.584743118286132812e+01 3.350830972194671631e-01 6.652612209320068359e+00 2.096308469772338867e+00 1.502763509750366211e+00
1.626000000000000000e+03 1.857533836364746094e+01 1.807364463806152344e+01 4.630513191223144531e-01 6.870441436767578125e+00 2.200047969818115234e+00 -1.269080996513366699e+00
1.627000000000000000e+03 2.437369537353515625e+01 1.864077568054199219e+01 1.040040329098701477e-01 7.713560581207275391e+00 2.345269441604614258e+00 -1.857364624738693237e-01
1.628000000000000000e+03 7.254419708251953125e+01 -1.387494945526123047e+01 2.130672708153724670e-02 7.664689064025878906e+00 2.305798768997192383e+00 -1.572802513837814331e-01
1.629000000000000000e+03 1.642989921569824219e+01 2.405036354064941406e+01 -6.169447675347328186e-02 5.275450229644775391e+00 1.564126729965209961e+00 -8.414497971534729004e-01
1.630000000000000000e+03 1.559245586395263672e+01 2.295707130432128906e+01 1.902532428503036499e-01 4.971111774444580078e+00 1.548409461975097656e+00 -1.023109555244445801e+00
1.631000000000000000e+03 7.247539520263671875e+01 -6.615134239196777344e+00 4.234584048390388489e-02 7.568179607391357422e+00 2.283157587051391602e+00 -9.850061684846878052e-02
1.632000000000000000e+03 7.230013275146484375e+01 1.537606525421142578e+01 2.280906774103641510e-02 7.628710269927978516e+00 2.295455932617187500e+00 1.372607350349426270e-01
1.633000000000000000e+03 7.213443756103515625e+01 1.986482620239257812e+01 8.026788942515850067e-03 7.691305637359619141e+00 2.309799671173095703e+00 1.536274701356887817e-01
1.634000000000000000e+03 7.408361911773681641e+00 2.188312149047851562e+01 9.243761003017425537e-02 3.299899816513061523e+00 1.017701268196105957e+00 -2.185078710317611694e-01
1.635000000000000000e+03 1.237449073791503906e+01 -2.491633033752441406e+01 -1.237297430634498596e-01 3.907526016235351562e+00 1.135138869285583496e+00 6.407906413078308105e-01
1.636000000000000000e+03 7.059725189208984375e+01 2.821090126037597656e+01 -3.205452486872673035e-02 7.804293632507324219e+00 2.331671714782714844e+00 1.539235562086105347e-01
1.637000000000000000e+03 2.596913337707519531e+01 -7.105844497680664062e+00 1.428997278213500977e+00 8.994384765625000000e+00 3.127014636993408203e+00 6.374887377023696899e-02
1.638000000000000000e+03 2.206006050109863281e+01 1.687618827819824219e+01 3.493767082691192627e-01 7.863787174224853516e+00 2.463949203491210938e+00 -5.858053565025329590e-01
1.639000000000000000e+03 1.140952587127685547e+01 4.004783630371093750e+00 -7.505818009376525879e-01 2.028475761413574219e+00 3.833682239055633545e-01 -6.314932703971862793e-01
1.640000000000000000e+03 1.190022277832031250e+01 4.836123943328857422e+00 -7.602078914642333984e-01 2.033955574035644531e+00 3.821243345737457275e-01 -2.888515591621398926e-01
1.641000000000000000e+03 5.907684803009033203e+00 6.888552665710449219e+00 -3.703001439571380615e-01 7.662841677665710449e-01 1.187952086329460144e-01 3.728149235248565674e-01
1.642000000000000000e+03 6.554708003997802734e+00 7.117182731628417969e+00 -4.518155753612518311e-01 9.738786816596984863e-01 1.566189378499984741e-01 2.321423143148422241e-01
1.643000000000000000e+03 1.026764678955078125e+01 5.745345592498779297e+00 -5.725087523460388184e-01 1.607926964759826660e+00 3.106254637241363525e-01 -4.032392203807830811e-01
1.644000000000000000e+03 8.748568534851074219e+00 5.455600738525390625e+00 -4.391527175903320312e-01 1.192371487617492676e+00 2.259656190872192383e-01 -2.614287734031677246e-01
1.645000000000000000e+03 8.934392929077148438e+00 7.749949932098388672e+00 -4.773795902729034424e-01 1.619966030120849609e+00 3.427759408950805664e-01 -1.878604739904403687e-01
1.646000000000000000e+03 1.080192279815673828e+01 4.215684890747070312e+00 -6.971219182014465332e-01 1.800901770591735840e+00 3.311339318752288818e-01 -6.172333359718322754e-01
1.647000000000000000e+03 9.305312156677246094e+00 8.463912963867187500e+00 -4.096543490886688232e-01 1.821306824684143066e+00 4.234957396984100342e-01 -4.018290638923645020e-01
1.648000000000000000e+03 1.168319225311279297e+01 4.434235572814941406e+00 -7.892971038818359375e-01 2.042827367782592773e+00 3.760591149330139160e-01 -4.006979763507843018e-01
1.649000000000000000e+03 8.239457130432128906e+00 7.952780246734619141e+00 -4.067162871360778809e-01 1.515934586524963379e+00 3.327654898166656494e-01 -1.420440077781677246e-01
1.650000000000000000e+03 8.908783912658691406e+00 7.056669235229492188e+00 -4.120508432388305664e-01 1.488155245780944824e+00 3.228313028812408447e-01 -2.497702687978744507e-01
1.651000000000000000e+03 7.223970031738281250e+01 -1.948196601867675781e+01 6.474079418694600463e-05 7.760405063629150391e+00 2.328140974044799805e+00 -1.792155653238296509e-01
1.652000000000000000e+03 7.194570159912109375e+01 -2.482987976074218750e+01 -1.996988803148269653e-02 7.848711013793945312e+00 2.348622322082519531e+00 -1.710111498832702637e-01
1.653000000000000000e+03 7.235714721679687500e+01 1.149921703338623047e+01 3.510668873786926270e-02 7.581842899322509766e+00 2.285084724426269531e+00 1.073203310370445251e-01
1.654000000000000000e+03 7.207908630371093750e+01 6.043198585510253906e+00 5.266841128468513489e-02 7.540908336639404297e+00 2.278073072433471680e+00 5.358075723052024841e-02
1.655000000000000000e+03 7.198053741455078125e+01 3.098789215087890625e+00 5.808166414499282837e-02 7.532737731933593750e+00 2.277245759963989258e+00 1.774830184876918793e-02
1.656000000000000000e+03 7.060525512695312500e+01 -1.794762969017028809e+00 7.778139412403106689e-02 7.554032325744628906e+00 2.289544105529785156e+00 -5.279341712594032288e-02
1.657000000000000000e+03 7.108089447021484375e+01 -3.291067838668823242e+00 6.776611506938934326e-02 7.558269500732421875e+00 2.287810802459716797e+00 -7.028564065694808960e-02
1.658000000000000000e+03 7.251197814941406250e+01 -2.815763711929321289e+00 5.141509324312210083e-02 7.536618232727050781e+00 2.276409864425659180e+00 -5.517649650573730469e-02
1.659000000000000000e+03 1.098486995697021484e+01 6.170572280883789062e+00 -4.946751594543457031e-01 1.721928119659423828e+00 3.681758940219879150e-01 -4.098191261291503906e-01
1.660000000000000000e+03 9.863228797912597656e+00 6.615763187408447266e+00 -4.298680722713470459e-01 1.575917840003967285e+00 3.438149392604827881e-01 -3.583736121654510498e-01
1.661000000000000000e+03 7.014823913574218750e+01 3.053813695907592773e+00 8.170874416828155518e-02 7.552351951599121094e+00 2.290218353271484375e+00 2.053510397672653198e-02
1.662000000000000000e+03 7.177335357666015625e+01 -2.277152824401855469e+01 -1.272423658519983292e-02 7.814046859741210938e+00 2.340396881103515625e+00 -1.814904958009719849e-01
1.663000000000000000e+03 7.137543487548828125e+01 -1.090206813812255859e+01 4.064540565013885498e-02 7.628626346588134766e+00 2.300781488418579102e+00 -1.558676958084106445e-01
1.664000000000000000e+03 7.251905822753906250e+01 1.415734100341796875e+01 2.692993171513080597e-02 7.608250617980957031e+00 2.290554285049438477e+00 1.241702735424041748e-01
1.665000000000000000e+03 7.084279632568359375e+01 1.166904640197753906e+01 4.748341068625450134e-02 7.597425937652587891e+00 2.293472766876220703e+00 1.257514357566833496e-01
1.666000000000000000e+03 7.062329864501953125e+01 1.866041183471679688e+01 1.488528586924076080e-02 7.682869911193847656e+00 2.309326648712158203e+00 1.722597479820251465e-01
1.667000000000000000e+03 7.095939636230468750e+01 1.313844108581542969e+01 4.103361815214157104e-02 7.612834930419921875e+00 2.296160697937011719e+00 1.370593756437301636e-01
1.668000000000000000e+03 7.161974334716796875e+01 -2.053089523315429688e+01 -4.708549939095973969e-03 7.777781486511230469e+00 2.331921815872192383e+00 -1.883387267589569092e-01
1.669000000000000000e+03 7.891277790069580078e+00 3.014242553710937500e+01 -3.777175545692443848e-01 2.545752763748168945e+00 6.504105925559997559e-01 -7.245146036148071289e-01
1.670000000000000000e+03 1.097035217285156250e+01 2.938111495971679688e+01 -4.118482172489166260e-01 3.466510295867919922e+00 9.163986444473266602e-01 -6.493237018585205078e-01
1.671000000000000000e+03 7.055377960205078125e+01 2.604011726379394531e+01 -2.753914147615432739e-02 7.780035495758056641e+00 2.325748920440673828e+00 1.686646789312362671e-01
1.672000000000000000e+03 7.110118103027343750e+01 -2.993032264709472656e+01 -4.356024414300918579e-02 7.910159111022949219e+00 2.359979629516601562e+00 -1.476067006587982178e-01
1.673000000000000000e+03 2.253774452209472656e+01 5.695247650146484375e+00 1.161595225334167480e+00 1.063696002960205078e+01 3.539566516876220703e+00 -7.246544957160949707e-01
1.674000000000000000e+03 2.415274238586425781e+01 5.172347545623779297e+00 1.251018881797790527e+00 1.000880908966064453e+01 3.377948284149169922e+00 -4.030014574527740479e-01
1.675000000000000000e+03 2.381225776672363281e+01 -1.023408126831054688e+01 9.680050015449523926e-01 9.005989074707031250e+00 2.992198228836059570e+00 3.266502618789672852e-01
1.676000000000000000e+03 2.336277961730957031e+01 -1.324826526641845703e+01 4.112028479576110840e-01 8.332715988159179688e+00 2.623175621032714844e+00 4.132587909698486328e-01
1.677000000000000000e+03 9.093900680541992188e+00 2.855719375610351562e+01 -3.768845200538635254e-01 2.975954294204711914e+00 7.797209024429321289e-01 -7.194886207580566406e-01
1.678000000000000000e+03 9.919910430908203125e+00 2.297369956970214844e+01 1.860307604074478149e-01 3.368802785873413086e+00 1.066449999809265137e+00 -2.636628448963165283e-01
1.679000000000000000e+03 2.588143539428710938e+01 -1.014779686927795410e+00 1.389255523681640625e+00 9.644087791442871094e+00 3.310003042221069336e+00 1.905317306518554688e-01
1.680000000000000000e+03 6.932199859619140625e+01 -7.181050300598144531e+00 8.151089400053024292e-02 7.598929405212402344e+00 2.304132223129272461e+00 -1.359795629978179932e-01
1.681000000000000000e+03 2.539022445678710938e+01 1.646320104598999023e+00 1.258034467697143555e+00 9.871660232543945312e+00 3.338908433914184570e+00 -3.878815472126007080e-02
1.682000000000000000e+03 7.065193176269531250e+01 7.702888488769531250e+00 6.733089685440063477e-02 7.566788196563720703e+00 2.290235757827758789e+00 8.315343409776687622e-02
1.683000000000000000e+03 7.092406463623046875e+01 8.882091522216796875e+00 5.501701682806015015e-02 7.572919368743896484e+00 2.288381099700927734e+00 9.696090966463088989e-02
1.684000000000000000e+03 2.107501220703125000e+01 1.951342391967773438e+01 5.074012279510498047e-02 7.253599166870117188e+00 2.191301822662353516e+00 -6.750847697257995605e-01
1.685000000000000000e+03 2.421540451049804688e+01 1.225313186645507812e+01 9.576109647750854492e-01 8.788256645202636719e+00 2.923760414123535156e+00 -3.578353226184844971e-01
1.686000000000000000e+03 1.744858169555664062e+01 2.102976226806640625e+01 1.637830883264541626e-01 5.846757888793945312e+00 1.803162217140197754e+00 -1.182351350784301758e+00
1.687000000000000000e+03 1.566017341613769531e+01 -2.358491134643554688e+01 -1.106663271784782410e-01 4.820140838623046875e+00 1.412842392921447754e+00 8.031442165374755859e-01
1.688000000000000000e+03 2.523490524291992188e+01 -4.064383506774902344e+00 1.542172551155090332e+00 9.597885131835937500e+00 3.342017173767089844e+00 3.510069847106933594e-01
1.689000000000000000e+03 2.645909500122070312e+01 -3.333329677581787109e+00 1.506460428237915039e+00 9.369824409484863281e+00 3.262885570526123047e+00 2.225096821784973145e-01
1.690000000000000000e+03 7.713403701782226562e+00 -2.757776069641113281e+01 -3.647359013557434082e-01 2.611465692520141602e+00 6.740189194679260254e-01 7.616365551948547363e-01
1.691000000000000000e+03 1.039707183837890625e+01 -2.155573272705078125e+01 6.822719573974609375e-01 2.877663373947143555e+00 1.067980647087097168e+00 2.823016047477722168e-01
1.692000000000000000e+03 7.130797576904296875e+01 1.457229900360107422e+01 3.165082633495330811e-02 7.627151489257812500e+00 2.297640800476074219e+00 1.439615637063980103e-01
1.693000000000000000e+03 6.994481658935546875e+01 -1.216996765136718750e+01 4.605599492788314819e-02 7.651356220245361328e+00 2.309223651885986328e+00 -1.830039918422698975e-01
1.694000000000000000e+03 2.205895805358886719e+01 -2.096096611022949219e+01 -3.588382601737976074e-01 6.846746921539306641e+00 1.946372509002685547e+00 5.178878307342529297e-01
1.695000000000000000e+03 2.067390441894531250e+01 -1.528527164459228516e+01 1.886727660894393921e-01 7.516489982604980469e+00 2.311548709869384766e+00 1.018689155578613281e+00
1.696000000000000000e+03 2.002823257446289062e+01 -1.657967758178710938e+01 6.840366125106811523e-02 7.091112136840820312e+00 2.147854566574096680e+00 1.078706979751586914e+00
1.697000000000000000e+03 2.226255989074707031e+01 -1.595612812042236328e+01 3.605900332331657410e-02 7.708288669586181641e+00 2.323304176330566406e+00 6.117222309112548828e-01
1.698000000000000000e+03 8.092669486999511719e+00 3.559876632690429688e+01 -3.464429378509521484e-01 2.650016546249389648e+00 6.910721063613891602e-01 -4.122889041900634766e-01
1.699000000000000000e+03 1.685424804687500000e+01 -2.239915275573730469e+01 -1.233026459813117981e-01 5.250627040863037109e+00 1.538197398185729980e+00 9.156923890113830566e-01
1.700000000000000000e+03 7.007841491699218750e+01 -2.834884071350097656e+01 -4.858985543251037598e-02 7.884746551513671875e+00 2.350847005844116211e+00 -1.770144402980804443e-01
1.701000000000000000e+03 7.231113433837890625e+01 -2.896037673950195312e+01 -3.082710690796375275e-02 7.910861492156982422e+00 2.364010334014892578e+00 -1.431037485599517822e-01
1.702000000000000000e+03 7.131693267822265625e+01 3.027533149719238281e+01 -3.624642640352249146e-02 7.830897331237792969e+00 2.338395118713378906e+00 1.338092088699340820e-01
1.703000000000000000e+03 2.271163940429687500e+01 1.938109397888183594e+01 4.194222856312990189e-03 7.508523941040039062e+00 2.253815412521362305e+00 -3.955864608287811279e-01
1.704000000000000000e+03 8.023806571960449219e+00 2.623316001892089844e+01 -3.424327075481414795e-01 2.706613540649414062e+00 7.092542648315429688e-01 -7.612991333007812500e-01
1.705000000000000000e+03 9.369308471679687500e+00 -3.450900650024414062e+01 -3.663374781608581543e-01 3.112454175949096680e+00 8.238350152969360352e-01 4.289828538894653320e-01
1.706000000000000000e+03 1.105722332000732422e+01 -3.159756469726562500e+01 -4.627850055694580078e-01 3.529824733734130859e+00 9.201118946075439453e-01 5.756849050521850586e-01
1.707000000000000000e+03 1.948900794982910156e+01 2.082827758789062500e+01 -2.369648590683937073e-02 6.577879905700683594e+00 1.966255068778991699e+00 -8.568523526191711426e-01
1.708000000000000000e+03 2.778741073608398438e+01 -5.596325874328613281e+00 1.433731555938720703e+00 8.786443710327148438e+00 3.066052436828613281e+00 -7.756720762699842453e-03
1.709000000000000000e+03 2.641372680664062500e+01 -4.396832466125488281e+00 1.550330638885498047e+00 9.242083549499511719e+00 3.237724065780639648e+00 2.191882878541946411e-01
1.710000000000000000e+03 9.454942703247070312e+00 7.316982269287109375e+00 -4.937274456024169922e-01 1.668741226196289062e+00 3.525041341781616211e-01 -3.237334787845611572e-01
1.711000000000000000e+03 1.066509246826171875e+01 4.884908676147460938e+00 -5.468198060989379883e-01 1.696118116378784180e+00 3.447895050048828125e-01 -4.951310157775878906e-01
1.712000000000000000e+03 5.301177501678466797e+00 7.428175449371337891e+00 -3.216032087802886963e-01 5.988534688949584961e-01 8.317507803440093994e-02 4.524637162685394287e-01
1.713000000000000000e+03 7.094489288330078125e+01 -6.756095886230468750e+00 6.157709658145904541e-02 7.581313610076904297e+00 2.292867183685302734e+00 -1.135645881295204163e-01
1.714000000000000000e+03 7.061517333984375000e+01 -5.336698055267333984e+00 6.686426699161529541e-02 7.573729515075683594e+00 2.292178153991699219e+00 -1.009961366653442383e-01
1.715000000000000000e+03 7.028728485107421875e+01 6.340194225311279297e+00 7.468529045581817627e-02 7.562025070190429688e+00 2.291013002395629883e+00 6.943189352750778198e-02
1.716000000000000000e+03 6.816442108154296875e+01 2.955865859985351562e+00 1.167438179254531860e-01 7.566434860229492188e+00 2.304953575134277344e+00 1.978977024555206299e-02
1.717000000000000000e+03 6.923383331298828125e+01 -2.666997909545898438e+01 -4.759536683559417725e-02 7.859822750091552734e+00 2.343668222427368164e+00 -2.009455412626266479e-01
1.718000000000000000e+03 7.025952911376953125e+01 -9.727391242980957031e+00 5.662230029702186584e-02 7.619698047637939453e+00 2.302896022796630859e+00 -1.575767993927001953e-01
1.719000000000000000e+03 7.029187774658203125e+01 -1.082161617279052734e+01 5.268963426351547241e-02 7.631673812866210938e+00 2.305309057235717773e+00 -1.688401997089385986e-01
1.720000000000000000e+03 6.920786285400390625e+01 -1.851602935791015625e+01 8.779499679803848267e-03 7.743649005889892578e+00 2.325728654861450195e+00 -2.286699116230010986e-01
1.721000000000000000e+03 7.045206451416015625e+01 -1.951352500915527344e+01 1.795544056221842766e-03 7.756509780883789062e+00 2.327491521835327148e+00 -2.109835594892501831e-01
1.722000000000000000e+03 6.926377105712890625e+01 1.184662055969238281e+01 6.336803734302520752e-02 7.610749244689941406e+00 2.302235126495361328e+00 1.423000544309616089e-01
1.723000000000000000e+03 6.932629394531250000e+01 1.023580646514892578e+01 7.122413814067840576e-02 7.595623493194580078e+00 2.300054311752319336e+00 1.254987567663192749e-01
1.724000000000000000e+03 6.912267303466796875e+01 1.921876335144042969e+01 1.528767868876457214e-02 7.694671630859375000e+00 2.312987804412841797e+00 1.922802478075027466e-01
1.725000000000000000e+03 6.861177825927734375e+01 1.748120307922363281e+01 2.889220044016838074e-02 7.676850318908691406e+00 2.311722755432128906e+00 1.942143291234970093e-01
1.726000000000000000e+03 6.889055633544921875e+01 -2.113826274871826172e+00 1.004621684551239014e-01 7.568416118621826172e+00 2.300663471221923828e+00 -6.270198523998260498e-02
1.727000000000000000e+03 2.424644851684570312e+01 9.233464241027832031e+00 1.217762708663940430e+00 9.293970108032226562e+00 3.153519868850708008e+00 -4.389794170856475830e-01
1.728000000000000000e+03 2.357360267639160156e+01 6.252191066741943359e+00 1.254854083061218262e+00 9.982084274291992188e+00 3.371081590652465820e+00 -5.418398976325988770e-01
1.729000000000000000e+03 7.117123413085937500e+01 -8.184754371643066406e+00 5.438958853483200073e-02 7.595083713531494141e+00 2.294842004776000977e+00 -1.297950148582458496e-01
1.730000000000000000e+03 6.982706451416015625e+01 -8.577873229980468750e+00 7.015880942344665527e-02 7.608211040496826172e+00 2.303510904312133789e+00 -1.493669748306274414e-01
1.731000000000000000e+03 7.604119777679443359e+00 2.316665649414062500e+01 -2.620841860771179199e-01 2.953528881072998047e+00 8.074333667755126953e-01 -6.237722039222717285e-01
1.732000000000000000e+03 9.286153793334960938e+00 2.590305328369140625e+01 -2.745907604694366455e-01 3.173477649688720703e+00 8.696660399436950684e-01 -6.082209348678588867e-01
1.733000000000000000e+03 7.148385620117187500e+01 -1.570718288421630859e+01 1.994816586375236511e-02 7.697728633880615234e+00 2.315303087234497070e+00 -1.844445168972015381e-01
1.734000000000000000e+03 8.493471145629882812e+00 6.133220195770263672e+00 -3.733673095703125000e-01 1.217117309570312500e+00 2.531250119209289551e-01 -1.703506559133529663e-01
1.735000000000000000e+03 7.028477478027343750e+01 -1.693436241149902344e+01 1.728757098317146301e-02 7.717253208160400391e+00 2.320362329483032227e+00 -2.081993371248245239e-01
1.736000000000000000e+03 7.121585083007812500e+01 -1.239070796966552734e+01 3.756527230143547058e-02 7.648040771484375000e+00 2.305681705474853516e+00 -1.701041013002395630e-01
1.737000000000000000e+03 6.986641693115234375e+01 1.519310951232910156e+01 3.904023021459579468e-02 7.641549110412597656e+00 2.304176807403564453e+00 1.642174720764160156e-01
1.738000000000000000e+03 6.942317199707031250e+01 1.349051284790039062e+01 5.269780755043029785e-02 7.624955177307128906e+00 2.303295850753784180e+00 1.571489274501800537e-01
1.739000000000000000e+03 2.645900344848632812e+01 3.495731353759765625e+00 1.316482663154602051e+00 9.427603721618652344e+00 3.223226070404052734e+00 -8.797998726367950439e-02
1.740000000000000000e+03 7.210202026367187500e+01 8.513605594635009766e-02 5.812236666679382324e-02 7.531586170196533203e+00 2.276912450790405273e+00 -2.109942398965358734e-02
1.741000000000000000e+03 2.475134468078613281e+01 1.641406059265136719e+01 3.822116255760192871e-01 8.005013465881347656e+00 2.516167640686035156e+00 -1.537266820669174194e-01
1.742000000000000000e+03 7.223097229003906250e+01 7.395436286926269531e+00 4.919119924306869507e-02 7.546749114990234375e+00 2.278782129287719727e+00 6.992322951555252075e-02
1.743000000000000000e+03 1.179565525054931641e+01 3.107502937316894531e+01 -4.869587719440460205e-01 3.720642328262329102e+00 9.701050519943237305e-01 -5.731281638145446777e-01
1.744000000000000000e+03 9.425877571105957031e+00 3.004013252258300781e+01 -4.117528498172760010e-01 3.035557270050048828e+00 7.871413230895996094e-01 -6.778303980827331543e-01
1.745000000000000000e+03 9.591535568237304688e+00 2.694791793823242188e+01 -3.626535832881927490e-01 3.168145895004272461e+00 8.416476845741271973e-01 -7.188352346420288086e-01
1.746000000000000000e+03 9.391073226928710938e+00 -2.623961257934570312e+01 -3.383740484714508057e-01 3.161174297332763672e+00 8.468400835990905762e-01 6.694586277008056641e-01
1.747000000000000000e+03 2.598201751708984375e+01 -1.045514106750488281e+01 9.284855127334594727e-01 8.562258720397949219e+00 2.847223281860351562e+00 -4.528339952230453491e-02
1.748000000000000000e+03 7.164641571044921875e+01 2.095436668395996094e+01 1.580888871103525162e-03 7.710167884826660156e+00 2.313524484634399414e+00 1.613190770149230957e-01
1.749000000000000000e+03 6.981004333496093750e+01 2.076458740234375000e+01 4.605421796441078186e-03 7.711214542388916016e+00 2.314745903015136719e+00 1.857657432556152344e-01
1.750000000000000000e+03 7.091169738769531250e+01 -2.167393684387207031e+01 -9.675210341811180115e-03 7.792464256286621094e+00 2.334836721420288086e+00 -1.997987329959869385e-01
1.751000000000000000e+03 6.923664855957031250e+01 -2.200538444519042969e+01 -1.446956582367420197e-02 7.791479110717773438e+00 2.333102941513061523e+00 -2.252697050571441650e-01
1.752000000000000000e+03 2.103970146179199219e+01 -1.867889213562011719e+01 -1.614501327276229858e-01 6.942790508270263672e+00 2.034402132034301758e+00 7.651611566543579102e-01
1.753000000000000000e+03 2.505070877075195312e+01 -1.378842067718505859e+01 3.511511683464050293e-01 8.188290596008300781e+00 2.561832427978515625e+00 1.304827928543090820e-01
1.754000000000000000e+03 2.283364868164062500e+01 -1.461614513397216797e+01 2.115559726953506470e-01 7.986535549163818359e+00 2.459427356719970703e+00 5.143724083900451660e-01
1.755000000000000000e+03 7.130054473876953125e+01 2.425284385681152344e+01 -1.084188092499971390e-02 7.754475116729736328e+00 2.323090076446533203e+00 1.662057936191558838e-01
1.756000000000000000e+03 6.972998809814453125e+01 2.326344108581542969e+01 -1.047417521476745605e-02 7.742684364318847656e+00 2.319663047790527344e+00 1.851164549589157104e-01
1.757000000000000000e+03 2.512464523315429688e+01 1.376048374176025391e+01 7.223290801048278809e-01 8.384144783020019531e+00 2.731942176818847656e+00 -1.690803021192550659e-01
1.758000000000000000e+03 8.639944076538085938e+00 -2.713562774658203125e+01 -3.796685636043548584e-01 3.030305385589599609e+00 7.951910495758056641e-01 6.667965650558471680e-01
1.759000000000000000e+03 1.324188899993896484e+01 -2.358216667175292969e+01 7.687689363956451416e-02 3.971548318862915039e+00 1.214527606964111328e+00 7.207565307617187500e-01
1.760000000000000000e+03 2.736612129211425781e+01 5.258459568023681641e+00 1.327613711357116699e+00 9.069627761840820312e+00 3.119172573089599609e+00 -6.589593738317489624e-02
1.761000000000000000e+03 2.415948677062988281e+01 -6.989263534545898438e+00 1.582048892974853516e+00 9.442612648010253906e+00 3.307398557662963867e+00 4.132825136184692383e-01
1.762000000000000000e+03 6.662644958496093750e+01 -3.012600326538085938e+01 -9.894324094057083130e-02 7.882807254791259766e+00 2.335159063339233398e+00 -1.994479894638061523e-01
1.763000000000000000e+03 2.031435394287109375e+01 -2.009605026245117188e+01 -2.117216140031814575e-01 6.551358222961425781e+00 1.901890993118286133e+00 8.113573789596557617e-01
1.764000000000000000e+03 1.769328308105468750e+01 2.315131568908691406e+01 -1.078236401081085205e-01 5.800220966339111328e+00 1.707719206809997559e+00 -8.903757929801940918e-01
1.765000000000000000e+03 8.537151336669921875e+00 2.747809028625488281e+01 -3.222898542881011963e-01 2.788591146469116211e+00 7.398903965950012207e-01 -7.028886079788208008e-01
1.766000000000000000e+03 2.611123847961425781e+01 -5.657927513122558594e+00 1.527681112289428711e+00 9.083960533142089844e+00 3.183492422103881836e+00 1.761932373046875000e-01
1.767000000000000000e+03 9.088127136230468750e+00 -3.220031738281250000e+01 -3.997670412063598633e-01 3.035782814025878906e+00 7.908046841621398926e-01 5.563722848892211914e-01
1.768000000000000000e+03 7.021417236328125000e+01 -3.468030929565429688e+01 -7.342205941677093506e-02 7.947270393371582031e+00 2.362154483795166016e+00 -1.072597280144691467e-01
1.769000000000000000e+03 6.847010803222656250e+01 2.491071701049804688e+01 -2.519460394978523254e-02 7.767562866210937500e+00 2.322710514068603516e+00 1.972459405660629272e-01
1.770000000000000000e+03 7.079271697998046875e+01 2.198371124267578125e+01 -9.321356192231178284e-04 7.725119590759277344e+00 2.317256212234497070e+00 1.744021475315093994e-01
1.771000000000000000e+03 2.343221092224121094e+01 2.145480918884277344e+01 -2.210833877325057983e-01 7.304178237915039062e+00 2.124928474426269531e+00 -2.753212749958038330e-01
1.772000000000000000e+03 2.122909355163574219e+01 2.143854331970214844e+01 -1.752964109182357788e-01 6.883636474609375000e+00 2.012501955032348633e+00 -5.765210986137390137e-01
1.773000000000000000e+03 1.213860511779785156e+01 3.719654083251953125e+01 -5.756170749664306641e-01 3.758066415786743164e+00 9.547347426414489746e-01 -3.146505355834960938e-01
1.774000000000000000e+03 2.955604934692382812e+01 -6.963819980621337891e+00 1.259943842887878418e+00 8.463155746459960938e+00 2.916929960250854492e+00 -2.089116722345352173e-01
1.775000000000000000e+03 3.064130592346191406e+01 -3.717479705810546875e+00 1.390339851379394531e+00 8.438584327697753906e+00 2.948677301406860352e+00 -8.612903952598571777e-02
1.776000000000000000e+03 9.397513389587402344e+00 -2.825224876403808594e+01 -3.910966217517852783e-01 3.121208429336547852e+00 8.190335631370544434e-01 6.933299303054809570e-01
1.777000000000000000e+03 1.284073162078857422e+01 -2.746854209899902344e+01 -3.570160865783691406e-01 4.070991992950439453e+00 1.114192843437194824e+00 6.362408399581909180e-01
1.778000000000000000e+03 1.505270195007324219e+01 2.410074996948242188e+01 7.907906919717788696e-02 4.687257289886474609e+00 1.429901003837585449e+00 -8.840375542640686035e-01
1.779000000000000000e+03 8.805483818054199219e+00 -2.422867202758789062e+01 -2.793163657188415527e-01 3.103924512863159180e+00 8.473824858665466309e-01 6.028030514717102051e-01
1.780000000000000000e+03 7.022418212890625000e+01 1.457667827606201172e+00 8.373381197452545166e-02 7.549956321716308594e+00 2.290107011795043945e+00 -3.181078936904668808e-03
1.781000000000000000e+03 6.730030822753906250e+01 3.301602554321289062e+01 -8.285257965326309204e-02 7.845498085021972656e+00 2.328793764114379883e+00 1.414972245693206787e-01
1.782000000000000000e+03 6.811924743652343750e+01 2.903655242919921875e+01 -5.491230636835098267e-02 7.811510086059570312e+00 2.326979398727416992e+00 1.754408925771713257e-01
1.783000000000000000e+03 1.834399032592773438e+01 2.006135559082031250e+01 1.975219398736953735e-01 6.355693340301513672e+00 1.965964555740356445e+00 -1.160006523132324219e+00
1.784000000000000000e+03 1.877659988403320312e+01 2.206127166748046875e+01 -7.387124001979827881e-02 6.243985652923583984e+00 1.851034283638000488e+00 -8.844190835952758789e-01
1.785000000000000000e+03 8.585287094116210938e+00 3.811561965942382812e+01 -3.547161221504211426e-01 2.745251655578613281e+00 7.171606421470642090e-01 -2.497231662273406982e-01
1.786000000000000000e+03 6.940089416503906250e+01 -1.037327480316162109e+01 6.340891122817993164e-02 7.631348133087158203e+00 2.308427095413208008e+00 -1.734223663806915283e-01
1.787000000000000000e+03 7.106932830810546875e+01 -1.408516788482666016e+01 2.721062116324901581e-02 7.676748752593994141e+00 2.311187744140625000e+00 -1.841438710689544678e-01
1.788000000000000000e+03 6.622369384765625000e+01 8.216759681701660156e+00 1.281660050153732300e-01 7.596047878265380859e+00 2.317264080047607422e+00 1.177266389131546021e-01
1.789000000000000000e+03 6.881044006347656250e+01 -1.579105186462402344e+01 3.105449490249156952e-02 7.702644348144531250e+00 2.320109605789184570e+00 -2.231385856866836548e-01
1.790000000000000000e+03 1.097562408447265625e+01 -2.386511993408203125e+01 7.007268816232681274e-02 3.377379655838012695e+00 1.034235715866088867e+00 5.350818037986755371e-01
1.791000000000000000e+03 6.803442382812500000e+01 -2.339031791687011719e+01 -2.816335856914520264e-02 7.807290554046630859e+00 2.333738327026367188e+00 -2.368528544902801514e-01
1.792000000000000000e+03 6.850344848632812500e+01 -2.501720428466796875e+01 -4.067303985357284546e-02 7.832031726837158203e+00 2.337407588958740234e+00 -2.246512025594711304e-01
1.793000000000000000e+03 2.621157646179199219e+01 7.721964836120605469e+00 1.253060102462768555e+00 9.040761947631835938e+00 3.088146686553955078e+00 -1.506100893020629883e-01
1.794000000000000000e+03 2.606948661804199219e+01 9.637185096740722656e+00 1.149029135704040527e+00 8.881658554077148438e+00 3.009206295013427734e+00 -1.402325779199600220e-01
1.795000000000000000e+03 6.697251892089843750e+01 1.808958435058593750e+01 3.144890069961547852e-02 7.688146591186523438e+00 2.315878629684448242e+00 2.149391323328018188e-01
1.796000000000000000e+03 6.813389587402343750e+01 1.566352558135986328e+01 4.839630052447319031e-02 7.656650066375732422e+00 2.311513900756835938e+00 1.906933039426803589e-01
1.797000000000000000e+03 2.398478698730468750e+01 1.539013195037841797e+01 5.535262227058410645e-01 8.210642814636230469e+00 2.629250764846801758e+00 -3.370738327503204346e-01
1.798000000000000000e+03 2.340184593200683594e+01 1.085412693023681641e+01 1.132263779640197754e+00 9.118824005126953125e+00 3.075326442718505859e+00 -5.735218524932861328e-01
1.799000000000000000e+03 2.526116943359375000e+01 8.690959930419921875e+00 1.206995010375976562e+00 9.193730354309082031e+00 3.120217561721801758e+00 -2.681660056114196777e-01
1.800000000000000000e+03 2.391550064086914062e+01 -1.661446762084960938e+01 -2.785441093146800995e-02 7.719262123107910156e+00 2.307422399520874023e+00 3.273975253105163574e-01
1.801000000000000000e+03 6.927085113525390625e+01 -2.318206405639648438e+01 -2.368518710136413574e-02 7.809648036956787109e+00 2.335788965225219727e+00 -2.221748977899551392e-01
1.802000000000000000e+03 2.592898941040039062e+01 -8.704975128173828125e+00 1.207590222358703613e+00 8.829083442687988281e+00 3.011002063751220703e+00 4.696993902325630188e-02
1.803000000000000000e+03 1.222226715087890625e+01 2.593751525878906250e+01 -6.595520675182342529e-02 3.901364326477050781e+00 1.150622725486755371e+00 -5.478890538215637207e-01
1.804000000000000000e+03 2.350366783142089844e+01 1.710774993896484375e+01 2.649142742156982422e-01 7.879529953002929688e+00 2.443333387374877930e+00 -3.237637281417846680e-01
1.805000000000000000e+03 2.042613220214843750e+01 2.324155807495117188e+01 -3.020267188549041748e-01 6.539953708648681641e+00 1.871378064155578613e+00 -5.788743495941162109e-01
1.806000000000000000e+03 7.098407745361328125e+01 2.003635406494140625e+01 7.803684566169977188e-03 7.697738647460937500e+00 2.311662673950195312e+00 1.702755689620971680e-01
1.807000000000000000e+03 2.880758857727050781e+01 1.566008687019348145e+00 1.410185813903808594e+00 8.925408363342285156e+00 3.100678443908691406e+00 5.040610954165458679e-02
1.808000000000000000e+03 1.451550769805908203e+01 2.556380081176757812e+01 -1.076258495450019836e-01 4.595980167388916016e+00 1.346506237983703613e+00 -6.831023693084716797e-01
1.809000000000000000e+03 2.544256782531738281e+01 1.527278614044189453e+01 5.291345119476318359e-01 8.200315475463867188e+00 2.618834972381591797e+00 -7.499096542596817017e-02
1.810000000000000000e+03 2.752884292602539062e+01 -4.075877964496612549e-01 1.428517699241638184e+00 9.228637695312500000e+00 3.197146415710449219e+00 7.217343896627426147e-02
1.811000000000000000e+03 3.129502105712890625e+01 3.065492391586303711e+00 1.363737344741821289e+00 8.445299148559570312e+00 2.942710876464843750e+00 7.268705964088439941e-02
1.812000000000000000e+03 1.034700870513916016e+01 2.621078300476074219e+01 -1.810665726661682129e-01 3.401513576507568359e+00 9.661340713500976562e-01 -5.724622607231140137e-01
1.813000000000000000e+03 1.020023536682128906e+01 -2.973122978210449219e+01 -4.223529398441314697e-01 3.371777296066284180e+00 8.848273158073425293e-01 6.360424160957336426e-01
1.814000000000000000e+03 1.148245811462402344e+01 -2.621363830566406250e+01 -2.340566217899322510e-01 3.615080356597900391e+00 1.014307141304016113e+00 6.214986443519592285e-01
1.815000000000000000e+03 2.870016860961914062e+01 6.893849849700927734e+00 1.250439286231994629e+00 8.691815376281738281e+00 2.982676267623901367e+00 5.816681310534477234e-02
1.816000000000000000e+03 2.961253166198730469e+01 -1.061345696449279785e+00 1.454939484596252441e+00 8.752835273742675781e+00 3.062332391738891602e+00 2.311394363641738892e-02
1.817000000000000000e+03 2.782638549804687500e+01 -1.684785962104797363e+00 1.449084401130676270e+00 9.088197708129882812e+00 3.161184549331665039e+00 1.067547127604484558e-01
1.818000000000000000e+03 2.674116516113281250e+01 -1.462155055999755859e+01 2.556753754615783691e-01 8.115333557128906250e+00 2.511302709579467773e+00 -7.172614336013793945e-02
1.819000000000000000e+03 2.787128257751464844e+01 -6.999431610107421875e+00 1.338926672935485840e+00 8.661519050598144531e+00 3.000133752822875977e+00 -4.726477339863777161e-02
1.820000000000000000e+03 6.846237945556640625e+01 -2.928579902648925781e+01 -7.044380158185958862e-02 7.887134552001953125e+00 2.345007181167602539e+00 -1.831808984279632568e-01
1.821000000000000000e+03 6.790991210937500000e+01 -3.274615097045898438e+01 -9.466865658760070801e-02 7.915821552276611328e+00 2.346345901489257812e+00 -1.469691991806030273e-01
1.822000000000000000e+03 1.723239898681640625e+01 2.543737983703613281e+01 -2.958515286445617676e-01 5.484635353088378906e+00 1.556635141372680664e+00 -7.389240860939025879e-01
1.823000000000000000e+03 1.495729351043701172e+01 2.830846977233886719e+01 -4.414777755737304688e-01 4.763173103332519531e+00 1.296508550643920898e+00 -5.715671181678771973e-01
1.824000000000000000e+03 2.087599182128906250e+01 -2.422752380371093750e+01 -5.065761804580688477e-01 6.265818595886230469e+00 1.727772712707519531e+00 5.251904726028442383e-01
1.825000000000000000e+03 2.286737632751464844e+01 -1.955159568786621094e+01 -2.823024392127990723e-01 7.148294448852539062e+00 2.059797525405883789e+00 4.710097312927246094e-01
1.826000000000000000e+03 6.953666687011718750e+01 -1.390370941162109375e+01 4.049757495522499084e-02 7.675576210021972656e+00 2.314822196960449219e+00 -2.036687880754470825e-01
1.827000000000000000e+03 1.066165637969970703e+01 3.447880172729492188e+01 -4.833941161632537842e-01 3.330566167831420898e+00 8.541516065597534180e-01 -5.064572095870971680e-01
1.828000000000000000e+03 1.781811523437500000e+01 2.711386871337890625e+01 -4.666624069213867188e-01 5.559971809387207031e+00 1.527992844581604004e+00 -5.799272060394287109e-01
1.829000000000000000e+03 6.839161682128906250e+01 6.543618679046630859e+00 1.016017720103263855e-01 7.576580047607421875e+00 2.303454637527465820e+00 7.951747626066207886e-02
1.830000000000000000e+03 3.152408027648925781e+01 -2.923980057239532471e-01 1.400346279144287109e+00 8.410675048828125000e+00 2.943306446075439453e+00 1.115233451128005981e-02
1.831000000000000000e+03 6.863385772705078125e+01 -4.647081196308135986e-01 1.095718219876289368e-01 7.564402103424072266e+00 2.302192211151123047e+00 -3.655478730797767639e-02
1.832000000000000000e+03 6.872975158691406250e+01 -3.715339422225952148e+00 9.614539146423339844e-02 7.575482368469238281e+00 2.301488399505615234e+00 -8.723505586385726929e-02
1.833000000000000000e+03 6.925289916992187500e+01 -5.640770435333251953e+00 9.112167358398437500e-02 7.587725162506103516e+00 2.303653955459594727e+00 -1.183202937245368958e-01
1.834000000000000000e+03 7.039353942871093750e+01 -1.429034620523452759e-01 8.144962042570114136e-02 7.550933837890625000e+00 2.289715051651000977e+00 -2.660254575312137604e-02
1.835000000000000000e+03 6.835748291015625000e+01 4.772903442382812500e+00 1.079418361186981201e-01 7.569417953491210938e+00 2.303207874298095703e+00 5.280565470457077026e-02
1.836000000000000000e+03 6.973489379882812500e+01 -2.079170417785644531e+01 -7.073999848216772079e-03 7.776523590087890625e+00 2.330834865570068359e+00 -2.200445383787155151e-01
1.837000000000000000e+03 6.872938537597656250e+01 -1.159128761291503906e+01 6.174372881650924683e-02 7.648290634155273438e+00 2.313010454177856445e+00 -1.946586370468139648e-01
1.838000000000000000e+03 1.148167037963867188e+01 2.372310256958007812e+01 4.089839160442352295e-01 3.523158311843872070e+00 1.179642677307128906e+00 -3.667699098587036133e-01
1.839000000000000000e+03 6.805921936035156250e+01 -1.315595436096191406e+01 5.616731196641921997e-02 7.670591354370117188e+00 2.318027496337890625e+00 -2.166262418031692505e-01
1.840000000000000000e+03 6.751647949218750000e+01 1.201313877105712891e+01 8.010336756706237793e-02 7.620958328247070312e+00 2.310318470001220703e+00 1.610237210988998413e-01
1.841000000000000000e+03 6.846859741210937500e+01 2.176324272155761719e+01 -2.242977265268564224e-03 7.728923797607421875e+00 2.318004131317138672e+00 2.030398547649383545e-01
1.842000000000000000e+03 6.800480651855468750e+01 -2.174295997619628906e+01 -1.654035598039627075e-02 7.786628246307373047e+00 2.331026554107666016e+00 -2.424378544092178345e-01
1.843000000000000000e+03 2.921580314636230469e+01 2.327773123979568481e-01 1.424482822418212891e+00 8.826603889465332031e+00 3.075325965881347656e+00 5.364174395799636841e-02
1.844000000000000000e+03 1.050508880615234375e+01 -2.736123085021972656e+01 -3.592863678932189941e-01 3.511326074600219727e+00 9.456118941307067871e-01 6.291481256484985352e-01
1.845000000000000000e+03 6.733738708496093750e+01 -3.958096265792846680e+00 1.205277293920516968e-01 7.587279319763183594e+00 2.312342166900634766e+00 -1.015533506870269775e-01
1.846000000000000000e+03 6.808374023437500000e+01 8.344816207885742188e+00 9.666681289672851562e-02 7.588487148284912109e+00 2.305546283721923828e+00 1.095035225152969360e-01
1.847000000000000000e+03 2.805177116394042969e+01 9.626061439514160156e+00 1.079296708106994629e+00 8.557083129882812500e+00 2.890913724899291992e+00 6.611154228448867798e-02
1.848000000000000000e+03 2.698939895629882812e+01 6.509757041931152344e+00 1.297287225723266602e+00 9.092064857482910156e+00 3.116805553436279297e+00 -8.222440630197525024e-02
1.849000000000000000e+03 2.886354637145996094e+01 -1.209993839263916016e+01 6.570674180984497070e-01 8.218670845031738281e+00 2.662721633911132812e+00 -2.698327004909515381e-01
1.850000000000000000e+03 3.013720321655273438e+01 -9.932518959045410156e+00 9.313926100730895996e-01 8.220211029052734375e+00 2.745481252670288086e+00 -3.251241743564605713e-01
1.851000000000000000e+03 2.603459739685058594e+01 1.761702919006347656e+01 1.829373836517333984e-01 7.905134201049804688e+00 2.426421642303466797e+00 1.193132717162370682e-02
1.852000000000000000e+03 1.983743476867675781e+01 2.632584762573242188e+01 -5.180999040603637695e-01 6.066257953643798828e+00 1.664447307586669922e+00 -5.089104771614074707e-01
1.853000000000000000e+03 1.615013122558593750e+01 3.222032165527343750e+01 -6.822350621223449707e-01 5.041878700256347656e+00 1.307893037796020508e+00 -4.281509518623352051e-01
1.854000000000000000e+03 1.299294281005859375e+01 3.298707580566406250e+01 -5.575996637344360352e-01 3.949128389358520508e+00 1.017458558082580566e+00 -4.976417422294616699e-01
1.855000000000000000e+03 6.496701049804687500e+01 2.408140754699707031e+01 -3.276072815060615540e-02 7.761255264282226562e+00 2.318548440933227539e+00 2.435028403997421265e-01
1.856000000000000000e+03 6.727486419677734375e+01 -1.490217590332031250e+01 4.902407526969909668e-02 7.690727710723876953e+00 2.321925640106201172e+00 -2.399952113628387451e-01
1.857000000000000000e+03 6.782084655761718750e+01 -1.763102722167968750e+01 1.990281976759433746e-02 7.729016304016113281e+00 2.324675798416137695e+00 -2.464433014392852783e-01
1.858000000000000000e+03 2.537497138977050781e+01 -2.733861160278320312e+01 -7.323777675628662109e-01 6.795599460601806641e+00 1.818966507911682129e+00 1.454977542161941528e-01
1.859000000000000000e+03 2.305891990661621094e+01 -2.460578918457031250e+01 -5.923098325729370117e-01 6.654775619506835938e+00 1.818739771842956543e+00 3.463746607303619385e-01
1.860000000000000000e+03 2.679743576049804688e+01 1.303310585021972656e+01 7.860337495803833008e-01 8.417082786560058594e+00 2.760935068130493164e+00 4.179129749536514282e-02
1.861000000000000000e+03 2.698553466796875000e+01 1.069751071929931641e+01 1.027924656867980957e+00 8.648414611816406250e+00 2.902901887893676758e+00 -3.237739147152751684e-04
1.862000000000000000e+03 6.825048065185546875e+01 1.186785221099853516e+00 1.146130338311195374e-01 7.565888404846191406e+00 2.304150342941284180e+00 -7.541985251009464264e-03
1.863000000000000000e+03 6.726582336425781250e+01 -2.424061775207519531e+00 1.311775594949722290e-01 7.577601432800292969e+00 2.312633752822875977e+00 -7.514769583940505981e-02
1.864000000000000000e+03 6.770391082763671875e+01 1.383982086181640625e+01 6.648787856101989746e-02 7.637070178985595703e+00 2.311067342758178711e+00 1.762771308422088623e-01
1.865000000000000000e+03 2.061202430725097656e+01 2.863147926330566406e+01 -6.456814408302307129e-01 6.125499725341796875e+00 1.643945455551147461e+00 -3.966035842895507812e-01
1.866000000000000000e+03 1.434757232666015625e+01 -3.243516921997070312e+01 -5.753204226493835449e-01 4.282154560089111328e+00 1.112050175666809082e+00 4.676230251789093018e-01
1.867000000000000000e+03 1.287550926208496094e+01 -3.044251251220703125e+01 -4.904418885707855225e-01 4.041916370391845703e+00 1.065442323684692383e+00 5.844751000404357910e-01
1.868000000000000000e+03 2.653247642517089844e+01 -1.960722160339355469e+01 -2.910937964916229248e-01 7.570702075958251953e+00 2.183882474899291992e+00 1.498422678560018539e-02
1.869000000000000000e+03 6.527582550048828125e+01 4.951691627502441406e+00 1.596027463674545288e-01 7.584278106689453125e+00 2.323164224624633789e+00 6.326442211866378784e-02
1.870000000000000000e+03 6.631817626953125000e+01 4.543615877628326416e-01 1.493215262889862061e-01 7.575199604034423828e+00 2.317356348037719727e+00 -2.103765681385993958e-02
1.871000000000000000e+03 6.757843017578125000e+01 1.997573280334472656e+01 1.172966975718736649e-02 7.709085941314697266e+00 2.316244602203369141e+00 2.139653414487838745e-01
1.872000000000000000e+03 6.548355102539062500e+01 -1.706125259399414062e+00 1.708665639162063599e-01 7.578896522521972656e+00 2.324928760528564453e+00 -6.419146806001663208e-02
1.873000000000000000e+03 6.793300628662109375e+01 -5.188292026519775391e+00 1.093661189079284668e-01 7.589711189270019531e+00 2.309723138809204102e+00 -1.173084974288940430e-01
1.874000000000000000e+03 3.212245941162109375e+01 4.529810428619384766e+00 1.279977917671203613e+00 8.313172340393066406e+00 2.877945184707641602e+00 1.590261906385421753e-01
1.875000000000000000e+03 2.791564178466796875e+01 4.202245235443115234e+00 1.344575524330139160e+00 9.035577774047851562e+00 3.114046096801757812e+00 3.505619475618004799e-03
1.876000000000000000e+03 2.996571540832519531e+01 -2.418931722640991211e+00 1.443568944931030273e+00 8.616190910339355469e+00 3.017927885055541992e+00 -6.858531851321458817e-04
1.877000000000000000e+03 3.086568069458007812e+01 1.000727415084838867e+00 1.407266378402709961e+00 8.548663139343261719e+00 2.986778736114501953e+00 3.361186012625694275e-02
1.878000000000000000e+03 2.853240585327148438e+01 8.371239662170410156e+00 1.181832551956176758e+00 8.647171974182128906e+00 2.948701143264770508e+00 9.319202601909637451e-02
1.879000000000000000e+03 6.659452056884765625e+01 6.509896755218505859e+00 1.302525103092193604e-01 7.585329055786132812e+00 2.314674377441406250e+00 8.992441743612289429e-02
1.880000000000000000e+03 7.112878417968750000e+01 3.318318557739257812e+01 -4.584294557571411133e-02 7.858626365661621094e+00 2.343835115432739258e+00 1.095789670944213867e-01
1.881000000000000000e+03 6.641205596923828125e+01 -9.524845123291015625e+00 1.060872450470924377e-01 7.631803512573242188e+00 2.321367263793945312e+00 -1.976689547300338745e-01
1.882000000000000000e+03 6.690073394775390625e+01 2.292252349853515625e+01 -1.544621307402849197e-02 7.745096206665039062e+00 2.318894863128662109e+00 2.223701775074005127e-01
1.883000000000000000e+03 6.699781799316406250e+01 -1.951646423339843750e+01 2.041342202574014664e-03 7.755591869354248047e+00 2.327290058135986328e+00 -2.597080469131469727e-01
1.884000000000000000e+03 6.859659576416015625e+01 -9.407225608825683594e+00 7.644627243280410767e-02 7.624987125396728516e+00 2.310430049896240234e+00 -1.727532744407653809e-01
1.885000000000000000e+03 6.532748413085937500e+01 -1.109557628631591797e+01 1.042278185486793518e-01 7.650809288024902344e+00 2.326511144638061523e+00 -2.268636822700500488e-01
1.886000000000000000e+03 6.765792846679687500e+01 1.017866897583007812e+01 9.281921386718750000e-02 7.605459213256835938e+00 2.309483528137207031e+00 1.375150084495544434e-01
1.887000000000000000e+03 6.693634796142578125e+01 -9.795283675193786621e-01 1.349448710680007935e-01 7.575448036193847656e+00 2.313117980957031250e+00 -4.868645220994949341e-02
1.888000000000000000e+03 2.758739852905273438e+01 -1.320977878570556641e+01 4.760193526744842529e-01 8.214224815368652344e+00 2.607073068618774414e+00 -2.043107748031616211e-01
1.889000000000000000e+03 2.815873908996582031e+01 -1.036220836639404297e+01 8.838401436805725098e-01 8.421264648437500000e+00 2.791531324386596680e+00 -2.089205235242843628e-01
1.890000000000000000e+03 2.874847221374511719e+01 5.351898193359375000e+00 1.335264563560485840e+00 8.816082000732421875e+00 3.045403957366943359e+00 5.883395671844482422e-02
1.891000000000000000e+03 6.466656494140625000e+01 -7.042399644851684570e-01 1.800214052200317383e-01 7.581593036651611328e+00 2.328484296798706055e+00 -4.539403319358825684e-02
1.892000000000000000e+03 2.566461753845214844e+01 2.055917739868164062e+01 -1.491279304027557373e-01 7.574443817138671875e+00 2.227594852447509766e+00 -2.321747876703739166e-02
1.893000000000000000e+03 3.018925857543945312e+01 -5.785410404205322266e+00 1.321607351303100586e+00 8.402544021606445312e+00 2.917245388031005859e+00 -1.639747023582458496e-01
1.894000000000000000e+03 1.735732078552246094e+01 -2.802470016479492188e+01 -5.492237210273742676e-01 5.188477039337158203e+00 1.391775965690612793e+00 5.315683484077453613e-01
1.895000000000000000e+03 6.581559753417968750e+01 -1.392391395568847656e+01 6.763634830713272095e-02 7.682765483856201172e+00 2.325120449066162109e+00 -2.490424215793609619e-01
1.896000000000000000e+03 6.773293304443359375e+01 -8.082255363464355469e+00 9.827715903520584106e-02 7.613680839538574219e+00 2.313587427139282227e+00 -1.613164693117141724e-01
1.897000000000000000e+03 2.272107505798339844e+01 -2.705413436889648438e+01 -6.851606965065002441e-01 6.436157703399658203e+00 1.725299119949340820e+00 3.128224015235900879e-01
1.898000000000000000e+03 2.511889839172363281e+01 -2.213656044006347656e+01 -4.840877056121826172e-01 7.159319400787353516e+00 2.002569437026977539e+00 1.951113194227218628e-01
1.899000000000000000e+03 2.032540702819824219e+01 -2.646472358703613281e+01 -5.894882678985595703e-01 5.970419406890869141e+00 1.614279270172119141e+00 4.873312413692474365e-01
1.900000000000000000e+03 3.344611740112304688e+01 -1.814594864845275879e+00 1.332250833511352539e+00 8.138129234313964844e+00 2.841114044189453125e+00 -8.368358016014099121e-02
1.901000000000000000e+03 6.542087554931640625e+01 -1.885070991516113281e+01 1.310936547815799713e-02 7.743241786956787109e+00 2.326905250549316406e+00 -2.807692885398864746e-01
1.902000000000000000e+03 6.645828247070312500e+01 -2.356256675720214844e+01 -3.738467022776603699e-02 7.806294918060302734e+00 2.330673217773437500e+00 -2.562461793422698975e-01
1.903000000000000000e+03 6.473979187011718750e+01 -2.118906974792480469e+01 -1.819744519889354706e-02 7.773891925811767578e+00 2.326708316802978516e+00 -2.875140309333801270e-01
1.904000000000000000e+03 3.332876586914062500e+01 8.599220514297485352e-01 1.341648936271667480e+00 8.181439399719238281e+00 2.856926441192626953e+00 1.401916332542896271e-02
1.905000000000000000e+03 3.161760139465332031e+01 -4.878781318664550781e+00 1.305472970008850098e+00 8.288801193237304688e+00 2.878282308578491211e+00 -1.673293113708496094e-01
1.906000000000000000e+03 6.531314849853515625e+01 1.870051765441894531e+01 3.180605173110961914e-02 7.700025081634521484e+00 2.319549322128295898e+00 2.377736270427703857e-01
1.907000000000000000e+03 6.494589996337890625e+01 1.681567573547363281e+01 5.750428512692451477e-02 7.677173137664794922e+00 2.320403099060058594e+00 2.305324524641036987e-01
1.908000000000000000e+03 6.437782287597656250e+01 7.937236785888671875e+00 1.587854474782943726e-01 7.600539207458496094e+00 2.327797412872314453e+00 1.273160874843597412e-01
1.909000000000000000e+03 3.072144889831542969e+01 1.118960952758789062e+01 8.762449622154235840e-01 8.228512763977050781e+00 2.731427431106567383e+00 2.740090787410736084e-01
1.910000000000000000e+03 3.144335746765136719e+01 -1.361667919158935547e+01 4.303345680236816406e-01 7.988649368286132812e+00 2.525695085525512695e+00 -4.102995693683624268e-01
1.911000000000000000e+03 1.462210178375244141e+01 -2.462034797668457031e+01 -1.615811884403228760e-01 4.476797580718994141e+00 1.294564843177795410e+00 7.323647141456604004e-01
1.912000000000000000e+03 1.546178531646728516e+01 -2.705241584777832031e+01 -4.031806588172912598e-01 4.777271747589111328e+00 1.312227249145507812e+00 6.225736737251281738e-01
1.913000000000000000e+03 2.337793922424316406e+01 -1.800556182861328125e+01 -1.542408764362335205e-01 7.502584934234619141e+00 2.204503297805786133e+00 3.934536278247833252e-01
1.914000000000000000e+03 6.396258163452148438e+01 -6.897100448608398438e+00 1.607914119958877563e-01 7.613984107971191406e+00 2.332432746887207031e+00 -1.772945076227188110e-01
1.915000000000000000e+03 6.585429382324218750e+01 -2.822744369506835938e+00 1.477770805358886719e-01 7.586421012878417969e+00 2.320259571075439453e+00 -9.010740369558334351e-02
1.916000000000000000e+03 2.972517585754394531e+01 -8.388250350952148438e+00 1.099277734756469727e+00 8.373565673828125000e+00 2.841853141784667969e+00 -2.397505789995193481e-01
1.917000000000000000e+03 3.008699607849121094e+01 8.785099983215332031e+00 1.097027540206909180e+00 8.396582603454589844e+00 2.848083019256591797e+00 1.799501478672027588e-01
1.918000000000000000e+03 3.230797576904296875e+01 2.071576118469238281e+00 1.355368018150329590e+00 8.314505577087402344e+00 2.900961875915527344e+00 7.707392424345016479e-02
1.919000000000000000e+03 3.095853233337402344e+01 -6.742082595825195312e+00 1.200719118118286133e+00 8.271086692810058594e+00 2.841541767120361328e+00 -2.206952273845672607e-01
1.920000000000000000e+03 3.322019958496093750e+01 -4.017066478729248047e+00 1.284804582595825195e+00 8.140397071838378906e+00 2.827560424804687500e+00 -1.797747462987899780e-01
1.921000000000000000e+03 6.662802124023437500e+01 -6.693729877471923828e+00 1.217726171016693115e-01 7.605430126190185547e+00 2.318160772323608398e+00 -1.518148332834243774e-01
1.922000000000000000e+03 6.435276031494140625e+01 -1.277899169921875000e+01 9.496294707059860229e-02 7.669140338897705078e+00 2.329231023788452148e+00 -2.583843767642974854e-01
1.923000000000000000e+03 6.354844665527343750e+01 1.908191871643066406e+01 3.523269668221473694e-02 7.706554412841796875e+00 2.322535991668701172e+00 2.623820006847381592e-01
1.924000000000000000e+03 6.693156433105468750e+01 -2.547893142700195312e+01 -5.263171344995498657e-02 7.829782009124755859e+00 2.333145141601562500e+00 -2.419800609350204468e-01
1.925000000000000000e+03 6.524364471435546875e+01 1.667482376098632812e+00 1.653991341590881348e-01 7.578047275543212891e+00 2.323033809661865234e+00 -1.295653986744582653e-03
1.926000000000000000e+03 6.230041122436523438e+01 -1.651712417602539062e+01 5.523098260164260864e-02 7.714179039001464844e+00 2.330822944641113281e+00 -3.116744756698608398e-01
1.927000000000000000e+03 3.139708900451660156e+01 -8.007814407348632812e+00 1.086203813552856445e+00 8.186359405517578125e+00 2.781768798828125000e+00 -3.129872381687164307e-01
1.928000000000000000e+03 2.699179840087890625e+01 2.266221237182617188e+01 -3.282021880149841309e-01 7.538342475891113281e+00 2.163042068481445312e+00 8.421415090560913086e-02
1.929000000000000000e+03 2.554235839843750000e+01 2.614951133728027344e+01 -5.971052646636962891e-01 7.110157012939453125e+00 1.953915476799011230e+00 -3.673370182514190674e-02
1.930000000000000000e+03 2.304410362243652344e+01 2.744781112670898438e+01 -6.590198278427124023e-01 6.625072002410888672e+00 1.789815664291381836e+00 -2.218309640884399414e-01
1.931000000000000000e+03 2.480615043640136719e+01 -2.008970451354980469e+01 -3.352583944797515869e-01 7.346024036407470703e+00 2.103229522705078125e+00 2.117443233728408813e-01
1.932000000000000000e+03 2.799921035766601562e+01 -2.438693618774414062e+01 -5.964471697807312012e-01 7.281727313995361328e+00 2.005584001541137695e+00 -3.491451218724250793e-02
1.933000000000000000e+03 2.542713546752929688e+01 -2.463279151916503906e+01 -6.114948391914367676e-01 7.008481502532958984e+00 1.919095993041992188e+00 1.453066021203994751e-01
1.934000000000000000e+03 6.532994842529296875e+01 -5.600042819976806641e+00 1.540719717741012573e-01 7.598717689514160156e+00 2.325836896896362305e+00 -1.413794606924057007e-01
1.935000000000000000e+03 2.563424491882324219e+01 -1.728079414367675781e+01 -8.429785817861557007e-02 7.787219524383544922e+00 2.310876607894897461e+00 1.162326410412788391e-01
1.936000000000000000e+03 3.227656936645507812e+01 -2.881794691085815430e+00 1.349868535995483398e+00 8.278838157653808594e+00 2.888612031936645508e+00 -1.080868542194366455e-01
1.937000000000000000e+03 3.602887344360351562e+01 -4.321134567260742188e+00 1.139909505844116211e+00 7.904684066772460938e+00 2.713377952575683594e+00 -2.366132736206054688e-01
1.938000000000000000e+03 6.588413238525390625e+01 2.079455566406250000e+01 6.365461740642786026e-03 7.722249984741210938e+00 2.318584680557250977e+00 2.350666970014572144e-01
1.939000000000000000e+03 6.187339401245117188e+01 1.668800926208496094e+01 8.100736886262893677e-02 7.685202121734619141e+00 2.329862833023071289e+00 2.663255333900451660e-01
1.940000000000000000e+03 3.132042503356933594e+01 1.381222152709960938e+01 6.136637330055236816e-01 8.078994750976562500e+00 2.607797384262084961e+00 3.540225028991699219e-01
1.941000000000000000e+03 6.213924789428710938e+01 -7.708643674850463867e-01 2.392042726278305054e-01 7.583043098449707031e+00 2.346674203872680664e+00 -5.334727838635444641e-02
1.942000000000000000e+03 6.115242767333984375e+01 6.024261951446533203e+00 2.389273345470428467e-01 7.593713760375976562e+00 2.349792242050170898e+00 1.054173484444618225e-01
1.943000000000000000e+03 6.496157073974609375e+01 6.322916030883789062e+00 1.646815240383148193e-01 7.588065147399902344e+00 2.325824022293090820e+00 9.119439125061035156e-02
1.944000000000000000e+03 6.277381134033203125e+01 -2.057971382141113281e+01 -5.999468732625246048e-03 7.759805202484130859e+00 2.326141834259033203e+00 -3.132636547088623047e-01
1.945000000000000000e+03 6.394332885742187500e+01 -9.804992675781250000e+00 1.367464810609817505e-01 7.637620449066162109e+00 2.332309961318969727e+00 -2.264134585857391357e-01
1.946000000000000000e+03 6.520187377929687500e+01 -8.250477790832519531e+00 1.353694349527359009e-01 7.622234821319580078e+00 2.327281236648559570e+00 -1.887340694665908813e-01
1.947000000000000000e+03 3.077923583984375000e+01 -1.165237426757812500e+01 6.988273262977600098e-01 8.146267890930175781e+00 2.653528690338134766e+00 -3.739402890205383301e-01
1.948000000000000000e+03 3.243228149414062500e+01 -6.102322578430175781e+00 1.197709321975708008e+00 8.159186363220214844e+00 2.807068824768066406e+00 -2.644410133361816406e-01
1.949000000000000000e+03 2.762656784057617188e+01 -1.607453727722167969e+01 8.832217007875442505e-02 8.003033638000488281e+00 2.427406787872314453e+00 -1.648815274238586426e-01
1.950000000000000000e+03 2.838258552551269531e+01 1.446591091156005859e+01 5.679764151573181152e-01 8.170301437377929688e+00 2.621483325958251953e+00 1.855981349945068359e-01
1.951000000000000000e+03 2.922584724426269531e+01 1.755833435058593750e+01 1.939806193113327026e-01 7.944242954254150391e+00 2.441467046737670898e+00 2.697802484035491943e-01
1.952000000000000000e+03 6.110861968994140625e+01 1.166799831390380859e+01 1.779808253049850464e-01 7.632938861846923828e+00 2.343275785446166992e+00 2.140279263257980347e-01
1.953000000000000000e+03 6.339557266235351562e+01 -1.461500930786132812e+01 7.732396572828292847e-02 7.692381381988525391e+00 2.330911636352539062e+00 -2.819811105728149414e-01
1.954000000000000000e+03 6.071106338500976562e+01 -1.730348777770996094e+01 5.209232121706008911e-02 7.721339225769042969e+00 2.332029342651367188e+00 -3.322328925132751465e-01
1.955000000000000000e+03 2.956884193420410156e+01 2.119638633728027344e+01 -1.827396899461746216e-01 7.745437622070312500e+00 2.268809318542480469e+00 2.631634473800659180e-01
1.956000000000000000e+03 6.351844024658203125e+01 1.700680541992187500e+01 7.060138881206512451e-02 7.683533668518066406e+00 2.326240539550781250e+00 2.499982863664627075e-01
1.957000000000000000e+03 6.419338226318359375e+01 1.531157207489013672e+01 8.345692604780197144e-02 7.663299560546875000e+00 2.324026823043823242e+00 2.271384745836257935e-01
1.958000000000000000e+03 6.281904602050781250e+01 -1.146451759338378906e+01 1.305131912231445312e-01 7.655762672424316406e+00 2.335882663726806641e+00 -2.578634321689605713e-01
1.959000000000000000e+03 6.182699203491210938e+01 -1.332271671295166016e+01 1.137867942452430725e-01 7.675053596496582031e+00 2.336652278900146484e+00 -2.925615012645721436e-01
1.960000000000000000e+03 6.451216888427734375e+01 -2.854271888732910156e+00 1.819082498550415039e-01 7.588580131530761719e+00 2.331146478652954102e+00 -9.752894937992095947e-02
1.961000000000000000e+03 6.167784500122070312e+01 -3.550505161285400391e+00 2.363956272602081299e-01 7.592391490936279297e+00 2.348636150360107422e+00 -1.239663287997245789e-01
1.962000000000000000e+03 6.667356109619140625e+01 4.872372150421142578e+00 1.352131962776184082e-01 7.577961444854736328e+00 2.313952445983886719e+00 5.763872712850570679e-02
1.963000000000000000e+03 6.415521240234375000e+01 4.598163127899169922e+00 1.872734427452087402e-01 7.584421634674072266e+00 2.331508398056030273e+00 5.963625386357307434e-02
1.964000000000000000e+03 2.748396301269531250e+01 -1.804240989685058594e+01 -1.293728053569793701e-01 7.743453025817871094e+00 2.284224033355712891e+00 -1.076503843069076538e-01
1.965000000000000000e+03 6.254675292968750000e+01 7.313319206237792969e+00 2.048638761043548584e-01 7.598635196685791016e+00 2.341049671173095703e+00 1.251829713582992554e-01
1.966000000000000000e+03 6.234087753295898438e+01 4.935818672180175781e+00 2.239931672811508179e-01 7.588249683380126953e+00 2.343672752380371094e+00 7.868844270706176758e-02
1.967000000000000000e+03 6.255582046508789062e+01 -8.357686996459960938e+00 1.773842722177505493e-01 7.623567581176757812e+00 2.340285539627075195e+00 -2.111324220895767212e-01
1.968000000000000000e+03 6.592024993896484375e+01 -4.225444316864013672e+00 1.437350660562515259e-01 7.590945720672607422e+00 2.320404291152954102e+00 -1.104979366064071655e-01
1.969000000000000000e+03 3.192144012451171875e+01 -9.461433410644531250e+00 9.138097763061523438e-01 8.145300865173339844e+00 2.717733144760131836e+00 -3.688747286796569824e-01
1.970000000000000000e+03 3.244849395751953125e+01 7.614408969879150391e+00 1.132625222206115723e+00 8.212851524353027344e+00 2.803643226623535156e+00 2.386105209589004517e-01
1.971000000000000000e+03 2.929373550415039062e+01 1.037048721313476562e+01 1.000618696212768555e+00 8.419407844543457031e+00 2.826008081436157227e+00 1.876333504915237427e-01
1.972000000000000000e+03 6.232627868652343750e+01 -2.371309280395507812e+01 -6.269240379333496094e-02 7.801902294158935547e+00 2.321762800216674805e+00 -3.058291673660278320e-01
1.973000000000000000e+03 2.956485176086425781e+01 -1.598337268829345703e+01 1.479511708021163940e-01 7.922013282775878906e+00 2.420989274978637695e+00 -2.971255481243133545e-01
1.974000000000000000e+03 2.940933036804199219e+01 -1.386129474639892578e+01 3.725894689559936523e-01 8.079865455627441406e+00 2.535736560821533203e+00 -3.024161756038665771e-01
1.975000000000000000e+03 2.766418647766113281e+01 1.925238990783691406e+01 2.656246349215507507e-02 7.845909595489501953e+00 2.361741542816162109e+00 1.589231193065643311e-01
1.976000000000000000e+03 6.283845901489257812e+01 -5.278727531433105469e+00 2.021071612834930420e-01 7.600125789642333984e+00 2.340669870376586914e+00 -1.497532874345779419e-01
1.977000000000000000e+03 6.369818878173828125e+01 3.884848654270172119e-01 1.979421526193618774e-01 7.582334995269775391e+00 2.334083318710327148e+00 -2.696819417178630829e-02
1.978000000000000000e+03 3.003432083129882812e+01 3.444604396820068359e+00 1.377948880195617676e+00 8.677756309509277344e+00 3.016711473464965820e+00 7.753676921129226685e-02
1.979000000000000000e+03 3.025469207763671875e+01 2.165049552917480469e+00 1.387617230415344238e+00 8.643377304077148438e+00 3.009298563003540039e+00 5.920121446251869202e-02
1.980000000000000000e+03 3.421317672729492188e+01 -5.400363922119140625e+00 1.155043721199035645e+00 8.038743972778320312e+00 2.758136272430419922e+00 -2.585674822330474854e-01
1.981000000000000000e+03 3.753172302246093750e+01 -5.857393264770507812e+00 9.817539453506469727e-01 7.845070362091064453e+00 2.648047208786010742e+00 -3.125053942203521729e-01
1.982000000000000000e+03 6.322916412353515625e+01 -2.094705343246459961e+00 2.141446471214294434e-01 7.584631919860839844e+00 2.339632987976074219e+00 -8.371677249670028687e-02
1.983000000000000000e+03 3.596493148803710938e+01 4.264078140258789062e+00 1.162086606025695801e+00 7.960981845855712891e+00 2.736920595169067383e+00 1.584865450859069824e-01
1.984000000000000000e+03 3.042793655395507812e+01 5.132482528686523438e+00 1.292948365211486816e+00 8.526157379150390625e+00 2.945731878280639648e+00 1.062823832035064697e-01
1.985000000000000000e+03 6.327870941162109375e+01 1.211467742919921875e+01 1.333494782447814941e-01 7.634784221649169922e+00 2.330440044403076172e+00 2.008995413780212402e-01
1.986000000000000000e+03 6.172162628173828125e+01 3.686286687850952148e+00 2.451134175062179565e-01 7.583738803863525391e+00 2.348655700683593750e+00 4.701013118028640747e-02
1.987000000000000000e+03 6.351101684570312500e+01 5.807654857635498047e+00 1.936971098184585571e-01 7.590442180633544922e+00 2.335241794586181641e+00 8.508903533220291138e-02
1.988000000000000000e+03 3.624863433837890625e+01 -1.452390193939208984e+00 1.194623947143554688e+00 7.913462162017822266e+00 2.732425928115844727e+00 -9.862635284662246704e-02
1.989000000000000000e+03 6.444075775146484375e+01 -4.376555442810058594e+00 1.780251711606979370e-01 7.594666957855224609e+00 2.331807613372802734e+00 -1.237778961658477783e-01
1.990000000000000000e+03 6.124287033081054688e+01 -6.694143295288085938e+00 2.161220461130142212e-01 7.612258434295654297e+00 2.348514080047607422e+00 -1.932298988103866577e-01
1.991000000000000000e+03 6.496810150146484375e+01 3.766886949539184570e+00 1.710145771503448486e-01 7.580967903137207031e+00 2.325594902038574219e+00 3.889884427189826965e-02
1.992000000000000000e+03 3.448514556884765625e+01 1.131285381317138672e+01 8.110527992248535156e-01 8.001400947570800781e+00 2.643735885620117188e+00 3.935843408107757568e-01
1.993000000000000000e+03 3.221431732177734375e+01 1.199829959869384766e+01 7.899553775787353516e-01 8.115653991699218750e+00 2.671682834625244141e+00 3.598752915859222412e-01
1.994000000000000000e+03 3.361939239501953125e+01 -1.307743167877197266e+01 4.862834811210632324e-01 7.942904472351074219e+00 2.528756380081176758e+00 -4.764460623264312744e-01
1.995000000000000000e+03 3.263961029052734375e+01 -1.113402843475341797e+01 7.501079440116882324e-01 8.011013031005859375e+00 2.628336429595947266e+00 -4.293895959854125977e-01
1.996000000000000000e+03 3.357875442504882812e+01 -8.882948875427246094e+00 9.120661020278930664e-01 7.993698120117187500e+00 2.671729087829589844e+00 -3.871790468692779541e-01
1.997000000000000000e+03 3.769868469238281250e+01 -2.764927148818969727e+00 1.095995068550109863e+00 7.841745376586914062e+00 2.681322097778320312e+00 -1.695444583892822266e-01
1.998000000000000000e+03 6.372257995605468750e+01 -1.794011497497558594e+01 2.940340153872966766e-02 7.731871604919433594e+00 2.328382492065429688e+00 -2.975062727928161621e-01
1.999000000000000000e+03 3.431541061401367188e+01 8.586944580078125000e+00 1.001949548721313477e+00 8.046007156372070312e+00 2.714386940002441406e+00 3.057201504707336426e-01
2.000000000000000000e+03 3.245633697509765625e+01 1.661965751647949219e+01 3.081489801406860352e-01 7.951891422271728516e+00 2.478012084960937500e+00 4.177094697952270508e-01
2.001000000000000000e+03 3.781547164916992188e+01 3.051065802574157715e-01 1.133938789367675781e+00 7.848713874816894531e+00 2.694795846939086914e+00 -1.994620636105537415e-02
2.002000000000000000e+03 3.210484695434570312e+01 -2.056731224060058594e+01 -2.730424702167510986e-01 7.713985919952392578e+00 2.232283115386962891e+00 -3.480540513992309570e-01
2.003000000000000000e+03 6.548634338378906250e+01 1.222230911254882812e+01 1.043429523706436157e-01 7.631200790405273438e+00 2.320662975311279297e+00 1.814307868480682373e-01
2.004000000000000000e+03 3.621678161621093750e+01 1.416335940361022949e+00 1.208035349845886230e+00 7.934561252593994141e+00 2.742779016494750977e+00 3.918116539716720581e-02
2.005000000000000000e+03 6.131779479980468750e+01 2.177091360092163086e+00 2.525332570075988770e-01 7.583808422088623047e+00 2.350902557373046875e+00 1.296515669673681259e-02
2.006000000000000000e+03 2.962757492065429688e+01 1.286850833892822266e+01 7.548294067382812500e-01 8.236814498901367188e+00 2.697493314743041992e+00 2.645559906959533691e-01
2.007000000000000000e+03 3.494663238525390625e+01 6.724378108978271484e+00 1.079363942146301270e+00 8.008207321166992188e+00 2.726271390914916992e+00 2.622738182544708252e-01
2.008000000000000000e+03 3.330886840820312500e+01 5.976837635040283203e+00 1.181869745254516602e+00 8.194025993347167969e+00 2.812768697738647461e+00 2.098108679056167603e-01
2.009000000000000000e+03 4.124044036865234375e+01 -1.276020908355712891e+01 4.252062439918518066e-01 7.747893810272216797e+00 2.451930046081542969e+00 -5.156934857368469238e-01
2.010000000000000000e+03 3.313729476928710938e+01 1.449425125122070312e+01 5.338143110275268555e-01 8.000010490417480469e+00 2.560147523880004883e+00 4.291748106479644775e-01
2.011000000000000000e+03 6.267648315429687500e+01 1.524581432342529297e+00 2.189739793539047241e-01 7.583005905151367188e+00 2.340594053268432617e+00 -2.483515301719307899e-03
2.012000000000000000e+03 6.390536117553710938e+01 2.677211999893188477e+00 1.931773573160171509e-01 7.582300186157226562e+00 2.332643270492553711e+00 2.174118719995021820e-02
2.013000000000000000e+03 6.257770919799804688e+01 1.442362976074218750e+01 1.148389950394630432e-01 7.657407760620117188e+00 2.331673860549926758e+00 2.346102446317672729e-01
2.014000000000000000e+03 5.951552963256835938e+01 2.343131601810455322e-01 3.022920787334442139e-01 7.580925941467285156e+00 2.364965438842773438e+00 -2.985001727938652039e-02
2.015000000000000000e+03 5.999502563476562500e+01 -4.875736236572265625e+00 2.657567560672760010e-01 7.597425937652587891e+00 2.358954668045043945e+00 -1.611575782299041748e-01
2.016000000000000000e+03 5.932610321044921875e+01 -1.445875167846679688e+01 1.188650354743003845e-01 7.686468124389648438e+00 2.341599941253662109e+00 -3.330637812614440918e-01
2.017000000000000000e+03 5.595674133300781250e+01 -1.832282638549804688e+01 3.859838470816612244e-02 7.736182689666748047e+00 2.332434177398681641e+00 -3.904033899307250977e-01
2.018000000000000000e+03 2.987462806701660156e+01 -2.106636238098144531e+01 -3.445241749286651611e-01 7.613268375396728516e+00 2.180623292922973633e+00 -2.112534195184707642e-01
2.019000000000000000e+03 3.866292953491210938e+01 5.633906841278076172e+00 9.901086688041687012e-01 7.804672241210937500e+00 2.638434171676635742e+00 2.221583425998687744e-01
2.020000000000000000e+03 3.833874130249023438e+01 -1.700616455078125000e+01 1.265757381916046143e-01 7.793894767761230469e+00 2.376141309738159180e+00 -5.458230972290039062e-01
2.021000000000000000e+03 3.638376998901367188e+01 -1.562399578094482422e+01 2.382084727287292480e-01 7.833725452423095703e+00 2.421580076217651367e+00 -5.193296670913696289e-01
2.022000000000000000e+03 3.870734024047851562e+01 1.147271156311035156e+01 6.633126735687255859e-01 7.818120956420898438e+00 2.544430255889892578e+00 4.217145144939422607e-01
2.023000000000000000e+03 3.771799850463867188e+01 8.968891143798828125e+00 8.677332997322082520e-01 7.855683326721191406e+00 2.617025136947631836e+00 3.439552783966064453e-01
2.024000000000000000e+03 3.504137420654296875e+01 1.473510074615478516e+01 4.805393815040588379e-01 7.920701980590820312e+00 2.520372390747070312e+00 4.631236195564270020e-01
2.025000000000000000e+03 3.145832443237304688e+01 1.905430412292480469e+01 5.852085351943969727e-02 7.876266002655029297e+00 2.380436182022094727e+00 3.804104626178741455e-01
2.026000000000000000e+03 5.821970367431640625e+01 -1.929525756835937500e+01 1.551221031695604324e-02 7.743944644927978516e+00 2.327836990356445312e+00 -3.682942986488342285e-01
2.027000000000000000e+03 6.054456710815429688e+01 -1.994174385070800781e+01 2.347052504774183035e-04 7.754994392395019531e+00 2.326568603515625000e+00 -3.377003967761993408e-01
2.028000000000000000e+03 6.028131866455078125e+01 4.312432289123535156e+00 2.797375321388244629e-01 7.585492610931396484e+00 2.359569072723388672e+00 6.985640525817871094e-02
2.029000000000000000e+03 5.899721908569335938e+01 1.128697681427001953e+01 2.145463526248931885e-01 7.632042884826660156e+00 2.353976726531982422e+00 2.296092808246612549e-01
2.030000000000000000e+03 5.951392364501953125e+01 8.938545227050781250e+00 2.453973144292831421e-01 7.610010623931884766e+00 2.356622457504272461e+00 1.724360883235931396e-01
2.031000000000000000e+03 3.949644470214843750e+01 -1.014930248260498047e+00 1.046350598335266113e+00 7.748985290527343750e+00 2.638600826263427734e+00 -9.055430442094802856e-02
2.032000000000000000e+03 3.509665679931640625e+01 1.277668380737304688e+01 6.582853794097900391e-01 7.948358535766601562e+00 2.581993103027343750e+00 4.346781969070434570e-01
2.033000000000000000e+03 5.958040237426757812e+01 6.799036026000976562e+00 2.627999782562255859e-01 7.599164009094238281e+00 2.358589172363281250e+00 1.324911117553710938e-01
2.034000000000000000e+03 4.240122604370117188e+01 3.427183866500854492e+00 8.900672197341918945e-01 7.672432422637939453e+00 2.568749904632568359e+00 1.106358841061592102e-01
2.035000000000000000e+03 4.282179260253906250e+01 9.279797554016113281e+00 6.710541844367980957e-01 7.703454017639160156e+00 2.512352466583251953e+00 3.368098139762878418e-01
2.036000000000000000e+03 5.782336425781250000e+01 3.470777750015258789e+00 3.337122201919555664e-01 7.583355426788330078e+00 2.375120162963867188e+00 4.830378293991088867e-02
2.037000000000000000e+03 6.168042755126953125e+01 9.330679893493652344e+00 1.927463412284851074e-01 7.614507198333740234e+00 2.342176198959350586e+00 1.672447919845581055e-01
2.038000000000000000e+03 5.649552536010742188e+01 5.316836357116699219e+00 3.629077970981597900e-01 7.588259220123291016e+00 2.385349988937377930e+00 1.067393496632575989e-01
2.039000000000000000e+03 4.112831497192382812e+01 1.089502573013305664e+00 9.732086658477783203e-01 7.708405494689941406e+00 2.604484319686889648e+00 4.264786373823881149e-03
2.040000000000000000e+03 4.544876098632812500e+01 4.297605991363525391e+00 7.393997311592102051e-01 7.628505229949951172e+00 2.510371446609497070e+00 1.360140591859817505e-01
2.041000000000000000e+03 4.166252899169921875e+01 6.918120384216308594e+00 8.209572434425354004e-01 7.711061000823974609e+00 2.559605598449707031e+00 2.624585926532745361e-01
2.042000000000000000e+03 6.050933456420898438e+01 1.397255802154541016e+01 1.423117369413375854e-01 7.657445430755615234e+00 2.339927196502685547e+00 2.526187896728515625e-01
2.043000000000000000e+03 5.743566894531250000e+01 8.651288986206054688e+00 2.977848947048187256e-01 7.608697891235351562e+00 2.371944904327392578e+00 1.822009831666946411e-01
2.044000000000000000e+03 4.436352539062500000e+01 2.221236228942871094e+00 8.266820311546325684e-01 7.634360313415527344e+00 2.538312673568725586e+00 5.327419191598892212e-02
2.045000000000000000e+03 5.622473144531250000e+01 1.874199509620666504e+00 3.878311514854431152e-01 7.578579902648925781e+00 2.389923334121704102e+00 1.443267613649368286e-02
2.046000000000000000e+03 5.414044952392578125e+01 5.197948455810546875e+00 4.337559938430786133e-01 7.584814548492431641e+00 2.405570983886718750e+00 1.181112006306648254e-01
2.047000000000000000e+03 4.719046401977539062e+01 3.199087619781494141e+00 6.892727017402648926e-01 7.603562831878662109e+00 2.487850666046142578e+00 6.776471436023712158e-02
2.048000000000000000e+03 4.464096832275390625e+01 8.105278015136718750e+00 6.630498170852661133e-01 7.661732673645019531e+00 2.497434854507446289e+00 2.745632827281951904e-01
2.049000000000000000e+03 4.327157592773437500e+01 -3.679673373699188232e-02 8.718218803405761719e-01 7.648722648620605469e+00 2.556163311004638672e+00 -4.677700251340866089e-02
2.050000000000000000e+03 5.559851455688476562e+01 8.631384849548339844e+00 3.409293591976165771e-01 7.608289241790771484e+00 2.384765625000000000e+00 1.967483460903167725e-01
2.051000000000000000e+03 4.063970565795898438e+01 -5.697434902191162109e+00 8.571997880935668945e-01 7.722658157348632812e+00 2.573957443237304688e+00 -3.062126934528350830e-01
2.052000000000000000e+03 4.194610977172851562e+01 -4.026031494140625000e+00 8.625024557113647461e-01 7.679726600646972656e+00 2.562668800354003906e+00 -2.274511605501174927e-01
2.053000000000000000e+03 5.258395004272460938e+01 5.942969799041748047e+00 4.590085744857788086e-01 7.593453407287597656e+00 2.415738582611083984e+00 1.564507186412811279e-01
2.054000000000000000e+03 5.387591934204101562e+01 3.536207437515258789e+00 4.464719891548156738e-01 7.580554008483886719e+00 2.408107757568359375e+00 6.829039752483367920e-02
2.055000000000000000e+03 5.699532699584960938e+01 1.092618274688720703e+01 2.677330076694488525e-01 7.628189086914062500e+00 2.368776798248291016e+00 2.418159395456314087e-01
2.056000000000000000e+03 5.742076492309570312e+01 -6.280184984207153320e-01 3.644343018531799316e-01 7.575874805450439453e+00 2.382092714309692383e+00 -5.703649669885635376e-02
2.057000000000000000e+03 4.697349166870117188e+01 1.069931316375732422e+01 4.851043820381164551e-01 7.662019252777099609e+00 2.444137096405029297e+00 3.467385172843933105e-01
2.058000000000000000e+03 4.263500976562500000e+01 -2.216264963150024414e+00 8.923823833465576172e-01 7.663776874542236328e+00 2.566847801208496094e+00 -1.476563960313796997e-01
2.059000000000000000e+03 5.525916290283203125e+01 1.049666023254394531e+01 3.038191199302673340e-01 7.627118587493896484e+00 2.379281282424926758e+00 2.425577342510223389e-01
2.060000000000000000e+03 4.876559066772460938e+01 5.259202480316162109e+00 6.181332468986511230e-01 7.602163314819335938e+00 2.466089010238647461e+00 1.563512682914733887e-01
2.061000000000000000e+03 5.039292907714843750e+01 4.574482917785644531e+00 5.617759227752685547e-01 7.587812423706054688e+00 2.444876432418823242e+00 1.146816015243530273e-01
2.062000000000000000e+03 5.248986816406250000e+01 1.106670665740966797e+01 3.524641990661621094e-01 7.636862277984619141e+00 2.396797895431518555e+00 2.862585186958312988e-01
2.063000000000000000e+03 5.405044937133789062e+01 9.512925148010253906e+00 3.572629094123840332e-01 7.618990421295166016e+00 2.392875909805297852e+00 2.320221066474914551e-01
2.064000000000000000e+03 4.358924484252929688e+01 -5.111430168151855469e+00 7.705137133598327637e-01 7.659638404846191406e+00 2.529045820236206055e+00 -2.724323868751525879e-01
2.065000000000000000e+03 4.233412170410156250e+01 -7.089917659759521484e+00 7.294824719429016113e-01 7.684722423553466797e+00 2.524261474609375000e+00 -3.444438576698303223e-01
2.066000000000000000e+03 3.972576522827148438e+01 8.036740303039550781e+00 8.481207489967346191e-01 7.779949665069580078e+00 2.588421106338500977e+00 3.065784573554992676e-01
2.067000000000000000e+03 4.743097305297851562e+01 -2.222081899642944336e+00 6.786224842071533203e-01 7.597343444824218750e+00 2.482789754867553711e+00 -1.259685158729553223e-01
2.068000000000000000e+03 4.547595214843750000e+01 -1.033872961997985840e+00 7.688967585563659668e-01 7.613773822784423828e+00 2.514801263809204102e+00 -9.274098277091979980e-02
2.069000000000000000e+03 5.324482345581054688e+01 7.858739852905273438e+00 4.084708988666534424e-01 7.606593132019042969e+00 2.404519319534301758e+00 2.048275619745254517e-01
2.070000000000000000e+03 4.917679977416992188e+01 3.217116117477416992e+00 6.179644465446472168e-01 7.591845035552978516e+00 2.462942838668823242e+00 7.139257341623306274e-02
2.071000000000000000e+03 5.225604248046875000e+01 1.344914317131042480e+00 5.256971120834350586e-01 7.576245784759521484e+00 2.430582761764526367e+00 1.051723374985158443e-03
2.072000000000000000e+03 5.564275360107421875e+01 1.543407821655273438e+01 1.691802144050598145e-01 7.682402133941650391e+00 2.355474710464477539e+00 3.207435011863708496e-01
2.073000000000000000e+03 5.418995666503906250e+01 1.246297740936279297e+01 2.825546562671661377e-01 7.648665904998779297e+00 2.379366159439086914e+00 3.020046353340148926e-01
2.074000000000000000e+03 4.846796035766601562e+01 -2.634714543819427490e-01 6.598557829856872559e-01 7.588313102722167969e+00 2.474450588226318359e+00 -5.397338047623634338e-02
2.075000000000000000e+03 5.735355758666992188e+01 1.828856086730957031e+01 8.201050758361816406e-02 7.711554527282714844e+00 2.338069438934326172e+00 3.241485059261322021e-01
2.076000000000000000e+03 5.628694915771484375e+01 1.312854003906250000e+01 2.135295122861862183e-01 7.656199932098388672e+00 2.360918760299682617e+00 2.890638113021850586e-01
2.077000000000000000e+03 4.695977020263671875e+01 5.303063869476318359e+00 6.594768762588500977e-01 7.618231773376464844e+00 2.483312606811523438e+00 1.723941713571548462e-01
2.078000000000000000e+03 4.535293960571289062e+01 -6.309099674224853516e+00 6.607220768928527832e-01 7.636359691619873047e+00 2.489124536514282227e+00 -2.981168329715728760e-01
2.079000000000000000e+03 4.890403366088867188e+01 7.497172355651855469e+00 5.504730343818664551e-01 7.616101264953613281e+00 2.449972391128540039e+00 2.285055816173553467e-01
2.080000000000000000e+03 4.823004150390625000e+01 -5.446451187133789062e+00 5.876293182373046875e-01 7.605764389038085938e+00 2.458018064498901367e+00 -2.477522194385528564e-01
2.081000000000000000e+03 4.651675033569335938e+01 1.092862367630004883e+00 7.350502610206604004e-01 7.599195480346679688e+00 2.500273704528808594e+00 -3.187407040968537331e-03
2.082000000000000000e+03 4.927963638305664062e+01 -3.422933101654052734e+00 5.868378877639770508e-01 7.591407299041748047e+00 2.453473567962646484e+00 -1.755806356668472290e-01
2.083000000000000000e+03 5.016367340087890625e+01 8.916376233100891113e-01 6.033877730369567871e-01 7.576784133911132812e+00 2.454051733016967773e+00 -1.497117429971694946e-02
2.084000000000000000e+03 5.106911468505859375e+01 -4.635316848754882812e+00 5.157967209815979004e-01 7.589874267578125000e+00 2.431701183319091797e+00 -2.043686211109161377e-01
2.085000000000000000e+03 4.716454315185546875e+01 -7.536570072174072266e+00 5.571533441543579102e-01 7.631577014923095703e+00 2.456619262695312500e+00 -3.288064599037170410e-01
2.086000000000000000e+03 5.223875427246093750e+01 -2.531463623046875000e+00 5.015006065368652344e-01 7.582902908325195312e+00 2.425321102142333984e+00 -1.349619477987289429e-01
2.087000000000000000e+03 3.372607040405273438e+01 -1.929998016357421875e+01 -1.227623596787452698e-01 7.771764278411865234e+00 2.294700622558593750e+00 -4.232696592807769775e-01
2.088000000000000000e+03 3.701632308959960938e+01 -1.927894210815429688e+01 -8.645299822092056274e-02 7.771188259124755859e+00 2.305420637130737305e+00 -4.956616759300231934e-01
2.089000000000000000e+03 4.458612060546875000e+01 1.059168434143066406e+01 5.666523575782775879e-01 7.685886383056640625e+00 2.475761651992797852e+00 3.641376793384552002e-01
2.090000000000000000e+03 4.676754379272460938e+01 7.785590171813964844e+00 6.236575841903686523e-01 7.633317470550537109e+00 2.477092504501342773e+00 2.439047694206237793e-01
2.091000000000000000e+03 6.435831451416015625e+01 2.787833404541015625e+01 -8.029413223266601562e-02 7.803482532501220703e+00 2.316956520080566406e+00 2.228553891181945801e-01
2.092000000000000000e+03 6.116628265380859375e+01 2.409747314453125000e+01 -4.658702760934829712e-02 7.769150733947753906e+00 2.316769123077392578e+00 2.829917669296264648e-01
2.093000000000000000e+03 6.520420837402343750e+01 -2.605495452880859375e+01 -7.800836116075515747e-02 7.833450317382812500e+00 2.326632499694824219e+00 -2.620631158351898193e-01
2.094000000000000000e+03 6.190551376342773438e+01 -2.697066497802734375e+01 -1.141687557101249695e-01 7.832632541656494141e+00 2.315539121627807617e+00 -2.842874526977539062e-01
2.095000000000000000e+03 7.015068054199218750e+01 -3.748065948486328125e+01 -7.755147665739059448e-02 7.968329429626464844e+00 2.367233514785766602e+00 -7.366596162319183350e-02
2.096000000000000000e+03 1.827193832397460938e+01 -3.176936340332031250e+01 -7.085523009300231934e-01 5.313479900360107422e+00 1.381478309631347656e+00 3.724021017551422119e-01
2.097000000000000000e+03 1.953660964965820312e+01 -2.899628639221191406e+01 -6.705017685890197754e-01 5.694730758666992188e+00 1.507268786430358887e+00 4.284763932228088379e-01
2.098000000000000000e+03 5.337296295166015625e+01 1.491780471801757812e+01 2.068573087453842163e-01 7.683118820190429688e+00 2.366992712020874023e+00 3.471999466419219971e-01
2.099000000000000000e+03 5.046027374267578125e+01 1.249157238006591797e+01 3.510410189628601074e-01 7.660449028015136719e+00 2.403446912765502930e+00 3.465247452259063721e-01
2.100000000000000000e+03 8.069024085998535156e+00 4.096340942382812500e+01 -3.079649806022644043e-01 2.529908657073974609e+00 6.665831208229064941e-01 -7.640457153320312500e-02
2.101000000000000000e+03 6.119714736938476562e+01 -1.002274990081787109e+01 1.765982210636138916e-01 7.639523506164550781e+00 2.344836473464965820e+00 -2.565635442733764648e-01
2.102000000000000000e+03 1.236309528350830078e+01 2.832131195068359375e+01 -3.674042224884033203e-01 3.974360466003417969e+00 1.082086920738220215e+00 -5.917246341705322266e-01
2.103000000000000000e+03 3.365182876586914062e+01 1.268190860748291016e+01 6.917724609375000000e-01 8.011102676391601562e+00 2.610862731933593750e+00 4.042892456054687500e-01
2.104000000000000000e+03 3.065366744995117188e+01 -2.388083648681640625e+01 -5.204939246177673340e-01 7.494667053222656250e+00 2.092251777648925781e+00 -2.111630588769912720e-01
2.105000000000000000e+03 5.421117401123046875e+01 1.433592200279235840e+00 4.430339038372039795e-01 7.577916145324707031e+00 2.406285047531127930e+00 1.308319508098065853e-03
2.106000000000000000e+03 1.620663452148437500e+01 -3.476467132568359375e+01 -6.872597932815551758e-01 4.762538433074951172e+00 1.222583651542663574e+00 3.170150220394134521e-01
2.107000000000000000e+03 5.685934448242187500e+01 2.075915718078613281e+01 2.328487113118171692e-02 7.740766525268554688e+00 2.329215526580810547e+00 3.411824703216552734e-01
2.108000000000000000e+03 3.676598739624023438e+01 1.221827507019042969e+01 6.649505496025085449e-01 7.876873493194580078e+00 2.562547206878662109e+00 4.379581511020660400e-01
2.109000000000000000e+03 6.010526275634765625e+01 -1.211005592346191406e+01 1.592827290296554565e-01 7.660073280334472656e+00 2.345806837081909180e+00 -2.936358749866485596e-01
2.110000000000000000e+03 5.673070144653320312e+01 -1.590530300140380859e+01 1.037368401885032654e-01 7.703629970550537109e+00 2.342210054397583008e+00 -3.747991025447845459e-01
2.111000000000000000e+03 3.700569152832031250e+01 1.698482704162597656e+01 2.675933837890625000e-01 7.839873313903808594e+00 2.432240009307861328e+00 5.000728964805603027e-01
2.112000000000000000e+03 5.102366256713867188e+01 2.039414215087890625e+01 4.344456642866134644e-02 7.754002094268798828e+00 2.339233875274658203e+00 4.081225395202636719e-01
2.113000000000000000e+03 6.764135742187500000e+01 -2.733152008056640625e+01 -7.004788517951965332e-02 7.859952449798583984e+00 2.336971282958984375e+00 -2.184496521949768066e-01
2.114000000000000000e+03 3.923966217041015625e+01 -1.103383350372314453e+01 6.007567644119262695e-01 7.775815010070800781e+00 2.512971401214599609e+00 -4.790191054344177246e-01
2.115000000000000000e+03 6.568304443359375000e+01 3.048382186889648438e+01 -9.361316263675689697e-02 7.826501846313476562e+00 2.319866657257080078e+00 1.827047020196914673e-01
2.116000000000000000e+03 7.432377624511718750e+01 3.240194702148437500e+01 -2.016121149063110352e-02 7.870673179626464844e+00 2.355153560638427734e+00 8.514446020126342773e-02
2.117000000000000000e+03 3.920786285400390625e+01 1.403531837463378906e+01 4.850105941295623779e-01 7.801399230957031250e+00 2.485923051834106445e+00 4.753003120422363281e-01
2.118000000000000000e+03 6.045896911621093750e+01 -1.815014362335205078e+00 2.852285504341125488e-01 7.580751419067382812e+00 2.359793901443481445e+00 -8.664498478174209595e-02
2.119000000000000000e+03 3.763504409790039062e+01 -9.111084938049316406e+00 7.681944370269775391e-01 7.833940029144287109e+00 2.580640316009521484e+00 -4.404234588146209717e-01
2.120000000000000000e+03 2.138692092895507812e+01 3.136841392517089844e+01 -8.005979657173156738e-01 6.045781612396240234e+00 1.573555111885070801e+00 -2.590503096580505371e-01
2.121000000000000000e+03 3.301530838012695312e+01 -7.446006774902343750e+00 1.059247970581054688e+00 8.098554611206054688e+00 2.747340917587280273e+00 -3.048427999019622803e-01
2.122000000000000000e+03 3.450946426391601562e+01 4.971951007843017578e+00 1.186974644660949707e+00 8.070838928222656250e+00 2.777344226837158203e+00 1.807660907506942749e-01
2.123000000000000000e+03 3.348894500732421875e+01 3.459176778793334961e+00 1.264839529991149902e+00 8.161632537841796875e+00 2.827941656112670898e+00 1.205653026700019836e-01
2.124000000000000000e+03 1.875987625122070312e+01 -2.352006721496582031e+01 -3.546819686889648438e-01 5.728122234344482422e+00 1.612032175064086914e+00 7.204096317291259766e-01
2.125000000000000000e+03 1.818089675903320312e+01 2.939731597900390625e+01 -6.261019110679626465e-01 5.537526607513427734e+00 1.473427295684814453e+00 -4.978411495685577393e-01
2.126000000000000000e+03 1.162832832336425781e+01 -2.875941658020019531e+01 -4.082612693309783936e-01 3.683483362197875977e+00 9.825666546821594238e-01 6.288905143737792969e-01
2.127000000000000000e+03 3.630390930175781250e+01 -7.370899200439453125e+00 9.662041068077087402e-01 7.871772766113281250e+00 2.651393175125122070e+00 -3.610162734985351562e-01
2.128000000000000000e+03 3.920425415039062500e+01 -7.446796894073486328e+00 8.230131864547729492e-01 7.756551265716552734e+00 2.573869466781616211e+00 -3.732411861419677734e-01
2.129000000000000000e+03 3.968238067626953125e+01 -1.483161258697509766e+01 2.931183576583862305e-01 7.772281646728515625e+00 2.419620037078857422e+00 -5.209313631057739258e-01
2.130000000000000000e+03 3.423681640625000000e+01 -1.543722057342529297e+01 2.378109246492385864e-01 7.845219135284423828e+00 2.424909114837646484e+00 -4.861384034156799316e-01
2.131000000000000000e+03 4.603655242919921875e+01 -9.738454818725585938e+00 5.048757791519165039e-01 7.657566070556640625e+00 2.448732614517211914e+00 -3.988745510578155518e-01
2.132000000000000000e+03 1.291897773742675781e+01 -3.681638336181640625e+01 -5.495094060897827148e-01 3.957152843475341797e+00 1.022292971611022949e+00 2.967839241027832031e-01
2.133000000000000000e+03 6.791043090820312500e+01 3.750093460083007812e+01 -1.015338227152824402e-01 7.874205589294433594e+00 2.331801414489746094e+00 7.656745612621307373e-02
2.134000000000000000e+03 6.420841979980468750e+01 -2.771204185485839844e+01 -1.022921726107597351e-01 7.848527908325195312e+00 2.323870658874511719e+00 -2.519146502017974854e-01
2.135000000000000000e+03 2.351638221740722656e+01 -3.714226531982421875e+01 -9.188045263290405273e-01 6.122454166412353516e+00 1.561094880104064941e+00 7.965683192014694214e-02
2.136000000000000000e+03 3.680427169799804688e+01 -3.697903060913085938e+01 -8.531919121742248535e-01 7.494298934936523438e+00 1.992332100868225098e+00 -1.105437725782394409e-01
2.137000000000000000e+03 4.533951187133789062e+01 -3.522502899169921875e+01 -5.989509224891662598e-01 7.798940658569335938e+00 2.159996747970581055e+00 -2.006085515022277832e-01
2.138000000000000000e+03 6.181241989135742188e+01 -3.711472320556640625e+01 -2.221658676862716675e-01 7.910014629364013672e+00 2.306354522705078125e+00 -1.123464703559875488e-01
2.139000000000000000e+03 5.733841705322265625e+01 -3.651228713989257812e+01 -3.170601129531860352e-01 7.890173435211181641e+00 2.271934032440185547e+00 -1.403318792581558228e-01
2.140000000000000000e+03 5.679264068603515625e+01 3.708079147338867188e+01 -3.058355152606964111e-01 7.883931159973144531e+00 2.273428678512573242e+00 1.241353303194046021e-01
2.141000000000000000e+03 4.348213958740234375e+01 3.673797225952148438e+01 -6.622292399406433105e-01 7.824142932891845703e+00 2.148574113845825195e+00 1.678686589002609253e-01
2.142000000000000000e+03 4.783466720581054688e+01 3.708513259887695312e+01 -5.476018190383911133e-01 7.872702121734619141e+00 2.197530031204223633e+00 1.494559794664382935e-01
2.143000000000000000e+03 3.663047027587890625e+01 3.642374420166015625e+01 -8.417115807533264160e-01 7.619490623474121094e+00 2.033333778381347656e+00 1.446079760789871216e-01
2.144000000000000000e+03 2.492418289184570312e+01 3.673925399780273438e+01 -9.718005657196044922e-01 6.508218765258789062e+00 1.660925388336181641e+00 -4.416365921497344971e-02
2.145000000000000000e+03 7.156250000000000000e+01 -4.082658386230468750e+01 -5.724848806858062744e-02 8.000085830688476562e+00 2.382851123809814453e+00 -2.048520930111408234e-02
2.146000000000000000e+03 5.842999649047851562e+01 -6.239702224731445312e+00 2.839086055755615234e-01 7.604959964752197266e+00 2.366660594940185547e+00 -2.033165097236633301e-01
2.147000000000000000e+03 4.995858001708984375e+01 -6.633096694946289062e+00 4.996601641178131104e-01 7.608105659484863281e+00 2.432329893112182617e+00 -2.758161425590515137e-01
2.148000000000000000e+03 2.206446075439453125e+01 -2.982892608642578125e+01 -7.641039490699768066e-01 6.132018566131591797e+00 1.610374331474304199e+00 3.006525337696075439e-01
2.149000000000000000e+03 5.363349151611328125e+01 -5.812385082244873047e-01 4.858599007129669189e-01 7.570728302001953125e+00 2.416976451873779297e+00 -6.265182793140411377e-02
2.150000000000000000e+03 5.993334960937500000e+01 1.631120300292968750e+01 1.068582758307456970e-01 7.683936595916748047e+00 2.337238550186157227e+00 2.817082703113555908e-01
2.151000000000000000e+03 4.387470245361328125e+01 1.631762123107910156e+01 2.597604393959045410e-01 7.751811981201171875e+00 2.403471708297729492e+00 4.776757061481475830e-01
2.152000000000000000e+03 4.155404663085937500e+01 1.347606754302978516e+01 4.738102257251739502e-01 7.758500576019287109e+00 2.469693183898925781e+00 4.515256583690643311e-01
2.153000000000000000e+03 3.518783569335937500e+01 -1.758791351318359375e+01 2.217116579413414001e-02 7.805995941162109375e+00 2.348450183868408203e+00 -4.901691973209381104e-01
2.154000000000000000e+03 4.090470123291015625e+01 -9.061464309692382812e+00 6.787937283515930176e-01 7.732833385467529297e+00 2.523488044738769531e+00 -4.234054386615753174e-01
2.155000000000000000e+03 5.683705520629882812e+01 -1.066356468200683594e+01 2.441970705986022949e-01 7.640336513519287109e+00 2.365360021591186523e+00 -3.080994188785552979e-01
2.156000000000000000e+03 6.305034637451171875e+01 2.542510604858398438e+01 -6.039393693208694458e-02 7.779991149902343750e+00 2.315879106521606445e+00 2.548386454582214355e-01
2.157000000000000000e+03 5.509441757202148438e+01 -2.090235710144042969e+01 -3.164952620863914490e-02 7.762480258941650391e+00 2.319249153137207031e+00 -4.010003507137298584e-01
2.158000000000000000e+03 1.343377685546875000e+01 2.973282432556152344e+01 -4.657247662544250488e-01 4.187016010284423828e+00 1.116387367248535156e+00 -5.627577304840087891e-01
2.159000000000000000e+03 5.950228118896484375e+01 1.874802398681640625e+01 5.774143710732460022e-02 7.712654113769531250e+00 2.331118822097778320e+00 3.035832941532135010e-01
2.160000000000000000e+03 6.155926132202148438e+01 2.164649772644042969e+01 -7.588394451886415482e-03 7.742777824401855469e+00 2.320556879043579102e+00 2.885298728942871094e-01
2.161000000000000000e+03 5.971893692016601562e+01 -8.227221488952636719e+00 2.299007028341293335e-01 7.621555805206298828e+00 2.355437040328979492e+00 -2.344251126050949097e-01
2.162000000000000000e+03 6.160394287109375000e+01 1.906615066528320312e+01 4.745171964168548584e-02 7.709860801696777344e+00 2.327193737030029297e+00 2.813386023044586182e-01
2.163000000000000000e+03 5.405206680297851562e+01 -4.192436218261718750e+00 4.295730590820312500e-01 7.586412906646728516e+00 2.404795646667480469e+00 -1.750774681568145752e-01
2.164000000000000000e+03 2.098047065734863281e+01 -3.294655227661132812e+01 -8.068965673446655273e-01 5.812478065490722656e+00 1.501674413681030273e+00 2.703609466552734375e-01
2.165000000000000000e+03 3.476045608520507812e+01 -2.587575340270996094e+01 -5.534358024597167969e-01 7.608666896820068359e+00 2.116569280624389648e+00 -3.331191241741180420e-01
2.166000000000000000e+03 2.965180587768554688e+01 2.951286315917968750e+01 -7.478574514389038086e-01 7.343193054199218750e+00 1.978600740432739258e+00 1.425957977771759033e-01
2.167000000000000000e+03 2.655761528015136719e+01 2.838516044616699219e+01 -7.346831560134887695e-01 7.097290039062500000e+00 1.908782124519348145e+00 1.458537066355347633e-03
2.168000000000000000e+03 1.855016136169433594e+01 3.225065231323242188e+01 -7.486062645912170410e-01 5.510641574859619141e+00 1.428610563278198242e+00 -3.988965749740600586e-01
2.169000000000000000e+03 6.133766937255859375e+01 6.687980890274047852e-01 2.536374628543853760e-01 7.583406448364257812e+00 2.351113080978393555e+00 -2.336686104536056519e-02
2.170000000000000000e+03 6.482852935791015625e+01 3.508499526977539062e+01 -1.387661397457122803e-01 7.860528945922851562e+00 2.316528797149658203e+00 1.250590980052947998e-01
2.171000000000000000e+03 4.475413894653320312e+01 -1.208413791656494141e+01 4.092715382575988770e-01 7.694037914276123047e+00 2.430992841720581055e+00 -4.694220721721649170e-01
2.172000000000000000e+03 5.657903671264648438e+01 -2.501988410949707031e+01 -1.287489086389541626e-01 7.806104183197021484e+00 2.303206443786621094e+00 -3.571531176567077637e-01
2.173000000000000000e+03 5.923775482177734375e+01 -2.615421867370605469e+01 -1.287788301706314087e-01 7.823216915130615234e+00 2.308331489562988281e+00 -3.186860978603363037e-01
2.174000000000000000e+03 4.674039459228515625e+01 1.379513835906982422e+01 3.614276945590972900e-01 7.696536064147949219e+00 2.417389154434204102e+00 4.046417474746704102e-01
2.175000000000000000e+03 4.854012298583984375e+01 1.751531028747558594e+01 1.689618229866027832e-01 7.732324123382568359e+00 2.370385646820068359e+00 4.326942563056945801e-01
2.176000000000000000e+03 3.690060806274414062e+01 1.964419746398925781e+01 3.616045787930488586e-02 7.824758529663085938e+00 2.358275651931762695e+00 4.923701286315917969e-01
2.177000000000000000e+03 3.413680648803710938e+01 2.287520790100097656e+01 -2.446827739477157593e-01 7.773009300231933594e+00 2.258497953414916992e+00 4.047347009181976318e-01
2.178000000000000000e+03 3.185653877258300781e+01 2.654233741760253906e+01 -5.527663826942443848e-01 7.601681232452392578e+00 2.114674329757690430e+00 2.703860104084014893e-01
2.179000000000000000e+03 5.024918365478515625e+01 -1.204244995117187500e+01 3.165186047554016113e-01 7.660522460937500000e+00 2.393112182617187500e+00 -4.029645025730133057e-01
2.180000000000000000e+03 3.743769454956054688e+01 -2.373515892028808594e+01 -3.862577676773071289e-01 7.713986873626708984e+00 2.198318719863891602e+00 -4.194111824035644531e-01
2.181000000000000000e+03 3.323220443725585938e+01 -2.297397613525390625e+01 -4.074071645736694336e-01 7.644859313964843750e+00 2.171235561370849609e+00 -3.327152729034423828e-01
2.182000000000000000e+03 6.156548309326171875e+01 -3.023262023925781250e+01 -1.688816547393798828e-01 7.868486404418945312e+00 2.309881448745727539e+00 -2.436018884181976318e-01
2.183000000000000000e+03 6.601068115234375000e+01 -2.788215827941894531e+01 -8.596763759851455688e-02 7.857510566711425781e+00 2.331462860107421875e+00 -2.254541963338851929e-01
2.184000000000000000e+03 5.549193572998046875e+01 -9.253083229064941406e+00 2.921953797340393066e-01 7.629092693328857422e+00 2.376386404037475586e+00 -2.937712967395782471e-01
2.185000000000000000e+03 5.558259582519531250e+01 -5.926154136657714844e+00 3.576144576072692871e-01 7.599668025970458984e+00 2.387184619903564453e+00 -2.147257477045059204e-01
2.186000000000000000e+03 4.158059692382812500e+01 1.630752944946289062e+01 2.815049290657043457e-01 7.771606445312500000e+00 2.415933370590209961e+00 4.929286837577819824e-01
2.187000000000000000e+03 5.465794372558593750e+01 -1.473476982116699219e+01 1.536643505096435547e-01 7.690996646881103516e+00 2.353398323059082031e+00 -3.860400617122650146e-01
2.188000000000000000e+03 4.684667205810546875e+01 -1.339039230346679688e+01 3.132799565792083740e-01 7.690754890441894531e+00 2.401210546493530273e+00 -4.612293243408203125e-01
2.189000000000000000e+03 6.106940460205078125e+01 2.637577438354492188e+01 -9.356820583343505859e-02 7.798122406005859375e+00 2.311366081237792969e+00 2.718628644943237305e-01
2.190000000000000000e+03 3.195527076721191406e+01 -3.012438011169433594e+01 -7.836623191833496094e-01 7.323779106140136719e+00 1.962035059928894043e+00 -1.578733175992965698e-01
2.191000000000000000e+03 3.143043327331542969e+01 -2.685599136352539062e+01 -6.666939854621887207e-01 7.387999534606933594e+00 2.016391754150390625e+00 -1.810944229364395142e-01
2.192000000000000000e+03 5.402891540527343750e+01 -2.361982917785644531e+01 -1.175255179405212402e-01 7.794422626495361328e+00 2.303069114685058594e+00 -3.918849825859069824e-01
2.193000000000000000e+03 2.919981575012207031e+01 3.162567520141601562e+01 -8.387734889984130859e-01 7.203510761260986328e+00 1.909421205520629883e+00 1.003297120332717896e-01
2.194000000000000000e+03 2.744583511352539062e+01 3.387464904785156250e+01 -9.123691320419311523e-01 6.976903915405273438e+00 1.819360375404357910e+00 1.099885627627372742e-02
2.195000000000000000e+03 5.155349349975585938e+01 -7.760686397552490234e+00 4.362337589263916016e-01 7.611414909362792969e+00 2.414294719696044922e+00 -2.914480865001678467e-01
2.196000000000000000e+03 4.899387359619140625e+01 -8.716119766235351562e+00 4.645659327507019043e-01 7.629935264587402344e+00 2.428350210189819336e+00 -3.442866802215576172e-01
2.197000000000000000e+03 3.414301300048828125e+01 1.981044960021972656e+01 3.663126844912767410e-04 7.843467235565185547e+00 2.353150129318237305e+00 4.488050937652587891e-01
2.198000000000000000e+03 3.707725906372070312e+01 2.245739746093750000e+01 -1.629672646522521973e-01 7.806918621063232422e+00 2.293185472488403320e+00 4.702529907226562500e-01
2.199000000000000000e+03 5.849213027954101562e+01 -2.942365837097167969e+01 -1.970590204000473022e-01 7.848555088043212891e+00 2.295448780059814453e+00 -2.834487557411193848e-01
2.200000000000000000e+03 6.158584594726562500e+01 -3.359614181518554688e+01 -2.018997818231582642e-01 7.890674114227294922e+00 2.306632280349731445e+00 -1.819530427455902100e-01
2.201000000000000000e+03 5.554726409912109375e+01 -2.274563312530517578e+00 4.059320688247680664e-01 7.579423904418945312e+00 2.395606756210327148e+00 -1.122106388211250305e-01
2.202000000000000000e+03 3.474438095092773438e+01 2.598700141906738281e+01 -4.516220688819885254e-01 7.710702896118164062e+00 2.177724361419677734e+00 3.667010962963104248e-01
2.203000000000000000e+03 4.619398880004882812e+01 1.694215774536132812e+01 2.018877267837524414e-01 7.738398075103759766e+00 2.382085800170898438e+00 4.574459195137023926e-01
2.204000000000000000e+03 4.454341506958007812e+01 2.226612663269042969e+01 -8.144813776016235352e-02 7.799067497253417969e+00 2.315285921096801758e+00 4.802708625793457031e-01
2.205000000000000000e+03 5.545117950439453125e+01 -2.815620422363281250e+01 -2.169841080904006958e-01 7.835541248321533203e+00 2.285567045211791992e+00 -3.257843852043151855e-01
2.206000000000000000e+03 4.638064193725585938e+01 2.133658599853515625e+01 -1.223765034228563309e-02 7.779772281646728516e+00 2.330260515213012695e+00 4.593905806541442871e-01
2.207000000000000000e+03 5.617775726318359375e+01 3.345978546142578125e+01 -2.766988873481750488e-01 7.868616580963134766e+00 2.277575254440307617e+00 2.095568180084228516e-01
2.208000000000000000e+03 4.015704727172851562e+01 -1.833606719970703125e+01 2.825962752103805542e-02 7.780511379241943359e+00 2.342631340026855469e+00 -5.328743457794189453e-01
2.209000000000000000e+03 2.243343544006347656e+01 3.441855239868164062e+01 -9.072778224945068359e-01 6.175944328308105469e+00 1.580600023269653320e+00 -1.232275962829589844e-01
2.210000000000000000e+03 3.247203445434570312e+01 -4.078699874877929688e+01 -9.588778614997863770e-01 7.177550315856933594e+00 1.865601658821105957e+00 -1.324975211173295975e-02
2.211000000000000000e+03 4.028945922851562500e+01 2.454961776733398438e+01 -2.598822116851806641e-01 7.799300193786621094e+00 2.261825323104858398e+00 4.634292721748352051e-01
2.212000000000000000e+03 4.863943481445312500e+01 2.082494544982910156e+01 1.446518208831548691e-02 7.773287773132324219e+00 2.336325883865356445e+00 4.385064542293548584e-01
2.213000000000000000e+03 4.374660873413085938e+01 2.047355651855468750e+01 -6.372483912855386734e-03 7.786554813385009766e+00 2.334054708480834961e+00 4.826409518718719482e-01
2.214000000000000000e+03 5.693177413940429688e+01 -7.660235881805419922e+00 2.933806478977203369e-01 7.613824844360351562e+00 2.372161626815795898e+00 -2.428510636091232300e-01
2.215000000000000000e+03 4.154010772705078125e+01 -1.651389694213867188e+01 1.678632050752639771e-01 7.759740352630615234e+00 2.378281116485595703e+00 -5.351538658142089844e-01
2.216000000000000000e+03 4.909130096435546875e+01 -1.457108306884765625e+01 2.185316532850265503e-01 7.693393707275390625e+00 2.373577594757080078e+00 -4.598720967769622803e-01
2.217000000000000000e+03 5.269502639770507812e+01 -9.281751632690429688e+00 3.511133790016174316e-01 7.630167961120605469e+00 2.394384384155273438e+00 -3.266858160495758057e-01
2.218000000000000000e+03 5.090637588500976562e+01 -9.665859222412109375e+00 3.819118142127990723e-01 7.633514404296875000e+00 2.404627799987792969e+00 -3.515316247940063477e-01
2.219000000000000000e+03 5.271051788330078125e+01 -1.959440422058105469e+01 -2.258844673633575439e-03 7.752846240997314453e+00 2.325176239013671875e+00 -4.292615056037902832e-01
2.220000000000000000e+03 4.212957000732421875e+01 -1.882093811035156250e+01 1.715241558849811554e-02 7.759066581726074219e+00 2.332865715026855469e+00 -5.278144478797912598e-01
2.221000000000000000e+03 5.368116760253906250e+01 -1.712331008911132812e+01 8.554299920797348022e-02 7.718226432800292969e+00 2.341130971908569336e+00 -4.196583330631256104e-01
2.222000000000000000e+03 5.573577499389648438e+01 2.995071411132812500e+01 -2.253329604864120483e-01 7.845358371734619141e+00 2.286007642745971680e+00 2.764247655868530273e-01
2.223000000000000000e+03 4.397593688964843750e+01 -2.555954360961914062e+01 -3.563991487026214600e-01 7.772999286651611328e+00 2.224979877471923828e+00 -4.337888956069946289e-01
2.224000000000000000e+03 3.527659606933593750e+01 2.916043853759765625e+01 -6.281854510307312012e-01 7.654672145843505859e+00 2.107946157455444336e+00 2.984628975391387939e-01
2.225000000000000000e+03 3.035271835327148438e+01 3.525004577636718750e+01 -9.363172054290771484e-01 7.207609176635742188e+00 1.881387591361999512e+00 9.766478836536407471e-02
2.226000000000000000e+03 3.220836257934570312e+01 -3.365564346313476562e+01 -8.696044683456420898e-01 7.243838310241699219e+00 1.912270188331604004e+00 -1.010187342762947083e-01
2.227000000000000000e+03 2.790759086608886719e+01 -3.734568786621093750e+01 -9.589076638221740723e-01 6.739409446716308594e+00 1.734150528907775879e+00 1.632983982563018799e-02
2.228000000000000000e+03 3.934489822387695312e+01 1.924401473999023438e+01 8.117400854825973511e-02 7.809479713439941406e+00 2.367196083068847656e+00 5.059217214584350586e-01
2.229000000000000000e+03 4.353978729248046875e+01 1.864550781250000000e+01 1.262502670288085938e-01 7.768570899963378906e+00 2.368446350097656250e+00 4.861366748809814453e-01
2.230000000000000000e+03 3.934722518920898438e+01 3.156658554077148438e+01 -6.474834680557250977e-01 7.746797084808349609e+00 2.129794120788574219e+00 2.956659793853759766e-01
2.231000000000000000e+03 2.858011627197265625e+01 3.783643722534179688e+01 -1.011379241943359375e+00 6.963518619537353516e+00 1.785641789436340332e+00 3.814643621444702148e-02
2.232000000000000000e+03 5.253019332885742188e+01 -1.330341720581054688e+01 2.319540381431579590e-01 7.671149730682373047e+00 2.370931148529052734e+00 -3.995406627655029297e-01
2.233000000000000000e+03 4.396134948730468750e+01 -2.216298294067382812e+01 -1.763457804918289185e-01 7.756528377532958984e+00 2.274054765701293945e+00 -4.978646934032440186e-01
2.234000000000000000e+03 4.793803787231445312e+01 -1.712107276916503906e+01 1.055906489491462708e-01 7.726460456848144531e+00 2.349615335464477539e+00 -4.820170700550079346e-01
2.235000000000000000e+03 5.242919921875000000e+01 2.646920776367187500e+01 -1.784332096576690674e-01 7.818214893341064453e+00 2.291934490203857422e+00 3.596877455711364746e-01
2.236000000000000000e+03 4.184622192382812500e+01 2.118975067138671875e+01 -4.506107419729232788e-02 7.799565792083740234e+00 2.326351404190063477e+00 4.980185627937316895e-01
2.237000000000000000e+03 4.387339401245117188e+01 2.571677970886230469e+01 -2.741671502590179443e-01 7.820473194122314453e+00 2.263891696929931641e+00 4.357406795024871826e-01
2.238000000000000000e+03 4.135805892944335938e+01 2.727470779418945312e+01 -3.956146240234375000e-01 7.805533885955810547e+00 2.222975730895996094e+00 4.145457148551940918e-01
2.239000000000000000e+03 5.605655670166015625e+01 2.338113784790039062e+01 -5.114884302020072937e-02 7.773696422576904297e+00 2.316764354705810547e+00 3.501243889331817627e-01
2.240000000000000000e+03 5.867059707641601562e+01 2.381316375732421875e+01 -5.858529731631278992e-02 7.774180412292480469e+00 2.314678430557250977e+00 3.173839747905731201e-01
2.241000000000000000e+03 4.657846069335937500e+01 -2.465587615966796875e+01 -2.624296545982360840e-01 7.786862850189208984e+00 2.257329940795898438e+00 -4.378311038017272949e-01
2.242000000000000000e+03 4.627716064453125000e+01 -2.226252174377441406e+01 -1.631286442279815674e-01 7.774092197418212891e+00 2.283289194107055664e+00 -4.821985363960266113e-01
2.243000000000000000e+03 5.264924621582031250e+01 -2.651698493957519531e+01 -2.144415974617004395e-01 7.815485954284667969e+00 2.280313253402709961e+00 -3.730307817459106445e-01
2.244000000000000000e+03 4.821994400024414062e+01 -2.305866813659667969e+01 -1.639928370714187622e-01 7.780993461608886719e+00 2.285100221633911133e+00 -4.554237425327301025e-01
2.245000000000000000e+03 5.085422897338867188e+01 -2.956597328186035156e+01 -3.330445289611816406e-01 7.836207389831542969e+00 2.250948905944824219e+00 -3.288677930831909180e-01
2.246000000000000000e+03 4.823889541625976562e+01 -2.710639381408691406e+01 -3.147206604480743408e-01 7.808499813079833984e+00 2.248133659362792969e+00 -3.926610648632049561e-01
2.247000000000000000e+03 4.942302703857421875e+01 2.378470611572265625e+01 -1.111873611807823181e-01 7.800345897674560547e+00 2.306747436523437500e+00 4.134307801723480225e-01
2.248000000000000000e+03 3.990332412719726562e+01 -3.270268630981445312e+01 -6.986971497535705566e-01 7.658555030822753906e+00 2.087957382202148438e+00 -2.402417808771133423e-01
2.249000000000000000e+03 3.969636154174804688e+01 -2.921211433410644531e+01 -5.808438062667846680e-01 7.699607849121093750e+00 2.135629177093505859e+00 -3.377826511859893799e-01
2.250000000000000000e+03 4.262063598632812500e+01 2.349048614501953125e+01 -1.700313240289688110e-01 7.802158355712890625e+00 2.289638042449951172e+00 4.705123305320739746e-01
2.251000000000000000e+03 5.911797332763671875e+01 2.125039863586425781e+01 7.990971207618713379e-03 7.741081714630126953e+00 2.324721813201904297e+00 3.177742063999176025e-01
2.252000000000000000e+03 4.400329208374023438e+01 3.337034988403320312e+01 -5.446309447288513184e-01 7.835976600646972656e+00 2.187403678894042969e+00 2.623979151248931885e-01
2.253000000000000000e+03 5.304984664916992188e+01 1.998283767700195312e+01 4.562276601791381836e-02 7.743930339813232422e+00 2.336865901947021484e+00 3.874327838420867920e-01
2.254000000000000000e+03 4.572713088989257812e+01 2.800498962402343750e+01 -3.448743224143981934e-01 7.837136268615722656e+00 2.247678756713867188e+00 3.796818554401397705e-01
2.255000000000000000e+03 5.218896484375000000e+01 3.355724334716796875e+01 -3.613689839839935303e-01 7.873289585113525391e+00 2.253576040267944336e+00 2.291363030672073364e-01
2.256000000000000000e+03 4.283689880371093750e+01 -3.126835250854492188e+01 -5.627223849296569824e-01 7.758004665374755859e+00 2.158584594726562500e+00 -3.210129141807556152e-01
2.257000000000000000e+03 5.270417022705078125e+01 -3.535952377319335938e+01 -4.203316271305084229e-01 7.869681835174560547e+00 2.234805107116699219e+00 -1.890613287687301636e-01
2.258000000000000000e+03 4.865933990478515625e+01 2.957996368408203125e+01 -3.321502506732940674e-01 7.845274925231933594e+00 2.253937482833862305e+00 3.353596031665802002e-01
2.259000000000000000e+03 4.448731994628906250e+01 -1.901813888549804688e+01 1.370367687195539474e-02 7.756254673004150391e+00 2.330987453460693359e+00 -5.110551118850708008e-01
2.260000000000000000e+03 4.060246658325195312e+01 3.483162307739257812e+01 -6.895747780799865723e-01 7.775176048278808594e+00 2.125680446624755859e+00 2.190313190221786499e-01
2.261000000000000000e+03 5.307489395141601562e+01 1.755753707885742188e+01 1.256473660469055176e-01 7.715315818786621094e+00 2.352288961410522461e+00 3.716354966163635254e-01
2.262000000000000000e+03 5.230265045166015625e+01 3.719408035278320312e+01 -4.207235872745513916e-01 7.894493579864501953e+00 2.242130994796752930e+00 1.427229344844818115e-01
2.263000000000000000e+03 5.392567825317382812e+01 2.210746765136718750e+01 -2.760259062051773071e-02 7.767599582672119141e+00 2.321999073028564453e+00 3.736830353736877441e-01
2.264000000000000000e+03 5.487237167358398438e+01 2.012439727783203125e+01 4.111893475055694580e-02 7.738791465759277344e+00 2.333973169326782227e+00 3.585303425788879395e-01
2.265000000000000000e+03 1.172866153717041016e+01 1.576356649398803711e+00 2.531532645225524902e-01 2.627142906188964844e+00 8.640888929367065430e-01 -2.059525251388549805e+00
2.266000000000000000e+03 1.158653354644775391e+01 1.778962612152099609e+00 7.669986784458160400e-02 2.398917675018310547e+00 7.426852583885192871e-01 -1.906830430030822754e+00
2.267000000000000000e+03 1.273861026763916016e+01 1.501691818237304688e+00 -1.281878352165222168e+00 6.451329708099365234e+00 1.550835490226745605e+00 -1.691109776496887207e+00
2.268000000000000000e+03 1.290828132629394531e+01 2.002846002578735352e+00 -1.765635371208190918e+00 5.643612384796142578e+00 1.163393139839172363e+00 -5.881545543670654297e-01
2.269000000000000000e+03 1.409239292144775391e+01 1.066119670867919922e+00 -3.401174843311309814e-01 3.452934265136718750e+00 9.338450431823730469e-01 3.527421951293945312e+00
2.270000000000000000e+03 1.426968002319335938e+01 1.932214021682739258e+00 -1.358570694923400879e+00 7.302705645561218262e-01 -1.884900331497192383e-01 2.783128499984741211e+00
2.271000000000000000e+03 1.453878688812255859e+01 2.348137348890304565e-01 3.673831224441528320e+00 -3.648440599441528320e+00 7.617198396474123001e-03 1.192628264427185059e+00
2.272000000000000000e+03 1.471246910095214844e+01 -1.874409168958663940e-01 4.250229358673095703e+00 -5.635348796844482422e+00 -4.155357778072357178e-01 4.043131470680236816e-01
2.273000000000000000e+03 1.259056282043457031e+01 -2.247430562973022461e+00 -1.469121813774108887e+00 5.039960861206054688e+00 1.071251630783081055e+00 1.628176569938659668e+00
2.274000000000000000e+03 1.208561134338378906e+01 -2.178862333297729492e+00 -7.498369216918945312e-01 3.702739953994750977e+00 8.858709335327148438e-01 2.271849155426025391e+00
2.275000000000000000e+03 1.499578666687011719e+01 6.085760593414306641e-01 -4.004846811294555664e-01 -8.704830169677734375e+00 -2.731594324111938477e+00 1.418302893638610840e+00
2.276000000000000000e+03 1.484990119934082031e+01 1.637434028089046478e-02 3.851287841796875000e+00 -6.869821548461914062e+00 -9.055601358413696289e-01 6.559951305389404297e-01
2.277000000000000000e+03 1.444555091857910156e+01 -1.188019514083862305e+00 9.065345525741577148e-01 -2.395803183317184448e-01 2.000862658023834229e-01 -4.019560813903808594e+00
2.278000000000000000e+03 1.317102527618408203e+01 -2.064672708511352539e+00 -1.889017581939697266e+00 5.770191192626953125e+00 1.164352059364318848e+00 2.569332718849182129e-01
2.279000000000000000e+03 1.282373237609863281e+01 -2.118063926696777344e+00 -1.713272571563720703e+00 5.505446910858154297e+00 1.137652397155761719e+00 1.188139319419860840e+00
2.280000000000000000e+03 1.298564434051513672e+01 -2.234918355941772461e+00 -1.925864219665527344e+00 5.340078830718994141e+00 1.024264454841613770e+00 7.272781729698181152e-01
2.281000000000000000e+03 1.481115627288818359e+01 2.713949680328369141e-01 1.642633557319641113e+00 -6.789164543151855469e+00 -1.543959259986877441e+00 9.845560789108276367e-01
2.282000000000000000e+03 1.470966720581054688e+01 1.203792765736579895e-01 3.385165452957153320e+00 -5.626107692718505859e+00 -6.722825765609741211e-01 6.181593537330627441e-01
2.283000000000000000e+03 1.526235294342041016e+01 -3.670028597116470337e-02 1.525366544723510742e+00 -1.263442325592041016e+01 -3.332717180252075195e+00 4.055965542793273926e-01
2.284000000000000000e+03 1.290381240844726562e+01 1.672314167022705078e+00 -1.546290636062622070e+00 6.213307380676269531e+00 1.400105118751525879e+00 -8.635025620460510254e-01
2.285000000000000000e+03 1.274212837219238281e+01 1.777718186378479004e+00 -1.274976491928100586e+00 5.205314636230468750e+00 1.179101467132568359e+00 -1.104199409484863281e+00
2.286000000000000000e+03 1.376354026794433594e+01 1.960245132446289062e+00 -1.855436325073242188e+00 3.726352691650390625e+00 5.612749457359313965e-01 1.775831341743469238e+00
2.287000000000000000e+03 1.370272922515869141e+01 2.499062061309814453e+00 -1.638754606246948242e+00 3.299360990524291992e+00 4.981819093227386475e-01 1.480955719947814941e+00
2.288000000000000000e+03 1.134747409820556641e+01 1.827218413352966309e+00 1.306217610836029053e-01 1.978480458259582520e+00 6.327306628227233887e-01 -1.686349987983703613e+00
2.289000000000000000e+03 1.165515708923339844e+01 2.079981088638305664e+00 -2.261338680982589722e-01 2.658117771148681641e+00 7.295951843261718750e-01 -1.730068683624267578e+00
2.290000000000000000e+03 1.083416461944580078e+01 2.491856336593627930e+00 -1.576106101274490356e-01 1.609595537185668945e+00 4.355954825878143311e-01 -1.193811058998107910e+00
2.291000000000000000e+03 4.066035270690917969e+00 -1.503689479827880859e+01 1.375421762466430664e+00 1.272880554199218750e+00 7.944906949996948242e-01 -7.656089216470718384e-02
2.292000000000000000e+03 2.229653358459472656e+00 4.489625930786132812e+00 -6.297671794891357422e-02 -2.444996386766433716e-01 -9.224291145801544189e-02 3.128897845745086670e-01
2.293000000000000000e+03 1.457216644287109375e+01 3.124785041809082031e+01 -5.639730095863342285e-01 4.513253688812255859e+00 1.184784293174743652e+00 -4.518609642982482910e-01
2.294000000000000000e+03 4.205092906951904297e+00 -2.025799942016601562e+01 -1.130263414233922958e-02 1.379768610000610352e+00 4.105397760868072510e-01 1.256649136543273926e+00
2.295000000000000000e+03 7.607398986816406250e+01 3.406599044799804688e+01 -1.418483722954988480e-02 7.912910938262939453e+00 2.369617700576782227e+00 5.351636931300163269e-02
2.296000000000000000e+03 3.101238012313842773e+00 3.720198059082031250e+01 -3.161644563078880310e-02 1.129376649856567383e+00 3.293280601501464844e-01 -2.343202978372573853e-01
2.297000000000000000e+03 1.263097667694091797e+01 2.731108903884887695e+00 -1.417246460914611816e+00 3.678512573242187500e+00 6.783798336982727051e-01 -3.466129899024963379e-01
2.298000000000000000e+03 1.193140602111816406e+01 1.977253079414367676e+00 -4.549305140972137451e-01 3.272918462753295898e+00 8.453963994979858398e-01 -1.787638068199157715e+00
2.299000000000000000e+03 2.155423545837402344e+01 -5.118140220642089844e+00 1.828753113746643066e+00 1.121984767913818359e+01 3.914580106735229492e+00 1.218623876571655273e+00
2.300000000000000000e+03 3.230552196502685547e+00 -1.774093437194824219e+01 5.116186738014221191e-01 -2.141778618097305298e-01 8.923223614692687988e-02 8.927002549171447754e-01
2.301000000000000000e+03 2.755617141723632812e+01 3.033488464355468750e+01 -7.996479272842407227e-01 7.116019725799560547e+00 1.894911527633666992e+00 3.558623790740966797e-02
2.302000000000000000e+03 6.090560913085937500e+00 -4.339601516723632812e+00 -3.280269801616668701e-01 5.973850488662719727e-01 8.080741018056869507e-02 -3.230998814105987549e-01
2.303000000000000000e+03 1.131388950347900391e+01 2.577508926391601562e+00 -4.934025406837463379e-01 2.211928129196166992e+00 5.155577063560485840e-01 -1.277515053749084473e+00
2.304000000000000000e+03 1.227401828765869141e+01 2.508234024047851562e+00 -1.261279225349426270e+00 3.488240718841552734e+00 6.680884361267089844e-01 -9.582037925720214844e-01
2.305000000000000000e+03 1.173988151550292969e+01 2.486428499221801758e+00 -7.892627716064453125e-01 2.875473260879516602e+00 6.258631348609924316e-01 -1.320144653320312500e+00
2.306000000000000000e+03 3.450343608856201172e+00 3.592908096313476562e+01 -5.114218220114707947e-02 1.230737090110778809e+00 3.538784682750701904e-01 -2.205429226160049438e-01
2.307000000000000000e+03 4.501011371612548828e+00 -2.128053092956542969e+01 -3.368226587772369385e-01 1.617951035499572754e+00 3.843385279178619385e-01 1.032568931579589844e+00
2.308000000000000000e+03 5.366702556610107422e+00 -2.196523094177246094e+01 -3.543165624141693115e-01 2.012007236480712891e+00 4.973071813583374023e-01 1.058104276657104492e+00
2.309000000000000000e+03 5.378425598144531250e+00 -1.037167835235595703e+01 -1.325441002845764160e-01 2.129578828811645508e+00 5.991104245185852051e-01 -6.095440983772277832e-01
2.310000000000000000e+03 1.259232711791992188e+01 -2.857561826705932617e+00 -1.758607745170593262e+00 3.792076826095581055e+00 6.100407838821411133e-01 9.467623233795166016e-01
2.311000000000000000e+03 1.022054958343505859e+01 4.440303325653076172e+00 -5.145094990730285645e-01 1.534469246864318848e+00 3.059879243373870850e-01 -5.629225969314575195e-01
2.312000000000000000e+03 1.296860313415527344e+01 2.462158966064453125e+01 1.711300462484359741e-01 3.917867183685302734e+00 1.226699233055114746e+00 -7.372100949287414551e-01
2.313000000000000000e+03 1.133556461334228516e+01 2.711038970947265625e+01 -2.834390401840209961e-01 3.648828029632568359e+00 1.009616732597351074e+00 -6.450568437576293945e-01
2.314000000000000000e+03 4.741020679473876953e+00 -9.860349655151367188e+00 -4.285005107522010803e-02 1.306285858154296875e+00 3.790307641029357910e-01 -7.102714180946350098e-01
2.315000000000000000e+03 1.197035884857177734e+01 3.630482673645019531e+00 -1.043708324432373047e+00 2.513827323913574219e+00 4.410357177257537842e-01 -4.323427677154541016e-01
2.316000000000000000e+03 6.123267650604248047e+00 -6.095684528350830078e+00 -3.079323768615722656e-01 1.123090147972106934e+00 2.445473223924636841e-01 -3.127586841583251953e-01
2.317000000000000000e+03 1.164996433258056641e+01 3.240947961807250977e+00 -9.519443511962890625e-01 2.499994039535522461e+00 4.644148945808410645e-01 -8.471435904502868652e-01
2.318000000000000000e+03 3.770524740219116211e+00 1.223959255218505859e+01 -1.444868892431259155e-01 2.218723297119140625e-01 2.321563474833965302e-02 9.744086265563964844e-01
2.319000000000000000e+03 2.910781097412109375e+01 2.727338600158691406e+01 -6.242614388465881348e-01 7.415121078491210938e+00 2.037257909774780273e+00 1.556442230939865112e-01
2.320000000000000000e+03 1.163538837432861328e+01 6.398780345916748047e+00 -5.082259178161621094e-01 1.697512388229370117e+00 3.567859530448913574e-01 -2.956208586692810059e-01
2.321000000000000000e+03 6.504593849182128906e+00 -6.832989692687988281e+00 -2.837283611297607422e-01 1.497286558151245117e+00 3.640674650669097900e-01 -2.158742249011993408e-01
2.322000000000000000e+03 3.389392137527465820e+00 5.567648887634277344e+00 -1.475986689329147339e-01 -1.238629445433616638e-01 -8.143848925828933716e-02 4.310243129730224609e-01
2.323000000000000000e+03 2.495246887207031250e+00 6.360995769500732422e+00 -7.658449560403823853e-02 -3.682976365089416504e-01 -1.334646344184875488e-01 4.682798683643341064e-01
2.324000000000000000e+03 1.354741764068603516e+01 2.702399063110351562e+01 -2.361568063497543335e-01 4.257307052612304688e+00 1.206345081329345703e+00 -6.584105491638183594e-01
2.325000000000000000e+03 1.614371299743652344e+01 -2.520108985900878906e+01 -3.057515025138854980e-01 4.936519145965576172e+00 1.389230370521545410e+00 7.235015034675598145e-01
2.326000000000000000e+03 8.507226943969726562e+00 -5.388210773468017578e+00 -3.523646295070648193e-01 1.610479116439819336e+00 3.774343430995941162e-01 4.734176695346832275e-01
2.327000000000000000e+03 1.142467784881591797e+01 5.530849933624267578e+00 -6.323658227920532227e-01 1.827655434608459473e+00 3.585869073867797852e-01 -3.776152133941650391e-01
2.328000000000000000e+03 2.419603347778320312e+01 -1.842531561851501465e-01 1.160454273223876953e+00 1.034555149078369141e+01 3.451801776885986328e+00 1.683095097541809082e-01
2.329000000000000000e+03 2.566063117980957031e+01 3.260104954242706299e-01 1.308211565017700195e+00 9.858556747436523438e+00 3.350030422210693359e+00 1.032029539346694946e-01
2.330000000000000000e+03 4.015045642852783203e+00 5.432106971740722656e+00 -1.668450236320495605e-01 3.659737296402454376e-03 -4.895558580756187439e-02 4.247106313705444336e-01
2.331000000000000000e+03 3.446012258529663086e+00 6.448916435241699219e+00 -1.681575477123260498e-01 -5.715960636734962463e-02 -6.759514659643173218e-02 4.885091483592987061e-01
2.332000000000000000e+03 7.954902172088623047e+00 -7.055644512176513672e+00 -2.457115054130554199e-01 1.971508264541625977e+00 5.177389979362487793e-01 3.104005455970764160e-01
2.333000000000000000e+03 7.915040016174316406e+00 -5.575556755065917969e+00 -3.181042671203613281e-01 1.517957806587219238e+00 3.599560558795928955e-01 2.266202718019485474e-01
2.334000000000000000e+03 1.608321571350097656e+01 2.671194267272949219e+01 -3.206266462802886963e-01 5.056157112121582031e+00 1.420659184455871582e+00 -6.772770285606384277e-01
2.335000000000000000e+03 2.919964408874511719e+01 -4.841098308563232422e+00 1.414367437362670898e+00 8.632966041564941406e+00 3.014200210571289062e+00 -6.498520076274871826e-02
2.336000000000000000e+03 2.793124771118164062e+01 -4.326773643493652344e+00 1.495341777801513672e+00 8.868397712707519531e+00 3.109122037887573242e+00 4.771407321095466614e-02
2.337000000000000000e+03 5.585763931274414062e+00 8.438503265380859375e+00 -4.544179737567901611e-01 9.441056251525878906e-01 1.469063013792037964e-01 4.574761092662811279e-01
2.338000000000000000e+03 2.482859230041503906e+01 1.035523223876953125e+01 1.107943534851074219e+00 9.042749404907226562e+00 3.045207738876342773e+00 -3.227480351924896240e-01
2.339000000000000000e+03 3.904759216308593750e+01 -2.086288070678710938e+01 -1.431222409009933472e-01 7.764430522918701172e+00 2.286392450332641602e+00 -5.067161917686462402e-01
2.340000000000000000e+03 4.155020141601562500e+01 1.883504867553710938e+01 1.111288592219352722e-01 7.787902832031250000e+00 2.369709491729736328e+00 4.973864257335662842e-01
2.341000000000000000e+03 4.582978439331054688e+01 2.375969123840332031e+01 -1.505564153194427490e-01 7.809309482574462891e+00 2.297625780105590820e+00 4.412933290004730225e-01
2.342000000000000000e+03 4.929812240600585938e+01 -2.076405715942382812e+01 -6.425201892852783203e-02 7.765477657318115234e+00 2.310367584228515625e+00 -4.621376097202301025e-01
2.343000000000000000e+03 1.650717926025390625e+01 2.202703857421875000e+01 2.129782140254974365e-01 5.335361480712890625e+00 1.664501905441284180e+00 -1.102363586425781250e+00
2.344000000000000000e+03 4.695358276367187500e+01 -1.973689842224121094e+01 -2.148384228348731995e-02 7.745480537414550781e+00 2.317198991775512695e+00 -4.990816712379455566e-01
2.345000000000000000e+03 4.270162105560302734e+00 6.119386672973632812e+00 -2.099515199661254883e-01 1.058634668588638306e-01 -3.122641704976558685e-02 4.403783679008483887e-01
2.346000000000000000e+03 8.122467994689941406e+00 -2.879267692565917969e+01 -3.905158638954162598e-01 2.791252613067626953e+00 7.202210426330566406e-01 6.845167875289916992e-01
2.347000000000000000e+03 2.722362136840820312e+01 9.276546239852905273e-01 1.388527989387512207e+00 9.287440299987792969e+00 3.202790260314941406e+00 4.243941977620124817e-02
2.348000000000000000e+03 4.800971031188964844e+00 6.718491554260253906e+00 -2.668079733848571777e-01 3.439707756042480469e-01 2.314884215593338013e-02 4.840531945228576660e-01
2.349000000000000000e+03 6.545215606689453125e+00 8.218091964721679688e+00 -3.801689147949218750e-01 1.138671398162841797e+00 2.275507450103759766e-01 2.625600695610046387e-01
2.350000000000000000e+03 2.547550010681152344e+01 5.834424018859863281e+00 1.297769069671630859e+00 9.483117103576660156e+00 3.234265804290771484e+00 -2.573997676372528076e-01
2.351000000000000000e+03 2.568803215026855469e+01 1.160163497924804688e+01 9.786259531974792480e-01 8.675789833068847656e+00 2.896324634552001953e+00 -1.570830196142196655e-01
2.352000000000000000e+03 6.985814666748046875e+01 -2.445925331115722656e+01 -2.825097925961017609e-02 7.828893184661865234e+00 2.340192556381225586e+00 -2.072591632604598999e-01
2.353000000000000000e+03 2.445341491699218750e+01 -1.521794128417968750e+01 1.222406998276710510e-01 8.002257347106933594e+00 2.437349557876586914e+00 2.371880114078521729e-01
2.354000000000000000e+03 5.110692214965820312e+01 1.479971599578857422e+01 2.426712661981582642e-01 7.687335491180419922e+00 2.379002094268798828e+00 3.675221800804138184e-01
2.355000000000000000e+03 7.014678955078125000e+01 -2.262586021423339844e+01 -1.714424416422843933e-02 7.805847644805908203e+00 2.336611032485961914e+00 -2.090911120176315308e-01
2.356000000000000000e+03 4.528004455566406250e+01 1.930288505554199219e+01 8.410796523094177246e-02 7.769517421722412109e+00 2.356087684631347656e+00 4.698107540607452393e-01
2.357000000000000000e+03 3.470534133911132812e+01 -6.904467105865478516e+00 1.041803002357482910e+00 7.967454910278320312e+00 2.702777385711669922e+00 -3.388953804969787598e-01
2.358000000000000000e+03 5.840581512451171875e+01 1.357731437683105469e+01 1.808828115463256836e-01 7.656706333160400391e+00 2.351276874542236328e+00 2.691217958927154541e-01
2.359000000000000000e+03 5.754766082763671875e+01 -1.363060379028320312e+01 1.517930924892425537e-01 7.679070472717285156e+00 2.349259138107299805e+00 -3.403978347778320312e-01
2.360000000000000000e+03 6.843572235107421875e+01 -2.011251068115234375e+01 -2.785035641863942146e-03 7.763931751251220703e+00 2.328344106674194336e+00 -2.403856068849563599e-01
2.361000000000000000e+03 3.590298843383789062e+01 -9.953603744506835938e+00 7.529826164245605469e-01 7.855845451354980469e+00 2.582648515701293945e+00 -4.454478919506072998e-01
2.362000000000000000e+03 3.427405166625976562e+01 -1.041959095001220703e+01 7.589783072471618652e-01 7.968934059143066406e+00 2.618373870849609375e+00 -4.505565166473388672e-01
2.363000000000000000e+03 7.315280914306640625e+01 -2.005266952514648438e+01 -2.645620144903659821e-03 7.771972656250000000e+00 2.330798149108886719e+00 -1.633724868297576904e-01
2.364000000000000000e+03 3.588732147216796875e+01 1.008376216888427734e+01 8.498790860176086426e-01 7.934261322021484375e+00 2.635242223739624023e+00 3.698506057262420654e-01
2.365000000000000000e+03 3.512449264526367188e+01 -8.326819419860839844e+00 9.047817587852478027e-01 7.934815406799316406e+00 2.651879072189331055e+00 -3.843339979648590088e-01
2.366000000000000000e+03 5.084150314331054688e+01 6.774104118347167969e+00 4.975468814373016357e-01 7.604596614837646484e+00 2.430643081665039062e+00 1.919042468070983887e-01
2.367000000000000000e+03 5.573454284667968750e+01 -1.255378818511962891e+01 2.071638703346252441e-01 7.662658214569091797e+00 2.360946655273437500e+00 -3.522676527500152588e-01
2.368000000000000000e+03 4.051488876342773438e+01 4.594492435455322266e+00 9.387556314468383789e-01 7.740895271301269531e+00 2.603895187377929688e+00 1.662774682044982910e-01
2.369000000000000000e+03 5.273447418212890625e+01 -6.046204566955566406e+00 4.353662133216857910e-01 7.600319862365722656e+00 2.410705804824829102e+00 -2.395091503858566284e-01
2.370000000000000000e+03 3.679883956909179688e+01 6.488639831542968750e+00 1.031289935111999512e+00 7.911916732788085938e+00 2.682961940765380859e+00 2.546565830707550049e-01
2.371000000000000000e+03 7.140491485595703125e+01 -1.833209609985351562e+01 5.839022807776927948e-03 7.740609169006347656e+00 2.323934555053710938e+00 -1.912664175033569336e-01
2.372000000000000000e+03 4.075502014160156250e+01 -2.631156444549560547e+00 9.499589204788208008e-01 7.716829776763916016e+00 2.600036621093750000e+00 -1.611570566892623901e-01
2.373000000000000000e+03 5.417498779296875000e+01 -7.640260219573974609e+00 3.584312796592712402e-01 7.611399650573730469e+00 2.390949249267578125e+00 -2.691511809825897217e-01
2.374000000000000000e+03 6.963303375244140625e+01 8.680837631225585938e+00 7.571917772293090820e-02 7.581499576568603516e+00 2.297165632247924805e+00 1.023271009325981140e-01
2.375000000000000000e+03 5.790203475952148438e+01 6.549531459808349609e+00 3.103078603744506836e-01 7.596507072448730469e+00 2.372044563293457031e+00 1.340591609477996826e-01
2.376000000000000000e+03 5.527770614624023438e+01 3.971734046936035156e+00 4.047927260398864746e-01 7.582149028778076172e+00 2.396082639694213867e+00 7.850472629070281982e-02
2.377000000000000000e+03 9.390020370483398438e+00 3.206591010093688965e-01 -7.228999137878417969e-01 -3.223252715542912483e-04 -2.169666737318038940e-01 -3.135419636964797974e-02
2.378000000000000000e+03 9.823632240295410156e+00 5.588741898536682129e-01 -3.972583413124084473e-01 5.139755830168724060e-02 -1.037582382559776306e-01 -1.829375028610229492e-01
2.379000000000000000e+03 8.818025588989257812e+00 2.736504971981048584e-01 -8.536288738250732422e-01 1.027211267501115799e-02 -2.530070245265960693e-01 -4.374054260551929474e-03
2.380000000000000000e+03 8.088851928710937500e+00 1.258038520812988281e+00 -4.006074965000152588e-01 7.260307669639587402e-02 -9.840132296085357666e-02 -6.375860422849655151e-02
2.381000000000000000e+03 6.542286396026611328e+00 2.684209942817687988e-01 -7.549555301666259766e-01 -1.107555627822875977e-02 -2.298093289136886597e-01 3.550395742058753967e-02
2.382000000000000000e+03 5.002790451049804688e+00 2.688190042972564697e-01 -5.196473002433776855e-01 -1.663265191018581390e-02 -1.608839929103851318e-01 4.589940607547760010e-02
2.383000000000000000e+03 2.070417165756225586e+00 7.775204181671142578e-01 -1.138256564736366272e-01 1.117835659533739090e-02 -3.079419024288654327e-02 7.309281826019287109e-02
2.384000000000000000e+03 3.466762304306030273e+00 2.667099237442016602e-01 -2.566120028495788574e-01 -2.368726022541522980e-02 -8.408977836370468140e-02 3.872448578476905823e-02
2.385000000000000000e+03 1.034104704856872559e+00 1.126321315765380859e+00 -1.713649369776248932e-02 -4.024156183004379272e-02 -1.721341535449028015e-02 4.706228524446487427e-02
2.386000000000000000e+03 1.971276164054870605e+00 2.777042388916015625e-01 -5.639170482754707336e-02 -2.048091404139995575e-02 -2.306178584694862366e-02 2.787506394088268280e-02
2.387000000000000000e+03 3.662343621253967285e-01 9.562662839889526367e-01 1.639537885785102844e-02 -1.744351029628887773e-04 4.866282921284437180e-03 2.238066494464874268e-02
2.388000000000000000e+03 2.025588512420654297e+00 1.259816169738769531e+00 -7.189721614122390747e-02 -2.807297371327877045e-02 -2.999105677008628845e-02 9.875797480344772339e-02
2.389000000000000000e+03 6.475025415420532227e-01 3.863213062286376953e-01 -3.063687868416309357e-02 -1.870630681514739990e-02 -1.480295509099960327e-02 -1.799665577709674835e-02
2.390000000000000000e+03 2.707930803298950195e+00 2.663494348526000977e-01 -1.519494205713272095e-01 1.889302767813205719e-02 -3.991691768169403076e-02 3.341422230005264282e-02
2.391000000000000000e+03 5.008277893066406250e+00 7.643790841102600098e-01 -4.470868110656738281e-01 1.443423796445131302e-02 -1.297957748174667358e-01 1.227355301380157471e-01
2.392000000000000000e+03 5.014250755310058594e+00 1.255560040473937988e+00 -3.668088912963867188e-01 -6.562306662090122700e-04 -1.102395430207252502e-01 1.744309961795806885e-01
2.393000000000000000e+03 7.311443328857421875e+00 2.674756050109863281e-01 -8.367369771003723145e-01 1.568879187107086182e-02 -2.463144659996032715e-01 2.842030860483646393e-02
2.394000000000000000e+03 8.074501991271972656e+00 2.667501270771026611e-01 -8.695455789566040039e-01 -2.738988725468516350e-03 -2.616853713989257812e-01 7.438634522259235382e-03
2.395000000000000000e+03 8.814806938171386719e+00 1.261414766311645508e+00 -3.143884241580963135e-01 1.633917093276977539e-01 -4.529901593923568726e-02 -1.738720089197158813e-01
2.396000000000000000e+03 9.854766845703125000e+00 7.697412371635437012e-01 -1.609101146459579468e-01 8.747690916061401367e-02 -2.202996425330638885e-02 -2.848263978958129883e-01
2.397000000000000000e+03 9.451915740966796875e+00 6.052073240280151367e-01 -4.646597802639007568e-01 5.458151921629905701e-02 -1.230234801769256592e-01 -1.181827634572982788e-01
2.398000000000000000e+03 9.858125686645507812e+00 1.157339930534362793e+00 -5.257431417703628540e-02 1.932062953710556030e-01 4.218959435820579529e-02 -4.417387247085571289e-01
2.399000000000000000e+03 9.734535217285156250e+00 1.374825358390808105e+00 3.367013484239578247e-02 2.653041779994964600e-01 8.969228714704513550e-02 -5.043758749961853027e-01
2.400000000000000000e+03 9.708398818969726562e+00 1.323551088571548462e-01 -8.571282625198364258e-01 1.037839427590370178e-02 -2.540249526500701904e-01 -1.804361492395401001e-02
2.401000000000000000e+03 9.881252288818359375e+00 9.699609279632568359e-01 -3.900736197829246521e-02 1.222916021943092346e-01 2.498527243733406067e-02 -3.859441876411437988e-01
2.402000000000000000e+03 9.629108428955078125e+00 1.028456687927246094e+00 -1.259116828441619873e-01 1.766128987073898315e-01 1.521036215126514435e-02 -3.361813127994537354e-01
2.403000000000000000e+03 9.340819358825683594e+00 1.175664067268371582e+00 -2.234541624784469604e-01 1.502905040979385376e-01 -2.194909751415252686e-02 -3.245815336704254150e-01
2.404000000000000000e+03 8.771174430847167969e+00 7.750653028488159180e-01 -5.091271400451660156e-01 3.784835711121559143e-02 -1.413836330175399780e-01 -8.546628803014755249e-02
2.405000000000000000e+03 8.072275161743164062e+00 7.647886276245117188e-01 -6.224420070648193359e-01 3.854984045028686523e-02 -1.751676499843597412e-01 5.418893415480852127e-03
2.406000000000000000e+03 4.233837604522705078e+00 2.677745223045349121e-01 -3.870252072811126709e-01 1.721121929585933685e-02 -1.109441965818405151e-01 4.842832684516906738e-02
2.407000000000000000e+03 4.243557929992675781e+00 1.255559921264648438e+00 -3.083170652389526367e-01 1.482426887378096581e-03 -9.205038845539093018e-02 1.772200614213943481e-01
2.408000000000000000e+03 5.772145271301269531e+00 2.691156268119812012e-01 -6.489736437797546387e-01 1.658801361918449402e-02 -1.897156983613967896e-01 4.549644887447357178e-02
2.409000000000000000e+03 1.552874684333801270e+00 9.442464113235473633e-01 -7.095482200384140015e-02 -6.219685077667236328e-02 -3.994550183415412903e-02 6.115609407424926758e-02
2.410000000000000000e+03 6.549821376800537109e+00 7.629975080490112305e-01 -6.057312488555908203e-01 2.637236192822456360e-02 -1.738076657056808472e-01 8.736365288496017456e-02
2.411000000000000000e+03 9.553466796875000000e+00 8.166002035140991211e-01 -2.838198244571685791e-01 1.292129904031753540e-01 -4.638204723596572876e-02 -2.362413406372070312e-01
2.412000000000000000e+03 9.802687644958496094e+00 3.489404618740081787e-01 -5.023787021636962891e-01 3.719549626111984253e-02 -1.395549625158309937e-01 -7.079074531793594360e-02
2.413000000000000000e+03 1.279694795608520508e+00 3.243741691112518311e-01 -9.024328552186489105e-03 3.817393211647868156e-03 -1.562080695293843746e-03 1.087765302509069443e-02
2.414000000000000000e+03 2.721992969512939453e+00 1.258394956588745117e+00 -1.561474651098251343e-01 -4.087098315358161926e-02 -5.910553410649299622e-02 1.427630186080932617e-01
2.415000000000000000e+03 3.475747108459472656e+00 1.256144523620605469e+00 -2.173552811145782471e-01 -2.626908197999000549e-02 -7.308731228113174438e-02 1.734735220670700073e-01
2.416000000000000000e+03 4.239211559295654297e+00 7.633345127105712891e-01 -3.415384590625762939e-01 -1.438134536147117615e-02 -1.067759394645690918e-01 1.210730597376823425e-01
2.417000000000000000e+03 5.785768032073974609e+00 1.254927873611450195e+00 -4.452478587627410889e-01 3.665582090616226196e-02 -1.225776076316833496e-01 1.495551764965057373e-01
2.418000000000000000e+03 6.557456016540527344e+00 1.254576563835144043e+00 -4.597884714603424072e-01 2.740112692117691040e-02 -1.297162026166915894e-01 1.029085665941238403e-01
2.419000000000000000e+03 7.327400207519531250e+00 1.255424261093139648e+00 -4.862465858459472656e-01 7.504613697528839111e-02 -1.233601346611976624e-01 4.961246252059936523e-02
2.420000000000000000e+03 2.732897520065307617e+00 7.647443413734436035e-01 -1.482327431440353394e-01 -2.666333690285682678e-02 -5.246882513165473938e-02 8.888291567564010620e-02
2.421000000000000000e+03 7.318343639373779297e+00 7.628998756408691406e-01 -6.267243027687072754e-01 1.203838363289833069e-02 -1.844057738780975342e-01 4.096250236034393311e-02
2.422000000000000000e+03 9.256969451904296875e+00 8.185917139053344727e-01 -4.355632066726684570e-01 5.808364972472190857e-02 -1.132438704371452332e-01 -1.546526402235031128e-01
2.423000000000000000e+03 5.778571605682373047e+00 7.640435695648193359e-01 -5.276332497596740723e-01 -3.873192239552736282e-03 -1.594519317150115967e-01 1.056887730956077576e-01
2.424000000000000000e+03 3.474904060363769531e+00 7.628544569015502930e-01 -2.478849142789840698e-01 -2.112314337864518166e-03 -7.499916851520538330e-02 1.149097084999084473e-01
2.425000000000000000e+03 1.289746093750000000e+01 -1.441114991903305054e-01 2.309957122802734375e+01 2.798567533493041992e+00 7.769441604614257812e+00 6.082221984863281250e+00
2.426000000000000000e+03 1.290049457550048828e+01 -1.633418351411819458e-01 2.224178504943847656e+01 9.571749687194824219e+00 9.544060707092285156e+00 1.320973968505859375e+01
2.427000000000000000e+03 1.290721416473388672e+01 -1.816135644912719727e-01 2.091991233825683594e+01 1.619074630737304688e+01 1.113319778442382812e+01 1.602596664428710938e+01
2.428000000000000000e+03 1.291736316680908203e+01 -1.982274651527404785e-01 1.859736633300781250e+01 2.378925323486328125e+01 1.271598625183105469e+01 1.723284530639648438e+01
2.429000000000000000e+03 1.293055152893066406e+01 -2.125477939844131470e-01 1.607320404052734375e+01 3.055945587158203125e+01 1.398979759216308594e+01 1.665051460266113281e+01
2.430000000000000000e+03 1.294627571105957031e+01 -2.240265309810638428e-01 1.365491676330566406e+01 3.684086990356445312e+01 1.514873600006103516e+01 1.433739662170410156e+01
2.431000000000000000e+03 1.296393394470214844e+01 -2.322244346141815186e-01 1.195185089111328125e+01 4.145899200439453125e+01 1.602325248718261719e+01 1.078943729400634766e+01
2.432000000000000000e+03 1.298285007476806641e+01 -2.368277907371520996e-01 1.127308750152587891e+01 4.425896072387695312e+01 1.665961456298828125e+01 6.343930721282958984e+00
2.433000000000000000e+03 1.300230026245117188e+01 -2.376604378223419189e-01 1.218999385833740234e+01 4.513230895996093750e+01 1.719669151306152344e+01 1.734928250312805176e+00
2.434000000000000000e+03 1.302154064178466797e+01 -2.346905171871185303e-01 1.380577182769775391e+01 4.387815856933593750e+01 1.730517959594726562e+01 -2.419725656509399414e+00
2.435000000000000000e+03 1.303983402252197266e+01 -2.280316799879074097e-01 1.724505233764648438e+01 4.157775878906250000e+01 1.764684295654296875e+01 -5.437537193298339844e+00
2.436000000000000000e+03 1.305648136138916016e+01 -2.179387211799621582e-01 2.031431198120117188e+01 3.776966857910156250e+01 1.742519378662109375e+01 -7.373785018920898438e+00
2.437000000000000000e+03 1.307084560394287109e+01 -2.047979086637496948e-01 2.413119506835937500e+01 3.447105789184570312e+01 1.758067512512207031e+01 -7.573318004608154297e+00
2.438000000000000000e+03 1.308237743377685547e+01 -1.891120672225952148e-01 2.719981765747070312e+01 3.076123619079589844e+01 1.738831520080566406e+01 -6.638639926910400391e+00
2.439000000000000000e+03 1.309063339233398438e+01 -1.714814752340316772e-01 2.946746063232421875e+01 2.822164726257324219e+01 1.730673217773437500e+01 -4.698944091796875000e+00
2.440000000000000000e+03 1.309530067443847656e+01 -1.525807827711105347e-01 3.108052444458007812e+01 2.700098800659179688e+01 1.742445373535156250e+01 -1.827627182006835938e+00
2.441000000000000000e+03 1.309619712829589844e+01 -1.331332623958587646e-01 3.109518623352050781e+01 2.612087059020996094e+01 1.716481590270996094e+01 1.155110001564025879e+00
2.442000000000000000e+03 1.309329128265380859e+01 -1.138831302523612976e-01 3.051633453369140625e+01 2.772405242919921875e+01 1.747211647033691406e+01 3.989177942276000977e+00
2.443000000000000000e+03 1.308669376373291016e+01 -9.556703269481658936e-02 2.829065895080566406e+01 2.960836982727050781e+01 1.736970901489257812e+01 6.579543590545654297e+00
2.444000000000000000e+03 1.307665634155273438e+01 -7.888588309288024902e-02 2.558027076721191406e+01 3.277328491210937500e+01 1.750606727600097656e+01 8.037532806396484375e+00
2.445000000000000000e+03 1.306356334686279297e+01 -6.447800993919372559e-02 2.209349632263183594e+01 3.658077621459960938e+01 1.760228157043457031e+01 8.330448150634765625e+00
2.446000000000000000e+03 1.304791641235351562e+01 -5.289478227496147156e-02 1.826854133605957031e+01 4.017687606811523438e+01 1.753362464904785156e+01 7.260187625885009766e+00
2.447000000000000000e+03 1.303031253814697266e+01 -4.457945004105567932e-02 1.503253936767578125e+01 4.335072326660156250e+01 1.751497840881347656e+01 4.670747756958007812e+00
2.448000000000000000e+03 1.301142787933349609e+01 -3.985021263360977173e-02 1.225629329681396484e+01 4.514124679565429688e+01 1.721926307678222656e+01 8.901270031929016113e-01
2.449000000000000000e+03 1.299198341369628906e+01 -3.888805583119392395e-02 1.087424087524414062e+01 4.525655746459960938e+01 1.683923912048339844e+01 -3.600912809371948242e+00
2.450000000000000000e+03 1.297272396087646484e+01 -4.172978922724723816e-02 1.079975986480712891e+01 4.331604003906250000e+01 1.623473930358886719e+01 -8.313892364501953125e+00
2.451000000000000000e+03 1.295438575744628906e+01 -4.826667159795761108e-02 1.178221797943115234e+01 3.934640121459960938e+01 1.533858585357666016e+01 -1.241497230529785156e+01
2.452000000000000000e+03 1.293767166137695312e+01 -5.824855715036392212e-02 1.407727622985839844e+01 3.375821304321289062e+01 1.435064697265625000e+01 -1.539581108093261719e+01
2.453000000000000000e+03 1.292321968078613281e+01 -7.129345834255218506e-02 1.633558845520019531e+01 2.686332702636718750e+01 1.295967388153076172e+01 -1.690513038635253906e+01
2.454000000000000000e+03 1.291158485412597656e+01 -8.690219372510910034e-02 1.911863517761230469e+01 1.944785881042480469e+01 1.156994819641113281e+01 -1.648556518554687500e+01
2.455000000000000000e+03 1.290321063995361328e+01 -1.044774502515792847e-01 2.087351989746093750e+01 1.200008583068847656e+01 9.862081527709960938e+00 -1.439565944671630859e+01
2.456000000000000000e+03 1.289841842651367188e+01 -1.233466789126396179e-01 2.311227035522460938e+01 4.243932723999023438e+00 8.206860542297363281e+00 -8.009286880493164062e+00
