# el_label, x, y, sXX, sYY, sZZ, sXY
1.000000000000000000e+00 3.482218933105468750e+01 -6.745712757110595703e+00 -3.595268487930297852e+00 -2.750048637390136719e+00 -1.903595089912414551e+00 -2.707981109619140625e+00
2.000000000000000000e+00 3.462479400634765625e+01 -6.771261215209960938e+00 3.806007802486419678e-01 1.058594703674316406e+00 4.317586421966552734e-01 7.743014097213745117e-01
3.000000000000000000e+00 3.442739868164062500e+01 -6.796809673309326172e+00 -8.275414705276489258e-01 -4.305419623851776123e-01 -3.774250447750091553e-01 -1.877808198332786560e-02
4.000000000000000000e+00 3.423000335693359375e+01 -6.822358131408691406e+00 -1.133129715919494629e+00 2.294729948043823242e-01 -2.710970044136047363e-01 1.490068435668945312e-01
5.000000000000000000e+00 3.483531570434570312e+01 -6.802622795104980469e+00 1.131940937042236328e+01 -2.292108774185180664e+00 2.708190202713012695e+00 2.341488599777221680e+00
6.000000000000000000e+00 3.464667129516601562e+01 -6.866111755371093750e+00 4.289603233337402344e+00 4.140626192092895508e-01 1.411099791526794434e+00 1.500565886497497559e+00
7.000000000000000000e+00 3.445802688598632812e+01 -6.929600715637207031e+00 4.006586551666259766e+00 1.012323379516601562e+00 1.505673050880432129e+00 2.216259956359863281e+00
8.000000000000000000e+00 3.426938247680664062e+01 -6.993089675903320312e+00 2.799657106399536133e+00 2.509157955646514893e-01 9.151718616485595703e-01 1.420517325401306152e+00
9.000000000000000000e+00 3.485926818847656250e+01 -6.855889320373535156e+00 1.598681163787841797e+01 3.099984645843505859e+00 5.726038932800292969e+00 9.316696166992187500e+00
1.000000000000000000e+01 3.468659210205078125e+01 -6.954888820648193359e+00 9.892058372497558594e+00 1.856290578842163086e+00 3.524504661560058594e+00 5.457910537719726562e+00
1.100000000000000000e+01 3.451391983032226562e+01 -7.053887844085693359e+00 6.771558761596679688e+00 2.327284574508666992e+00 2.729652881622314453e+00 4.314667701721191406e+00
1.200000000000000000e+01 3.434124374389648438e+01 -7.152887821197509766e+00 5.832943439483642578e+00 2.235564708709716797e+00 2.420552492141723633e+00 4.041198730468750000e+00
1.300000000000000000e+01 3.489313125610351562e+01 -6.903472423553466797e+00 1.723991394042968750e+01 1.031245422363281250e+01 8.265710830688476562e+00 1.449937725067138672e+01
1.400000000000000000e+01 3.474303436279296875e+01 -7.034194469451904297e+00 1.131296730041503906e+01 6.423873424530029297e+00 5.321052551269531250e+00 9.479602813720703125e+00
1.500000000000000000e+01 3.459293746948242188e+01 -7.164916515350341797e+00 8.977221488952636719e+00 5.233599662780761719e+00 4.263246536254882812e+00 7.520632743835449219e+00
1.600000000000000000e+01 3.444284057617187500e+01 -7.295638084411621094e+00 7.215199470520019531e+00 4.773505687713623047e+00 3.596611499786376953e+00 6.376711845397949219e+00
1.700000000000000000e+01 3.493561553955078125e+01 -6.943552494049072266e+00 1.518516826629638672e+01 1.909212684631347656e+01 1.028318881988525391e+01 1.743799400329589844e+01
1.800000000000000000e+01 3.481383895874023438e+01 -7.100994586944580078e+00 1.114397335052490234e+01 1.242996788024902344e+01 7.072182655334472656e+00 1.230073738098144531e+01
1.900000000000000000e+01 3.469206237792968750e+01 -7.258436203002929688e+00 8.798735618591308594e+00 9.831709861755371094e+00 5.589133739471435547e+00 9.845606803894042969e+00
2.000000000000000000e+01 3.457028579711914062e+01 -7.415878295898437500e+00 7.452267646789550781e+00 8.504769325256347656e+00 4.787110805511474609e+00 8.580723762512207031e+00
2.100000000000000000e+01 3.498508834838867188e+01 -6.974595546722412109e+00 1.234646415710449219e+01 2.795850181579589844e+01 1.209148979187011719e+01 1.772152328491210938e+01
2.200000000000000000e+01 3.489628982543945312e+01 -7.152732372283935547e+00 9.310354232788085938e+00 1.914245033264160156e+01 8.535840988159179688e+00 1.319080829620361328e+01
2.300000000000000000e+01 3.480749511718750000e+01 -7.330869197845458984e+00 7.756959438323974609e+00 1.530902862548828125e+01 6.919796466827392578e+00 1.097664356231689453e+01
2.400000000000000000e+01 3.471870040893554688e+01 -7.509006500244140625e+00 6.334376811981201172e+00 1.305543708801269531e+01 5.816944122314453125e+00 9.510532379150390625e+00
2.500000000000000000e+01 3.503965759277343750e+01 -6.995412826538085938e+00 9.332375526428222656e+00 3.590089035034179688e+01 1.356997966766357422e+01 1.537181663513183594e+01
2.600000000000000000e+01 3.498723983764648438e+01 -7.187428474426269531e+00 7.506123542785644531e+00 2.553708457946777344e+01 9.912962913513183594e+00 1.228726100921630859e+01
2.700000000000000000e+01 3.493482208251953125e+01 -7.379443645477294922e+00 6.002590656280517578e+00 2.079388236999511719e+01 8.038942337036132812e+00 1.040351676940917969e+01
2.800000000000000000e+01 3.488240814208984375e+01 -7.571458816528320312e+00 5.110741138458251953e+00 1.800300407409667969e+01 6.934123516082763672e+00 9.286241531372070312e+00
2.900000000000000000e+01 3.509723281860351562e+01 -7.005208492279052734e+00 7.754692554473876953e+00 4.193309020996093750e+01 1.490633392333984375e+01 1.121722126007080078e+01
3.000000000000000000e+01 3.508319854736328125e+01 -7.203754425048828125e+00 6.022024154663085938e+00 3.083859252929687500e+01 1.105818462371826172e+01 9.664177894592285156e+00
3.100000000000000000e+01 3.506917190551757812e+01 -7.402300357818603516e+00 4.784912586212158203e+00 2.558768653869628906e+01 9.111779212951660156e+00 8.559763908386230469e+00
3.200000000000000000e+01 3.505513763427734375e+01 -7.600845813751220703e+00 3.999413728713989258e+00 2.231596183776855469e+01 7.894612789154052734e+00 7.661993026733398438e+00
3.300000000000000000e+01 3.515561294555664062e+01 -7.003607749938964844e+00 7.894488811492919922e+00 4.547978210449218750e+01 1.601228141784667969e+01 5.996862411499023438e+00
3.400000000000000000e+01 3.518050384521484375e+01 -7.201086044311523438e+00 5.734140872955322266e+00 3.458099746704101562e+01 1.209454154968261719e+01 6.135339260101318359e+00
3.500000000000000000e+01 3.520539474487304688e+01 -7.398564815521240234e+00 4.408564567565917969e+00 2.900152969360351562e+01 1.002302837371826172e+01 5.593401432037353516e+00
3.600000000000000000e+01 3.523028564453125000e+01 -7.596043586730957031e+00 3.617925882339477539e+00 2.554174041748046875e+01 8.747900009155273438e+00 5.215429782867431641e+00
3.700000000000000000e+01 3.521257019042968750e+01 -6.990671634674072266e+00 9.976881980895996094e+00 4.660971450805664062e+01 1.697597885131835938e+01 9.652641415596008301e-01
3.800000000000000000e+01 3.527542877197265625e+01 -7.179525852203369141e+00 6.803136825561523438e+00 3.638700866699218750e+01 1.295704364776611328e+01 2.194333553314208984e+00
3.900000000000000000e+01 3.533828735351562500e+01 -7.368380069732666016e+00 5.189051151275634766e+00 3.092069816589355469e+01 1.083292484283447266e+01 2.310099601745605469e+00
4.000000000000000000e+01 3.540114974975585938e+01 -7.557234287261962891e+00 4.261713981628417969e+00 2.727799987792968750e+01 9.461914062500000000e+00 2.237406253814697266e+00
4.100000000000000000e+01 3.526591491699218750e+01 -6.966894626617431641e+00 1.353823566436767578e+01 4.560776519775390625e+01 1.774380111694335938e+01 -3.135272264480590820e+00
4.200000000000000000e+01 3.536433792114257812e+01 -7.139898300170898438e+00 9.212277412414550781e+00 3.651463699340820312e+01 1.371807479858398438e+01 -1.311100721359252930e+00
4.300000000000000000e+01 3.546276092529296875e+01 -7.312901020050048828e+00 7.120572090148925781e+00 3.117202568054199219e+01 1.148777866363525391e+01 -7.913842797279357910e-01
4.400000000000000000e+01 3.556118774414062500e+01 -7.485904216766357422e+00 5.885971546173095703e+00 2.772666358947753906e+01 1.008379077911376953e+01 -5.355791449546813965e-01
4.500000000000000000e+01 3.531361007690429688e+01 -6.933187484741210938e+00 1.798568534851074219e+01 4.337722015380859375e+01 1.840887260437011719e+01 -5.641673564910888672e+00
4.600000000000000000e+01 3.544383239746093750e+01 -7.083719730377197266e+00 1.253136825561523438e+01 3.514334106445312500e+01 1.430241203308105469e+01 -3.907902956008911133e+00
4.700000000000000000e+01 3.557405471801757812e+01 -7.234251499176025391e+00 9.992781639099121094e+00 3.025327873229980469e+01 1.207381820678710938e+01 -3.075642585754394531e+00
4.800000000000000000e+01 3.570427322387695312e+01 -7.384783267974853516e+00 8.307175636291503906e+00 2.687589263916015625e+01 1.055492019653320312e+01 -2.650542497634887695e+00
4.900000000000000000e+01 3.535383224487304688e+01 -6.890839576721191406e+00 2.246879005432128906e+01 4.049225234985351562e+01 1.888831329345703125e+01 -6.492839336395263672e+00
5.000000000000000000e+01 3.551086807250976562e+01 -7.013139724731445312e+00 1.627824020385742188e+01 3.306740570068359375e+01 1.480369472503662109e+01 -5.126351833343505859e+00
5.100000000000000000e+01 3.566790390014648438e+01 -7.135439872741699219e+00 1.324922466278076172e+01 2.842265701293945312e+01 1.250156402587890625e+01 -4.287576675415039062e+00
5.200000000000000000e+01 3.582493972778320312e+01 -7.257740020751953125e+00 1.126541328430175781e+01 2.543014144897460938e+01 1.100866603851318359e+01 -3.736430644989013672e+00
5.300000000000000000e+01 3.538504028320312500e+01 -6.841471672058105469e+00 2.631976699829101562e+01 3.789014434814453125e+01 1.926297378540039062e+01 -5.815634250640869141e+00
5.400000000000000000e+01 3.556287765502929688e+01 -6.930860042572021484e+00 1.981347656250000000e+01 3.070905876159667969e+01 1.515676021575927734e+01 -4.935680866241455078e+00
5.500000000000000000e+01 3.574071884155273438e+01 -7.020248413085937500e+00 1.632005310058593750e+01 2.649431037902832031e+01 1.284430885314941406e+01 -4.247843265533447266e+00
5.600000000000000000e+01 3.591856002807617188e+01 -7.109636306762695312e+00 1.413149929046630859e+01 2.366224670410156250e+01 1.133812427520751953e+01 -3.739106416702270508e+00
5.700000000000000000e+01 3.540603637695312500e+01 -6.786972999572753906e+00 2.909911155700683594e+01 3.591944503784179688e+01 1.950556755065917969e+01 -3.968562602996826172e+00
5.800000000000000000e+01 3.559787750244140625e+01 -6.840028762817382812e+00 2.249313926696777344e+01 2.883006477355957031e+01 1.539696121215820312e+01 -3.558379650115966797e+00
5.900000000000000000e+01 3.578971862792968750e+01 -6.893084049224853516e+00 1.872982215881347656e+01 2.485951995849609375e+01 1.307680320739746094e+01 -3.057382583618164062e+00
6.000000000000000000e+01 3.598155975341796875e+01 -6.946139812469482422e+00 1.624536705017089844e+01 2.219876670837402344e+01 1.153324031829833984e+01 -2.763211011886596680e+00
6.100000000000000000e+01 3.541602706909179688e+01 -6.729428768157958984e+00 3.048054122924804688e+01 3.494111633300781250e+01 1.962649726867675781e+01 -1.492045879364013672e+00
6.200000000000000000e+01 3.561452484130859375e+01 -6.744121551513671875e+00 2.390837287902832031e+01 2.782744789123535156e+01 1.552074623107910156e+01 -1.333020329475402832e+00
6.300000000000000000e+01 3.581302261352539062e+01 -6.758814334869384766e+00 2.000325012207031250e+01 2.397796249389648438e+01 1.319436454772949219e+01 -1.176567077636718750e+00
6.400000000000000000e+01 3.601152038574218750e+01 -6.773507118225097656e+00 1.740429687500000000e+01 2.140269660949707031e+01 1.164209842681884766e+01 -1.028813719749450684e+00
6.500000000000000000e+01 3.541461944580078125e+01 -6.671041488647460938e+00 3.037288284301757812e+01 3.505827331542968750e+01 1.962934684753417969e+01 1.188586473464965820e+00
6.600000000000000000e+01 3.561217880249023438e+01 -6.646809101104736328e+00 2.383156585693359375e+01 2.793561553955078125e+01 1.553015422821044922e+01 1.104854583740234375e+00
6.700000000000000000e+01 3.580974197387695312e+01 -6.622576713562011719e+00 1.991483306884765625e+01 2.407235336303710938e+01 1.319615554809570312e+01 9.737153649330139160e-01
6.800000000000000000e+01 3.600730133056640625e+01 -6.598344326019287109e+00 1.739754867553710938e+01 2.149505615234375000e+01 1.166778182983398438e+01 8.313539624214172363e-01
6.900000000000000000e+01 3.540187454223632812e+01 -6.614044666290283203e+00 2.881764411926269531e+01 3.626690673828125000e+01 1.952536582946777344e+01 3.553516864776611328e+00
7.000000000000000000e+01 3.559093475341796875e+01 -6.551815032958984375e+00 2.225231552124023438e+01 2.911723518371582031e+01 1.541086483001708984e+01 3.200764417648315430e+00
7.100000000000000000e+01 3.577999877929687500e+01 -6.489584922790527344e+00 1.855665206909179688e+01 2.510939407348632812e+01 1.309981441497802734e+01 2.768783807754516602e+00
7.200000000000000000e+01 3.596906280517578125e+01 -6.427354812622070312e+00 1.608121299743652344e+01 2.248629760742187500e+01 1.157025337219238281e+01 2.432433605194091797e+00
7.300000000000000000e+01 3.537827682495117188e+01 -6.560620307922363281e+00 2.593193626403808594e+01 3.835300445556640625e+01 1.928548240661621094e+01 5.152566909790039062e+00
7.400000000000000000e+01 3.555160522460937500e+01 -6.462773799896240234e+00 1.950631904602050781e+01 3.112842178344726562e+01 1.519042205810546875e+01 4.395462512969970703e+00
7.500000000000000000e+01 3.572493362426757812e+01 -6.364927291870117188e+00 1.608583450317382812e+01 2.682073974609375000e+01 1.287197208404541016e+01 3.737012386322021484e+00
7.600000000000000000e+01 3.589826583862304688e+01 -6.267080783843994141e+00 1.388262844085693359e+01 2.403148269653320312e+01 1.137423324584960938e+01 3.325506448745727539e+00
7.700000000000000000e+01 3.534472656250000000e+01 -6.512812137603759766e+00 2.207527160644531250e+01 4.105427551269531250e+01 1.893886375427246094e+01 5.533277988433837891e+00
7.800000000000000000e+01 3.549569320678710938e+01 -6.383093357086181641e+00 1.602555084228515625e+01 3.341109085083007812e+01 1.483099269866943359e+01 4.313639163970947266e+00
7.900000000000000000e+01 3.564665603637695312e+01 -6.253375053405761719e+00 1.303626632690429688e+01 2.880633163452148438e+01 1.255277919769287109e+01 3.584647417068481445e+00
8.000000000000000000e+01 3.579762268066406250e+01 -6.123656749725341797e+00 1.109853267669677734e+01 2.569105720520019531e+01 1.103687763214111328e+01 3.118580102920532227e+00
8.100000000000000000e+01 3.530251312255859375e+01 -6.472449779510498047e+00 1.773600769042968750e+01 4.375616455078125000e+01 1.844765090942382812e+01 4.373840808868408203e+00
8.200000000000000000e+01 3.542533493041992188e+01 -6.315823078155517578e+00 1.244157218933105469e+01 3.543190383911132812e+01 1.436204242706298828e+01 2.816500425338745117e+00
8.300000000000000000e+01 3.554816055297851562e+01 -6.159196376800537109e+00 9.949329376220703125e+00 3.039869689941406250e+01 1.210440731048583984e+01 2.187329530715942383e+00
8.400000000000000000e+01 3.567098236083984375e+01 -6.002569675445556641e+00 8.308467864990234375e+00 2.711559486389160156e+01 1.062721920013427734e+01 1.848246812820434570e+00
8.500000000000000000e+01 3.525325012207031250e+01 -6.441078186035156250e+00 1.359100532531738281e+01 4.578879928588867188e+01 1.781394195556640625e+01 1.555452466011047363e+00
8.600000000000000000e+01 3.534323120117187500e+01 -6.263536930084228516e+00 9.401547431945800781e+00 3.649431991577148438e+01 1.376876068115234375e+01 5.483542382717132568e-02
8.700000000000000000e+01 3.543321228027343750e+01 -6.085995674133300781e+00 7.339797496795654297e+00 3.114152908325195312e+01 1.154439830780029297e+01 -2.892978787422180176e-01
8.800000000000000000e+01 3.552318954467773438e+01 -5.908454418182373047e+00 6.113067626953125000e+00 2.761250114440917969e+01 1.011767005920410156e+01 -3.823803365230560303e-01
8.900000000000000000e+01 3.519882202148437500e+01 -6.419897079467773438e+00 1.045630931854248047e+01 4.638253784179687500e+01 1.705165290832519531e+01 -2.699267387390136719e+00
9.000000000000000000e+01 3.525251770019531250e+01 -6.228235721588134766e+00 7.344034194946289062e+00 3.606806945800781250e+01 1.302363109588623047e+01 -3.567162752151489258e+00
9.100000000000000000e+01 3.530620956420898438e+01 -6.036573886871337891e+00 5.756382942199707031e+00 3.055496025085449219e+01 1.089340305328369141e+01 -3.421293735504150391e+00
9.200000000000000000e+01 3.535990524291992188e+01 -5.844912052154541016e+00 4.680172920227050781e+00 2.694363784790039062e+01 9.487142562866210938e+00 -3.250271081924438477e+00
9.300000000000000000e+01 3.514131164550781250e+01 -6.409718036651611328e+00 8.832732200622558594e+00 4.479648971557617188e+01 1.608876609802246094e+01 -7.760727405548095703e+00
9.400000000000000000e+01 3.515666580200195312e+01 -6.211269855499267578e+00 6.699945926666259766e+00 3.391260528564453125e+01 1.218376541137695312e+01 -7.428541660308837891e+00
9.500000000000000000e+01 3.517201995849609375e+01 -6.012822151184082031e+00 5.266755580902099609e+00 2.834512901306152344e+01 1.008356571197509766e+01 -6.697580814361572266e+00
9.600000000000000000e+01 3.518737411499023438e+01 -5.814373970031738281e+00 4.393290042877197266e+00 2.494902038574218750e+01 8.802692413330078125e+00 -6.059685707092285156e+00
9.700000000000000000e+01 3.508291625976562500e+01 -6.410929679870605469e+00 9.240086555480957031e+00 4.081755065917968750e+01 1.501729106903076172e+01 -1.277696514129638672e+01
9.800000000000000000e+01 3.505934524536132812e+01 -6.213289737701416016e+00 7.281475543975830078e+00 2.983955574035644531e+01 1.113630962371826172e+01 -1.078464412689208984e+01
9.900000000000000000e+01 3.503577041625976562e+01 -6.015649318695068359e+00 5.968118190765380859e+00 2.474586296081542969e+01 9.214194297790527344e+00 -9.444217681884765625e+00
1.000000000000000000e+02 3.501219940185546875e+01 -5.818009376525878906e+00 5.069335937500000000e+00 2.145895576477050781e+01 7.958487510681152344e+00 -8.409577369689941406e+00
1.010000000000000000e+02 3.502587890625000000e+01 -6.423485755920410156e+00 1.115147495269775391e+01 3.440175247192382812e+01 1.366596794128417969e+01 -1.658664703369140625e+01
1.020000000000000000e+02 3.496427917480468750e+01 -6.234216690063476562e+00 9.063859939575195312e+00 2.436802482604980469e+01 1.002956485748291016e+01 -1.306858444213867188e+01
1.030000000000000000e+02 3.490267944335937500e+01 -6.044947624206542969e+00 7.334812164306640625e+00 1.976308631896972656e+01 8.129369735717773438e+00 -1.101578712463378906e+01
1.040000000000000000e+02 3.484108352661132812e+01 -5.855678558349609375e+00 6.377586841583251953e+00 1.721489906311035156e+01 7.077745914459228516e+00 -9.779581069946289062e+00
1.050000000000000000e+02 3.497237777709960938e+01 -6.446906566619873047e+00 1.441673374176025391e+01 2.630762672424316406e+01 1.221730804443359375e+01 -1.841543006896972656e+01
1.060000000000000000e+02 3.487511062622070312e+01 -6.273251056671142578e+00 1.092173004150390625e+01 1.789066123962402344e+01 8.643717765808105469e+00 -1.360056591033935547e+01
1.070000000000000000e+02 3.477783966064453125e+01 -6.099595546722412109e+00 9.185529708862304688e+00 1.430932426452636719e+01 7.048456668853759766e+00 -1.126298904418945312e+01
1.080000000000000000e+02 3.468057250976562500e+01 -5.925940036773681641e+00 7.632400035858154297e+00 1.219613265991210938e+01 5.948559761047363281e+00 -9.642435073852539062e+00
1.090000000000000000e+02 3.492445755004882812e+01 -6.480295181274414062e+00 1.722531318664550781e+01 1.748895072937011719e+01 1.041427898406982422e+01 -1.760096549987792969e+01
1.100000000000000000e+02 3.479524230957031250e+01 -6.328898429870605469e+00 1.268756484985351562e+01 1.129537773132324219e+01 7.194882392883300781e+00 -1.233082771301269531e+01
1.110000000000000000e+02 3.466602706909179688e+01 -6.177501678466796875e+00 1.011118602752685547e+01 8.961277961730957031e+00 5.721739292144775391e+00 -9.813684463500976562e+00
1.120000000000000000e+02 3.453681564331054688e+01 -6.026105403900146484e+00 8.744205474853515625e+00 7.679626464843750000e+00 4.927149772644042969e+00 -8.538992881774902344e+00
1.130000000000000000e+02 3.488395309448242188e+01 -6.522373676300048828e+00 1.900811004638671875e+01 8.976231575012207031e+00 8.395302772521972656e+00 -1.418550872802734375e+01
1.140000000000000000e+02 3.472773742675781250e+01 -6.399029254913330078e+00 1.260126972198486328e+01 5.601631164550781250e+00 5.460870265960693359e+00 -9.226264953613281250e+00
1.150000000000000000e+02 3.457152175903320312e+01 -6.275685310363769531e+00 1.009974956512451172e+01 4.534894466400146484e+00 4.390393257141113281e+00 -7.304234981536865234e+00
1.160000000000000000e+02 3.441530609130859375e+01 -6.152341365814208984e+00 8.250534057617187500e+00 4.249475479125976562e+00 3.750002622604370117e+00 -6.210459232330322266e+00
1.170000000000000000e+02 3.485241699218750000e+01 -6.571532249450683594e+00 1.731632614135742188e+01 2.304653167724609375e+00 5.886293411254882812e+00 -8.731916427612304688e+00
1.180000000000000000e+02 3.467517852783203125e+01 -6.480960845947265625e+00 1.080408763885498047e+01 1.357978463172912598e+00 3.648619890213012695e+00 -5.087805271148681641e+00
1.190000000000000000e+02 3.449793624877929688e+01 -6.390388965606689453e+00 7.609048843383789062e+00 1.983811140060424805e+00 2.877858161926269531e+00 -4.095220565795898438e+00
1.200000000000000000e+02 3.432069778442382812e+01 -6.299817562103271484e+00 6.647715091705322266e+00 1.852200865745544434e+00 2.549974679946899414e+00 -3.817260026931762695e+00
1.210000000000000000e+02 3.483105850219726562e+01 -6.625889778137207031e+00 1.200353813171386719e+01 -2.511160850524902344e+00 2.847713232040405273e+00 -1.743641853332519531e+00
1.220000000000000000e+02 3.463957595825195312e+01 -6.571556568145751953e+00 4.881496906280517578e+00 3.404851257801055908e-01 1.566594600677490234e+00 -1.339509367942810059e+00
1.230000000000000000e+02 3.444809341430664062e+01 -6.517223358154296875e+00 4.633083343505859375e+00 7.846123576164245605e-01 1.625308752059936523e+00 -2.079491376876831055e+00
1.240000000000000000e+02 3.425661087036132812e+01 -6.462890148162841797e+00 3.404598951339721680e+00 1.395406424999237061e-01 1.063241839408874512e+00 -1.284447073936462402e+00
1.250000000000000000e+02 3.482068634033203125e+01 -6.683366298675537109e+00 -3.285618543624877930e+00 -2.447653293609619141e+00 -1.719981551170349121e+00 2.622202634811401367e+00
1.260000000000000000e+02 3.462229156494140625e+01 -6.667350292205810547e+00 9.135751724243164062e-01 9.483227133750915527e-01 5.585693717002868652e-01 -8.162133097648620605e-01
1.270000000000000000e+02 3.442389678955078125e+01 -6.651334762573242188e+00 -3.923960030078887939e-01 -3.906878530979156494e-01 -2.349251508712768555e-01 4.276170220691710711e-04
1.280000000000000000e+02 3.422549819946289062e+01 -6.635319232940673828e+00 -7.044790983200073242e-01 1.665450185537338257e-01 -1.613802313804626465e-01 -2.287926822900772095e-01
1.290000000000000000e+02 2.196186065673828125e+01 -6.700578212738037109e+00 -9.427892565727233887e-01 1.550372783094644547e-02 -2.781856656074523926e-01 2.633039653301239014e-02
1.300000000000000000e+02 2.033289909362792969e+01 -7.179516792297363281e+00 -5.462375879287719727e-01 6.025864183902740479e-02 -1.457936763763427734e-01 -2.022114396095275879e-01
1.310000000000000000e+02 2.261169624328613281e+01 -7.556783676147460938e+00 -1.021255493164062500e+00 4.183610156178474426e-02 -2.938258349895477295e-01 -2.002269625663757324e-01
1.320000000000000000e+02 2.185197448730468750e+01 -7.432458400726318359e+00 -8.763794898986816406e-01 5.753627792000770569e-02 -2.456529587507247925e-01 -1.997670531272888184e-01
1.330000000000000000e+02 2.270871162414550781e+01 -6.822772979736328125e+00 -1.229960680007934570e+00 -9.058983065187931061e-03 -3.717058897018432617e-01 4.022910818457603455e-02
1.340000000000000000e+02 2.121509361267089844e+01 -6.576943874359130859e+00 -6.996230483055114746e-01 1.116904709488153458e-02 -2.065361887216567993e-01 -4.748141393065452576e-03
1.350000000000000000e+02 2.046852302551269531e+01 -6.451897144317626953e+00 -4.747234880924224854e-01 2.253771387040615082e-02 -1.356557309627532959e-01 -3.081322088837623596e-02
1.360000000000000000e+02 2.109233665466308594e+01 -7.306693553924560547e+00 -7.041464447975158691e-01 6.569637358188629150e-02 -1.915350109338760376e-01 -1.968209296464920044e-01
1.370000000000000000e+02 2.421343040466308594e+01 -6.977969646453857422e+00 -1.658876061439514160e+00 2.858445979654788971e-03 -4.968052804470062256e-01 3.494299575686454773e-02
1.380000000000000000e+02 2.414235687255859375e+01 -7.714632511138916016e+00 -1.314239978790283203e+00 2.892725542187690735e-02 -3.855938315391540527e-01 -1.424001008272171021e-01
1.390000000000000000e+02 2.337517356872558594e+01 -7.650850772857666016e+00 -1.163611173629760742e+00 2.287259884178638458e-02 -3.422215580940246582e-01 -1.682345271110534668e-01
1.400000000000000000e+02 2.490980529785156250e+01 -7.777047634124755859e+00 -1.431166410446166992e+00 2.186990156769752502e-02 -4.227889776229858398e-01 -1.393760889768600464e-01
1.410000000000000000e+02 2.496787261962890625e+01 -7.039327144622802734e+00 -1.853478670120239258e+00 3.236554097384214401e-03 -5.550726056098937988e-01 4.770049452781677246e-02
1.420000000000000000e+02 2.567740631103515625e+01 -7.838097095489501953e+00 -1.493150353431701660e+00 -7.209238247014582157e-04 -4.481613934040069580e-01 -1.262732744216918945e-01
1.430000000000000000e+02 2.572246742248535156e+01 -7.099318504333496094e+00 -2.076925277709960938e+00 -1.648055203258991241e-02 -6.280217170715332031e-01 3.997796773910522461e-02
1.440000000000000000e+02 2.345925331115722656e+01 -6.915245532989501953e+00 -1.477763295173645020e+00 -7.418542634695768356e-03 -4.455545246601104736e-01 3.308669477701187134e-02
1.450000000000000000e+02 2.796761512756347656e+01 -7.914083957672119141e+00 -1.559716343879699707e+00 1.195752527564764023e-02 -4.643276631832122803e-01 -4.694014787673950195e-02
1.460000000000000000e+02 2.720497512817382812e+01 -7.896495819091796875e+00 -1.588490128517150879e+00 6.449881941080093384e-03 -4.746120870113372803e-01 -6.375703215599060059e-02
1.470000000000000000e+02 2.644245719909667969e+01 -7.877746582031250000e+00 -1.544064164161682129e+00 -8.437328971922397614e-03 -4.657504558563232422e-01 -8.888050913810729980e-02
1.480000000000000000e+02 2.873032188415527344e+01 -7.930514812469482422e+00 -1.425551652908325195e+00 -6.223727017641067505e-03 -4.295326173305511475e-01 -3.523959545418620110e-03
1.490000000000000000e+02 2.798519706726074219e+01 -7.174292564392089844e+00 -2.424651384353637695e+00 -6.198204355314373970e-04 -7.275813817977905273e-01 -3.414404578506946564e-03
1.500000000000000000e+02 2.723094940185546875e+01 -7.156898498535156250e+00 -2.323057889938354492e+00 7.361564785242080688e-04 -6.966965198516845703e-01 -3.389207879081368446e-03
1.510000000000000000e+02 2.873951339721679688e+01 -7.190530300140380859e+00 -2.549121141433715820e+00 -1.779493689537048340e-02 -7.700748443603515625e-01 -2.275086008012294769e-02
1.520000000000000000e+02 2.647681999206542969e+01 -7.138342857360839844e+00 -2.237829923629760742e+00 -1.567617431282997131e-02 -6.760518550872802734e-01 1.091361138969659805e-02
1.530000000000000000e+02 3.011688232421875000e+01 -8.081491470336914062e+00 -8.732928037643432617e-01 5.679777264595031738e-02 -2.449485212564468384e-01 2.336685210466384888e-01
1.540000000000000000e+02 3.019069480895996094e+01 -7.031119346618652344e+00 -2.783374309539794922e+00 1.197423413395881653e-02 -8.314200043678283691e-01 -7.743067294359207153e-02
1.550000000000000000e+02 3.193683242797851562e+01 -7.970112800598144531e+00 5.341556668281555176e-01 2.992299497127532959e-01 2.500156760215759277e-01 9.318680763244628906e-01
1.560000000000000000e+02 2.946581649780273438e+01 -7.996485233306884766e+00 -1.200515627861022949e+00 4.108543694019317627e-02 -3.478290438652038574e-01 1.001850888133049011e-01
1.570000000000000000e+02 3.072886848449707031e+01 -8.112018585205078125e+00 -4.173256456851959229e-01 1.978426575660705566e-01 -6.584489345550537109e-02 4.044963419437408447e-01
1.580000000000000000e+02 3.140361213684082031e+01 -7.386126518249511719e+00 -1.696988105773925781e+00 -7.140070945024490356e-02 -5.305166244506835938e-01 1.620013415813446045e-01
1.590000000000000000e+02 3.187239265441894531e+01 -8.177575111389160156e+00 8.783432841300964355e-01 4.863748252391815186e-01 4.094154238700866699e-01 1.165509939193725586e+00
1.600000000000000000e+02 3.146372032165527344e+01 -7.082987308502197266e+00 -2.600520133972167969e+00 -1.053059548139572144e-01 -8.117478489875793457e-01 -3.433805704116821289e-02
1.610000000000000000e+02 3.182253646850585938e+01 -6.914556980133056641e+00 -3.014858484268188477e+00 6.872139126062393188e-02 -8.838410973548889160e-01 -8.811052888631820679e-02
1.620000000000000000e+02 3.189051055908203125e+01 -7.350249290466308594e+00 -1.388653278350830078e+00 1.493579447269439697e-01 -3.717886209487915039e-01 1.948702335357666016e-01
1.630000000000000000e+02 3.158343315124511719e+01 -7.901234149932861328e+00 -1.123029515147209167e-01 2.375465035438537598e-01 3.757306560873985291e-02 6.015995740890502930e-01
1.640000000000000000e+02 2.948655509948730469e+01 -7.101862430572509766e+00 -2.649612188339233398e+00 -2.214931696653366089e-02 -8.015284538269042969e-01 -6.274773925542831421e-02
1.650000000000000000e+02 3.189382362365722656e+01 -7.131770610809326172e+00 -2.054616928100585938e+00 1.613968014717102051e-01 -5.679660439491271973e-01 -1.059419941157102585e-02
1.660000000000000000e+02 3.089477157592773438e+01 -7.038010597229003906e+00 -2.808222055435180664e+00 1.591338776051998138e-02 -8.376926183700561523e-01 -3.092049807310104370e-02
1.670000000000000000e+02 3.141792106628417969e+01 -7.677328586578369141e+00 -7.814893722534179688e-01 7.365960627794265747e-02 -2.123489379882812500e-01 3.646680712699890137e-01
1.680000000000000000e+02 3.190715026855468750e+01 -7.570001602172851562e+00 -6.555075645446777344e-01 1.282455325126647949e-01 -1.581785976886749268e-01 4.502391815185546875e-01
1.690000000000000000e+02 3.086605262756347656e+01 -7.756379127502441406e+00 -9.000960588455200195e-01 1.473297774791717529e-01 -2.258298844099044800e-01 2.057117670774459839e-01
1.700000000000000000e+02 3.037788963317871094e+01 -7.655827045440673828e+00 -1.411086201667785645e+00 3.829912468791007996e-02 -4.118361175060272217e-01 7.793569564819335938e-02
1.710000000000000000e+02 2.982803344726562500e+01 -7.466047286987304688e+00 -1.999983072280883789e+00 4.338354337960481644e-03 -5.986934304237365723e-01 1.764265820384025574e-02
1.720000000000000000e+02 3.132306480407714844e+01 -8.148498535156250000e+00 1.369217783212661743e-01 3.242445588111877441e-01 1.383499056100845337e-01 6.723319292068481445e-01
1.730000000000000000e+02 3.194501686096191406e+01 -7.772286415100097656e+00 -1.749457716941833496e-01 1.188098341226577759e-01 -1.684078015387058258e-02 6.461173295974731445e-01
1.740000000000000000e+02 3.084815979003906250e+01 -7.424161434173583984e+00 -1.771287679672241211e+00 7.462255656719207764e-02 -5.089995265007019043e-01 7.213386893272399902e-02
1.750000000000000000e+02 3.304759979248046875e+01 -7.251193046569824219e+00 -1.704559177160263062e-01 1.254188567399978638e-01 -1.351111754775047302e-02 6.213477253913879395e-01
1.760000000000000000e+02 3.613010787963867188e+01 -5.787569999694824219e+00 8.207901954650878906e+00 2.148377799987792969e+01 8.907504081726074219e+00 2.381619215011596680e+00
1.770000000000000000e+02 3.347959136962890625e+01 -7.167842864990234375e+00 4.055647850036621094e-01 2.009853571653366089e-01 1.819650381803512573e-01 7.333048582077026367e-01
1.780000000000000000e+02 3.224584579467773438e+01 -8.174282073974609375e+00 1.365658998489379883e+00 7.749624848365783691e-01 6.421864628791809082e-01 1.562258958816528320e+00
1.790000000000000000e+02 3.261998748779296875e+01 -8.160278320312500000e+00 1.821865439414978027e+00 1.039069175720214844e+00 8.582804203033447266e-01 1.906831145286560059e+00
1.800000000000000000e+02 3.260487747192382812e+01 -6.899908542633056641e+00 -2.651722669601440430e+00 6.359609961509704590e-02 -7.764379978179931641e-01 4.432092979550361633e-02
1.810000000000000000e+02 3.503968811035156250e+01 -8.111651420593261719e+00 2.708891391754150391e+00 1.798902893066406250e+01 6.209375858306884766e+00 6.148274421691894531e+00
1.820000000000000000e+02 3.442483901977539062e+01 -7.594442367553710938e+00 6.219714641571044922e+00 7.313348770141601562e+00 4.059918880462646484e+00 7.352540016174316406e+00
1.830000000000000000e+02 3.405797576904296875e+01 -8.091525077819824219e+00 4.516574382781982422e+00 6.083024978637695312e+00 3.179879665374755859e+00 5.982994556427001953e+00
1.840000000000000000e+02 3.395416259765625000e+01 -7.318495750427246094e+00 3.762756347656250000e+00 1.365669369697570801e+00 1.538527727127075195e+00 2.807296752929687500e+00
1.850000000000000000e+02 3.403407669067382812e+01 -6.844970703125000000e+00 -1.451578736305236816e+00 -9.070230275392532349e-02 -4.626843035221099854e-01 6.285380572080612183e-02
1.860000000000000000e+02 3.301561737060546875e+01 -6.941870212554931641e+00 -2.298848390579223633e+00 -1.745580136775970459e-02 -6.948912739753723145e-01 1.375394407659769058e-02
1.870000000000000000e+02 3.279871368408203125e+01 -7.891855716705322266e+00 1.623990058898925781e+00 8.651906251907348633e-01 7.467542290687561035e-01 1.744910836219787598e+00
1.880000000000000000e+02 3.248595809936523438e+01 -8.013879776000976562e+00 1.351047515869140625e+00 7.922053933143615723e-01 6.429758667945861816e-01 1.555159687995910645e+00
1.890000000000000000e+02 3.539778518676757812e+01 -5.649744510650634766e+00 3.976651668548583984e+00 2.441199493408203125e+01 8.516593933105468750e+00 -3.255267858505249023e+00
1.900000000000000000e+02 3.595689392089843750e+01 -5.970129966735839844e+00 9.561480522155761719e+00 2.345178794860839844e+01 9.903980255126953125e+00 2.775407075881958008e+00
1.910000000000000000e+02 3.625070571899414062e+01 -5.930325508117675781e+00 9.549554824829101562e+00 2.033082580566406250e+01 8.964114189147949219e+00 2.647436618804931641e+00
1.920000000000000000e+02 3.622695541381835938e+01 -6.218620300292968750e+00 1.259001255035400391e+01 2.041377449035644531e+01 9.901136398315429688e+00 2.475120067596435547e+00
1.930000000000000000e+02 3.542439270019531250e+01 -7.787180423736572266e+00 3.345913887023925781e+00 2.436382102966308594e+01 8.312920570373535156e+00 2.542456626892089844e+00
1.940000000000000000e+02 3.219255447387695312e+01 -5.381094932556152344e+00 1.918446302413940430e+00 8.940067291259765625e-01 8.437359333038330078e-01 -1.409282088279724121e+00
1.950000000000000000e+02 3.223341751098632812e+01 -6.472271442413330078e+00 -1.642029881477355957e+00 -7.243181765079498291e-02 -5.143384933471679688e-01 -6.944742798805236816e-02
1.960000000000000000e+02 3.421728515625000000e+01 -6.037399291992187500e+00 6.954264640808105469e+00 3.303808450698852539e+00 3.077421903610229492e+00 -5.256079673767089844e+00
1.970000000000000000e+02 3.437004470825195312e+01 -5.868066787719726562e+00 7.308623313903808594e+00 6.344023227691650391e+00 4.095793724060058594e+00 -7.190702915191650391e+00
1.980000000000000000e+02 3.456603622436523438e+01 -5.748345375061035156e+00 6.768482208251953125e+00 1.063102722167968750e+01 5.219852924346923828e+00 -8.643128395080566406e+00
1.990000000000000000e+02 3.476756668090820312e+01 -5.653514385223388672e+00 5.482165336608886719e+00 1.506602382659912109e+01 6.164456844329833984e+00 -8.758794784545898438e+00
2.000000000000000000e+02 3.220956802368164062e+01 -6.659512519836425781e+00 -2.174972534179687500e+00 -7.955779135227203369e-02 -6.763591170310974121e-01 -1.169028729200363159e-01
2.010000000000000000e+02 3.227084350585937500e+01 -6.248665809631347656e+00 -5.401510000228881836e-01 7.016124576330184937e-02 -1.409969329833984375e-01 -1.954875737428665161e-01
2.020000000000000000e+02 3.236972427368164062e+01 -5.567708969116210938e+00 1.825756907463073730e+00 6.553383469581604004e-01 7.443286180496215820e-01 -1.281727552413940430e+00
2.030000000000000000e+02 3.318965530395507812e+01 -6.291493415832519531e+00 4.980840682983398438e-01 4.043621942400932312e-02 1.615560948848724365e-01 -6.411598920822143555e-01
2.040000000000000000e+02 3.363639450073242188e+01 -6.632646560668945312e+00 -1.545972466468811035e+00 5.340870935469865799e-03 -4.621894955635070801e-01 -9.994368255138397217e-02
2.050000000000000000e+02 3.403003692626953125e+01 -6.626903533935546875e+00 -1.069207072257995605e+00 -6.315423548221588135e-02 -3.397083878517150879e-01 -1.446178257465362549e-01
2.060000000000000000e+02 3.622993087768554688e+01 -6.597756385803222656e+00 1.544099044799804688e+01 1.948202133178710938e+01 1.047690296173095703e+01 5.720363855361938477e-01
2.070000000000000000e+02 3.556849670410156250e+01 -5.731526374816894531e+00 5.150710582733154297e+00 2.548451805114746094e+01 9.190567970275878906e+00 -7.209657430648803711e-01
2.080000000000000000e+02 3.498109054565429688e+01 -5.599767684936523438e+00 4.393410682678222656e+00 1.895369148254394531e+01 7.004130363464355469e+00 -7.658929347991943359e+00
2.090000000000000000e+02 3.459035110473632812e+01 -5.312857151031494141e+00 4.818255901336669922e+00 1.194727039337158203e+01 5.029657840728759766e+00 -7.597172260284423828e+00
2.100000000000000000e+02 3.406571578979492188e+01 -6.427845001220703125e+00 2.612207412719726562e+00 3.334421217441558838e-01 8.836948871612548828e-01 -1.224953532218933105e+00
2.110000000000000000e+02 3.426384735107421875e+01 -7.441149711608886719e+00 6.085745334625244141e+00 4.118691921234130859e+00 3.061331033706665039e+00 5.700538158416748047e+00
2.120000000000000000e+02 3.481619262695312500e+01 -7.754412174224853516e+00 4.537406444549560547e+00 1.577159118652343750e+01 6.092699050903320312e+00 8.477868080139160156e+00
2.130000000000000000e+02 3.522898864746093750e+01 -7.819368839263916016e+00 2.998855352401733398e+00 2.238998794555664062e+01 7.616652965545654297e+00 5.077579498291015625e+00
2.140000000000000000e+02 3.585544586181640625e+01 -7.539610862731933594e+00 7.358710765838623047e+00 2.449469566345214844e+01 9.556021690368652344e+00 -2.369330644607543945e+00
2.150000000000000000e+02 3.609932708740234375e+01 -7.227823734283447266e+00 1.217357063293457031e+01 2.167173194885253906e+01 1.015359115600585938e+01 -3.397736549377441406e+00
2.160000000000000000e+02 3.299848937988281250e+01 -7.884831905364990234e+00 2.111916542053222656e+00 1.065413236618041992e+00 9.531989097595214844e-01 2.053472042083740234e+00
2.170000000000000000e+02 3.228475952148437500e+01 -7.746656417846679688e+00 3.042797446250915527e-01 3.695099353790283203e-01 2.021369040012359619e-01 8.394534587860107422e-01
2.180000000000000000e+02 3.252151870727539062e+01 -7.405168533325195312e+00 -3.875618875026702881e-01 2.131653726100921631e-01 -5.231896042823791504e-02 5.155887007713317871e-01
2.190000000000000000e+02 3.241257476806640625e+01 -6.891620635986328125e+00 -2.845713853836059570e+00 4.142793267965316772e-02 -8.412857651710510254e-01 -6.005854532122612000e-02
2.200000000000000000e+02 3.221832656860351562e+01 -6.899535655975341797e+00 -3.032738685607910156e+00 -1.402420848608016968e-01 -9.518942832946777344e-01 3.034905344247817993e-02
2.210000000000000000e+02 3.607196044921875000e+01 -6.116358280181884766e+00 1.181090736389160156e+01 2.205645370483398438e+01 1.016020774841308594e+01 3.021233558654785156e+00
2.220000000000000000e+02 3.582382583618164062e+01 -5.836966991424560547e+00 7.404333591461181641e+00 2.451951217651367188e+01 9.577154159545898438e+00 1.662540555000305176e+00
2.230000000000000000e+02 3.585652923583984375e+01 -5.534080028533935547e+00 5.145914077758789062e+00 2.261050033569335938e+01 8.326924324035644531e+00 5.796179771423339844e-01
2.240000000000000000e+02 3.395854949951171875e+01 -5.981671333312988281e+00 5.479088783264160156e+00 2.039317369461059570e+00 2.255521774291992188e+00 -3.742802381515502930e+00
2.250000000000000000e+02 3.347745513916015625e+01 -6.290272235870361328e+00 1.136826038360595703e+00 2.576094269752502441e-01 4.183306396007537842e-01 -8.560358881950378418e-01
2.260000000000000000e+02 3.546561813354492188e+01 -5.493968009948730469e+00 3.639261245727539062e+00 2.267616271972656250e+01 7.894627094268798828e+00 -2.867719888687133789e+00
2.270000000000000000e+02 3.319337463378906250e+01 -5.395030975341796875e+00 3.927612066268920898e+00 1.780986785888671875e+00 1.712579727172851562e+00 -3.016931533813476562e+00
2.280000000000000000e+02 3.561510467529296875e+01 -5.580519199371337891e+00 4.300917148590087891e+00 2.368218803405761719e+01 8.394931793212890625e+00 -1.182518243789672852e+00
2.290000000000000000e+02 3.438857650756835938e+01 -5.344616889953613281e+00 5.252194881439208984e+00 9.436091423034667969e+00 4.406485557556152344e+00 -7.245493888854980469e+00
2.300000000000000000e+02 3.415720367431640625e+01 -7.246558189392089844e+00 4.612157344818115234e+00 1.461869478225708008e+00 1.822208046913146973e+00 3.268444299697875977e+00
2.310000000000000000e+02 3.462126541137695312e+01 -7.688776493072509766e+00 5.652264118194580078e+00 1.179469203948974609e+01 5.234086990356445312e+00 8.607103347778320312e+00
2.320000000000000000e+02 3.501930999755859375e+01 -7.806025981903076172e+00 3.413044929504394531e+00 1.973698616027832031e+01 6.945009231567382812e+00 7.202611446380615234e+00
2.330000000000000000e+02 3.617030334472656250e+01 -7.025393962860107422e+00 1.419616603851318359e+01 2.043073272705078125e+01 1.038806915283203125e+01 -2.658247232437133789e+00
2.340000000000000000e+02 3.589518737792968750e+01 -7.837877750396728516e+00 5.011979103088378906e+00 2.237107276916503906e+01 8.214915275573730469e+00 -1.051721572875976562e+00
2.350000000000000000e+02 3.571059799194335938e+01 -7.658310890197753906e+00 5.191994667053222656e+00 2.506194305419921875e+01 9.076181411743164062e+00 -6.955704689025878906e-01
2.360000000000000000e+02 3.543088150024414062e+01 -8.045330047607421875e+00 2.517421483993530273e+00 2.141299057006835938e+01 7.179123401641845703e+00 3.236884117126464844e+00
2.370000000000000000e+02 3.616910552978515625e+01 -7.569988727569580078e+00 8.312558174133300781e+00 2.121716499328613281e+01 8.858917236328125000e+00 -2.972814083099365234e+00
2.380000000000000000e+02 3.628682708740234375e+01 -7.405034542083740234e+00 1.008444690704345703e+01 2.012608528137207031e+01 9.063159942626953125e+00 -3.136740684509277344e+00
2.390000000000000000e+02 3.407204437255859375e+01 -7.809538841247558594e+00 5.097192764282226562e+00 4.779165267944335938e+00 2.962907552719116211e+00 5.670878410339355469e+00
2.400000000000000000e+02 3.493128204345703125e+01 -7.982718467712402344e+00 3.327895164489746094e+00 1.725360107421875000e+01 6.174448490142822266e+00 7.002588272094726562e+00
2.410000000000000000e+02 3.621571731567382812e+01 -6.807702064514160156e+00 1.551472949981689453e+01 1.949446487426757812e+01 1.050275897979736328e+01 -1.001601934432983398e+00
2.420000000000000000e+02 3.519646072387695312e+01 -5.598621845245361328e+00 3.781402826309204102e+00 2.228017234802246094e+01 7.818472385406494141e+00 -5.566655158996582031e+00
2.430000000000000000e+02 3.599652862548828125e+01 -5.654142379760742188e+00 6.497876644134521484e+00 2.201910591125488281e+01 8.555094718933105469e+00 1.555392503738403320e+00
2.440000000000000000e+02 3.560824584960937500e+01 -7.814901828765869141e+00 3.971147298812866211e+00 2.396608352661132812e+01 8.381169319152832031e+00 8.804648518562316895e-01
2.450000000000000000e+02 3.575709915161132812e+01 -7.948311328887939453e+00 4.068092346191406250e+00 2.275927734375000000e+01 8.048211097717285156e+00 6.656587123870849609e-03
2.460000000000000000e+02 3.647707366943359375e+01 -7.117576599121093750e+00 1.207121086120605469e+01 1.806094551086425781e+01 9.039647102355957031e+00 -2.200580358505249023e+00
2.470000000000000000e+02 3.651979446411132812e+01 -6.949137210845947266e+00 1.265282440185546875e+01 1.765826416015625000e+01 9.093326568603515625e+00 -1.707627177238464355e+00
2.480000000000000000e+02 3.598730087280273438e+01 -7.395979881286621094e+00 9.696407318115234375e+00 2.317147445678710938e+01 9.860364913940429688e+00 -3.295437097549438477e+00
2.490000000000000000e+02 3.635992050170898438e+01 -6.068728446960449219e+00 1.084482669830322266e+01 1.947588348388671875e+01 9.096212387084960938e+00 2.657657146453857422e+00
2.500000000000000000e+02 3.570458602905273438e+01 -5.433539867401123047e+00 3.936947584152221680e+00 2.238891029357910156e+01 7.897757530212402344e+00 -1.045924067497253418e+00
2.510000000000000000e+02 3.537944030761718750e+01 -5.339093685150146484e+00 3.181034088134765625e+00 2.121824264526367188e+01 7.319783210754394531e+00 -3.818602323532104492e+00
2.520000000000000000e+02 3.648142242431640625e+01 -6.591422080993652344e+00 1.376422882080078125e+01 1.785534095764160156e+01 9.485871315002441406e+00 4.035696685314178467e-01
2.530000000000000000e+02 3.638367462158203125e+01 -6.884429931640625000e+00 1.409291839599609375e+01 1.854809570312500000e+01 9.792304039001464844e+00 -1.335312485694885254e+00
2.540000000000000000e+02 3.651535797119140625e+01 -6.780740261077880859e+00 1.376869964599609375e+01 1.765402221679687500e+01 9.426816940307617188e+00 -6.173015832901000977e-01
2.550000000000000000e+02 3.257643890380859375e+01 -5.383851528167724609e+00 2.484595775604248047e+00 9.990504384040832520e-01 1.045093894004821777e+00 -1.822733879089355469e+00
2.560000000000000000e+02 3.408856964111328125e+01 -5.491642951965332031e+00 5.705496788024902344e+00 5.829386234283447266e+00 3.460464954376220703e+00 -6.081908702850341797e+00
2.570000000000000000e+02 3.400360107421875000e+01 -5.327431678771972656e+00 5.136739253997802734e+00 5.642190456390380859e+00 3.233679056167602539e+00 -5.731032371520996094e+00
2.580000000000000000e+02 3.360957336425781250e+01 -5.371246337890625000e+00 4.880221843719482422e+00 3.216238260269165039e+00 2.428937911987304688e+00 -4.391501426696777344e+00
2.590000000000000000e+02 3.238554763793945312e+01 -5.375017642974853516e+00 2.148010730743408203e+00 7.510116696357727051e-01 8.697066903114318848e-01 -1.533343076705932617e+00
2.600000000000000000e+02 3.340080642700195312e+01 -5.385221958160400391e+00 4.514294147491455078e+00 2.414766311645507812e+00 2.078718185424804688e+00 -3.702760934829711914e+00
2.610000000000000000e+02 3.252184677124023438e+01 -5.593217849731445312e+00 2.011615276336669922e+00 5.643876194953918457e-01 7.728008627891540527e-01 -1.350467443466186523e+00
2.620000000000000000e+02 3.224898529052734375e+01 -6.002714157104492188e+00 3.942808210849761963e-01 1.766869574785232544e-01 1.712903231382369995e-01 -4.460003376007080078e-01
2.630000000000000000e+02 3.497216415405273438e+01 -5.345285415649414062e+00 3.715732812881469727e+00 1.738475036621093750e+01 6.330145359039306641e+00 -6.867932796478271484e+00
2.640000000000000000e+02 3.477146911621093750e+01 -5.322760105133056641e+00 4.298786163330078125e+00 1.475738143920898438e+01 5.716850280761718750e+00 -7.545590400695800781e+00
2.650000000000000000e+02 3.255607986450195312e+01 -6.287376880645751953e+00 -6.338612437248229980e-01 2.549159713089466095e-02 -1.825108826160430908e-01 -1.729595661163330078e-01
2.660000000000000000e+02 3.305039215087890625e+01 -6.576521396636962891e+00 -1.680829882621765137e+00 -1.165420282632112503e-03 -5.045986175537109375e-01 -5.395470559597015381e-02
2.670000000000000000e+02 3.277079010009765625e+01 -5.413553237915039062e+00 2.851200342178344727e+00 1.035389900207519531e+00 1.165977120399475098e+00 -2.061460733413696289e+00
2.680000000000000000e+02 3.342346954345703125e+01 -5.648036003112792969e+00 4.036774635314941406e+00 1.670130968093872070e+00 1.712071657180786133e+00 -2.969484090805053711e+00
2.690000000000000000e+02 3.324843215942382812e+01 -6.617722511291503906e+00 -1.635288119316101074e+00 -5.329741165041923523e-02 -5.065756440162658691e-01 -3.000887483358383179e-02
2.700000000000000000e+02 3.383451461791992188e+01 -6.628132820129394531e+00 -1.336781620979309082e+00 4.447039216756820679e-02 -3.876933753490447998e-01 -1.417774707078933716e-01
2.710000000000000000e+02 3.319986343383789062e+01 -7.863072395324707031e+00 2.541101455688476562e+00 1.332091927528381348e+00 1.161957979202270508e+00 2.436259269714355469e+00
2.720000000000000000e+02 3.363761520385742188e+01 -6.882066249847412109e+00 -1.884131669998168945e+00 -1.875020936131477356e-02 -5.708645582199096680e-01 4.391304031014442444e-02
2.730000000000000000e+02 3.326720428466796875e+01 -7.219692230224609375e+00 8.662573993206024170e-02 1.704713255167007446e-01 7.712911814451217651e-02 6.862130165100097656e-01
2.740000000000000000e+02 3.280220413208007812e+01 -6.931674003601074219e+00 -2.431312561035156250e+00 -3.981522470712661743e-02 -7.413383126258850098e-01 4.596731066703796387e-02
2.750000000000000000e+02 3.223548126220703125e+01 -7.307311058044433594e+00 -1.091182708740234375e+00 -2.883141161873936653e-03 -3.282197713851928711e-01 1.620159894227981567e-01
2.760000000000000000e+02 3.523367691040039062e+01 -8.071068763732910156e+00 2.442527770996093750e+00 2.011305427551269531e+01 6.766674518585205078e+00 4.826368808746337891e+00
2.770000000000000000e+02 3.303003692626953125e+01 -8.131679534912109375e+00 2.632333517074584961e+00 1.651421904563903809e+00 1.285126566886901855e+00 2.709545850753784180e+00
2.780000000000000000e+02 3.431229019165039062e+01 -7.826131343841552734e+00 5.369044303894042969e+00 7.222933769226074219e+00 3.777593374252319336e+00 6.896180152893066406e+00
2.790000000000000000e+02 3.447378158569335938e+01 -8.105401039123535156e+00 4.315987586975097656e+00 1.021975898742675781e+01 4.360723972320556641e+00 7.242545127868652344e+00
2.800000000000000000e+02 3.364093399047851562e+01 -8.111938476562500000e+00 3.913884162902832031e+00 3.379117488861083984e+00 2.187900543212890625e+00 4.349757671356201172e+00
2.810000000000000000e+02 3.362091064453125000e+01 -7.861490249633789062e+00 3.818258762359619141e+00 2.485310554504394531e+00 1.891070842742919922e+00 3.723739624023437500e+00
2.820000000000000000e+02 3.473687744140625000e+01 -7.930075168609619141e+00 4.223933696746826172e+00 1.430317497253417969e+01 5.558132648468017578e+00 7.917744636535644531e+00
2.830000000000000000e+02 3.453186416625976562e+01 -7.883204936981201172e+00 5.017946243286132812e+00 1.071986198425292969e+01 4.721342563629150391e+00 7.808218955993652344e+00
2.840000000000000000e+02 3.384775161743164062e+01 -8.100974082946777344e+00 4.353411197662353516e+00 4.501882076263427734e+00 2.656588077545166016e+00 5.207740783691406250e+00
2.850000000000000000e+02 3.383580398559570312e+01 -7.838322162628173828e+00 4.412004947662353516e+00 3.200036048889160156e+00 2.283612251281738281e+00 4.456970691680908203e+00
2.860000000000000000e+02 3.244187164306640625e+01 -8.183224678039550781e+00 1.631817936897277832e+00 9.642328619956970215e-01 7.788152694702148438e-01 1.738732695579528809e+00
2.870000000000000000e+02 3.225851821899414062e+01 -7.968460559844970703e+00 9.139407277107238770e-01 5.188439488410949707e-01 4.298354089260101318e-01 1.196528673171997070e+00
2.880000000000000000e+02 3.282723999023437500e+01 -6.568335533142089844e+00 -1.759159326553344727e+00 -9.067782014608383179e-02 -5.549511313438415527e-01 -1.146044582128524780e-01
2.890000000000000000e+02 3.238605499267578125e+01 -6.628212928771972656e+00 -2.018456459045410156e+00 2.164755947887897491e-02 -5.990426540374755859e-01 -7.374811172485351562e-02
2.900000000000000000e+02 3.227464294433593750e+01 -7.517927646636962891e+00 -4.247789084911346436e-01 1.435516774654388428e-01 -8.436816930770874023e-02 4.574578404426574707e-01
2.910000000000000000e+02 3.239731597900390625e+01 -7.081127166748046875e+00 -2.135140180587768555e+00 1.332408376038074493e-02 -6.365448236465454102e-01 1.405345499515533447e-01
2.920000000000000000e+02 3.368462371826171875e+01 -7.131176471710205078e+00 8.100016713142395020e-01 3.332428038120269775e-01 3.429733514785766602e-01 9.105129241943359375e-01
2.930000000000000000e+02 3.267518234252929688e+01 -5.683576107025146484e+00 2.102212905883789062e+00 6.267578005790710449e-01 8.186911940574645996e-01 -1.405991792678833008e+00
2.940000000000000000e+02 3.444618988037109375e+01 -5.561096668243408203e+00 6.113884925842285156e+00 9.548850059509277344e+00 4.698820590972900391e+00 -7.861998081207275391e+00
2.950000000000000000e+02 3.258867645263671875e+01 -6.588727951049804688e+00 -1.892858862876892090e+00 6.267023086547851562e-02 -5.490565896034240723e-01 -1.387602537870407104e-01
2.960000000000000000e+02 3.281687164306640625e+01 -8.133119583129882812e+00 2.119676589965820312e+00 1.228016376495361328e+00 1.004307866096496582e+00 2.191742658615112305e+00
2.970000000000000000e+02 3.390118789672851562e+01 -6.207301139831542969e+00 4.020555019378662109e+00 8.446144461631774902e-01 1.459550857543945312e+00 -2.241050004959106445e+00
2.980000000000000000e+02 3.381491851806640625e+01 -5.352487564086914062e+00 5.106291770935058594e+00 4.342301368713378906e+00 2.834578037261962891e+00 -5.139402389526367188e+00
2.990000000000000000e+02 3.396261978149414062e+01 -5.761096954345703125e+00 5.918811798095703125e+00 3.307253122329711914e+00 2.767819404602050781e+00 -4.884667396545410156e+00
3.000000000000000000e+02 3.298046875000000000e+01 -5.416382312774658203e+00 3.386387825012207031e+00 1.334882974624633789e+00 1.416381239891052246e+00 -2.473000764846801758e+00
3.010000000000000000e+02 3.304127883911132812e+01 -6.116227149963378906e+00 1.224454998970031738e+00 2.623306512832641602e-01 4.460356831550598145e-01 -8.504305481910705566e-01
3.020000000000000000e+02 3.360441970825195312e+01 -5.910386562347412109e+00 3.918410301208496094e+00 1.324965715408325195e+00 1.573012828826904297e+00 -2.620663404464721680e+00
3.030000000000000000e+02 3.265927124023437500e+01 -6.054025173187255859e+00 9.618908762931823730e-01 1.200547739863395691e-01 3.245837092399597168e-01 -6.765595078468322754e-01
3.040000000000000000e+02 3.255066680908203125e+01 -7.106139183044433594e+00 -1.918749809265136719e+00 1.210040673613548279e-01 -5.393237471580505371e-01 6.862016022205352783e-02
3.050000000000000000e+02 3.341220474243164062e+01 -7.872285366058349609e+00 3.192216157913208008e+00 1.769813776016235352e+00 1.488608956336975098e+00 2.999794483184814453e+00
3.060000000000000000e+02 3.285624694824218750e+01 -7.356479167938232422e+00 -2.256118506193161011e-01 1.716352701187133789e-01 -1.619297452270984650e-02 5.648086071014404297e-01
3.070000000000000000e+02 3.354100418090820312e+01 -7.405220508575439453e+00 2.038627862930297852e+00 7.934406399726867676e-01 8.496205806732177734e-01 1.814118266105651855e+00
3.080000000000000000e+02 3.388346862792968750e+01 -5.561746597290039062e+00 5.672325611114501953e+00 3.928395271301269531e+00 2.880216121673583984e+00 -5.171004295349121094e+00
3.090000000000000000e+02 3.249578475952148438e+01 -5.894382476806640625e+00 1.091420412063598633e+00 2.323692440986633301e-01 3.971368968486785889e-01 -7.189403176307678223e-01
3.100000000000000000e+02 3.374464797973632812e+01 -7.366015434265136719e+00 2.863434791564941406e+00 9.806605577468872070e-01 1.153228640556335449e+00 2.194327354431152344e+00
3.110000000000000000e+02 3.270543289184570312e+01 -7.199634075164794922e+00 -1.099638581275939941e+00 6.015362218022346497e-02 -3.118454813957214355e-01 2.631268799304962158e-01
3.120000000000000000e+02 3.256337356567382812e+01 -7.804453372955322266e+00 9.948400259017944336e-01 5.088391900062561035e-01 4.511037766933441162e-01 1.240806937217712402e+00
3.130000000000000000e+02 3.323234939575195312e+01 -8.124052047729492188e+00 3.057803153991699219e+00 2.052041769027709961e+00 1.532953500747680664e+00 3.149148702621459961e+00
3.140000000000000000e+02 3.343563461303710938e+01 -8.119379043579101562e+00 3.485290050506591797e+00 2.642810821533203125e+00 1.838430285453796387e+00 3.755406618118286133e+00
3.150000000000000000e+02 3.221917343139648438e+01 -7.104604244232177734e+00 -2.066754341125488281e+00 -1.301889866590499878e-01 -6.590830087661743164e-01 7.224615663290023804e-02
3.160000000000000000e+02 3.242673110961914062e+01 -7.241599559783935547e+00 -1.278520584106445312e+00 -3.867346420884132385e-02 -3.951582312583923340e-01 1.637880951166152954e-01
3.170000000000000000e+02 3.323010635375976562e+01 -6.920320987701416016e+00 -2.180107116699218750e+00 3.279144642874598503e-03 -6.530483961105346680e-01 4.286342766135931015e-03
3.180000000000000000e+02 3.343516540527343750e+01 -6.900431632995605469e+00 -2.049729585647583008e+00 3.491128608584403992e-02 -6.044455170631408691e-01 2.524277009069919586e-02
3.190000000000000000e+02 3.388621139526367188e+01 -7.093867778778076172e+00 1.386118531227111816e+00 2.744740545749664307e-01 4.981777667999267578e-01 1.111701607704162598e+00
3.200000000000000000e+02 3.383757400512695312e+01 -6.864002704620361328e+00 -1.683019995689392090e+00 6.463889777660369873e-02 -4.855143427848815918e-01 6.256792694330215454e-02
3.210000000000000000e+02 3.219294357299804688e+01 -5.587269306182861328e+00 1.405319094657897949e+00 5.850278139114379883e-01 5.971040725708007812e-01 -9.945464134216308594e-01
3.220000000000000000e+02 3.220853805541992188e+01 -5.790626049041748047e+00 1.096876621246337891e+00 2.294095456600189209e-01 3.978858590126037598e-01 -6.624627709388732910e-01
3.230000000000000000e+02 3.239852523803710938e+01 -5.729739189147949219e+00 1.410282373428344727e+00 4.935878515243530273e-01 5.711610317230224609e-01 -1.001365780830383301e+00
3.240000000000000000e+02 3.299911117553710938e+01 -5.681048393249511719e+00 2.793443441390991211e+00 8.078123331069946289e-01 1.080376744270324707e+00 -1.822165846824645996e+00
3.250000000000000000e+02 3.320235443115234375e+01 -5.658780097961425781e+00 3.511987209320068359e+00 1.168934106826782227e+00 1.404276371002197266e+00 -2.470920562744140625e+00
3.260000000000000000e+02 3.365785598754882812e+01 -5.611480236053466797e+00 4.956574916839599609e+00 2.392585754394531250e+00 2.204748153686523438e+00 -3.908136844635009766e+00
3.270000000000000000e+02 3.418454360961914062e+01 -5.336214542388916016e+00 5.430408477783203125e+00 7.180544853210449219e+00 3.783286094665527344e+00 -6.629436969757080078e+00
3.280000000000000000e+02 3.279936218261718750e+01 -6.255004405975341797e+00 7.196073979139328003e-02 2.047118358314037323e-02 2.772957645356655121e-02 -3.509322106838226318e-01
3.290000000000000000e+02 3.344037628173828125e+01 -6.634233951568603516e+00 -1.617921829223632812e+00 6.689799576997756958e-02 -4.653071463108062744e-01 -1.227646600455045700e-02
3.300000000000000000e+02 3.333342361450195312e+01 -6.407176971435546875e+00 -1.165980622172355652e-01 5.916287004947662354e-02 -1.723055727779865265e-02 -3.787274360656738281e-01
3.310000000000000000e+02 3.366750335693359375e+01 -6.431630611419677734e+00 5.925657153129577637e-01 2.427773922681808472e-01 2.506029307842254639e-01 -5.307762026786804199e-01
3.320000000000000000e+02 3.386834716796875000e+01 -6.421080112457275391e+00 1.463891506195068359e+00 1.516874879598617554e-01 4.846737086772918701e-01 -8.365658521652221680e-01
3.330000000000000000e+02 3.412639236450195312e+01 -6.232213020324707031e+00 5.227166175842285156e+00 1.093264937400817871e+00 1.896129369735717773e+00 -2.917109012603759766e+00
3.340000000000000000e+02 3.466071701049804688e+01 -5.475939273834228516e+00 5.131027698516845703e+00 1.339878654479980469e+01 5.558944225311279297e+00 -8.054207801818847656e+00
3.350000000000000000e+02 3.518902969360351562e+01 -5.346987724304199219e+00 3.263736009597778320e+00 1.984491920471191406e+01 6.932596683502197266e+00 -5.354302406311035156e+00
3.360000000000000000e+02 3.554378128051757812e+01 -5.358194828033447266e+00 3.502006769180297852e+00 2.149883460998535156e+01 7.500252246856689453e+00 -2.232238054275512695e+00
3.370000000000000000e+02 3.571857452392578125e+01 -5.696954727172851562e+00 5.628168106079101562e+00 2.439858245849609375e+01 9.008025169372558594e+00 2.791638374328613281e-01
3.380000000000000000e+02 3.642695999145507812e+01 -6.219249248504638672e+00 1.231719398498535156e+01 1.850324821472167969e+01 9.246132850646972656e+00 2.186637401580810547e+00
3.390000000000000000e+02 3.619866180419921875e+01 -6.403314113616943359e+00 1.443724155426025391e+01 2.019965553283691406e+01 1.039106941223144531e+01 2.006908893585205078e+00
3.400000000000000000e+02 3.645629119873046875e+01 -6.395252704620361328e+00 1.302558994293212891e+01 1.801391601562500000e+01 9.311851501464843750e+00 1.457377910614013672e+00
3.410000000000000000e+02 3.633523559570312500e+01 -7.079512119293212891e+00 1.300086212158203125e+01 1.924054718017578125e+01 9.672423362731933594e+00 -2.487565517425537109e+00
3.420000000000000000e+02 3.639815521240234375e+01 -7.259619712829589844e+00 1.140534687042236328e+01 1.916032028198242188e+01 9.169699668884277344e+00 -2.990523338317871094e+00
3.430000000000000000e+02 3.603674697875976562e+01 -7.713909149169921875e+00 6.483713150024414062e+00 2.194825172424316406e+01 8.529589653015136719e+00 -2.174816608428955078e+00
3.440000000000000000e+02 3.560674285888671875e+01 -8.015770912170410156e+00 2.982302904129028320e+00 2.226502227783203125e+01 7.574197292327880859e+00 1.825440764427185059e+00
3.450000000000000000e+02 3.486273193359375000e+01 -8.133854866027832031e+00 3.219120025634765625e+00 1.528882122039794922e+01 5.552382469177246094e+00 6.903176784515380859e+00
3.460000000000000000e+02 3.467515182495117188e+01 -8.118914604187011719e+00 3.770152330398559570e+00 1.313131523132324219e+01 5.070440292358398438e+00 7.265131473541259766e+00
3.470000000000000000e+02 3.426784896850585938e+01 -8.093340873718261719e+00 4.479857921600341797e+00 7.898417949676513672e+00 3.713482856750488281e+00 6.670889377593994141e+00
3.480000000000000000e+02 3.421214675903320312e+01 -5.674181938171386719e+00 6.399425506591796875e+00 5.845995426177978516e+00 3.673626184463500977e+00 -6.490848064422607422e+00
3.490000000000000000e+02 3.408044815063476562e+01 -7.049351692199707031e+00 2.136372327804565430e+00 5.139639973640441895e-01 7.951008677482604980e-01 1.405043005943298340e+00
3.500000000000000000e+02 3.403552627563476562e+01 -7.549735546112060547e+00 5.001000881195068359e+00 3.051103830337524414e+00 2.415631294250488281e+00 4.548260688781738281e+00
3.510000000000000000e+02 3.268418502807617188e+01 -7.569075584411621094e+00 3.987408578395843506e-01 2.703537642955780029e-01 2.007283866405487061e-01 8.238139152526855469e-01
3.520000000000000000e+02 3.288711166381835938e+01 -7.702805042266845703e+00 1.435096144676208496e+00 6.522814035415649414e-01 6.262132525444030762e-01 1.434673547744750977e+00
3.530000000000000000e+02 3.380125427246093750e+01 -7.596687316894531250e+00 3.976018667221069336e+00 2.155156612396240234e+00 1.839352607727050781e+00 3.560145854949951172e+00
3.540000000000000000e+02 3.359174346923828125e+01 -7.629137039184570312e+00 3.285197734832763672e+00 1.485310435295104980e+00 1.431152462959289551e+00 2.855219841003417969e+00
3.550000000000000000e+02 3.299967193603515625e+01 -5.900506019592285156e+00 1.893293738365173340e+00 4.850609600543975830e-01 7.135064005851745605e-01 -1.298419594764709473e+00
3.560000000000000000e+02 3.334691619873046875e+01 -7.456694126129150391e+00 1.574675917625427246e+00 5.939287543296813965e-01 6.505814194679260254e-01 1.588016271591186523e+00
3.570000000000000000e+02 3.340120697021484375e+01 -7.651347637176513672e+00 2.776501178741455078e+00 1.245555162429809570e+00 1.206616878509521484e+00 2.404629230499267578e+00
3.580000000000000000e+02 3.302347183227539062e+01 -7.508098125457763672e+00 1.025410652160644531e+00 4.378617107868194580e-01 4.389817118644714355e-01 1.185889601707458496e+00
3.590000000000000000e+02 3.283147811889648438e+01 -5.830348014831542969e+00 1.943828105926513672e+00 5.578281283378601074e-01 7.504968643188476562e-01 -1.318145990371704102e+00
3.600000000000000000e+02 3.341209030151367188e+01 -6.133851051330566406e+00 2.141672372817993164e+00 4.047900736331939697e-01 7.639387249946594238e-01 -1.274172306060791016e+00
3.610000000000000000e+02 3.318590164184570312e+01 -5.905947208404541016e+00 2.472655057907104492e+00 4.784432947635650635e-01 8.853295445442199707e-01 -1.520645260810852051e+00
3.620000000000000000e+02 3.372939682006835938e+01 -5.797450065612792969e+00 4.789613246917724609e+00 1.778771281242370605e+00 1.970515251159667969e+00 -3.392454862594604492e+00
3.630000000000000000e+02 3.374798202514648438e+01 -5.955862522125244141e+00 4.538964748382568359e+00 1.404710531234741211e+00 1.783102631568908691e+00 -2.928956031799316406e+00
3.640000000000000000e+02 3.367399597167968750e+01 -6.232933998107910156e+00 2.518960714340209961e+00 5.834211111068725586e-01 9.307145476341247559e-01 -1.457356333732604980e+00
3.650000000000000000e+02 3.340426635742187500e+01 -5.910668849945068359e+00 3.305405378341674805e+00 9.570215344429016113e-01 1.278728127479553223e+00 -2.092872619628906250e+00
3.660000000000000000e+02 3.321768569946289062e+01 -7.609813690185546875e+00 1.890253067016601562e+00 7.930996417999267578e-01 8.050057888031005859e-01 1.712039709091186523e+00
3.670000000000000000e+02 3.348365020751953125e+01 -6.445708274841308594e+00 -5.399177223443984985e-02 1.056773811578750610e-01 1.550568360835313797e-02 -3.541429340839385986e-01
3.680000000000000000e+02 3.362439346313476562e+01 -6.067452430725097656e+00 3.558338642120361328e+00 9.596266746520996094e-01 1.355389595031738281e+00 -2.125832319259643555e+00
3.690000000000000000e+02 3.112789344787597656e+01 -6.540832519531250000e+00 -2.058552742004394531e+00 2.672962658107280731e-02 -6.095469594001770020e-01 4.004639049526304007e-04
3.700000000000000000e+02 3.101163482666015625e+01 -6.072631835937500000e+00 -6.685714125633239746e-01 7.796703279018402100e-02 -1.771813035011291504e-01 -1.052933037281036377e-01
3.710000000000000000e+02 3.151071548461914062e+01 -6.455215930938720703e+00 -1.741732239723205566e+00 -7.094413787126541138e-02 -5.438029170036315918e-01 -4.973421338945627213e-03
3.720000000000000000e+02 3.059621238708496094e+01 -6.567987918853759766e+00 -1.984385132789611816e+00 6.237092893570661545e-03 -5.934444069862365723e-01 4.922555014491081238e-02
3.730000000000000000e+02 3.194077873229980469e+01 -5.827261924743652344e+00 7.316555380821228027e-01 1.283094584941864014e-01 2.579894959926605225e-01 -5.827901959419250488e-01
3.740000000000000000e+02 3.191065216064453125e+01 -5.614068031311035156e+00 1.125845193862915039e+00 1.102548539638519287e-01 3.708299994468688965e-01 -7.236059904098510742e-01
3.750000000000000000e+02 2.951205825805664062e+01 -5.676750659942626953e+00 -5.474011301994323730e-01 4.312355443835258484e-02 -1.512832790613174438e-01 -3.027846291661262512e-02
3.760000000000000000e+02 3.043545913696289062e+01 -6.152374267578125000e+00 -1.123609066009521484e+00 4.894253611564636230e-02 -3.223999738693237305e-01 -3.190145641565322876e-02
3.770000000000000000e+02 2.947175025939941406e+01 -6.417170047760009766e+00 -1.656483888626098633e+00 -1.654914580285549164e-02 -5.019099116325378418e-01 5.419256910681724548e-02
3.780000000000000000e+02 3.199378204345703125e+01 -6.210391521453857422e+00 -6.890445947647094727e-01 1.092523112893104553e-01 -1.739376932382583618e-01 -1.336454451084136963e-01
3.790000000000000000e+02 3.194882965087890625e+01 -6.404941558837890625e+00 -1.126213669776916504e+00 1.409632861614227295e-01 -2.955751121044158936e-01 -5.326429754495620728e-02
3.800000000000000000e+02 3.187084960937500000e+01 -6.636434555053710938e+00 -2.258683443069458008e+00 6.611090153455734253e-02 -6.577717661857604980e-01 -5.482088308781385422e-03
3.810000000000000000e+02 3.198986053466796875e+01 -6.027729034423828125e+00 -1.015033721923828125e-01 9.582655876874923706e-02 -1.703043701127171516e-03 -3.345421254634857178e-01
3.820000000000000000e+02 3.181504631042480469e+01 -5.395570278167724609e+00 1.364485979080200195e+00 3.301155567169189453e-01 5.083804726600646973e-01 -9.423928856849670410e-01
3.830000000000000000e+02 3.167620658874511719e+01 -6.274538993835449219e+00 -9.999036788940429688e-01 4.190573841333389282e-02 -2.873993813991546631e-01 -1.458768099546432495e-01
3.840000000000000000e+02 3.152462196350097656e+01 -5.594281196594238281e+00 7.732623815536499023e-01 2.753423452377319336e-01 3.145814239978790283e-01 -5.991069078445434570e-01
3.850000000000000000e+02 3.142740058898925781e+01 -6.124054431915283203e+00 -7.040601968765258789e-01 -3.311954811215400696e-02 -2.211539149284362793e-01 -1.382448822259902954e-01
3.860000000000000000e+02 3.161838912963867188e+01 -5.901416301727294922e+00 9.333080612123012543e-03 1.478033512830734253e-01 4.714092984795570374e-02 -4.073915183544158936e-01
3.870000000000000000e+02 3.026935768127441406e+01 -5.620123863220214844e+00 -1.868884116411209106e-01 1.023027449846267700e-01 -2.537569776177406311e-02 -1.745551973581314087e-01
3.880000000000000000e+02 3.007672691345214844e+01 -6.502787590026855469e+00 -1.766741156578063965e+00 6.993163842707872391e-03 -5.279244184494018555e-01 6.928388029336929321e-02
3.890000000000000000e+02 3.098435401916503906e+01 -5.561127662658691406e+00 3.402969837188720703e-01 1.916821897029876709e-01 1.595937460660934448e-01 -3.878917396068572998e-01
3.900000000000000000e+02 3.179978561401367188e+01 -6.104786396026611328e+00 -5.368234515190124512e-01 8.623311668634414673e-02 -1.351771056652069092e-01 -2.588037848472595215e-01
3.910000000000000000e+02 2.800358009338378906e+01 -6.392907142639160156e+00 -1.515673995018005371e+00 -5.690427962690591812e-03 -4.564093351364135742e-01 8.608119189739227295e-02
3.920000000000000000e+02 2.728431129455566406e+01 -5.636834621429443359e+00 -7.684397101402282715e-01 2.368004247546195984e-02 -2.234278917312622070e-01 1.385203599929809570e-01
3.930000000000000000e+02 2.651304817199707031e+01 -6.358762741088867188e+00 -1.276953816413879395e+00 3.692117054015398026e-03 -3.819784820079803467e-01 1.115329936146736145e-01
3.940000000000000000e+02 2.875823974609375000e+01 -5.669638156890869141e+00 -7.016014456748962402e-01 4.327875748276710510e-02 -1.974968016147613525e-01 4.239482805132865906e-02
3.950000000000000000e+02 2.874904632568359375e+01 -6.409622669219970703e+00 -1.583781123161315918e+00 2.238695509731769562e-02 -4.684182405471801758e-01 6.576243042945861816e-02
3.960000000000000000e+02 2.654741096496582031e+01 -5.619358539581298828e+00 -7.703202366828918457e-01 3.037564456462860107e-02 -2.219833731651306152e-01 1.665720343589782715e-01
3.970000000000000000e+02 2.802116203308105469e+01 -5.653115749359130859e+00 -7.483283877372741699e-01 3.846254199743270874e-02 -2.129597514867782593e-01 8.617351204156875610e-02
3.980000000000000000e+02 2.725833702087402344e+01 -6.376431941986083984e+00 -1.413152575492858887e+00 8.167104795575141907e-03 -4.214956462383270264e-01 9.417556971311569214e-02
3.990000000000000000e+02 2.428754043579101562e+01 -6.197861671447753906e+00 -9.270725846290588379e-01 -1.263823267072439194e-02 -2.819132506847381592e-01 1.485686451196670532e-01
4.000000000000000000e+02 2.435861396789550781e+01 -5.461198806762695312e+00 -5.888711810111999512e-01 -1.359768491238355637e-02 -1.807406544685363770e-01 2.310041785240173340e-01
4.010000000000000000e+02 2.354777717590332031e+01 -6.138960838317871094e+00 -7.701451778411865234e-01 -1.170047093182802200e-02 -2.345536947250366211e-01 1.494994461536407471e-01
4.020000000000000000e+02 2.502826499938964844e+01 -6.258197307586669922e+00 -1.058269023895263672e+00 -1.484852936118841171e-02 -3.219352364540100098e-01 1.504300832748413086e-01
4.030000000000000000e+02 2.581491851806640625e+01 -5.581003189086914062e+00 -7.326815128326416016e-01 1.685314625501632690e-02 -2.147485017776489258e-01 1.840580105781555176e-01
4.040000000000000000e+02 2.576985549926757812e+01 -6.319781780242919922e+00 -1.159127235412597656e+00 6.009852048009634018e-03 -3.459351956844329834e-01 1.363241672515869141e-01
4.050000000000000000e+02 2.363185691833496094e+01 -5.403356075286865234e+00 -5.258902311325073242e-01 -1.490787602961063385e-02 -1.622394323348999023e-01 2.400661557912826538e-01
4.060000000000000000e+02 2.508633232116699219e+01 -5.520476818084716797e+00 -6.578302383422851562e-01 1.640690141357481480e-03 -1.968568712472915649e-01 2.036696821451187134e-01
4.070000000000000000e+02 2.146717453002929688e+01 -5.077126979827880859e+00 -2.456118911504745483e-01 -6.843817979097366333e-02 -9.421502053737640381e-02 2.341286092996597290e-01
4.080000000000000000e+02 2.134441947937011719e+01 -5.806876659393310547e+00 -3.772706687450408936e-01 -3.694094344973564148e-02 -1.242634877562522888e-01 1.331584006547927856e-01
4.090000000000000000e+02 2.061148262023925781e+01 -5.684748649597167969e+00 -2.342726290225982666e-01 -2.571317553520202637e-02 -7.799574732780456543e-02 1.136535331606864929e-01
4.100000000000000000e+02 2.207760429382324219e+01 -5.928263664245605469e+00 -5.138117074966430664e-01 -3.284620866179466248e-02 -1.639973819255828857e-01 1.551820486783981323e-01
4.110000000000000000e+02 2.290797805786132812e+01 -5.314875125885009766e+00 -4.380362927913665771e-01 -2.868604101240634918e-02 -1.400167047977447510e-01 2.384952455759048462e-01
4.120000000000000000e+02 2.281096076965332031e+01 -6.048885822296142578e+00 -6.335273385047912598e-01 -1.935227215290069580e-02 -1.958638876676559448e-01 1.567461490631103516e-01
4.130000000000000000e+02 2.074710655212402344e+01 -4.957129478454589844e+00 -1.728269010782241821e-01 -7.674878835678100586e-02 -7.487270981073379517e-02 2.048254162073135376e-01
4.140000000000000000e+02 2.218749046325683594e+01 -5.196383476257324219e+00 -3.369780182838439941e-01 -5.073298513889312744e-02 -1.163133010268211365e-01 2.347715795040130615e-01
4.150000000000000000e+02 1.905580329895019531e+01 -4.613489627838134766e+00 -3.110773861408233643e-02 -1.241935566067695618e-01 -4.659038782119750977e-02 8.278012275695800781e-02
4.160000000000000000e+02 1.978026580810546875e+01 -5.523462295532226562e+00 -1.067272424697875977e-01 -4.153535887598991394e-02 -4.447878152132034302e-02 7.016565650701522827e-02
4.170000000000000000e+02 1.992511749267578125e+01 -4.797539234161376953e+00 -8.782476931810379028e-02 -9.238646179437637329e-02 -5.406336858868598938e-02 1.691451817750930786e-01
4.180000000000000000e+02 1.847771644592285156e+01 -4.667171001434326172e+00 -3.247328102588653564e-03 -4.146400094032287598e-02 -1.341339852660894394e-02 -5.158232990652322769e-03
4.190000000000000000e+02 1.890536689758300781e+01 -5.338151454925537109e+00 -1.252468116581439972e-02 -1.462924014776945114e-02 -8.146176114678382874e-03 3.274711966514587402e-02
4.200000000000000000e+02 1.882146453857421875e+01 -6.111851215362548828e+00 -5.029271170496940613e-02 5.017038900405168533e-03 -1.358270179480314255e-02 -3.510168567299842834e-02
4.210000000000000000e+02 1.800308799743652344e+01 -6.754832744598388672e+00 -2.125665172934532166e-02 -1.984038054943084717e-01 -6.589813530445098877e-02 -9.286075830459594727e-02
4.220000000000000000e+02 1.831862449645996094e+01 -6.817986488342285156e+00 -1.336224228143692017e-01 -6.419154256582260132e-02 -5.934418737888336182e-02 -1.169883087277412415e-01
4.230000000000000000e+02 1.959215354919433594e+01 -7.028707504272460938e+00 -3.902357816696166992e-01 3.911847248673439026e-02 -1.053351908922195435e-01 -1.990891993045806885e-01
4.240000000000000000e+02 1.890554809570312500e+01 -6.889476776123046875e+00 -2.556745111942291260e-01 -3.821215033531188965e-02 -8.816599845886230469e-02 -1.619523614645004272e-01
4.250000000000000000e+02 1.965883255004882812e+01 -6.285129547119140625e+00 -2.365188151597976685e-01 5.096834152936935425e-03 -6.942659616470336914e-02 -4.537653177976608276e-02
4.260000000000000000e+02 1.828899765014648438e+01 -6.266255378723144531e+00 -1.256932225078344345e-02 -1.834579888964071870e-04 -3.825834020972251892e-03 -1.131428778171539307e-02
4.270000000000000000e+02 1.796524238586425781e+01 -6.500696659088134766e+00 1.238289009779691696e-02 -7.318403571844100952e-02 -1.824034377932548523e-02 1.820870093069970608e-04
4.280000000000000000e+02 1.798667907714843750e+01 -8.717584609985351562e+00 -3.483701050281524658e-01 -2.705626189708709717e-01 -1.856798231601715088e-01 -3.647499978542327881e-01
4.290000000000000000e+02 1.875282478332519531e+01 -7.492640495300292969e+00 -3.119161128997802734e-01 -3.886649757623672485e-02 -1.052347868680953979e-01 -2.609225809574127197e-01
4.300000000000000000e+02 1.718443870544433594e+01 -9.355792045593261719e+00 -3.231054842472076416e-01 -5.096116662025451660e-01 -2.498151361942291260e-01 -4.369076192378997803e-01
4.310000000000000000e+02 2.222648239135742188e+01 -9.086161613464355469e+00 -6.573116779327392578e-01 1.190146952867507935e-01 -1.614890992641448975e-01 -4.101364612579345703e-01
4.320000000000000000e+02 2.787345314025878906e+01 -8.593104362487792969e+00 -8.516798019409179688e-01 5.384817346930503845e-02 -2.393494993448257446e-01 1.826855167746543884e-02
4.330000000000000000e+02 2.400644111633300781e+01 -8.452457427978515625e+00 -9.741966128349304199e-01 6.034845858812332153e-02 -2.741544544696807861e-01 -2.689113914966583252e-01
4.340000000000000000e+02 1.503291702270507812e+01 -1.271804809570312500e+01 -6.144216060638427734e-01 -1.060783386230468750e+00 -5.025615096092224121e-01 -7.789950966835021973e-01
4.350000000000000000e+02 1.242192745208740234e+01 -1.602690887451171875e+01 -8.385322690010070801e-01 -9.248611927032470703e-01 -5.290180444717407227e-01 -8.663458228111267090e-01
4.360000000000000000e+02 1.434109401702880859e+01 -1.572684860229492188e+01 -6.130528450012207031e-01 -7.072174549102783203e-01 -3.960810899734497070e-01 -6.042423844337463379e-01
4.370000000000000000e+02 1.416590976715087891e+01 -2.316271972656250000e+01 1.623840481042861938e-01 1.964080147445201874e-03 4.930443689227104187e-02 -3.584557399153709412e-02
4.380000000000000000e+02 1.701583862304687500e+01 -3.285692214965820312e+01 1.948348730802536011e-01 1.239796042442321777e+00 4.303892552852630615e-01 1.595281809568405151e-01
4.390000000000000000e+02 1.774269104003906250e+01 -4.063497924804687500e+01 7.467634975910186768e-02 1.527345299720764160e+00 4.806064963340759277e-01 3.493116796016693115e-02
4.400000000000000000e+02 2.262024497985839844e+01 -4.081179428100585938e+01 -8.474342525005340576e-02 2.627802371978759766e+00 7.629176378250122070e-01 7.753238081932067871e-02
4.410000000000000000e+02 1.875285911560058594e+01 -3.702239990234375000e+01 8.942214399576187134e-02 1.665339827537536621e+00 5.264285802841186523e-01 1.431899815797805786e-01
4.420000000000000000e+02 2.645997047424316406e+01 -3.154542350769042969e+01 -1.468978822231292725e-01 3.356523036956787109e+00 9.628875255584716797e-01 6.689611077308654785e-01
4.430000000000000000e+02 2.256921195983886719e+01 -2.187288665771484375e+01 2.926653921604156494e-01 1.591693520545959473e+00 5.653076767921447754e-01 7.116307616233825684e-01
4.440000000000000000e+02 2.238624763488769531e+01 -1.285263061523437500e+01 1.714052632451057434e-02 4.192049801349639893e-01 1.309036463499069214e-01 -1.269297301769256592e-01
4.450000000000000000e+02 2.311641883850097656e+01 -1.327460861206054688e+01 1.813470572233200073e-01 5.316389203071594238e-01 2.138957977294921875e-01 2.348098903894424438e-02
4.460000000000000000e+02 1.333761978149414062e+01 -1.494252014160156250e+01 -8.005821108818054199e-01 -9.787020683288574219e-01 -5.337852239608764648e-01 -8.556905388832092285e-01
4.470000000000000000e+02 1.145801067352294922e+01 -1.717029762268066406e+01 -1.045187473297119141e+00 -8.712336421012878418e-01 -5.749263763427734375e-01 -8.303374052047729492e-01
4.480000000000000000e+02 1.026021480560302734e+01 -1.807566261291503906e+01 -1.337275862693786621e+00 -6.841549277305603027e-01 -6.064292788505554199e-01 -6.889833807945251465e-01
4.490000000000000000e+02 8.965186119079589844e+00 -1.838022422790527344e+01 -1.032584667205810547e+00 -2.518956065177917480e-01 -3.853440880775451660e-01 -3.450818955898284912e-01
4.500000000000000000e+02 7.183850288391113281e+00 -1.737507629394531250e+01 -2.319156527519226074e-01 5.006789788603782654e-02 -5.455432832241058350e-02 -1.203804370015859604e-02
4.510000000000000000e+02 6.367440700531005859e+00 -1.639821434020996094e+01 -1.620534621179103851e-02 1.440765522420406342e-02 -5.393073661252856255e-04 -1.834170892834663391e-03
4.520000000000000000e+02 7.084993839263916016e+00 -1.513238620758056641e+01 1.285018026828765869e-02 5.448850989341735840e-02 2.020160853862762451e-02 -1.456458028405904770e-02
4.530000000000000000e+02 8.834412574768066406e+00 -1.149430942535400391e+01 -2.413715235888957977e-03 -8.685321081429719925e-04 -9.846742032095789909e-04 2.098796889185905457e-03
4.540000000000000000e+02 9.625946998596191406e+00 -1.033018970489501953e+01 1.394163235090672970e-03 1.181131694465875626e-03 7.725884788669645786e-04 -1.283763675019145012e-03
4.550000000000000000e+02 1.214614105224609375e+01 -7.057517051696777344e+00 -6.998453754931688309e-04 -3.748416202142834663e-04 -3.224060928914695978e-04 3.680543741211295128e-04
4.560000000000000000e+02 1.173097324371337891e+01 -2.756843090057373047e+00 -3.346025187056511641e-04 2.556425461079925299e-04 -2.368799141549970955e-05 3.463592147454619408e-04
4.570000000000000000e+02 1.225940322875976562e+01 -4.647696018218994141e+00 4.115429183002561331e-04 1.013885921565815806e-04 1.538794604130089283e-04 -4.173189518041908741e-04
4.580000000000000000e+02 1.105127620697021484e+01 -1.914764046669006348e+00 -1.770948292687535286e-04 1.212789429700933397e-04 -1.674476516200229526e-05 3.363301220815628767e-04
4.590000000000000000e+02 4.284313678741455078e+00 -1.934648156166076660e+00 -8.396225166507065296e-05 6.073075928725302219e-05 -6.969446985749527812e-06 -2.489849284756928682e-04
4.600000000000000000e+02 1.634093403816223145e+00 -1.467759418487548828e+01 2.919933293014764786e-03 6.702526006847620010e-03 2.886737929657101631e-03 1.256719231605529785e-02
4.610000000000000000e+02 4.416296005249023438e+00 -1.862554740905761719e+01 -1.882442235946655273e-01 -3.157238289713859558e-02 -6.594497710466384888e-02 -1.126234456896781921e-01
4.620000000000000000e+02 6.557990312576293945e-01 -2.476804542541503906e+01 -2.934584859758615494e-03 -4.072111248970031738e-01 -1.230437085032463074e-01 -6.579029560089111328e-02
4.630000000000000000e+02 8.328374624252319336e-01 -3.192152786254882812e+01 5.250172689557075500e-03 -9.905195236206054688e-01 -2.955808043479919434e-01 -4.369314387440681458e-02
4.640000000000000000e+02 2.648519515991210938e+00 -3.783571243286132812e+01 3.664270415902137756e-02 -9.155859351158142090e-01 -2.636829614639282227e-01 -5.932848900556564331e-03
4.650000000000000000e+02 7.349884510040283203e-01 -3.730520248413085938e+01 1.117250043898820877e-02 -1.149247765541076660e+00 -3.414225876331329346e-01 1.361786667257547379e-02
4.660000000000000000e+02 8.205745697021484375e+00 -4.093381118774414062e+01 8.350846171379089355e-02 -1.146276891231536865e-01 -9.335768409073352814e-03 -3.118315711617469788e-02
4.670000000000000000e+02 9.027003288269042969e+00 -3.796760177612304688e+01 1.209194511175155640e-01 1.422317419201135635e-02 4.054278880357742310e-02 -7.640348374843597412e-02
4.680000000000000000e+02 8.401739120483398438e+00 -3.315261459350585938e+01 1.513892263174057007e-01 -9.063695371150970459e-02 1.822568289935588837e-02 -1.462088972330093384e-01
4.690000000000000000e+02 1.245362281799316406e+01 -2.130631446838378906e+01 -2.882625535130500793e-02 -3.618977963924407959e-01 -1.172172129154205322e-01 -2.178517580032348633e-01
4.700000000000000000e+02 1.118716049194335938e+01 -2.280410957336425781e+01 5.992688238620758057e-02 -3.374508321285247803e-01 -8.325718343257904053e-02 -2.721354961395263672e-01
4.710000000000000000e+02 6.281873583793640137e-01 -2.334349441528320312e+01 -3.963850438594818115e-03 -2.701804339885711670e-01 -8.224328607320785522e-02 -5.813998728990554810e-02
4.720000000000000000e+02 1.254574584960937500e+01 -2.002011775970458984e+00 -1.550486922496929765e-05 8.062512642936781049e-05 1.953607716131955385e-05 8.058911043917760253e-05
4.730000000000000000e+02 2.747120094299316406e+01 -4.075262832641601562e+01 -3.389070034027099609e-01 3.804569244384765625e+00 1.039698719978332520e+00 9.260064363479614258e-02
4.740000000000000000e+02 2.727649307250976562e+01 -3.722937393188476562e+01 -3.000123202800750732e-01 3.749858856201171875e+00 1.034953951835632324e+00 2.913182079792022705e-01
4.750000000000000000e+02 3.176579666137695312e+01 -3.678699111938476562e+01 -5.729980468750000000e-01 4.908575534820556641e+00 1.300673246383666992e+00 3.488070368766784668e-01
4.760000000000000000e+02 2.974831962585449219e+01 -2.296359252929687500e+01 -1.072984770871698856e-03 4.235179901123046875e+00 1.270232081413269043e+00 1.342490911483764648e+00
4.770000000000000000e+02 2.814803314208984375e+01 -1.424809455871582031e+01 9.667982459068298340e-01 2.017524957656860352e+00 8.952969908714294434e-01 1.439790368080139160e+00
4.780000000000000000e+02 3.115297126770019531e+01 -8.541692733764648438e+00 5.732331275939941406e-01 4.779832661151885986e-01 3.153649270534515381e-01 9.405721426010131836e-01
4.790000000000000000e+02 2.978040695190429688e+01 -9.155378341674804688e+00 3.481119573116302490e-01 3.991092443466186523e-01 2.241663634777069092e-01 7.098493576049804688e-01
4.800000000000000000e+02 3.764271545410156250e+01 -4.042367172241210938e+01 -8.654992580413818359e-01 6.096299171447753906e+00 1.569239854812622070e+00 8.624236285686492920e-02
4.810000000000000000e+02 3.633950805664062500e+01 -3.153167724609375000e+01 -7.886722683906555176e-01 6.188616275787353516e+00 1.619983196258544922e+00 4.640507102012634277e-01
4.820000000000000000e+02 3.356713104248046875e+01 -2.200730705261230469e+01 -3.500147759914398193e-01 5.965331077575683594e+00 1.684594869613647461e+00 1.386652231216430664e+00
4.830000000000000000e+02 3.309989547729492188e+01 -1.654870605468750000e+01 1.866751015186309814e-01 6.134678363800048828e+00 1.896406054496765137e+00 2.247367858886718750e+00
4.840000000000000000e+02 4.271745300292968750e+01 -4.070973205566406250e+01 -1.005795121192932129e+00 7.008031845092773438e+00 1.800670981407165527e+00 1.317954435944557190e-02
4.850000000000000000e+02 3.866089248657226562e+01 -3.639112091064453125e+01 -8.834567666053771973e-01 6.374466896057128906e+00 1.647303104400634766e+00 2.127508223056793213e-01
4.860000000000000000e+02 4.175803375244140625e+01 -2.932225227355957031e+01 -9.022908210754394531e-01 7.343099594116210938e+00 1.932242631912231445e+00 1.797690093517303467e-01
4.870000000000000000e+02 3.953407287597656250e+01 -1.766090774536132812e+01 -3.883668184280395508e-01 8.989839553833007812e+00 2.580441951751708984e+00 3.152804970741271973e-01
4.880000000000000000e+02 4.124185943603515625e+01 8.076427459716796875e+00 -4.625322520732879639e-01 8.146570205688476562e+00 2.305211544036865234e+00 -6.950615346431732178e-02
4.890000000000000000e+02 4.092544555664062500e+01 1.026126956939697266e+01 -5.847271084785461426e-01 7.726746082305908203e+00 2.142605781555175781e+00 -2.072482705116271973e-01
4.900000000000000000e+02 4.214059829711914062e+01 1.675583076477050781e+01 -7.361577749252319336e-01 7.021145343780517578e+00 1.885496258735656738e+00 -1.303763240575790405e-01
4.910000000000000000e+02 4.344676589965820312e+01 2.378284645080566406e+01 -7.746302485466003418e-01 6.681291103363037109e+00 1.771998167037963867e+00 -4.202233254909515381e-02
4.920000000000000000e+02 4.026647567749023438e+01 3.246188735961914062e+01 -7.168843150138854980e-01 5.860822677612304688e+00 1.543181538581848145e+00 -1.301500946283340454e-01
4.930000000000000000e+02 4.246140289306640625e+01 4.032469940185546875e+01 -7.013850212097167969e-01 6.070721626281738281e+00 1.610801100730895996e+00 -1.493971236050128937e-02
4.940000000000000000e+02 3.744396209716796875e+01 4.065035629272460938e+01 -6.426429748535156250e-01 5.316070556640625000e+00 1.402028322219848633e+00 -3.179318830370903015e-02
4.950000000000000000e+02 4.165240859985351562e+01 3.617894363403320312e+01 -7.126923799514770508e-01 5.995894908905029297e+00 1.584960699081420898e+00 -5.562309548258781433e-02
4.960000000000000000e+02 3.910695648193359375e+01 2.912690734863281250e+01 -7.101764678955078125e-01 5.789478302001953125e+00 1.523790597915649414e+00 -2.163988500833511353e-01
4.970000000000000000e+02 4.010551071166992188e+01 2.265026855468750000e+01 -7.516655921936035156e-01 6.270121097564697266e+00 1.655536651611328125e+00 -2.551173567771911621e-01
4.980000000000000000e+02 3.564091491699218750e+01 1.573281383514404297e+01 -6.047298908233642578e-01 5.917936801910400391e+00 1.593962073326110840e+00 -8.059400320053100586e-01
4.990000000000000000e+02 3.346026229858398438e+01 1.058522033691406250e+01 -3.480775356292724609e-01 5.662916183471679688e+00 1.594451665878295898e+00 -1.279833197593688965e+00
5.000000000000000000e+02 3.305421066284179688e+01 3.984504222869873047e+00 2.273491919040679932e-01 6.109876632690429688e+00 1.901167750358581543e+00 -2.077114820480346680e+00
5.010000000000000000e+02 3.600307464599609375e+01 -5.274402618408203125e+00 4.344182014465332031e+00 2.050350570678710938e+01 7.454306602478027344e+00 2.933781445026397705e-01
5.020000000000000000e+02 3.659246444702148438e+01 -5.931092262268066406e+00 9.672736167907714844e+00 1.796211242675781250e+01 8.290454864501953125e+00 2.490534543991088867e+00
5.030000000000000000e+02 3.880373764038085938e+01 -5.082200527191162109e+00 5.775413036346435547e+00 1.212123584747314453e+01 5.368994712829589844e+00 1.496980071067810059e+00
5.040000000000000000e+02 4.764599609375000000e+01 -4.087704849243164062e+01 -9.898998141288757324e-01 7.534700870513916016e+00 1.963440299034118652e+00 -2.707944624125957489e-02
5.050000000000000000e+02 4.805894088745117188e+01 -3.756914520263671875e+01 -9.601557850837707520e-01 7.605123996734619141e+00 1.993490457534790039e+00 -9.002283215522766113e-02
5.060000000000000000e+02 5.307528305053710938e+01 -3.475091934204101562e+01 -7.758352160453796387e-01 7.883417129516601562e+00 2.132274627685546875e+00 -2.663997113704681396e-01
5.070000000000000000e+02 5.363772201538085938e+01 -2.482433319091796875e+01 -2.944024801254272461e-01 8.041201591491699219e+00 2.324039936065673828e+00 -6.512019634246826172e-01
5.080000000000000000e+02 5.182853317260742188e+01 -1.512547302246093750e+01 9.088304042816162109e-01 8.064560890197753906e+00 2.692017316818237305e+00 -8.131628632545471191e-01
5.090000000000000000e+02 5.157103729248046875e+01 -1.359120845794677734e+01 1.160830616950988770e+00 8.019062042236328125e+00 2.753968000411987305e+00 -7.641445398330688477e-01
5.100000000000000000e+02 5.081747055053710938e+01 -3.812957286834716797e+00 1.927700161933898926e+00 7.848820209503173828e+00 2.932955980300903320e+00 4.835988581180572510e-01
5.110000000000000000e+02 5.063209915161132812e+01 2.491852998733520508e+00 9.138202667236328125e-01 8.107105255126953125e+00 2.706277847290039062e+00 9.961632490158081055e-01
5.120000000000000000e+02 4.929286575317382812e+01 6.695214271545410156e+00 2.034908384084701538e-01 8.183569908142089844e+00 2.516118049621582031e+00 8.963510990142822266e-01
5.130000000000000000e+02 4.835175323486328125e+01 1.780916023254394531e+01 -6.311233043670654297e-01 7.547949314117431641e+00 2.075047731399536133e+00 3.810145258903503418e-01
5.140000000000000000e+02 5.252337265014648438e+01 4.061216735839843750e+01 -6.287084221839904785e-01 7.148629665374755859e+00 1.955976366996765137e+00 3.955133259296417236e-02
5.150000000000000000e+02 5.738892745971679688e+01 -4.109710311889648438e+01 -6.941559910774230957e-01 7.908819198608398438e+00 2.164398908615112305e+00 -5.469248443841934204e-02
5.160000000000000000e+02 5.400002670288085938e+01 -3.194029045104980469e+01 -6.748813390731811523e-01 7.942003726959228516e+00 2.180136680603027344e+00 -3.834788203239440918e-01
5.170000000000000000e+02 5.904709625244140625e+01 -2.196559333801269531e+01 4.358556866645812988e-02 7.846906661987304688e+00 2.367147684097290039e+00 -6.808391809463500977e-01
5.180000000000000000e+02 5.770539474487304688e+01 -1.926767349243164062e+01 2.758893966674804688e-01 7.844500064849853516e+00 2.436116933822631836e+00 -7.144914865493774414e-01
5.190000000000000000e+02 6.063705444335937500e+01 -1.122079563140869141e+01 7.681537270545959473e-01 7.516143321990966797e+00 2.485289096832275391e+00 -2.938728034496307373e-01
5.200000000000000000e+02 5.910264968872070312e+01 -1.978973746299743652e+00 9.138587117195129395e-01 7.547760963439941406e+00 2.538486003875732422e+00 4.890699088573455811e-01
5.210000000000000000e+02 5.695754623413085938e+01 7.337032318115234375e+00 2.654128372669219971e-01 7.831384181976318359e+00 2.429039239883422852e+00 9.123349785804748535e-01
5.220000000000000000e+02 5.890776443481445312e+01 8.692105293273925781e+00 1.562151610851287842e-01 7.797765254974365234e+00 2.386193990707397461e+00 8.853104114532470703e-01
5.230000000000000000e+02 5.803755950927734375e+01 1.672365379333496094e+01 -2.696636617183685303e-01 7.833777904510498047e+00 2.269234418869018555e+00 7.525724768638610840e-01
5.240000000000000000e+02 6.022694015502929688e+01 2.742746162414550781e+01 -4.209339618682861328e-01 7.783198356628417969e+00 2.208679199218750000e+00 4.574242532253265381e-01
5.250000000000000000e+02 5.688825988769531250e+01 3.321888351440429688e+01 -5.302922129631042480e-01 7.548343181610107422e+00 2.105415344238281250e+00 2.519922256469726562e-01
5.260000000000000000e+02 5.737907409667968750e+01 4.067772293090820312e+01 -5.140615701675415039e-01 7.523761272430419922e+00 2.102909803390502930e+00 4.468864947557449341e-02
5.270000000000000000e+02 6.157053375244140625e+01 -3.829564285278320312e+01 -4.983469545841217041e-01 7.899362087249755859e+00 2.220304489135742188e+00 -1.700870096683502197e-01
5.280000000000000000e+02 6.629753875732421875e+01 -3.019748115539550781e+01 -2.039857506752014160e-01 7.770973682403564453e+00 2.270096302032470703e+00 -4.251087903976440430e-01
5.290000000000000000e+02 6.533649444580078125e+01 -2.452773857116699219e+01 -5.447557941079139709e-02 7.697379589080810547e+00 2.292871236801147461e+00 -5.464209318161010742e-01
5.300000000000000000e+02 6.265848922729492188e+01 -1.906379890441894531e+01 2.284553498029708862e-01 7.651624679565429688e+00 2.364023923873901367e+00 -5.802921056747436523e-01
5.310000000000000000e+02 6.619145202636718750e+01 -9.457329750061035156e+00 4.600764811038970947e-01 7.354181289672851562e+00 2.344277381896972656e+00 -1.005740612745285034e-01
5.320000000000000000e+02 6.799063110351562500e+01 -4.784596443176269531e+00 3.750891983509063721e-01 7.309588909149169922e+00 2.305403470993041992e+00 1.671458035707473755e-01
5.330000000000000000e+02 6.478139495849609375e+01 5.984531879425048828e+00 2.396700829267501831e-01 7.625677585601806641e+00 2.359604358673095703e+00 7.182655334472656250e-01
5.340000000000000000e+02 6.550329589843750000e+01 1.094311046600341797e+01 4.253337532281875610e-02 7.751921653747558594e+00 2.338336467742919922e+00 7.541644573211669922e-01
5.350000000000000000e+02 6.393178939819335938e+01 1.712308120727539062e+01 -1.565324366092681885e-01 7.873713493347167969e+00 2.315154314041137695e+00 7.271305918693542480e-01
5.360000000000000000e+02 6.527069854736328125e+01 2.550492286682128906e+01 -2.597754299640655518e-01 8.002198219299316406e+00 2.322726964950561523e+00 5.071373581886291504e-01
5.370000000000000000e+02 6.223780822753906250e+01 4.067367553710937500e+01 -3.790285885334014893e-01 7.869857788085937500e+00 2.247248649597167969e+00 5.288451164960861206e-02
5.380000000000000000e+02 6.687013244628906250e+01 -4.102849578857421875e+01 -3.055801987648010254e-01 7.853893280029296875e+00 2.264493942260742188e+00 -4.934881255030632019e-02
5.390000000000000000e+02 7.226560211181640625e+01 -3.155776405334472656e+01 -8.582668751478195190e-02 7.700839519500732422e+00 2.284503936767578125e+00 -2.743927538394927979e-01
5.400000000000000000e+02 7.119383239746093750e+01 -2.317267990112304688e+01 5.279943346977233887e-03 7.483878612518310547e+00 2.246747493743896484e+00 -3.924552500247955322e-01
5.410000000000000000e+02 7.188482666015625000e+01 -1.855718803405761719e+01 7.167185097932815552e-02 7.330440998077392578e+00 2.220633745193481445e+00 -3.360083699226379395e-01
5.420000000000000000e+02 7.171125030517578125e+01 -1.086773395538330078e+01 1.804099231958389282e-01 7.176570415496826172e+00 2.207093954086303711e+00 -1.237861439585685730e-01
5.430000000000000000e+02 7.159127807617187500e+01 -4.211000442504882812e+00 2.000388056039810181e-01 7.190483093261718750e+00 2.217156648635864258e+00 1.552464067935943604e-01
5.440000000000000000e+02 7.269656372070312500e+01 4.108124732971191406e+00 9.219311922788619995e-02 7.377978801727294922e+00 2.241051435470581055e+00 4.047074913978576660e-01
5.450000000000000000e+02 7.228856658935546875e+01 1.131507396697998047e+01 1.678910851478576660e-02 7.708444595336914062e+00 2.317570209503173828e+00 5.122632980346679688e-01
5.460000000000000000e+02 7.241888427734375000e+01 1.883661079406738281e+01 -5.199170857667922974e-02 8.048476219177246094e+00 2.398945331573486328e+00 4.708026945590972900e-01
5.470000000000000000e+02 7.278176879882812500e+01 2.518519020080566406e+01 -7.512372732162475586e-02 8.304866790771484375e+00 2.468923091888427734e+00 3.571740686893463135e-01
5.480000000000000000e+02 7.004621887207031250e+01 2.967801666259765625e+01 -1.427860856056213379e-01 8.266714096069335938e+00 2.437178373336791992e+00 3.303610980510711670e-01
5.490000000000000000e+02 7.203091430664062500e+01 3.380303955078125000e+01 -1.107138171792030334e-01 8.474016189575195312e+00 2.508990764617919922e+00 1.983473747968673706e-01
5.500000000000000000e+02 7.027560424804687500e+01 3.701872634887695312e+01 -1.363487988710403442e-01 8.404881477355957031e+00 2.480559587478637695e+00 1.455268114805221558e-01
5.510000000000000000e+02 7.790383911132812500e+01 -4.160182571411132812e+01 -1.386263966560363770e-02 7.961419582366943359e+00 2.384267091751098633e+00 -3.873642999678850174e-03
5.520000000000000000e+02 7.782038879394531250e+01 -3.672359848022460938e+01 -1.092210318893194199e-02 7.879589080810546875e+00 2.360599994659423828e+00 -5.082990601658821106e-02
5.530000000000000000e+02 7.804222869873046875e+01 -3.041441535949707031e+01 -7.818102836608886719e-03 7.650312900543212891e+00 2.292748451232910156e+00 -1.003088727593421936e-01
5.540000000000000000e+02 7.799242401123046875e+01 -2.346491813659667969e+01 5.843629478476941586e-04 7.294746875762939453e+00 2.188599348068237305e+00 -1.237709000706672668e-01
5.550000000000000000e+02 7.805596160888671875e+01 -1.650562858581542969e+01 8.478634990751743317e-03 6.932866096496582031e+00 2.082403421401977539e+00 -9.455596655607223511e-02
5.560000000000000000e+02 7.801329040527343750e+01 -9.596053123474121094e+00 1.451462041586637497e-02 6.738225936889648438e+00 2.025822162628173828e+00 -2.408685162663459778e-02
5.570000000000000000e+02 7.802391052246093750e+01 -2.634892702102661133e+00 1.444781664758920670e-02 6.804612159729003906e+00 2.045717954635620117e+00 6.805198639631271362e-02
5.580000000000000000e+02 7.798609161376953125e+01 4.336226940155029297e+00 9.392943233251571655e-03 7.142859935760498047e+00 2.145675897598266602e+00 1.435431838035583496e-01
5.590000000000000000e+02 7.792251586914062500e+01 1.136558914184570312e+01 1.452688244171440601e-03 7.647519111633300781e+00 2.294691562652587891e+00 1.789241582155227661e-01
5.600000000000000000e+02 7.806114196777343750e+01 1.975059700012207031e+01 -6.256506778299808502e-03 8.282932281494140625e+00 2.483002662658691406e+00 1.515902131795883179e-01
5.610000000000000000e+02 7.667331695556640625e+01 2.257011985778808594e+01 -1.150907482951879501e-02 8.389557838439941406e+00 2.513414859771728516e+00 2.196487337350845337e-01
5.620000000000000000e+02 7.930594635009765625e+01 3.232036209106445312e+01 -1.600930118001997471e-03 9.069165229797363281e+00 2.720269203186035156e+00 2.904611267149448395e-02
5.630000000000000000e+02 7.507845306396484375e+01 3.768622589111328125e+01 -6.673079729080200195e-02 8.790850639343261719e+00 2.617235898971557617e+00 7.230642437934875488e-02
5.640000000000000000e+02 7.915578460693359375e+01 3.728936004638671875e+01 -6.891456432640552521e-03 9.165714263916015625e+00 2.747646808624267578e+00 -9.185364469885826111e-03
5.650000000000000000e+02 3.257040023803710938e+01 4.077190017700195312e+01 -5.281504392623901367e-01 4.510350704193115234e+00 1.194660067558288574e+00 -4.837796837091445923e-02
5.660000000000000000e+02 2.769589042663574219e+01 4.071529388427734375e+01 -3.802250027656555176e-01 3.640426874160766602e+00 9.780605435371398926e-01 -5.276538431644439697e-02
5.670000000000000000e+02 3.563082504272460938e+01 2.993946075439453125e+01 -6.261425614356994629e-01 5.167998313903808594e+00 1.362556695938110352e+00 -2.988159656524658203e-01
5.680000000000000000e+02 3.244412994384765625e+01 2.351823806762695312e+01 -5.264046192169189453e-01 4.763177394866943359e+00 1.271031856536865234e+00 -6.214057207107543945e-01
5.690000000000000000e+02 2.940158843994140625e+01 1.638941574096679688e+01 -2.777032554149627686e-01 4.098858833312988281e+00 1.146346569061279297e+00 -1.022174596786499023e+00
5.700000000000000000e+02 2.809203720092773438e+01 8.351862907409667969e+00 2.156607806682586670e-01 3.417373180389404297e+00 1.089910149574279785e+00 -1.499172449111938477e+00
5.710000000000000000e+02 2.864572906494140625e+01 -7.654725313186645508e-01 1.462939262390136719e+00 1.677431225776672363e+00 9.421111345291137695e-01 -1.461670041084289551e+00
5.720000000000000000e+02 2.734600067138671875e+01 -4.969876766204833984e+00 -2.385132014751434326e-01 7.798492163419723511e-02 -4.815848171710968018e-02 7.759512960910797119e-02
5.730000000000000000e+02 3.023369026184082031e+01 -5.059049606323242188e+00 5.688266158103942871e-01 2.476821392774581909e-01 2.449526190757751465e-01 -4.734670221805572510e-01
5.740000000000000000e+02 2.884878349304199219e+01 -4.492711544036865234e+00 5.369007587432861328e-01 2.536220848560333252e-01 2.371568530797958374e-01 -3.104025423526763916e-01
5.750000000000000000e+02 3.221408081054687500e+01 -4.761003017425537109e+00 2.705749750137329102e+00 1.330278396606445312e+00 1.210808515548706055e+00 -2.215951204299926758e+00
5.760000000000000000e+02 2.269694709777832031e+01 4.042048645019531250e+01 -2.184441089630126953e-01 2.691988229751586914e+00 7.420632839202880859e-01 -6.637933105230331421e-02
5.770000000000000000e+02 2.243664550781250000e+01 3.146869468688964844e+01 -1.837157309055328369e-01 2.649194955825805664e+00 7.396437525749206543e-01 -3.284274339675903320e-01
5.780000000000000000e+02 2.380319595336914062e+01 2.138314628601074219e+01 -1.380283683538436890e-01 2.704457283020019531e+00 7.699286937713623047e-01 -6.914475560188293457e-01
5.790000000000000000e+02 2.196716499328613281e+01 1.494508361816406250e+01 1.017043367028236389e-01 1.931178927421569824e+00 6.098649501800537109e-01 -7.671637535095214844e-01
5.800000000000000000e+02 2.020695686340332031e+01 9.904286384582519531e+00 2.395171970129013062e-01 9.603642225265502930e-01 3.599644303321838379e-01 -6.115282177925109863e-01
5.810000000000000000e+02 1.996366500854492188e+01 5.319112300872802734e+00 9.760501980781555176e-02 1.559895724058151245e-01 7.607837766408920288e-02 -3.449140489101409912e-01
5.820000000000000000e+02 2.164189910888671875e+01 -4.327963352203369141e+00 -1.369441896677017212e-01 -7.999999076128005981e-02 -6.508325040340423584e-02 2.804259359836578369e-01
5.830000000000000000e+02 2.466965675354003906e+01 -4.084939479827880859e+00 -4.160296916961669922e-02 5.596937239170074463e-02 4.309921525418758392e-03 2.081078588962554932e-01
5.840000000000000000e+02 2.377120590209960938e+01 -4.681591510772705078e+00 -2.738605141639709473e-01 -7.545773871243000031e-03 -8.442188054323196411e-02 2.681971788406372070e-01
5.850000000000000000e+02 1.760624504089355469e+01 4.051346969604492188e+01 -9.631689637899398804e-02 1.889723181724548340e+00 5.380218625068664551e-01 -4.721171781420707703e-02
5.860000000000000000e+02 1.796731185913085938e+01 3.204357147216796875e+01 -5.487208440899848938e-02 1.767035484313964844e+00 5.136490464210510254e-01 -2.400176376104354858e-01
5.870000000000000000e+02 1.690805816650390625e+01 2.273552894592285156e+01 -5.887169856578111649e-03 1.300294280052185059e+00 3.883221447467803955e-01 -4.167301356792449951e-01
5.880000000000000000e+02 1.294538402557373047e+01 1.756163024902343750e+01 -1.390118300914764404e-01 1.389650106430053711e-01 -1.404317845299374312e-05 -2.518509328365325928e-02
5.890000000000000000e+02 1.506980514526367188e+01 1.560700321197509766e+01 1.160925552248954773e-01 4.798137247562408447e-01 1.787718832492828369e-01 -2.473867088556289673e-01
5.900000000000000000e+02 1.875725364685058594e+01 1.613292694091796875e+01 7.196446508169174194e-02 1.294659852981567383e+00 4.099873006343841553e-01 -4.862619340419769287e-01
5.910000000000000000e+02 1.592069911956787109e+01 1.442773151397705078e+01 1.641384661197662354e-01 6.484704613685607910e-01 2.437826693058013916e-01 -3.097868859767913818e-01
5.920000000000000000e+02 1.802893447875976562e+01 9.105421066284179688e+00 9.629709273576736450e-02 4.848737418651580811e-01 1.743512451648712158e-01 -2.299124896526336670e-01
5.930000000000000000e+02 1.858482742309570312e+01 6.377104759216308594e+00 3.411295264959335327e-02 -8.070794492959976196e-02 -1.397849898785352707e-02 -1.124502494931221008e-01
5.940000000000000000e+02 1.896354866027832031e+01 2.219146490097045898e+00 1.004906743764877319e-02 -7.238175272941589355e-01 -2.141305357217788696e-01 -3.355977311730384827e-02
5.950000000000000000e+02 1.886270332336425781e+01 -4.828599393367767334e-01 1.199175044894218445e-02 -6.862967014312744141e-01 -2.022914737462997437e-01 3.729333728551864624e-02
5.960000000000000000e+02 1.967329597473144531e+01 -3.000041484832763672e+00 4.581642337143421173e-03 -2.519239187240600586e-01 -7.420267909765243530e-02 1.951052844524383545e-01
5.970000000000000000e+02 1.270762443542480469e+01 4.094071960449218750e+01 -1.321567688137292862e-02 1.062857151031494141e+00 3.148924410343170166e-01 -9.461853653192520142e-03
5.980000000000000000e+02 8.164735794067382812e+00 4.102487945556640625e+01 -4.448307154234498739e-04 4.249182343482971191e-01 1.273420155048370361e-01 6.846479955129325390e-04
5.990000000000000000e+02 7.374527454376220703e+00 3.129419136047363281e+01 5.777335911989212036e-02 2.791988551616668701e-01 1.010916605591773987e-01 3.261946514248847961e-02
6.000000000000000000e+02 6.026351928710937500e+00 2.440600967407226562e+01 2.670044079422950745e-02 3.426211699843406677e-02 1.828876696527004242e-02 1.211070790886878967e-01
6.010000000000000000e+02 1.025856208801269531e+01 1.889580726623535156e+01 -4.949200451374053955e-01 -4.015496000647544861e-02 -1.605225056409835815e-01 3.689169511198997498e-02
6.020000000000000000e+02 1.169184112548828125e+01 1.842623710632324219e+01 -3.349116444587707520e-01 1.679057069122791290e-02 -9.543632715940475464e-02 4.601445049047470093e-02
6.030000000000000000e+02 2.008092403411865234e+00 4.163992309570312500e+01 -4.982779547572135925e-02 -3.764840960502624512e-01 -1.278935670852661133e-01 -1.411942765116691589e-02
6.040000000000000000e+02 4.385760307312011719e+00 3.770921707153320312e+01 2.498243376612663269e-02 -1.100482046604156494e-01 -2.551973238587379456e-02 4.694537073373794556e-02
6.050000000000000000e+02 2.268865585327148438e+00 3.580159378051757812e+01 2.279704064130783081e-02 -3.316123783588409424e-01 -9.264460206031799316e-02 -6.070175208151340485e-03
6.060000000000000000e+02 1.934346079826354980e+00 2.889653396606445312e+01 8.891001343727111816e-03 -2.805792391300201416e-01 -8.150646835565567017e-02 5.085468664765357971e-02
6.070000000000000000e+02 1.971359729766845703e+00 2.315780067443847656e+01 -2.288379240781068802e-03 -1.233678087592124939e-01 -3.769685700535774231e-02 8.202219009399414062e-02
6.080000000000000000e+02 4.251501560211181641e+00 1.576717472076416016e+01 -2.295969426631927490e-02 -4.460998810827732086e-03 -8.226207457482814789e-03 1.749605522491037846e-03
6.090000000000000000e+02 5.673511028289794922e-01 6.402906417846679688e+00 -1.501579390605911613e-04 4.344404442235827446e-04 8.528475154889747500e-05 -1.301428274018689990e-04
6.100000000000000000e+02 6.055913448333740234e+00 1.850266218185424805e+00 1.314467081101611257e-04 2.439929376123473048e-04 1.126318893511779606e-04 1.457391335861757398e-04
6.110000000000000000e+02 8.070188522338867188e+00 2.601958513259887695e+00 1.447443792130798101e-04 2.915177319664508104e-04 1.308786449953913689e-04 3.227782144676893950e-04
6.120000000000000000e+02 9.628480911254882812e+00 1.866871118545532227e+00 9.179957487503997982e-06 -1.252269576070830226e-04 -3.481410021777264774e-05 -1.552463218104094267e-04
6.130000000000000000e+02 1.392525386810302734e+01 1.748088359832763672e+00 -1.676563988439738750e-04 9.010381472762674093e-05 -2.326577487110625952e-05 -9.376456546306144446e-06
6.140000000000000000e+02 1.444419956207275391e+01 6.254945278167724609e+00 4.657081153709441423e-04 1.168658855021931231e-04 1.747721980791538954e-04 1.514739851700142026e-04
6.150000000000000000e+02 1.178664016723632812e+01 9.575548171997070312e+00 5.562251317314803600e-04 1.779496320523321629e-03 7.007164531387388706e-04 9.535421268083155155e-04
6.160000000000000000e+02 1.131861495971679688e+01 1.234853935241699219e+01 -1.804326777346432209e-03 -9.926131460815668106e-04 -8.390820003114640713e-04 -2.247967990115284920e-03
6.170000000000000000e+02 1.216119289398193359e+01 1.124085617065429688e+01 1.556398696266114712e-03 1.608921447768807411e-03 9.495960548520088196e-04 9.540560422465205193e-04
6.180000000000000000e+02 9.413143157958984375e+00 1.447035884857177734e+01 -2.981424331665039062e-03 -1.862208242528140545e-03 -1.453089760616421700e-03 -7.043354678899049759e-03
6.190000000000000000e+02 7.863400936126708984e+00 1.688105201721191406e+01 -2.017123438417911530e-02 -2.596341772004961967e-03 -6.830272730439901352e-03 -3.215619549155235291e-02
6.200000000000000000e+02 1.783880591392517090e+00 2.172760963439941406e+01 -1.036622095853090286e-02 -8.491299301385879517e-02 -2.858376502990722656e-02 6.923936307430267334e-02
6.210000000000000000e+02 1.163822770118713379e+00 3.804162025451660156e+00 -1.327371282968670130e-04 1.943902461789548397e-04 1.849593718361575156e-05 -1.138466323027387261e-04
6.220000000000000000e+02 1.385473442077636719e+01 2.567425489425659180e+00 3.564886283129453659e-04 2.639049198478460312e-04 1.861180644482374191e-04 3.869946522172540426e-04
6.230000000000000000e+02 3.697854995727539062e+01 -5.985610485076904297e+00 9.610705375671386719e+00 1.602627754211425781e+01 7.691094398498535156e+00 1.864978313446044922e+00
6.240000000000000000e+02 3.549318313598632812e+01 -8.354520797729492188e+00 2.011346578598022461e+00 1.943225097656250000e+01 6.433079242706298828e+00 3.085936784744262695e+00
6.250000000000000000e+02 2.244573020935058594e+01 -8.312097549438476562e+00 -8.391948938369750977e-01 8.353768289089202881e-02 -2.266971617937088013e-01 -3.309934139251708984e-01
6.260000000000000000e+02 3.947940826416015625e+01 -8.979421615600585938e+00 4.360844612121582031e+00 1.152073955535888672e+01 4.764475345611572266e+00 -1.615214824676513672e+00
6.270000000000000000e+02 5.296125411987304688e+01 -1.308557796478271484e+01 1.176020979881286621e+00 7.892637252807617188e+00 2.720597505569458008e+00 -6.743988990783691406e-01
6.280000000000000000e+02 5.900948333740234375e+01 -1.369005680084228516e+01 7.360057234764099121e-01 7.618028163909912109e+00 2.506210327148437500e+00 -4.836535453796386719e-01
6.290000000000000000e+02 6.507311248779296875e+01 -1.249696826934814453e+01 4.553409218788146973e-01 7.423241615295410156e+00 2.363574743270874023e+00 -2.901205122470855713e-01
6.300000000000000000e+02 7.283177185058593750e+01 -1.231873798370361328e+01 1.236126720905303955e-01 7.142037391662597656e+00 2.179695129394531250e+00 -1.608961373567581177e-01
6.310000000000000000e+02 7.934030151367187500e+01 -1.248178291320800781e+01 2.588033676147460938e-03 6.666262149810791016e+00 2.000654935836791992e+00 -1.979463547468185425e-02
6.320000000000000000e+02 7.934032440185546875e+01 -5.518222332000732422e+00 3.151213051751255989e-03 6.601671695709228516e+00 1.981446862220764160e+00 1.205761358141899109e-02
6.330000000000000000e+02 7.288968658447265625e+01 -5.434286594390869141e+00 1.508663892745971680e-01 7.114672183990478516e+00 2.179661512374877930e+00 9.128294885158538818e-02
6.340000000000000000e+02 6.664656829833984375e+01 -6.074700832366943359e+00 4.569732546806335449e-01 7.342081069946289062e+00 2.339716196060180664e+00 1.057355925440788269e-01
6.350000000000000000e+02 5.952140045166015625e+01 -3.869114398956298828e+00 9.695143699645996094e-01 7.499414443969726562e+00 2.540678501129150391e+00 3.159255981445312500e-01
6.360000000000000000e+02 5.193570327758789062e+01 -3.438099861145019531e+00 1.723338484764099121e+00 7.780275821685791016e+00 2.851084232330322266e+00 5.003819465637207031e-01
6.370000000000000000e+02 2.110840225219726562e+01 -2.485393333435058594e+01 2.430484592914581299e-01 1.586757898330688477e+00 5.489419102668762207e-01 6.107442378997802734e-01
6.380000000000000000e+02 1.609259986877441406e+01 -2.320212745666503906e+01 1.801560223102569580e-01 3.617940545082092285e-01 1.625850200653076172e-01 1.380621492862701416e-01
6.390000000000000000e+02 2.987425994873046875e+01 -1.349767494201660156e+01 1.155495047569274902e+00 2.777915000915527344e+00 1.180022954940795898e+00 2.012079954147338867e+00
6.400000000000000000e+02 3.313782119750976562e+01 -1.583757114410400391e+01 2.600299417972564697e-01 6.210612297058105469e+00 1.941192746162414551e+00 2.395390033721923828e+00
6.410000000000000000e+02 4.044398498535156250e+01 -1.865205574035644531e+01 -4.427084624767303467e-01 8.778405189514160156e+00 2.500709056854248047e+00 1.327829062938690186e-01
6.420000000000000000e+02 5.216230392456054688e+01 -1.681342697143554688e+01 6.263756155967712402e-01 8.097197532653808594e+00 2.617072105407714844e+00 -8.417211174964904785e-01
6.430000000000000000e+02 5.949056625366210938e+01 -1.796986961364746094e+01 3.627590239048004150e-01 7.732021808624267578e+00 2.428434371948242188e+00 -6.416210532188415527e-01
6.440000000000000000e+02 6.577080535888671875e+01 -1.907088470458984375e+01 1.669950634241104126e-01 7.550725936889648438e+00 2.315316438674926758e+00 -5.008562803268432617e-01
6.450000000000000000e+02 7.316106414794921875e+01 -1.875955581665039062e+01 4.878569021821022034e-02 7.283802032470703125e+00 2.199776411056518555e+00 -2.999732792377471924e-01
6.460000000000000000e+02 7.933349609375000000e+01 -2.221594238281250000e+01 9.115566499531269073e-04 7.174004077911376953e+00 2.152474641799926758e+00 -4.373750090599060059e-02
6.470000000000000000e+02 5.383470058441162109e+00 -1.561216068267822266e+01 -1.225825492292642593e-02 -3.308961540460586548e-02 -1.360436063259840012e-02 -9.741475805640220642e-03
6.480000000000000000e+02 1.778833150863647461e+00 -1.742457199096679688e+01 -1.712606474757194519e-02 -7.022331934422254562e-03 -7.244519423693418503e-03 -3.316422225907444954e-03
6.490000000000000000e+02 5.672155618667602539e-01 -1.065654659271240234e+01 1.410478143952786922e-03 2.825532574206590652e-03 1.270803273655474186e-03 1.332573825493454933e-03
6.500000000000000000e+02 2.360386085510253906e+01 -3.108732414245605469e+01 1.607765816152095795e-02 2.641310691833496094e+00 7.972164750099182129e-01 5.668362975120544434e-01
6.510000000000000000e+02 1.552982139587402344e+01 -2.886343574523925781e+01 2.615828514099121094e-01 6.806565523147583008e-01 2.826718091964721680e-01 1.002784967422485352e-01
6.520000000000000000e+02 2.817049598693847656e+01 -2.210617446899414062e+01 1.855558454990386963e-01 3.533242702484130859e+00 1.115639567375183105e+00 1.315750598907470703e+00
6.530000000000000000e+02 3.516827392578125000e+01 -2.185413932800292969e+01 -5.022537112236022949e-01 6.671962261199951172e+00 1.850912570953369141e+00 1.227590322494506836e+00
6.540000000000000000e+02 4.277548217773437500e+01 -2.341654205322265625e+01 -6.889945268630981445e-01 8.149976730346679688e+00 2.238294839859008789e+00 -4.264804348349571228e-02
6.550000000000000000e+02 5.894520187377929688e+01 -2.519613456726074219e+01 -1.773527413606643677e-01 7.896217346191406250e+00 2.315659523010253906e+00 -6.312155723571777344e-01
6.560000000000000000e+02 6.667132568359375000e+01 -2.389030838012695312e+01 -2.153597958385944366e-02 7.642227649688720703e+00 2.286207437515258789e+00 -5.147169232368469238e-01
6.570000000000000000e+02 7.271860504150390625e+01 -2.436830139160156250e+01 -1.124624535441398621e-02 7.483264923095703125e+00 2.241605758666992188e+00 -3.490646183490753174e-01
6.580000000000000000e+02 7.932745361328125000e+01 -2.640527343750000000e+01 -1.695178565569221973e-03 7.438929080963134766e+00 2.231170177459716797e+00 -4.253334179520606995e-02
6.590000000000000000e+02 7.988422513008117676e-01 -3.047600746154785156e+01 4.873332567512989044e-03 -9.068281650543212891e-01 -2.705864310264587402e-01 -5.241001769900321960e-02
6.600000000000000000e+02 8.927373886108398438e+00 -3.535729980468750000e+01 1.469518840312957764e-01 3.240693733096122742e-02 5.380764603614807129e-02 -1.088706851005554199e-01
6.610000000000000000e+02 2.893865203857421875e+01 -3.259449005126953125e+01 -3.532779514789581299e-01 4.187183380126953125e+00 1.150171518325805664e+00 6.053521037101745605e-01
6.620000000000000000e+02 3.179570198059082031e+01 -3.368576812744140625e+01 -5.243867039680480957e-01 4.869167327880859375e+00 1.303434252738952637e+00 5.611650347709655762e-01
6.630000000000000000e+02 4.016631317138671875e+01 -3.259014511108398438e+01 -9.174185395240783691e-01 6.874972343444824219e+00 1.787266135215759277e+00 2.571745812892913818e-01
6.640000000000000000e+02 5.721522903442382812e+01 -3.526260757446289062e+01 -6.271486878395080566e-01 7.919605731964111328e+00 2.187736988067626953e+00 -2.888822257518768311e-01
6.650000000000000000e+02 6.382181167602539062e+01 -3.240135574340820312e+01 -3.253995776176452637e-01 7.848081588745117188e+00 2.256804704666137695e+00 -3.890966475009918213e-01
6.660000000000000000e+02 7.368294525146484375e+01 -3.322860336303710938e+01 -6.766486167907714844e-02 7.730705261230468750e+00 2.298912048339843750e+00 -2.117373943328857422e-01
6.670000000000000000e+02 7.933097839355468750e+01 -3.332301712036132812e+01 1.594859641045331955e-03 7.807626724243164062e+00 2.342766523361206055e+00 -2.807348035275936127e-02
6.680000000000000000e+02 7.933003234863281250e+01 2.844257831573486328e+00 2.302716020494699478e-03 6.951273918151855469e+00 2.086072921752929688e+00 4.846634343266487122e-02
6.690000000000000000e+02 7.278423309326171875e+01 1.371065855026245117e+00 1.190852820873260498e-01 7.272740840911865234e+00 2.217547893524169922e+00 3.315776586532592773e-01
6.700000000000000000e+02 6.566307067871093750e+01 1.495399773120880127e-01 4.234733581542968750e-01 7.450057506561279297e+00 2.362059354782104492e+00 4.769065380096435547e-01
6.710000000000000000e+02 5.858985137939453125e+01 1.288582563400268555e+00 7.441611289978027344e-01 7.637887001037597656e+00 2.514614582061767578e+00 7.154303193092346191e-01
6.720000000000000000e+02 5.344998931884765625e+01 2.176717042922973633e+00 9.037823081016540527e-01 7.889287948608398438e+00 2.637921094894409180e+00 9.110079407691955566e-01
6.730000000000000000e+02 3.257771301269531250e+01 5.221235275268554688e+00 1.468136310577392578e-01 5.692267894744873047e+00 1.751724481582641602e+00 -1.934176683425903320e+00
6.740000000000000000e+02 4.019115066528320312e+01 7.198060989379882812e+00 -4.546095430850982666e-01 8.264771461486816406e+00 2.343048572540283203e+00 -2.626735866069793701e-01
6.750000000000000000e+02 7.931575012207031250e+01 8.429035186767578125e+00 1.381701556965708733e-03 7.375753402709960938e+00 2.213140487670898438e+00 6.277108192443847656e-02
6.760000000000000000e+02 7.251889801025390625e+01 8.371361732482910156e+00 4.797308892011642456e-02 7.569942951202392578e+00 2.285374879837036133e+00 4.857905805110931396e-01
6.770000000000000000e+02 6.595806121826171875e+01 8.819897651672363281e+00 1.124613359570503235e-01 7.686358928680419922e+00 2.339646100997924805e+00 7.294819355010986328e-01
6.780000000000000000e+02 5.944671249389648438e+01 1.054173564910888672e+01 4.242911189794540405e-02 7.813921451568603516e+00 2.356905221939086914e+00 8.684827089309692383e-01
6.790000000000000000e+02 5.117180252075195312e+01 5.157582283020019531e+00 4.806403219699859619e-01 8.091472625732421875e+00 2.571633815765380859e+00 9.735879302024841309e-01
6.800000000000000000e+02 3.964218902587890625e+01 1.124715423583984375e+01 -6.373637318611145020e-01 7.383869171142578125e+00 2.023951530456542969e+00 -4.578731060028076172e-01
6.810000000000000000e+02 2.770342445373535156e+01 -3.224848210811614990e-01 1.274340033531188965e+00 1.451000332832336426e+00 8.176020979881286621e-01 -1.200998544692993164e+00
6.820000000000000000e+02 2.022353172302246094e+01 3.870979785919189453e+00 9.039352834224700928e-02 1.388863380998373032e-02 3.128464892506599426e-02 -2.654961347579956055e-01
6.830000000000000000e+02 1.894212913513183594e+01 3.608679056167602539e+00 1.191811636090278625e-02 -6.031671166419982910e-01 -1.773746907711029053e-01 -5.484956875443458557e-02
6.840000000000000000e+02 7.933457183837890625e+01 1.681014442443847656e+01 -1.024924684315919876e-03 8.098671913146972656e+00 2.429294109344482422e+00 6.242055073380470276e-02
6.850000000000000000e+02 7.264833068847656250e+01 1.765377044677734375e+01 -3.983481600880622864e-02 8.002759933471679688e+00 2.388877630233764648e+00 4.763322472572326660e-01
6.860000000000000000e+02 6.502285766601562500e+01 1.560843086242675781e+01 -1.007825508713722229e-01 7.860699653625488281e+00 2.327975273132324219e+00 7.325975298881530762e-01
6.870000000000000000e+02 5.525061035156250000e+01 1.607023048400878906e+01 -3.485154211521148682e-01 7.811546325683593750e+00 2.238909244537353516e+00 7.262835502624511719e-01
6.880000000000000000e+02 4.710669708251953125e+01 1.559880065917968750e+01 -6.001178622245788574e-01 7.627284049987792969e+00 2.108149766921997070e+00 3.664934337139129639e-01
6.890000000000000000e+02 3.951937484741210938e+01 2.050446891784667969e+01 -7.410385012626647949e-01 6.294389247894287109e+00 1.666005134582519531e+00 -3.296584784984588623e-01
6.900000000000000000e+02 2.658801651000976562e+01 1.030908870697021484e+01 1.560195833444595337e-01 2.983397960662841797e+00 9.418252706527709961e-01 -1.278515577316284180e+00
6.910000000000000000e+02 1.987032508850097656e+01 1.133689403533935547e+01 2.303563207387924194e-01 1.071774721145629883e+00 3.906393051147460938e-01 -5.889684557914733887e-01
6.920000000000000000e+02 7.931761932373046875e+01 2.375656700134277344e+01 -2.301279455423355103e-03 8.635653495788574219e+00 2.590005636215209961e+00 5.096016451716423035e-02
6.930000000000000000e+02 7.224189758300781250e+01 2.239652824401855469e+01 -7.225774228572845459e-02 8.182085037231445312e+00 2.432948112487792969e+00 4.249738454818725586e-01
6.940000000000000000e+02 6.365246200561523438e+01 2.369942474365234375e+01 -2.812014818191528320e-01 7.926197052001953125e+00 2.293498754501342773e+00 5.754178762435913086e-01
6.950000000000000000e+02 5.616366958618164062e+01 2.270206451416015625e+01 -4.826359152793884277e-01 7.694061279296875000e+00 2.163427591323852539e+00 5.360478162765502930e-01
6.960000000000000000e+02 4.939961624145507812e+01 2.354461097717285156e+01 -6.968267560005187988e-01 7.260368347167968750e+00 1.969062447547912598e+00 2.845547199249267578e-01
6.970000000000000000e+02 3.510592651367187500e+01 2.658798408508300781e+01 -6.177123785018920898e-01 5.151808261871337891e+00 1.360228776931762695e+00 -4.132996797561645508e-01
6.980000000000000000e+02 4.103430557250976562e+01 2.512397193908691406e+01 -7.461795210838317871e-01 6.275881290435791016e+00 1.658910512924194336e+00 -1.634855270385742188e-01
6.990000000000000000e+02 2.771953201293945312e+01 1.512855720520019531e+01 -1.287580728530883789e-01 3.549440383911132812e+00 1.026204705238342285e+00 -1.079546809196472168e+00
7.000000000000000000e+02 2.044508552551269531e+01 1.800416183471679688e+01 1.637149788439273834e-02 1.790780663490295410e+00 5.421456694602966309e-01 -6.202614903450012207e-01
7.010000000000000000e+02 2.697187423706054688e+00 2.095121574401855469e+01 -2.429118938744068146e-02 -4.938840121030807495e-02 -2.210387773811817169e-02 7.946581393480300903e-02
7.020000000000000000e+02 7.916223144531250000e+01 2.945736312866210938e+01 -2.974967472255229950e-03 8.950853347778320312e+00 2.684363365173339844e+00 4.419836774468421936e-02
7.030000000000000000e+02 7.170647430419921875e+01 2.984173583984375000e+01 -1.202853471040725708e-01 8.364227294921875000e+00 2.473182678222656250e+00 2.956910431385040283e-01
7.040000000000000000e+02 5.698626708984375000e+01 2.969579315185546875e+01 -5.184100270271301270e-01 7.591078281402587891e+00 2.121800422668457031e+00 3.482520878314971924e-01
7.050000000000000000e+02 5.280268478393554688e+01 3.271215438842773438e+01 -6.339789628982543945e-01 7.238375663757324219e+00 1.981318950653076172e+00 1.948803961277008057e-01
7.060000000000000000e+02 3.647925567626953125e+01 3.341203308105468750e+01 -6.369116902351379395e-01 5.251462936401367188e+00 1.384365320205688477e+00 -1.843394190073013306e-01
7.070000000000000000e+02 4.880624771118164062e+01 3.271555328369140625e+01 -6.900328397750854492e-01 6.939581394195556641e+00 1.874864459037780762e+00 1.075978428125381470e-01
7.080000000000000000e+02 2.843858337402343750e+01 2.199853324890136719e+01 -3.313713371753692627e-01 3.845687627792358398e+00 1.054294943809509277e+00 -7.394467592239379883e-01
7.090000000000000000e+02 2.146994209289550781e+01 2.274835968017578125e+01 -9.539810568094253540e-02 2.266645193099975586e+00 6.513741016387939453e-01 -6.016586422920227051e-01
7.100000000000000000e+02 1.758205413818359375e+01 2.499564743041992188e+01 -1.099799852818250656e-02 1.493656396865844727e+00 4.447975158691406250e-01 -3.952635824680328369e-01
7.110000000000000000e+02 7.193967342376708984e+00 2.369113349914550781e+01 2.277815714478492737e-02 8.303035795688629150e-02 3.174255415797233582e-02 1.031499579548835754e-01
7.120000000000000000e+02 2.894832611083984375e+01 3.382635879516601562e+01 -4.120873510837554932e-01 3.843271255493164062e+00 1.029355168342590332e+00 -2.771176993846893311e-01
7.130000000000000000e+02 2.029378509521484375e+01 3.458076095581054688e+01 -1.373304575681686401e-01 2.260630846023559570e+00 6.369901299476623535e-01 -1.996515393257141113e-01
7.140000000000000000e+02 1.539581584930419922e+01 3.385528945922851562e+01 -2.005588449537754059e-02 1.434122562408447266e+00 4.242200255393981934e-01 -1.660638302564620972e-01
7.150000000000000000e+02 7.476893901824951172e+00 3.313872146606445312e+01 5.389311164617538452e-02 3.203592002391815186e-01 1.122756898403167725e-01 2.411025390028953552e-02
7.160000000000000000e+02 2.068789958953857422e+00 3.162956428527832031e+01 7.324493490159511566e-03 -3.116098940372467041e-01 -9.128561615943908691e-02 3.551144525408744812e-02
7.170000000000000000e+02 1.778623223304748535e+00 9.088517189025878906e+00 7.332611130550503731e-04 9.902958991006016731e-04 5.170670920051634312e-04 -1.251235487870872021e-03
7.180000000000000000e+02 1.933313179016113281e+01 -7.738869190216064453e+00 -4.261728227138519287e-01 -1.197649724781513214e-02 -1.314447969198226929e-01 -3.046796023845672607e-01
7.190000000000000000e+02 1.421939945220947266e+01 -1.385208129882812500e+01 -7.408556342124938965e-01 -1.065409183502197266e+00 -5.418794751167297363e-01 -8.533589839935302734e-01
7.200000000000000000e+02 7.554216861724853516e+00 -1.388683700561523438e+01 -5.622636061161756516e-03 1.189547311514616013e-02 1.881851232610642910e-03 6.491798441857099533e-03
7.210000000000000000e+02 1.132945060729980469e+01 -8.131830215454101562e+00 8.064899593591690063e-04 2.821386151481419802e-04 3.265885752625763416e-04 -6.823652074672281742e-04
7.220000000000000000e+02 1.016081428527832031e+01 -3.151556730270385742e+00 -6.136805041023762897e-06 4.139966913498938084e-04 1.223579602083191276e-04 -7.055360474623739719e-04
7.230000000000000000e+02 1.320938491821289062e+01 -1.963128328323364258e+00 -4.567482756101526320e-05 -6.404435407603159547e-05 -3.291575558250769973e-05 -1.201486593345180154e-04
7.240000000000000000e+02 1.491113471984863281e+01 -2.294255495071411133e+00 -3.034730798390228301e-05 -5.955904271104373038e-05 -2.697190575418062508e-05 8.970427734311670065e-05
7.250000000000000000e+02 1.430462932586669922e+01 -2.142422437667846680e+00 4.711314250016584992e-05 1.137310537160374224e-04 4.825325959245674312e-05 -1.458739134250208735e-04
7.260000000000000000e+02 1.375102615356445312e+01 -1.998055815696716309e+00 -1.957157292054034770e-05 -1.289352949243038893e-04 -4.455206362763419747e-05 1.444528752472251654e-04
7.270000000000000000e+02 1.179722499847412109e+01 -1.973118782043457031e+00 1.421426277374848723e-04 -1.932626910274848342e-04 -1.533601789560634643e-05 -1.095414263545535505e-04
7.280000000000000000e+02 1.031456947326660156e+01 -1.858564615249633789e+00 7.379180169664323330e-05 -4.883628935203887522e-05 7.486654340027598664e-06 -3.282672259956598282e-04
7.290000000000000000e+02 9.573491096496582031e+00 -1.834638476371765137e+00 -9.104486525757238269e-05 1.047264777298551053e-05 -2.417166433588135988e-05 4.261589492671191692e-04
7.300000000000000000e+02 8.825634002685546875e+00 -1.842467546463012695e+00 2.868477167794480920e-06 3.612451837398111820e-05 1.169789902633056045e-05 -3.303406701888889074e-04
7.310000000000000000e+02 7.321043968200683594e+00 -1.862933874130249023e+00 1.748138492985162884e-05 6.889038922963663936e-05 2.591153315734118223e-05 -3.194135788362473249e-04
7.320000000000000000e+02 5.800520420074462891e+00 -1.880041241645812988e+00 -3.522529732435941696e-05 9.513711120234802365e-05 1.797354343580082059e-05 -3.094628627877682447e-04
7.330000000000000000e+02 3.521573305130004883e+00 -1.979267835617065430e+00 2.044739630946423858e-05 -8.873746082826983184e-06 3.472094931566971354e-06 1.113044490921311080e-04
7.340000000000000000e+02 5.041726589202880859e+00 -1.901702523231506348e+00 -2.959967969218268991e-05 -5.091819548397324979e-05 -2.415536255284678191e-05 2.418175427010282874e-04
7.350000000000000000e+02 4.451294422149658203e+00 -2.793175458908081055e+00 6.374584336299449205e-05 -7.280523277586326003e-06 1.693959711701609194e-05 2.320640342077240348e-04
7.360000000000000000e+02 2.751977682113647461e+00 -2.031057834625244141e+00 -5.848217188031412661e-05 8.340808562934398651e-06 -1.504240935901179910e-05 -1.593626075191423297e-04
7.370000000000000000e+02 1.974551677703857422e+00 -2.073466062545776367e+00 -3.168963667121715844e-05 1.892500949907116592e-05 -3.829387878795387223e-06 9.331305045634508133e-05
7.380000000000000000e+02 4.923439621925354004e-01 -3.598777532577514648e+00 -1.889195664261933416e-05 -1.401061308570206165e-04 -4.769942461280152202e-05 -1.062247465597465634e-04
7.390000000000000000e+02 2.043545246124267578e+00 -4.161804199218750000e+01 -4.805566370487213135e-02 -1.058048248291015625e+00 -3.318311572074890137e-01 1.359893940389156342e-02
7.400000000000000000e+02 6.358243942260742188e+00 -3.789626312255859375e+01 9.260623157024383545e-02 -3.292010426521301270e-01 -7.097844034433364868e-02 -9.769675135612487793e-02
7.410000000000000000e+02 9.810813665390014648e-01 -3.864664459228515625e+01 -3.313546767458319664e-04 -1.120218634605407715e+00 -3.361649811267852783e-01 1.881307177245616913e-02
7.420000000000000000e+02 6.462644934654235840e-01 -3.479676437377929688e+01 1.899528689682483673e-02 -1.121991991996765137e+00 -3.308990001678466797e-01 -2.771943435072898865e-02
7.430000000000000000e+02 8.361440896987915039e-01 -3.341003417968750000e+01 -7.263069273903965950e-04 -1.061252832412719727e+00 -3.185937404632568359e-01 -3.966324776411056519e-02
7.440000000000000000e+02 7.511609792709350586e-01 -2.904504776000976562e+01 3.730626776814460754e-03 -8.035785555839538574e-01 -2.399543821811676025e-01 -6.014919281005859375e-02
7.450000000000000000e+02 7.070792317390441895e-01 -2.761821746826171875e+01 -1.195665299746906385e-05 -6.820389032363891602e-01 -2.046152502298355103e-01 -6.390642374753952026e-02
7.460000000000000000e+02 6.769200563430786133e-01 -2.619231033325195312e+01 2.358139958232641220e-03 -5.478151440620422363e-01 -1.636371016502380371e-01 -6.599137187004089355e-02
7.470000000000000000e+02 5.970744490623474121e-01 -2.192116165161132812e+01 -3.099401481449604034e-03 -1.438536792993545532e-01 -4.408592358231544495e-02 -4.985015094280242920e-02
7.480000000000000000e+02 1.708097219467163086e+00 -2.034631729125976562e+01 -2.686667069792747498e-02 -8.973271399736404419e-02 -3.497981652617454529e-02 -9.743914008140563965e-02
7.490000000000000000e+02 5.556803345680236816e-01 -1.624489402770996094e+01 2.694732742384076118e-03 4.247465357184410095e-02 1.355081517249345779e-02 6.806688848882913589e-03
7.500000000000000000e+02 5.445569157600402832e-01 -1.484592056274414062e+01 -1.657211803831160069e-03 2.720155380666255951e-02 7.663302589207887650e-03 4.726438317447900772e-03
7.510000000000000000e+02 5.549028515815734863e-01 -1.345001220703125000e+01 2.356770681217312813e-03 1.523140817880630493e-02 5.276453681290149689e-03 4.359009675681591034e-03
7.520000000000000000e+02 4.467282295227050781e+00 -1.480174732208251953e+01 4.135640338063240051e-03 -2.384361438453197479e-02 -5.912391934543848038e-03 -3.557607298716902733e-03
7.530000000000000000e+02 5.501218438148498535e-01 -9.262121200561523438e+00 -6.351444171741604805e-04 8.342146174982190132e-04 5.972105282125994563e-05 2.674392890185117722e-04
7.540000000000000000e+02 5.286864638328552246e-01 -7.870734691619873047e+00 6.223010714165866375e-04 2.502846837160177529e-05 1.941988593898713589e-04 2.937357639893889427e-04
7.550000000000000000e+02 5.171872377395629883e-01 -6.478369712829589844e+00 -3.131006669718772173e-04 -1.577586663188412786e-04 -1.412577985320240259e-04 -9.476016566623002291e-05
7.560000000000000000e+02 7.452156829833984375e+01 -3.988331222534179688e+01 -5.109294131398200989e-02 7.846372127532958984e+00 2.338583707809448242e+00 -6.898367404937744141e-02
7.570000000000000000e+02 5.253359985351562500e+01 -4.099998474121093750e+01 -8.712024688720703125e-01 7.810443878173828125e+00 2.081772565841674805e+00 -4.788078740239143372e-02
7.580000000000000000e+02 3.247569656372070312e+01 -4.045586395263671875e+01 -6.345399022102355957e-01 5.047667503356933594e+00 1.323938250541687012e+00 1.226550340652465820e-01
7.590000000000000000e+02 1.283037853240966797e+01 -4.070144271850585938e+01 1.268220990896224976e-01 6.838382482528686523e-01 2.431981116533279419e-01 1.011409889906644821e-02
7.600000000000000000e+02 7.541230773925781250e+01 4.011357879638671875e+01 -1.865882053971290588e-02 8.879137992858886719e+00 2.658143758773803711e+00 7.406553626060485840e-02
7.610000000000000000e+02 7.797878265380859375e+01 4.170401000976562500e+01 3.058976493775844574e-02 9.109626770019531250e+00 2.742064952850341797e+00 -8.546376600861549377e-03
7.620000000000000000e+02 7.867059326171875000e+01 3.860635375976562500e+01 -4.375917371362447739e-03 9.143376350402832031e+00 2.741700172424316406e+00 -1.606165617704391479e-02
7.630000000000000000e+02 7.690448760986328125e+01 3.748672485351562500e+01 -5.677222460508346558e-02 8.979336738586425781e+00 2.676769256591796875e+00 5.877083539962768555e-02
7.640000000000000000e+02 7.953332519531250000e+01 3.473609161376953125e+01 1.263432670384645462e-03 9.172008514404296875e+00 2.751981735229492188e+00 1.013355981558561325e-02
7.650000000000000000e+02 7.792975616455078125e+01 3.303171539306640625e+01 -1.388481538742780685e-02 8.954957962036132812e+00 2.682322025299072266e+00 7.162140309810638428e-02
7.660000000000000000e+02 7.951103210449218750e+01 3.357833862304687500e+01 -7.093396969139575958e-03 9.123164176940917969e+00 2.734821319580078125e+00 2.136649191379547119e-02
7.670000000000000000e+02 7.918078613281250000e+01 3.091818428039550781e+01 -6.114989519119262695e-03 9.012994766235351562e+00 2.702064037322998047e+00 3.760646283626556396e-02
7.680000000000000000e+02 7.623587036132812500e+01 2.814104080200195312e+01 -2.449000068008899689e-02 8.639491081237792969e+00 2.584500312805175781e+00 1.807139962911605835e-01
7.690000000000000000e+02 7.925641632080078125e+01 2.655454254150390625e+01 -8.720572222955524921e-04 8.806122779846191406e+00 2.641575098037719727e+00 4.612039774656295776e-02
7.700000000000000000e+02 7.651128387451171875e+01 2.526667213439941406e+01 -2.296002767980098724e-02 8.529487609863281250e+00 2.551958322525024414e+00 2.032984644174575806e-01
7.710000000000000000e+02 7.929309082031250000e+01 2.515083503723144531e+01 -7.134807528927922249e-04 8.724902153015136719e+00 2.617256641387939453e+00 4.766823723912239075e-02
7.720000000000000000e+02 7.934491729736328125e+01 2.098108482360839844e+01 -2.044440712779760361e-03 8.437271118164062500e+00 2.530568122863769531e+00 5.480185151100158691e-02
7.730000000000000000e+02 7.935042572021484375e+01 1.959233283996582031e+01 -3.527456428855657578e-04 8.329165458679199219e+00 2.498643636703491211e+00 5.723178386688232422e-02
7.740000000000000000e+02 7.934645080566406250e+01 1.820131492614746094e+01 -1.606986508704721928e-03 8.215813636779785156e+00 2.464262008666992188e+00 5.961660295724868774e-02
7.750000000000000000e+02 7.931391143798828125e+01 1.402285671234130859e+01 -1.264333259314298630e-04 7.858218193054199219e+00 2.357427597045898438e+00 6.546927988529205322e-02
7.760000000000000000e+02 7.930957794189453125e+01 1.262383270263671875e+01 -4.524555697571486235e-04 7.736666202545166016e+00 2.320863962173461914e+00 6.621044129133224487e-02
7.770000000000000000e+02 7.930949401855468750e+01 1.122519779205322266e+01 7.068096892908215523e-04 7.614920616149902344e+00 2.284688234329223633e+00 6.591210514307022095e-02
7.780000000000000000e+02 7.931995391845703125e+01 7.031834125518798828e+00 1.304094446823000908e-03 7.260859966278076172e+00 2.178649187088012695e+00 6.012155860662460327e-02
7.790000000000000000e+02 7.932359313964843750e+01 5.634642124176025391e+00 1.784344553016126156e-03 7.150885581970214844e+00 2.145801067352294922e+00 5.697309225797653198e-02
7.800000000000000000e+02 7.932693481445312500e+01 4.239900112152099609e+00 2.098038559779524803e-03 7.047151565551757812e+00 2.114774942398071289e+00 5.300271138548851013e-02
7.810000000000000000e+02 7.933537292480468750e+01 5.948071181774139404e-02 2.811690792441368103e-03 6.787652969360351562e+00 2.037139415740966797e+00 3.775291517376899719e-02
7.820000000000000000e+02 7.933736419677734375e+01 -1.334957003593444824e+00 2.913952106609940529e-03 6.722327232360839844e+00 2.017572402954101562e+00 3.175465762615203857e-02
7.830000000000000000e+02 7.802621459960937500e+01 -4.026752948760986328e+00 1.486259233206510544e-02 6.767851829528808594e+00 2.034814357757568359e+00 5.001684278249740601e-02
7.840000000000000000e+02 7.934033203125000000e+01 -4.123625278472900391e+00 3.223780309781432152e-03 6.628656864166259766e+00 1.989564299583435059e+00 1.880021579563617706e-02
7.850000000000000000e+02 7.933718109130859375e+01 -8.303141593933105469e+00 3.192798467352986336e-03 6.588631629943847656e+00 1.977547287940979004e+00 -1.583841163665056229e-03
7.860000000000000000e+02 7.801493835449218750e+01 -1.098883533477783203e+01 1.349555235356092453e-02 6.759032249450683594e+00 2.031758308410644531e+00 -4.137927293777465820e-02
7.870000000000000000e+02 7.933657836914062500e+01 -1.108990573883056641e+01 2.752232365310192108e-03 6.628425598144531250e+00 1.989353418350219727e+00 -1.417330466210842133e-02
7.880000000000000000e+02 7.934678649902343750e+01 -1.525740242004394531e+01 2.099402714520692825e-03 6.773979663848876953e+00 2.032823562622070312e+00 -2.953240089118480682e-02
7.890000000000000000e+02 7.805658721923828125e+01 -1.788623619079589844e+01 7.085313554853200912e-03 6.996687889099121094e+00 2.101131916046142578e+00 -1.043325141072273254e-01
7.900000000000000000e+02 7.934859466552734375e+01 -1.803613853454589844e+01 1.433825120329856873e-03 6.917478084564208984e+00 2.075673580169677734e+00 -3.710459172725677490e-02
7.910000000000000000e+02 7.932783508300781250e+01 -2.361248588562011719e+01 -4.890228738076984882e-04 7.263190269470214844e+00 2.178810358047485352e+00 -4.399796947836875916e-02
7.920000000000000000e+02 7.798231506347656250e+01 -2.487124824523925781e+01 -2.123214071616530418e-03 7.371539592742919922e+00 2.210824728012084961e+00 -1.223729848861694336e-01
7.930000000000000000e+02 7.932595825195312500e+01 -2.500939369201660156e+01 4.587919393088668585e-04 7.351957321166992188e+00 2.205724716186523438e+00 -4.405815154314041138e-02
7.940000000000000000e+02 7.933956146240234375e+01 -2.918713951110839844e+01 -1.679747714661061764e-03 7.603449821472167969e+00 2.280530929565429688e+00 -3.880458325147628784e-02
7.950000000000000000e+02 7.802004241943359375e+01 -3.175553703308105469e+01 -8.799039758741855621e-03 7.716485023498535156e+00 2.312305927276611328e+00 -9.424407780170440674e-02
7.960000000000000000e+02 7.934542846679687500e+01 -3.195176124572753906e+01 -4.489763639867305756e-03 7.748973846435546875e+00 2.323345184326171875e+00 -3.020690754055976868e-02
7.970000000000000000e+02 7.932402038574218750e+01 -3.604058837890625000e+01 2.750620478764176369e-03 7.894685268402099609e+00 2.369230747222900391e+00 -1.902830787003040314e-02
7.980000000000000000e+02 7.920871734619140625e+01 -3.735418701171875000e+01 -7.346094120293855667e-03 7.921522617340087891e+00 2.374253034591674805e+00 -1.129303500056266785e-02
7.990000000000000000e+02 7.895121002197265625e+01 -3.864207077026367188e+01 5.463317502290010452e-03 7.941611766815185547e+00 2.384122610092163086e+00 -1.439145207405090332e-02
8.000000000000000000e+02 7.855107879638671875e+01 -3.999545288085937500e+01 -2.496875822544097900e-03 7.956843852996826172e+00 2.386304140090942383e+00 -1.340312045067548752e-02
8.010000000000000000e+02 1.280844879150390625e+01 3.785713958740234375e+01 -6.378247868269681931e-03 1.085783362388610840e+00 3.238215148448944092e-01 -3.174742311239242554e-02
8.020000000000000000e+02 4.756629562377929688e+01 4.032981109619140625e+01 -6.998037099838256836e-01 6.650323390960693359e+00 1.785155892372131348e+00 1.681801304221153259e-02
8.030000000000000000e+02 6.703283691406250000e+01 4.067364883422851562e+01 -2.399232834577560425e-01 8.171282768249511719e+00 2.379407882690429688e+00 5.027419701218605042e-02
8.040000000000000000e+02 1.123083949089050293e+00 1.936006546020507812e+00 5.592387969954870641e-05 -9.340449469164013863e-05 -1.124418486142531037e-05 -5.496503581525757909e-05
8.050000000000000000e+02 3.183156251907348633e+00 2.659379959106445312e+00 1.310554071096703410e-04 -2.183949836762621999e-04 -2.620187660795636475e-05 -1.058480847859755158e-04
8.060000000000000000e+02 5.285759449005126953e+00 2.548920392990112305e+00 1.239527482539415359e-04 2.676626900210976601e-04 1.174846329377032816e-04 1.172728661913424730e-04
8.070000000000000000e+02 1.768438696861267090e+00 6.247897624969482422e+00 2.251351834274828434e-04 4.036729806102812290e-04 1.886424579424783587e-04 -3.864403115585446358e-04
8.080000000000000000e+02 5.937862396240234375e-01 9.205064773559570312e+00 -2.293986326549202204e-04 1.685040886513888836e-03 4.366926732473075390e-04 -3.122856724075973034e-04
8.090000000000000000e+02 6.021741628646850586e-01 1.202116107940673828e+01 -3.713521000463515520e-04 5.688898731023073196e-03 1.595263951458036900e-03 -1.119522377848625183e-03
8.100000000000000000e+02 1.817039728164672852e+00 1.184504795074462891e+01 1.304012723267078400e-03 1.551419263705611229e-03 8.566295728087425232e-04 -2.822574228048324585e-03
8.110000000000000000e+02 6.265395879745483398e-01 1.765619659423828125e+01 -3.987491130828857422e-03 -8.264501811936497688e-04 -1.444182358682155609e-03 7.162618916481733322e-03
8.120000000000000000e+02 7.696763038635253906e+00 1.840722656250000000e+01 -2.134765535593032837e-01 9.727432392537593842e-03 -6.112473830580711365e-02 -1.014719810336828232e-02
8.130000000000000000e+02 5.998806357383728027e-01 2.192063903808593750e+01 1.067621487891301513e-04 -1.189701035618782043e-01 -3.565900400280952454e-02 2.675284072756767273e-02
8.140000000000000000e+02 6.472880244255065918e-01 2.334183502197265625e+01 -2.063996158540248871e-03 -1.819383651018142700e-01 -5.520070716738700867e-02 2.921976335346698761e-02
8.150000000000000000e+02 6.581546068191528320e-01 2.478138732910156250e+01 7.561798556707799435e-04 -2.461906820535659790e-01 -7.363034784793853760e-02 3.047911450266838074e-02
8.160000000000000000e+02 6.444018483161926270e-01 2.901142883300781250e+01 -4.092283197678625584e-04 -4.126459062099456787e-01 -1.239165440201759338e-01 1.980179734528064728e-02
8.170000000000000000e+02 6.598618030548095703e-01 3.041361236572265625e+01 5.157615523785352707e-03 -4.494751095771789551e-01 -1.332952380180358887e-01 1.418796088546514511e-02
8.180000000000000000e+02 1.979187726974487305e+00 3.026502037048339844e+01 8.591829799115657806e-03 -3.004765808582305908e-01 -8.756542950868606567e-02 4.362222924828529358e-02
8.190000000000000000e+02 6.888649463653564453e-01 3.181468772888183594e+01 -2.426857594400644302e-03 -4.774828851222991943e-01 -1.439729332923889160e-01 1.208551134914159775e-02
8.200000000000000000e+02 7.476373314857482910e-01 3.600119018554687500e+01 -4.479117225855588913e-03 -5.003942251205444336e-01 -1.514620035886764526e-01 -2.947187982499599457e-03
8.210000000000000000e+02 2.386917352676391602e+00 3.815968322753906250e+01 2.550117671489715576e-02 -3.174704611301422119e-01 -8.759078383445739746e-02 -3.747554123401641846e-02
8.220000000000000000e+02 8.949431180953979492e-01 3.874072647094726562e+01 -6.709398701786994934e-03 -4.440747201442718506e-01 -1.352352350950241089e-01 -1.959361694753170013e-02
8.230000000000000000e+02 1.270900130271911621e+00 4.009062957763671875e+01 2.511076070368289948e-02 -3.974780142307281494e-01 -1.117101758718490601e-01 -4.069722443819046021e-02
8.240000000000000000e+02 1.037067794799804688e+01 1.853539109230041504e+00 1.483218075009062886e-04 7.179708336479961872e-05 6.603566725971177220e-05 2.105512103298678994e-04
8.250000000000000000e+02 8.904931068420410156e+00 1.866950392723083496e+00 1.380365138174965978e-04 1.684341114014387131e-04 9.194118320010602474e-05 2.606358611956238747e-04
8.260000000000000000e+02 8.187960624694824219e+00 1.864336848258972168e+00 8.683560008648782969e-05 -2.323976077605038881e-04 -4.366859866422601044e-05 -1.795076677808538079e-04
8.270000000000000000e+02 7.475286006927490234e+00 1.859763264656066895e+00 1.398606400471180677e-04 2.235689025837928057e-04 1.090288642444647849e-04 2.313749137101694942e-04
8.280000000000000000e+02 5.345680236816406250e+00 1.850126385688781738e+00 1.453554868930950761e-04 -2.971117210108786821e-04 -4.552686732495203614e-05 -1.621020201127976179e-04
8.290000000000000000e+02 4.633141517639160156e+00 1.855840206146240234e+00 9.472442616242915392e-05 2.474826760590076447e-04 1.026621321216225624e-04 3.711798854055814445e-05
8.300000000000000000e+02 3.919684171676635742e+00 1.867287158966064453e+00 1.219246187247335911e-04 -2.533590886741876602e-04 -3.943034244002774358e-05 -1.092067905119620264e-04
8.310000000000000000e+02 3.209779262542724609e+00 1.878950476646423340e+00 6.673839379800483584e-05 2.340005594305694103e-04 9.022168524097651243e-05 -4.211826308164745569e-05
8.320000000000000000e+02 2.509999036788940430e+00 1.881768345832824707e+00 2.954644514829851687e-05 -1.639638212509453297e-04 -4.032521246699616313e-05 -6.762579141650348902e-05
8.330000000000000000e+02 1.817099809646606445e+00 1.883924722671508789e+00 3.284673221060074866e-05 1.764791668392717838e-04 6.279777153395116329e-05 3.142017931168084033e-06
8.340000000000000000e+02 1.263395214080810547e+01 1.762071132659912109e+00 1.182343839900568128e-05 -8.688414527568966150e-05 -2.251821206300519407e-05 2.141803270205855370e-05
8.350000000000000000e+02 1.331523132324218750e+01 1.738539218902587891e+00 1.097050553653389215e-04 9.648843115428462625e-05 6.185804522829130292e-05 1.337008434347808361e-04
8.360000000000000000e+02 1.513074874877929688e+01 1.858779191970825195e+00 -5.187867827771697193e-06 -2.558323321864008904e-04 -7.830606045899912715e-05 -2.361902152188122272e-04
8.370000000000000000e+02 1.325460910797119141e+01 2.471884965896606445e+00 1.433407160220667720e-04 -1.607419399078935385e-04 -5.220367256697500125e-06 -4.245021045790053904e-05
8.380000000000000000e+02 1.475676155090332031e+01 3.607875347137451172e+00 8.382173109566792846e-05 -8.531173807568848133e-05 -4.470026340186450398e-07 1.110723242163658142e-04
8.390000000000000000e+02 1.404920101165771484e+01 7.558003902435302734e+00 -6.716342759318649769e-04 -2.332164513063617051e-05 -2.084867737721651793e-04 -2.865467977244406939e-04
8.400000000000000000e+02 1.350956249237060547e+01 8.821690559387207031e+00 8.881608373485505581e-04 5.066043813712894917e-04 4.184295830782502890e-04 4.196911759208887815e-04
8.410000000000000000e+02 1.287634944915771484e+01 1.005277824401855469e+01 -1.138940453529357910e-03 -2.054562064586207271e-04 -4.033190198242664337e-04 -8.375642937608063221e-04
8.420000000000000000e+02 1.026832199096679688e+01 1.170839500427246094e+01 -7.114055915735661983e-05 4.901271313428878784e-03 1.449039322324097157e-03 1.281758770346641541e-03
8.430000000000000000e+02 9.380023002624511719e+00 1.275691509246826172e+01 -8.238721784437075257e-05 -2.462476724758744240e-03 -7.634591311216354370e-04 -1.165395253337919712e-03
8.440000000000000000e+02 8.449831008911132812e+00 1.557825851440429688e+01 9.405158460140228271e-03 2.728458307683467865e-02 1.100692246109247208e-02 2.958352677524089813e-03
8.450000000000000000e+02 1.624064254760742188e+01 1.687226867675781250e+01 8.347654715180397034e-03 8.665447831153869629e-01 2.624677419662475586e-01 -3.220326900482177734e-01
8.460000000000000000e+02 1.658211517333984375e+01 1.311646366119384766e+01 1.590532958507537842e-01 7.085154652595520020e-01 2.602706253528594971e-01 -3.359487354755401611e-01
8.470000000000000000e+02 1.763665580749511719e+01 1.045509529113769531e+01 1.458656638860702515e-01 6.661897301673889160e-01 2.436166256666183472e-01 -3.025272786617279053e-01
8.480000000000000000e+02 1.832616424560546875e+01 7.743774890899658203e+00 5.459184944629669189e-02 2.094309180974960327e-01 7.920683175325393677e-02 -1.564839184284210205e-01
8.490000000000000000e+02 1.880150032043457031e+01 4.997432708740234375e+00 2.310739643871784210e-02 -3.727613985538482666e-01 -1.048961952328681946e-01 -8.011009544134140015e-02
8.500000000000000000e+02 1.924161529541015625e+01 -3.778030395507812500e+00 -8.449231274425983429e-03 -2.044490575790405273e-01 -6.386948376893997192e-02 1.410383731126785278e-01
8.510000000000000000e+02 2.011623573303222656e+01 -4.018547058105468750e+00 -5.286907404661178589e-02 -1.429003775119781494e-01 -5.873083695769309998e-02 2.151763439178466797e-01
8.520000000000000000e+02 2.092127799987792969e+01 -4.193130016326904297e+00 -8.716809749603271484e-02 -1.165406256914138794e-01 -6.111261993646621704e-02 2.651798725128173828e-01
8.530000000000000000e+02 2.306164932250976562e+01 -4.582884788513183594e+00 -2.347605079412460327e-01 -2.705117873847484589e-02 -7.854350656270980835e-02 2.810039818286895752e-01
8.540000000000000000e+02 2.448446655273437500e+01 -4.756074428558349609e+00 -3.043813705444335938e-01 1.451625116169452667e-02 -8.695953339338302612e-02 2.434826344251632690e-01
8.550000000000000000e+02 2.519846343994140625e+01 -4.824475288391113281e+00 -3.218829929828643799e-01 3.030316159129142761e-02 -8.747395128011703491e-02 2.152173519134521484e-01
8.560000000000000000e+02 2.591095161437988281e+01 -4.888391494750976562e+00 -3.233008682727813721e-01 4.693708941340446472e-02 -8.290912955999374390e-02 1.774202585220336914e-01
8.570000000000000000e+02 2.806813240051269531e+01 -5.001448631286621094e+00 -1.398037075996398926e-01 9.848928451538085938e-02 -1.239432580769062042e-02 7.944554090499877930e-03
8.580000000000000000e+02 2.878966331481933594e+01 -5.031716346740722656e+00 2.135293185710906982e-02 1.112664788961410522e-01 3.978582471609115601e-02 -9.414982795715332031e-02
8.590000000000000000e+02 3.094831466674804688e+01 -5.057348728179931641e+00 1.067992091178894043e+00 3.628630340099334717e-01 4.292565286159515381e-01 -7.528446912765502930e-01
8.600000000000000000e+02 3.164865875244140625e+01 -5.036547183990478516e+00 1.770128846168518066e+00 7.018697261810302734e-01 7.415996193885803223e-01 -1.299720048904418945e+00
8.610000000000000000e+02 3.237529373168945312e+01 -5.085149288177490234e+00 2.791483640670776367e+00 1.239133834838867188e+00 1.209185242652893066e+00 -2.052781105041503906e+00
8.620000000000000000e+02 3.279647445678710938e+01 -5.117691516876220703e+00 3.544788599014282227e+00 1.699344038963317871e+00 1.573239803314208984e+00 -2.739501237869262695e+00
8.630000000000000000e+02 3.299256515502929688e+01 -5.129245281219482422e+00 3.696994066238403320e+00 1.967237710952758789e+00 1.699269533157348633e+00 -3.061940431594848633e+00
8.640000000000000000e+02 3.356512451171875000e+01 -5.063616275787353516e+00 4.413648128509521484e+00 4.119177341461181641e+00 2.559847593307495117e+00 -4.673883438110351562e+00
8.650000000000000000e+02 3.674358749389648438e+01 -6.997298717498779297e+00 1.179467964172363281e+01 1.661060714721679688e+01 8.521586418151855469e+00 -1.477788090705871582e+00
8.660000000000000000e+02 3.684795379638671875e+01 -7.502713680267333984e+00 9.084991455078125000e+00 1.682900810241699219e+01 7.774199962615966797e+00 -2.476539611816406250e+00
8.670000000000000000e+02 3.593232345581054688e+01 -8.234259605407714844e+00 3.221886634826660156e+00 2.026338005065917969e+01 7.045580387115478516e+00 3.149935603141784668e-02
8.680000000000000000e+02 3.485151290893554688e+01 -8.413700103759765625e+00 2.681623697280883789e+00 1.442410850524902344e+01 5.131719589233398438e+00 6.342102527618408203e+00
8.690000000000000000e+02 3.404147338867187500e+01 -8.401301383972167969e+00 3.856656551361083984e+00 6.728163719177246094e+00 3.175446033477783203e+00 5.869635581970214844e+00
8.700000000000000000e+02 3.239425659179687500e+01 -8.479557991027832031e+00 1.817753672599792480e+00 1.250178217887878418e+00 9.203795790672302246e-01 2.040148019790649414e+00
8.710000000000000000e+02 3.289253234863281250e+01 -8.795986175537109375e+00 2.848615169525146484e+00 2.629321336746215820e+00 1.643380999565124512e+00 3.433690547943115234e+00
8.720000000000000000e+02 3.214478302001953125e+01 -8.511998176574707031e+00 1.629483461380004883e+00 9.939643144607543945e-01 7.870343327522277832e-01 1.828253626823425293e+00
8.730000000000000000e+02 2.931333732604980469e+01 -8.599225044250488281e+00 -4.523342251777648926e-01 1.631810963153839111e-01 -8.674593269824981689e-02 3.059140145778656006e-01
8.740000000000000000e+02 2.993588066101074219e+01 -8.583569526672363281e+00 -2.221892476081848145e-01 1.769103407859802246e-01 -1.358366850763559341e-02 4.487214684486389160e-01
8.750000000000000000e+02 3.054913520812988281e+01 -8.563076972961425781e+00 1.266197413206100464e-01 3.354985415935516357e-01 1.386354863643646240e-01 6.957975625991821289e-01
8.760000000000000000e+02 2.711104202270507812e+01 -8.587692260742187500e+00 -9.537734389305114746e-01 4.169011116027832031e-02 -2.736249864101409912e-01 -6.018037721514701843e-02
8.770000000000000000e+02 2.634244728088378906e+01 -8.579520225524902344e+00 -1.006054162979125977e+00 3.930255025625228882e-02 -2.900255024433135986e-01 -1.288990378379821777e-01
8.780000000000000000e+02 2.322444343566894531e+01 -8.392915725708007812e+00 -9.108961224555969238e-01 7.442677766084671021e-02 -2.509407997131347656e-01 -3.044919371604919434e-01
8.790000000000000000e+02 2.083629226684570312e+01 -8.150403022766113281e+00 -6.471542716026306152e-01 8.430527150630950928e-02 -1.688546985387802124e-01 -3.577273488044738770e-01
8.800000000000000000e+02 2.001695060729980469e+01 -8.001777648925781250e+00 -5.373828411102294922e-01 5.749288573861122131e-02 -1.439669877290725708e-01 -3.429907262325286865e-01
8.810000000000000000e+02 1.821412277221679688e+01 -7.309659004211425781e+00 -1.820523291826248169e-01 -1.543773412704467773e-01 -1.009289026260375977e-01 -1.766373515129089355e-01
8.820000000000000000e+02 1.787203598022460938e+01 -7.287841796875000000e+00 -1.586231738328933716e-01 -1.283441334962844849e-01 -8.609019219875335693e-02 -1.635869443416595459e-01
8.830000000000000000e+02 3.570406341552734375e+01 -8.296952247619628906e+00 2.316327571868896484e+00 2.010911178588867188e+01 6.727631568908691406e+00 1.647188544273376465e+00
8.840000000000000000e+02 3.701655578613281250e+01 -7.084911346435546875e+00 1.080058574676513672e+01 1.566096019744873047e+01 7.938463687896728516e+00 -1.496640563011169434e+00
8.850000000000000000e+02 3.713801956176757812e+01 -6.863991260528564453e+00 1.078853225708007812e+01 1.502436256408691406e+01 7.743868350982666016e+00 -6.926029920578002930e-01
8.860000000000000000e+02 3.636212921142578125e+01 -5.540787696838378906e+00 6.795887947082519531e+00 1.922176742553710938e+01 7.805296421051025391e+00 2.054918289184570312e+00
8.870000000000000000e+02 3.618061065673828125e+01 -5.402256965637207031e+00 5.487684726715087891e+00 2.008433151245117188e+01 7.671605110168457031e+00 1.335770487785339355e+00
8.880000000000000000e+02 3.650360870361328125e+01 -5.720084667205810547e+00 8.159812927246093750e+00 1.867513465881347656e+01 8.050483703613281250e+00 2.432599782943725586e+00
8.890000000000000000e+02 3.682757568359375000e+01 -6.545791625976562500e+00 1.186359786987304688e+01 1.608583259582519531e+01 8.384829521179199219e+00 4.451119899749755859e-01
8.900000000000000000e+02 3.660015869140625000e+01 -7.393343448638916016e+00 1.006833648681640625e+01 1.796057319641113281e+01 8.408673286437988281e+00 -2.759949684143066406e+00
8.910000000000000000e+02 3.647746276855468750e+01 -8.381182670593261719e+00 3.999061822891235352e+00 1.817086982727050781e+01 6.650979518890380859e+00 -1.310692429542541504e+00
8.920000000000000000e+02 3.676422500610351562e+01 -7.710075378417968750e+00 7.896229743957519531e+00 1.748416328430175781e+01 7.614117622375488281e+00 -2.620104551315307617e+00
8.930000000000000000e+02 3.478877639770507812e+01 -5.065551757812500000e+00 3.558143615722656250e+00 1.441809368133544922e+01 5.392871379852294922e+00 -6.743474006652832031e+00
8.940000000000000000e+02 3.464174652099609375e+01 -8.403055191040039062e+00 3.043403863906860352e+00 1.235225963592529297e+01 4.618699073791503906e+00 6.602123260498046875e+00
8.950000000000000000e+02 3.317478179931640625e+01 -5.143055438995361328e+00 4.067005157470703125e+00 2.387583732604980469e+00 1.936376690864562988e+00 -3.554061651229858398e+00
8.960000000000000000e+02 3.212994003295898438e+01 -5.064535617828369141e+00 2.360071659088134766e+00 9.354020357131958008e-01 9.886420965194702148e-01 -1.749126434326171875e+00
8.970000000000000000e+02 3.378019714355468750e+01 -5.043358802795410156e+00 4.604886054992675781e+00 5.144640445709228516e+00 2.924857854843139648e+00 -5.265589714050292969e+00
8.980000000000000000e+02 3.399096298217773438e+01 -5.070008754730224609e+00 4.844172477722167969e+00 6.354886531829833984e+00 3.359717845916748047e+00 -5.936559677124023438e+00
8.990000000000000000e+02 3.458627700805664062e+01 -5.084194183349609375e+00 4.179696083068847656e+00 1.190974235534667969e+01 4.826831340789794922e+00 -7.095864772796630859e+00
9.000000000000000000e+02 3.270620727539062500e+01 -4.857283592224121094e+00 3.266887664794921875e+00 1.977015852928161621e+00 1.573171019554138184e+00 -2.891893863677978516e+00
9.010000000000000000e+02 3.438817214965820312e+01 -4.866261959075927734e+00 4.056564331054687500e+00 1.011882781982421875e+01 4.252617835998535156e+00 -6.558371067047119141e+00
9.020000000000000000e+02 3.499361801147460938e+01 -5.051804065704345703e+00 3.075812816619873047e+00 1.624042701721191406e+01 5.794871807098388672e+00 -5.903292179107666016e+00
9.030000000000000000e+02 3.419106292724609375e+01 -5.093626022338867188e+00 4.760746479034423828e+00 8.168926239013671875e+00 3.878901958465576172e+00 -6.554757595062255859e+00
9.040000000000000000e+02 3.510138320922851562e+01 -8.723672866821289062e+00 1.739403843879699707e+00 1.543019962310791016e+01 5.150880813598632812e+00 4.868891239166259766e+00
9.050000000000000000e+02 3.173182487487792969e+01 -8.525232315063476562e+00 1.194657087326049805e+00 7.875547409057617188e-01 5.946635603904724121e-01 1.428681612014770508e+00
9.060000000000000000e+02 3.239762878417968750e+01 -8.865384101867675781e+00 2.353367805480957031e+00 1.854614019393920898e+00 1.262394547462463379e+00 2.675142526626586914e+00
9.070000000000000000e+02 3.372793960571289062e+01 -8.667793273925781250e+00 3.455734014511108398e+00 5.544766902923583984e+00 2.700150251388549805e+00 5.165740013122558594e+00
9.080000000000000000e+02 3.364268875122070312e+01 -8.411393165588378906e+00 3.782678127288818359e+00 4.310564517974853516e+00 2.427972793579101562e+00 4.814296722412109375e+00
9.090000000000000000e+02 3.260850906372070312e+01 -8.490574836730957031e+00 2.310756683349609375e+00 1.678981065750122070e+00 1.196921348571777344e+00 2.531508684158325195e+00
9.100000000000000000e+02 3.444089126586914062e+01 -8.400871276855468750e+00 3.459804773330688477e+00 1.010678482055664062e+01 4.069976806640625000e+00 6.618819713592529297e+00
9.110000000000000000e+02 3.384207534790039062e+01 -8.404721260070800781e+00 3.864007711410522461e+00 5.639519214630126953e+00 2.851058006286621094e+00 5.450175285339355469e+00
9.120000000000000000e+02 3.489642715454101562e+01 -8.758622169494628906e+00 1.944806337356567383e+00 1.384311771392822266e+01 4.736377239227294922e+00 5.488161563873291016e+00
9.130000000000000000e+02 1.452269935607910156e+01 1.738657593727111816e+00 -1.367897057207301259e-04 6.702561950078234076e-05 -2.092922477459069341e-05 1.275893009733408689e-04
9.140000000000000000e+02 1.463258075714111328e+01 2.562270402908325195e+00 2.302213106304407120e-04 3.225297550670802593e-04 1.658253167988732457e-04 -3.525600914144888520e-05
9.150000000000000000e+02 1.188617420196533203e+01 1.795647621154785156e+00 1.210701375384815037e-04 3.042786011064890772e-05 4.544940020423382521e-05 6.749759631929919124e-05
9.160000000000000000e+02 2.862605476379394531e+01 -8.600605964660644531e+00 -6.528881192207336426e-01 9.136702120304107666e-02 -1.684563308954238892e-01 1.570093482732772827e-01
9.170000000000000000e+02 3.027449607849121094e+01 -9.678713798522949219e+00 1.023660540580749512e+00 8.310519456863403320e-01 5.564137101173400879e-01 1.260659098625183105e+00
9.180000000000000000e+02 3.099921417236328125e+01 -9.071829795837402344e+00 1.066036820411682129e+00 7.992035150527954102e-01 5.595721006393432617e-01 1.358190298080444336e+00
9.190000000000000000e+02 3.040266227722167969e+01 -9.111282348632812500e+00 6.496960520744323730e-01 5.361586809158325195e-01 3.557564020156860352e-01 9.708343744277954102e-01
9.200000000000000000e+02 1.446693420410156250e+01 -3.374698877334594727e+00 8.173723472282290459e-05 4.619334940798580647e-04 1.631012273719534278e-04 -1.363368792226538062e-04
9.210000000000000000e+02 1.384824848175048828e+01 -2.965837478637695312e+00 -4.635726872947998345e-05 -2.237548033008351922e-04 -8.103362051770091057e-05 -9.135676918958779424e-06
9.220000000000000000e+02 1.877859687805175781e+01 -8.327492713928222656e+00 -4.172868132591247559e-01 -4.880701005458831787e-02 -1.398281455039978027e-01 -3.628131151199340820e-01
9.230000000000000000e+02 1.866448593139648438e+01 -9.503508567810058594e+00 -4.636261165142059326e-01 -1.449198275804519653e-01 -1.825637817382812500e-01 -4.827742874622344971e-01
9.240000000000000000e+02 3.189274072647094727e+00 3.481194496154785156e+00 7.969309081090614200e-06 2.979061973746865988e-04 9.176265302812680602e-05 -7.365870987996459007e-05
9.250000000000000000e+02 9.522764205932617188e+00 2.612865924835205078e+00 1.562251709401607513e-04 2.207742945756763220e-04 1.130998352891765535e-04 3.540305478964000940e-04
9.260000000000000000e+02 7.365148067474365234e+00 2.588062524795532227e+00 1.496166223660111427e-04 -3.881528100464493036e-04 -7.156085484893992543e-05 -2.136881375918164849e-04
9.270000000000000000e+02 6.765117645263671875e+00 1.854407668113708496e+00 1.310508814640343189e-04 -2.940401027444750071e-04 -4.889676711172796786e-05 -1.825122599257156253e-04
9.280000000000000000e+02 6.668730735778808594e+00 2.570391893386840820e+00 1.431418641004711390e-04 2.973129448946565390e-04 1.321364397881552577e-04 2.337140758754685521e-04
9.290000000000000000e+02 7.931577682495117188e+00 3.365320444107055664e+00 1.682957081357017159e-04 -4.912359872832894325e-04 -9.688208956504240632e-05 -2.106176689267158508e-04
9.300000000000000000e+02 5.745412826538085938e+00 3.961168050765991211e+00 3.441279113758355379e-04 -6.260299123823642731e-04 -8.457060175715014338e-05 -1.837851741584017873e-04
9.310000000000000000e+02 1.872400999069213867e+00 7.667798042297363281e+00 6.310774188023060560e-05 2.952035574708133936e-04 1.074933898053131998e-04 -4.469888808671385050e-04
9.320000000000000000e+02 3.987932503223419189e-01 3.784035205841064453e+00 -2.193252003053203225e-04 3.950226528104394674e-06 -6.461248995037749410e-05 -7.685557648073881865e-05
9.330000000000000000e+02 1.864996194839477539e+00 2.625548362731933594e+00 -2.551020224927924573e-05 -7.969056605361402035e-05 -3.156023012707009912e-05 -1.231017231475561857e-04
9.340000000000000000e+02 6.967570781707763672e-01 3.028517007827758789e+00 1.631902705412358046e-04 7.013157755864085630e-06 5.106102616991847754e-05 7.491096039302647114e-05
9.350000000000000000e+02 1.112873649597167969e+01 1.826742053031921387e+00 -5.916403097216971219e-05 -2.363440580666065216e-05 -2.483953176124487072e-05 -7.497543265344575047e-05
9.360000000000000000e+02 8.653807640075683594e+00 3.377576112747192383e+00 1.319800358032807708e-04 3.788085596170276403e-04 1.532365859020501375e-04 4.147555737290531397e-04
9.370000000000000000e+02 2.662582969665527344e+01 -4.936675071716308594e+00 -3.014295697212219238e-01 5.849033594131469727e-02 -7.288176566362380981e-02 1.363872438669204712e-01
9.380000000000000000e+02 2.572125625610351562e+01 -2.870602369308471680e+00 5.013712048530578613e-01 2.688587009906768799e-01 2.310689687728881836e-01 -8.135662227869033813e-02
9.390000000000000000e+02 2.327819061279296875e+01 -3.866641283035278320e+00 -4.476642236113548279e-02 -2.195558743551373482e-03 -1.408859435468912125e-02 2.734559774398803711e-01
9.400000000000000000e+02 2.606270408630371094e+01 -4.243993282318115234e+00 2.679222822189331055e-02 1.023370102047920227e-01 3.873877227306365967e-02 1.056773141026496887e-01
9.410000000000000000e+02 2.397181701660156250e+01 -3.985573530197143555e+00 -5.068312957882881165e-02 3.037485666573047638e-02 -6.092482246458530426e-03 2.443196475505828857e-01
9.420000000000000000e+02 2.418284034729003906e+01 -3.310682296752929688e+00 1.547657847404479980e-01 9.157784283161163330e-02 7.390309125185012817e-02 1.792584657669067383e-01
9.430000000000000000e+02 2.235360336303710938e+01 -4.458796501159667969e+00 -1.822775155305862427e-01 -5.349901691079139709e-02 -7.073295861482620239e-02 2.881579697132110596e-01
9.440000000000000000e+02 1.910603332519531250e+01 -2.616245746612548828e+00 -9.296395815908908844e-03 -3.749479651451110840e-01 -1.152733042836189270e-01 1.106647178530693054e-01
9.450000000000000000e+02 2.258440399169921875e+01 -3.727080583572387695e+00 -3.722337260842323303e-02 -3.545170649886131287e-02 -2.180252410471439362e-02 2.881663441658020020e-01
9.460000000000000000e+02 2.951193428039550781e+01 -5.051621437072753906e+00 2.892172038555145264e-01 1.754304617643356323e-01 1.393942981958389282e-01 -2.651891708374023438e-01
9.470000000000000000e+02 2.675590515136718750e+01 -4.311475753784179688e+00 9.688387811183929443e-02 1.254884600639343262e-01 6.671170145273208618e-02 3.656665235757827759e-02
9.480000000000000000e+02 2.815124893188476562e+01 -4.436176776885986328e+00 3.325698077678680420e-01 1.911625713109970093e-01 1.571197062730789185e-01 -1.514254659414291382e-01
9.490000000000000000e+02 2.745232582092285156e+01 -4.374687194824218750e+00 1.928694546222686768e-01 1.566155850887298584e-01 1.048455089330673218e-01 -4.470708593726158142e-02
9.500000000000000000e+02 3.021508026123046875e+01 -4.051507949829101562e+00 1.540084958076477051e+00 7.061171531677246094e-01 6.738606691360473633e-01 -1.085414171218872070e+00
9.510000000000000000e+02 2.954069328308105469e+01 -4.537591457366943359e+00 7.677952647209167480e-01 3.370020687580108643e-01 3.314391970634460449e-01 -5.000347495079040527e-01
9.520000000000000000e+02 2.891768455505371094e+01 -3.950021505355834961e+00 9.305618405342102051e-01 4.375316798686981201e-01 4.104280471801757812e-01 -5.467479825019836426e-01
9.530000000000000000e+02 1.346636867523193359e+01 -4.839385032653808594e+00 -3.557194722816348076e-04 -7.411631668219342828e-05 -1.289507345063611865e-04 1.663153088884428144e-04
9.540000000000000000e+02 1.287918663024902344e+01 -5.961369037628173828e+00 5.472496268339455128e-04 8.599967259215191007e-05 1.899747876450419426e-04 -2.810980367939919233e-04
9.550000000000000000e+02 1.333036804199218750e+01 -2.564460754394531250e+00 1.141503234975971282e-04 2.873467747122049332e-04 1.204491272801533341e-04 -5.875684655620716512e-05
9.560000000000000000e+02 8.141703605651855469e+00 -2.588260889053344727e+00 7.011348498053848743e-05 5.621535456157289445e-05 3.789865149883553386e-05 -3.795990196522325277e-04
9.570000000000000000e+02 8.787927627563476562e+00 2.610317707061767578e+00 7.281282887561246753e-05 -2.964625309687107801e-04 -6.709490844514220953e-05 -2.172081149183213711e-04
9.580000000000000000e+02 1.359930896759033203e+01 3.918410778045654297e+00 -2.783806703519076109e-04 2.852243196684867144e-04 2.053098342003067955e-06 -2.377656783210113645e-04
9.590000000000000000e+02 1.257222652435302734e+01 2.533036231994628906e+00 1.306260528508573771e-04 -3.867806663038209081e-05 2.758439586614258587e-05 1.661674286879133433e-05
9.600000000000000000e+02 1.104708862304687500e+01 2.591970682144165039e+00 2.127200568793341517e-04 6.826259050285443664e-05 8.429479930782690644e-05 2.732861030381172895e-04
9.610000000000000000e+02 8.075840950012207031e+00 -1.855185627937316895e+00 -1.106283380067907274e-04 -2.595346813905052841e-05 -4.097454075235873461e-05 3.790003247559070587e-04
9.620000000000000000e+02 1.254227447509765625e+01 -3.697788238525390625e+00 -3.463258908595889807e-04 2.245785726699978113e-04 -3.652419036370702088e-05 2.950129564851522446e-04
9.630000000000000000e+02 7.402769565582275391e+00 -2.601450443267822266e+00 -1.144815178122371435e-04 -1.591281034052371979e-05 -3.911829844582825899e-05 4.474847519304603338e-04
9.640000000000000000e+02 1.176739311218261719e+01 -5.622952461242675781e+00 -4.066514666192233562e-04 -5.021215765736997128e-04 -2.726319071371108294e-04 4.663895524572581053e-04
9.650000000000000000e+02 7.244974136352539062e+00 -4.915661334991455078e+00 -2.012520126299932599e-04 1.116975327022373676e-03 2.747169928625226021e-04 -1.525309344287961721e-04
9.660000000000000000e+02 6.561595439910888672e+00 -1.868619203567504883e+00 -1.043528536683879793e-04 -4.605696085491217673e-05 -4.512294617597945035e-05 3.302051627542823553e-04
9.670000000000000000e+02 6.656863689422607422e+00 -2.605927944183349609e+00 4.728599742520600557e-05 8.630967931821942329e-05 4.007870302302762866e-05 -4.241350106894969940e-04
9.680000000000000000e+02 5.181022167205810547e+00 -2.700879096984863281e+00 -5.261393380351364613e-05 8.631627861177548766e-05 1.011070435197325423e-05 -3.689549921546131372e-04
9.690000000000000000e+02 1.593961596488952637e+00 -7.876552581787109375e+00 4.067874760949052870e-05 1.924918906297534704e-04 6.995118746999651194e-05 -3.109460158157162368e-05
9.700000000000000000e+02 3.951902389526367188e+00 -3.782181739807128906e+00 1.306736376136541367e-04 6.760828546248376369e-05 5.948457692284137011e-05 1.926576660480350256e-04
9.710000000000000000e+02 1.550466179847717285e+00 -6.557085990905761719e+00 2.643649058882147074e-04 -7.747437393845757470e-07 7.907705003162845969e-05 3.988684038631618023e-04
9.720000000000000000e+02 1.191729784011840820e+00 -2.131712913513183594e+00 -6.435973045881837606e-05 -2.098226104862987995e-05 -2.560259781603235751e-05 -1.993906043935567141e-04
9.730000000000000000e+02 5.416772961616516113e-01 -5.048721790313720703e+00 1.623550051590427756e-04 -2.251666592201218009e-04 -1.884349512693006545e-05 8.111139322863891721e-05
9.740000000000000000e+02 2.556657409667968750e+01 -8.552693367004394531e+00 -1.021219372749328613e+00 4.142045974731445312e-02 -2.939396798610687256e-01 -1.835942417383193970e-01
9.750000000000000000e+02 2.695415115356445312e+01 -9.243569374084472656e+00 -4.765397608280181885e-01 1.204439401626586914e-01 -1.068287417292594910e-01 3.514523385092616081e-03
9.760000000000000000e+02 2.913328742980957031e+01 -9.191744804382324219e+00 6.469199061393737793e-02 2.813454270362854004e-01 1.038112267851829529e-01 4.715170264244079590e-01
9.770000000000000000e+02 2.618181991577148438e+01 -9.254809379577636719e+00 -5.675315856933593750e-01 1.045084372162818909e-01 -1.389069408178329468e-01 -9.684836864471435547e-02
9.780000000000000000e+02 2.166743087768554688e+01 -8.216776847839355469e+00 -7.536099553108215332e-01 9.071080386638641357e-02 -1.988697350025177002e-01 -3.540523946285247803e-01
9.790000000000000000e+02 2.301432800292968750e+01 -9.141267776489257812e+00 -6.813139319419860840e-01 1.182523667812347412e-01 -1.689184755086898804e-01 -3.689711689949035645e-01
9.800000000000000000e+02 2.052907180786132812e+01 -9.696959495544433594e+00 -5.293414592742919922e-01 9.082456678152084351e-02 -1.315550655126571655e-01 -4.762568175792694092e-01
9.810000000000000000e+02 2.066782951354980469e+01 -8.987538337707519531e+00 -5.781406164169311523e-01 7.917883992195129395e-02 -1.496885269880294800e-01 -4.391283988952636719e-01
9.820000000000000000e+02 2.478669357299804688e+01 -8.505867958068847656e+00 -1.013100266456604004e+00 5.039605870842933655e-02 -2.888112366199493408e-01 -2.302180677652359009e-01
9.830000000000000000e+02 2.460337066650390625e+01 -9.232995986938476562e+00 -6.623618602752685547e-01 1.007633358240127563e-01 -1.684795618057250977e-01 -2.596988677978515625e-01
9.840000000000000000e+02 2.381023406982421875e+01 -9.194394111633300781e+00 -6.779701113700866699e-01 1.109738871455192566e-01 -1.700988560914993286e-01 -3.187013566493988037e-01
9.850000000000000000e+02 2.188191032409667969e+01 -3.571866750717163086e+00 -1.898435689508914948e-02 -7.903077453374862671e-02 -2.940453775227069855e-02 2.937362492084503174e-01
9.860000000000000000e+02 2.116015434265136719e+01 -3.403844356536865234e+00 -1.213022787123918533e-02 -1.251480281352996826e-01 -4.118347913026809692e-02 2.810738682746887207e-01
9.870000000000000000e+02 1.233491039276123047e+01 -1.965799140930175781e+01 -3.606637120246887207e-01 -5.043291449546813965e-01 -2.594978511333465576e-01 -2.716977298259735107e-01
9.880000000000000000e+02 3.605002641677856445e+00 -1.963316345214843750e+01 -1.061332821846008301e-01 -9.411048144102096558e-02 -6.007312983274459839e-02 -1.502592265605926514e-01
9.890000000000000000e+02 1.249850273132324219e+01 1.977701759338378906e+01 -1.416344493627548218e-01 2.751945853233337402e-01 4.006804153323173523e-02 -1.709362417459487915e-01
9.900000000000000000e+02 8.745558738708496094e+00 2.021577835083007812e+01 -1.740452796220779419e-01 -1.368863787502050400e-02 -5.632017552852630615e-02 1.256060898303985596e-01
9.910000000000000000e+02 1.940682792663574219e+01 8.113575935363769531e+00 1.575068235397338867e-01 5.110439658164978027e-01 2.005652338266372681e-01 -4.210288226604461670e-01
9.920000000000000000e+02 1.909214210510253906e+01 9.505569458007812500e+00 1.945255845785140991e-01 6.796304583549499512e-01 2.622468173503875732e-01 -4.428060650825500488e-01
9.930000000000000000e+02 1.376873779296875000e+01 1.883503150939941406e+01 -1.366035044193267822e-01 4.500450193881988525e-01 9.403245151042938232e-02 -2.065616548061370850e-01
9.940000000000000000e+02 1.405507183074951172e+01 1.662898063659667969e+01 5.505679640918970108e-03 2.859096527099609375e-01 8.742459863424301147e-02 -1.424982845783233643e-01
9.950000000000000000e+02 1.714375495910644531e+01 1.178800678253173828e+01 1.605664044618606567e-01 7.153219580650329590e-01 2.627665102481842041e-01 -3.372359573841094971e-01
9.960000000000000000e+02 1.721992301940917969e+01 1.546853065490722656e+01 1.023490279912948608e-01 9.459708929061889648e-01 3.144959807395935059e-01 -3.744753003120422363e-01
9.970000000000000000e+02 2.021005821228027344e+01 2.384308099746704102e+00 8.948309719562530518e-02 -1.588504165410995483e-01 -2.081019617617130280e-02 -1.432433426380157471e-01
9.980000000000000000e+02 6.260355710983276367e-01 1.622988510131835938e+01 -5.450511234812438488e-04 9.948232211172580719e-03 2.820954192429780960e-03 1.435042358934879303e-03
9.990000000000000000e+02 1.969289207458496094e+01 6.725503444671630859e+00 1.161127090454101562e-01 3.211629688739776611e-01 1.311827003955841064e-01 -3.853975832462310791e-01
1.000000000000000000e+03 1.830360221862792969e+01 1.235456943511962891e+01 1.928796321153640747e-01 9.100376963615417480e-01 3.308751881122589111e-01 -4.393122792243957520e-01
1.001000000000000000e+03 1.499802207946777344e+01 1.790243911743164062e+01 -6.101991981267929077e-02 6.575534343719482422e-01 1.789600700139999390e-01 -2.608630955219268799e-01
1.002000000000000000e+03 1.890428352355957031e+01 8.470721244812011719e-01 1.652899757027626038e-02 -7.496127486228942871e-01 -2.199251204729080200e-01 -1.242286089109256864e-04
1.003000000000000000e+03 1.997087669372558594e+01 9.850615262985229492e-01 7.263554632663726807e-02 -3.593202829360961914e-01 -8.600541949272155762e-02 -3.636210749391466379e-04
1.004000000000000000e+03 1.782201194763183594e+01 1.384858322143554688e+01 1.805603951215744019e-01 9.548988342285156250e-01 3.406377732753753662e-01 -4.266074895858764648e-01
1.005000000000000000e+03 2.274019813537597656e+01 -1.351131677627563477e+00 2.927016913890838623e-01 1.253293752670288086e-01 1.254093199968338013e-01 8.196361362934112549e-02
1.006000000000000000e+03 1.887144660949707031e+01 -1.738681197166442871e+00 9.689840488135814667e-03 -5.235033631324768066e-01 -1.541440486907958984e-01 6.656743586063385010e-02
1.007000000000000000e+03 3.725579500198364258e+00 -1.597367095947265625e+01 -1.825150288641452789e-02 -3.796818107366561890e-02 -1.686590537428855896e-02 7.989787845872342587e-04
1.008000000000000000e+03 5.868477225303649902e-01 -1.765481376647949219e+01 -8.155897259712219238e-03 4.692006856203079224e-02 1.162925176322460175e-02 -2.010810887441039085e-03
1.009000000000000000e+03 1.269044208526611328e+01 -1.814279937744140625e+01 -6.862226724624633789e-01 -5.525481104850769043e-01 -3.716312348842620850e-01 -4.400282204151153564e-01
1.010000000000000000e+03 1.025804424285888672e+01 -2.527920722961425781e+00 -1.145571732195094228e-04 -6.607681280001997948e-05 -5.419019726105034351e-05 6.481647142209112644e-04
1.011000000000000000e+03 1.648546791076660156e+01 -1.041746902465820312e+01 -3.817781805992126465e-01 -7.421994209289550781e-01 -3.371932804584503174e-01 -5.484544038772583008e-01
1.012000000000000000e+03 1.734870338439941406e+01 -1.117227935791015625e+01 -4.772190749645233154e-01 -4.112334251403808594e-01 -2.665357589721679688e-01 -5.380845069885253906e-01
1.013000000000000000e+03 1.577869987487792969e+01 -1.155987358093261719e+01 -4.779033064842224121e-01 -9.409289956092834473e-01 -4.256497025489807129e-01 -6.630401611328125000e-01
1.014000000000000000e+03 2.145496749877929688e+01 -9.028778076171875000e+00 -6.285953521728515625e-01 1.067179813981056213e-01 -1.565632224082946777e-01 -4.268041253089904785e-01
1.015000000000000000e+03 1.350234889984130859e+01 -1.688671302795410156e+01 -7.125929594039916992e-01 -6.456813216209411621e-01 -4.074822962284088135e-01 -5.904891490936279297e-01
1.016000000000000000e+03 1.666557502746582031e+01 -1.224651241302490234e+01 -5.280284881591796875e-01 -5.436273813247680664e-01 -3.214967548847198486e-01 -5.701490640640258789e-01
1.017000000000000000e+03 1.364087009429931641e+01 -3.803785800933837891e+00 1.555071648908779025e-04 -4.743675817735493183e-04 -9.565812069922685623e-05 -6.772364486096194014e-06
1.018000000000000000e+03 1.594035530090332031e+01 -1.339255714416503906e+01 -5.786558389663696289e-01 -6.360691785812377930e-01 -3.644175231456756592e-01 -5.816655755043029785e-01
1.019000000000000000e+03 1.516366100311279297e+01 -1.456407260894775391e+01 -6.049152612686157227e-01 -6.831776499748229980e-01 -3.864278793334960938e-01 -5.864560008049011230e-01
1.020000000000000000e+03 1.047502517700195312e+01 -9.214158058166503906e+00 -1.160647603683173656e-03 -7.183174602687358856e-04 -5.636895075440406799e-04 7.007197127677500248e-04
1.021000000000000000e+03 9.506426811218261719e+00 -8.710839271545410156e+00 6.356275407597422600e-04 1.543808961287140846e-03 6.538309389725327492e-04 -1.151858479715883732e-03
1.022000000000000000e+03 1.111287593841552734e+01 -6.625687599182128906e+00 5.463775596581399441e-04 5.944948061369359493e-04 3.422617155592888594e-04 -6.369507173076272011e-04
1.023000000000000000e+03 1.035190200805664062e+01 -7.650341987609863281e+00 -5.209968076087534428e-04 -1.027665217407047749e-03 -4.645986191462725401e-04 8.248136728070676327e-04
1.024000000000000000e+03 1.730434656143188477e+00 -1.057740402221679688e+01 9.481633896939456463e-04 1.126681338064372540e-03 6.224534590728580952e-04 2.128261141479015350e-03
1.025000000000000000e+03 8.153119087219238281e+00 -1.267967510223388672e+01 4.080675542354583740e-03 6.792619358748197556e-03 3.261988516896963120e-03 -3.161489963531494141e-03
1.026000000000000000e+03 1.042956447601318359e+01 -4.067059040069580078e+00 2.350376416870858520e-05 8.073469507507979870e-04 2.492552157491445541e-04 -5.554223898798227310e-04
1.027000000000000000e+03 7.937435150146484375e+01 3.598171234130859375e+01 -4.766210913658142090e-03 9.180706977844238281e+00 2.752782106399536133e+00 3.519921097904443741e-03
1.028000000000000000e+03 7.933176422119140625e+01 -2.779853057861328125e+01 -7.859474135329946876e-05 7.522796154022216797e+00 2.256815433502197266e+00 -4.083295911550521851e-02
1.029000000000000000e+03 7.716508483886718750e+01 -3.765441513061523438e+01 -1.873542368412017822e-02 7.883817672729492188e+00 2.359524726867675781e+00 -5.181498080492019653e-02
1.030000000000000000e+03 7.933152770996093750e+01 -3.468640518188476562e+01 -6.806492805480957031e-03 7.854938030242919922e+00 2.354439496994018555e+00 -2.100257389247417450e-02
1.031000000000000000e+03 7.934120178222656250e+01 -2.082153701782226562e+01 6.306673749350011349e-04 7.085382461547851562e+00 2.125803947448730469e+00 -4.208319634199142456e-02
1.032000000000000000e+03 7.798961639404296875e+01 -2.767073631286621094e+01 -5.207197275012731552e-03 7.520408630371093750e+00 2.254560470581054688e+00 -1.151172220706939697e-01
1.033000000000000000e+03 7.798301696777343750e+01 -2.627406883239746094e+01 -2.063838066533207893e-03 7.446707248687744141e+00 2.233392953872680664e+00 -1.202189028263092041e-01
1.034000000000000000e+03 7.934899902343750000e+01 -3.057044601440429688e+01 -7.017277530394494534e-04 7.680497169494628906e+00 2.303938627243041992e+00 -3.636083006858825684e-02
1.035000000000000000e+03 7.794627380371093750e+01 -3.442344665527343750e+01 -8.596053346991539001e-03 7.812359809875488281e+00 2.341129064559936523e+00 -6.995419412851333618e-02
1.036000000000000000e+03 7.793059539794921875e+01 -3.308516311645507812e+01 -1.405982300639152527e-02 7.768739700317382812e+00 2.326403856277465820e+00 -7.968679815530776978e-02
1.037000000000000000e+03 7.488616943359375000e+01 -3.708665847778320312e+01 -5.677793547511100769e-02 7.831623554229736328e+00 2.332453727722167969e+00 -1.025764271616935730e-01
1.038000000000000000e+03 7.618435668945312500e+01 -3.871306610107421875e+01 -1.691301912069320679e-02 7.876221656799316406e+00 2.357792615890502930e+00 -6.576126813888549805e-02
1.039000000000000000e+03 7.793658447265625000e+01 1.419721508026123047e+01 -1.760212006047368050e-03 7.865143299102783203e+00 2.359014749526977539e+00 1.783834993839263916e-01
1.040000000000000000e+03 7.932237243652343750e+01 1.541818618774414062e+01 -8.572578663006424904e-04 7.979067325592041016e+00 2.393462896347045898e+00 6.446775048971176147e-02
1.041000000000000000e+03 7.803945922851562500e+01 2.112310600280761719e+01 -3.423837944865226746e-03 8.375401496887207031e+00 2.511593341827392578e+00 1.474980711936950684e-01
1.042000000000000000e+03 7.933375549316406250e+01 2.236715507507324219e+01 4.136405186727643013e-04 8.539276123046875000e+00 2.561906814575195312e+00 5.269174277782440186e-02
1.043000000000000000e+03 7.751729583740234375e+01 3.146415519714355469e+01 -1.449259184300899506e-02 8.856842994689941406e+00 2.652704954147338867e+00 9.970979392528533936e-02
1.044000000000000000e+03 7.767578887939453125e+01 2.814480018615722656e+01 -9.978317655622959137e-03 8.748836517333984375e+00 2.621657609939575195e+00 1.181825920939445496e-01
1.045000000000000000e+03 7.920803833007812500e+01 2.798717689514160156e+01 5.818761419504880905e-04 8.881354331970214844e+00 2.664580821990966797e+00 4.561161994934082031e-02
1.046000000000000000e+03 7.789309692382812500e+01 2.525063705444335938e+01 -1.010466087609529495e-02 8.622899055480957031e+00 2.583838462829589844e+00 1.304065138101577759e-01
1.047000000000000000e+03 7.796115875244140625e+01 2.386597442626953125e+01 -7.541962433606386185e-03 8.546959877014160156e+00 2.561825275421142578e+00 1.361748427152633667e-01
1.048000000000000000e+03 7.804634094238281250e+01 1.837493515014648438e+01 -5.367821548134088516e-03 8.181837081909179688e+00 2.452940702438354492e+00 1.612334549427032471e-01
1.049000000000000000e+03 7.796141052246093750e+01 1.560349178314208984e+01 -2.090530935674905777e-03 7.972336292266845703e+00 2.391073703765869141e+00 1.736775934696197510e-01
1.050000000000000000e+03 7.800131988525390625e+01 1.699599075317382812e+01 -3.249331144616007805e-03 8.076661109924316406e+00 2.422023534774780273e+00 1.683336645364761353e-01
1.051000000000000000e+03 7.792253112792968750e+01 1.278022003173828125e+01 1.793068804545328021e-04 7.755507946014404297e+00 2.326706171035766602e+00 1.800492554903030396e-01
1.052000000000000000e+03 7.652086639404296875e+01 1.147174263000488281e+01 3.651300445199012756e-03 7.673179626464843750e+00 2.303049325942993164e+00 2.796728312969207764e-01
1.053000000000000000e+03 7.794667053222656250e+01 8.544042587280273438e+00 4.573626443743705750e-03 7.435000419616699219e+00 2.231872081756591797e+00 1.704361885786056519e-01
1.054000000000000000e+03 7.931182098388671875e+01 9.826627731323242188e+00 5.646087229251861572e-04 7.494139194488525391e+00 2.248411178588867188e+00 6.474640965461730957e-02
1.055000000000000000e+03 7.934406280517578125e+01 -1.387038707733154297e+01 2.246133051812648773e-03 6.715147972106933594e+00 2.015218257904052734e+00 -2.491275779902935028e-02
1.056000000000000000e+03 7.933919525146484375e+01 -6.911167621612548828e+00 3.278450341895222664e-03 6.588281631469726562e+00 1.977468013763427734e+00 5.246075335890054703e-03
1.057000000000000000e+03 7.934649658203125000e+01 -1.942821121215820312e+01 1.347171026282012463e-03 6.999213218688964844e+00 2.100167989730834961e+00 -4.007429257035255432e-02
1.058000000000000000e+03 7.801207733154296875e+01 1.569007039070129395e-01 1.293624006211757660e-02 6.911949634552001953e+00 2.077465772628784180e+00 1.021048277616500854e-01
1.059000000000000000e+03 7.933305358886718750e+01 1.450770258903503418e+00 2.582882065325975418e-03 6.864315986633300781e+00 2.060069799423217773e+00 4.339488223195075989e-02
1.060000000000000000e+03 7.660792541503906250e+01 7.185898780822753906e+00 1.509010139852762222e-02 7.390145301818847656e+00 2.221570730209350586e+00 2.537129223346710205e-01
1.061000000000000000e+03 7.748731231689453125e+01 2.978712654113769531e+01 -1.181937940418720245e-02 8.798672676086425781e+00 2.636056184768676758e+00 1.088636815547943115e-01
1.062000000000000000e+03 7.839897918701171875e+01 4.009239959716796875e+01 -9.546843357384204865e-03 9.123885154724121094e+00 2.734301567077636719e+00 -2.334953472018241882e-02
1.063000000000000000e+03 7.586573028564453125e+01 3.624272918701171875e+01 -4.422269016504287720e-02 8.793563842773437500e+00 2.624802350997924805e+00 8.193280547857284546e-02
1.064000000000000000e+03 7.793283081054687500e+01 9.953943252563476562e+00 3.324905410408973694e-03 7.540348529815673828e+00 2.263102054595947266e+00 1.757865548133850098e-01
1.065000000000000000e+03 7.670231628417968750e+01 2.051900923252105713e-01 3.156692534685134888e-02 7.014568805694580078e+00 2.113840818405151367e+00 1.590875983238220215e-01
1.066000000000000000e+03 7.799608612060546875e+01 2.937726259231567383e+00 1.034473348408937454e-02 7.057449340820312500e+00 2.120338201522827148e+00 1.312234848737716675e-01
1.067000000000000000e+03 7.801844024658203125e+01 -1.237839698791503906e+00 1.364455372095108032e-02 6.853057384490966797e+00 2.060010671615600586e+00 8.561357110738754272e-02
1.068000000000000000e+03 7.933927154541015625e+01 -2.729856014251708984e+00 3.063524374738335609e-03 6.669071674346923828e+00 2.001640558242797852e+00 2.545057050883769989e-02
1.069000000000000000e+03 7.801737976074218750e+01 -8.202720642089843750e+00 1.518393866717815399e-02 6.728164196014404297e+00 2.023004531860351562e+00 -5.746352486312389374e-03
1.070000000000000000e+03 7.802620697021484375e+01 -5.421622276306152344e+00 1.509839482605457306e-02 6.742650985717773438e+00 2.027324914932250977e+00 3.160324692726135254e-02
1.071000000000000000e+03 7.933582305908203125e+01 -9.696856498718261719e+00 3.024026518687605858e-03 6.602286338806152344e+00 1.981593132019042969e+00 -8.113442920148372650e-03
1.072000000000000000e+03 7.803820800781250000e+01 -1.375631046295166016e+01 1.108079496771097183e-02 6.828561305999755859e+00 2.051892518997192383e+00 -7.092901319265365601e-02
1.073000000000000000e+03 7.802550506591796875e+01 -1.237750530242919922e+01 1.230082567781209946e-02 6.789295196533203125e+00 2.040478706359863281e+00 -5.693685263395309448e-02
1.074000000000000000e+03 7.934881591796875000e+01 -1.664610862731933594e+01 1.799056772142648697e-03 6.841912269592285156e+00 2.053113460540771484e+00 -3.368464857339859009e-02
1.075000000000000000e+03 7.803596496582031250e+01 -2.066339683532714844e+01 3.795895259827375412e-03 7.140216827392578125e+00 2.143203735351562500e+00 -1.177879571914672852e-01
1.076000000000000000e+03 7.805123901367187500e+01 -1.927280044555664062e+01 4.918293096125125885e-03 7.066107273101806641e+00 2.121307611465454102e+00 -1.115183979272842407e-01
1.077000000000000000e+03 7.554667949676513672e+00 1.994656944274902344e+01 -2.013757675886154175e-01 4.133446887135505676e-02 -4.801239073276519775e-02 1.072953343391418457e-01
1.078000000000000000e+03 8.856251716613769531e+00 1.871351432800292969e+01 -3.975753784179687500e-01 -3.754682093858718872e-02 -1.305366605520248413e-01 -2.144206687808036804e-02
1.079000000000000000e+03 1.356133818626403809e+00 -4.002887344360351562e+01 2.304376289248466492e-02 -1.076933622360229492e+00 -3.161669671535491943e-01 4.035473987460136414e-02
1.080000000000000000e+03 7.466187477111816406e-01 3.739133834838867188e+01 1.500436384230852127e-02 -4.788793325424194336e-01 -1.391624957323074341e-01 -1.705713383853435516e-02
1.081000000000000000e+03 7.569835186004638672e-01 3.460638809204101562e+01 7.758937776088714600e-03 -5.052493810653686523e-01 -1.492471396923065186e-01 -2.123738639056682587e-03
1.082000000000000000e+03 7.272282242774963379e-01 3.321404647827148438e+01 4.102579783648252487e-03 -4.991672635078430176e-01 -1.485193967819213867e-01 9.709895588457584381e-03
1.083000000000000000e+03 6.429511308670043945e-01 2.761041450500488281e+01 3.366638207808136940e-03 -3.652746379375457764e-01 -1.085724011063575745e-01 2.280561625957489014e-02
1.084000000000000000e+03 6.510013341903686523e-01 2.620503997802734375e+01 1.426436239853501320e-03 -3.095747530460357666e-01 -9.244450181722640991e-02 2.806387469172477722e-02
1.085000000000000000e+03 5.485019087791442871e-01 -3.603071975708007812e+01 -1.391393016092479229e-03 -1.166768431663513184e+00 -3.504479527473449707e-01 -1.385517185553908348e-03
1.086000000000000000e+03 2.550726652145385742e+00 -3.346814346313476562e+01 2.927489764988422394e-02 -8.310407400131225586e-01 -2.405297458171844482e-01 -9.042592346668243408e-02
1.087000000000000000e+03 3.317677736282348633e+00 2.613862609863281250e+01 1.343833841383457184e-02 -1.241757571697235107e-01 -3.322122618556022644e-02 1.006609797477722168e-01
1.088000000000000000e+03 3.300525903701782227e+00 2.469217300415039062e+01 1.108723692595958710e-02 -1.018138974905014038e-01 -2.721799910068511963e-02 1.102098822593688965e-01
1.089000000000000000e+03 2.345812082290649414e+00 3.438103485107421875e+01 1.714087463915348053e-02 -3.116745352745056152e-01 -8.836010098457336426e-02 2.024972066283226013e-02
1.090000000000000000e+03 2.201496124267578125e+00 3.299384689331054688e+01 1.031670346856117249e-02 -3.039230406284332275e-01 -8.808190375566482544e-02 2.281275205314159393e-02
1.091000000000000000e+03 3.305404901504516602e+00 3.913430023193359375e+01 1.246570702642202377e-02 -3.015025854110717773e-01 -8.671105653047561646e-02 -6.083698011934757233e-03
1.092000000000000000e+03 2.396185159683227539e+00 -3.041731262207031250e+01 2.703256905078887939e-02 -7.157236337661743164e-01 -2.066073119640350342e-01 -1.505844593048095703e-01
1.093000000000000000e+03 2.091252326965332031e+00 -2.751959991455078125e+01 1.708441227674484253e-02 -5.786244869232177734e-01 -1.684620082378387451e-01 -1.740455031394958496e-01
1.094000000000000000e+03 2.045536756515502930e+00 -3.667276382446289062e+01 1.815669983625411987e-02 -9.766366481781005859e-01 -2.875439822673797607e-01 -2.642077766358852386e-02
1.095000000000000000e+03 5.344192981719970703e+00 -1.758095932006835938e+01 -1.639284491539001465e-01 -2.975714765489101410e-02 -5.810568109154701233e-02 -8.523521944880485535e-03
1.096000000000000000e+03 5.940487384796142578e-01 2.051707458496093750e+01 -6.146793253719806671e-03 -5.966764315962791443e-02 -1.974433101713657379e-02 1.989517547190189362e-02
1.097000000000000000e+03 6.254031658172607422e-01 1.909275245666503906e+01 -5.049324827268719673e-04 -2.279069833457469940e-02 -6.988689303398132324e-03 1.175125408917665482e-02
1.098000000000000000e+03 6.275593042373657227e-01 1.482023525238037109e+01 -1.349179306998848915e-03 1.125707104802131653e-02 2.972367685288190842e-03 -5.717963213101029396e-04
1.099000000000000000e+03 6.200506091117858887e-01 1.342215633392333984e+01 6.927662761881947517e-04 8.973145857453346252e-03 2.899773651733994484e-03 -1.627379213459789753e-03
1.100000000000000000e+03 6.041944622993469238e-01 7.798368930816650391e+00 2.742618089541792870e-04 9.866678155958652496e-04 3.782788990065455437e-04 -3.048852668143808842e-04
1.101000000000000000e+03 5.950008034706115723e-01 -1.907747268676757812e+01 -4.119975492358207703e-03 2.404765225946903229e-02 5.978303030133247375e-03 -1.569346152245998383e-02
1.102000000000000000e+03 1.666847109794616699e+00 -9.217177391052246094e+00 1.101595233194530010e-03 4.575281345751136541e-04 4.677370015997439623e-04 1.514951931312680244e-03
1.103000000000000000e+03 3.528145074844360352e+00 -3.896887588500976562e+01 3.810707107186317444e-02 -9.082010388374328613e-01 -2.610282003879547119e-01 -3.935744985938072205e-02
1.104000000000000000e+03 4.884789943695068359e+00 -3.604658889770507812e+01 7.660846412181854248e-02 -5.348996520042419434e-01 -1.374873518943786621e-01 -1.328802704811096191e-01
1.105000000000000000e+03 1.538699269294738770e+00 -3.547583389282226562e+01 2.636959403753280640e-02 -1.009899377822875977e+00 -2.950589358806610107e-01 -2.107911743223667145e-02
1.106000000000000000e+03 2.518384218215942383e+00 -3.192217636108398438e+01 2.477943338453769684e-02 -7.794755697250366211e-01 -2.264088541269302368e-01 -1.301691085100173950e-01
1.107000000000000000e+03 3.399735212326049805e+00 -2.736630630493164062e+01 2.882032841444015503e-02 -4.912293553352355957e-01 -1.387227028608322144e-01 -2.483369261026382446e-01
1.108000000000000000e+03 1.956554532051086426e+00 -2.463708877563476562e+01 -3.732717828825116158e-03 -3.766155242919921875e-01 -1.141044721007347107e-01 -1.760813593864440918e-01
1.109000000000000000e+03 2.005275964736938477e+00 -2.608351516723632812e+01 3.270052839070558548e-03 -4.800696074962615967e-01 -1.430398672819137573e-01 -1.823898106813430786e-01
1.110000000000000000e+03 5.827258825302124023e-01 -2.050101470947265625e+01 -1.043282728642225266e-02 -3.948561474680900574e-02 -1.497553288936614990e-02 -3.430406376719474792e-02
1.111000000000000000e+03 2.895688056945800781e+00 -2.150634384155273438e+01 -5.280835181474685669e-02 -1.706138253211975098e-01 -6.702665239572525024e-02 -1.943604052066802979e-01
1.112000000000000000e+03 1.658537626266479492e+00 -1.602382278442382812e+01 -1.640802016481757164e-03 5.229193717241287231e-03 1.076517510227859020e-03 1.087518502026796341e-02
1.113000000000000000e+03 1.742944598197937012e+00 -1.195649433135986328e+01 3.240365535020828247e-03 2.162632066756486893e-03 1.620899303816258907e-03 5.485518835484981537e-03
1.114000000000000000e+03 5.694628357887268066e-01 -1.205351352691650391e+01 -7.330262451432645321e-04 7.087990175932645798e-03 1.906489254906773567e-03 2.017954830080270767e-03
1.115000000000000000e+03 8.603536605834960938e+00 -9.835267066955566406e+00 -6.353604840114712715e-04 -1.540356548503041267e-03 -6.527150981128215790e-04 1.090481528080999851e-03
1.116000000000000000e+03 5.365303039550781250e+00 -3.489908933639526367e+00 1.196907542180269957e-04 2.169346407754346728e-05 4.241526403347961605e-05 4.202508716844022274e-04
1.117000000000000000e+03 3.704260587692260742e+00 -2.913101911544799805e+00 -6.506305362563580275e-05 2.079553996736649424e-05 -1.328025336988503113e-05 -2.537714608479291201e-04
1.118000000000000000e+03 2.918271780014038086e+00 -3.092837810516357422e+00 6.278001819737255573e-05 5.793979289592243731e-05 3.621594078140333295e-05 9.105585922952741385e-05
1.119000000000000000e+03 2.116746187210083008e+00 -3.179519176483154297e+00 1.085989861167035997e-04 -7.474218000425025821e-05 1.015704310702858493e-05 -2.007016300922259688e-04
1.120000000000000000e+03 1.352981328964233398e+00 -3.365529775619506836e+00 4.614132194546982646e-05 2.243831404484808445e-04 8.115734090097248554e-05 1.891998108476400375e-04
1.121000000000000000e+03 4.796303510665893555e-01 5.035596847534179688e+00 2.262223570141941309e-04 2.330988063476979733e-04 1.377963490085676312e-04 -3.932970867026597261e-05
1.122000000000000000e+03 2.406185150146484375e+00 3.569755792617797852e+00 4.265490861143916845e-05 -1.573706831550225616e-04 -3.441473381826654077e-05 -4.586686554830521345e-05
1.123000000000000000e+03 1.762496113777160645e+00 1.046926879882812500e+01 2.757667680270969868e-04 1.205290784128010273e-03 4.443172656465321779e-04 -1.445311587303876877e-03
1.124000000000000000e+03 5.894333124160766602e-01 1.061448955535888672e+01 6.454553222283720970e-04 3.265919862315058708e-03 1.173412543721497059e-03 -9.090373059734702110e-04
1.125000000000000000e+03 1.893371582031250000e+00 1.321806621551513672e+01 -5.274331779219210148e-04 1.225754152983427048e-03 2.094962837873026729e-04 -2.813420724123716354e-03
1.126000000000000000e+03 1.908692598342895508e+00 1.459893321990966797e+01 -1.469406066462397575e-03 1.281234086491167545e-03 -5.645158307743258774e-05 -1.940576476044952869e-03
1.127000000000000000e+03 1.873823046684265137e+00 1.601236152648925781e+01 -7.459294050931930542e-03 -1.206005108542740345e-03 -2.599589759483933449e-03 4.777461756020784378e-03
1.128000000000000000e+03 1.972372651100158691e+00 2.470639801025390625e+01 2.761912532150745392e-03 -1.713555157184600830e-01 -5.057808384299278259e-02 7.992894202470779419e-02
1.129000000000000000e+03 9.291870117187500000e+00 1.108658885955810547e+01 3.103749477304518223e-04 -2.019532723352313042e-03 -5.127473268657922745e-04 9.175147279165685177e-04
1.130000000000000000e+03 1.241526985168457031e+01 8.461478233337402344e+00 -6.956393481232225895e-04 -4.664180451072752476e-04 -3.486172063276171684e-04 -6.763678975403308868e-04
1.131000000000000000e+03 1.467552471160888672e+01 4.924364566802978516e+00 -2.903728745877742767e-04 2.956367825390771031e-05 -7.824275962775573134e-05 -7.022867066552862525e-05
1.132000000000000000e+03 1.181841182708740234e+01 2.569373846054077148e+00 -1.607319572940468788e-04 5.168075949768535793e-05 -3.271536115789785981e-05 -8.718630124349147081e-05
1.133000000000000000e+03 1.038171482086181641e+01 1.340741252899169922e+01 3.127513453364372253e-03 5.585787352174520493e-03 2.613990334793925285e-03 1.943747396580874920e-03
1.134000000000000000e+03 8.387754440307617188e+00 1.046014308929443359e+01 -8.822021191008388996e-04 2.498192712664604187e-03 4.847971722483634949e-04 -1.323468313785269856e-04
1.135000000000000000e+03 8.430747032165527344e+00 1.385430240631103516e+01 -4.262169357389211655e-03 1.286254078149795532e-02 2.580111380666494370e-03 1.139383646659553051e-03
1.136000000000000000e+03 1.176612186431884766e+01 3.353239059448242188e+00 3.294111520517617464e-04 -5.458047326101223007e-06 9.718593355501070619e-05 3.724138659890741110e-04
1.137000000000000000e+03 7.706435680389404297e+00 -1.109768104553222656e+01 2.567192495916970074e-05 5.662214010953903198e-03 1.706365728750824928e-03 -2.752322936430573463e-03
1.138000000000000000e+03 3.657440185546875000e+01 -8.133492469787597656e+00 5.478291988372802734e+00 1.821672248840332031e+01 7.108504295349121094e+00 -2.072397947311401367e+00
1.139000000000000000e+03 3.540361404418945312e+01 -5.076507568359375000e+00 2.605148315429687500e+00 1.915099716186523438e+01 6.526843547821044922e+00 -3.651993513107299805e+00
1.140000000000000000e+03 3.452040481567382812e+01 -8.683188438415527344e+00 2.768765926361083984e+00 1.108411979675292969e+01 4.155865669250488281e+00 6.194036960601806641e+00
1.141000000000000000e+03 3.344240188598632812e+01 -8.421525001525878906e+00 3.575021743774414062e+00 3.594431638717651367e+00 2.150835990905761719e+00 4.276554107666015625e+00
1.142000000000000000e+03 3.282016754150390625e+01 -8.481009483337402344e+00 2.659933805465698242e+00 1.941180706024169922e+00 1.380334377288818359e+00 2.894334793090820312e+00
1.143000000000000000e+03 3.447811508178710938e+01 -9.198316574096679688e+00 2.132855892181396484e+00 1.056466960906982422e+01 3.809257745742797852e+00 5.411864280700683594e+00
1.144000000000000000e+03 3.303403854370117188e+01 -8.455964088439941406e+00 3.008543252944946289e+00 2.377591609954833984e+00 1.615840435028076172e+00 3.317076683044433594e+00
1.145000000000000000e+03 3.412298965454101562e+01 -8.668015480041503906e+00 3.302221775054931641e+00 8.044281959533691406e+00 3.403951168060302734e+00 5.955319404602050781e+00
1.146000000000000000e+03 3.424079513549804688e+01 -8.400967597961425781e+00 3.717091798782348633e+00 8.578101158142089844e+00 3.688557863235473633e+00 6.366456508636474609e+00
1.147000000000000000e+03 3.507106399536132812e+01 -8.391572952270507812e+00 2.229632854461669922e+00 1.682650184631347656e+01 5.716840744018554688e+00 5.369468212127685547e+00
1.148000000000000000e+03 3.323908233642578125e+01 -8.438724517822265625e+00 3.271723985671997070e+00 2.818638324737548828e+00 1.827108740806579590e+00 3.714210987091064453e+00
1.149000000000000000e+03 3.528425598144531250e+01 -8.383730888366699219e+00 2.039396047592163086e+00 1.829054260253906250e+01 6.098981857299804688e+00 4.210556507110595703e+00
1.150000000000000000e+03 3.581364440917968750e+01 -5.174326419830322266e+00 3.508755445480346680e+00 2.055365371704101562e+01 7.218722820281982422e+00 -9.318014383316040039e-01
1.151000000000000000e+03 3.403881072998046875e+01 -4.753897666931152344e+00 4.092497348785400391e+00 7.652483463287353516e+00 3.523494243621826172e+00 -5.976282119750976562e+00
1.152000000000000000e+03 3.676554107666015625e+01 -6.327373027801513672e+00 1.163968753814697266e+01 1.652599334716796875e+01 8.449704170227050781e+00 1.282868623733520508e+00
1.153000000000000000e+03 3.686864089965820312e+01 -5.800452709197998047e+00 8.895775794982910156e+00 1.685094261169433594e+01 7.724015235900878906e+00 2.283093214035034180e+00
1.154000000000000000e+03 3.692942810058593750e+01 -7.294483184814453125e+00 1.009930801391601562e+01 1.620193672180175781e+01 7.890373229980468750e+00 -2.098857641220092773e+00
1.155000000000000000e+03 3.627439880371093750e+01 -7.931626796722412109e+00 5.722489833831787109e+00 1.996272659301757812e+01 7.705564975738525391e+00 -2.061142444610595703e+00
1.156000000000000000e+03 3.561206436157226562e+01 -5.109984397888183594e+00 2.923128366470336914e+00 2.024231147766113281e+01 6.949632167816162109e+00 -2.211910963058471680e+00
1.157000000000000000e+03 3.713379287719726562e+01 -6.184162616729736328e+00 1.014161872863769531e+01 1.525192260742187500e+01 7.618062496185302734e+00 1.355003952980041504e+00
1.158000000000000000e+03 3.519752883911132812e+01 -5.056324005126953125e+00 2.741845130920410156e+00 1.767048454284667969e+01 6.123699188232421875e+00 -5.016517162322998047e+00
1.159000000000000000e+03 3.258997726440429688e+01 -9.179656982421875000e+00 2.508203744888305664e+00 2.713925838470458984e+00 1.566638827323913574e+00 3.232977390289306641e+00
1.160000000000000000e+03 3.154976654052734375e+01 -9.048541069030761719e+00 1.500233173370361328e+00 1.180256009101867676e+00 8.041467666625976562e-01 1.782368659973144531e+00
1.161000000000000000e+03 3.087561607360839844e+01 -4.574825286865234375e+00 1.588495612144470215e+00 6.271387934684753418e-01 6.646903157234191895e-01 -1.122302412986755371e+00
1.162000000000000000e+03 3.148478126525878906e+01 -4.537518978118896484e+00 2.145993947982788086e+00 1.060487508773803711e+00 9.619444012641906738e-01 -1.640239357948303223e+00
1.163000000000000000e+03 2.898507308959960938e+01 -9.801625251770019531e+00 4.697922766208648682e-01 4.917580783367156982e-01 2.884651124477386475e-01 6.786832213401794434e-01
1.164000000000000000e+03 2.844211578369140625e+01 -9.213355064392089844e+00 -1.631837040185928345e-01 2.275733202695846558e-01 1.931688375771045685e-02 2.941312193870544434e-01
1.165000000000000000e+03 2.886001968383789062e+01 -1.044100379943847656e+01 7.528724074363708496e-01 7.188963890075683594e-01 4.415306448936462402e-01 8.687024116516113281e-01
1.166000000000000000e+03 3.086024856567382812e+01 -9.630046844482421875e+00 1.328224658966064453e+00 1.142237663269042969e+00 7.411386966705322266e-01 1.632597804069519043e+00
1.167000000000000000e+03 2.106581497192382812e+01 -1.661723494529724121e+00 9.974459558725357056e-02 -1.648166626691818237e-01 -1.952162012457847595e-02 2.008733004331588745e-01
1.168000000000000000e+03 2.069358825683593750e+01 -2.383472919464111328e+00 5.635105073451995850e-02 -2.038042843341827393e-01 -4.423597082495689392e-02 2.409338802099227905e-01
1.169000000000000000e+03 2.486367988586425781e+01 -3.425518989562988281e+00 1.998116374015808105e-01 1.251069903373718262e-01 9.747558832168579102e-02 1.228909343481063843e-01
1.170000000000000000e+03 2.770890235900878906e+01 -9.227638244628906250e+00 -3.346622288227081299e-01 1.475017517805099487e-01 -5.614814534783363342e-02 1.331741213798522949e-01
1.171000000000000000e+03 2.828623008728027344e+01 -9.848991394042968750e+00 2.458708435297012329e-01 3.690717816352844238e-01 1.844827979803085327e-01 4.465050697326660156e-01
1.172000000000000000e+03 3.022078704833984375e+01 -4.567699909210205078e+00 1.139262795448303223e+00 4.343738555908203125e-01 4.720909893512725830e-01 -7.498918175697326660e-01
1.173000000000000000e+03 3.886678457260131836e+00 2.606283426284790039e+00 6.235326873138546944e-05 2.617767313495278358e-04 9.723899711389094591e-05 -8.481280246996902861e-07
1.174000000000000000e+03 4.588984489440917969e+00 2.564429759979248047e+00 1.925813994603231549e-04 -3.213182790204882622e-04 -3.862106314045377076e-05 -2.038855600403621793e-04
1.175000000000000000e+03 5.977242946624755859e+00 2.553992748260498047e+00 1.922087249113246799e-04 -3.936746506951749325e-04 -6.043977555236779153e-05 -2.121236466336995363e-04
1.176000000000000000e+03 5.219895362854003906e+00 3.238852977752685547e+00 2.427869621897116303e-04 -4.340744926594197750e-04 -5.738625986850820482e-05 -2.393055765423923731e-04
1.177000000000000000e+03 5.879708290100097656e+00 3.261599063873291016e+00 1.509074936620891094e-04 3.151819691993296146e-04 1.398268359480425715e-04 1.717979612294584513e-04
1.178000000000000000e+03 1.027750205993652344e+01 2.606968402862548828e+00 -5.026425060350447893e-05 -1.302413293160498142e-04 -5.415167470346204937e-05 -2.017685474129393697e-04
1.179000000000000000e+03 7.230878829956054688e+00 3.338723421096801758e+00 1.567796280141919851e-04 3.683983522932976484e-04 1.575533970026299357e-04 3.078637819271534681e-04
1.180000000000000000e+03 6.548739910125732422e+00 3.301153898239135742e+00 2.409299340797588229e-04 -5.300218472257256508e-04 -8.672757394379004836e-05 -2.115411480190232396e-04
1.181000000000000000e+03 4.562823772430419922e+00 3.252675771713256836e+00 1.324990589637309313e-04 2.448559098411351442e-04 1.132064862758852541e-04 8.490436448482796550e-05
1.182000000000000000e+03 2.497256755828857422e+00 2.676182031631469727e+00 1.198978934553451836e-04 2.045445435214787722e-04 9.733272599987685680e-05 -8.802732190815731883e-05
1.183000000000000000e+03 1.016716384887695312e+01 3.379379510879516602e+00 1.748847425915300846e-04 2.788483106996864080e-04 1.361199101665988564e-04 4.759230359923094511e-04
1.184000000000000000e+03 2.350834465026855469e+01 -3.170864343643188477e+00 1.237985417246818542e-01 5.216244980692863464e-02 5.278829857707023621e-02 2.202936559915542603e-01
1.185000000000000000e+03 2.536790847778320312e+01 -4.169692516326904297e+00 -1.705979183316230774e-02 8.116780221462249756e-02 1.923240162432193756e-02 1.599605679512023926e-01
1.186000000000000000e+03 2.622414398193359375e+01 -3.599483966827392578e+00 3.454013466835021973e-01 1.942402273416519165e-01 1.618924736976623535e-01 -1.856335811316967010e-02
1.187000000000000000e+03 2.283462715148925781e+01 -3.009017467498779297e+00 1.076275184750556946e-01 3.805599641054868698e-03 3.342993557453155518e-02 2.483738511800765991e-01
1.188000000000000000e+03 2.214861869812011719e+01 -2.832203149795532227e+00 8.617192506790161133e-02 -4.546610265970230103e-02 1.221174746751785278e-02 2.623977363109588623e-01
1.189000000000000000e+03 9.564499855041503906e+00 -2.498987674713134766e+00 1.615207656868733466e-05 5.059144314145669341e-05 2.002305518544744700e-05 -4.808811645489186049e-04
1.190000000000000000e+03 2.143812942504882812e+01 -2.636346340179443359e+00 7.560047507286071777e-02 -1.138563305139541626e-01 -1.147675700485706329e-02 2.628807425498962402e-01
1.191000000000000000e+03 2.757770347595214844e+01 -3.772937059402465820e+00 5.730637311935424805e-01 2.759973108768463135e-01 2.547183036804199219e-01 -2.217379957437515259e-01
1.192000000000000000e+03 2.824953079223632812e+01 -3.867443323135375977e+00 7.345222830772399902e-01 3.485988080501556396e-01 3.249363303184509277e-01 -3.646684587001800537e-01
1.193000000000000000e+03 2.899188232421875000e+01 -3.413130283355712891e+00 1.264359712600708008e+00 6.718313097953796387e-01 5.808572769165039062e-01 -8.228719830513000488e-01
1.194000000000000000e+03 1.157666873931884766e+01 -3.562764883041381836e+00 3.678922657854855061e-04 -4.843040005653165281e-05 9.583856444805860519e-05 -5.089713959023356438e-04
1.195000000000000000e+03 1.096675014495849609e+01 -2.637791156768798828e+00 2.485351869836449623e-04 -9.076332935364916921e-05 4.733155583380721509e-05 -4.873137222602963448e-04
1.196000000000000000e+03 1.125170612335205078e+01 -4.393139362335205078e+00 -2.721155178733170033e-04 -4.460506897885352373e-04 -2.154498652089387178e-04 6.109601235948503017e-04
1.197000000000000000e+03 1.257755661010742188e+01 -2.804540157318115234e+00 1.545520935906097293e-04 -3.904552722815424204e-04 -7.077094778651371598e-05 1.747566784615628421e-05
1.198000000000000000e+03 3.178047752380371094e+01 -3.955231904983520508e+00 2.603620767593383789e+00 1.937429189682006836e+00 1.362314939498901367e+00 -2.451261997222900391e+00
1.199000000000000000e+03 2.957700538635253906e+01 -4.010068893432617188e+00 1.221188545227050781e+00 5.507154464721679688e-01 5.315712094306945801e-01 -7.838536500930786133e-01
1.200000000000000000e+03 1.355552768707275391e+01 5.006234645843505859e+00 3.426914045121520758e-04 1.031812716973945498e-04 1.337618014076724648e-04 3.452853125054389238e-04
1.201000000000000000e+03 9.399040222167968750e+00 3.380575656890869141e+00 5.782865628134459257e-05 -3.600901109166443348e-04 -9.067843348020687699e-05 -2.679658064153045416e-04
1.202000000000000000e+03 1.261143016815185547e+01 4.106576442718505859e+00 4.344787739682942629e-04 -6.150441186036914587e-05 1.118923100875690579e-04 4.717752162832766771e-04
1.203000000000000000e+03 1.258445549011230469e+01 3.297566652297973633e+00 -3.125764487776905298e-04 2.996200637426227331e-04 -3.886914782924577594e-06 -1.068901765393093228e-04
1.204000000000000000e+03 9.264184951782226562e+00 4.173305511474609375e+00 7.825252396287396550e-05 5.282174097374081612e-04 1.819409808376803994e-04 5.489330505952239037e-04
1.205000000000000000e+03 1.995713806152343750e+01 -9.330683708190917969e+00 -5.311967134475708008e-01 4.627962410449981689e-02 -1.454751342535018921e-01 -4.686613380908966064e-01
1.206000000000000000e+03 1.938524055480957031e+01 -8.819070816040039062e+00 -4.904889464378356934e-01 -1.420050486922264099e-02 -1.514068245887756348e-01 -4.243898093700408936e-01
1.207000000000000000e+03 6.744929313659667969e+00 -3.329958438873291016e+00 -1.243225142388837412e-05 -8.008781878743320704e-05 -2.775602115434594452e-05 5.873732152394950390e-04
1.208000000000000000e+03 2.569064855575561523e+00 -6.622868061065673828e+00 1.558875665068626404e-04 1.037952533806674182e-04 7.790484232828021049e-05 -2.294327568961307406e-04
1.209000000000000000e+03 7.469331741333007812e+00 -4.148200511932373047e+00 1.000422198558226228e-04 -4.587321600411087275e-04 -1.076069820555858314e-04 6.635817699134349823e-04
1.210000000000000000e+03 8.862295150756835938e+00 -2.544262170791625977e+00 -5.595619586529210210e-05 -6.668129572062753141e-06 -1.878729744930751622e-05 4.892457509413361549e-04
1.211000000000000000e+03 5.626067161560058594e+00 -4.270303726196289062e+00 3.863468919007573277e-06 -2.409754779364448041e-05 -6.070223662391072139e-06 -5.164482281543314457e-04
1.212000000000000000e+03 5.913833141326904297e+00 -2.635727167129516602e+00 -2.013929588429164141e-05 -1.396111383655807003e-05 -1.023012282530544326e-05 3.950008249375969172e-04
1.213000000000000000e+03 6.046622753143310547e+00 -3.369132995605468750e+00 5.420443358161719516e-06 9.969199163606390357e-05 3.153373108943924308e-05 -5.270308465696871281e-04
1.214000000000000000e+03 4.183574676513671875e+00 -4.635812282562255859e+00 -4.571090175886638463e-05 1.108714423025958240e-04 1.954816252691671252e-05 -3.012135275639593601e-04
1.215000000000000000e+03 1.599111318588256836e+00 -5.235973358154296875e+00 -6.137094169389456511e-05 1.744782348396256566e-04 3.393218867131508887e-05 -2.569937496446073055e-04
1.216000000000000000e+03 2.755821418762207031e+01 -9.885932922363281250e+00 5.580498278141021729e-02 2.912696301937103271e-01 1.041223853826522827e-01 2.638873159885406494e-01
1.217000000000000000e+03 2.603348159790039062e+01 -9.945138931274414062e+00 -2.137130349874496460e-01 2.003935873508453369e-01 -3.995835315436124802e-03 -2.812908589839935303e-02
1.218000000000000000e+03 2.964817428588867188e+01 -9.742092132568359375e+00 7.130808234214782715e-01 6.245247125625610352e-01 4.012816548347473145e-01 9.377122521400451660e-01
1.219000000000000000e+03 2.281848144531250000e+01 -9.876105308532714844e+00 -4.819502234458923340e-01 1.688809096813201904e-01 -9.392078965902328491e-02 -3.805115818977355957e-01
1.220000000000000000e+03 2.361499023437500000e+01 -9.935055732727050781e+00 -4.424221813678741455e-01 1.645365208387374878e-01 -8.336569368839263916e-02 -3.210568428039550781e-01
1.221000000000000000e+03 2.442372512817382812e+01 -9.968860626220703125e+00 -3.888737559318542480e-01 1.741726100444793701e-01 -6.441034376621246338e-02 -2.442061156034469604e-01
1.222000000000000000e+03 2.539570426940917969e+01 -9.252773284912109375e+00 -6.317224502563476562e-01 1.034227609634399414e-01 -1.584899127483367920e-01 -1.864550411701202393e-01
1.223000000000000000e+03 2.126118087768554688e+01 -9.822266578674316406e+00 -5.202894210815429688e-01 1.188774034380912781e-01 -1.204236075282096863e-01 -4.614136815071105957e-01
1.224000000000000000e+03 2.523739814758300781e+01 -9.963887214660644531e+00 -3.090061545372009277e-01 1.864610016345977783e-01 -3.676354140043258667e-02 -1.417929381132125854e-01
1.225000000000000000e+03 2.040883064270019531e+01 -3.212860107421875000e+00 1.598691684193909168e-03 -2.000625282526016235e-01 -5.953915417194366455e-02 2.446848601102828979e-01
1.226000000000000000e+03 2.203170204162597656e+01 -9.854287147521972656e+00 -5.170105099678039551e-01 1.503010392189025879e-01 -1.100128516554832458e-01 -4.302933514118194580e-01
1.227000000000000000e+03 2.138641738891601562e+01 2.184421539306640625e+00 2.094510793685913086e-01 1.913810521364212036e-01 1.202496364712715149e-01 -2.392341941595077515e-01
1.228000000000000000e+03 2.115355873107910156e+01 5.758195400238037109e+00 1.830865740776062012e-01 5.990955233573913574e-01 2.346546351909637451e-01 -5.593869686126708984e-01
1.229000000000000000e+03 1.800518989562988281e+01 -1.024517917633056641e+01 -4.669913947582244873e-01 -2.581344842910766602e-01 -2.175377607345581055e-01 -5.058029890060424805e-01
1.230000000000000000e+03 1.077437210083007812e+01 9.086598396301269531e+00 -2.017589140450581908e-04 -1.334320288151502609e-03 -4.608237650245428085e-04 -4.342662869021296501e-04
1.231000000000000000e+03 1.107157802581787109e+01 1.065764999389648438e+01 -7.431047270074486732e-04 -1.323337084613740444e-03 -6.199325434863567352e-04 -1.179784769192337990e-03
1.232000000000000000e+03 1.332534503936767578e+01 6.166654109954833984e+00 -4.938049823977053165e-04 -9.338897507404908538e-05 -1.761581806931644678e-04 -3.757894155569374561e-04
1.233000000000000000e+03 6.133855819702148438e+00 -1.449933624267578125e+01 6.192819215357303619e-03 -5.248949397355318069e-03 2.831609454005956650e-04 -2.066777460277080536e-02
1.234000000000000000e+03 6.796172142028808594e+00 -1.345210361480712891e+01 -1.100224326364696026e-03 2.030511014163494110e-02 5.761465989053249359e-03 -1.056654285639524460e-02
1.235000000000000000e+03 1.872588157653808594e+01 1.091698074340820312e+01 2.141310870647430420e-01 8.131399154663085938e-01 3.081812858581542969e-01 -4.412733614444732666e-01
1.236000000000000000e+03 2.082582664489746094e+01 7.127251625061035156e+00 2.007389217615127563e-01 7.163816094398498535e-01 2.751361727714538574e-01 -6.026134490966796875e-01
1.237000000000000000e+03 1.078981018066406250e+01 -3.358008384704589844e+00 -1.862878707470372319e-04 -2.959904959425330162e-04 -1.446835085516795516e-04 7.468470139428973198e-04
1.238000000000000000e+03 8.501680374145507812e+00 -2.036374664306640625e+01 -4.355115592479705811e-01 -3.510820269584655762e-01 -2.359780818223953247e-01 -5.647761225700378418e-01
1.239000000000000000e+03 7.837232589721679688e+00 -1.883345985412597656e+01 -5.703526139259338379e-01 -8.415673673152923584e-02 -1.963528096675872803e-01 -2.729005813598632812e-01
1.240000000000000000e+03 1.004607868194580078e+01 4.166070938110351562e+00 3.761963671422563493e-05 -4.193519125692546368e-04 -1.145196802099235356e-04 -3.819521807599812746e-04
1.241000000000000000e+03 1.012129878997802734e+01 -6.172326564788818359e+00 -6.577299791388213634e-05 -1.162433996796607971e-03 -3.684620896819978952e-04 6.710694287903606892e-04
1.242000000000000000e+03 1.605232620239257812e+01 -1.861553382873535156e+01 -1.706843823194503784e-01 -3.400113061070442200e-02 -6.140565499663352966e-02 -6.978306174278259277e-02
1.243000000000000000e+03 1.621616363525390625e+01 -1.526700878143310547e+01 -4.615333378314971924e-01 -3.514941632747650146e-01 -2.439082413911819458e-01 -3.876670300960540771e-01
1.244000000000000000e+03 9.551235198974609375e+00 -1.994315528869628906e+01 -3.632478117942810059e-01 -6.094976067543029785e-01 -2.918236255645751953e-01 -5.787724852561950684e-01
1.245000000000000000e+03 1.983958244323730469e+01 -2.496246099472045898e-01 5.698791891336441040e-02 -4.070100784301757812e-01 -1.050066426396369934e-01 8.866814523935317993e-02
1.246000000000000000e+03 1.340149497985839844e+01 3.112220525741577148e+00 -3.092684710281901062e-05 -4.757570568472146988e-04 -1.520051737315952778e-04 -1.241708378074690700e-04
1.247000000000000000e+03 3.636530637741088867e+00 2.173312377929687500e+01 -3.321272879838943481e-02 -3.402108699083328247e-02 -2.017014473676681519e-02 1.090676113963127136e-01
1.248000000000000000e+03 7.328349304199218750e+01 -3.737119674682617188e+01 -1.042829751968383789e-01 7.809079170227050781e+00 2.311438798904418945e+00 -1.279399245977401733e-01
1.249000000000000000e+03 7.497317504882812500e+01 -3.480881500244140625e+01 -5.575907975435256958e-02 7.776218414306640625e+00 2.316137790679931641e+00 -1.569572836160659790e-01
1.250000000000000000e+03 7.694699096679687500e+01 -3.575086593627929688e+01 -2.751774713397026062e-02 7.836697578430175781e+00 2.342753887176513672e+00 -8.648892492055892944e-02
1.251000000000000000e+03 7.546642303466796875e+01 -2.175351905822753906e+01 8.613539859652519226e-03 7.299113750457763672e+00 2.192318201065063477e+00 -2.424505501985549927e-01
1.252000000000000000e+03 7.800460815429687500e+01 -2.905543327331542969e+01 -3.037470160052180290e-03 7.588601112365722656e+00 2.275669097900390625e+00 -1.087543517351150513e-01
1.253000000000000000e+03 7.516582489013671875e+01 1.452693080902099609e+01 -5.554329603910446167e-03 7.869306087493896484e+00 2.359125614166259766e+00 3.657783865928649902e-01
1.254000000000000000e+03 7.658663940429687500e+01 1.580004405975341797e+01 -6.619368679821491241e-03 7.966251850128173828e+00 2.387889623641967773e+00 2.722278535366058350e-01
1.255000000000000000e+03 7.818880462646484375e+01 3.538769531250000000e+01 -1.629077084362506866e-02 9.035892486572265625e+00 2.705880403518676758e+00 3.842502832412719727e-02
1.256000000000000000e+03 7.642821502685546875e+01 3.388739776611328125e+01 -2.197562158107757568e-02 8.825510025024414062e+00 2.641060113906860352e+00 9.842308610677719116e-02
1.257000000000000000e+03 7.801238250732421875e+01 -2.205983543395996094e+01 1.283141202293336391e-03 7.216800212860107422e+00 2.165425062179565430e+00 -1.214182302355766296e-01
1.258000000000000000e+03 7.667952728271484375e+01 -2.332480812072753906e+01 -3.332555643282830715e-04 7.328319072723388672e+00 2.198395729064941406e+00 -1.905738860368728638e-01
1.259000000000000000e+03 7.674330139160156250e+01 -3.033656311035156250e+01 -1.286323275417089462e-02 7.639223575592041016e+00 2.287908077239990234e+00 -1.592863649129867554e-01
1.260000000000000000e+03 7.661748504638671875e+01 -2.899009895324707031e+01 -1.351376064121723175e-02 7.585872173309326172e+00 2.271707534790039062e+00 -1.706015467643737793e-01
1.261000000000000000e+03 7.530840301513671875e+01 -2.606868362426757812e+01 -1.337670907378196716e-02 7.485078334808349609e+00 2.241510629653930664e+00 -2.445735931396484375e-01
1.262000000000000000e+03 7.664767456054687500e+01 -2.756198883056640625e+01 -8.586422540247440338e-03 7.524068355560302734e+00 2.254644632339477539e+00 -1.800692379474639893e-01
1.263000000000000000e+03 7.665196990966796875e+01 -2.474793815612792969e+01 -3.277077106758952141e-03 7.396817684173583984e+00 2.218062162399291992e+00 -1.908483058214187622e-01
1.264000000000000000e+03 7.635311889648437500e+01 -3.281844329833984375e+01 -2.725272439420223236e-02 7.735997676849365234e+00 2.312623500823974609e+00 -1.440963745117187500e-01
1.265000000000000000e+03 7.641424560546875000e+01 -3.433712768554687500e+01 -3.501189500093460083e-02 7.781151771545410156e+00 2.323842048645019531e+00 -1.231690868735313416e-01
1.266000000000000000e+03 7.279957580566406250e+01 -2.915129089355468750e+01 -5.380584299564361572e-02 7.625582695007324219e+00 2.271533012390136719e+00 -3.027931153774261475e-01
1.267000000000000000e+03 7.800455474853515625e+01 2.248988151550292969e+01 -7.088272832334041595e-03 8.464339256286621094e+00 2.537175416946411133e+00 1.433051377534866333e-01
1.268000000000000000e+03 7.680419158935546875e+01 1.988111114501953125e+01 -1.470685843378305435e-02 8.240837097167968750e+00 2.467839002609252930e+00 2.383135557174682617e-01
1.269000000000000000e+03 7.529340362548828125e+01 2.262227058410644531e+01 -2.626368403434753418e-02 8.330190658569335938e+00 2.491178035736083984e+00 2.872145771980285645e-01
1.270000000000000000e+03 7.674020385742187500e+01 2.122435569763183594e+01 -1.414492446929216385e-02 8.323730468750000000e+00 2.492875814437866211e+00 2.254111766815185547e-01
1.271000000000000000e+03 7.652417755126953125e+01 1.291843700408935547e+01 -1.532613896415568888e-05 7.770281314849853516e+00 2.331079721450805664e+00 2.808568477630615234e-01
1.272000000000000000e+03 7.521289825439453125e+01 8.600559234619140625e+00 2.084047906100749969e-02 7.518302917480468750e+00 2.261743068695068359e+00 3.487884402275085449e-01
1.273000000000000000e+03 7.655044555664062500e+01 1.436540412902832031e+01 -3.417130326852202415e-03 7.867779731750488281e+00 2.359308719635009766e+00 2.782312035560607910e-01
1.274000000000000000e+03 7.662406158447265625e+01 2.392067527770996094e+01 -2.100761048495769501e-02 8.460201263427734375e+00 2.531758069992065430e+00 2.150368243455886841e-01
1.275000000000000000e+03 7.779510498046875000e+01 2.665942192077636719e+01 -6.867081392556428909e-03 8.690979003906250000e+00 2.605233430862426758e+00 1.246583014726638794e-01
1.276000000000000000e+03 7.671987152099609375e+01 -2.190691757202148438e+01 4.891057498753070831e-03 7.259316444396972656e+00 2.179262161254882812e+00 -1.877868324518203735e-01
1.277000000000000000e+03 7.635656738281250000e+01 2.665804290771484375e+01 -2.253142558038234711e-02 8.583126068115234375e+00 2.568178415298461914e+00 1.928552687168121338e-01
1.278000000000000000e+03 7.435431671142578125e+01 -1.626842308044433594e+01 6.122984737157821655e-02 7.150742053985595703e+00 2.163591623306274414e+00 -2.247812151908874512e-01
1.279000000000000000e+03 7.676007843017578125e+01 -2.050962257385253906e+01 8.065413683652877808e-03 7.191569328308105469e+00 2.159890413284301758e+00 -1.802898794412612915e-01
1.280000000000000000e+03 7.541535186767578125e+01 -9.491942405700683594e+00 6.632792204618453979e-02 6.952114105224609375e+00 2.105532646179199219e+00 -4.527788236737251282e-02
1.281000000000000000e+03 7.804837799072265625e+01 -1.512915706634521484e+01 9.973414242267608643e-03 6.876754283905029297e+00 2.066018342971801758e+00 -8.359982818365097046e-02
1.282000000000000000e+03 7.543410491943359375e+01 -2.576869487762451172e+00 6.432055681943893433e-02 7.011910915374755859e+00 2.122869491577148438e+00 1.400747150182723999e-01
1.283000000000000000e+03 7.671058654785156250e+01 -8.133344650268554688e+00 3.765304014086723328e-02 6.846403598785400391e+00 2.065217018127441406e+00 -7.453457452356815338e-03
1.284000000000000000e+03 7.797463989257812500e+01 5.731584072113037109e+00 7.591469213366508484e-03 7.234539985656738281e+00 2.172639369964599609e+00 1.541853845119476318e-01
1.285000000000000000e+03 7.540563964843750000e+01 1.952307820320129395e-01 5.748362839221954346e-02 7.099138259887695312e+00 2.146986484527587891e+00 2.086297422647476196e-01
1.286000000000000000e+03 7.703524780273437500e+01 3.538845062255859375e+01 -2.971320599317550659e-02 8.923146247863769531e+00 2.668030023574829102e+00 8.516170829534530640e-02
1.287000000000000000e+03 7.779377746582031250e+01 3.651350784301757812e+01 -3.175038844347000122e-02 9.045582771301269531e+00 2.704149723052978516e+00 4.166335240006446838e-02
1.288000000000000000e+03 7.796125793457031250e+01 7.136096954345703125e+00 6.342132110148668289e-03 7.332560062408447266e+00 2.201670646667480469e+00 1.633370071649551392e-01
1.289000000000000000e+03 7.663446807861328125e+01 5.773076057434082031e+00 1.872483454644680023e-02 7.302826881408691406e+00 2.196465492248535156e+00 2.394471615552902222e-01
1.290000000000000000e+03 7.672226715087890625e+01 -2.581440210342407227e+00 3.533732146024703979e-02 6.917858123779296875e+00 2.085958719253540039e+00 1.064109355211257935e-01
1.291000000000000000e+03 7.670414733886718750e+01 -9.526425361633300781e+00 3.593122214078903198e-02 6.854284763336181641e+00 2.067064762115478516e+00 -3.590210527181625366e-02
1.292000000000000000e+03 7.678768920898437500e+01 -1.639086341857910156e+01 2.127572521567344666e-02 7.014425754547119141e+00 2.110710382461547852e+00 -1.452569514513015747e-01
1.293000000000000000e+03 7.399535369873046875e+01 3.312195205688476562e+01 -7.102803885936737061e-02 8.625382423400878906e+00 2.566306352615356445e+00 1.728174984455108643e-01
1.294000000000000000e+03 7.579608917236328125e+01 3.223801422119140625e+01 -3.538612276315689087e-02 8.745387077331542969e+00 2.613000392913818359e+00 1.292175352573394775e-01
1.295000000000000000e+03 7.676392364501953125e+01 1.855949211120605469e+01 -1.184266991913318634e-02 8.147334098815917969e+00 2.440647363662719727e+00 2.478904724121093750e-01
1.296000000000000000e+03 7.654503631591796875e+01 1.003436088562011719e+01 7.255907170474529266e-03 7.577248096466064453e+00 2.275351285934448242e+00 2.741548717021942139e-01
1.297000000000000000e+03 7.676738739013671875e+01 -1.503047180175781250e+01 2.446400187909603119e-02 6.967399120330810547e+00 2.097558975219726562e+00 -1.279038339853286743e-01
1.298000000000000000e+03 7.802316284179687500e+01 -6.813863754272460938e+00 1.532612740993499756e-02 6.729436874389648438e+00 2.023428916931152344e+00 1.287766452878713608e-02
1.299000000000000000e+03 7.800528717041015625e+01 1.542845845222473145e+00 1.183776091784238815e-02 6.980012416839599609e+00 2.097554922103881836e+00 1.173616722226142883e-01
1.300000000000000000e+03 7.671349334716796875e+01 -1.185473084449768066e+00 3.366269543766975403e-02 6.961662769317626953e+00 2.098597764968872070e+00 1.334688216447830200e-01
1.301000000000000000e+03 7.862757110595703125e+01 3.421551895141601562e+01 -8.544469252228736877e-03 9.054084777832031250e+00 2.713661909103393555e+00 4.164634644985198975e-02
1.302000000000000000e+03 7.665644836425781250e+01 4.376584053039550781e+00 2.227638475596904755e-02 7.220878601074218750e+00 2.172946453094482422e+00 2.229080945253372192e-01
1.303000000000000000e+03 7.536496734619140625e+01 2.960218906402587891e+00 4.668896272778511047e-02 7.216110706329345703e+00 2.178839921951293945e+00 2.671165764331817627e-01
1.304000000000000000e+03 7.672507476806640625e+01 -5.360087394714355469e+00 3.717002272605895996e-02 6.861159324645996094e+00 2.069498777389526367e+00 4.989959299564361572e-02
1.305000000000000000e+03 7.672586059570312500e+01 -3.970275163650512695e+00 3.653102740645408630e-02 6.884310722351074219e+00 2.076252460479736328e+00 7.862937450408935547e-02
1.306000000000000000e+03 7.542962646484375000e+01 -1.227481937408447266e+01 5.590029805898666382e-02 6.988507270812988281e+00 2.113322257995605469e+00 -1.133762001991271973e-01
1.307000000000000000e+03 7.674343872070312500e+01 -1.367306900024414062e+01 2.743451483547687531e-02 6.928160667419433594e+00 2.086678504943847656e+00 -1.089975833892822266e-01
1.308000000000000000e+03 7.670763397216796875e+01 -1.092251396179199219e+01 3.369668871164321899e-02 6.870861530303955078e+00 2.071367502212524414e+00 -6.286476552486419678e-02
1.309000000000000000e+03 7.678733062744140625e+01 -1.913043785095214844e+01 1.305175852030515671e-02 7.127707004547119141e+00 2.142227649688720703e+00 -1.717051565647125244e-01
1.310000000000000000e+03 7.463372707366943359e+00 1.318533802032470703e+01 4.419719916768372059e-04 1.125907176174223423e-03 4.703637387137860060e-04 7.593914866447448730e-03
1.311000000000000000e+03 1.139666175842285156e+01 8.077146530151367188e+00 1.693674421403557062e-04 1.588244806043803692e-03 5.272837006486952305e-04 8.468453306704759598e-04
1.312000000000000000e+03 1.293636226654052734e+01 7.324082374572753906e+00 5.554710514843463898e-04 6.345110014081001282e-04 3.569946275092661381e-04 5.792418378405272961e-04
1.313000000000000000e+03 1.913666343688964844e+01 1.438489246368408203e+01 1.571299731731414795e-01 1.220387697219848633e+00 4.132553040981292725e-01 -5.174260139465332031e-01
1.314000000000000000e+03 3.557088136672973633e+00 3.604228973388671875e+01 4.261243343353271484e-02 -1.960501223802566528e-01 -4.603130742907524109e-02 2.824271842837333679e-02
1.315000000000000000e+03 1.935992002487182617e+00 2.753042984008789062e+01 9.806728921830654144e-03 -2.518208324909210205e-01 -7.260423153638839722e-02 6.427723914384841919e-02
1.316000000000000000e+03 3.286846399307250977e+00 3.009927749633789062e+01 1.222490891814231873e-02 -1.673753410577774048e-01 -4.654512926936149597e-02 6.165871024131774902e-02
1.317000000000000000e+03 1.960454344749450684e+00 2.614854049682617188e+01 6.987816654145717621e-03 -2.125525772571563721e-01 -6.166942790150642395e-02 7.320068031549453735e-02
1.318000000000000000e+03 3.250093221664428711e+00 2.748909378051757812e+01 2.304360456764698029e-02 -1.427338719367980957e-01 -3.590708225965499878e-02 8.895929157733917236e-02
1.319000000000000000e+03 5.909790515899658203e+00 3.116562080383300781e+01 4.623641073703765869e-02 1.128465607762336731e-01 4.772489145398139954e-02 5.128120258450508118e-02
1.320000000000000000e+03 3.431675910949707031e+00 3.139527320861816406e+01 2.522106654942035675e-02 -1.577539443969726562e-01 -3.975986316800117493e-02 4.870092123746871948e-02
1.321000000000000000e+03 3.214456558227539062e+00 2.879365348815917969e+01 2.446168847382068634e-02 -1.608513593673706055e-01 -4.091690480709075928e-02 7.151108980178833008e-02
1.322000000000000000e+03 6.230012416839599609e+00 3.799042129516601562e+01 2.102806232869625092e-02 2.121258527040481567e-01 6.994617730379104614e-02 2.696155011653900146e-02
1.323000000000000000e+03 2.092498540878295898e+00 3.711053466796875000e+01 3.218519035726785660e-03 -3.585460186004638672e-01 -1.065982505679130554e-01 -9.399533271789550781e-03
1.324000000000000000e+03 4.002318382263183594e+00 3.398570251464843750e+01 2.084171399474143982e-02 -9.886075556278228760e-02 -2.340571209788322449e-02 2.836840786039829254e-02
1.325000000000000000e+03 3.688681125640869141e+00 3.267226791381835938e+01 2.209406904876232147e-02 -1.438291668891906738e-01 -3.652052953839302063e-02 3.689316287636756897e-02
1.326000000000000000e+03 3.133698463439941406e+00 -3.593185424804687500e+01 5.953927338123321533e-02 -8.249875903129577637e-01 -2.296345084905624390e-01 -6.489520519971847534e-02
1.327000000000000000e+03 4.001687526702880859e+00 -3.024713706970214844e+01 4.512844979763031006e-02 -5.502270460128784180e-01 -1.515295803546905518e-01 -2.151463031768798828e-01
1.328000000000000000e+03 2.236410379409790039e+00 -2.895806694030761719e+01 1.478208508342504501e-02 -6.532657146453857422e-01 -1.915450841188430786e-01 -1.626607477664947510e-01
1.329000000000000000e+03 4.584874629974365234e+00 -2.713403892517089844e+01 5.738104134798049927e-02 -4.291689693927764893e-01 -1.115363836288452148e-01 -2.897516191005706787e-01
1.330000000000000000e+03 3.291714429855346680e+00 2.315435218811035156e+01 -6.091454531997442245e-03 -7.137621939182281494e-02 -2.324030362069606781e-02 1.131254434585571289e-01
1.331000000000000000e+03 1.678269505500793457e+00 -1.333020210266113281e+01 2.260264009237289429e-03 3.472518874332308769e-03 1.719834865070879459e-03 7.823782041668891907e-03
1.332000000000000000e+03 1.759980797767639160e+00 2.042861938476562500e+01 -1.385444682091474533e-02 -5.083814263343811035e-02 -1.940777711570262909e-02 4.912881925702095032e-02
1.333000000000000000e+03 1.894428730010986328e+00 1.897063827514648438e+01 -1.446372270584106445e-02 -2.732215262949466705e-02 -1.253576297312974930e-02 3.550473600625991821e-02
1.334000000000000000e+03 5.544996261596679688e+00 1.823684883117675781e+01 -8.871111273765563965e-02 1.858694665133953094e-02 -2.103724889457225800e-02 2.619263902306556702e-02
1.335000000000000000e+03 1.789166331291198730e+00 -1.890091514587402344e+01 -4.271304979920387268e-02 -2.949558757245540619e-02 -2.166259102523326874e-02 -4.473619535565376282e-02
1.336000000000000000e+03 3.591224431991577148e+00 -1.784366035461425781e+01 -9.293301403522491455e-02 -3.798330947756767273e-02 -3.927489742636680603e-02 -2.288089878857135773e-02
1.337000000000000000e+03 5.433541774749755859e+00 1.348196125030517578e+01 -1.949067343957722187e-03 -6.279970053583383560e-03 -2.468711230903863907e-03 1.392131438478827477e-03
1.338000000000000000e+03 1.765719294548034668e+00 -2.174657249450683594e+01 -2.168867737054824829e-02 -1.705524921417236328e-01 -5.767235159873962402e-02 -1.281062960624694824e-01
1.339000000000000000e+03 6.794929027557373047e+00 -1.983721733093261719e+01 -3.287797570228576660e-01 -1.000350192189216614e-01 -1.286444365978240967e-01 -3.338656723499298096e-01
1.340000000000000000e+03 3.820158720016479492e+00 5.119688987731933594e+00 1.931144943227991462e-04 -2.556562540121376514e-04 -1.876253190857823938e-05 -8.559741399949416518e-05
1.341000000000000000e+03 3.139769077301025391e+00 7.787800312042236328e+00 8.900589891709387302e-04 1.102893438655883074e-04 3.001044970005750656e-04 -8.776165777817368507e-04
1.342000000000000000e+03 4.516132831573486328e+00 1.460650348663330078e+01 -3.338583512231707573e-03 -9.030544199049472809e-03 -3.710738383233547211e-03 -8.890343597158789635e-04
1.343000000000000000e+03 1.862730741500854492e+00 1.745929527282714844e+01 -1.044632028788328171e-02 -7.329064887017011642e-03 -5.332615692168474197e-03 1.591887138783931732e-02
1.344000000000000000e+03 3.484205484390258789e+00 1.993896675109863281e+01 -4.345349967479705811e-02 -1.458725426346063614e-02 -1.741222664713859558e-02 7.140009850263595581e-02
1.345000000000000000e+03 2.924542427062988281e+00 9.061312675476074219e+00 5.113991792313754559e-04 -3.593081491999328136e-04 4.562731555779464543e-05 -8.994088857434689999e-04
1.346000000000000000e+03 2.738445043563842773e+00 -4.530376434326171875e+00 -8.178204734576866031e-05 4.660697595681995153e-04 1.152863114839419723e-04 -1.628740283194929361e-04
1.347000000000000000e+03 1.929481625556945801e+00 -4.140708446502685547e+00 -3.500447564874775708e-05 -4.408029199112206697e-04 -1.427422248525545001e-04 -4.218842150294221938e-05
1.348000000000000000e+03 2.766824483871459961e+00 -1.575120258331298828e+01 -2.767962869256734848e-03 -1.701513864099979401e-02 -5.934930406510829926e-03 9.174915030598640442e-03
1.349000000000000000e+03 7.652544975280761719e+00 -9.274448394775390625e+00 -4.962580860592424870e-04 3.337788861244916916e-03 8.524592849425971508e-04 -7.403406198136508465e-04
1.350000000000000000e+03 3.686175346374511719e+00 -2.876912117004394531e+01 4.678728058934211731e-02 -5.307581424713134766e-01 -1.451912522315979004e-01 -2.318347096443176270e-01
1.351000000000000000e+03 4.805201053619384766e+00 -2.326364898681640625e+01 -6.586980819702148438e-02 -2.701533436775207520e-01 -1.008069515228271484e-01 -3.418999314308166504e-01
1.352000000000000000e+03 4.728277683258056641e+00 -3.751502227783203125e+01 6.955534219741821289e-02 -6.312708854675292969e-01 -1.685146689414978027e-01 -1.164061576128005981e-01
1.353000000000000000e+03 2.668983221054077148e+00 -7.837764263153076172e+00 5.924041615799069405e-04 1.471073192078620195e-04 2.218534355051815510e-04 8.459736127406358719e-04
1.354000000000000000e+03 2.663032531738281250e+00 -3.487027359008789062e+01 4.456049948930740356e-02 -8.607183098793029785e-01 -2.448473423719406128e-01 -8.079636842012405396e-02
1.355000000000000000e+03 6.560383796691894531e+00 -3.568168640136718750e+01 1.022999584674835205e-01 -3.351407051086425781e-01 -6.985222548246383667e-02 -1.294613033533096313e-01
1.356000000000000000e+03 4.353538990020751953e+00 -3.356810760498046875e+01 7.433950155973434448e-02 -5.983643531799316406e-01 -1.572074592113494873e-01 -1.576554328203201294e-01
1.357000000000000000e+03 2.744190931320190430e+00 -2.020929336547851562e+01 -7.161580026149749756e-02 -1.049290373921394348e-01 -5.296345055103302002e-02 -1.318499147891998291e-01
1.358000000000000000e+03 1.870764017105102539e+00 -2.318167495727539062e+01 -1.420494727790355682e-02 -2.715275585651397705e-01 -8.571974933147430420e-02 -1.636274456977844238e-01
1.359000000000000000e+03 3.269456148147583008e+00 -2.597490692138671875e+01 1.926146820187568665e-02 -4.329864978790283203e-01 -1.241175010800361633e-01 -2.606347799301147461e-01
1.360000000000000000e+03 2.734208345413208008e+00 -1.451614665985107422e+01 4.370455630123615265e-03 -1.245269458740949631e-02 -2.424671780318021774e-03 9.780760854482650757e-03
1.361000000000000000e+03 2.811148166656494141e+00 -1.328201484680175781e+01 6.292501464486122131e-03 -5.962612573057413101e-03 9.896663686959072948e-05 7.374755106866359711e-03
1.362000000000000000e+03 5.686500549316406250e+00 -9.566150665283203125e+00 1.713562873192131519e-03 -7.388676749542355537e-04 2.924085420090705156e-04 -6.657810299657285213e-04
1.363000000000000000e+03 2.909946441650390625e+00 1.032790946960449219e+01 1.432208111509680748e-03 -3.209130663890391588e-04 3.333885106258094311e-04 -1.861228141933679581e-03
1.364000000000000000e+03 3.270783901214599609e+00 1.441925621032714844e+01 -4.749220795929431915e-03 -5.294356029480695724e-03 -3.013073233887553215e-03 -8.045429713092744350e-04
1.365000000000000000e+03 6.838816165924072266e+00 1.666291236877441406e+01 -4.495409503579139709e-02 -6.606284994632005692e-03 -1.546811312437057495e-02 -2.335641533136367798e-02
1.366000000000000000e+03 5.602990150451660156e+00 1.672259521484375000e+01 -4.679231345653533936e-02 2.451034262776374817e-03 -1.330238394439220428e-02 1.621104544028639793e-03
1.367000000000000000e+03 4.315554141998291016e+00 1.702051734924316406e+01 -3.821331635117530823e-02 -6.808225880376994610e-04 -1.166824158281087875e-02 1.643154025077819824e-02
1.368000000000000000e+03 5.339282512664794922e+00 1.539819049835205078e+01 -1.684230566024780273e-02 -6.825477816164493561e-03 -7.100334856659173965e-03 -2.857988700270652771e-03
1.369000000000000000e+03 7.452195644378662109e+00 1.512370204925537109e+01 4.211419727653264999e-03 -1.900542643852531910e-03 6.932631367817521095e-04 6.866502575576305389e-03
1.370000000000000000e+03 3.995340824127197266e+00 -8.904564857482910156e+00 1.374200219288468361e-03 -5.281877820380032063e-04 2.538037369959056377e-04 7.156137726269662380e-04
1.371000000000000000e+03 9.412122726440429688e+00 -7.152662277221679688e+00 8.351102587766945362e-05 1.608593505807220936e-03 5.076313391327857971e-04 -7.435316219925880432e-04
1.372000000000000000e+03 8.597458839416503906e+00 -8.180533409118652344e+00 3.078032750636339188e-04 -1.846206258051097393e-03 -4.615209181793034077e-04 5.426113493740558624e-04
1.373000000000000000e+03 1.191439342498779297e+01 7.064230442047119141e+00 -3.870627842843532562e-04 -6.137280724942684174e-04 -3.002372395712882280e-04 -5.626556230708956718e-04
1.374000000000000000e+03 2.154711532592773438e+01 4.400055408477783203e+00 2.147696763277053833e-01 5.246922373771667480e-01 2.218385785818099976e-01 -4.953136742115020752e-01
1.375000000000000000e+03 1.587581539154052734e+01 1.937419700622558594e+01 -6.017481535673141479e-02 9.236104488372802734e-01 2.590306699275970459e-01 -3.514239788055419922e-01
1.376000000000000000e+03 2.184481239318847656e+01 7.001728415489196777e-01 2.600471675395965576e-01 1.554527729749679565e-01 1.246499791741371155e-01 -8.985410630702972412e-02
1.377000000000000000e+03 2.332593917846679688e+01 4.109170913696289062e+00 3.959202468395233154e-01 1.050333023071289062e+00 4.338759779930114746e-01 -7.449618577957153320e-01
1.378000000000000000e+03 1.878851509094238281e+01 1.804492568969726562e+01 5.031578242778778076e-03 1.440398454666137695e+00 4.336290061473846436e-01 -5.047022104263305664e-01
1.379000000000000000e+03 1.950855064392089844e+01 1.281570243835449219e+01 2.121135741472244263e-01 1.156531810760498047e+00 4.105936288833618164e-01 -5.612593889236450195e-01
1.380000000000000000e+03 1.694596290588378906e+01 -1.406418323516845703e+01 -4.744512140750885010e-01 -3.080749809741973877e-01 -2.347578555345535278e-01 -4.231937229633331299e-01
1.381000000000000000e+03 1.763289451599121094e+01 -1.291430854797363281e+01 -4.728370606899261475e-01 -2.377953082323074341e-01 -2.131897062063217163e-01 -4.618080854415893555e-01
1.382000000000000000e+03 1.546103000640869141e+01 -1.648762130737304688e+01 -4.695900082588195801e-01 -3.542150557041168213e-01 -2.471415251493453979e-01 -3.666802644729614258e-01
1.383000000000000000e+03 2.051968002319335938e+01 8.505721092224121094e+00 2.199627608060836792e-01 8.382040858268737793e-01 3.174500465393066406e-01 -6.201125979423522949e-01
1.384000000000000000e+03 2.106851959228515625e+01 1.170888137817382812e+01 2.309855967760086060e-01 1.383534431457519531e+00 4.843560159206390381e-01 -7.282237410545349121e-01
1.385000000000000000e+03 1.083732891082763672e+01 -1.963847541809082031e+01 -3.563063740730285645e-01 -6.531215310096740723e-01 -3.028283715248107910e-01 -3.844642639160156250e-01
1.386000000000000000e+03 1.379705333709716797e+01 -1.992901611328125000e+01 -1.860540509223937988e-01 -2.743196785449981689e-01 -1.381121128797531128e-01 -1.711895912885665894e-01
1.387000000000000000e+03 1.990372848510742188e+01 -2.265494108200073242e+00 3.068324178457260132e-02 -3.181676864624023438e-01 -8.624532818794250488e-02 1.881859749555587769e-01
1.388000000000000000e+03 1.251806735992431641e+01 2.184925842285156250e+01 -5.099043250083923340e-03 4.319862425327301025e-01 1.280661523342132568e-01 -1.966315209865570068e-01
1.389000000000000000e+03 1.150000953674316406e+01 2.101932144165039062e+01 -5.415436625480651855e-02 2.019346356391906738e-01 4.433408007025718689e-02 -1.245458498597145081e-01
1.390000000000000000e+03 5.537374496459960938e+00 -1.184195423126220703e+01 2.594245364889502525e-03 -9.262897656299173832e-04 5.003866972401738167e-04 -4.257175140082836151e-03
1.391000000000000000e+03 5.048449039459228516e+00 -4.023611450195312500e+01 2.077363058924674988e-02 -5.915991663932800293e-01 -1.712476611137390137e-01 -7.524047791957855225e-02
1.392000000000000000e+03 4.939291000366210938e+00 4.032411193847656250e+01 -1.026423647999763489e-02 -1.988014765083789825e-02 -9.043314494192600250e-03 3.835090249776840210e-02
1.393000000000000000e+03 3.379919433593750000e+01 -4.649796962738037109e+00 4.082035064697265625e+00 6.364868640899658203e+00 3.134071111679077148e+00 -5.488247871398925781e+00
1.394000000000000000e+03 3.294934844970703125e+01 -4.711878776550292969e+00 3.675874471664428711e+00 2.875688791275024414e+00 1.965468883514404297e+00 -3.569649219512939453e+00
1.395000000000000000e+03 3.432933807373046875e+01 -4.685405254364013672e+00 3.658984184265136719e+00 9.775630950927734375e+00 4.030384540557861328e+00 -6.265575408935546875e+00
1.396000000000000000e+03 3.467659759521484375e+01 -9.489506721496582031e+00 1.596395373344421387e+00 1.142129421234130859e+01 3.905306816101074219e+00 4.904168605804443359e+00
1.397000000000000000e+03 3.667383956909179688e+01 -7.916660308837890625e+00 6.640397071838378906e+00 1.798846626281738281e+01 7.388659000396728516e+00 -2.485059976577758789e+00
1.398000000000000000e+03 3.533705520629882812e+01 -8.768291473388671875e+00 1.568684816360473633e+00 1.659384727478027344e+01 5.448759555816650391e+00 3.818774223327636719e+00
1.399000000000000000e+03 3.781168365478515625e+01 -5.759841442108154297e+00 7.783380985260009766e+00 1.354900264739990234e+01 6.399714946746826172e+00 1.495156645774841309e+00
1.400000000000000000e+03 3.720721054077148438e+01 -5.221507072448730469e+00 6.300130844116210938e+00 1.557523536682128906e+01 6.562610149383544922e+00 1.979142427444458008e+00
1.401000000000000000e+03 3.332544708251953125e+01 -8.709383964538574219e+00 3.258756160736083984e+00 3.780314683914184570e+00 2.111721277236938477e+00 4.252282142639160156e+00
1.402000000000000000e+03 3.408511352539062500e+01 -9.159873008728027344e+00 2.599666833877563477e+00 8.270939826965332031e+00 3.261181831359863281e+00 5.453380584716796875e+00
1.403000000000000000e+03 3.232711791992187500e+01 -4.201642513275146484e+00 3.038558483123779297e+00 2.412634134292602539e+00 1.635357856750488281e+00 -2.998969316482543945e+00
1.404000000000000000e+03 3.017451667785644531e+01 -1.026735687255859375e+01 1.232715606689453125e+00 1.146804571151733398e+00 7.138560414314270020e-01 1.500118136405944824e+00
1.405000000000000000e+03 3.074738121032714844e+01 -1.018625450134277344e+01 1.478713631629943848e+00 1.483525991439819336e+00 8.886718750000000000e-01 1.852435827255249023e+00
1.406000000000000000e+03 2.945733451843261719e+01 -1.100451660156250000e+01 1.141259312629699707e+00 1.245871424674987793e+00 7.161391973495483398e-01 1.374413490295410156e+00
1.407000000000000000e+03 2.221773719787597656e+01 3.304556608200073242e+00 2.878109514713287354e-01 5.640506148338317871e-01 2.555584609508514404e-01 -4.767297804355621338e-01
1.408000000000000000e+03 2.554539680480957031e+01 -3.518352985382080078e+00 2.638629078865051270e-01 1.569318324327468872e-01 1.262384206056594849e-01 6.068537756800651550e-02
1.409000000000000000e+03 2.439929389953613281e+01 -2.659327268600463867e+00 3.405159711837768555e-01 1.741219758987426758e-01 1.543913781642913818e-01 7.301226258277893066e-02
1.410000000000000000e+03 1.986174964904785156e+01 -1.355276465415954590e+00 5.069414898753166199e-02 -3.676776587963104248e-01 -9.509505331516265869e-02 1.660083383321762085e-01
1.411000000000000000e+03 2.690155220031738281e+01 -3.682271480560302734e+00 4.449297189712524414e-01 2.316262573003768921e-01 2.029667943716049194e-01 -1.124466061592102051e-01
1.412000000000000000e+03 2.505587196350097656e+01 -2.782745838165283203e+00 4.107253253459930420e-01 2.190238535404205322e-01 1.889247596263885498e-01 1.119216252118349075e-02
1.413000000000000000e+03 2.706455230712890625e+01 -3.038901805877685547e+00 7.524961829185485840e-01 3.875359594821929932e-01 3.420096337795257568e-01 -3.034828901290893555e-01
1.414000000000000000e+03 8.503281593322753906e+00 4.176589488983154297e+00 2.033069613389670849e-04 -6.018566782586276531e-04 -1.195649092551320791e-04 -1.977659412659704685e-04
1.415000000000000000e+03 2.836998558044433594e+01 -3.299662351608276367e+00 1.035135388374328613e+00 5.578803420066833496e-01 4.779047071933746338e-01 -5.962737202644348145e-01
1.416000000000000000e+03 9.596864700317382812e+00 -3.133721351623535156e+00 -3.618887421907857060e-05 1.028717160806991160e-04 2.000485255848616362e-05 7.025044178590178490e-04
1.417000000000000000e+03 8.962343215942382812e+00 -3.290734529495239258e+00 4.767400241689756513e-05 -5.586018960457295179e-05 -2.455856247252086177e-06 -4.208043392281979322e-04
1.418000000000000000e+03 7.765290737152099609e+00 4.162217140197753906e+00 1.466994144720956683e-04 4.687871260102838278e-04 1.846459635999053717e-04 3.737004299182444811e-04
1.419000000000000000e+03 6.826959133148193359e+00 4.917325496673583984e+00 2.368927234783768654e-04 4.323863249737769365e-04 2.007837174460291862e-04 1.878947077784687281e-04
1.420000000000000000e+03 5.125250816345214844e+00 3.916918277740478516e+00 1.969554286915808916e-04 2.670650719664990902e-04 1.392061531078070402e-04 4.574878767016343772e-05
1.421000000000000000e+03 2.482399940490722656e+00 4.635439395904541016e+00 3.542172999004833400e-05 2.684737264644354582e-04 9.116863657254725695e-05 -1.994125632336363196e-04
1.422000000000000000e+03 3.896480321884155273e+00 3.337847709655761719e+00 2.516027016099542379e-04 -2.869958989322185516e-04 -1.061796046997187659e-05 -2.831091696862131357e-04
1.423000000000000000e+03 4.508269309997558594e+00 5.784488201141357422e+00 5.899873212911188602e-04 -8.065832844295073301e-06 1.745764457155019045e-04 -3.441807930357754230e-04
1.424000000000000000e+03 1.475582361221313477e+00 4.898476123809814453e+00 8.603099558968096972e-05 7.285440369741991162e-05 4.766562051372602582e-05 -1.313449029112234712e-04
1.425000000000000000e+03 1.708871603012084961e+00 3.322095155715942383e+00 1.924876123666763306e-04 2.250245743198320270e-04 1.252536458196118474e-04 -1.362508337479084730e-04
1.426000000000000000e+03 3.081143379211425781e+01 -4.072476863861083984e+00 1.929755806922912598e+00 9.689273834228515625e-01 8.696049451828002930e-01 -1.461097836494445801e+00
1.427000000000000000e+03 2.961498451232910156e+01 -3.473295211791992188e+00 1.519950509071350098e+00 8.018546104431152344e-01 6.965415477752685547e-01 -1.072222590446472168e+00
1.428000000000000000e+03 2.522796249389648438e+01 -2.163907289505004883e+00 5.829152464866638184e-01 3.372495174407958984e-01 2.760494351387023926e-01 -1.331824511289596558e-01
1.429000000000000000e+03 2.310772705078125000e+01 -2.300308942794799805e+00 2.297183275222778320e-01 8.241864293813705444e-02 9.364108741283416748e-02 1.705113351345062256e-01
1.430000000000000000e+03 2.773276710510253906e+01 -3.157210588455200195e+00 8.874753117561340332e-01 4.545149803161621094e-01 4.025970995426177979e-01 -4.447394609451293945e-01
1.431000000000000000e+03 2.639004707336425781e+01 -2.948067188262939453e+00 6.217243075370788574e-01 3.204665482044219971e-01 2.826572656631469727e-01 -1.840588897466659546e-01
1.432000000000000000e+03 7.474916458129882812e+00 -3.365175962448120117e+00 1.658280380070209503e-04 1.168865055660717189e-04 8.481436088914051652e-05 -5.328343249857425690e-04
1.433000000000000000e+03 1.074696731567382812e+01 -5.254724025726318359e+00 2.770129940472543240e-04 7.618436939083039761e-04 3.116570005659013987e-04 -5.234612617641687393e-04
1.434000000000000000e+03 3.134041976928710938e+01 -4.052019119262695312e+00 2.293910741806030273e+00 1.397553324699401855e+00 1.107439160346984863e+00 -1.921956419944763184e+00
1.435000000000000000e+03 3.022266387939453125e+01 -3.513908863067626953e+00 1.814634084701538086e+00 1.071814656257629395e+00 8.659346103668212891e-01 -1.401942849159240723e+00
1.436000000000000000e+03 1.095846557617187500e+01 3.370832443237304688e+00 -1.525029947515577078e-04 -9.868555207503959537e-05 -7.535656186519190669e-05 -3.031187807209789753e-04
1.437000000000000000e+03 1.160593128204345703e+01 5.003021240234375000e+00 2.998341806232929230e-04 4.795733839273452759e-04 2.338222693651914597e-04 8.206866332329809666e-04
1.438000000000000000e+03 1.074626827239990234e+01 4.959457874298095703e+00 -8.969916052592452615e-06 -5.240811733528971672e-04 -1.599153329152613878e-04 -5.923372227698564529e-04
1.439000000000000000e+03 2.680773162841796875e+01 -9.918219566345214844e+00 -9.177981317043304443e-02 2.267521917819976807e-01 4.049171507358551025e-02 1.029671430587768555e-01
1.440000000000000000e+03 9.821057319641113281e+00 -4.786513805389404297e+00 1.577483199071139097e-04 -1.103716786019504070e-03 -2.837905485648661852e-04 3.751033218577504158e-04
1.441000000000000000e+03 4.672632217407226562e+00 -3.634136199951171875e+00 -6.767250306438654661e-05 7.620658288942649961e-05 2.560224857006687671e-06 -3.471028758212924004e-04
1.442000000000000000e+03 6.043420791625976562e+00 -5.030510902404785156e+00 1.292434462811797857e-04 5.433700280264019966e-04 2.017840452026575804e-04 5.004552076570689678e-04
1.443000000000000000e+03 6.574044704437255859e+00 -4.548211574554443359e+00 3.929128579329699278e-04 -8.126624161377549171e-04 -1.259248674614354968e-04 -2.236816799268126488e-04
1.444000000000000000e+03 8.232099533081054688e+00 -3.381263494491577148e+00 -1.431189157301560044e-04 4.672979048336856067e-05 -2.891673648264259100e-05 4.721248405985534191e-04
1.445000000000000000e+03 3.730537176132202148e+00 -7.707296848297119141e+00 8.156076073646545410e-04 -2.437247603666037321e-04 1.715648540994152427e-04 -3.266293060733005404e-05
1.446000000000000000e+03 3.228060960769653320e+00 -3.974628686904907227e+00 -1.407255622325465083e-04 -1.184073043987154961e-04 -7.773985998937860131e-05 -1.847051898948848248e-04
1.447000000000000000e+03 3.472773075103759766e+00 -5.591766834259033203e+00 1.748116119415499270e-05 1.971192104974761605e-04 6.438011041609570384e-05 -3.192801668774336576e-04
1.448000000000000000e+03 2.571725368499755859e+00 -5.501570701599121094e+00 2.663557243067771196e-04 -1.582888507982715964e-04 3.242006278014741838e-05 3.617508045863360167e-04
1.449000000000000000e+03 2.338940429687500000e+01 -1.069071006774902344e+01 -2.601465582847595215e-01 2.360900789499282837e-01 -7.216939236968755722e-03 -2.896508872509002686e-01
1.450000000000000000e+03 2.424816894531250000e+01 -1.071639633178710938e+01 -1.602647304534912109e-01 2.624791860580444336e-01 3.066433779895305634e-02 -1.881973892450332642e-01
1.451000000000000000e+03 1.171224689483642578e+01 4.155796051025390625e+00 -3.045740886591374874e-04 -6.627768743783235550e-05 -1.112555328290909529e-04 -4.736403934657573700e-04
1.452000000000000000e+03 1.826996994018554688e+01 -1.184909439086914062e+01 -4.714524745941162109e-01 -1.597509086132049561e-01 -1.893610209226608276e-01 -4.907689690589904785e-01
1.453000000000000000e+03 2.741976547241210938e+01 -1.057083034515380859e+01 3.604690432548522949e-01 4.501393139362335205e-01 2.431825101375579834e-01 4.024959206581115723e-01
1.454000000000000000e+03 2.815171051025390625e+01 -1.051236724853515625e+01 5.429509282112121582e-01 5.702932476997375488e-01 3.339732587337493896e-01 6.218411326408386230e-01
1.455000000000000000e+03 1.869195938110351562e+01 -1.351772785186767578e+01 -3.594596982002258301e-01 5.367781966924667358e-03 -1.062275767326354980e-01 -3.489500284194946289e-01
1.456000000000000000e+03 2.510308837890625000e+01 -1.066856002807617188e+01 -6.026271730661392212e-02 2.875761091709136963e-01 6.819402426481246948e-02 -6.688417494297027588e-02
1.457000000000000000e+03 2.191123008728027344e+01 -1.063245296478271484e+01 -3.806579113006591797e-01 1.883860677480697632e-01 -5.768155679106712341e-02 -4.055202305316925049e-01
1.458000000000000000e+03 2.106590843200683594e+01 -1.069525718688964844e+01 -4.197484254837036133e-01 1.507759541273117065e-01 -8.069173991680145264e-02 -4.433796107769012451e-01
1.459000000000000000e+03 2.263893318176269531e+01 -1.056711006164550781e+01 -3.473291099071502686e-01 2.042294293642044067e-01 -4.292989894747734070e-02 -3.622330725193023682e-01
1.460000000000000000e+03 1.885266304016113281e+01 -1.090032863616943359e+01 -4.675115346908569336e-01 -9.209941327571868896e-02 -1.678832918405532837e-01 -5.025717020034790039e-01
1.461000000000000000e+03 1.939027404785156250e+01 -1.007163906097412109e+01 -4.918536841869354248e-01 -1.568444073200225830e-02 -1.522614359855651855e-01 -4.854668676853179932e-01
1.462000000000000000e+03 1.007062911987304688e+01 1.008667469024658203e+01 -6.032909150235354900e-04 3.477967111393809319e-03 8.624028414487838745e-04 7.786926580592989922e-04
1.463000000000000000e+03 9.847430229187011719e+00 8.583909988403320312e+00 -4.480101924855262041e-04 2.312087686732411385e-03 5.592232337221503258e-04 4.908297560177743435e-04
1.464000000000000000e+03 3.040775775909423828e+00 1.162230777740478516e+01 1.178159145638346672e-03 -1.889428473077714443e-03 -2.133808011421933770e-04 -1.663741422817111015e-03
1.465000000000000000e+03 6.646032333374023438e+00 1.827302551269531250e+01 -1.343095898628234863e-01 3.621061146259307861e-02 -2.942969463765621185e-02 1.277801580727100372e-02
1.466000000000000000e+03 3.076971292495727539e+00 1.725248718261718750e+01 -2.489519491791725159e-02 -6.431492511183023453e-03 -9.398005902767181396e-03 1.985267363488674164e-02
1.467000000000000000e+03 9.926993370056152344e+00 4.968857288360595703e+00 -3.688001015689224005e-05 7.222921121865510941e-04 2.056236407952383161e-04 7.610167958773672581e-04
1.468000000000000000e+03 4.231360912322998047e+00 1.127023506164550781e+01 1.512609887868165970e-03 -2.668007509782910347e-03 -3.466193156782537699e-04 -1.061054063029587269e-03
1.469000000000000000e+03 7.993790149688720703e+00 -2.534753608703613281e+01 9.822456538677215576e-02 -2.999592125415802002e-01 -6.052039191126823425e-02 -3.601614534854888916e-01
1.470000000000000000e+03 7.717051982879638672e+00 -2.306601333618164062e+01 -5.948116630315780640e-02 -3.258584439754486084e-01 -1.156018823385238647e-01 -4.426389336585998535e-01
1.471000000000000000e+03 2.853246212005615234e+00 -1.900677871704101562e+01 -7.201010733842849731e-02 -4.934250935912132263e-02 -3.640578687191009521e-02 -8.658266812562942505e-02
1.472000000000000000e+03 6.090233325958251953e+00 -1.855426788330078125e+01 -3.495309054851531982e-01 -9.614513255655765533e-03 -1.077436208724975586e-01 -1.404590904712677002e-01
1.473000000000000000e+03 9.208498001098632812e+00 -4.096899986267089844e+00 -2.676385629456490278e-04 7.492086733691394329e-04 1.444710360374301672e-04 5.114383529871702194e-04
1.474000000000000000e+03 7.576012134552001953e+00 -2.112284851074218750e+01 -2.814386785030364990e-01 -2.451905161142349243e-01 -1.579887568950653076e-01 -4.571983814239501953e-01
1.475000000000000000e+03 2.198571395874023438e+01 7.574398040771484375e+00 2.609286308288574219e-01 1.118109822273254395e+00 4.137115478515625000e-01 -7.917599678039550781e-01
1.476000000000000000e+03 2.073807716369628906e+01 -1.486024856567382812e-01 1.318271607160568237e-01 -1.900804638862609863e-01 -1.747599244117736816e-02 8.187440782785415649e-02
1.477000000000000000e+03 9.147142410278320312e+00 9.512405395507812500e+00 3.119833418168127537e-04 -1.609924365766346455e-03 -3.893823013640940189e-04 1.179701765067875385e-03
1.478000000000000000e+03 1.253215312957763672e+01 5.033418178558349609e+00 -3.950216632802039385e-04 -7.298187119886279106e-05 -1.404010690748691559e-04 -4.926827969029545784e-04
1.479000000000000000e+03 2.096442985534667969e+01 9.384754896163940430e-01 1.516682654619216919e-01 -7.532738149166107178e-02 2.290226332843303680e-02 -3.620247542858123779e-02
1.480000000000000000e+03 8.158192634582519531e+00 -5.231468677520751953e+00 2.908330643549561501e-04 -1.018096460029482841e-03 -2.181790041504427791e-04 3.654499596450477839e-04
1.481000000000000000e+03 8.425423622131347656e+00 1.210647964477539062e+01 -2.529716119170188904e-03 5.425297655165195465e-03 8.686744258739054203e-04 -2.628211805131286383e-04
1.482000000000000000e+03 5.832638740539550781e+00 1.161536312103271484e+01 7.455043378286063671e-04 -3.607211401686072350e-03 -8.585121249780058861e-04 1.872012275271117687e-03
1.483000000000000000e+03 1.344096851348876953e+01 2.099380874633789062e+01 -2.864893525838851929e-02 5.204237103462219238e-01 1.475324332714080811e-01 -2.512242496013641357e-01
1.484000000000000000e+03 7.511214447021484375e+01 1.304022502899169922e+01 -5.045651341788470745e-04 7.780559539794921875e+00 2.334016561508178711e+00 3.693324327468872070e-01
1.485000000000000000e+03 7.542233276367187500e+01 -1.187759041786193848e+00 6.162084639072418213e-02 7.051483631134033203e+00 2.133931159973144531e+00 1.753808259963989258e-01
1.486000000000000000e+03 7.415482330322265625e+01 -9.487449645996093750e+00 1.033898815512657166e-01 7.035315513610839844e+00 2.141611576080322266e+00 -5.348070338368415833e-02
1.487000000000000000e+03 7.555132293701171875e+01 -1.630943107604980469e+01 3.849396482110023499e-02 7.085841178894042969e+00 2.137300491333007812e+00 -1.870719641447067261e-01
1.488000000000000000e+03 7.413889312744140625e+01 -1.228178691864013672e+01 8.743115514516830444e-02 7.068858623504638672e+00 2.146886825561523438e+00 -1.376138776540756226e-01
1.489000000000000000e+03 7.672238159179687500e+01 -1.230683231353759766e+01 3.048895671963691711e-02 6.895641803741455078e+00 2.077839136123657227e+00 -8.750655502080917358e-02
1.490000000000000000e+03 7.541555786132812500e+01 -1.089240646362304688e+01 6.164529174566268921e-02 6.966764926910400391e+00 2.108523130416870117e+00 -8.155509084463119507e-02
1.491000000000000000e+03 7.671971130371093750e+01 -6.748143672943115234e+00 3.732693195343017578e-02 6.848611831665039062e+00 2.065781593322753906e+00 2.138365246355533600e-02
1.492000000000000000e+03 7.543376159667968750e+01 -6.721252918243408203e+00 6.833145022392272949e-02 6.948878765106201172e+00 2.105163097381591797e+00 2.924124337732791901e-02
1.493000000000000000e+03 7.416151428222656250e+01 -5.360241889953613281e+00 1.058106124401092529e-01 7.044299602508544922e+00 2.145033121109008789e+00 8.056188374757766724e-02
1.494000000000000000e+03 7.669058227539062500e+01 1.585081577301025391e+00 2.866810560226440430e-02 7.075330734252929688e+00 2.131199598312377930e+00 1.822295486927032471e-01
1.495000000000000000e+03 7.538732910156250000e+01 1.570636391639709473e+00 5.239180102944374084e-02 7.153927326202392578e+00 2.161895751953125000e+00 2.392380088567733765e-01
1.496000000000000000e+03 7.171519470214843750e+01 3.172590827941894531e+01 -1.153825074434280396e-01 8.416693687438964844e+00 2.490393400192260742e+00 2.489634007215499878e-01
1.497000000000000000e+03 7.514954376220703125e+01 3.084700775146484375e+01 -4.818099737167358398e-02 8.654132843017578125e+00 2.581785678863525391e+00 1.761836111545562744e-01
1.498000000000000000e+03 7.542436981201171875e+01 -8.100421905517578125e+00 6.779702752828598022e-02 6.946260452270507812e+00 2.104217290878295898e+00 -7.962641306221485138e-03
1.499000000000000000e+03 7.543780517578125000e+01 -5.338432312011718750e+00 6.752321869134902954e-02 6.960846424102783203e+00 2.108510971069335938e+00 6.686665862798690796e-02
1.500000000000000000e+03 7.555995178222656250e+01 -1.900351524353027344e+01 2.232829481363296509e-02 7.183955669403076172e+00 2.161885261535644531e+00 -2.209221720695495605e-01
1.501000000000000000e+03 7.539403533935546875e+01 -2.318420982360839844e+01 1.775635522790253162e-03 7.362555980682373047e+00 2.209299325942993164e+00 -2.494959086179733276e-01
1.502000000000000000e+03 7.657752227783203125e+01 8.605806350708007812e+00 1.131924986839294434e-02 7.482134819030761719e+00 2.248036146163940430e+00 2.656378448009490967e-01
1.503000000000000000e+03 7.526255798339843750e+01 7.166585445404052734e+00 2.773840166628360748e-02 7.436235904693603516e+00 2.239192247390747070e+00 3.327957987785339355e-01
1.504000000000000000e+03 7.667502593994140625e+01 2.979831933975219727e+00 2.559055760502815247e-02 7.144710063934326172e+00 2.151090145111083984e+00 2.038042843341827393e-01
1.505000000000000000e+03 7.405752563476562500e+01 2.878971815109252930e+00 7.384451478719711304e-02 7.274464130401611328e+00 2.204492568969726562e+00 3.224494457244873047e-01
1.506000000000000000e+03 7.530327606201171875e+01 5.745768547058105469e+00 3.412532061338424683e-02 7.357260227203369141e+00 2.217415571212768555e+00 3.137608766555786133e-01
1.507000000000000000e+03 7.533689880371093750e+01 4.350186824798583984e+00 4.057899862527847290e-02 7.284009456634521484e+00 2.197376489639282227e+00 2.920231521129608154e-01
1.508000000000000000e+03 7.556993865966796875e+01 -1.765452384948730469e+01 3.145384788513183594e-02 7.132477760314941406e+00 2.149179458618164062e+00 -2.068086266517639160e-01
1.509000000000000000e+03 7.552342224121093750e+01 -2.036171722412109375e+01 1.632515713572502136e-02 7.239611625671386719e+00 2.176780939102172852e+00 -2.335984259843826294e-01
1.510000000000000000e+03 7.679531860351562500e+01 -1.775759887695312500e+01 1.668254286050796509e-02 7.067802906036376953e+00 2.125345706939697266e+00 -1.592886894941329956e-01
1.511000000000000000e+03 7.551092529296875000e+01 -1.497209358215332031e+01 4.479560256004333496e-02 7.047646999359130859e+00 2.127732753753662109e+00 -1.658308953046798706e-01
1.512000000000000000e+03 7.520899963378906250e+01 1.599780464172363281e+01 -1.309949532151222229e-02 7.957169055938720703e+00 2.383220911026000977e+00 3.588443398475646973e-01
1.513000000000000000e+03 7.474609375000000000e+01 -2.986313819885253906e+01 -3.310102969408035278e-02 7.629808902740478516e+00 2.279012203216552734e+00 -2.304945439100265503e-01
1.514000000000000000e+03 7.414175415039062500e+01 -2.302788925170898438e+01 3.361743176355957985e-03 7.395881175994873047e+00 2.219772815704345703e+00 -2.994400858879089355e-01
1.515000000000000000e+03 7.515354156494140625e+01 1.005463409423828125e+01 1.350783742964267731e-02 7.604991436004638672e+00 2.285549879074096680e+00 3.622423708438873291e-01
1.516000000000000000e+03 7.386100006103515625e+01 8.521490097045898438e+00 3.234100714325904846e-02 7.547561645507812500e+00 2.273970842361450195e+00 4.205466210842132568e-01
1.517000000000000000e+03 7.665431976318359375e+01 1.721166229248046875e+01 -8.136498741805553436e-03 8.060893058776855469e+00 2.415826797485351562e+00 2.605935633182525635e-01
1.518000000000000000e+03 7.525838470458984375e+01 1.751225662231445312e+01 -1.704609207808971405e-02 8.046444892883300781e+00 2.408819675445556641e+00 3.453439176082611084e-01
1.519000000000000000e+03 7.563060760498046875e+01 1.995541000366210938e+01 -2.275739423930644989e-02 8.202655792236328125e+00 2.453969478607177734e+00 3.028796613216400146e-01
1.520000000000000000e+03 7.388524627685546875e+01 1.766477203369140625e+01 -2.889146469533443451e-02 8.027110099792480469e+00 2.399465560913085938e+00 4.173716008663177490e-01
1.521000000000000000e+03 7.543206787109375000e+01 2.124434852600097656e+01 -2.932372502982616425e-02 8.262267112731933594e+00 2.469882965087890625e+00 3.015818893909454346e-01
1.522000000000000000e+03 7.395536041259765625e+01 -2.600577163696289062e+01 -2.276304550468921661e-02 7.511380672454833984e+00 2.246585369110107422e+00 -2.961305081844329834e-01
1.523000000000000000e+03 7.664474487304687500e+01 -2.616170120239257812e+01 -7.879549637436866760e-03 7.462336540222167969e+00 2.236337184906005859e+00 -1.854337751865386963e-01
1.524000000000000000e+03 7.533339691162109375e+01 -2.463387489318847656e+01 -7.454854436218738556e-03 7.425198078155517578e+00 2.225322961807250977e+00 -2.491826713085174561e-01
1.525000000000000000e+03 7.336114501953125000e+01 2.658943176269531250e+01 -5.803551524877548218e-02 8.380483627319335938e+00 2.496734380722045898e+00 3.081016540527343750e-01
1.526000000000000000e+03 7.380345916748046875e+01 2.269785690307617188e+01 -5.355597287416458130e-02 8.258840560913085938e+00 2.461585283279418945e+00 3.644437789916992188e-01
1.527000000000000000e+03 7.484123229980468750e+01 2.652857017517089844e+01 -4.125937819480895996e-02 8.471632003784179688e+00 2.529111862182617188e+00 2.634561657905578613e-01
1.528000000000000000e+03 7.480010986328125000e+01 2.810892677307128906e+01 -4.988177493214607239e-02 8.530230522155761719e+00 2.544104814529418945e+00 2.401728034019470215e-01
1.529000000000000000e+03 7.604660797119140625e+01 2.969281005859375000e+01 -3.413116931915283203e-02 8.693315505981445312e+00 2.597755432128906250e+00 1.668125092983245850e-01
1.530000000000000000e+03 7.477120208740234375e+01 2.957958793640136719e+01 -5.634158849716186523e-02 8.566232681274414062e+00 2.552967309951782227e+00 2.140318155288696289e-01
1.531000000000000000e+03 7.383943939208984375e+01 -3.581483459472656250e+01 -8.850243687629699707e-02 7.785944938659667969e+00 2.309232711791992188e+00 -1.698983311653137207e-01
1.532000000000000000e+03 7.477513885498046875e+01 3.485313796997070312e+01 -4.736375063657760620e-02 8.727356910705566406e+00 2.603997945785522461e+00 1.108676791191101074e-01
1.533000000000000000e+03 7.672468566894531250e+01 -3.152733993530273438e+01 -2.266306802630424500e-02 7.690713405609130859e+00 2.300415039062500000e+00 -1.449221223592758179e-01
1.534000000000000000e+03 7.530372619628906250e+01 -2.879711914062500000e+01 -2.315686829388141632e-02 7.592422962188720703e+00 2.270779848098754883e+00 -2.232508063316345215e-01
1.535000000000000000e+03 7.481271362304687500e+01 -3.203750610351562500e+01 -4.487078264355659485e-02 7.698834419250488281e+00 2.296189069747924805e+00 -2.029062211513519287e-01
1.536000000000000000e+03 3.100388765335083008e+00 1.584797096252441406e+01 -1.321598235517740250e-02 -4.413236863911151886e-03 -5.288765765726566315e-03 4.354008939117193222e-03
1.537000000000000000e+03 2.909449100494384766e+00 -1.693726158142089844e+01 -2.719573490321636200e-02 -2.728000842034816742e-02 -1.634272374212741852e-02 -6.278811022639274597e-03
1.538000000000000000e+03 3.694338798522949219e+00 -1.383776092529296875e+01 6.576262414455413818e-03 -1.966129429638385773e-02 -3.925509750843048096e-03 3.681541187688708305e-03
1.539000000000000000e+03 5.439425945281982422e+00 1.963060188293457031e+01 -1.043195798993110657e-01 2.707511559128761292e-02 -2.317333966493606567e-02 7.374970614910125732e-02
1.540000000000000000e+03 4.535814285278320312e+00 -1.674638175964355469e+01 -3.517595306038856506e-02 -3.507020696997642517e-02 -2.107384800910949707e-02 -4.977026488631963730e-03
1.541000000000000000e+03 5.212259292602539062e+00 2.098428535461425781e+01 -7.320415973663330078e-02 9.100166149437427521e-03 -1.923119649291038513e-02 1.165917292237281799e-01
1.542000000000000000e+03 4.367951393127441406e+00 1.836877059936523438e+01 -6.114323809742927551e-02 7.663454394787549973e-03 -1.604393497109413147e-02 3.991176933050155640e-02
1.543000000000000000e+03 4.667301654815673828e+00 2.466754150390625000e+01 1.613831333816051483e-02 -2.413870394229888916e-02 -2.400117227807641029e-03 1.220346987247467041e-01
1.544000000000000000e+03 4.586387157440185547e+00 2.992379951477050781e+01 3.624896705150604248e-02 -4.872893914580345154e-02 -3.743991954252123833e-03 6.763529032468795776e-02
1.545000000000000000e+03 6.872745990753173828e+00 -2.349311065673828125e+01 -3.941876813769340515e-02 -3.029825687408447266e-01 -1.027204021811485291e-01 -4.147449433803558350e-01
1.546000000000000000e+03 3.272323131561279297e+00 1.298587703704833984e+01 8.923669229261577129e-04 -3.605773672461509705e-03 -8.140219724737107754e-04 -2.506698016077280045e-03
1.547000000000000000e+03 4.619451045989990234e+00 -1.285935878753662109e+01 8.675559423863887787e-03 -1.090632192790508270e-02 -6.692288443446159363e-04 -4.386159591376781464e-03
1.548000000000000000e+03 2.818201780319213867e+00 -9.118089675903320312e+00 1.419734442606568336e-03 -3.167224931530654430e-04 3.309035964775830507e-04 4.274236271157860756e-04
1.549000000000000000e+03 2.960092544555664062e+00 -1.045165443420410156e+01 2.924933563917875290e-03 -1.804336672648787498e-03 3.361791023053228855e-04 2.498014597222208977e-03
1.550000000000000000e+03 5.129333496093750000e+00 -1.951350402832031250e+01 -2.022526115179061890e-01 -7.925373315811157227e-02 -8.445190638303756714e-02 -2.118687629699707031e-01
1.551000000000000000e+03 3.089543104171752930e+00 -2.297030639648437500e+01 -3.372619301080703735e-02 -2.622935771942138672e-01 -8.880592882633209229e-02 -2.365282773971557617e-01
1.552000000000000000e+03 4.772428512573242188e+00 -2.113931083679199219e+01 -1.391599923372268677e-01 -1.650216877460479736e-01 -9.125450998544692993e-02 -2.896344065666198730e-01
1.553000000000000000e+03 5.516048431396484375e+00 2.298871612548828125e+01 -1.132771279662847519e-02 8.951215073466300964e-03 -7.129491423256695271e-04 1.347586512565612793e-01
1.554000000000000000e+03 4.812317371368408203e+00 2.622407722473144531e+01 2.986758761107921600e-02 -1.971569657325744629e-02 3.045567311346530914e-03 1.107669472694396973e-01
1.555000000000000000e+03 3.253165006637573242e+00 -2.449394607543945312e+01 -1.477201376110315323e-02 -3.461826443672180176e-01 -1.082863956689834595e-01 -2.672904729843139648e-01
1.556000000000000000e+03 4.975959777832031250e+00 -2.219243431091308594e+01 -1.058436632156372070e-01 -2.134948670864105225e-01 -9.580155462026596069e-02 -3.232387900352478027e-01
1.557000000000000000e+03 5.766553401947021484e+00 -2.462487220764160156e+01 -2.829400356858968735e-03 -3.313274085521697998e-01 -1.002470478415489197e-01 -3.807002902030944824e-01
1.558000000000000000e+03 4.250833988189697266e+00 -3.184634017944335938e+01 6.798326224088668823e-02 -5.567184686660766602e-01 -1.466205567121505737e-01 -1.897330731153488159e-01
1.559000000000000000e+03 5.105679988861083984e+00 -2.839649581909179688e+01 6.415073573589324951e-02 -4.222551286220550537e-01 -1.074313223361968994e-01 -2.778879106044769287e-01
1.560000000000000000e+03 5.088447570800781250e+00 9.880252838134765625e+00 1.201169798150658607e-03 -1.413494581356644630e-03 -6.369743641698732972e-05 -3.298531810287386179e-04
1.561000000000000000e+03 5.683922290802001953e+00 3.340958786010742188e+01 3.425869345664978027e-02 8.434292674064636230e-02 3.558048605918884277e-02 3.102766722440719604e-02
1.562000000000000000e+03 6.271757602691650391e+00 3.615667343139648438e+01 2.806663885712623596e-02 1.924822926521301270e-01 6.616467982530593872e-02 1.314018666744232178e-02
1.563000000000000000e+03 4.726237773895263672e+00 3.633805084228515625e+01 4.816602915525436401e-02 6.238509900867938995e-03 1.632136106491088867e-02 3.816244751214981079e-02
1.564000000000000000e+03 3.014140844345092773e+00 -1.188361835479736328e+01 4.940187092870473862e-03 -3.730097087100148201e-03 3.630268911365419626e-04 3.728778101503849030e-03
1.565000000000000000e+03 5.990235328674316406e+00 1.005534458160400391e+01 9.983391501009464264e-04 -2.684985287487506866e-03 -5.059938412159681320e-04 1.674537546932697296e-03
1.566000000000000000e+03 3.554694414138793945e+00 -6.598039150238037109e+00 4.564174159895628691e-04 1.214394887938397005e-05 1.405684015480801463e-04 5.063481512479484081e-04
1.567000000000000000e+03 7.845242023468017578e+00 -3.119024467468261719e+01 1.478404849767684937e-01 -1.952959895133972168e-01 -1.423665136098861694e-02 -1.990666985511779785e-01
1.568000000000000000e+03 5.632556915283203125e+00 -2.989723587036132812e+01 8.740324527025222778e-02 -4.005276858806610107e-01 -9.393733739852905273e-02 -2.499211877584457397e-01
1.569000000000000000e+03 6.037059307098388672e+00 -3.162689781188964844e+01 9.743258357048034668e-02 -3.770084679126739502e-01 -8.387276530265808105e-02 -2.128240466117858887e-01
1.570000000000000000e+03 4.435174942016601562e+00 2.872552680969238281e+01 3.233867883682250977e-02 -5.274190381169319153e-02 -6.120967213064432144e-03 8.723264187574386597e-02
1.571000000000000000e+03 4.450140476226806641e+00 3.519725036621093750e+01 2.718836069107055664e-02 -5.181850865483283997e-02 -7.389043923467397690e-03 3.376082703471183777e-02
1.572000000000000000e+03 5.139561176300048828e+00 3.217681884765625000e+01 4.455920308828353882e-02 3.894715756177902222e-02 2.505190856754779816e-02 4.133022576570510864e-02
1.573000000000000000e+03 4.257160186767578125e+00 8.169074058532714844e+00 4.895211313851177692e-04 -9.093295666389167309e-04 -1.259425334865227342e-04 -1.515390613349154592e-04
1.574000000000000000e+03 3.446603059768676758e+00 -4.721190929412841797e+00 3.547453088685870171e-04 -1.375802239635959268e-04 6.514952110592275858e-05 2.986458130180835724e-04
1.575000000000000000e+03 2.913272619247436523e+00 5.788964271545410156e+00 4.400089965201914310e-04 5.413532107922947034e-06 1.336267596343532205e-04 -4.307637573219835758e-04
1.576000000000000000e+03 5.307501792907714844e+00 6.285954475402832031e+00 3.522272745613008738e-04 -7.872633868828415871e-04 -1.305108307860791683e-04 1.573011395521461964e-04
1.577000000000000000e+03 7.764492511749267578e+00 -7.610796451568603516e+00 -3.527098451741039753e-04 2.054814947769045830e-03 5.106315365992486477e-04 -2.187972677347715944e-05
1.578000000000000000e+03 1.471302986145019531e+01 -1.767393684387207031e+01 -4.619831442832946777e-01 -3.652025163173675537e-01 -2.481556981801986694e-01 -2.911934554576873779e-01
1.579000000000000000e+03 1.737321853637695312e+01 -1.592870616912841797e+01 -3.100238740444183350e-01 -5.580386519432067871e-02 -1.097483187913894653e-01 -2.088654935359954834e-01
1.580000000000000000e+03 5.145900249481201172e+00 -8.475047111511230469e+00 1.370512531138956547e-03 -8.857158827595412731e-04 1.454390003345906734e-04 -4.467862891033291817e-04
1.581000000000000000e+03 6.482359409332275391e+00 1.975431632995605469e+01 -1.455371528863906860e-01 3.946518152952194214e-02 -3.182158991694450378e-02 8.397815376520156860e-02
1.582000000000000000e+03 4.431834697723388672e+00 1.958055305480957031e+01 -6.665254384279251099e-02 5.904832854866981506e-03 -1.822431385517120361e-02 6.943330913782119751e-02
1.583000000000000000e+03 1.108794879913330078e+01 -2.127151298522949219e+01 -9.774255752563476562e-02 -4.576846957206726074e-01 -1.666281819343566895e-01 -3.500722348690032959e-01
1.584000000000000000e+03 2.136783790588378906e+01 1.028748703002929688e+01 2.489710897207260132e-01 1.295239329338073730e+00 4.632631242275238037e-01 -7.640241384506225586e-01
1.585000000000000000e+03 7.197792053222656250e+00 -1.236064624786376953e+01 -2.412567613646388054e-03 2.237497596070170403e-03 -5.252102346275933087e-05 2.430352382361888885e-03
1.586000000000000000e+03 6.539908885955810547e+00 -1.052340412139892578e+01 1.572402310557663441e-03 -1.612899824976921082e-03 -1.214925032400060445e-05 -2.886903472244739532e-03
1.587000000000000000e+03 8.449015617370605469e+00 2.179079055786132812e+01 -1.953150890767574310e-02 4.881617799401283264e-02 8.785400539636611938e-03 8.480924367904663086e-02
1.588000000000000000e+03 2.277960395812988281e+01 5.114267349243164062e+00 3.349001109600067139e-01 1.037767291069030762e+00 4.118002355098724365e-01 -7.561547160148620605e-01
1.589000000000000000e+03 2.234366607666015625e+01 6.290929317474365234e+00 2.807584106922149658e-01 1.053587794303894043e+00 4.003038704395294189e-01 -7.779832482337951660e-01
1.590000000000000000e+03 4.316065311431884766e+00 -1.021138572692871094e+01 3.325651399791240692e-03 -2.057902282103896141e-03 3.803247527685016394e-04 -5.365276010707020760e-04
1.591000000000000000e+03 1.671119880676269531e+01 -1.722916603088378906e+01 -2.721422314643859863e-01 -3.730481117963790894e-02 -9.283411502838134766e-02 -1.294055283069610596e-01
1.592000000000000000e+03 2.018189811706542969e+01 -1.047536945343017578e+01 -4.680408835411071777e-01 7.827567309141159058e-02 -1.169295608997344971e-01 -4.796579778194427490e-01
1.593000000000000000e+03 1.795456695556640625e+01 2.043929672241210938e+01 -3.010750934481620789e-02 1.426447510719299316e+00 4.189020097255706787e-01 -4.700567722320556641e-01
1.594000000000000000e+03 1.723510742187500000e+01 1.853285408020019531e+01 -1.823074743151664734e-02 1.145319581031799316e+00 3.381266593933105469e-01 -4.105664491653442383e-01
1.595000000000000000e+03 2.234297752380371094e+01 1.651489019393920898e+00 3.535389304161071777e-01 4.058137536048889160e-01 2.278058081865310669e-01 -2.994047999382019043e-01
1.596000000000000000e+03 2.038032531738281250e+01 1.634153556823730469e+01 6.783524155616760254e-02 1.678622364997863770e+00 5.239372849464416504e-01 -6.216260194778442383e-01
1.597000000000000000e+03 1.460453796386718750e+01 2.018005752563476562e+01 -5.839890986680984497e-02 7.062607407569885254e-01 1.943585425615310669e-01 -3.101844191551208496e-01
1.598000000000000000e+03 1.402528572082519531e+01 -1.875778007507324219e+01 -3.322491943836212158e-01 -3.609778583049774170e-01 -2.079681158065795898e-01 -2.327801734209060669e-01
1.599000000000000000e+03 1.510057353973388672e+01 -1.967631149291992188e+01 -1.432095915079116821e-01 -9.444306045770645142e-02 -7.129579782485961914e-02 -7.120855897665023804e-02
1.600000000000000000e+03 2.435037612915039062e+01 8.454543113708496094e+00 2.971646189689636230e-01 1.998344182968139648e+00 6.886526346206665039e-01 -1.106726050376892090e+00
1.601000000000000000e+03 3.341857910156250000e+01 -3.736846208572387695e+00 3.061880588531494141e+00 5.881816387176513672e+00 2.683109045028686523e+00 -4.586395263671875000e+00
1.602000000000000000e+03 3.369934463500976562e+01 -9.130177497863769531e+00 2.857509136199951172e+00 6.280981540679931641e+00 2.741547107696533203e+00 5.048490047454833984e+00
1.603000000000000000e+03 3.425740051269531250e+01 -9.453672409057617188e+00 2.103284358978271484e+00 9.266294479370117188e+00 3.410873413085937500e+00 5.188791275024414062e+00
1.604000000000000000e+03 3.472729110717773438e+01 -4.480605602264404297e+00 2.684811830520629883e+00 1.260835170745849609e+01 4.587948799133300781e+00 -5.623692512512207031e+00
1.605000000000000000e+03 3.528501129150390625e+01 -9.141148567199707031e+00 1.290484547615051270e+00 1.494849967956542969e+01 4.871695041656494141e+00 3.876722097396850586e+00
1.606000000000000000e+03 3.328029632568359375e+01 -4.863910198211669922e+00 4.105102062225341797e+00 3.370601415634155273e+00 2.242711067199707031e+00 -4.125542163848876953e+00
1.607000000000000000e+03 3.558884429931640625e+01 -8.741351127624511719e+00 1.643319487571716309e+00 1.759456634521484375e+01 5.771365642547607422e+00 2.701838970184326172e+00
1.608000000000000000e+03 3.607534027099609375e+01 -8.624683380126953125e+00 2.434277296066284180e+00 1.848251152038574219e+01 6.275036811828613281e+00 3.639228940010070801e-01
1.609000000000000000e+03 3.751446533203125000e+01 -6.006635189056396484e+00 8.813729286193847656e+00 1.417446804046630859e+01 6.896459102630615234e+00 1.386923789978027344e+00
1.610000000000000000e+03 3.753530883789062500e+01 -6.893296241760253906e+00 9.609702110290527344e+00 1.389785289764404297e+01 7.052266597747802734e+00 -6.504392027854919434e-01
1.611000000000000000e+03 3.739833450317382812e+01 -6.682102680206298828e+00 1.010861968994140625e+01 1.424082851409912109e+01 7.304834365844726562e+00 -1.094282045960426331e-01
1.612000000000000000e+03 3.618580627441406250e+01 -4.928123950958251953e+00 3.596191406250000000e+00 1.858255577087402344e+01 6.653624534606933594e+00 1.350777596235275269e-01
1.613000000000000000e+03 3.689767074584960938e+01 -4.926007270812988281e+00 4.865886688232421875e+00 1.644699287414550781e+01 6.393864154815673828e+00 1.524960279464721680e+00
1.614000000000000000e+03 3.538407897949218750e+01 -4.497363567352294922e+00 1.975556135177612305e+00 1.622136688232421875e+01 5.459077358245849609e+00 -3.701099634170532227e+00
1.615000000000000000e+03 3.686928939819335938e+01 -8.506115913391113281e+00 4.290270805358886719e+00 1.656453514099121094e+01 6.256442070007324219e+00 -1.685215950012207031e+00
1.616000000000000000e+03 3.309538269042968750e+01 -9.005648612976074219e+00 2.874698638916015625e+00 3.687446832656860352e+00 1.968643665313720703e+00 3.968314170837402344e+00
1.617000000000000000e+03 3.268487930297851562e+01 -4.037615299224853516e+00 3.244161844253540039e+00 3.326001167297363281e+00 1.971048951148986816e+00 -3.606020927429199219e+00
1.618000000000000000e+03 3.390866088867187500e+01 -8.887372970581054688e+00 3.080109596252441406e+00 7.027718544006347656e+00 3.032348394393920898e+00 5.434368133544921875e+00
1.619000000000000000e+03 2.953940010070800781e+01 -1.035735225677490234e+01 1.001899957656860352e+00 9.229480624198913574e-01 5.774543881416320801e-01 1.176991701126098633e+00
1.620000000000000000e+03 3.071159362792968750e+01 -1.072868061065673828e+01 1.557196378707885742e+00 1.880861878395080566e+00 1.031417489051818848e+00 2.073472738265991211e+00
1.621000000000000000e+03 2.875662994384765625e+01 -1.110987949371337891e+01 9.421125650405883789e-01 9.840728640556335449e-01 5.778556466102600098e-01 1.058721423149108887e+00
1.622000000000000000e+03 2.375403976440429688e+01 -2.495335102081298828e+00 2.806517779827117920e-01 1.359696239233016968e-01 1.249864175915718079e-01 1.253363937139511108e-01
1.623000000000000000e+03 2.341725921630859375e+01 -1.590880155563354492e+00 3.705361485481262207e-01 1.960880160331726074e-01 1.699872463941574097e-01 4.124199599027633667e-02
1.624000000000000000e+03 2.202916717529296875e+01 -1.178707838058471680e+00 2.145329266786575317e-01 1.221840549260377884e-02 6.802540272474288940e-02 1.221690103411674500e-01
1.625000000000000000e+03 2.174620628356933594e+01 -1.907705545425415039e+00 1.471962928771972656e-01 -6.299061328172683716e-02 2.526170574128627777e-02 2.097548991441726685e-01
1.626000000000000000e+03 3.190072822570800781e+01 -9.626544952392578125e+00 2.024349689483642578e+00 2.164357185363769531e+00 1.256612062454223633e+00 2.647504329681396484e+00
1.627000000000000000e+03 3.126908683776855469e+01 -1.016107749938964844e+01 1.755241751670837402e+00 1.953379392623901367e+00 1.112586379051208496e+00 2.312560081481933594e+00
1.628000000000000000e+03 2.461635398864746094e+01 -2.041423082351684570e+00 4.829217493534088135e-01 2.771659791469573975e-01 2.280263155698776245e-01 -4.636886343359947205e-02
1.629000000000000000e+03 2.684753990173339844e+01 -8.461943864822387695e-01 1.070533037185668945e+00 9.758642911911010742e-01 6.139191985130310059e-01 -7.826322317123413086e-01
1.630000000000000000e+03 2.353594589233398438e+01 -4.900211393833160400e-01 4.701175689697265625e-01 3.439078032970428467e-01 2.442076057195663452e-01 -1.317226886749267578e-01
1.631000000000000000e+03 2.587522125244140625e+01 -2.219526767730712891e+00 7.062822580337524414e-01 4.046463668346405029e-01 3.332785964012145996e-01 -2.367669641971588135e-01
1.632000000000000000e+03 3.355511426925659180e+00 4.334152221679687500e+00 3.132308775093406439e-04 -1.194122378365136683e-04 5.814559335703961551e-05 -3.768082242459058762e-04
1.633000000000000000e+03 4.379603385925292969e+00 4.496289730072021484e+00 3.124779905192553997e-04 2.522627182770520449e-04 1.694222155492752790e-04 -2.105534513248130679e-04
1.634000000000000000e+03 6.534009933471679688e+00 5.730471611022949219e+00 4.428686806932091713e-04 -9.838667465373873711e-04 -1.622994168428704143e-04 1.605240686330944300e-04
1.635000000000000000e+03 6.385694503784179688e+00 4.042492866516113281e+00 1.816862495616078377e-04 3.962011251132935286e-04 1.733662065817043185e-04 2.189606602769345045e-04
1.636000000000000000e+03 5.559574604034423828e+00 4.618382453918457031e+00 1.870412088464945555e-04 3.888077626470476389e-04 1.727546914480626583e-04 6.750613829353824258e-05
1.637000000000000000e+03 4.977469444274902344e+00 4.595958709716796875e+00 3.988119133282452822e-04 -5.721499328501522541e-04 -5.200140731176361442e-05 -1.784874184522777796e-04
1.638000000000000000e+03 8.340589523315429688e+00 5.013916969299316406e+00 6.779783871024847031e-05 6.319638923741877079e-04 2.099285193253308535e-04 5.108592449687421322e-04
1.639000000000000000e+03 7.056835174560546875e+00 4.116461753845214844e+00 2.765176177490502596e-04 -6.649483111687004566e-04 -1.165292123914696276e-04 -1.494777097832411528e-04
1.640000000000000000e+03 9.006715774536132812e+00 8.064156532287597656e+00 3.445421461947262287e-04 -1.361573929898440838e-03 -3.051095409318804741e-04 9.057013667188584805e-04
1.641000000000000000e+03 4.007719516754150391e+00 4.014189243316650391e+00 1.597916852915659547e-04 1.845642873377073556e-05 5.347443584469147027e-05 1.040768911479972303e-04
1.642000000000000000e+03 2.812804603576660156e+01 -1.843987703323364258e+00 1.323647141456604004e+00 1.018555283546447754e+00 7.026607394218444824e-01 -9.832839965820312500e-01
1.643000000000000000e+03 3.078736114501953125e+01 -3.555523633956909180e+00 2.095147132873535156e+00 1.359324932098388672e+00 1.036341547966003418e+00 -1.793275594711303711e+00
1.644000000000000000e+03 2.906259346008300781e+01 -2.906699180603027344e+00 1.466252207756042480e+00 8.845129609107971191e-01 7.052295804023742676e-01 -1.050686717033386230e+00
1.645000000000000000e+03 2.654618072509765625e+01 -2.277156114578247070e+00 8.233224153518676758e-01 4.857944548130035400e-01 3.927350640296936035e-01 -3.654445707798004150e-01
1.646000000000000000e+03 2.723848533630371094e+01 -2.374829769134521484e+00 9.767805933952331543e-01 6.104096770286560059e-01 4.761570692062377930e-01 -5.324494838714599609e-01
1.647000000000000000e+03 2.854987525939941406e+01 -2.744647026062011719e+00 1.305271863937377930e+00 8.251973986625671387e-01 6.391407847404479980e-01 -8.768222332000732422e-01
1.648000000000000000e+03 2.938405609130859375e+01 -1.167524719238281250e+01 1.211957097053527832e+00 1.547844052314758301e+00 8.279403448104858398e-01 1.530607223510742188e+00
1.649000000000000000e+03 8.335743904113769531e+00 -4.274788856506347656e+00 2.451533509884029627e-04 1.855814480222761631e-04 1.292204397032037377e-04 -6.589833647012710571e-04
1.650000000000000000e+03 5.635352134704589844e+00 -7.053497791290283203e+00 5.866320570930838585e-04 -4.114527546335011721e-04 5.255379437585361302e-05 -3.574023721739649773e-04
1.651000000000000000e+03 6.748427867889404297e+00 -5.655092239379882812e+00 3.836540272459387779e-04 -8.048422168940305710e-04 -1.263564481632784009e-04 -3.458150022197514772e-04
1.652000000000000000e+03 4.936301708221435547e+00 -4.486558437347412109e+00 2.361423830734565854e-04 4.011724740848876536e-05 8.287788659799844027e-05 3.432656521908938885e-04
1.653000000000000000e+03 6.780319213867187500e+00 -3.999122381210327148e+00 -5.401736416388303041e-05 5.281764897517859936e-04 1.422477362211793661e-04 -5.980033893138170242e-04
1.654000000000000000e+03 6.211153507232666016e+00 -4.037998199462890625e+00 8.321896893903613091e-05 1.727243070490658283e-04 7.678298425162211061e-05 6.281454116106033325e-04
1.655000000000000000e+03 2.300436782836914062e+01 -1.142584609985351562e+01 -1.504247337579727173e-01 3.034586012363433838e-01 4.591015726327896118e-02 -2.417533546686172485e-01
1.656000000000000000e+03 2.589706993103027344e+01 -1.064543724060058594e+01 5.808604508638381958e-02 3.128541707992553711e-01 1.112820655107498169e-01 6.367041170597076416e-02
1.657000000000000000e+03 2.666748046875000000e+01 -1.061637878417968750e+01 1.979735642671585083e-01 3.728060722351074219e-01 1.712338924407958984e-01 2.230117172002792358e-01
1.658000000000000000e+03 2.803429603576660156e+01 -1.120997047424316406e+01 7.498880028724670410e-01 7.963046431541442871e-01 4.638577997684478760e-01 7.849864363670349121e-01
1.659000000000000000e+03 1.086136817932128906e+01 4.161219120025634766e+00 2.077005046885460615e-04 3.638975322246551514e-04 1.714794052531942725e-04 6.522936746478080750e-04
1.660000000000000000e+03 1.138706684112548828e+01 5.890692710876464844e+00 -2.142168523278087378e-04 -5.806353874504566193e-04 -2.384556719334796071e-04 -6.187466788105666637e-04
1.661000000000000000e+03 2.575368881225585938e+01 -1.136940479278564453e+01 2.604688704013824463e-01 4.556989371776580811e-01 2.148503363132476807e-01 1.736705452203750610e-01
1.662000000000000000e+03 2.499379730224609375e+01 -1.135930061340332031e+01 1.158084422349929810e-01 3.888632655143737793e-01 1.514015197753906250e-01 2.333864755928516388e-02
1.663000000000000000e+03 3.013654518127441406e+01 -1.089861297607421875e+01 1.388341307640075684e+00 1.561488389968872070e+00 8.849489092826843262e-01 1.760766863822937012e+00
1.664000000000000000e+03 3.162921905517578125e+01 -3.542441844940185547e+00 2.580068826675415039e+00 2.243716716766357422e+00 1.447135567665100098e+00 -2.553106546401977539e+00
1.665000000000000000e+03 3.024067497253417969e+01 -2.961762189865112305e+00 1.918952941894531250e+00 1.459016203880310059e+00 1.013390779495239258e+00 -1.688382387161254883e+00
1.666000000000000000e+03 1.977074241638183594e+01 -1.138218784332275391e+01 -4.193805754184722900e-01 6.771317124366760254e-02 -1.055002212524414062e-01 -4.560363292694091797e-01
1.667000000000000000e+03 1.927597045898437500e+01 -1.240563106536865234e+01 -3.775875866413116455e-01 3.625271469354629517e-02 -1.024004667997360229e-01 -4.111267030239105225e-01
1.668000000000000000e+03 2.224613189697265625e+01 -1.117854499816894531e+01 -2.778205275535583496e-01 2.309860289096832275e-01 -1.405035424977540970e-02 -3.490185141563415527e-01
1.669000000000000000e+03 2.422481727600097656e+01 -1.137687206268310547e+01 -5.055923014879226685e-03 3.612443208694458008e-01 1.068565174937248230e-01 -1.045853719115257263e-01
1.670000000000000000e+03 2.069976043701171875e+01 -1.084455966949462891e+00 1.056007370352745056e-01 -2.162597775459289551e-01 -3.319771215319633484e-02 1.613393127918243408e-01
1.671000000000000000e+03 2.166983413696289062e+01 8.910562515258789062e+00 2.577238678932189941e-01 1.205748081207275391e+00 4.390415847301483154e-01 -7.878361344337463379e-01
1.672000000000000000e+03 7.548020839691162109e+00 1.142939853668212891e+01 -4.696387331932783127e-04 2.038341917796060443e-04 -7.974135951371863484e-05 4.366880282759666443e-03
1.673000000000000000e+03 6.574648380279541016e+00 1.243050765991210938e+01 1.541811972856521606e-03 -4.306057002395391464e-03 -8.292735437862575054e-04 2.287741983309388161e-03
1.674000000000000000e+03 8.289236068725585938e+00 8.920269966125488281e+00 -1.073702005669474602e-04 1.239246339537203312e-03 3.395628300495445728e-04 6.831396149209467694e-06
1.675000000000000000e+03 8.270680427551269531e+00 7.520117282867431641e+00 1.912521547637879848e-04 6.069625960662961006e-04 2.394644252490252256e-04 -8.662886830279603601e-05
1.676000000000000000e+03 4.371888637542724609e+00 -1.165216636657714844e+01 5.316441878676414490e-03 -7.375594694167375565e-03 -6.177457980811595917e-04 -5.865229177288711071e-04
1.677000000000000000e+03 9.131931304931640625e+00 5.004287719726562500e+00 2.395003830315545201e-04 -7.165227434597909451e-04 -1.431067066732794046e-04 -2.396635100012645125e-04
1.678000000000000000e+03 1.047304439544677734e+01 7.663036823272705078e+00 8.079247345449402928e-05 -1.269303960725665092e-03 -3.565534425433725119e-04 -1.226461026817560196e-04
1.679000000000000000e+03 6.215588569641113281e+00 -1.272684764862060547e+01 3.072929102927446365e-03 2.447186736389994621e-03 1.656034728512167931e-03 -1.384266465902328491e-02
1.680000000000000000e+03 1.230062770843505859e+01 6.044310092926025391e+00 3.716868232004344463e-04 5.889770691283047199e-04 2.881991676986217499e-04 6.952572148293256760e-04
1.681000000000000000e+03 2.078028297424316406e+01 1.318121814727783203e+01 1.925495713949203491e-01 1.466531038284301758e+00 4.977242052555084229e-01 -6.801127791404724121e-01
1.682000000000000000e+03 3.727437496185302734e+00 6.666236400604248047e+00 1.643585710553452373e-04 -3.375942178536206484e-04 -5.197069185669533908e-05 -2.351115836063399911e-04
1.683000000000000000e+03 9.153203964233398438e+00 -5.657934665679931641e+00 -1.344003248959779739e-04 1.396643929183483124e-03 3.786730521824210882e-04 -4.443593788892030716e-04
1.684000000000000000e+03 6.419144153594970703e+00 1.439666748046875000e+01 -1.757503370754420757e-03 -1.004183292388916016e-02 -3.539800876751542091e-03 1.948724820977076888e-04
1.685000000000000000e+03 2.226537132263183594e+01 -4.143467545509338379e-01 2.912996113300323486e-01 1.227075234055519104e-01 1.242021396756172180e-01 1.893442310392856598e-02
1.686000000000000000e+03 2.260065841674804688e+01 3.581339120864868164e-01 3.687897026538848877e-01 2.954761385917663574e-01 1.992797553539276123e-01 -1.434764713048934937e-01
1.687000000000000000e+03 5.276376247406005859e+00 1.078525924682617188e+01 1.843568636104464531e-03 -3.715158905833959579e-03 -5.614770925603806973e-04 4.350774397607892752e-04
1.688000000000000000e+03 7.332084655761718750e+01 2.815969657897949219e+01 -7.520769536495208740e-02 8.425803184509277344e+00 2.505178451538085938e+00 2.832405567169189453e-01
1.689000000000000000e+03 7.531684875488281250e+01 -2.745806884765625000e+01 -1.988417282700538635e-02 7.538606166839599609e+00 2.255616664886474609e+00 -2.318793386220932007e-01
1.690000000000000000e+03 7.411830902099609375e+01 -2.877166938781738281e+01 -3.861321881413459778e-02 7.599773406982421875e+00 2.268348217010498047e+00 -2.673630118370056152e-01
1.691000000000000000e+03 7.414743804931640625e+01 2.109515762329101562e+01 -4.226884990930557251e-02 8.194740295410156250e+00 2.445741653442382812e+00 3.728324174880981445e-01
1.692000000000000000e+03 7.531962585449218750e+01 2.393007469177246094e+01 -2.707466296851634979e-02 8.381072998046875000e+00 2.506199359893798828e+00 2.764397561550140381e-01
1.693000000000000000e+03 7.402239990234375000e+01 -2.451664352416992188e+01 -9.964774362742900848e-03 7.455780506134033203e+00 2.233744621276855469e+00 -3.026898801326751709e-01
1.694000000000000000e+03 7.550820159912109375e+01 1.882007598876953125e+01 -2.250801026821136475e-02 8.126963615417480469e+00 2.431336641311645508e+00 3.252867162227630615e-01
1.695000000000000000e+03 7.425537109375000000e+01 -2.158625030517578125e+01 1.693920232355594635e-02 7.335980892181396484e+00 2.205876111984252930e+00 -2.902906537055969238e-01
1.696000000000000000e+03 7.510110473632812500e+01 1.153805065155029297e+01 5.589437205344438553e-03 7.694367408752441406e+00 2.309987068176269531e+00 3.693654835224151611e-01
1.697000000000000000e+03 7.380014038085937500e+01 1.469638538360595703e+01 -1.496193930506706238e-02 7.880213260650634766e+00 2.359575510025024414e+00 4.387773573398590088e-01
1.698000000000000000e+03 7.392706298828125000e+01 7.077101707458496094e+00 4.384716227650642395e-02 7.472461700439453125e+00 2.254892587661743164e+00 4.020542502403259277e-01
1.699000000000000000e+03 7.404314422607421875e+01 2.427839088439941406e+01 -5.169165879487991333e-02 8.328702926635742188e+00 2.483103275299072266e+00 3.295525908470153809e-01
1.700000000000000000e+03 7.512043762207031250e+01 2.512753486633300781e+01 -4.522429406642913818e-02 8.428660392761230469e+00 2.515030860900878906e+00 2.718228697776794434e-01
1.701000000000000000e+03 7.438420104980468750e+01 -1.757665634155273438e+01 4.726856946945190430e-02 7.190532207489013672e+00 2.171340227127075195e+00 -2.461409717798233032e-01
1.702000000000000000e+03 7.546346282958984375e+01 -1.363150882720947266e+01 4.987923428416252136e-02 7.015018463134765625e+00 2.119469165802001953e+00 -1.411062628030776978e-01
1.703000000000000000e+03 7.427230072021484375e+01 -1.496140289306640625e+01 6.893649697303771973e-02 7.117764472961425781e+00 2.156010389328002930e+00 -1.977808773517608643e-01
1.704000000000000000e+03 7.413688659667968750e+01 -1.241213440895080566e+00 9.627977013587951660e-02 7.126327037811279297e+00 2.166781902313232422e+00 2.114786356687545776e-01
1.705000000000000000e+03 7.408877563476562500e+01 1.499364852905273438e+00 8.195231854915618896e-02 7.219037532806396484e+00 2.190296888351440430e+00 2.886130213737487793e-01
1.706000000000000000e+03 7.402021789550781250e+01 4.258197307586669922e+00 6.371378153562545776e-02 7.335754394531250000e+00 2.219840526580810547e+00 3.524424135684967041e-01
1.707000000000000000e+03 7.416317749023437500e+01 -8.100461959838867188e+00 1.049387827515602112e-01 7.030015945434570312e+00 2.140486478805541992e+00 -8.360060863196849823e-03
1.708000000000000000e+03 7.377845001220703125e+01 9.999693870544433594e+00 2.250796556472778320e-02 7.622480869293212891e+00 2.293496608734130859e+00 4.361287951469421387e-01
1.709000000000000000e+03 7.413953399658203125e+01 -1.089021301269531250e+01 9.692761301994323730e-02 7.048840045928955078e+00 2.143730401992797852e+00 -9.778105467557907104e-02
1.710000000000000000e+03 7.543849182128906250e+01 -3.957761287689208984e+00 6.678694486618041992e-02 6.981676578521728516e+00 2.114538908004760742e+00 1.035330221056938171e-01
1.711000000000000000e+03 7.415729522705078125e+01 -3.989642620086669922e+00 1.042380109429359436e-01 7.063469409942626953e+00 2.150312185287475586e+00 1.254962384700775146e-01
1.712000000000000000e+03 7.436132812500000000e+01 -1.888712692260742188e+01 3.597711026668548584e-02 7.235507011413574219e+00 2.181445360183715820e+00 -2.643764913082122803e-01
1.713000000000000000e+03 7.384989929199218750e+01 1.615510749816894531e+01 -1.875757984817028046e-02 7.946499824523925781e+00 2.378322601318359375e+00 4.259486198425292969e-01
1.714000000000000000e+03 7.331823730468750000e+01 2.977684020996093750e+01 -8.359754085540771484e-02 8.482703208923339844e+00 2.519731521606445312e+00 2.523837685585021973e-01
1.715000000000000000e+03 7.415100860595703125e+01 -2.622117757797241211e+00 1.013530790805816650e-01 7.090946197509765625e+00 2.157689809799194336e+00 1.689713746309280396e-01
1.716000000000000000e+03 7.397861480712890625e+01 5.655008792877197266e+00 5.410268157720565796e-02 7.401360511779785156e+00 2.236639022827148438e+00 3.787054121494293213e-01
1.717000000000000000e+03 6.955653381347656250e+01 3.406607818603515625e+01 -1.713179051876068115e-01 8.312434196472167969e+00 2.442334890365600586e+00 2.203945964574813843e-01
1.718000000000000000e+03 7.359815979003906250e+01 -3.068793487548828125e+01 -5.791574344038963318e-02 7.668049335479736328e+00 2.283040046691894531e+00 -2.592257857322692871e-01
1.719000000000000000e+03 7.367743682861328125e+01 1.316590690612792969e+01 -2.173472195863723755e-03 7.790320396423339844e+00 2.336444139480590820e+00 4.543647170066833496e-01
1.720000000000000000e+03 7.364836883544921875e+01 1.155661201477050781e+01 1.080476213246583939e-02 7.706354618072509766e+00 2.315147876739501953e+00 4.517998695373535156e-01
1.721000000000000000e+03 7.462213134765625000e+01 1.966562652587890625e+01 -3.019160032272338867e-02 8.141984939575195312e+00 2.433537960052490234e+00 3.639063239097595215e-01
1.722000000000000000e+03 7.355608367919921875e+01 1.919985771179199219e+01 -4.019259661436080933e-02 8.093667030334472656e+00 2.416042327880859375e+00 4.172281920909881592e-01
1.723000000000000000e+03 7.352471923828125000e+01 3.142663955688476562e+01 -7.666724920272827148e-02 8.540118217468261719e+00 2.539035320281982422e+00 2.126163691282272339e-01
1.724000000000000000e+03 6.463141441345214844e+00 -2.770361328125000000e+01 1.002521514892578125e-01 -3.406736552715301514e-01 -7.212644815444946289e-02 -3.039820194244384766e-01
1.725000000000000000e+03 1.022059726715087891e+01 6.414471149444580078e+00 2.535030653234571218e-04 -1.183354994282126427e-03 -2.789555874187499285e-04 1.622889394639059901e-04
1.726000000000000000e+03 4.599565982818603516e+00 2.759228515625000000e+01 3.910584747791290283e-02 -3.447577729821205139e-02 1.389020937494933605e-03 9.587817639112472534e-02
1.727000000000000000e+03 5.869844913482666016e+00 2.974814987182617188e+01 5.318795144557952881e-02 1.042175889015197754e-01 4.722166061401367188e-02 6.848309934139251709e-02
1.728000000000000000e+03 4.469028949737548828e+00 -2.595807266235351562e+01 2.415327169001102448e-02 -3.929341435432434082e-01 -1.106342673301696777e-01 -3.132031559944152832e-01
1.729000000000000000e+03 6.845437526702880859e+00 -8.588796615600585938e+00 7.404466159641742706e-04 -7.796442951075732708e-04 -1.175930174213135615e-05 -1.473555690608918667e-03
1.730000000000000000e+03 4.491355419158935547e+00 2.329190254211425781e+01 -1.885563717223703861e-03 -2.883986942470073700e-02 -9.217630140483379364e-03 1.298567652702331543e-01
1.731000000000000000e+03 1.098375415802001953e+01 2.250970077514648438e+01 3.234698623418807983e-02 2.709532678127288818e-01 9.099008142948150635e-02 -6.134237721562385559e-02
1.732000000000000000e+03 1.197549247741699219e+01 2.449394989013671875e+01 7.597602158784866333e-02 5.405950546264648438e-01 1.849713325500488281e-01 -1.390339583158493042e-01
1.733000000000000000e+03 5.742682456970214844e+00 -2.064656448364257812e+01 -2.179275751113891602e-01 -1.500190645456314087e-01 -1.103839948773384094e-01 -3.062664270401000977e-01
1.734000000000000000e+03 3.895189523696899414e+00 -2.136281585693359375e+01 -8.186624199151992798e-02 -1.804640740156173706e-01 -7.869909703731536865e-02 -2.312311828136444092e-01
1.735000000000000000e+03 5.956894397735595703e+00 -2.204004096984863281e+01 -1.553610414266586304e-01 -2.190247774124145508e-01 -1.123157441616058350e-01 -3.855565488338470459e-01
1.736000000000000000e+03 5.838675498962402344e+00 -2.338697242736816406e+01 -2.831482142210006714e-02 -3.046310245990753174e-01 -9.988375008106231689e-02 -3.848133087158203125e-01
1.737000000000000000e+03 4.654516696929931641e+00 1.245280170440673828e+01 1.360781257972121239e-03 -5.943987052887678146e-03 -1.374961691908538342e-03 8.172236994141712785e-05
1.738000000000000000e+03 4.259904384613037109e+00 -2.035225868225097656e+01 -1.482149511575698853e-01 -1.162458956241607666e-01 -7.933825254440307617e-02 -2.106128633022308350e-01
1.739000000000000000e+03 6.400869369506835938e+00 2.613139915466308594e+01 4.864704236388206482e-02 8.646983653306961060e-02 4.053506255149841309e-02 9.087410569190979004e-02
1.740000000000000000e+03 6.822071075439453125e+00 -2.470385742187500000e+01 4.366319999098777771e-02 -3.282290697097778320e-01 -8.536976575851440430e-02 -4.029881060123443604e-01
1.741000000000000000e+03 8.513883590698242188e+00 -6.641957283020019531e+00 4.618609673343598843e-04 -1.528106862679123878e-03 -3.198737394995987415e-04 2.710695553105324507e-04
1.742000000000000000e+03 5.487348079681396484e+00 -2.652589988708496094e+01 5.857561901211738586e-02 -3.775609731674194336e-01 -9.569559991359710693e-02 -3.327180445194244385e-01
1.743000000000000000e+03 4.708794116973876953e+00 3.112274932861328125e+01 2.824935503304004669e-02 -3.538069501519203186e-02 -2.139402087777853012e-03 5.557189881801605225e-02
1.744000000000000000e+03 4.214068889617919922e+00 2.061390686035156250e+01 -5.881210416555404663e-02 -7.817601785063743591e-03 -1.998891122639179230e-02 9.398180991411209106e-02
1.745000000000000000e+03 4.741834640502929688e+00 2.216537857055664062e+01 -3.602604568004608154e-02 -1.413421146571636200e-02 -1.504807732999324799e-02 1.326930522918701172e-01
1.746000000000000000e+03 6.310433864593505859e+00 -3.357126998901367188e+01 1.188320368528366089e-01 -3.336521089076995850e-01 -6.444602459669113159e-02 -1.680073589086532593e-01
1.747000000000000000e+03 1.159960079193115234e+01 -3.440005493164062500e+01 1.867020279169082642e-01 3.186633288860321045e-01 1.516095995903015137e-01 -3.095089271664619446e-02
1.748000000000000000e+03 7.285956382751464844e+00 2.139647865295410156e+01 -6.757275015115737915e-02 3.286717832088470459e-02 -1.041167229413986206e-02 1.420955508947372437e-01
1.749000000000000000e+03 5.527716636657714844e+00 2.837284851074218750e+01 4.524427279829978943e-02 5.322599038481712341e-02 2.954107895493507385e-02 8.009995520114898682e-02
1.750000000000000000e+03 7.343705654144287109e+00 -2.657139968872070312e+01 1.131746694445610046e-01 -2.976068258285522461e-01 -5.532965064048767090e-02 -3.365200161933898926e-01
1.751000000000000000e+03 4.023398399353027344e+00 1.014238834381103516e+01 1.448371098376810551e-03 -2.169132465496659279e-03 -2.162283781217411160e-04 -7.356157293543219566e-04
1.752000000000000000e+03 3.971841812133789062e+00 9.096590042114257812e+00 1.272843102924525738e-03 -7.490763673558831215e-04 1.571300090290606022e-04 -8.739170152693986893e-04
1.753000000000000000e+03 6.712320804595947266e+00 7.706503868103027344e+00 5.596342962235212326e-04 1.023306613205932081e-04 1.985894778044894338e-04 -2.045224027824588120e-05
1.754000000000000000e+03 4.952932834625244141e+00 8.872658729553222656e+00 1.584571436978876591e-03 -1.980929635465145111e-03 -1.189074682770296931e-04 -3.656515618786215782e-04
1.755000000000000000e+03 5.897497177124023438e+00 3.482967758178710938e+01 2.907232008874416351e-02 1.273266822099685669e-01 4.691969975829124451e-02 8.392421528697013855e-03
1.756000000000000000e+03 4.498682022094726562e+00 -6.458997726440429688e+00 2.691862755455076694e-04 7.604382699355483055e-05 1.035690293065272272e-04 -2.792463637888431549e-04
1.757000000000000000e+03 4.350673675537109375e+00 -5.527227401733398438e+00 4.230197810102254152e-04 -5.943838186794891953e-05 1.090744190150871873e-04 4.297793493606150150e-04
1.758000000000000000e+03 1.308067703247070312e+01 2.289434051513671875e+01 2.918304130434989929e-02 5.770056247711181641e-01 1.818566024303436279e-01 -2.268264889717102051e-01
1.759000000000000000e+03 9.475152015686035156e+00 2.351738548278808594e+01 4.481441527605056763e-02 1.847473382949829102e-01 6.886852532625198364e-02 1.615061983466148376e-02
1.760000000000000000e+03 2.053084564208984375e+01 1.472428989410400391e+01 1.246095374226570129e-01 1.559560894966125488e+00 5.052511096000671387e-01 -6.384558081626892090e-01
1.761000000000000000e+03 6.173735141754150391e+00 -7.814579010009765625e+00 7.255231612361967564e-04 3.209492715541273355e-04 3.139417385682463646e-04 -1.461653300793841481e-04
1.762000000000000000e+03 1.860413932800292969e+01 -1.649540328979492188e+01 -1.436963975429534912e-01 2.184110730886459351e-01 2.241440303623676300e-02 -5.207096785306930542e-02
1.763000000000000000e+03 1.928538513183593750e+01 1.985408210754394531e+01 -3.368866443634033203e-02 1.665051698684692383e+00 4.894089102745056152e-01 -5.374454855918884277e-01
1.764000000000000000e+03 1.661945915222167969e+01 2.106835937500000000e+01 -1.743080094456672668e-02 1.162878990173339844e+00 3.436344265937805176e-01 -4.137457609176635742e-01
1.765000000000000000e+03 1.983997344970703125e+01 -1.404907226562500000e+01 -1.940205097198486328e-01 2.266094833612442017e-01 9.776695631444454193e-03 -2.116848081350326538e-01
1.766000000000000000e+03 1.804140281677246094e+01 -1.469256973266601562e+01 -3.262809813022613525e-01 -3.070531599223613739e-02 -1.070958897471427917e-01 -2.803292274475097656e-01
1.767000000000000000e+03 1.807338333129882812e+01 -1.781763458251953125e+01 -9.515602141618728638e-02 2.165401428937911987e-01 3.641523793339729309e-02 3.761828690767288208e-02
1.768000000000000000e+03 2.393212509155273438e+01 5.721818923950195312e+00 3.973116576671600342e-01 1.493045806884765625e+00 5.671072602272033691e-01 -9.680851101875305176e-01
1.769000000000000000e+03 2.440327835083007812e+01 4.744228839874267578e+00 4.744131565093994141e-01 1.491163730621337891e+00 5.896731019020080566e-01 -9.784496426582336426e-01
1.770000000000000000e+03 2.306584167480468750e+01 2.516671895980834961e+00 4.250957071781158447e-01 6.968773007392883301e-01 3.365918993949890137e-01 -5.073996782302856445e-01
1.771000000000000000e+03 1.918718910217285156e+01 -1.525504875183105469e+01 -1.763502359390258789e-01 2.234102636575698853e-01 1.411801017820835114e-02 -1.322987973690032959e-01
1.772000000000000000e+03 1.575053882598876953e+01 -2.124930763244628906e+01 4.426088929176330566e-02 1.171296685934066772e-01 4.841716587543487549e-02 5.167640745639801025e-02
1.773000000000000000e+03 1.762815093994140625e+01 -1.931236267089843750e+01 -1.656468771398067474e-02 2.899548709392547607e-01 8.201705664396286011e-02 1.100515425205230713e-01
1.774000000000000000e+03 2.257445907592773438e+01 1.064487934112548828e+01 2.402543425559997559e-01 1.672589421272277832e+00 5.738531351089477539e-01 -9.019799232482910156e-01
1.775000000000000000e+03 1.529456329345703125e+01 2.161536407470703125e+01 -1.118064671754837036e-02 9.043067097663879395e-01 2.679378092288970947e-01 -3.449017703533172607e-01
1.776000000000000000e+03 2.194411849975585938e+01 1.647231101989746094e+01 4.602960497140884399e-02 2.037281036376953125e+00 6.249932050704956055e-01 -7.383428215980529785e-01
1.777000000000000000e+03 7.171451568603515625e+01 4.057006454467773438e+01 -9.888665378093719482e-02 8.530669212341308594e+00 2.529534816741943359e+00 5.194456130266189575e-02
1.778000000000000000e+03 7.304159545898437500e+01 3.613275527954101562e+01 -8.294439315795898438e-02 8.597088813781738281e+00 2.554243326187133789e+00 1.404985934495925903e-01
1.779000000000000000e+03 2.316168212890625000e+01 8.027674674987792969e+00 2.946088910102844238e-01 1.549887180328369141e+00 5.533488392829895020e-01 -9.614189267158508301e-01
1.780000000000000000e+03 2.406928253173828125e+01 9.685176849365234375e+00 2.515201866626739502e-01 2.037859201431274414e+00 6.868137717247009277e-01 -1.071954488754272461e+00
1.781000000000000000e+03 3.428308868408203125e+01 -4.171996593475341797e+00 2.942504405975341797e+00 9.605383872985839844e+00 3.764366626739501953e+00 -5.517933845520019531e+00
1.782000000000000000e+03 3.419187545776367188e+01 -4.520001888275146484e+00 3.609449625015258789e+00 8.862978935241699219e+00 3.741728305816650391e+00 -5.919658660888671875e+00
1.783000000000000000e+03 3.568982315063476562e+01 -4.747311592102050781e+00 2.314397573471069336e+00 1.821831321716308594e+01 6.159813404083251953e+00 -2.273968935012817383e+00
1.784000000000000000e+03 3.525764846801757812e+01 -3.700775861740112305e+00 1.509704828262329102e+00 1.343729019165039062e+01 4.484098434448242188e+00 -3.700880289077758789e+00
1.785000000000000000e+03 3.709615707397460938e+01 -7.602265834808349609e+00 8.438520431518554688e+00 1.580363655090332031e+01 7.272647380828857422e+00 -2.308082103729248047e+00
1.786000000000000000e+03 3.511811065673828125e+01 -9.471597671508789062e+00 1.209004044532775879e+00 1.331002616882324219e+01 4.355709075927734375e+00 4.097903728485107422e+00
1.787000000000000000e+03 3.644024276733398438e+01 -8.723384857177734375e+00 2.921312093734741211e+00 1.749579048156738281e+01 6.125130653381347656e+00 -5.378218889236450195e-01
1.788000000000000000e+03 3.696655273437500000e+01 -8.041914939880371094e+00 6.343673706054687500e+00 1.667678260803222656e+01 6.906136989593505859e+00 -2.343637704849243164e+00
1.789000000000000000e+03 3.767986297607421875e+01 -6.286591529846191406e+00 9.056279182434082031e+00 1.355958271026611328e+01 6.784758567810058594e+00 7.898976802825927734e-01
1.790000000000000000e+03 3.735135269165039062e+01 -4.390227317810058594e+00 3.838173866271972656e+00 1.486083602905273438e+01 5.609703063964843750e+00 1.363101959228515625e+00
1.791000000000000000e+03 3.594905090332031250e+01 -4.794801235198974609e+00 2.765578031539916992e+00 1.842792701721191406e+01 6.358051300048828125e+00 -1.057372808456420898e+00
1.792000000000000000e+03 3.666210174560546875e+01 -4.340531826019287109e+00 2.808738708496093750e+00 1.605608367919921875e+01 5.659446716308593750e+00 3.136757314205169678e-01
1.793000000000000000e+03 3.619659423828125000e+01 -9.173317909240722656e+00 1.624669551849365234e+00 1.650291252136230469e+01 5.438274383544921875e+00 9.126599431037902832e-01
1.794000000000000000e+03 3.158885383605957031e+01 -1.072126102447509766e+01 1.794685840606689453e+00 2.772829771041870117e+00 1.370254755020141602e+00 2.741909980773925781e+00
1.795000000000000000e+03 3.174021720886230469e+01 -1.020958900451660156e+01 1.965369582176208496e+00 2.554082870483398438e+00 1.355835676193237305e+00 2.772990942001342773e+00
1.796000000000000000e+03 3.330408477783203125e+01 -9.208333015441894531e+00 2.826697111129760742e+00 4.751309871673583984e+00 2.273401975631713867e+00 4.408750534057617188e+00
1.797000000000000000e+03 3.312748718261718750e+01 -9.556358337402343750e+00 2.596790075302124023e+00 4.648694038391113281e+00 2.173645257949829102e+00 4.180253505706787109e+00
1.798000000000000000e+03 3.232532119750976562e+01 -9.729369163513183594e+00 2.255739450454711914e+00 2.938592910766601562e+00 1.558299779891967773e+00 3.187540531158447266e+00
1.799000000000000000e+03 3.197304916381835938e+01 -3.373101949691772461e+00 2.703230381011962891e+00 2.807132244110107422e+00 1.653108716011047363e+00 -2.991860151290893555e+00
1.800000000000000000e+03 3.252878189086914062e+01 -3.641056776046752930e+00 2.989222288131713867e+00 3.555320978164672852e+00 1.963362932205200195e+00 -3.557763338088989258e+00
1.801000000000000000e+03 2.439032745361328125e+01 -6.868623495101928711e-01 6.250122189521789551e-01 4.823813736438751221e-01 3.322180807590484619e-01 -2.542561292648315430e-01
1.802000000000000000e+03 3.095769309997558594e+01 -1.106911754608154297e+01 1.590103149414062500e+00 2.343369007110595703e+00 1.180041670799255371e+00 2.347449541091918945e+00
1.803000000000000000e+03 3.116406631469726562e+01 -1.064345455169677734e+01 1.738490104675292969e+00 2.232706069946289062e+00 1.191358804702758789e+00 2.423629999160766602e+00
1.804000000000000000e+03 2.963837242126464844e+01 -2.928961515426635742e+00 1.673932194709777832e+00 1.112589001655578613e+00 8.359563350677490234e-01 -1.320451021194458008e+00
1.805000000000000000e+03 2.154006195068359375e+01 -2.152433544397354126e-01 2.089001387357711792e-01 -1.285527925938367844e-02 5.881345644593238831e-02 5.812001228332519531e-02
1.806000000000000000e+03 2.483769798278808594e+01 -1.459801197052001953e+00 6.131303310394287109e-01 3.986536264419555664e-01 3.035351932048797607e-01 -1.861779689788818359e-01
1.807000000000000000e+03 2.667242050170898438e+01 -1.562463879585266113e+00 9.765848517417907715e-01 7.221058607101440430e-01 5.096071958541870117e-01 -5.736997127532958984e-01
1.808000000000000000e+03 2.432655334472656250e+01 -1.259540438652038574e+00 5.472946166992187500e-01 3.687737584114074707e-01 2.748205065727233887e-01 -1.355396956205368042e-01
1.809000000000000000e+03 8.169873237609863281e+00 5.884656906127929688e+00 5.527933244593441486e-04 -1.142957946285605431e-03 -1.770493981894105673e-04 2.122273690474685282e-05
1.810000000000000000e+03 2.534184074401855469e+01 -1.595175862312316895e+00 6.918919682502746582e-01 4.402734041213989258e-01 3.396496176719665527e-01 -2.516484558582305908e-01
1.811000000000000000e+03 9.867323875427246094e+00 5.793798923492431641e+00 1.972507889149710536e-04 -4.104385443497449160e-04 -6.395632226485759020e-05 -6.686309352517127991e-04
1.812000000000000000e+03 7.566643714904785156e+00 4.992388248443603516e+00 3.725166898220777512e-04 -8.669968810863792896e-04 -1.483440573792904615e-04 -4.231489947414956987e-05
1.813000000000000000e+03 6.145781517028808594e+00 4.786031246185302734e+00 3.440754953771829605e-04 -7.623229175806045532e-04 -1.254742383025586605e-04 -8.013417391339316964e-05
1.814000000000000000e+03 2.795171737670898438e+01 -2.512374401092529297e+00 1.164253592491149902e+00 7.299509048461914062e-01 5.682613849639892578e-01 -7.342742681503295898e-01
1.815000000000000000e+03 2.884083366394042969e+01 -1.279268383979797363e+00 1.534891843795776367e+00 1.555640459060668945e+00 9.271597266197204590e-01 -1.440590143203735352e+00
1.816000000000000000e+03 5.250147819519042969e+00 -5.371310710906982422e+00 1.156529324362054467e-04 6.234115426195785403e-05 5.339822746464051306e-05 -4.383795312605798244e-04
1.817000000000000000e+03 2.740279197692871094e+01 -1.695793747901916504e+00 1.143957734107971191e+00 8.481081724166870117e-01 5.976197719573974609e-01 -7.658318877220153809e-01
1.818000000000000000e+03 6.241404056549072266e+00 -6.427399635314941406e+00 1.666247408138588071e-04 8.754187729209661484e-04 3.126130613964051008e-04 -4.148497100686654449e-05
1.819000000000000000e+03 2.961069679260253906e+01 -2.378307580947875977e+00 1.729207754135131836e+00 1.455653548240661621e+00 9.554584026336669922e-01 -1.544400572776794434e+00
1.820000000000000000e+03 2.652314376831054688e+01 -1.135044670104980469e+01 4.150197803974151611e-01 5.322358012199401855e-01 2.841766774654388428e-01 3.471174836158752441e-01
1.821000000000000000e+03 2.035271453857421875e+01 -1.576861667633056641e+01 -1.580189168453216553e-02 4.508565962314605713e-01 1.305164098739624023e-01 2.821686863899230957e-02
1.822000000000000000e+03 2.931710052490234375e+01 -1.234142208099365234e+01 1.235137462615966797e+00 1.852960348129272461e+00 9.264293313026428223e-01 1.662875533103942871e+00
1.823000000000000000e+03 2.076803207397460938e+01 -1.169263839721679688e+01 -3.219716846942901611e-01 1.723350882530212402e-01 -4.489097371697425842e-02 -3.954226672649383545e-01
1.824000000000000000e+03 2.794269371032714844e+01 -1.193873500823974609e+01 8.799927830696105957e-01 1.046975493431091309e+00 5.780904889106750488e-01 9.415754079818725586e-01
1.825000000000000000e+03 2.728842544555664062e+01 -1.129333972930908203e+01 5.743318200111389160e-01 6.496644616127014160e-01 3.671988844871520996e-01 5.520808696746826172e-01
1.826000000000000000e+03 2.037097740173339844e+01 -1.283368682861328125e+01 -2.375240325927734375e-01 2.138642072677612305e-01 -7.097948342561721802e-03 -3.031597137451171875e-01
1.827000000000000000e+03 2.483001327514648438e+01 -1.206490230560302734e+01 2.644895017147064209e-01 5.198617577552795410e-01 2.353053689002990723e-01 1.126304343342781067e-01
1.828000000000000000e+03 2.556979751586914062e+01 -1.214225482940673828e+01 4.039487540721893311e-01 6.022790074348449707e-01 3.018683195114135742e-01 2.784880697727203369e-01
1.829000000000000000e+03 2.636999320983886719e+01 -1.213549137115478516e+01 5.567094087600708008e-01 7.270088195800781250e-01 3.851154744625091553e-01 4.780735671520233154e-01
1.830000000000000000e+03 2.327616500854492188e+01 -1.229973411560058594e+01 4.861456528306007385e-02 4.031633138656616211e-01 1.355333626270294189e-01 -9.744947403669357300e-02
1.831000000000000000e+03 2.258018112182617188e+01 -1.213768768310546875e+01 -7.299183309078216553e-02 3.625360429286956787e-01 8.686326444149017334e-02 -1.954075694084167480e-01
1.832000000000000000e+03 2.362577629089355469e+01 -1.170603466033935547e+01 -1.219523884356021881e-02 3.460043966770172119e-01 1.001427546143531799e-01 -1.422200649976730347e-01
1.833000000000000000e+03 1.060319519042968750e+01 5.732414245605468750e+00 -1.548902946524322033e-05 1.004225108772516251e-03 2.966208267025649548e-04 1.021100440993905067e-03
1.834000000000000000e+03 1.100265407562255859e+01 6.771493911743164062e+00 5.214765769778750837e-05 1.370808342471718788e-03 4.268867778591811657e-04 7.549566798843443394e-04
1.835000000000000000e+03 7.534820079803466797e+00 9.819007873535156250e+00 -1.485611028329003602e-05 -8.061029948294162750e-04 -2.462877309881150723e-04 2.570881973952054977e-03
1.836000000000000000e+03 2.137133789062500000e+01 -1.010414481163024902e+00 1.728458702564239502e-01 -8.420323580503463745e-02 2.659278921782970428e-02 1.392018944025039673e-01
1.837000000000000000e+03 8.007875442504882812e+00 6.783023834228515625e+00 -2.689707034733146429e-04 9.695737389847636223e-04 2.101809077430516481e-04 6.491277599707245827e-04
1.838000000000000000e+03 6.753636837005615234e+00 1.073064136505126953e+01 1.145504880696535110e-03 -1.546240760944783688e-03 -1.202207349706441164e-04 1.226400723680853844e-03
1.839000000000000000e+03 2.292860221862792969e+01 -6.229655742645263672e-01 3.701195716857910156e-01 2.244274914264678955e-01 1.783641129732131958e-01 -3.314226493239402771e-02
1.840000000000000000e+03 2.351593589782714844e+01 6.818769454956054688e+00 3.365126550197601318e-01 1.514226794242858887e+00 5.552217960357666016e-01 -9.668726325035095215e-01
1.841000000000000000e+03 2.210951232910156250e+01 1.346252536773681641e+01 1.544286459684371948e-01 1.830559134483337402e+00 5.954963564872741699e-01 -8.036749958992004395e-01
1.842000000000000000e+03 2.226634407043457031e+01 1.960871505737304688e+01 -6.110554933547973633e-02 2.256010770797729492e+00 6.584715247154235840e-01 -6.859059929847717285e-01
1.843000000000000000e+03 2.195252799987792969e+01 -1.523048210144042969e+01 1.587928980588912964e-01 6.507235169410705566e-01 2.428549081087112427e-01 1.437858045101165771e-01
1.844000000000000000e+03 6.272209644317626953e+00 2.114110565185546875e+01 -9.343068301677703857e-02 2.392701990902423859e-02 -2.085109986364841461e-02 1.354217380285263062e-01
1.845000000000000000e+03 4.797678470611572266e+00 7.221355438232421875e+00 9.729702142067253590e-04 -2.527778269723057747e-04 2.160577132599428296e-04 -6.212233565747737885e-04
1.846000000000000000e+03 2.395743751525878906e+01 3.241984128952026367e+00 4.870968163013458252e-01 1.077638983726501465e+00 4.694207608699798584e-01 -7.435944676399230957e-01
1.847000000000000000e+03 9.634544372558593750e+00 7.188194751739501953e+00 -3.619221388362348080e-04 1.718381885439157486e-03 4.069379065185785294e-04 3.548716777004301548e-04
1.848000000000000000e+03 7.150710296630859375e+01 -2.431106948852539062e+01 -1.165360771119594574e-02 7.511473655700683594e+00 2.249946117401123047e+00 -3.862680494785308838e-01
1.849000000000000000e+03 6.940329742431640625e+01 -3.044972229003906250e+01 -1.361287832260131836e-01 7.714736461639404297e+00 2.273582458496093750e+00 -3.584722876548767090e-01
1.850000000000000000e+03 7.080621337890625000e+01 -3.258533096313476562e+01 -1.217255890369415283e-01 7.734815597534179688e+00 2.283926963806152344e+00 -2.783004343509674072e-01
1.851000000000000000e+03 7.234272003173828125e+01 -3.445398712158203125e+01 -9.447395056486129761e-02 7.757076740264892578e+00 2.298780918121337891e+00 -2.145557254552841187e-01
1.852000000000000000e+03 8.787088394165039062e+00 2.930053710937500000e+01 7.228124141693115234e-02 3.750102519989013672e-01 1.341874450445175171e-01 7.357330061495304108e-03
1.853000000000000000e+03 9.494370460510253906e+00 3.304533767700195312e+01 4.662924632430076599e-02 5.866181850433349609e-01 1.899742335081100464e-01 -1.803060434758663177e-02
1.854000000000000000e+03 7.293228912353515625e+01 -2.283028984069824219e+01 7.514142896980047226e-03 7.428284168243408203e+00 2.230739355087280273e+00 -3.433784544467926025e-01
1.855000000000000000e+03 7.133674621582031250e+01 2.416160964965820312e+01 -9.724865108728408813e-02 8.202394485473632812e+00 2.431543588638305664e+00 4.219719767570495605e-01
1.856000000000000000e+03 7.094954681396484375e+01 1.685182189941406250e+01 -4.891842976212501526e-02 7.941683292388916016e+00 2.367829561233520508e+00 5.528091192245483398e-01
1.857000000000000000e+03 7.241759490966796875e+01 1.629940986633300781e+01 -3.126727044582366943e-02 7.939598560333251953e+00 2.372499227523803711e+00 4.964282214641571045e-01
1.858000000000000000e+03 7.098652648925781250e+01 9.702525138854980469e+00 4.249031096696853638e-02 7.658021450042724609e+00 2.310153484344482422e+00 5.685251355171203613e-01
1.859000000000000000e+03 7.396410369873046875e+01 -2.744029426574707031e+01 -3.156951442360877991e-02 7.563056468963623047e+00 2.259446144104003906e+00 -2.859970033168792725e-01
1.860000000000000000e+03 7.321412658691406250e+01 -1.628277969360351562e+01 8.224899321794509888e-02 7.207301616668701172e+00 2.186865091323852539e+00 -2.569878995418548584e-01
1.861000000000000000e+03 7.324841308593750000e+01 -1.751240730285644531e+01 6.799845397472381592e-02 7.243760108947753906e+00 2.193527698516845703e+00 -2.817821502685546875e-01
1.862000000000000000e+03 7.165307617187500000e+01 -6.915880203247070312e+00 1.996209919452667236e-01 7.165040969848632812e+00 2.209398746490478516e+00 3.947225213050842285e-02
1.863000000000000000e+03 7.293228912353515625e+01 -9.501394271850585938e+00 1.440303325653076172e-01 7.104281902313232422e+00 2.174493789672851562e+00 -6.020279228687286377e-02
1.864000000000000000e+03 7.135300445556640625e+01 3.911510705947875977e+00 1.267041116952896118e-01 7.414744853973388672e+00 2.262434720993041992e+00 4.519487917423248291e-01
1.865000000000000000e+03 7.289048767089843750e+01 -1.089746570587158203e+01 1.398849934339523315e-01 7.119153499603271484e+00 2.177711486816406250e+00 -1.130352988839149475e-01
1.866000000000000000e+03 7.418439483642578125e+01 -1.363793945312500000e+01 7.769007980823516846e-02 7.092818260192871094e+00 2.151152372360229492e+00 -1.705674678087234497e-01
1.867000000000000000e+03 7.286450958251953125e+01 -2.714687824249267578e+00 1.443534642457962036e-01 7.157079696655273438e+00 2.190429925918579102e+00 1.930116713047027588e-01
1.868000000000000000e+03 7.287590789794921875e+01 -4.074203968048095703e+00 1.494681537151336670e-01 7.132882118225097656e+00 2.184705018997192383e+00 1.430907398462295532e-01
1.869000000000000000e+03 7.431732940673828125e+01 -2.021064186096191406e+01 2.466161921620368958e-02 7.282827377319335938e+00 2.192246675491333008e+00 -2.770154476165771484e-01
1.870000000000000000e+03 7.284786224365234375e+01 -1.345347762107849121e+00 1.390953212976455688e-01 7.189180374145507812e+00 2.198482751846313477e+00 2.424236834049224854e-01
1.871000000000000000e+03 7.241236114501953125e+01 9.850313186645507812e+00 2.888648584485054016e-02 7.642717838287353516e+00 2.301481246948242188e+00 4.997032582759857178e-01
1.872000000000000000e+03 7.198007965087890625e+01 2.651370239257812500e+01 -9.244816005229949951e-02 8.294453620910644531e+00 2.460601806640625000e+00 3.576197028160095215e-01
1.873000000000000000e+03 7.258203125000000000e+01 -2.595216178894042969e+01 -3.318706527352333069e-02 7.544201374053955078e+00 2.253304243087768555e+00 -3.464387059211730957e-01
1.874000000000000000e+03 9.144931793212890625e+00 3.107451820373535156e+01 6.727766990661621094e-02 4.950041770935058594e-01 1.686845570802688599e-01 -2.022779919207096100e-02
1.875000000000000000e+03 7.372888565063476562e+00 3.502957534790039062e+01 2.991865389049053192e-02 3.089645802974700928e-01 1.016649752855300903e-01 2.240467444062232971e-02
1.876000000000000000e+03 1.014749526977539062e+01 2.047286605834960938e+01 -9.832803905010223389e-02 2.248165383934974670e-02 -2.275391668081283569e-02 6.528958212584257126e-03
1.877000000000000000e+03 8.681920051574707031e+00 -2.404587554931640625e+01 6.460788100957870483e-02 -3.426193296909332275e-01 -8.340343087911605835e-02 -3.902794420719146729e-01
1.878000000000000000e+03 4.741579055786132812e+00 -7.443455219268798828e+00 8.435443742200732231e-04 -1.283398160012438893e-04 2.145613689208403230e-04 3.194443124812096357e-04
1.879000000000000000e+03 6.799823284149169922e+00 2.790215492248535156e+01 5.920630693435668945e-02 1.568542867898941040e-01 6.481818109750747681e-02 6.859275698661804199e-02
1.880000000000000000e+03 5.825383663177490234e+00 7.476834774017333984e+00 9.145135409198701382e-04 -1.549783744849264622e-03 -1.905810640892013907e-04 5.311223212629556656e-04
1.881000000000000000e+03 5.413528442382812500e+00 -6.254954814910888672e+00 7.005290826782584190e-04 -4.557642096187919378e-04 7.342946628341451287e-05 2.745749370660632849e-04
1.882000000000000000e+03 2.583938217163085938e+01 7.718366146087646484e+00 3.338694870471954346e-01 2.455011367797851562e+00 8.366642594337463379e-01 -1.283065199851989746e+00
1.883000000000000000e+03 9.005877494812011719e+00 -2.157868003845214844e+01 -9.363988041877746582e-02 -4.753477871417999268e-01 -1.706963032484054565e-01 -4.702388346195220947e-01
1.884000000000000000e+03 2.173974227905273438e+01 -1.193545436859130859e+01 -2.147634774446487427e-01 2.673997282981872559e-01 1.579087041318416595e-02 -3.142379522323608398e-01
1.885000000000000000e+03 1.252974605560302734e+01 -2.289571189880371094e+01 7.597906142473220825e-02 -2.165245562791824341e-01 -4.216364771127700806e-02 -1.822280138731002808e-01
1.886000000000000000e+03 1.401426982879638672e+01 -2.141180229187011719e+01 -3.030890971422195435e-02 -1.536801606416702271e-01 -5.519672110676765442e-02 -7.787524163722991943e-02
1.887000000000000000e+03 6.859065246582031250e+01 2.878384590148925781e+01 -1.706913709640502930e-01 8.178875923156738281e+00 2.402455568313598633e+00 3.757202923297882080e-01
1.888000000000000000e+03 1.923080635070800781e+01 -1.949832344055175781e+01 9.677024185657501221e-02 6.002004146575927734e-01 2.090911865234375000e-01 2.681990563869476318e-01
1.889000000000000000e+03 1.208193302154541016e+01 2.295585823059082031e+01 3.264455869793891907e-02 4.271740913391113281e-01 1.379455924034118652e-01 -1.709842383861541748e-01
1.890000000000000000e+03 2.232212448120117188e+01 1.202925872802734375e+01 2.062628269195556641e-01 1.744768142700195312e+00 5.853093266487121582e-01 -8.537654280662536621e-01
1.891000000000000000e+03 2.485234832763671875e+01 1.515232276916503906e+01 2.901571104303002357e-03 2.722189426422119141e+00 8.175272941589355469e-01 -9.672883749008178711e-01
1.892000000000000000e+03 2.093470382690429688e+01 -1.465806388854980469e+01 -2.323327027261257172e-02 4.320800900459289551e-01 1.226540505886077881e-01 -5.238425731658935547e-02
1.893000000000000000e+03 9.578269004821777344e+00 -3.064183044433593750e+01 1.751256287097930908e-01 -6.854418665170669556e-02 3.197443485260009766e-02 -1.679347306489944458e-01
1.894000000000000000e+03 7.303341388702392578e+00 -2.928390693664550781e+01 1.220202371478080750e-01 -2.858166992664337158e-01 -4.913893714547157288e-02 -2.615568041801452637e-01
1.895000000000000000e+03 1.576454353332519531e+01 2.298866844177246094e+01 2.149223722517490387e-02 1.042180299758911133e+00 3.191017508506774902e-01 -3.631586432456970215e-01
1.896000000000000000e+03 1.412240695953369141e+01 2.229813575744628906e+01 5.362877156585454941e-03 7.272312641143798828e-01 2.197782397270202637e-01 -2.851833105087280273e-01
1.897000000000000000e+03 2.467933654785156250e+01 7.298793315887451172e+00 3.546883165836334229e-01 1.973117947578430176e+00 6.983419060707092285e-01 -1.135630607604980469e+00
1.898000000000000000e+03 1.766832351684570312e+01 -2.105401611328125000e+01 1.094462200999259949e-01 4.675525724887847900e-01 1.730996370315551758e-01 2.056403905153274536e-01
1.899000000000000000e+03 7.310521697998046875e+01 -2.140849304199218750e+01 2.642904780805110931e-02 7.367939949035644531e+00 2.218310832977294922e+00 -3.304724395275115967e-01
1.900000000000000000e+03 5.339052200317382812e+00 -1.372859764099121094e+01 6.728011183440685272e-03 -1.617691293358802795e-02 -2.834670711308717728e-03 -6.611460819840431213e-03
1.901000000000000000e+03 6.546026706695556641e+00 2.238108444213867188e+01 -1.885262690484523773e-02 1.922061108052730560e-02 1.103957838495261967e-04 1.329744607210159302e-01
1.902000000000000000e+03 7.304488372802734375e+01 -1.502938747406005859e+01 9.995027631521224976e-02 7.181990146636962891e+00 2.184581995010375977e+00 -2.313776612281799316e-01
1.903000000000000000e+03 7.411508941650390625e+01 1.314979046583175659e-01 9.059766680002212524e-02 7.169236183166503906e+00 2.177950143814086914e+00 2.517943084239959717e-01
1.904000000000000000e+03 7.167556762695312500e+01 2.009111213684082031e+01 -6.716500222682952881e-02 8.082923889160156250e+00 2.404727697372436523e+00 4.807433784008026123e-01
1.905000000000000000e+03 7.260140991210937500e+01 6.919975757598876953e+00 6.387877464294433594e-02 7.500423908233642578e+00 2.269290685653686523e+00 4.620466530323028564e-01
1.906000000000000000e+03 7.242165374755859375e+01 1.486643791198730469e+01 -2.143019251525402069e-02 7.875318050384521484e+00 2.356166362762451172e+00 5.055403709411621094e-01
1.907000000000000000e+03 7.416478729248046875e+01 -6.732222557067871094e+00 1.057473197579383850e-01 7.033110141754150391e+00 2.141657352447509766e+00 3.572603315114974976e-02
1.908000000000000000e+03 9.098201751708984375e+00 -2.870218276977539062e+01 1.883677393198013306e-01 -1.626591235399246216e-01 7.712584920227527618e-03 -2.365414053201675415e-01
1.909000000000000000e+03 1.120568752288818359e+01 -2.426872253417968750e+01 1.294112503528594971e-01 -2.313191592693328857e-01 -3.057237528264522552e-02 -2.612895071506500244e-01
1.910000000000000000e+03 3.369441986083984375e+01 -9.552965164184570312e+00 2.410734415054321289e+00 6.800693988800048828e+00 2.763428449630737305e+00 4.832231044769287109e+00
1.911000000000000000e+03 3.458140945434570312e+01 -3.724220752716064453e+00 2.058930873870849609e+00 1.087680721282958984e+01 3.880721569061279297e+00 -4.751862525939941406e+00
1.912000000000000000e+03 3.540102386474609375e+01 -9.728904724121093750e+00 9.165423512458801270e-01 1.358650684356689453e+01 4.350914955139160156e+00 3.380744934082031250e+00
1.913000000000000000e+03 3.505600738525390625e+01 -3.949074268341064453e+00 1.774564146995544434e+00 1.321824169158935547e+01 4.497841835021972656e+00 -4.269022941589355469e+00
1.914000000000000000e+03 3.286403274536132812e+01 -9.405132293701171875e+00 2.600692033767700195e+00 3.712482929229736328e+00 1.893952608108520508e+00 3.794733762741088867e+00
1.915000000000000000e+03 3.556456375122070312e+01 -9.363092422485351562e+00 1.130270600318908691e+00 1.509325122833251953e+01 4.867056369781494141e+00 2.920146703720092773e+00
1.916000000000000000e+03 3.857345581054687500e+01 -6.176549911499023438e+00 7.438965320587158203e+00 1.199654960632324219e+01 5.830654144287109375e+00 6.451594829559326172e-01
1.917000000000000000e+03 3.784489059448242188e+01 -6.872831821441650391e+00 9.013705253601074219e+00 1.322957992553710938e+01 6.672985553741455078e+00 -5.620939135551452637e-01
1.918000000000000000e+03 3.715199661254882812e+01 -8.415900230407714844e+00 4.971771717071533203e+00 1.574867343902587891e+01 6.216133594512939453e+00 -1.993381500244140625e+00
1.919000000000000000e+03 3.765731811523437500e+01 -8.284623146057128906e+00 5.788376808166503906e+00 1.442491340637207031e+01 6.063987255096435547e+00 -2.108360052108764648e+00
1.920000000000000000e+03 3.691931533813476562e+01 -4.653906822204589844e+00 4.007855892181396484e+00 1.610149765014648438e+01 6.032806396484375000e+00 1.186931967735290527e+00
1.921000000000000000e+03 3.733543014526367188e+01 -7.686279296875000000e+00 7.921200752258300781e+00 1.506608676910400391e+01 6.896186351776123047e+00 -2.218021154403686523e+00
1.922000000000000000e+03 3.740208435058593750e+01 -4.898310661315917969e+00 5.282580375671386719e+00 1.505135345458984375e+01 6.100180149078369141e+00 1.807888269424438477e+00
1.923000000000000000e+03 3.565865707397460938e+01 -4.123322486877441406e+00 1.625130176544189453e+00 1.554979801177978516e+01 5.152478218078613281e+00 -2.743529081344604492e+00
1.924000000000000000e+03 3.217105865478515625e+01 -1.031211662292480469e+01 2.023435354232788086e+00 3.293405294418334961e+00 1.595052242279052734e+00 3.178063631057739258e+00
1.925000000000000000e+03 3.084710693359375000e+01 -3.016115427017211914e+00 2.194766521453857422e+00 1.883011937141418457e+00 1.223333597183227539e+00 -2.114922285079956055e+00
1.926000000000000000e+03 3.135125732421875000e+01 -3.197597980499267578e+00 2.385893583297729492e+00 2.211649179458618164e+00 1.379262804985046387e+00 -2.443733930587768555e+00
1.927000000000000000e+03 3.008875274658203125e+01 -1.159603977203369141e+01 1.388871192932128906e+00 1.973476409912109375e+00 1.008704304695129395e+00 1.934783577919006348e+00
1.928000000000000000e+03 3.141537857055664062e+01 -1.118892574310302734e+01 1.682841539382934570e+00 2.967402458190917969e+00 1.395073294639587402e+00 2.726895332336425781e+00
1.929000000000000000e+03 2.383580780029296875e+01 -9.954090118408203125e-01 4.831823110580444336e-01 3.282206058502197266e-01 2.434208691120147705e-01 -9.667391330003738403e-02
1.930000000000000000e+03 2.680988502502441406e+01 2.828426361083984375e+00 8.241248130798339844e-01 2.001527070999145508e+00 8.476955294609069824e-01 -1.305096030235290527e+00
1.931000000000000000e+03 2.994752120971679688e+01 -1.227356910705566406e+01 1.349886775016784668e+00 2.282826662063598633e+00 1.089814066886901855e+00 1.993980288505554199e+00
1.932000000000000000e+03 3.023334693908691406e+01 -2.395174741744995117e+00 1.949142575263977051e+00 1.782442569732666016e+00 1.119475483894348145e+00 -1.885908961296081543e+00
1.933000000000000000e+03 2.523352432250976562e+01 -1.095623731613159180e+00 7.247624397277832031e-01 5.211636424064636230e-01 3.737778365612030029e-01 -3.249500393867492676e-01
1.934000000000000000e+03 2.596072196960449219e+01 -1.543264865875244141e+00 8.181583285331726074e-01 5.654196739196777344e-01 4.150733947753906250e-01 -3.938343226909637451e-01
1.935000000000000000e+03 9.041357994079589844e+00 5.902673244476318359e+00 -1.198730169562622905e-04 9.830498602241277695e-04 2.589530486147850752e-04 8.178759599104523659e-04
1.936000000000000000e+03 2.622293281555175781e+01 -5.718346834182739258e-01 9.402288794517517090e-01 8.755148053169250488e-01 5.447230935096740723e-01 -6.576651930809020996e-01
1.937000000000000000e+03 6.186808109283447266e+00 6.572245121002197266e+00 5.171531811356544495e-04 2.039301180047914386e-04 2.163250028388574719e-04 -1.874444133136421442e-04
1.938000000000000000e+03 2.898077774047851562e+01 -2.425653934478759766e+00 1.512222528457641602e+00 1.097289204597473145e+00 7.828535437583923340e-01 -1.180649995803833008e+00
1.939000000000000000e+03 6.990796089172363281e+00 -7.010862350463867188e+00 5.082465941086411476e-04 -8.696832810528576374e-04 -1.084310060832649469e-04 -6.311000324785709381e-04
1.940000000000000000e+03 7.633290767669677734e+00 -6.146736145019531250e+00 -1.676221872912719846e-04 1.418045838363468647e-03 3.751270996872335672e-04 8.845056072459556162e-06
1.941000000000000000e+03 2.867647361755371094e+01 -1.180134487152099609e+01 1.037881374359130859e+00 1.273562073707580566e+00 6.934330463409423828e-01 1.217013001441955566e+00
1.942000000000000000e+03 3.041633224487304688e+01 -1.241965579986572266e+01 1.384920716285705566e+00 2.699182271957397461e+00 1.225230932235717773e+00 2.238521575927734375e+00
1.943000000000000000e+03 2.885725021362304688e+01 -1.872139930725097656e+00 1.536986589431762695e+00 1.326912641525268555e+00 8.591697812080383301e-01 -1.306375503540039062e+00
1.944000000000000000e+03 2.825391960144042969e+01 -1.196254611015319824e+00 1.393497824668884277e+00 1.356721758842468262e+00 8.250658512115478516e-01 -1.220706582069396973e+00
1.945000000000000000e+03 2.948410797119140625e+01 -1.165156841278076172e+00 1.655277371406555176e+00 1.988567113876342773e+00 1.093153357505798340e+00 -1.777489900588989258e+00
1.946000000000000000e+03 2.146721649169921875e+01 -1.294901657104492188e+01 -1.089589223265647888e-01 3.349998593330383301e-01 6.781228631734848022e-02 -2.084902077913284302e-01
1.947000000000000000e+03 2.389912796020507812e+01 -1.251332664489746094e+01 1.777978539466857910e-01 4.810640513896942139e-01 1.976585686206817627e-01 2.211981080472469330e-02
1.948000000000000000e+03 2.984302330017089844e+01 -1.288492965698242188e+01 1.237873196601867676e+00 2.494663715362548828e+00 1.119761109352111816e+00 1.976199507713317871e+00
1.949000000000000000e+03 7.490106582641601562e+00 8.272486686706542969e+00 2.872426121030002832e-04 -9.708260186016559601e-04 -2.050750335911288857e-04 1.430561183951795101e-03
1.950000000000000000e+03 7.103869438171386719e+00 6.777635097503662109e+00 6.647213594987988472e-04 -1.421328750438988209e-03 -2.269822143716737628e-04 4.978064098395407200e-04
1.951000000000000000e+03 6.672119140625000000e+00 9.163373947143554688e+00 1.118467422202229500e-03 -9.245650726370513439e-04 5.817069904878735542e-05 3.453505923971533775e-04
1.952000000000000000e+03 2.717181777954101562e+01 -1.205867767333984375e+01 7.222145795822143555e-01 8.681077361106872559e-01 4.770967066287994385e-01 7.012265920639038086e-01
1.953000000000000000e+03 2.863691139221191406e+01 -1.249928283691406250e+01 1.090972065925598145e+00 1.576360583305358887e+00 8.001998066902160645e-01 1.367955088615417480e+00
1.954000000000000000e+03 2.171303367614746094e+01 -1.387196350097656250e+01 7.215790916234254837e-03 4.429374933242797852e-01 1.350459903478622437e-01 -7.208292931318283081e-02
1.955000000000000000e+03 2.621759986877441406e+01 -1.297929286956787109e+01 6.529229879379272461e-01 9.450163841247558594e-01 4.793817996978759766e-01 6.138404607772827148e-01
1.956000000000000000e+03 2.708762168884277344e+01 -1.287964344024658203e+01 8.031144142150878906e-01 1.107796072959899902e+00 5.732731223106384277e-01 8.456676006317138672e-01
1.957000000000000000e+03 2.362301445007324219e+01 1.229377937316894531e+01 1.656855791807174683e-01 2.147391080856323242e+00 6.939229965209960938e-01 -9.717839956283569336e-01
1.958000000000000000e+03 2.285407066345214844e+01 9.310088157653808594e+00 2.666833102703094482e-01 1.604718208312988281e+00 5.614204406738281250e-01 -9.377166032791137695e-01
1.959000000000000000e+03 2.486942291259765625e+01 2.612887322902679443e-01 7.324230670928955078e-01 7.690706849098205566e-01 4.504481256008148193e-01 -5.133012533187866211e-01
1.960000000000000000e+03 2.312843513488769531e+01 1.105320334434509277e+00 4.653359651565551758e-01 5.036509037017822266e-01 2.906960546970367432e-01 -3.268740177154541016e-01
1.961000000000000000e+03 7.265530395507812500e+01 5.504267215728759766e+00 7.870500534772872925e-02 7.437170982360839844e+00 2.254762887954711914e+00 4.355572462081909180e-01
1.962000000000000000e+03 2.555240249633789062e+01 8.837097167968750000e+00 2.711877524852752686e-01 2.469203233718872070e+00 8.221172690391540527e-01 -1.234750032424926758e+00
1.963000000000000000e+03 1.988604164123535156e+01 -1.695199584960937500e+01 1.706727221608161926e-02 4.960960447788238525e-01 1.539489924907684326e-01 1.070943176746368408e-01
1.964000000000000000e+03 7.292856597900390625e+01 -8.141202926635742188e+00 1.472440361976623535e-01 7.100411415100097656e+00 2.174296617507934570e+00 -1.095930952578783035e-02
1.965000000000000000e+03 7.068668365478515625e+01 -1.073581409454345703e+01 2.086660712957382202e-01 7.216532230377197266e+00 2.227559566497802734e+00 -1.283083111047744751e-01
1.966000000000000000e+03 2.374181747436523438e+01 5.337218642234802246e-01 5.442337989807128906e-01 5.400246381759643555e-01 3.252775371074676514e-01 -3.331781327724456787e-01
1.967000000000000000e+03 2.491791534423828125e+01 3.857586383819580078e+00 5.665786266326904297e-01 1.509331583976745605e+00 6.227730512619018555e-01 -9.967617392539978027e-01
1.968000000000000000e+03 7.274100494384765625e+01 2.737516164779663086e+00 1.062290817499160767e-01 7.323881149291992188e+00 2.229033231735229492e+00 3.711269199848175049e-01
1.969000000000000000e+03 7.146731567382812500e+01 1.189917802810668945e+00 1.621836572885513306e-01 7.318773269653320312e+00 2.244287014007568359e+00 3.693686723709106445e-01
1.970000000000000000e+03 7.031635284423828125e+01 -4.389262199401855469e+00 2.623517513275146484e-01 7.239130020141601562e+00 2.250444650650024414e+00 1.648023128509521484e-01
1.971000000000000000e+03 7.311283874511718750e+01 -2.005594062805175781e+01 3.832869231700897217e-02 7.322186470031738281e+00 2.208154678344726562e+00 -3.155409097671508789e-01
1.972000000000000000e+03 1.949759483337402344e+01 -1.820501136779785156e+01 4.935502633452415466e-02 5.378490686416625977e-01 1.761612296104431152e-01 1.828652918338775635e-01
1.973000000000000000e+03 2.062633895874023438e+01 -1.989027023315429688e+01 2.156672328710556030e-01 9.700289964675903320e-01 3.557088673114776611e-01 4.390511810779571533e-01
1.974000000000000000e+03 6.865148162841796875e+01 5.011241912841796875e+00 1.771938949823379517e-01 7.523751258850097656e+00 2.310283660888671875e+00 5.770729780197143555e-01
1.975000000000000000e+03 7.161475372314453125e+01 -5.565632343292236328e+00 2.032052874565124512e-01 7.175075054168701172e+00 2.213484048843383789e+00 9.809213876724243164e-02
1.976000000000000000e+03 8.066708564758300781e+00 2.456454849243164062e+01 4.808547720313072205e-02 1.479784697294235229e-01 5.881918221712112427e-02 6.350862979888916016e-02
1.977000000000000000e+03 7.189129638671875000e+01 -2.238496780395507812e+01 1.643555425107479095e-02 7.442445755004882812e+00 2.237664461135864258e+00 -3.741731345653533936e-01
1.978000000000000000e+03 7.182939910888671875e+01 -1.526081848144531250e+01 1.254187971353530884e-01 7.243807792663574219e+00 2.210767984390258789e+00 -2.651950716972351074e-01
1.979000000000000000e+03 7.233235168457031250e+01 1.352161502838134766e+01 -5.929719191044569016e-03 7.806551933288574219e+00 2.340186595916748047e+00 5.140898227691650391e-01
1.980000000000000000e+03 7.099861145019531250e+01 1.120890331268310547e+01 2.178612351417541504e-02 7.714225292205810547e+00 2.320803403854370117e+00 5.774759650230407715e-01
1.981000000000000000e+03 7.158055877685546875e+01 1.810156250000000000e+01 -5.592976510524749756e-02 8.003461837768554688e+00 2.384259462356567383e+00 5.138164758682250977e-01
1.982000000000000000e+03 7.157185363769531250e+01 -2.853154420852661133e+00 1.965381205081939697e-01 7.213452816009521484e+00 2.222997426986694336e+00 2.133318781852722168e-01
1.983000000000000000e+03 7.162400054931640625e+01 1.239528465270996094e+01 2.798885339871048927e-03 7.766819477081298828e+00 2.330885410308837891e+00 5.458468198776245117e-01
1.984000000000000000e+03 6.970119476318359375e+01 1.180790996551513672e+01 1.413726620376110077e-02 7.746261119842529297e+00 2.328119516372680664e+00 6.250362396240234375e-01
1.985000000000000000e+03 7.287588500976562500e+01 -1.370936393737792969e+01 1.102924272418022156e-01 7.160899639129638672e+00 2.181357622146606445e+00 -1.971762776374816895e-01
1.986000000000000000e+03 7.219572448730468750e+01 -1.739709281921386719e+01 8.668279647827148438e-02 7.283539295196533203e+00 2.211066722869873047e+00 -3.091589212417602539e-01
1.987000000000000000e+03 7.147898101806640625e+01 -1.234108543395996094e+01 1.707709729671478271e-01 7.206699371337890625e+00 2.213241100311279297e+00 -1.819714307785034180e-01
1.988000000000000000e+03 7.290055084228515625e+01 2.072121810913085938e+01 -5.571524426341056824e-02 8.143235206604003906e+00 2.426255941390991211e+00 4.262667894363403320e-01
1.989000000000000000e+03 7.054713439941406250e+01 1.913284873962402344e+01 -7.794536650180816650e-02 8.015553474426269531e+00 2.381282329559326172e+00 5.384650230407714844e-01
1.990000000000000000e+03 7.234960079193115234e+00 2.956036949157714844e+01 6.105319783091545105e-02 2.386928796768188477e-01 8.992382138967514038e-02 4.090036079287528992e-02
1.991000000000000000e+03 1.091744422912597656e+01 3.058238220214843750e+01 6.193784251809120178e-02 7.033982872962951660e-01 2.296008467674255371e-01 -7.053492218255996704e-02
1.992000000000000000e+03 2.505883026123046875e+01 6.241647243499755859e+00 4.229494929313659668e-01 1.964895844459533691e+00 7.163535952568054199e-01 -1.165102481842041016e+00
1.993000000000000000e+03 7.081268310546875000e+01 -2.756105613708496094e+01 -7.156056910753250122e-02 7.627543926239013672e+00 2.266794919967651367e+00 -3.820758759975433350e-01
1.994000000000000000e+03 2.347249984741210938e+01 1.366676425933837891e+01 1.142622902989387512e-01 2.223411083221435547e+00 7.013020515441894531e-01 -9.228372573852539062e-01
1.995000000000000000e+03 7.282061767578125000e+01 1.238507032394409180e-02 1.293772310018539429e-01 7.228045463562011719e+00 2.207226753234863281e+00 2.886415123939514160e-01
1.996000000000000000e+03 7.140582275390625000e+01 2.542834043502807617e+00 1.450403332710266113e-01 7.364470005035400391e+00 2.252853155136108398e+00 4.127495884895324707e-01
1.997000000000000000e+03 9.755153656005859375e+00 2.207354164123535156e+01 1.028705760836601257e-02 1.442772895097732544e-01 4.636930674314498901e-02 2.068321034312248230e-02
1.998000000000000000e+03 1.067012596130371094e+01 2.395438957214355469e+01 6.004661694169044495e-02 3.302537798881530762e-01 1.170901134610176086e-01 -4.213675484061241150e-02
1.999000000000000000e+03 8.362563133239746094e+00 2.763735389709472656e+01 6.706506013870239258e-02 2.909627854824066162e-01 1.074083596467971802e-01 2.407648786902427673e-02
2.000000000000000000e+03 7.290905761718750000e+01 -6.793193340301513672e+00 1.497291177511215210e-01 7.103721618652343750e+00 2.176035165786743164e+00 3.980689495801925659e-02
2.001000000000000000e+03 1.884351539611816406e+01 2.194339942932128906e+01 -3.054756671190261841e-02 1.647967696189880371e+00 4.852260351181030273e-01 -4.883607625961303711e-01
2.002000000000000000e+03 7.129582977294921875e+01 6.713085174560546875e+00 8.833787590265274048e-02 7.522644519805908203e+00 2.283294677734375000e+00 5.138143301010131836e-01
2.003000000000000000e+03 7.120210266113281250e+01 8.164899826049804688e+00 6.749849021434783936e-02 7.584718227386474609e+00 2.295665025711059570e+00 5.411986708641052246e-01
2.004000000000000000e+03 1.653770446777343750e+01 -2.690086936950683594e+01 2.605547606945037842e-01 7.826774120330810547e-01 3.129696547985076904e-01 1.976085901260375977e-01
2.005000000000000000e+03 7.134109497070312500e+01 -1.687324905395507812e+01 1.132632419466972351e-01 7.304819107055664062e+00 2.225424766540527344e+00 -3.192511200904846191e-01
2.006000000000000000e+03 7.956082344055175781e+00 2.599770355224609375e+01 7.020955532789230347e-02 2.052855640649795532e-01 8.264853805303573608e-02 5.698380246758460999e-02
2.007000000000000000e+03 7.128713226318359375e+01 1.438353252410888672e+01 -2.249347418546676636e-02 7.853583335876464844e+00 2.349326848983764648e+00 5.600191354751586914e-01
2.008000000000000000e+03 7.045876312255859375e+01 1.319224452972412109e+01 -1.278073806315660477e-02 7.807153701782226562e+00 2.338311910629272461e+00 5.948634743690490723e-01
2.009000000000000000e+03 1.956121444702148438e+01 -2.083356475830078125e+01 1.952033936977386475e-01 8.353811502456665039e-01 3.091753721237182617e-01 3.960088193416595459e-01
2.010000000000000000e+03 1.983445167541503906e+01 2.132725906372070312e+01 -5.510169640183448792e-02 1.856676101684570312e+00 5.404723286628723145e-01 -5.576524138450622559e-01
2.011000000000000000e+03 6.968431854248046875e+01 -2.112475395202636719e+01 5.821209400892257690e-02 7.475089550018310547e+00 2.259990453720092773e+00 -4.310043454170227051e-01
2.012000000000000000e+03 2.119503402709960938e+01 -1.730237197875976562e+01 1.661192774772644043e-01 7.781468033790588379e-01 2.832798361778259277e-01 2.958783805370330811e-01
2.013000000000000000e+03 9.993843078613281250e+00 -2.443456649780273438e+01 1.093493327498435974e-01 -2.950338423252105713e-01 -5.570535361766815186e-02 -3.096529543399810791e-01
2.014000000000000000e+03 6.899559783935546875e+01 -2.686209297180175781e+01 -7.667278498411178589e-02 7.644313812255859375e+00 2.270292282104492188e+00 -4.340790808200836182e-01
2.015000000000000000e+03 7.251107025146484375e+01 -2.753281593322753906e+01 -4.925124347209930420e-02 7.589016914367675781e+00 2.261929750442504883e+00 -3.276988863945007324e-01
2.016000000000000000e+03 7.177842712402343750e+01 2.811374855041503906e+01 -1.015628650784492493e-01 8.327363014221191406e+00 2.467740058898925781e+00 3.317079246044158936e-01
2.017000000000000000e+03 2.410173797607421875e+01 -1.474222564697265625e+01 4.220528900623321533e-01 9.252446293830871582e-01 4.041892588138580322e-01 4.160964488983154297e-01
2.018000000000000000e+03 7.113397979736328125e+01 -2.960130882263183594e+01 -9.220789372920989990e-02 7.669709205627441406e+00 2.273250341415405273e+00 -3.411697745323181152e-01
2.019000000000000000e+03 9.325915336608886719e+00 2.589045715332031250e+01 8.334741741418838501e-02 3.077192008495330811e-01 1.173199862241744995e-01 -5.039844661951065063e-03
2.020000000000000000e+03 2.341007041931152344e+01 1.508010005950927734e+01 6.031136214733123779e-02 2.312899112701416016e+00 7.119631171226501465e-01 -8.720189929008483887e-01
2.021000000000000000e+03 2.206368637084960938e+01 1.804021263122558594e+01 -5.490425974130630493e-03 2.168711662292480469e+00 6.489663720130920410e-01 -7.110013961791992188e-01
2.022000000000000000e+03 1.133750057220458984e+01 -3.058331108093261719e+01 2.206787616014480591e-01 1.695166975259780884e-01 1.170586347579956055e-01 -1.155060902237892151e-01
2.023000000000000000e+03 8.722184181213378906e+00 -2.674918556213378906e+01 1.486990451812744141e-01 -2.458450645208358765e-01 -2.914380654692649841e-02 -3.075137734413146973e-01
2.024000000000000000e+03 3.465587997436523438e+01 -1.008986091613769531e+01 1.246179938316345215e+00 1.068831062316894531e+01 3.580347299575805664e+00 4.342857837677001953e+00
2.025000000000000000e+03 3.274940109252929688e+01 -3.072609186172485352e+00 2.636111736297607422e+00 4.716840744018554688e+00 2.205885648727416992e+00 -3.836689233779907227e+00
2.026000000000000000e+03 3.765970611572265625e+01 -7.591846942901611328e+00 7.792131900787353516e+00 1.391146659851074219e+01 6.511079788208007812e+00 -1.796318531036376953e+00
2.027000000000000000e+03 3.450413513183593750e+01 -3.440493106842041016e+00 1.965629339218139648e+00 1.040475082397460938e+01 3.711114168167114258e+00 -4.622181892395019531e+00
2.028000000000000000e+03 3.588545227050781250e+01 -4.227039337158203125e+00 1.878006577491760254e+00 1.633847999572753906e+01 5.464946269989013672e+00 -1.891483545303344727e+00
2.029000000000000000e+03 3.385358047485351562e+01 -3.896781444549560547e+00 2.946490049362182617e+00 7.671579837799072266e+00 3.185420989990234375e+00 -5.039048194885253906e+00
2.030000000000000000e+03 3.812284469604492188e+01 -6.215504169464111328e+00 8.216833114624023438e+00 1.277007198333740234e+01 6.296071529388427734e+00 7.737917900085449219e-01
2.031000000000000000e+03 3.746336746215820312e+01 -5.292349815368652344e+00 6.574174880981445312e+00 1.488880920410156250e+01 6.438895225524902344e+00 1.973847866058349609e+00
2.032000000000000000e+03 3.765612030029296875e+01 -5.075984001159667969e+00 5.939225196838378906e+00 1.432052135467529297e+01 6.077923774719238281e+00 1.871893405914306641e+00
2.033000000000000000e+03 3.647856903076171875e+01 -9.122283935546875000e+00 2.113884687423706055e+00 1.635729789733886719e+01 5.541355133056640625e+00 1.653753221035003662e-02
2.034000000000000000e+03 3.689165496826171875e+01 -8.837400436401367188e+00 3.435321331024169922e+00 1.615323257446289062e+01 5.876566410064697266e+00 -1.283436894416809082e+00
2.035000000000000000e+03 3.631009292602539062e+01 -3.941728115081787109e+00 1.914510369300842285e+00 1.559772300720214844e+01 5.253670215606689453e+00 -7.966250181198120117e-01
2.036000000000000000e+03 3.598847198486328125e+01 -8.904921531677246094e+00 1.783626198768615723e+00 1.743908119201660156e+01 5.766812324523925781e+00 1.113469481468200684e+00
2.037000000000000000e+03 3.443845367431640625e+01 -9.770112037658691406e+00 1.622000694274902344e+00 1.009049034118652344e+01 3.513747453689575195e+00 4.781939506530761719e+00
2.038000000000000000e+03 3.261357498168945312e+01 -1.043932342529296875e+01 2.014727592468261719e+00 4.342214107513427734e+00 1.907082438468933105e+00 3.653503656387329102e+00
2.039000000000000000e+03 3.290325164794921875e+01 -3.493459463119506836e+00 2.921006202697753906e+00 4.622644901275634766e+00 2.263095378875732422e+00 -4.008927822113037109e+00
2.040000000000000000e+03 3.127390670776367188e+01 -1.165143585205078125e+01 1.630186080932617188e+00 3.169684648513793945e+00 1.439961194992065430e+00 2.723351955413818359e+00
2.041000000000000000e+03 3.269207382202148438e+01 -9.885708808898925781e+00 2.341763734817504883e+00 3.941771745681762695e+00 1.885060548782348633e+00 3.717035293579101562e+00
2.042000000000000000e+03 2.381634330749511719e+01 1.793933510780334473e+00 5.554034709930419922e-01 7.854603528976440430e-01 4.022591412067413330e-01 -5.422447323799133301e-01
2.043000000000000000e+03 3.170499801635742188e+01 -2.914536714553833008e+00 2.454466342926025391e+00 2.872690916061401367e+00 1.598147153854370117e+00 -2.827924251556396484e+00
2.044000000000000000e+03 3.086774635314941406e+01 -2.434495925903320312e+00 2.131152868270874023e+00 2.328187942504882812e+00 1.337802290916442871e+00 -2.311502933502197266e+00
2.045000000000000000e+03 2.581980514526367188e+01 -9.447466731071472168e-01 8.714765310287475586e-01 6.806901693344116211e-01 4.656499922275543213e-01 -4.960933923721313477e-01
2.046000000000000000e+03 2.565867996215820312e+01 -3.953899443149566650e-01 8.417114019393920898e-01 7.821520566940307617e-01 4.871590435504913330e-01 -5.514912605285644531e-01
2.047000000000000000e+03 3.078965377807617188e+01 -1.213977146148681641e+01 1.413331627845764160e+00 2.827221155166625977e+00 1.272165775299072266e+00 2.403745889663696289e+00
2.048000000000000000e+03 3.019120216369628906e+01 -1.800340414047241211e+00 1.889263272285461426e+00 2.132562875747680664e+00 1.206547856330871582e+00 -2.022589445114135742e+00
2.049000000000000000e+03 2.502301788330078125e+01 -5.084507465362548828e-01 7.564309239387512207e-01 6.198466420173645020e-01 4.128832817077636719e-01 -4.083154797554016113e-01
2.050000000000000000e+03 2.759194564819335938e+01 -1.000740528106689453e+00 1.250897049903869629e+00 1.159692049026489258e+00 7.231767177581787109e-01 -1.018606066703796387e+00
2.051000000000000000e+03 2.640371894836425781e+01 4.730495437979698181e-02 1.020526170730590820e+00 1.112382054328918457e+00 6.398724317550659180e-01 -8.512673974037170410e-01
2.052000000000000000e+03 3.202213287353515625e+01 -1.083429527282714844e+01 1.850735902786254883e+00 3.522226572036743164e+00 1.611888766288757324e+00 3.143754243850708008e+00
2.053000000000000000e+03 2.748551559448242188e+01 7.143606543540954590e-01 1.138130545616149902e+00 1.730135560035705566e+00 8.604798316955566406e-01 -1.289495587348937988e+00
2.054000000000000000e+03 2.319205856323242188e+01 -9.255953133106231689e-03 4.494375288486480713e-01 3.549470305442810059e-01 2.413153648376464844e-01 -1.668468713760375977e-01
2.055000000000000000e+03 2.954929924011230469e+01 -1.802500128746032715e+00 1.760634899139404297e+00 1.697407484054565430e+00 1.037412762641906738e+00 -1.679940700531005859e+00
2.056000000000000000e+03 2.545762634277343750e+01 3.042043209075927734e+00 6.772902607917785645e-01 1.522958040237426758e+00 6.600745320320129395e-01 -1.017829895019531250e+00
2.057000000000000000e+03 2.420352745056152344e+01 -1.397990608215332031e+01 3.816299438476562500e-01 7.821327447891235352e-01 3.491288125514984131e-01 3.092016577720642090e-01
2.058000000000000000e+03 2.416748809814453125e+01 -1.194751548767089844e+01 1.388296633958816528e-01 4.497119188308715820e-01 1.765624731779098511e-01 -1.867074146866798401e-02
2.059000000000000000e+03 2.306865882873535156e+01 -1.283325958251953125e+01 1.030723378062248230e-01 4.595943689346313477e-01 1.688000112771987915e-01 -5.423530936241149902e-02
2.060000000000000000e+03 2.250249671936035156e+01 -1.348650932312011719e+01 9.459726512432098389e-02 4.945819675922393799e-01 1.767537742853164673e-01 -2.827184647321701050e-02
2.061000000000000000e+03 7.337886810302734375e+00 5.852922439575195312e+00 1.626649609534069896e-04 6.139096221886575222e-04 2.329723793081939220e-04 2.310007839696481824e-04
2.062000000000000000e+03 2.242975044250488281e+01 -1.446988582611083984e+01 1.494633853435516357e-01 6.211481690406799316e-01 2.311834692955017090e-01 1.055373996496200562e-01
2.063000000000000000e+03 2.608415985107421875e+01 -1.389465808868408203e+01 6.838594079017639160e-01 1.164316654205322266e+00 5.544528365135192871e-01 7.348489165306091309e-01
2.064000000000000000e+03 2.531640052795410156e+01 -1.298327159881591797e+01 4.831270277500152588e-01 7.687473297119140625e-01 3.755623102188110352e-01 3.708342015743255615e-01
2.065000000000000000e+03 2.881974411010742188e+01 -1.382151699066162109e+01 1.041950821876525879e+00 2.208999156951904297e+00 9.752849340438842773e-01 1.632272362709045410e+00
2.066000000000000000e+03 2.591417694091796875e+01 4.385761737823486328e+00 5.987215638160705566e-01 1.968459129333496094e+00 7.701542377471923828e-01 -1.220957994461059570e+00
2.067000000000000000e+03 2.706240081787109375e+01 -1.379242706298828125e+01 8.191322684288024902e-01 1.414650440216064453e+00 6.701347827911376953e-01 9.905217885971069336e-01
2.068000000000000000e+03 2.867611885070800781e+01 -1.318466567993164062e+01 1.095922827720642090e+00 1.885960698127746582e+00 8.945650458335876465e-01 1.513143062591552734e+00
2.069000000000000000e+03 2.789937973022460938e+01 -1.269620800018310547e+01 9.428913593292236328e-01 1.330733656883239746e+00 6.820874810218811035e-01 1.091913819313049316e+00
2.070000000000000000e+03 7.155201721191406250e+01 -1.498554110527038574e+00 1.864837557077407837e-01 7.242111206054687500e+00 2.228578567504882812e+00 2.676724195480346680e-01
2.071000000000000000e+03 6.908012390136718750e+01 -5.958014011383056641e+00 3.221234977245330811e-01 7.268122196197509766e+00 2.277073621749877930e+00 9.609330445528030396e-02
2.072000000000000000e+03 2.325049209594726562e+01 -1.472943115234375000e+01 2.976825833320617676e-01 7.612257003784179688e-01 3.176724910736083984e-01 2.575623989105224609e-01
2.073000000000000000e+03 2.153433799743652344e+01 -1.619530105590820312e+01 1.594884544610977173e-01 7.016185522079467773e-01 2.583321034908294678e-01 2.113114744424819946e-01
2.074000000000000000e+03 7.046104431152343750e+01 -8.449297904968261719e+00 2.510728240013122559e-01 7.213524818420410156e+00 2.239379405975341797e+00 -2.597816474735736847e-02
2.075000000000000000e+03 2.414690589904785156e+01 -7.971124351024627686e-02 6.136140823364257812e-01 5.306172966957092285e-01 3.432694077491760254e-01 -3.105699121952056885e-01
2.076000000000000000e+03 7.132705688476562500e+01 5.305853366851806641e+00 1.072560548782348633e-01 7.466802120208740234e+00 2.272217512130737305e+00 4.845634698867797852e-01
2.077000000000000000e+03 6.996768188476562500e+01 3.684256792068481445e+00 1.651342958211898804e-01 7.446645259857177734e+00 2.283533811569213867e+00 4.928027093410491943e-01
2.078000000000000000e+03 2.531480789184570312e+01 1.002251243591308594e+01 2.139839977025985718e-01 2.492789506912231445e+00 8.120321035385131836e-01 -1.184722065925598145e+00
2.079000000000000000e+03 2.617515563964843750e+01 6.684551715850830078e+00 4.089312851428985596e-01 2.453168869018554688e+00 8.586300015449523926e-01 -1.329722046852111816e+00
2.080000000000000000e+03 2.447555923461914062e+01 1.057936191558837891e+00 6.683011054992675781e-01 8.195453882217407227e-01 4.463539421558380127e-01 -5.548470020294189453e-01
2.081000000000000000e+03 7.176672363281250000e+01 -9.533840179443359375e+00 1.905072182416915894e-01 7.160235404968261719e+00 2.205222845077514648e+00 -6.902994215488433838e-02
2.082000000000000000e+03 7.065439605712890625e+01 -1.581399536132812500e+01 1.482111662626266479e-01 7.304372310638427734e+00 2.235774993896484375e+00 -3.073439896106719971e-01
2.083000000000000000e+03 7.066744232177734375e+01 -9.648263931274414062e+00 2.400669902563095093e-01 7.207596302032470703e+00 2.234298944473266602e+00 -8.124201744794845581e-02
2.084000000000000000e+03 6.957270050048828125e+01 -2.311386680603027344e+01 7.676296867430210114e-03 7.533763408660888672e+00 2.262431859970092773e+00 -4.399612843990325928e-01
2.085000000000000000e+03 7.064385986328125000e+01 -1.788566398620605469e+01 1.035719737410545349e-01 7.358704566955566406e+00 2.238682985305786133e+00 -3.575069904327392578e-01
2.086000000000000000e+03 7.014295959472656250e+01 9.657866358757019043e-01 2.123051732778549194e-01 7.355632305145263672e+00 2.270381212234497070e+00 3.978523015975952148e-01
2.087000000000000000e+03 6.878148651123046875e+01 1.049464607238769531e+01 4.228978976607322693e-02 7.707965850830078125e+00 2.325076580047607422e+00 6.530333757400512695e-01
2.088000000000000000e+03 6.956625366210937500e+01 1.787803268432617188e+01 -7.954849302768707275e-02 7.957804203033447266e+00 2.363476753234863281e+00 5.915453433990478516e-01
2.089000000000000000e+03 7.170899200439453125e+01 -8.239364624023437500e+00 1.934355944395065308e-01 7.158742427825927734e+00 2.205653429031372070e+00 -1.413646154105663300e-02
2.090000000000000000e+03 6.986769866943359375e+01 -1.026973342895507812e+01 2.593266069889068604e-01 7.248015403747558594e+00 2.252202510833740234e+00 -1.158149912953376770e-01
2.091000000000000000e+03 6.997229003906250000e+01 7.888069629669189453e+00 8.687947690486907959e-02 7.596403121948242188e+00 2.304984807968139648e+00 5.825212597846984863e-01
2.092000000000000000e+03 1.022775268554687500e+01 2.520585632324218750e+01 8.171992748975753784e-02 3.282083868980407715e-01 1.229784935712814331e-01 -3.557679429650306702e-02
2.093000000000000000e+03 2.698548507690429688e+01 8.069304466247558594e+00 2.837077677249908447e-01 2.946382522583007812e+00 9.690271019935607910e-01 -1.403806567192077637e+00
2.094000000000000000e+03 6.844945526123046875e+01 1.273288917541503906e+01 -5.387746728956699371e-03 7.787640094757080078e+00 2.334675788879394531e+00 6.715537309646606445e-01
2.095000000000000000e+03 6.875177001953125000e+01 -2.205087471008300781e+01 3.462306037545204163e-02 7.533720493316650391e+00 2.270503044128417969e+00 -4.608904421329498291e-01
2.096000000000000000e+03 7.185105133056640625e+01 -1.994565010070800781e+01 5.381267890334129333e-02 7.369003295898437500e+00 2.226844787597656250e+00 -3.542326688766479492e-01
2.097000000000000000e+03 7.151820373535156250e+01 -1.576386094093322754e-01 1.769365370273590088e-01 7.276725292205810547e+00 2.236098527908325195e+00 3.194472789764404297e-01
2.098000000000000000e+03 1.465674209594726562e+01 2.369551849365234375e+01 4.332351312041282654e-02 8.942263126373291016e-01 2.812649607658386230e-01 -3.136047720909118652e-01
2.099000000000000000e+03 6.926391601562500000e+01 1.410616588592529297e+01 -2.754789590835571289e-02 7.830580711364746094e+00 2.340909957885742188e+00 6.369587779045104980e-01
2.100000000000000000e+03 7.075770568847656250e+01 2.155820083618164062e+01 -9.508915990591049194e-02 8.103266716003417969e+00 2.402453184127807617e+00 4.891074597835540771e-01
2.101000000000000000e+03 6.940648651123046875e+01 2.044219589233398438e+01 -1.087734103202819824e-01 8.032669067382812500e+00 2.377168655395507812e+00 5.508319139480590820e-01
2.102000000000000000e+03 7.040711975097656250e+01 -2.220957565307617188e+01 2.691559307277202606e-02 7.477172851562500000e+00 2.251226425170898438e+00 -4.153357744216918945e-01
2.103000000000000000e+03 2.494760131835937500e+01 1.654314041137695312e+01 -5.397891625761985779e-02 2.823853492736816406e+00 8.309624195098876953e-01 -9.028521180152893066e-01
2.104000000000000000e+03 7.206905364990234375e+01 -2.127027702331542969e+01 3.158923611044883728e-02 7.402761459350585938e+00 2.230305194854736328e+00 -3.603219985961914062e-01
2.105000000000000000e+03 7.120519256591796875e+01 -2.151959991455078125e+01 3.455305844545364380e-02 7.437861442565917969e+00 2.241724252700805664e+00 -3.908337950706481934e-01
2.106000000000000000e+03 1.045989894866943359e+01 -3.229546737670898438e+01 1.913224309682846069e-01 1.165066361427307129e-01 9.234871715307235718e-02 -9.988123923540115356e-02
2.107000000000000000e+03 1.034040641784667969e+01 -2.629080772399902344e+01 1.924137771129608154e-01 -1.515074223279953003e-01 1.227191090583801270e-02 -2.435414791107177734e-01
2.108000000000000000e+03 2.092072105407714844e+01 -1.852630043029785156e+01 2.050870060920715332e-01 8.930902481079101562e-01 3.294531702995300293e-01 3.816277384757995605e-01
2.109000000000000000e+03 2.475204277038574219e+01 -1.633618545532226562e+01 5.170204639434814453e-01 1.390946507453918457e+00 5.723900794982910156e-01 7.274544835090637207e-01
2.110000000000000000e+03 1.236653423309326172e+01 -2.437660980224609375e+01 1.919857114553451538e-01 -1.292981654405593872e-01 1.880626566708087921e-02 -1.486958861351013184e-01
2.111000000000000000e+03 2.072507095336914062e+01 1.962770843505859375e+01 -4.409170150756835938e-02 1.940359950065612793e+00 5.688804984092712402e-01 -6.256375312805175781e-01
2.112000000000000000e+03 2.005157279968261719e+01 2.264994239807128906e+01 -6.166483089327812195e-02 1.975978612899780273e+00 5.742941498756408691e-01 -5.292140245437622070e-01
2.113000000000000000e+03 7.033503723144531250e+01 2.605024147033691406e+01 -1.277560591697692871e-01 8.214297294616699219e+00 2.425962448120117188e+00 4.053663313388824463e-01
2.114000000000000000e+03 6.969459533691406250e+01 2.321216201782226562e+01 -1.227971389889717102e-01 8.115639686584472656e+00 2.397852897644042969e+00 4.868249595165252686e-01
2.115000000000000000e+03 1.005422306060791016e+01 -2.282449340820312500e+01 2.965907007455825806e-02 -3.974219858646392822e-01 -1.103288754820823669e-01 -3.756779730319976807e-01
2.116000000000000000e+03 8.312294006347656250e+00 -2.212400245666503906e+01 -1.018979325890541077e-01 -3.862085640430450439e-01 -1.464319527149200439e-01 -4.915222227573394775e-01
2.117000000000000000e+03 7.026963806152343750e+01 -1.198690891265869141e+01 2.192207723855972290e-01 7.248029232025146484e+00 2.240175008773803711e+00 -1.834738105535507202e-01
2.118000000000000000e+03 7.119100952148437500e+01 -2.579407882690429688e+01 -3.596711531281471252e-02 7.561707496643066406e+00 2.257722139358520508e+00 -3.904144763946533203e-01
2.119000000000000000e+03 6.867562866210937500e+01 -2.421806716918945312e+01 -1.994586735963821411e-02 7.590074539184570312e+00 2.271038532257080078e+00 -4.618440866470336914e-01
2.120000000000000000e+03 1.823181152343750000e+01 2.332433700561523438e+01 -2.147816494107246399e-02 1.562134146690368652e+00 4.621967971324920654e-01 -4.485850930213928223e-01
2.121000000000000000e+03 2.034543037414550781e+01 -2.255619239807128906e+01 2.421827167272567749e-01 1.156898498535156250e+00 4.197243452072143555e-01 5.221077799797058105e-01
2.122000000000000000e+03 2.382569694519042969e+01 1.096607112884521484e+01 2.105876952409744263e-01 2.084847211837768555e+00 6.886304616928100586e-01 -1.023676991462707520e+00
2.123000000000000000e+03 1.004460525512695312e+01 2.726243972778320312e+01 8.222232758998870850e-02 4.406834840774536133e-01 1.568717509508132935e-01 -3.578591346740722656e-02
2.124000000000000000e+03 1.142664527893066406e+01 2.619231986999511719e+01 8.066657930612564087e-02 5.492624044418334961e-01 1.889786869287490845e-01 -9.712074697017669678e-02
2.125000000000000000e+03 6.925719451904296875e+01 -3.374503707885742188e+01 -1.767114996910095215e-01 7.773222923278808594e+00 2.278953313827514648e+00 -2.849147021770477295e-01
2.126000000000000000e+03 2.237164306640625000e+01 -1.867983436584472656e+01 3.180130422115325928e-01 1.172395348548889160e+00 4.471225142478942871e-01 5.681961774826049805e-01
2.127000000000000000e+03 2.249611854553222656e+01 -1.748454475402832031e+01 3.167596161365509033e-01 1.054889678955078125e+00 4.114947617053985596e-01 4.871438145637512207e-01
2.128000000000000000e+03 6.947493553161621094e+00 -2.223795318603515625e+01 -1.333612501621246338e-01 -2.674822211265563965e-01 -1.202530413866043091e-01 -4.338113069534301758e-01
2.129000000000000000e+03 6.680455780029296875e+01 2.367396354675292969e+01 -1.972628831863403320e-01 8.028687477111816406e+00 2.349427461624145508e+00 5.370492339134216309e-01
2.130000000000000000e+03 3.498979568481445312e+01 -3.493498325347900391e+00 1.586670398712158203e+00 1.198779010772705078e+01 4.072338104248046875e+00 -4.065479278564453125e+00
2.131000000000000000e+03 3.376162719726562500e+01 -3.548491239547729492e+00 2.648685693740844727e+00 7.473226070404052734e+00 3.036573410034179688e+00 -4.762300968170166016e+00
2.132000000000000000e+03 3.519208145141601562e+01 -1.007635593414306641e+01 8.831188678741455078e-01 1.241931438446044922e+01 3.990729808807373047e+00 3.597222328186035156e+00
2.133000000000000000e+03 3.790509033203125000e+01 -7.707688331604003906e+00 7.406709671020507812e+00 1.349454307556152344e+01 6.270376205444335938e+00 -1.808723926544189453e+00
2.134000000000000000e+03 3.849289321899414062e+01 -5.840814590454101562e+00 7.215148448944091797e+00 1.223445034027099609e+01 5.834879398345947266e+00 1.046978712081909180e+00
2.135000000000000000e+03 3.302665328979492188e+01 -9.964392662048339844e+00 2.275072336196899414e+00 4.789847373962402344e+00 2.119475841522216797e+00 4.048190593719482422e+00
2.136000000000000000e+03 3.728562164306640625e+01 -8.151393890380859375e+00 6.066820621490478516e+00 1.534118461608886719e+01 6.422401428222656250e+00 -2.211810588836669922e+00
2.137000000000000000e+03 3.517542266845703125e+01 -3.220506429672241211e+00 1.314155697822570801e+00 1.217632675170898438e+01 4.047144889831542969e+00 -3.613186597824096680e+00
2.138000000000000000e+03 3.341088867187500000e+01 -2.735568046569824219e+00 2.192213535308837891e+00 6.608094215393066406e+00 2.640092372894287109e+00 -4.123329162597656250e+00
2.139000000000000000e+03 3.576865768432617188e+01 -1.001040554046630859e+01 7.329735755920410156e-01 1.381166648864746094e+01 4.363391876220703125e+00 2.446492671966552734e+00
2.140000000000000000e+03 3.586211395263671875e+01 -9.609307289123535156e+00 1.041502118110656738e+00 1.492230510711669922e+01 4.789142131805419922e+00 2.046588897705078125e+00
2.141000000000000000e+03 3.217625808715820312e+01 -2.747585058212280273e+00 2.461634159088134766e+00 3.818432092666625977e+00 1.884019851684570312e+00 -3.307306289672851562e+00
2.142000000000000000e+03 3.819046020507812500e+01 -6.564393520355224609e+00 8.336526870727539062e+00 1.253524398803710938e+01 6.261531352996826172e+00 1.205233782529830933e-01
2.143000000000000000e+03 3.771114730834960938e+01 -5.336666107177734375e+00 6.633890151977539062e+00 1.401585483551025391e+01 6.194923877716064453e+00 1.818318605422973633e+00
2.144000000000000000e+03 3.427481842041015625e+01 -3.854966878890991211e+00 2.484103679656982422e+00 9.420273780822753906e+00 3.571313381195068359e+00 -5.067793846130371094e+00
2.145000000000000000e+03 3.731269073486328125e+01 -7.897314071655273438e+00 7.081461906433105469e+00 1.519435024261474609e+01 6.682743549346923828e+00 -2.265545129776000977e+00
2.146000000000000000e+03 3.778900146484375000e+01 -7.976487159729003906e+00 6.688401222229003906e+00 1.393908882141113281e+01 6.188247203826904297e+00 -1.999322414398193359e+00
2.147000000000000000e+03 3.799753189086914062e+01 -5.429700374603271484e+00 6.741114616394042969e+00 1.328888797760009766e+01 6.009000778198242188e+00 1.647024393081665039e+00
2.148000000000000000e+03 3.737268829345703125e+01 -8.961032867431640625e+00 3.677599906921386719e+00 1.498430156707763672e+01 5.598570346832275391e+00 -1.559303045272827148e+00
2.149000000000000000e+03 3.768664169311523438e+01 -4.544867992401123047e+00 4.458297729492187500e+00 1.419657707214355469e+01 5.596462249755859375e+00 1.635636448860168457e+00
2.150000000000000000e+03 3.709663009643554688e+01 -3.898255109786987305e+00 2.604908704757690430e+00 1.473860263824462891e+01 5.203053474426269531e+00 5.738257765769958496e-01
2.151000000000000000e+03 3.750439834594726562e+01 -8.610735893249511719e+00 4.689973831176757812e+00 1.487534236907958984e+01 5.869594573974609375e+00 -1.931813716888427734e+00
2.152000000000000000e+03 3.546176528930664062e+01 -3.961019515991210938e+00 1.571128249168395996e+00 1.462480068206787109e+01 4.858778953552246094e+00 -3.207796573638916016e+00
2.153000000000000000e+03 3.363374328613281250e+01 -3.136285543441772461e+00 2.376252174377441406e+00 7.160426616668701172e+00 2.861003637313842773e+00 -4.448363780975341797e+00
2.154000000000000000e+03 3.123533630371093750e+01 -1.214276981353759766e+01 1.442014813423156738e+00 3.376405954360961914e+00 1.445526242256164551e+00 2.674307346343994141e+00
2.155000000000000000e+03 3.074449157714843750e+01 -1.159517288208007812e+01 1.545566320419311523e+00 2.507287263870239258e+00 1.215856075286865234e+00 2.323607206344604492e+00
2.156000000000000000e+03 3.147525787353515625e+01 -2.388073205947875977e+00 2.249891996383666992e+00 3.003409147262573242e+00 1.575990319252014160e+00 -2.763646364212036133e+00
2.157000000000000000e+03 3.080226707458496094e+01 -1.833834767341613770e+00 1.993580579757690430e+00 2.691578626632690430e+00 1.405547738075256348e+00 -2.394507884979248047e+00
2.158000000000000000e+03 2.927135276794433594e+01 -5.369969606399536133e-01 1.541569948196411133e+00 2.185787439346313477e+00 1.118207216262817383e+00 -1.796713352203369141e+00
2.159000000000000000e+03 3.028168296813964844e+01 -1.286956977844238281e+01 1.276891469955444336e+00 2.815217256546020508e+00 1.227632641792297363e+00 2.193228721618652344e+00
2.160000000000000000e+03 2.837944030761718750e+01 -2.094854116439819336e-01 1.377662181854248047e+00 1.796260237693786621e+00 9.521766901016235352e-01 -1.469418525695800781e+00
2.161000000000000000e+03 2.703789520263671875e+01 -2.027482241392135620e-01 1.136302113533020020e+00 1.226326107978820801e+00 7.087884545326232910e-01 -9.888368248939514160e-01
2.162000000000000000e+03 2.654776763916015625e+01 5.726749420166015625e+00 4.972280263900756836e-01 2.462932825088500977e+00 8.880482912063598633e-01 -1.381202697753906250e+00
2.163000000000000000e+03 2.930451965332031250e+01 -1.298518943786621094e+01 1.199548482894897461e+00 2.188947916030883789e+00 1.016548871994018555e+00 1.773391246795654297e+00
2.164000000000000000e+03 3.030963516235351562e+01 -1.336246871948242188e+01 1.226516962051391602e+00 3.090772867202758789e+00 1.295186996459960938e+00 2.270768165588378906e+00
2.165000000000000000e+03 3.015873146057128906e+01 -1.158542871475219727e+00 1.764401078224182129e+00 2.488450765609741211e+00 1.275855541229248047e+00 -2.119827270507812500e+00
2.166000000000000000e+03 2.821069717407226562e+01 4.096152782440185547e-01 1.260356783866882324e+00 1.943074822425842285e+00 9.610295295715332031e-01 -1.473366975784301758e+00
2.167000000000000000e+03 2.453458213806152344e+01 -1.280151844024658203e+01 3.266556262969970703e-01 6.317391395568847656e-01 2.875184118747711182e-01 1.805647164583206177e-01
2.168000000000000000e+03 2.797685813903808594e+01 9.891442060470581055e-01 1.157412767410278320e+00 2.011065721511840820e+00 9.505435824394226074e-01 -1.459921479225158691e+00
2.169000000000000000e+03 2.496073150634765625e+01 -1.468773365020751953e+01 5.479250550270080566e-01 1.069806575775146484e+00 4.853194952011108398e-01 5.694620609283447266e-01
2.170000000000000000e+03 2.511286735534667969e+01 -1.385507106781005859e+01 5.058394074440002441e-01 9.319400191307067871e-01 4.313338398933410645e-01 4.614552855491638184e-01
2.171000000000000000e+03 2.296861457824707031e+01 -1.551408576965332031e+01 3.086446225643157959e-01 8.506712317466735840e-01 3.477947711944580078e-01 3.280770778656005859e-01
2.172000000000000000e+03 2.547446632385253906e+01 5.275611877441406250e+00 5.056845545768737793e-01 1.964722633361816406e+00 7.411221265792846680e-01 -1.190789699554443359e+00
2.173000000000000000e+03 2.794436264038085938e+01 -1.348122882843017578e+01 9.605020880699157715e-01 1.668323278427124023e+00 7.886475920677185059e-01 1.267964005470275879e+00
2.174000000000000000e+03 2.855256271362304688e+01 -1.491039276123046875e+01 9.298151135444641113e-01 2.461295604705810547e+00 1.017333149909973145e+00 1.621442437171936035e+00
2.175000000000000000e+03 2.725563430786132812e+01 -1.477102947235107422e+01 8.394418954849243164e-01 1.804418563842773438e+00 7.931581139564514160e-01 1.190036296844482422e+00
2.176000000000000000e+03 8.840343475341796875e+00 6.804490566253662109e+00 5.603204481303691864e-04 -1.467490685172379017e-03 -2.721510827541351318e-04 2.701006014831364155e-04
2.177000000000000000e+03 6.813057708740234375e+01 -9.058163642883300781e+00 3.732890784740447998e-01 7.300900459289550781e+00 2.302256822586059570e+00 -6.782466918230056763e-02
2.178000000000000000e+03 6.871169281005859375e+01 -1.202422523498535156e+01 2.941527664661407471e-01 7.307362556457519531e+00 2.280454635620117188e+00 -2.070104479789733887e-01
2.179000000000000000e+03 2.460591125488281250e+01 2.438124179840087891e+00 6.204895377159118652e-01 1.119410395622253418e+00 5.219699740409851074e-01 -7.638767361640930176e-01
2.180000000000000000e+03 6.963481903076171875e+01 9.292082786560058594e+00 6.217283755540847778e-02 7.658387184143066406e+00 2.316168069839477539e+00 6.164939999580383301e-01
2.181000000000000000e+03 6.951969909667968750e+01 -1.672439956665039062e+01 1.591599732637405396e-01 7.374028682708740234e+00 2.259956598281860352e+00 -3.617917001247406006e-01
2.182000000000000000e+03 6.889793395996093750e+01 -2.004621315002441406e+01 9.254806488752365112e-02 7.473526954650878906e+00 2.269822359085083008e+00 -4.383249282836914062e-01
2.183000000000000000e+03 2.675319099426269531e+01 9.157273292541503906e+00 2.172711789608001709e-01 2.958206653594970703e+00 9.526433944702148438e-01 -1.339753746986389160e+00
2.184000000000000000e+03 2.764839363098144531e+01 1.556869387626647949e+00 1.039961934089660645e+00 2.054094552993774414e+00 9.282169342041015625e-01 -1.424381971359252930e+00
2.185000000000000000e+03 2.693916702270507812e+01 4.833075046539306641e+00 5.991415381431579590e-01 2.479205846786499023e+00 9.235042333602905273e-01 -1.429912567138671875e+00
2.186000000000000000e+03 2.269842147827148438e+01 -1.643647575378417969e+01 3.073267936706542969e-01 9.453771710395812988e-01 3.758111894130706787e-01 3.978163301944732666e-01
2.187000000000000000e+03 2.630314254760742188e+01 -1.609499931335449219e+01 6.952536702156066895e-01 1.809362053871154785e+00 7.513847351074218750e-01 1.073933959007263184e+00
2.188000000000000000e+03 2.346742248535156250e+01 1.654163360595703125e+01 7.484557572752237320e-03 2.424225330352783203e+00 7.295129895210266113e-01 -8.311424255371093750e-01
2.189000000000000000e+03 2.364334297180175781e+01 1.808026313781738281e+01 -5.123894661664962769e-02 2.545324802398681641e+00 7.482258081436157227e-01 -7.941288352012634277e-01
2.190000000000000000e+03 7.005862426757812500e+01 -1.442608070373535156e+01 1.890177577733993530e-01 7.297578811645507812e+00 2.245979070663452148e+00 -2.741913497447967529e-01
2.191000000000000000e+03 7.034148406982421875e+01 -5.749260902404785156e+00 2.579703330993652344e-01 7.225660324096679688e+00 2.245089292526245117e+00 9.625455737113952637e-02
2.192000000000000000e+03 7.038802337646484375e+01 -7.100290775299072266e+00 2.541340291500091553e-01 7.218458652496337891e+00 2.241777658462524414e+00 3.835632279515266418e-02
2.193000000000000000e+03 6.866674804687500000e+01 -1.528862476348876953e+01 2.223139852285385132e-01 7.371817111968994141e+00 2.278239488601684570e+00 -3.407041430473327637e-01
2.194000000000000000e+03 7.148401641845703125e+01 -1.387926959991455078e+01 1.536036729812622070e-01 7.230787754058837891e+00 2.215317487716674805e+00 -2.313011884689331055e-01
2.195000000000000000e+03 6.817673492431640625e+01 1.906561851501464844e+01 -1.191850677132606506e-01 7.971969604492187500e+00 2.355835437774658203e+00 6.109921932220458984e-01
2.196000000000000000e+03 6.869955444335937500e+01 1.647476959228515625e+01 -6.983803957700729370e-02 7.907382488250732422e+00 2.351263284683227539e+00 6.325783133506774902e-01
2.197000000000000000e+03 7.003150939941406250e+01 6.510723114013671875e+00 1.133604347705841064e-01 7.544585704803466797e+00 2.297384023666381836e+00 5.599207282066345215e-01
2.198000000000000000e+03 1.983170509338378906e+01 2.424177932739257812e+01 -6.052121147513389587e-02 1.959890246391296387e+00 5.698106884956359863e-01 -4.800282716751098633e-01
2.199000000000000000e+03 6.756468963623046875e+01 -2.541333961486816406e+01 -6.182638928294181824e-02 7.651571273803710938e+00 2.276923418045043945e+00 -4.805513322353363037e-01
2.200000000000000000e+03 6.983568572998046875e+01 -2.523997497558593750e+01 -3.329680860042572021e-02 7.580101966857910156e+00 2.264041662216186523e+00 -4.279603362083435059e-01
2.201000000000000000e+03 1.174317359924316406e+01 3.249660491943359375e+01 3.853015601634979248e-02 8.403455018997192383e-01 2.636626958847045898e-01 -7.256977260112762451e-02
2.202000000000000000e+03 1.050268268585205078e+01 2.892038917541503906e+01 8.057647943496704102e-02 5.585432052612304688e-01 1.917358934879302979e-01 -6.874453276395797729e-02
2.203000000000000000e+03 1.378048038482666016e+01 -2.491669464111328125e+01 2.159966677427291870e-01 8.527075499296188354e-02 9.038022905588150024e-02 -3.492914885282516479e-02
2.204000000000000000e+03 1.337737560272216797e+01 2.442051506042480469e+01 5.942147225141525269e-02 7.308056950569152832e-01 2.370681464672088623e-01 -2.407779544591903687e-01
2.205000000000000000e+03 1.492163276672363281e+01 2.760777091979980469e+01 3.533902391791343689e-02 1.123410582542419434e+00 3.476248979568481445e-01 -2.404941022396087646e-01
2.206000000000000000e+03 6.816789245605468750e+01 2.195985794067382812e+01 -1.490200757980346680e-01 8.041666984558105469e+00 2.367794036865234375e+00 5.504575371742248535e-01
2.207000000000000000e+03 6.759659576416015625e+01 -2.848911857604980469e+01 -1.393834054470062256e-01 7.715869426727294922e+00 2.272945880889892578e+00 -4.387271106243133545e-01
2.208000000000000000e+03 9.499691963195800781e+00 3.536609649658203125e+01 3.778519481420516968e-02 5.920916199684143066e-01 1.889630407094955444e-01 -1.158077362924814224e-02
2.209000000000000000e+03 1.861224555969238281e+01 -2.504177856445312500e+01 2.396324127912521362e-01 9.968638420104980469e-01 3.709488809108734131e-01 3.649814724922180176e-01
2.210000000000000000e+03 7.004747009277343750e+01 2.302561998367309570e+00 1.931170523166656494e-01 7.400363445281982422e+00 2.278043985366821289e+00 4.522303342819213867e-01
2.211000000000000000e+03 7.009534454345703125e+01 2.795543479919433594e+01 -1.456325054168701172e-01 8.232383728027343750e+00 2.426025152206420898e+00 3.712182343006134033e-01
2.212000000000000000e+03 6.704564666748046875e+01 2.721825027465820312e+01 -2.140062749385833740e-01 8.093847274780273438e+00 2.363952398300170898e+00 4.298621416091918945e-01
2.213000000000000000e+03 6.849940490722656250e+01 2.514854621887207031e+01 -1.634182631969451904e-01 8.119584083557128906e+00 2.386849641799926758e+00 4.664647877216339111e-01
2.214000000000000000e+03 3.424160766601562500e+01 -3.201918840408325195e+00 2.005141019821166992e+00 9.152997970581054688e+00 3.347441673278808594e+00 -4.518726348876953125e+00
2.215000000000000000e+03 3.353781890869140625e+01 -1.003517341613769531e+01 2.100208282470703125e+00 6.510755538940429688e+00 2.583289146423339844e+00 4.484063625335693359e+00
2.216000000000000000e+03 3.543585968017578125e+01 -3.381887197494506836e+00 1.269127726554870605e+00 1.323346519470214844e+01 4.350778102874755859e+00 -3.148617982864379883e+00
2.217000000000000000e+03 3.783932876586914062e+01 -7.133579730987548828e+00 8.679291725158691406e+00 1.330617713928222656e+01 6.595640659332275391e+00 -1.048091292381286621e+00
2.218000000000000000e+03 3.861810302734375000e+01 -6.560220718383789062e+00 7.655932903289794922e+00 1.187895107269287109e+01 5.860465526580810547e+00 9.556018561124801636e-02
2.219000000000000000e+03 3.432342529296875000e+01 -1.041454315185546875e+01 1.331027388572692871e+00 9.235801696777343750e+00 3.170048713684082031e+00 4.312667846679687500e+00
2.220000000000000000e+03 3.624494552612304688e+01 -1.014900016784667969e+01 8.449695706367492676e-01 1.399697685241699219e+01 4.452583789825439453e+00 1.396996974945068359e+00
2.221000000000000000e+03 3.605511474609375000e+01 -3.482817888259887695e+00 1.350506544113159180e+00 1.442265987396240234e+01 4.731949806213378906e+00 -1.736932992935180664e+00
2.222000000000000000e+03 3.327040100097656250e+01 -3.333127260208129883e+00 2.729732036590576172e+00 5.758147716522216797e+00 2.546363830566406250e+00 -4.314462661743164062e+00
2.223000000000000000e+03 3.618184280395507812e+01 -9.672980308532714844e+00 1.163366675376892090e+00 1.508388328552246094e+01 4.874175071716308594e+00 1.241038322448730469e+00
2.224000000000000000e+03 3.642794799804687500e+01 -9.473700523376464844e+00 1.498813629150390625e+00 1.536564159393310547e+01 5.059336662292480469e+00 5.948914885520935059e-01
2.225000000000000000e+03 3.836106109619140625e+01 -4.213241577148437500e+00 4.165196895599365234e+00 1.297556972503662109e+01 5.142230033874511719e+00 1.583420157432556152e+00
2.226000000000000000e+03 3.792692565917968750e+01 -4.110285758972167969e+00 3.761684656143188477e+00 1.360782718658447266e+01 5.210853576660156250e+00 1.432973146438598633e+00
2.227000000000000000e+03 3.708173370361328125e+01 -3.469703912734985352e+00 2.054315567016601562e+00 1.424522495269775391e+01 4.889862060546875000e+00 1.938618272542953491e-01
2.228000000000000000e+03 3.731408691406250000e+01 -9.352362632751464844e+00 2.741715431213378906e+00 1.471897411346435547e+01 5.238206863403320312e+00 -1.091704845428466797e+00
2.229000000000000000e+03 3.776747131347656250e+01 -9.463676452636718750e+00 2.965524911880493164e+00 1.394161605834960938e+01 5.072142124176025391e+00 -1.380006909370422363e+00
2.230000000000000000e+03 3.638467025756835938e+01 -3.482926368713378906e+00 1.510177373886108398e+00 1.451873970031738281e+01 4.808675289154052734e+00 -1.017682313919067383e+00
2.231000000000000000e+03 3.184713745117187500e+01 -1.130045318603515625e+01 1.725712537765502930e+00 3.626080036163330078e+00 1.605537772178649902e+00 3.054294109344482422e+00
2.232000000000000000e+03 3.168888282775878906e+01 -1.171482086181640625e+01 1.589656233787536621e+00 3.632439374923706055e+00 1.566628694534301758e+00 2.926692008972167969e+00
2.233000000000000000e+03 3.224733734130859375e+01 -1.147296714782714844e+01 1.597808003425598145e+00 4.431467056274414062e+00 1.808782458305358887e+00 3.285938262939453125e+00
2.234000000000000000e+03 3.104110145568847656e+01 -1.253648948669433594e+01 1.400117278099060059e+00 3.390218496322631836e+00 1.437100768089294434e+00 2.596247196197509766e+00
2.235000000000000000e+03 3.202147674560546875e+01 -2.256811618804931641e+00 2.251026153564453125e+00 3.934385299682617188e+00 1.855623483657836914e+00 -3.190893888473510742e+00
2.236000000000000000e+03 3.136938858032226562e+01 -1.831555843353271484e+00 2.049845218658447266e+00 3.295002222061157227e+00 1.603454232215881348e+00 -2.753645181655883789e+00
2.237000000000000000e+03 2.581506347656250000e+01 -1.472824001312255859e+01 6.848225593566894531e-01 1.334716677665710449e+00 6.058617830276489258e-01 7.965202927589416504e-01
2.238000000000000000e+03 3.078207206726074219e+01 -1.255689144134521484e+00 1.851167559623718262e+00 3.025279521942138672e+00 1.462934136390686035e+00 -2.450473308563232422e+00
2.239000000000000000e+03 3.166330718994140625e+01 -1.213930988311767578e+01 1.440346598625183105e+00 3.868790864944458008e+00 1.592741250991821289e+00 2.888783931732177734e+00
2.240000000000000000e+03 2.664905738830566406e+01 6.458056569099426270e-01 1.043757557868957520e+00 1.338136196136474609e+00 7.145681381225585938e-01 -1.019923329353332520e+00
2.241000000000000000e+03 2.718776130676269531e+01 3.346488475799560547e-01 1.157263040542602539e+00 1.455615043640136719e+00 7.838634252548217773e-01 -1.136845111846923828e+00
2.242000000000000000e+03 2.898609733581542969e+01 4.028428718447685242e-02 1.409684777259826660e+00 2.236529350280761719e+00 1.093864202499389648e+00 -1.733065128326416016e+00
2.243000000000000000e+03 3.019419670104980469e+01 -1.392834949493408203e+01 1.086513400077819824e+00 3.188229560852050781e+00 1.282422900199890137e+00 2.169887542724609375e+00
2.244000000000000000e+03 2.937654876708984375e+01 -1.363518428802490234e+01 1.111229300498962402e+00 2.501082420349121094e+00 1.083693504333496094e+00 1.845758199691772461e+00
2.245000000000000000e+03 3.028071594238281250e+01 -5.382212996482849121e-01 1.625710368156433105e+00 2.878957986831665039e+00 1.351400494575500488e+00 -2.213817834854125977e+00
2.246000000000000000e+03 2.636391448974609375e+01 3.570075035095214844e+00 7.089745402336120605e-01 1.994938850402832031e+00 8.111740350723266602e-01 -1.265318632125854492e+00
2.247000000000000000e+03 2.343658065795898438e+01 -1.411986351013183594e+01 2.510224878787994385e-01 7.001202106475830078e-01 2.853428125381469727e-01 1.889555603265762329e-01
2.248000000000000000e+03 2.378414535522460938e+01 -1.646588516235351562e+01 4.335140287876129150e-01 1.172914147377014160e+00 4.819284379482269287e-01 5.802206397056579590e-01
2.249000000000000000e+03 3.085431861877441406e+01 -7.100428938865661621e-01 1.690235733985900879e+00 3.368674993515014648e+00 1.517673254013061523e+00 -2.503128528594970703e+00
2.250000000000000000e+03 2.876957321166992188e+01 6.256561875343322754e-01 1.293363809585571289e+00 2.303823709487915039e+00 1.079156279563903809e+00 -1.698826313018798828e+00
2.251000000000000000e+03 2.917556190490722656e+01 -1.427555370330810547e+01 1.034161686897277832e+00 2.586710453033447266e+00 1.086261630058288574e+00 1.811384201049804688e+00
2.252000000000000000e+03 2.974963951110839844e+01 -1.466082763671875000e+01 9.749152660369873047e-01 3.116646528244018555e+00 1.227468609809875488e+00 1.999575138092041016e+00
2.253000000000000000e+03 2.557948112487792969e+01 -1.613595390319824219e+01 6.041907668113708496e-01 1.528863310813903809e+00 6.399161815643310547e-01 8.531178832054138184e-01
2.254000000000000000e+03 2.636011123657226562e+01 -1.523154544830322266e+01 7.113856673240661621e-01 1.618751406669616699e+00 6.990411281585693359e-01 9.830271601676940918e-01
2.255000000000000000e+03 2.774926567077636719e+01 -1.562145423889160156e+01 8.045338392257690430e-01 2.269769906997680664e+00 9.222911596298217773e-01 1.401419997215270996e+00
2.256000000000000000e+03 2.525139808654785156e+01 1.663215160369873047e+00 7.621931433677673340e-01 1.145572304725646973e+00 5.723296403884887695e-01 -8.002984523773193359e-01
2.257000000000000000e+03 2.900035858154296875e+01 5.574682712554931641e+00 4.665876030921936035e-01 3.572566986083984375e+00 1.211746335029602051e+00 -1.723691701889038086e+00
2.258000000000000000e+03 6.703072357177734375e+01 -1.884251022338867188e+01 1.488493084907531738e-01 7.503160476684570312e+00 2.295603036880493164e+00 -4.643989503383636475e-01
2.259000000000000000e+03 2.567577171325683594e+01 3.054453730583190918e-01 8.648407459259033203e-01 9.453934431076049805e-01 5.430702567100524902e-01 -6.810718178749084473e-01
2.260000000000000000e+03 2.240913200378417969e+01 2.104901695251464844e+01 -9.558197855949401855e-02 2.348448753356933594e+00 6.758599877357482910e-01 -6.776281595230102539e-01
2.261000000000000000e+03 2.108530235290527344e+01 2.115474891662597656e+01 -7.135207951068878174e-02 2.087973594665527344e+00 6.049864292144775391e-01 -6.143433451652526855e-01
2.262000000000000000e+03 6.849356842041015625e+01 3.428162574768066406e+00 2.172573357820510864e-01 7.474952220916748047e+00 2.307662963867187500e+00 5.318877100944519043e-01
2.263000000000000000e+03 6.866440582275390625e+01 1.993201494216918945e+00 2.498771399259567261e-01 7.429773807525634766e+00 2.303895235061645508e+00 4.856949448585510254e-01
2.264000000000000000e+03 6.998827362060546875e+01 5.112934589385986328e+00 1.426284760236740112e-01 7.493088245391845703e+00 2.290714979171752930e+00 5.297251343727111816e-01
2.265000000000000000e+03 6.702261352539062500e+01 3.484332561492919922e+00 2.643682062625885010e-01 7.506820201873779297e+00 2.331356525421142578e+00 5.780726671218872070e-01
2.266000000000000000e+03 6.859085845947265625e+01 8.593235015869140625e+00 8.840235322713851929e-02 7.646733283996582031e+00 2.320540666580200195e+00 6.473466753959655762e-01
2.267000000000000000e+03 2.226267814636230469e+01 -2.012504196166992188e+01 3.108383715152740479e-01 1.327857494354248047e+00 4.916087687015533447e-01 6.341705322265625000e-01
2.268000000000000000e+03 6.911225891113281250e+01 -7.335981369018554688e+00 3.089382052421569824e-01 7.263455867767333984e+00 2.271718263626098633e+00 2.591900341212749481e-02
2.269000000000000000e+03 6.924364471435546875e+01 -8.627477645874023438e+00 3.061929643154144287e-01 7.258136272430419922e+00 2.269298791885375977e+00 -3.062287718057632446e-02
2.270000000000000000e+03 2.797912025451660156e+01 5.213583469390869141e+00 5.506542325019836426e-01 3.025360822677612305e+00 1.072804570198059082e+00 -1.599200606346130371e+00
2.271000000000000000e+03 2.727623558044433594e+01 7.059823989868164062e+00 3.626474738121032715e-01 2.950965404510498047e+00 9.940838217735290527e-01 -1.468324184417724609e+00
2.272000000000000000e+03 6.798301696777343750e+01 -2.095844459533691406e+01 7.620023190975189209e-02 7.530822277069091797e+00 2.282106876373291016e+00 -4.764746725559234619e-01
2.273000000000000000e+03 2.511928939819335938e+01 1.124658870697021484e+01 1.628789603710174561e-01 2.532749414443969727e+00 8.086884617805480957e-01 -1.132569670677185059e+00
2.274000000000000000e+03 2.495921325683593750e+01 1.250582599639892578e+01 1.123781800270080566e-01 2.580694198608398438e+00 8.079217076301574707e-01 -1.074381828308105469e+00
2.275000000000000000e+03 6.719718933105468750e+01 1.362211894989013672e+01 -3.013338334858417511e-02 7.814018726348876953e+00 2.335165500640869141e+00 7.069079875946044922e-01
2.276000000000000000e+03 6.369907379150390625e+01 -2.471622657775878906e+01 -7.230594754219055176e-02 7.746146678924560547e+00 2.302152156829833984e+00 -5.770609974861145020e-01
2.277000000000000000e+03 6.601799011230468750e+01 -2.654560279846191406e+01 -1.167755722999572754e-01 7.718239784240722656e+00 2.280439138412475586e+00 -5.024717450141906738e-01
2.278000000000000000e+03 2.485958862304687500e+01 1.380981826782226562e+01 6.398110836744308472e-02 2.636983871459960938e+00 8.102895021438598633e-01 -1.016126394271850586e+00
2.279000000000000000e+03 1.096947193145751953e+01 -2.835804176330566406e+01 2.333126962184906006e-01 3.171053901314735413e-02 7.950697094202041626e-02 -1.616046726703643799e-01
2.280000000000000000e+03 1.169361305236816406e+01 -2.559840011596679688e+01 2.098828554153442383e-01 -8.857498317956924438e-02 3.639236092567443848e-02 -1.587129831314086914e-01
2.281000000000000000e+03 2.936477470397949219e+01 7.667046546936035156e+00 2.011866122484207153e-01 3.942044496536254883e+00 1.242969393730163574e+00 -1.615421175956726074e+00
2.282000000000000000e+03 2.184666252136230469e+01 2.476371955871582031e+01 -1.281612515449523926e-01 2.418260335922241211e+00 6.870297789573669434e-01 -5.363666415214538574e-01
2.283000000000000000e+03 6.674303436279296875e+01 2.044884681701660156e+01 -1.636975258588790894e-01 7.972252845764160156e+00 2.342566490173339844e+00 6.146582365036010742e-01
2.284000000000000000e+03 1.289670372009277344e+01 -2.644780349731445312e+01 2.397509962320327759e-01 8.420400321483612061e-02 9.718649834394454956e-02 -8.683249354362487793e-02
2.285000000000000000e+03 1.647459411621093750e+01 2.646437835693359375e+01 -5.910268519073724747e-04 1.359308242797851562e+00 4.076151549816131592e-01 -3.210768699645996094e-01
2.286000000000000000e+03 9.216717720031738281e+00 2.475124740600585938e+01 5.830085277557373047e-02 2.426763772964477539e-01 9.029316902160644531e-02 1.903624460101127625e-02
2.287000000000000000e+03 3.450394821166992188e+01 -2.961176872253417969e+00 1.635945677757263184e+00 9.849287986755371094e+00 3.445569992065429688e+00 -4.163997650146484375e+00
2.288000000000000000e+03 3.809136962890625000e+01 -8.416635513305664062e+00 5.423277854919433594e+00 1.343065166473388672e+01 5.656178951263427734e+00 -1.941115260124206543e+00
2.289000000000000000e+03 3.200561523437500000e+01 -1.188048362731933594e+01 1.484490156173706055e+00 4.280094146728515625e+00 1.729375243186950684e+00 3.088861703872680664e+00
2.290000000000000000e+03 3.511705398559570312e+01 -2.819464445114135742e+00 1.147327065467834473e+00 1.147976016998291016e+01 3.788125991821289062e+00 -3.474699735641479492e+00
2.291000000000000000e+03 3.814476394653320312e+01 -8.066530227661132812e+00 6.295929908752441406e+00 1.317019748687744141e+01 5.839838027954101562e+00 -1.867316246032714844e+00
2.292000000000000000e+03 3.868496322631835938e+01 -6.957894802093505859e+00 7.495252132415771484e+00 1.182708549499511719e+01 5.796701431274414062e+00 -4.959556758403778076e-01
2.293000000000000000e+03 3.460011672973632812e+01 -1.074929618835449219e+01 9.423838257789611816e-01 9.834805488586425781e+00 3.233156919479370117e+00 3.879218339920043945e+00
2.294000000000000000e+03 3.262852478027343750e+01 -2.622008323669433594e+00 2.381078481674194336e+00 4.803077697753906250e+00 2.155246973037719727e+00 -3.650304079055786133e+00
2.295000000000000000e+03 3.305056381225585938e+01 -2.061863660812377930e+00 1.949211597442626953e+00 5.974481105804443359e+00 2.377107858657836914e+00 -3.733946323394775391e+00
2.296000000000000000e+03 3.606637191772460938e+01 -3.102100849151611328e+00 1.103296756744384766e+00 1.364021587371826172e+01 4.423053741455078125e+00 -1.829113721847534180e+00
2.297000000000000000e+03 3.554234695434570312e+01 -1.040830612182617188e+01 6.342126727104187012e-01 1.264659023284912109e+01 3.984240770339965820e+00 2.809449434280395508e+00
2.298000000000000000e+03 3.584461975097656250e+01 -1.084059333801269531e+01 4.652521312236785889e-01 1.243376159667968750e+01 3.869704008102416992e+00 2.280105590820312500e+00
2.299000000000000000e+03 3.752080154418945312e+01 -3.945301532745361328e+00 3.090549707412719727e+00 1.422733497619628906e+01 5.195365428924560547e+00 1.059559941291809082e+00
2.300000000000000000e+03 3.837797927856445312e+01 -8.958579063415527344e+00 4.297030925750732422e+00 1.301574420928955078e+01 5.193832397460937500e+00 -1.782038807868957520e+00
2.301000000000000000e+03 3.636753845214843750e+01 -3.055639028549194336e+00 1.194667935371398926e+00 1.374178028106689453e+01 4.480934143066406250e+00 -1.262286067008972168e+00
2.302000000000000000e+03 3.680844116210937500e+01 -9.673291206359863281e+00 1.633549094200134277e+00 1.487784671783447266e+01 4.953418731689453125e+00 3.367814421653747559e-02
2.303000000000000000e+03 3.797999954223632812e+01 -8.766955375671386719e+00 4.573282718658447266e+00 1.366429328918457031e+01 5.471272945404052734e+00 -1.867256760597229004e+00
2.304000000000000000e+03 3.247940444946289062e+01 -1.098952388763427734e+01 1.798799037933349609e+00 4.508258819580078125e+00 1.892117261886596680e+00 3.512757062911987305e+00
2.305000000000000000e+03 3.337844467163085938e+01 -1.027022361755371094e+01 1.989663958549499512e+00 6.165865421295166016e+00 2.446658849716186523e+00 4.301228523254394531e+00
2.306000000000000000e+03 3.363609313964843750e+01 -1.051370906829833984e+01 1.721268415451049805e+00 7.096948623657226562e+00 2.645465135574340820e+00 4.334292411804199219e+00
2.307000000000000000e+03 3.077270317077636719e+01 -1.326701354980468750e+01 1.224375247955322266e+00 3.389485120773315430e+00 1.384158134460449219e+00 2.411225795745849609e+00
2.308000000000000000e+03 3.065669822692871094e+01 -1.278095626831054688e+01 1.339607477188110352e+00 3.195487499237060547e+00 1.360528469085693359e+00 2.442988157272338867e+00
2.309000000000000000e+03 3.190050315856933594e+01 -1.763924360275268555e+00 2.030504226684570312e+00 4.002017974853515625e+00 1.809756755828857422e+00 -3.084856271743774414e+00
2.310000000000000000e+03 3.132390213012695312e+01 -1.315341949462890625e+00 1.895844101905822754e+00 3.557932615280151367e+00 1.636132955551147461e+00 -2.745308637619018555e+00
2.311000000000000000e+03 3.131163597106933594e+01 -1.300373268127441406e+01 1.228267431259155273e+00 3.888204813003540039e+00 1.534941673278808594e+00 2.649474859237670898e+00
2.312000000000000000e+03 2.977507400512695312e+01 -2.205777168273925781e-01 1.547983646392822266e+00 2.607329368591308594e+00 1.246593952178955078e+00 -2.026964426040649414e+00
2.313000000000000000e+03 2.655607414245605469e+01 1.677803635597229004e+00 9.222617149353027344e-01 1.608568191528320312e+00 7.592489719390869141e-01 -1.134184718132019043e+00
2.314000000000000000e+03 3.050534057617187500e+01 1.740843057632446289e-03 1.476701498031616211e+00 3.392536878585815430e+00 1.460771441459655762e+00 -2.335865020751953125e+00
2.315000000000000000e+03 2.800312042236328125e+01 2.528750896453857422e+00 9.380239248275756836e-01 2.491496324539184570e+00 1.028856039047241211e+00 -1.587667942047119141e+00
2.316000000000000000e+03 2.837276268005371094e+01 -1.630515861511230469e+01 7.490202784538269043e-01 2.780795574188232422e+00 1.058944821357727051e+00 1.593500137329101562e+00
2.317000000000000000e+03 2.909861755371093750e+01 -1.548061275482177734e+01 8.452376127243041992e-01 2.946821689605712891e+00 1.137617826461791992e+00 1.786367416381835938e+00
2.318000000000000000e+03 2.373678779602050781e+01 -1.743727302551269531e+01 4.267044663429260254e-01 1.325091123580932617e+00 5.255386829376220703e-01 6.585518121719360352e-01
2.319000000000000000e+03 2.596290779113769531e+01 1.055311322212219238e+00 8.944476842880249023e-01 1.216800928115844727e+00 6.333745718002319336e-01 -8.785088062286376953e-01
2.320000000000000000e+03 2.631739425659179688e+01 1.267947387695312500e+01 5.540900304913520813e-02 3.029815435409545898e+00 9.255673885345458984e-01 -1.158329367637634277e+00
2.321000000000000000e+03 2.623732566833496094e+01 1.390336227416992188e+01 -7.620363961905241013e-03 3.087886571884155273e+00 9.240798950195312500e-01 -1.095887064933776855e+00
2.322000000000000000e+03 2.707274436950683594e+01 1.156273365020751953e+00 1.038601040840148926e+00 1.665719389915466309e+00 8.112961053848266602e-01 -1.209557414054870605e+00
2.323000000000000000e+03 2.640046501159667969e+01 1.649185943603515625e+01 -1.160449758172035217e-01 3.206434249877929688e+00 9.271168112754821777e-01 -9.721987843513488770e-01
2.324000000000000000e+03 2.628336334228515625e+01 1.517442131042480469e+01 -6.503419578075408936e-02 3.138543367385864258e+00 9.220527410507202148e-01 -1.020179033279418945e+00
2.325000000000000000e+03 2.600436782836914062e+01 2.305942773818969727e+00 8.087979555130004883e-01 1.567552685737609863e+00 7.129051685333251953e-01 -1.065169095993041992e+00
2.326000000000000000e+03 2.758647346496582031e+01 -1.719726753234863281e+01 6.532906889915466309e-01 2.599285602569580078e+00 9.757728576660156250e-01 1.421667218208312988e+00
2.327000000000000000e+03 2.982841873168945312e+01 9.842650413513183594e+00 -1.301863975822925568e-02 4.226159572601318359e+00 1.263942241668701172e+00 -1.469851970672607422e+00
2.328000000000000000e+03 2.731940841674804688e+01 4.005279064178466797e+00 6.968714594841003418e-01 2.479280233383178711e+00 9.528455138206481934e-01 -1.472039937973022461e+00
2.329000000000000000e+03 6.891251373291015625e+01 -5.799249410629272461e-01 2.843347191810607910e-01 7.355627536773681641e+00 2.291988611221313477e+00 3.731966018676757812e-01
2.330000000000000000e+03 6.909030914306640625e+01 -4.590752124786376953e+00 3.221118450164794922e-01 7.278764724731445312e+00 2.280262947082519531e+00 1.654444336891174316e-01
2.331000000000000000e+03 6.789286041259765625e+01 -1.413173913955688477e+00 3.415046930313110352e-01 7.365239620208740234e+00 2.312023401260375977e+00 3.507832288742065430e-01
2.332000000000000000e+03 7.021640777587890625e+01 -3.558163046836853027e-01 2.277854830026626587e-01 7.319887638092041016e+00 2.264301776885986328e+00 3.479231595993041992e-01
2.333000000000000000e+03 6.721954345703125000e+01 -1.583987903594970703e+01 2.457593977451324463e-01 7.429871082305908203e+00 2.302689313888549805e+00 -3.881762027740478516e-01
2.334000000000000000e+03 2.864865303039550781e+01 6.457563400268554688e+00 3.754507601261138916e-01 3.501940011978149414e+00 1.163217186927795410e+00 -1.635947346687316895e+00
2.335000000000000000e+03 2.834463500976562500e+01 7.380980491638183594e+00 2.950527966022491455e-01 3.442702054977416992e+00 1.121326446533203125e+00 -1.560659408569335938e+00
2.336000000000000000e+03 2.381163215637207031e+01 -1.849976158142089844e+01 4.068648517131805420e-01 1.511560440063476562e+00 5.755276083946228027e-01 7.392339706420898438e-01
2.337000000000000000e+03 6.890501403808593750e+01 7.622242927551269531e+00 1.068948358297348022e-01 7.609150409698486328e+00 2.314813613891601562e+00 6.204730272293090820e-01
2.338000000000000000e+03 6.728398132324218750e+01 -1.993632507324218750e+01 1.171783357858657837e-01 7.522888183593750000e+00 2.292019844055175781e+00 -4.786597192287445068e-01
2.339000000000000000e+03 2.403862380981445312e+01 -1.969311523437500000e+01 3.863467872142791748e-01 1.780296087265014648e+00 6.499928832054138184e-01 8.377005457878112793e-01
2.340000000000000000e+03 1.275291633605957031e+01 -2.812140655517578125e+01 2.465977817773818970e-01 1.722866594791412354e-01 1.256653368473052979e-01 -6.802528351545333862e-02
2.341000000000000000e+03 7.014855194091796875e+01 1.546288585662841797e+01 -4.270840436220169067e-02 7.885673999786376953e+00 2.352889776229858398e+00 5.934185385704040527e-01
2.342000000000000000e+03 6.634751129150390625e+01 1.228740406036376953e+01 3.082425566390156746e-03 7.779975414276123047e+00 2.334917306900024414e+00 7.317955493927001953e-01
2.343000000000000000e+03 6.505772399902343750e+01 -2.285764312744140625e+01 2.338994294404983521e-02 7.667926311492919922e+00 2.307394742965698242e+00 -5.632569193840026855e-01
2.344000000000000000e+03 6.382495498657226562e+01 -2.276977539062500000e+01 2.150215022265911102e-02 7.705085277557373047e+00 2.317976236343383789e+00 -5.879760384559631348e-01
2.345000000000000000e+03 6.607467651367187500e+01 -2.250808525085449219e+01 2.972403168678283691e-02 7.622249603271484375e+00 2.295592069625854492e+00 -5.291450023651123047e-01
2.346000000000000000e+03 6.777436828613281250e+01 -2.300436592102050781e+01 8.193312212824821472e-03 7.588462829589843750e+00 2.278996944427490234e+00 -4.863231778144836426e-01
2.347000000000000000e+03 6.539774322509765625e+01 1.875321960449218750e+01 -1.632747054100036621e-01 7.915776252746582031e+00 2.325750589370727539e+00 6.755201816558837891e-01
2.348000000000000000e+03 6.707859802246093750e+01 1.747489929199218750e+01 -1.109279692173004150e-01 7.913836956024169922e+00 2.340872764587402344e+00 6.650341153144836426e-01
2.349000000000000000e+03 2.537546157836914062e+01 2.251847648620605469e+01 -2.191561311483383179e-01 3.150510787963867188e+00 8.794063925743103027e-01 -6.892388463020324707e-01
2.350000000000000000e+03 2.392539596557617188e+01 1.976983833312988281e+01 -1.134455874562263489e-01 2.701995849609375000e+00 7.765651345252990723e-01 -7.428156137466430664e-01
2.351000000000000000e+03 6.758493041992187500e+01 1.141981697082519531e+01 2.453424409031867981e-02 7.749530792236328125e+00 2.332219600677490234e+00 6.976963877677917480e-01
2.352000000000000000e+03 2.286525344848632812e+01 2.240611457824707031e+01 -1.238693892955780029e-01 2.519616603851318359e+00 7.187241911888122559e-01 -6.501849889755249023e-01
2.353000000000000000e+03 2.895116043090820312e+01 9.523926734924316406e+00 7.861589640378952026e-02 3.828310489654541016e+00 1.172077894210815430e+00 -1.482669115066528320e+00
2.354000000000000000e+03 1.795164680480957031e+01 2.804075241088867188e+01 -1.668583042919635773e-02 1.673037767410278320e+00 4.969055652618408203e-01 -3.481865823268890381e-01
2.355000000000000000e+03 1.920386314392089844e+01 2.613224220275878906e+01 -5.496340617537498474e-02 1.851428627967834473e+00 5.389395952224731445e-01 -4.187512397766113281e-01
2.356000000000000000e+03 2.484089851379394531e+01 -1.717284965515136719e+01 5.211049318313598633e-01 1.572586774826049805e+00 6.281074881553649902e-01 8.230701088905334473e-01
2.357000000000000000e+03 3.851181030273437500e+01 -4.874734878540039062e+00 5.456273555755615234e+00 1.267437458038330078e+01 5.439194679260253906e+00 1.675453782081604004e+00
2.358000000000000000e+03 3.833160781860351562e+01 -4.603679656982421875e+00 4.846604347229003906e+00 1.300763034820556641e+01 5.356270313262939453e+00 1.676358103752136230e+00
2.359000000000000000e+03 3.819045257568359375e+01 -7.238792419433593750e+00 7.965526580810546875e+00 1.272418022155761719e+01 6.206912040710449219e+00 -1.078298926353454590e+00
2.360000000000000000e+03 3.818676376342773438e+01 -7.735402584075927734e+00 7.077932834625244141e+00 1.295755004882812500e+01 6.010644912719726562e+00 -1.663914203643798828e+00
2.361000000000000000e+03 3.397903442382812500e+01 -2.886846780776977539e+00 1.996716737747192383e+00 8.261988639831542969e+00 3.077611446380615234e+00 -4.363212585449218750e+00
2.362000000000000000e+03 3.326889038085937500e+01 -1.085987758636474609e+01 1.659731984138488770e+00 6.141583442687988281e+00 2.340394496917724609e+00 3.987229347229003906e+00
2.363000000000000000e+03 3.475911712646484375e+01 -2.769410848617553711e+00 1.351856231689453125e+00 1.045841789245605469e+01 3.543082237243652344e+00 -3.832772016525268555e+00
2.364000000000000000e+03 3.783871078491210938e+01 -9.105921745300292969e+00 3.715202569961547852e+00 1.389803314208984375e+01 5.283970832824707031e+00 -1.672976493835449219e+00
2.365000000000000000e+03 3.630188751220703125e+01 -1.072214412689208984e+01 5.659723281860351562e-01 1.299587059020996094e+01 4.068552970886230469e+00 1.548974275588989258e+00
2.366000000000000000e+03 3.540113449096679688e+01 -2.677507877349853516e+00 9.813402295112609863e-01 1.180818748474121094e+01 3.836858272552490234e+00 -2.981892108917236328e+00
2.367000000000000000e+03 3.864762115478515625e+01 -7.358749389648437500e+00 7.174286365509033203e+00 1.201160717010498047e+01 5.755767822265625000e+00 -1.003182172775268555e+00
2.368000000000000000e+03 3.291311264038085938e+01 -1.125910949707031250e+01 1.584971904754638672e+00 5.518272876739501953e+00 2.130973339080810547e+00 3.711069107055664062e+00
2.369000000000000000e+03 3.776483154296875000e+01 -1.026902103424072266e+01 1.787110209465026855e+00 1.326351833343505859e+01 4.515188694000244141e+00 -6.863421797752380371e-01
2.370000000000000000e+03 3.253409957885742188e+01 -2.136186122894287109e+00 2.123673200607299805e+00 4.906280517578125000e+00 2.108986139297485352e+00 -3.508057594299316406e+00
2.371000000000000000e+03 3.185704994201660156e+01 -1.261755084991455078e+01 1.284369230270385742e+00 4.356414318084716797e+00 1.692234992980957031e+00 2.932486295700073242e+00
2.372000000000000000e+03 3.179825973510742188e+01 -1.323766589164733887e+00 1.896354079246520996e+00 4.151432991027832031e+00 1.814336061477661133e+00 -3.018725395202636719e+00
2.373000000000000000e+03 3.079289245605468750e+01 -1.390400218963623047e+01 1.065840363502502441e+00 3.648675203323364258e+00 1.414354681968688965e+00 2.367760419845581055e+00
2.374000000000000000e+03 3.297333908081054688e+01 -1.203647041320800781e+01 1.252279996871948242e+00 5.886188030242919922e+00 2.141540527343750000e+00 3.485621452331542969e+00
2.375000000000000000e+03 3.261633682250976562e+01 -1.172983074188232422e+01 1.458913326263427734e+00 5.142333984375000000e+00 1.980374217033386230e+00 3.435245275497436523e+00
2.376000000000000000e+03 2.856328773498535156e+01 1.234263777732849121e+00 1.170883417129516602e+00 2.408365488052368164e+00 1.073774695396423340e+00 -1.667383909225463867e+00
2.377000000000000000e+03 2.952077102661132812e+01 2.758488953113555908e-01 1.412881016731262207e+00 2.620204687118530273e+00 1.209925651550292969e+00 -1.937622785568237305e+00
2.378000000000000000e+03 3.001562690734863281e+01 2.556353211402893066e-01 1.428936839103698730e+00 3.051278352737426758e+00 1.344064593315124512e+00 -2.151439905166625977e+00
2.379000000000000000e+03 3.020017814636230469e+01 1.614536643028259277e+00 1.097506046295166016e+00 3.592418670654296875e+00 1.406977415084838867e+00 -2.159285783767700195e+00
2.380000000000000000e+03 3.141675567626953125e+01 -1.363287353515625000e+01 1.074993491172790527e+00 4.274168014526367188e+00 1.604748368263244629e+00 2.651825428009033203e+00
2.381000000000000000e+03 2.761265563964843750e+01 6.113558292388916016e+00 4.515882432460784912e-01 2.979213714599609375e+00 1.029240608215332031e+00 -1.528809070587158203e+00
2.382000000000000000e+03 2.832553863525390625e+01 1.866834402084350586e+00 1.040910959243774414e+00 2.441987991333007812e+00 1.044869661331176758e+00 -1.633436679840087891e+00
2.383000000000000000e+03 3.021751403808593750e+01 7.591000199317932129e-01 1.306083679199218750e+00 3.392194986343383789e+00 1.409483551979064941e+00 -2.213637351989746094e+00
2.384000000000000000e+03 3.090935897827148438e+01 -1.573164367675781250e+01 6.929836273193359375e-01 4.292805671691894531e+00 1.495736718177795410e+00 2.227277994155883789e+00
2.385000000000000000e+03 3.033086967468261719e+01 -1.519127464294433594e+01 8.631005287170410156e-01 3.696097850799560547e+00 1.367759585380554199e+00 2.159764289855957031e+00
2.386000000000000000e+03 2.696125221252441406e+01 -1.649621200561523438e+01 6.957520842552185059e-01 2.168718576431274414e+00 8.593412041664123535e-01 1.248480677604675293e+00
2.387000000000000000e+03 2.825970649719238281e+01 -1.792398071289062500e+01 5.626772046089172363e-01 3.074717044830322266e+00 1.091218352317810059e+00 1.547101259231567383e+00
2.388000000000000000e+03 2.914132308959960938e+01 8.594793319702148438e+00 1.346763372421264648e-01 3.868264913558959961e+00 1.200882315635681152e+00 -1.534203767776489258e+00
2.389000000000000000e+03 2.666385650634765625e+01 -1.812400436401367188e+01 5.486463308334350586e-01 2.404879570007324219e+00 8.860577344894409180e-01 1.236003875732421875e+00
2.390000000000000000e+03 2.903676414489746094e+01 -1.694837188720703125e+01 6.575670242309570312e-01 3.276679754257202148e+00 1.180274009704589844e+00 1.737087726593017578e+00
2.391000000000000000e+03 2.835326004028320312e+01 4.343924522399902344e+00 6.616073846817016602e-01 3.061863899230957031e+00 1.117041468620300293e+00 -1.677197217941284180e+00
2.392000000000000000e+03 2.549568748474121094e+01 -1.898669242858886719e+01 4.590138792991638184e-01 2.132447242736816406e+00 7.774382829666137695e-01 1.035126805305480957e+00
2.393000000000000000e+03 6.795247650146484375e+01 1.502592372894287109e+01 -5.749873444437980652e-02 7.861110210418701172e+00 2.341083526611328125e+00 6.704970598220825195e-01
2.394000000000000000e+03 6.896841430664062500e+01 -9.771852493286132812e+00 3.218568265438079834e-01 7.275366306304931641e+00 2.279166936874389648e+00 -1.062517762184143066e-01
2.395000000000000000e+03 2.787040138244628906e+01 1.641749954223632812e+01 -1.876707226037979126e-01 3.639006376266479492e+00 1.035400629043579102e+00 -1.014172673225402832e+00
2.396000000000000000e+03 2.660414314270019531e+01 1.790142631530761719e+01 -1.754101365804672241e-01 3.358390569686889648e+00 9.548941254615783691e-01 -9.119208455085754395e-01
2.397000000000000000e+03 6.882241058349609375e+01 6.406608104705810547e+00 1.356725990772247314e-01 7.567124843597412109e+00 2.310839176177978516e+00 5.996046662330627441e-01
2.398000000000000000e+03 6.735821533203125000e+01 5.121019840240478516e+00 2.027339637279510498e-01 7.553167819976806641e+00 2.326770544052124023e+00 6.199086904525756836e-01
2.399000000000000000e+03 6.726034545898437500e+01 -1.745466804504394531e+01 1.928835213184356689e-01 7.463207721710205078e+00 2.296827316284179688e+00 -4.274815618991851807e-01
2.400000000000000000e+03 6.582292175292968750e+01 -1.750860404968261719e+01 2.359272688627243042e-01 7.508636951446533203e+00 2.323369264602661133e+00 -4.659547507762908936e-01
2.401000000000000000e+03 3.031605148315429688e+01 7.923836231231689453e+00 9.674039483070373535e-02 4.403040885925292969e+00 1.349934458732604980e+00 -1.626074194908142090e+00
2.402000000000000000e+03 2.791115570068359375e+01 9.391016006469726562e+00 1.437546014785766602e-01 3.440024375915527344e+00 1.075133681297302246e+00 -1.426119565963745117e+00
2.403000000000000000e+03 6.896591949462890625e+01 -3.208708286285400391e+00 3.176147639751434326e-01 7.302654743194580078e+00 2.286080837249755859e+00 2.438015192747116089e-01
2.404000000000000000e+03 6.780083465576171875e+01 -3.667140722274780273e+00 3.771977424621582031e-01 7.330059528350830078e+00 2.312177181243896484e+00 2.394804358482360840e-01
2.405000000000000000e+03 6.707868957519531250e+01 -4.652780532836914062e+00 4.355250597000122070e-01 7.341044902801513672e+00 2.332970857620239258e+00 1.905245333909988403e-01
2.406000000000000000e+03 6.428435516357421875e+01 -1.918609619140625000e+01 1.921054124832153320e-01 7.598003387451171875e+00 2.337032556533813477e+00 -5.384028553962707520e-01
2.407000000000000000e+03 6.701686096191406250e+01 -2.176559638977050781e+01 4.733920097351074219e-02 7.583212852478027344e+00 2.289165496826171875e+00 -5.046631693840026855e-01
2.408000000000000000e+03 6.880958557128906250e+01 7.001330852508544922e-01 2.661829590797424316e-01 7.385635375976562500e+00 2.295545339584350586e+00 4.191316962242126465e-01
2.409000000000000000e+03 6.766632843017578125e+01 6.530500411987304688e+00 1.579155325889587402e-01 7.592886447906494141e+00 2.325240612030029297e+00 6.438883543014526367e-01
2.410000000000000000e+03 6.671805572509765625e+01 1.014580535888671875e+01 6.310560554265975952e-02 7.715948104858398438e+00 2.333716154098510742e+00 7.166281938552856445e-01
2.411000000000000000e+03 6.780149841308593750e+01 -7.659199237823486328e+00 3.876732289791107178e-01 7.307425975799560547e+00 2.308529853820800781e+00 7.098647765815258026e-03
2.412000000000000000e+03 1.997257232666015625e+01 2.973482322692871094e+01 -8.974207192659378052e-02 2.118944406509399414e+00 6.087606549263000488e-01 -3.265027701854705811e-01
2.413000000000000000e+03 2.387883186340332031e+01 2.415320014953613281e+01 -1.897665560245513916e-01 2.797338247299194336e+00 7.822715044021606445e-01 -5.968735218048095703e-01
2.414000000000000000e+03 2.453851509094238281e+01 -2.103401756286621094e+01 3.427634537220001221e-01 2.120683431625366211e+00 7.390340566635131836e-01 9.284774065017700195e-01
2.415000000000000000e+03 2.546483993530273438e+01 1.961570930480957031e+01 -1.606595814228057861e-01 3.046823024749755859e+00 8.658490180969238281e-01 -7.947476506233215332e-01
2.416000000000000000e+03 2.514788818359375000e+01 1.801964187622070312e+01 -9.947367012500762939e-02 2.920612812042236328e+00 8.463417291641235352e-01 -8.404113054275512695e-01
2.417000000000000000e+03 6.794621276855468750e+01 -3.164502525329589844e+01 -1.813842952251434326e-01 7.756808280944824219e+00 2.272627353668212891e+00 -3.584378957748413086e-01
2.418000000000000000e+03 3.914832305908203125e+01 -6.896776199340820312e+00 6.942110061645507812e+00 1.130932426452636719e+01 5.475430011749267578e+00 -3.681825101375579834e-01
2.419000000000000000e+03 3.744886398315429688e+01 -3.193040847778320312e+00 2.023597955703735352e+00 1.361694812774658203e+01 4.692163467407226562e+00 4.069662690162658691e-01
2.420000000000000000e+03 3.651160049438476562e+01 -2.544032573699951172e+00 9.499722123146057129e-01 1.288392066955566406e+01 4.150167942047119141e+00 -1.271567463874816895e+00
2.421000000000000000e+03 3.775495910644531250e+01 -3.470372676849365234e+00 2.557268857955932617e+00 1.354899501800537109e+01 4.831879138946533203e+00 8.804105520248413086e-01
2.422000000000000000e+03 3.689700317382812500e+01 -3.169480562210083008e+00 1.543071269989013672e+00 1.383377933502197266e+01 4.613055229187011719e+00 -3.955313265323638916e-01
2.423000000000000000e+03 3.668227386474609375e+01 -2.878000736236572266e+00 1.239678621292114258e+00 1.345018291473388672e+01 4.406958580017089844e+00 -8.391999602317810059e-01
2.424000000000000000e+03 3.873586654663085938e+01 -8.759219169616699219e+00 4.776607990264892578e+00 1.245018672943115234e+01 5.168038368225097656e+00 -1.767257809638977051e+00
2.425000000000000000e+03 3.521094894409179688e+01 -1.073163318634033203e+01 6.286265850067138672e-01 1.136362552642822266e+01 3.597675561904907227e+00 3.240042448043823242e+00
2.426000000000000000e+03 3.853498840332031250e+01 -5.357620239257812500e+00 6.402334213256835938e+00 1.245123386383056641e+01 5.656070709228515625e+00 1.465181708335876465e+00
2.427000000000000000e+03 3.488671493530273438e+01 -1.106489753723144531e+01 6.729853153228759766e-01 1.030354785919189453e+01 3.292959928512573242e+00 3.458260774612426758e+00
2.428000000000000000e+03 3.898616790771484375e+01 -6.166291236877441406e+00 6.980372905731201172e+00 1.154974746704101562e+01 5.559036254882812500e+00 5.362261533737182617e-01
2.429000000000000000e+03 3.911810302734375000e+01 -5.824177265167236328e+00 6.566609382629394531e+00 1.148365688323974609e+01 5.415079593658447266e+00 8.557867407798767090e-01
2.430000000000000000e+03 3.603607559204101562e+01 -2.767586231231689453e+00 9.623547196388244629e-01 1.298764991760253906e+01 4.185001373291015625e+00 -1.914852857589721680e+00
2.431000000000000000e+03 3.560130691528320312e+01 -2.713972806930541992e+00 9.619223475456237793e-01 1.224655151367187500e+01 3.962542057037353516e+00 -2.589827299118041992e+00
2.432000000000000000e+03 3.413759231567382812e+01 -2.261621713638305664e+00 1.498598337173461914e+00 8.535086631774902344e+00 3.010105371475219727e+00 -3.884150266647338867e+00
2.433000000000000000e+03 3.229279708862304688e+01 -1.217976951599121094e+01 1.363546490669250488e+00 4.848590850830078125e+00 1.863641262054443359e+00 3.213501214981079102e+00
2.434000000000000000e+03 3.886068344116210938e+01 -8.224119186401367188e+00 5.699817180633544922e+00 1.203799152374267578e+01 5.321342468261718750e+00 -1.618412137031555176e+00
2.435000000000000000e+03 3.197692298889160156e+01 -1.357705402374267578e+01 1.014083623886108398e+00 4.828402519226074219e+00 1.752745747566223145e+00 2.823168277740478516e+00
2.436000000000000000e+03 3.241745376586914062e+01 -1.612621426582336426e+00 1.896181464195251465e+00 4.982786178588867188e+00 2.063690423965454102e+00 -3.346046447753906250e+00
2.437000000000000000e+03 3.136832046508789062e+01 -8.349196910858154297e-01 1.718896389007568359e+00 3.864599227905273438e+00 1.675048708915710449e+00 -2.753564119338989258e+00
2.438000000000000000e+03 3.093804931640625000e+01 -1.455806350708007812e+01 9.266792535781860352e-01 4.031004905700683594e+00 1.487305283546447754e+00 2.381761550903320312e+00
2.439000000000000000e+03 3.100250244140625000e+01 -2.059931010007858276e-01 1.526421546936035156e+00 3.722711324691772461e+00 1.574739813804626465e+00 -2.548720121383666992e+00
2.440000000000000000e+03 3.054280853271484375e+01 1.149783492088317871e+00 1.192236900329589844e+00 3.752197027206420898e+00 1.483330130577087402e+00 -2.289898395538330078e+00
2.441000000000000000e+03 3.134299278259277344e+01 7.246745824813842773e-01 1.238509654998779297e+00 4.349281787872314453e+00 1.676337480545043945e+00 -2.558097839355468750e+00
2.442000000000000000e+03 2.920655059814453125e+01 1.399736642837524414e+00 1.172248125076293945e+00 2.851287364959716797e+00 1.207060694694519043e+00 -1.889733433723449707e+00
2.443000000000000000e+03 3.070358085632324219e+01 4.766665399074554443e-01 1.370455980300903320e+00 3.718542814254760742e+00 1.526699662208557129e+00 -2.406404018402099609e+00
2.444000000000000000e+03 3.187477874755859375e+01 -1.411647224426269531e+01 8.814535140991210938e-01 4.862462997436523438e+00 1.723175048828125000e+00 2.695834159851074219e+00
2.445000000000000000e+03 2.766075706481933594e+01 3.238751649856567383e+00 8.140827417373657227e-01 2.500767469406127930e+00 9.944550395011901855e-01 -1.527312278747558594e+00
2.446000000000000000e+03 2.724751281738281250e+01 2.159384489059448242e+00 9.354737401008605957e-01 2.028958082199096680e+00 8.893295526504516602e-01 -1.357591152191162109e+00
2.447000000000000000e+03 3.159057044982910156e+01 -1.612844848632812500e+01 5.205134749412536621e-01 4.913278102874755859e+00 1.630137443542480469e+00 2.264965057373046875e+00
2.448000000000000000e+03 2.971003341674804688e+01 -1.604102516174316406e+01 7.535216808319091797e-01 3.457964658737182617e+00 1.263445854187011719e+00 1.930369734764099121e+00
2.449000000000000000e+03 2.991940116882324219e+01 2.270392417907714844e+00 9.736355543136596680e-01 3.553302526473999023e+00 1.358081340789794922e+00 -2.050776243209838867e+00
2.450000000000000000e+03 2.939694595336914062e+01 4.723770618438720703e+00 5.723197460174560547e-01 3.673896789550781250e+00 1.273864984512329102e+00 -1.830067873001098633e+00
2.451000000000000000e+03 6.248913192749023438e+01 -2.250422286987304688e+01 2.690124139189720154e-02 7.736719131469726562e+00 2.329086065292358398e+00 -6.090099811553955078e-01
2.452000000000000000e+03 6.563283538818359375e+01 3.930867671966552734e+00 2.982683777809143066e-01 7.551218986511230469e+00 2.354846239089965820e+00 6.358852386474609375e-01
2.453000000000000000e+03 2.963694763183593750e+01 6.772274494171142578e+00 2.780873477458953857e-01 4.015486240386962891e+00 1.288072109222412109e+00 -1.702569007873535156e+00
2.454000000000000000e+03 3.119987106323242188e+01 8.109379768371582031e+00 1.663814112544059753e-02 4.835975646972656250e+00 1.455784201622009277e+00 -1.652181029319763184e+00
2.455000000000000000e+03 6.853853607177734375e+01 -1.092127227783203125e+01 3.137835264205932617e-01 7.303473472595214844e+00 2.285177230834960938e+00 -1.626041084527969360e-01
2.456000000000000000e+03 3.065749549865722656e+01 -1.813851928710937500e+01 3.606698811054229736e-01 4.435610771179199219e+00 1.438884139060974121e+00 1.907172679901123047e+00
2.457000000000000000e+03 6.652533721923828125e+01 6.895517826080322266e+00 1.694369167089462280e-01 7.621458053588867188e+00 2.337268590927124023e+00 6.866703629493713379e-01
2.458000000000000000e+03 6.312189102172851562e+01 1.388000607490539551e+00 5.011848211288452148e-01 7.534314155578613281e+00 2.410649776458740234e+00 6.007018685340881348e-01
2.459000000000000000e+03 6.897493743896484375e+01 -1.832537174224853516e+00 3.031329214572906494e-01 7.323358535766601562e+00 2.287947416305541992e+00 3.043942451477050781e-01
2.460000000000000000e+03 6.644370269775390625e+01 1.765011310577392578e+00 3.387233018875122070e-01 7.473654270172119141e+00 2.343713283538818359e+00 5.317973494529724121e-01
2.461000000000000000e+03 6.587069702148437500e+01 -1.609539031982421875e+01 2.812157869338989258e-01 7.476928710937500000e+00 2.327443361282348633e+00 -4.245814383029937744e-01
2.462000000000000000e+03 7.027732086181640625e+01 -3.027251243591308594e+00 2.502639889717102051e-01 7.260818481445312500e+00 2.253324747085571289e+00 2.286058664321899414e-01
2.463000000000000000e+03 6.798841094970703125e+01 7.720822811126708984e+00 1.198155656456947327e-01 7.624953746795654297e+00 2.323430776596069336e+00 6.557219624519348145e-01
2.464000000000000000e+03 6.778337097167968750e+01 9.383996963500976562e+00 7.823614776134490967e-02 7.679232120513916016e+00 2.327240467071533203e+00 6.803237199783325195e-01
2.465000000000000000e+03 6.417252349853515625e+01 1.184521961212158203e+01 9.524603374302387238e-03 7.783362865447998047e+00 2.337866306304931641e+00 7.854976058006286621e-01
2.466000000000000000e+03 2.609188461303710938e+01 -2.002547264099121094e+01 4.056194722652435303e-01 2.518591403961181641e+00 8.772633075714111328e-01 1.155147433280944824e+00
2.467000000000000000e+03 2.730652809143066406e+01 -1.896154212951660156e+01 4.843726158142089844e-01 2.812834024429321289e+00 9.891619682312011719e-01 1.359216570854187012e+00
2.468000000000000000e+03 2.754529953002929688e+01 1.394601154327392578e+01 -7.490133494138717651e-02 3.482684135437011719e+00 1.022334814071655273e+00 -1.117098927497863770e+00
2.469000000000000000e+03 2.843392372131347656e+01 1.904023742675781250e+01 -2.741567790508270264e-01 3.847908735275268555e+00 1.072125554084777832e+00 -8.934210538864135742e-01
2.470000000000000000e+03 2.546346855163574219e+01 -2.245263481140136719e+01 2.678976058959960938e-01 2.598330020904541016e+00 8.598682880401611328e-01 1.042506217956542969e+00
2.471000000000000000e+03 2.355248069763183594e+01 -2.391716003417968750e+01 2.345889955759048462e-01 2.108410596847534180e+00 7.028998732566833496e-01 8.157881498336791992e-01
2.472000000000000000e+03 2.657051086425781250e+01 2.091617393493652344e+01 -2.362769544124603271e-01 3.386224508285522461e+00 9.449842572212219238e-01 -7.873816490173339844e-01
2.473000000000000000e+03 7.067050170898437500e+01 -2.029453086853027344e+01 6.227010861039161682e-02 7.417158603668212891e+00 2.243828773498535156e+00 -3.914239108562469482e-01
2.474000000000000000e+03 6.703791809082031250e+01 -2.773852348327636719e+00 4.114340245723724365e-01 7.361909866333007812e+00 2.332003116607666016e+00 2.945246398448944092e-01
2.475000000000000000e+03 6.784587860107421875e+01 -6.118427276611328125e+00 3.893344700336456299e-01 7.306941032409667969e+00 2.308882713317871094e+00 9.571140259504318237e-02
2.476000000000000000e+03 3.856114578247070312e+01 -7.749397754669189453e+00 6.691059589385986328e+00 1.236653995513916016e+01 5.717279911041259766e+00 -1.470468759536743164e+00
2.477000000000000000e+03 3.934885025024414062e+01 -6.466937541961669922e+00 6.755773067474365234e+00 1.111330318450927734e+01 5.360723018646240234e+00 1.494698673486709595e-01
2.478000000000000000e+03 3.881560516357421875e+01 -5.610020637512207031e+00 6.585642814636230469e+00 1.190432834625244141e+01 5.546991348266601562e+00 1.145762443542480469e+00
2.479000000000000000e+03 3.911121749877929688e+01 -5.299450397491455078e+00 5.933434963226318359e+00 1.162827301025390625e+01 5.268512248992919922e+00 1.283551692962646484e+00
2.480000000000000000e+03 3.677157211303710938e+01 -1.018946743011474609e+01 1.146535158157348633e+00 1.399200820922851562e+01 4.541563034057617188e+00 4.775667488574981689e-01
2.481000000000000000e+03 3.728109359741210938e+01 -1.025013160705566406e+01 1.446083426475524902e+00 1.373815631866455078e+01 4.555272102355957031e+00 -2.006025016307830811e-01
2.482000000000000000e+03 3.395927429199218750e+01 -1.079560375213623047e+01 1.350046277046203613e+00 7.996296405792236328e+00 2.803902864456176758e+00 4.149181365966796875e+00
2.483000000000000000e+03 3.592204284667968750e+01 -2.508469343185424805e+00 8.379251360893249512e-01 1.242247295379638672e+01 3.978119611740112305e+00 -2.123957395553588867e+00
2.484000000000000000e+03 3.821789550781250000e+01 -9.552522659301757812e+00 3.148786306381225586e+00 1.320237159729003906e+01 4.905347347259521484e+00 -1.483173489570617676e+00
2.485000000000000000e+03 3.862364959716796875e+01 -9.533084869384765625e+00 3.422106742858886719e+00 1.260752296447753906e+01 4.808888912200927734e+00 -1.573808908462524414e+00
2.486000000000000000e+03 3.773706817626953125e+01 -9.850266456604003906e+00 2.340973615646362305e+00 1.370068454742431641e+01 4.812497615814208984e+00 -1.005356073379516602e+00
2.487000000000000000e+03 3.427059936523437500e+01 -1.112870788574218750e+01 9.881399273872375488e-01 8.789113998413085938e+00 2.933176279067993164e+00 3.849874973297119141e+00
2.488000000000000000e+03 3.853427886962890625e+01 -3.776022672653198242e+00 3.492662668228149414e+00 1.265117740631103516e+01 4.843152046203613281e+00 1.426512122154235840e+00
2.489000000000000000e+03 3.911729812622070312e+01 -7.538424015045166016e+00 6.511279582977294922e+00 1.144903278350830078e+01 5.388093948364257812e+00 -1.018642544746398926e+00
2.490000000000000000e+03 3.225009536743164062e+01 -1.299895381927490234e+01 1.095291614532470703e+00 4.994925498962402344e+00 1.827065229415893555e+00 2.993650913238525391e+00
2.491000000000000000e+03 3.395828247070312500e+01 -1.153368282318115234e+01 1.018505334854125977e+00 7.865315437316894531e+00 2.665146112442016602e+00 3.739133358001708984e+00
2.492000000000000000e+03 3.547832870483398438e+01 -1.109010982513427734e+01 4.423772096633911133e-01 1.145779132843017578e+01 3.570050716400146484e+00 2.823159933090209961e+00
2.493000000000000000e+03 3.361555480957031250e+01 -1.120523929595947266e+01 1.318292498588562012e+00 7.060971736907958984e+00 2.513779401779174805e+00 3.915106058120727539e+00
2.494000000000000000e+03 3.601600646972656250e+01 -1.131533241271972656e+01 3.387612104415893555e-01 1.186026191711425781e+01 3.659706830978393555e+00 1.984923958778381348e+00
2.495000000000000000e+03 3.182270050048828125e+01 -9.461267590522766113e-01 1.690555930137634277e+00 4.393779277801513672e+00 1.825300693511962891e+00 -2.946256399154663086e+00
2.496000000000000000e+03 3.219208908081054688e+01 -1.172409057617187500e+00 1.742062211036682129e+00 4.828039169311523438e+00 1.971030354499816895e+00 -3.176059722900390625e+00
2.497000000000000000e+03 3.164435958862304688e+01 7.118301838636398315e-02 1.391404628753662109e+00 4.478921890258789062e+00 1.761097908020019531e+00 -2.734901905059814453e+00
2.498000000000000000e+03 3.149130439758300781e+01 -3.787954449653625488e-01 1.532866001129150391e+00 4.197653293609619141e+00 1.719155788421630859e+00 -2.740485429763793945e+00
2.499000000000000000e+03 3.088311767578125000e+01 6.271879196166992188e+00 2.265873700380325317e-01 4.664173126220703125e+00 1.467228174209594727e+00 -1.818048119544982910e+00
2.500000000000000000e+03 2.975344657897949219e+01 1.188665270805358887e+00 1.215769052505493164e+00 3.133571386337280273e+00 1.304802179336547852e+00 -2.050013542175292969e+00
2.501000000000000000e+03 3.134278106689453125e+01 -1.504302883148193359e+01 7.520495653152465820e-01 4.532112598419189453e+00 1.585248589515686035e+00 2.387838363647460938e+00
2.502000000000000000e+03 2.855212974548339844e+01 3.529370069503784180e+00 7.731779813766479492e-01 3.016681432723999023e+00 1.136957764625549316e+00 -1.723606109619140625e+00
2.503000000000000000e+03 2.910961532592773438e+01 2.110676288604736328e+00 1.023731946945190430e+00 2.968844890594482422e+00 1.197772979736328125e+00 -1.857608795166015625e+00
2.504000000000000000e+03 3.204550170898437500e+01 -1.473455905914306641e+01 7.089697122573852539e-01 5.109515190124511719e+00 1.745545387268066406e+00 2.596568107604980469e+00
2.505000000000000000e+03 2.978752517700195312e+01 -1.756775283813476562e+01 5.242936611175537109e-01 3.827172756195068359e+00 1.305439949035644531e+00 1.839452385902404785e+00
2.506000000000000000e+03 2.997344207763671875e+01 5.930065155029296875e+00 3.503817617893218994e-01 4.140118598937988281e+00 1.347150087356567383e+00 -1.799029350280761719e+00
2.507000000000000000e+03 3.055047798156738281e+01 7.056184291839599609e+00 1.570915132761001587e-01 4.514484405517578125e+00 1.401472806930541992e+00 -1.723645687103271484e+00
2.508000000000000000e+03 2.878216552734375000e+01 2.827796936035156250e+00 9.115304946899414062e-01 2.972081661224365234e+00 1.165083646774291992e+00 -1.796885967254638672e+00
2.509000000000000000e+03 2.812487602233886719e+01 -1.982108688354492188e+01 3.764995932579040527e-01 3.300661802291870117e+00 1.103148460388183594e+00 1.447234392166137695e+00
2.510000000000000000e+03 3.012053298950195312e+01 8.856407165527343750e+00 4.200677201151847839e-02 4.341258525848388672e+00 1.314979553222656250e+00 -1.548914194107055664e+00
2.511000000000000000e+03 3.081202316284179688e+01 1.017444229125976562e+01 -1.110430210828781128e-01 4.641914844512939453e+00 1.359261512756347656e+00 -1.452303409576416016e+00
2.512000000000000000e+03 6.543680572509765625e+01 -1.488810443878173828e+01 3.476182520389556885e-01 7.461482048034667969e+00 2.342730045318603516e+00 -3.870243728160858154e-01
2.513000000000000000e+03 6.443941497802734375e+01 -1.746873474121093750e+01 2.734301984310150146e-01 7.553111553192138672e+00 2.347962617874145508e+00 -4.980823695659637451e-01
2.514000000000000000e+03 6.608473968505859375e+01 5.470378875732421875e+00 2.261854857206344604e-01 7.586203575134277344e+00 2.343716621398925781e+00 6.669760942459106445e-01
2.515000000000000000e+03 6.239982604980468750e+01 -3.584253072738647461e+00 7.332864403724670410e-01 7.445575237274169922e+00 2.453658580780029297e+00 3.074901700019836426e-01
2.516000000000000000e+03 6.554385375976562500e+01 -5.595465183258056641e+00 5.270445942878723145e-01 7.367253780364990234e+00 2.368289470672607422e+00 1.363162994384765625e-01
2.517000000000000000e+03 2.915329551696777344e+01 1.494071006774902344e+01 -2.079563885927200317e-01 4.059836864471435547e+00 1.155564188957214355e+00 -1.105936765670776367e+00
2.518000000000000000e+03 3.036737060546875000e+01 5.146231651306152344e+00 4.189506769180297852e-01 4.332282066345214844e+00 1.425369858741760254e+00 -1.907971739768981934e+00
2.519000000000000000e+03 6.529862976074218750e+01 -7.990711688995361328e+00 5.399389863014221191e-01 7.367492675781250000e+00 2.372229576110839844e+00 -8.967519737780094147e-03
2.520000000000000000e+03 6.714801025390625000e+01 -1.000533199310302734e+01 4.074634909629821777e-01 7.332736015319824219e+00 2.322059869766235352e+00 -1.197933629155158997e-01
2.521000000000000000e+03 6.600156402587890625e+01 -2.039673566818237305e+00 4.584614336490631104e-01 7.397220134735107422e+00 2.356704473495483398e+00 3.543652892112731934e-01
2.522000000000000000e+03 6.531378173828125000e+01 -2.147541999816894531e+01 8.349090069532394409e-02 7.620609760284423828e+00 2.311230182647705078e+00 -5.451054573059082031e-01
2.523000000000000000e+03 6.685841369628906250e+01 -5.534614920616149902e-01 3.839578032493591309e-01 7.408463478088378906e+00 2.337726354598999023e+00 4.164252579212188721e-01
2.524000000000000000e+03 2.917291259765625000e+01 -2.064449310302734375e+01 2.302601784467697144e-01 3.867020845413208008e+00 1.229184269905090332e+00 1.512489914894104004e+00
2.525000000000000000e+03 6.402851104736328125e+01 8.106364250183105469e+00 1.604975610971450806e-01 7.695749759674072266e+00 2.356874227523803711e+00 7.738985419273376465e-01
2.526000000000000000e+03 6.704815673828125000e+01 8.203820228576660156e+00 1.199716851115226746e-01 7.652588367462158203e+00 2.331768035888671875e+00 6.903234720230102539e-01
2.527000000000000000e+03 2.125778579711914062e+01 -2.758573722839355469e+01 1.824460327625274658e-01 1.840690374374389648e+00 6.069409251213073730e-01 5.635125637054443359e-01
2.528000000000000000e+03 3.813248062133789062e+01 -3.651803493499755859e+00 3.057623147964477539e+00 1.314287853240966797e+01 4.860150337219238281e+00 1.225811123847961426e+00
2.529000000000000000e+03 3.721015930175781250e+01 -2.871965408325195312e+00 1.473636388778686523e+00 1.331962490081787109e+01 4.437978267669677734e+00 -1.501083076000213623e-01
2.530000000000000000e+03 3.401686859130859375e+01 -1.820247411727905273e+00 1.371968984603881836e+00 8.136999130249023438e+00 2.852690458297729492e+00 -3.682070255279541016e+00
2.531000000000000000e+03 3.931276702880859375e+01 -6.204065322875976562e+00 6.607171535491943359e+00 1.117411136627197266e+01 5.334384918212890625e+00 4.192945957183837891e-01
2.532000000000000000e+03 3.328977966308593750e+01 -1.160793972015380859e+01 1.289278864860534668e+00 6.467678070068359375e+00 2.327086925506591797e+00 3.707849025726318359e+00
2.533000000000000000e+03 3.527060699462890625e+01 -1.645706892013549805e+00 7.240123748779296875e-01 1.043540382385253906e+01 3.347824811935424805e+00 -2.758925199508666992e+00
2.534000000000000000e+03 3.899510192871093750e+01 -7.885996818542480469e+00 6.133897304534912109e+00 1.176104927062988281e+01 5.368484020233154297e+00 -1.381464242935180664e+00
2.535000000000000000e+03 3.850951385498046875e+01 -8.099536895751953125e+00 6.132895469665527344e+00 1.260548400878906250e+01 5.621513843536376953e+00 -1.720642089843750000e+00
2.536000000000000000e+03 3.355525970458984375e+01 -1.964458584785461426e+00 1.689677119255065918e+00 7.064025878906250000e+00 2.626110792160034180e+00 -3.795879840850830078e+00
2.537000000000000000e+03 3.697484588623046875e+01 -2.581670284271240234e+00 1.183562636375427246e+00 1.299258899688720703e+01 4.252845764160156250e+00 -5.529517531394958496e-01
2.538000000000000000e+03 3.445120620727539062e+01 -1.710119485855102539e+00 1.100867390632629395e+00 9.008623123168945312e+00 3.032846927642822266e+00 -3.450419425964355469e+00
2.539000000000000000e+03 3.855797195434570312e+01 -1.007429981231689453e+01 2.595261573791503906e+00 1.255940628051757812e+01 4.546400070190429688e+00 -1.326563358306884766e+00
2.540000000000000000e+03 3.639630508422851562e+01 -1.124402046203613281e+01 3.926486968994140625e-01 1.226510620117187500e+01 3.797326326370239258e+00 1.502700328826904297e+00
2.541000000000000000e+03 3.634949111938476562e+01 -2.268819332122802734e+00 8.013515472412109375e-01 1.240017223358154297e+01 3.960457086563110352e+00 -1.564068794250488281e+00
2.542000000000000000e+03 3.488909149169921875e+01 -2.023896455764770508e+00 9.895201325416564941e-01 1.015124320983886719e+01 3.342228889465332031e+00 -3.288559198379516602e+00
2.543000000000000000e+03 3.263512802124023438e+01 -1.249386596679687500e+01 1.186388731002807617e+00 5.407976627349853516e+00 1.978309512138366699e+00 3.245652914047241211e+00
2.544000000000000000e+03 3.294904708862304688e+01 -1.490074753761291504e+00 1.688245773315429688e+00 5.944352149963378906e+00 2.289779424667358398e+00 -3.488975524902343750e+00
2.545000000000000000e+03 3.225122451782226562e+01 -1.424221229553222656e+01 7.903839349746704102e-01 5.227284908294677734e+00 1.805300593376159668e+00 2.740429162979125977e+00
2.546000000000000000e+03 3.245673370361328125e+01 -1.375535106658935547e+01 8.690437674522399902e-01 5.472585201263427734e+00 1.902488708496093750e+00 2.894145250320434570e+00
2.547000000000000000e+03 3.287095260620117188e+01 -1.399716472625732422e+01 6.892604231834411621e-01 5.978350162506103516e+00 2.000283241271972656e+00 2.844798326492309570e+00
2.548000000000000000e+03 3.146294975280761719e+01 -1.420395946502685547e+01 9.232631921768188477e-01 4.477473258972167969e+00 1.620220899581909180e+00 2.578204154968261719e+00
2.549000000000000000e+03 3.196629333496093750e+01 -5.565006136894226074e-01 1.548067927360534668e+00 4.643462181091308594e+00 1.857459068298339844e+00 -2.932847976684570312e+00
2.550000000000000000e+03 3.117504501342773438e+01 2.628539204597473145e-01 1.382178664207458496e+00 4.082473278045654297e+00 1.639395594596862793e+00 -2.571881055831909180e+00
2.551000000000000000e+03 2.990971183776855469e+01 3.987143516540527344e+00 6.512819528579711914e-01 3.880143642425537109e+00 1.359427690505981445e+00 -1.951015472412109375e+00
2.552000000000000000e+03 3.061796569824218750e+01 2.391981363296508789e+00 8.933482170104980469e-01 4.204942703247070312e+00 1.529487371444702148e+00 -2.222409963607788086e+00
2.553000000000000000e+03 3.039490699768066406e+01 -1.659160614013671875e+01 6.131403446197509766e-01 4.058680057525634766e+00 1.401546120643615723e+00 2.046294450759887695e+00
2.554000000000000000e+03 3.118115043640136719e+01 -1.707456588745117188e+01 4.382146596908569336e-01 4.676295757293701172e+00 1.534353137016296387e+00 2.078536510467529297e+00
2.555000000000000000e+03 3.261977005004882812e+01 -1.574541568756103516e+01 3.998260200023651123e-01 5.699621200561523438e+00 1.829834222793579102e+00 2.422798871994018555e+00
2.556000000000000000e+03 2.904689216613769531e+01 -1.864292144775390625e+01 4.468894898891448975e-01 3.585272550582885742e+00 1.209648609161376953e+00 1.648480892181396484e+00
2.557000000000000000e+03 3.175026512145996094e+01 4.751162052154541016e+00 3.088450729846954346e-01 5.145360946655273438e+00 1.636261820793151855e+00 -1.993989229202270508e+00
2.558000000000000000e+03 2.695577430725097656e+01 -2.109500312805175781e+01 3.201794922351837158e-01 2.965210199356079102e+00 9.856169223785400391e-01 1.255564332008361816e+00
2.559000000000000000e+03 2.998731422424316406e+01 -1.932475852966308594e+01 2.932366430759429932e-01 4.165616989135742188e+00 1.337656140327453613e+00 1.704200506210327148e+00
2.560000000000000000e+03 3.201505661010742188e+01 8.144646644592285156e+00 -6.152633577585220337e-02 5.212701320648193359e+00 1.545352458953857422e+00 -1.625358223915100098e+00
2.561000000000000000e+03 2.932458877563476562e+01 3.351252555847167969e+00 7.812518477439880371e-01 3.401698112487792969e+00 1.254884958267211914e+00 -1.875196337699890137e+00
2.562000000000000000e+03 2.786222648620605469e+01 1.049996852874755859e+01 8.300945162773132324e-02 3.493719339370727539e+00 1.073018670082092285e+00 -1.351491689682006836e+00
2.563000000000000000e+03 6.163766098022460938e+01 -1.250012016296386719e+01 6.530054211616516113e-01 7.515369892120361328e+00 2.450512647628784180e+00 -3.536979854106903076e-01
2.564000000000000000e+03 6.755600738525390625e+01 -1.109031963348388672e+01 3.621358275413513184e-01 7.328802585601806641e+00 2.307281494140625000e+00 -1.744606047868728638e-01
2.565000000000000000e+03 6.669583129882812500e+01 -1.424861145019531250e+01 3.268085420131683350e-01 7.409785747528076172e+00 2.320978403091430664e+00 -3.394725620746612549e-01
2.566000000000000000e+03 2.790711593627929688e+01 1.172055625915527344e+01 4.245124757289886475e-03 3.545416831970214844e+00 1.064898610115051270e+00 -1.282762169837951660e+00
2.567000000000000000e+03 3.061598205566406250e+01 1.457232666015625000e+01 -2.919987142086029053e-01 4.536682605743408203e+00 1.273405194282531738e+00 -1.123876094818115234e+00
2.568000000000000000e+03 6.110847473144531250e+01 9.688633918762207031e+00 9.911419451236724854e-02 7.776165485382080078e+00 2.362583875656127930e+00 8.478611707687377930e-01
2.569000000000000000e+03 6.471871948242187500e+01 9.550368309020996094e+00 9.498427063226699829e-02 7.722499847412109375e+00 2.345245122909545898e+00 7.687232494354248047e-01
2.570000000000000000e+03 6.303536605834960938e+01 -1.719335937500000000e+01 3.309810161590576172e-01 7.587157249450683594e+00 2.375441312789916992e+00 -5.263099074363708496e-01
2.571000000000000000e+03 6.104518508911132812e+01 -1.864040946960449219e+01 2.815817594528198242e-01 7.692299365997314453e+00 2.392164230346679688e+00 -6.138007640838623047e-01
2.572000000000000000e+03 6.532794952392578125e+01 7.432927608489990234e+00 1.700811982154846191e-01 7.656051635742187500e+00 2.347839832305908203e+00 7.295119166374206543e-01
2.573000000000000000e+03 6.434410858154296875e+01 -1.403252029418945312e+01 4.244889020919799805e-01 7.474133968353271484e+00 2.369586706161499023e+00 -3.760896027088165283e-01
2.574000000000000000e+03 6.355182647705078125e+01 -1.553478908538818359e+01 3.934826552867889404e-01 7.533895015716552734e+00 2.378213405609130859e+00 -4.603621661663055420e-01
2.575000000000000000e+03 2.423830795288085938e+01 -2.816901588439941406e+01 7.845386862754821777e-02 2.608168840408325195e+00 8.059868216514587402e-01 7.531751990318298340e-01
2.576000000000000000e+03 1.654255104064941406e+01 -2.509928703308105469e+01 2.314345091581344604e-01 5.849311351776123047e-01 2.449097037315368652e-01 1.877446919679641724e-01
2.577000000000000000e+03 3.964579391479492188e+01 -6.434421062469482422e+00 6.291133403778076172e+00 1.078776073455810547e+01 5.123668193817138672e+00 1.702555269002914429e-01
2.578000000000000000e+03 3.515962982177734375e+01 -1.136912631988525391e+01 4.919030666351318359e-01 1.054788970947265625e+01 3.311937808990478516e+00 3.058698892593383789e+00
2.579000000000000000e+03 3.302510070800781250e+01 -1.279294300079345703e+01 9.484201669692993164e-01 6.072322845458984375e+00 2.106222867965698242e+00 3.215511560440063477e+00
2.580000000000000000e+03 3.735778808593750000e+01 -1.076555252075195312e+01 1.044046044349670410e+00 1.305986785888671875e+01 4.231173992156982422e+00 6.869821250438690186e-02
2.581000000000000000e+03 3.785823822021484375e+01 -1.071407127380371094e+01 1.417061686515808105e+00 1.286799716949462891e+01 4.285517692565917969e+00 -4.897339344024658203e-01
2.582000000000000000e+03 3.452110671997070312e+01 -2.115002870559692383e+00 1.219537019729614258e+00 9.390392303466796875e+00 3.182978630065917969e+00 -3.611756563186645508e+00
2.583000000000000000e+03 3.486853027343750000e+01 -1.642157793045043945e+00 8.784756660461425781e-01 9.767139434814453125e+00 3.193684577941894531e+00 -3.117082595825195312e+00
2.584000000000000000e+03 3.880493164062500000e+01 -4.279932975769042969e+00 4.381985187530517578e+00 1.226511287689208984e+01 4.994129657745361328e+00 1.561025619506835938e+00
2.585000000000000000e+03 3.626597213745117188e+01 -1.995007038116455078e+00 7.029536962509155273e-01 1.196078205108642578e+01 3.799120903015136719e+00 -1.698554396629333496e+00
2.586000000000000000e+03 3.626480102539062500e+01 -2.690584421157836914e+00 9.517859220504760742e-01 1.301202964782714844e+01 4.189144611358642578e+00 -1.589728832244873047e+00
2.587000000000000000e+03 3.261380767822265625e+01 -1.442980384826660156e+01 6.489214897155761719e-01 5.688445091247558594e+00 1.901209950447082520e+00 2.719794750213623047e+00
2.588000000000000000e+03 3.318249130249023438e+01 -1.355339908599853516e+01 7.083435654640197754e-01 6.384918689727783203e+00 2.127978801727294922e+00 2.998096942901611328e+00
2.589000000000000000e+03 3.904645538330078125e+01 -4.768406867980957031e+00 5.103271007537841797e+00 1.187562370300292969e+01 5.093668460845947266e+00 1.529384970664978027e+00
2.590000000000000000e+03 3.957531738281250000e+01 -6.161510944366455078e+00 6.286705970764160156e+00 1.087413406372070312e+01 5.148252010345458984e+00 4.302279055118560791e-01
2.591000000000000000e+03 3.951537704467773438e+01 -6.701447010040283203e+00 6.508234977722167969e+00 1.090775680541992188e+01 5.224797725677490234e+00 -1.090173572301864624e-01
2.592000000000000000e+03 3.587213134765625000e+01 -1.680203437805175781e+00 6.113696098327636719e-01 1.122644615173339844e+01 3.551344633102416992e+00 -2.153987884521484375e+00
2.593000000000000000e+03 3.524079513549804688e+01 -1.997752547264099121e+00 8.234531879425048828e-01 1.078391075134277344e+01 3.482209205627441406e+00 -2.940248250961303711e+00
2.594000000000000000e+03 3.683174133300781250e+01 -1.076080989837646484e+01 7.514435052871704102e-01 1.315323734283447266e+01 4.171404361724853516e+00 7.222827076911926270e-01
2.595000000000000000e+03 3.293507766723632812e+01 -9.239366054534912109e-01 1.454050779342651367e+00 5.994501113891601562e+00 2.234565734863281250e+00 -3.292585611343383789e+00
2.596000000000000000e+03 3.168814277648925781e+01 -1.454996299743652344e+01 8.055081367492675781e-01 4.759322643280029297e+00 1.669449210166931152e+00 2.564291954040527344e+00
2.597000000000000000e+03 3.210817337036132812e+01 -1.214767321944236755e-01 1.369732737541198730e+00 5.003091335296630859e+00 1.911847233772277832e+00 -2.917530059814453125e+00
2.598000000000000000e+03 3.079618835449218750e+01 4.401780128479003906e+00 4.916812181472778320e-01 4.494825839996337891e+00 1.495952129364013672e+00 -2.008893251419067383e+00
2.599000000000000000e+03 3.128773880004882812e+01 5.532459735870361328e+00 2.728320062160491943e-01 4.842774868011474609e+00 1.534682035446166992e+00 -1.883093953132629395e+00
2.600000000000000000e+03 3.081044960021972656e+01 1.829310297966003418e+00 9.712391495704650879e-01 4.197503089904785156e+00 1.550622582435607910e+00 -2.303576231002807617e+00
2.601000000000000000e+03 3.166425132751464844e+01 -1.862464523315429688e+01 1.643639057874679565e-01 5.105886459350585938e+00 1.581075191497802734e+00 1.897441387176513672e+00
2.602000000000000000e+03 3.233106231689453125e+01 -1.642741775512695312e+01 3.567822575569152832e-01 5.519238948822021484e+00 1.762806296348571777e+00 2.284868955612182617e+00
2.603000000000000000e+03 3.135135841369628906e+01 7.303955078125000000e+00 6.033303961157798767e-02 4.867060661315917969e+00 1.478218078613281250e+00 -1.703394174575805664e+00
2.604000000000000000e+03 3.171496582031250000e+01 6.670446872711181641e+00 8.663216233253479004e-02 5.109734535217285156e+00 1.558910012245178223e+00 -1.764431953430175781e+00
2.605000000000000000e+03 3.175415802001953125e+01 1.068451499938964844e+01 -2.232601940631866455e-01 5.033372402191162109e+00 1.443033576011657715e+00 -1.389033436775207520e+00
2.606000000000000000e+03 2.940697288513183594e+01 1.163355064392089844e+01 -8.755198866128921509e-02 4.105858325958251953e+00 1.205491900444030762e+00 -1.324556112289428711e+00
2.607000000000000000e+03 3.196154212951660156e+01 1.001850485801696777e+00 1.032615423202514648e+00 5.107491493225097656e+00 1.842032074928283691e+00 -2.653376817703247070e+00
2.608000000000000000e+03 2.693704605102539062e+01 -2.375858116149902344e+01 1.414788067340850830e-01 3.177473306655883789e+00 9.956856369972229004e-01 1.132825970649719238e+00
2.609000000000000000e+03 6.647853851318359375e+01 -7.793314456939697266e+00 4.716718494892120361e-01 7.340070724487304688e+00 2.343522787094116211e+00 1.160208717919886112e-03
2.610000000000000000e+03 6.225640487670898438e+01 -6.530967712402343750e+00 7.506083250045776367e-01 7.431181430816650391e+00 2.454536914825439453e+00 8.413066715002059937e-02
2.611000000000000000e+03 6.620751953125000000e+01 -4.118649482727050781e+00 4.771390557289123535e-01 7.362000942230224609e+00 2.351742029190063477e+00 2.267697602510452271e-01
2.612000000000000000e+03 3.062132453918457031e+01 -2.766693496704101562e+01 -3.146933615207672119e-01 4.619369983673095703e+00 1.291403055191040039e+00 9.679629206657409668e-01
2.613000000000000000e+03 6.559091949462890625e+01 -1.094340229034423828e+01 4.694103896617889404e-01 7.382067680358886719e+00 2.355443477630615234e+00 -1.926376223564147949e-01
2.614000000000000000e+03 6.441972351074218750e+01 7.857756018638610840e-01 4.608449637889862061e-01 7.492093086242675781e+00 2.385881423950195312e+00 5.388657450675964355e-01
2.615000000000000000e+03 6.373733139038085938e+01 -7.312443256378173828e-01 5.539817810058593750e-01 7.471105575561523438e+00 2.407526254653930664e+00 4.733068943023681641e-01
2.616000000000000000e+03 6.342723846435546875e+01 6.613409519195556641e+00 2.374728471040725708e-01 7.667306900024414062e+00 2.371433973312377930e+00 7.669812440872192383e-01
2.617000000000000000e+03 6.648300933837890625e+01 1.582524490356445312e+01 -9.076011925935745239e-02 7.872066497802734375e+00 2.334391832351684570e+00 7.020205855369567871e-01
2.618000000000000000e+03 6.379732513427734375e+01 1.433885002136230469e+01 -8.259265124797821045e-02 7.834313392639160156e+00 2.325516223907470703e+00 7.737946510314941406e-01
2.619000000000000000e+03 6.157299423217773438e+01 -1.672879981994628906e+01 4.017892181873321533e-01 7.621718883514404297e+00 2.407052278518676758e+00 -5.502514839172363281e-01
2.620000000000000000e+03 6.452904510498046875e+01 -4.861889362335205078e+00 5.979804396629333496e-01 7.390891551971435547e+00 2.396661520004272461e+00 1.900207251310348511e-01
2.621000000000000000e+03 6.490414428710937500e+01 -1.366481423377990723e+00 5.046408772468566895e-01 7.433219909667968750e+00 2.381358146667480469e+00 4.131790697574615479e-01
2.622000000000000000e+03 3.944247436523437500e+01 -7.249126434326171875e+00 6.496308326721191406e+00 1.108475494384765625e+01 5.274318695068359375e+00 -6.900004744529724121e-01
2.623000000000000000e+03 3.923571014404296875e+01 -4.411172866821289062e+00 4.569143772125244141e+00 1.173975467681884766e+01 4.892669677734375000e+00 1.506334424018859863e+00
2.624000000000000000e+03 3.467446899414062500e+01 -1.209904670715332031e+01 5.164256691932678223e-01 9.057934761047363281e+00 2.872308015823364258e+00 3.163829565048217773e+00
2.625000000000000000e+03 3.613240432739257812e+01 -1.171445846557617188e+01 2.430401891469955444e-01 1.149731922149658203e+01 3.522107839584350586e+00 1.856648445129394531e+00
2.626000000000000000e+03 3.777206802368164062e+01 -2.797449588775634766e+00 1.786765575408935547e+00 1.289102745056152344e+01 4.403337955474853516e+00 4.412319958209991455e-01
2.627000000000000000e+03 3.805889511108398438e+01 -3.041184663772583008e+00 2.254152774810791016e+00 1.283264636993408203e+01 4.526039600372314453e+00 8.256331682205200195e-01
2.628000000000000000e+03 3.939569854736328125e+01 -5.523498058319091797e+00 5.973760604858398438e+00 1.125771045684814453e+01 5.169441223144531250e+00 1.054833292961120605e+00
2.629000000000000000e+03 3.871946334838867188e+01 -3.325208187103271484e+00 2.914053916931152344e+00 1.228740596771240234e+01 4.560438156127929688e+00 1.265667080879211426e+00
2.630000000000000000e+03 3.347245025634765625e+01 -1.428002953529357910e+00 1.454680204391479492e+00 6.926338672637939453e+00 2.514305591583251953e+00 -3.534510135650634766e+00
2.631000000000000000e+03 3.695330810546875000e+01 -1.985723495483398438e+00 8.425884246826171875e-01 1.226844310760498047e+01 3.933309555053710938e+00 -8.132201433181762695e-01
2.632000000000000000e+03 3.982287979125976562e+01 -6.951323032379150391e+00 6.209993839263916016e+00 1.066900920867919922e+01 5.063700675964355469e+00 -3.127265870571136475e-01
2.633000000000000000e+03 3.779286193847656250e+01 -2.132422924041748047e+00 1.274072289466857910e+00 1.231874656677246094e+01 4.077845573425292969e+00 1.237826123833656311e-01
2.634000000000000000e+03 3.835844802856445312e+01 -1.066406345367431641e+01 1.785198092460632324e+00 1.250863456726074219e+01 4.288149833679199219e+00 -8.642888069152832031e-01
2.635000000000000000e+03 3.918057632446289062e+01 -8.539813995361328125e+00 5.126151561737060547e+00 1.176251983642578125e+01 5.066601276397705078e+00 -1.613764047622680664e+00
2.636000000000000000e+03 3.964892196655273438e+01 -8.280598640441894531e+00 5.267211914062500000e+00 1.115458774566650391e+01 4.926539897918701172e+00 -1.360255837440490723e+00
2.637000000000000000e+03 3.300113296508789062e+01 -4.168595373630523682e-01 1.218097686767578125e+00 6.166488170623779297e+00 2.215375900268554688e+00 -3.132313251495361328e+00
2.638000000000000000e+03 3.676285934448242188e+01 -1.177449035644531250e+01 3.032778203487396240e-01 1.178527927398681641e+01 3.626567125320434570e+00 1.180811405181884766e+00
2.639000000000000000e+03 3.533553314208984375e+01 -1.209729433059692383e+00 6.101387739181518555e-01 1.013674926757812500e+01 3.224066495895385742e+00 -2.585315942764282227e+00
2.640000000000000000e+03 3.333978271484375000e+01 -1.235612964630126953e+01 9.907796382904052734e-01 6.636956691741943359e+00 2.288320779800415039e+00 3.411854982376098633e+00
2.641000000000000000e+03 3.651533508300781250e+01 -2.074702978134155273e+00 7.581954598426818848e-01 1.220885944366455078e+01 3.890116453170776367e+00 -1.372112393379211426e+00
2.642000000000000000e+03 3.255828475952148438e+01 -3.035886883735656738e-01 1.312940001487731934e+00 5.592855930328369141e+00 2.071738719940185547e+00 -3.065664768218994141e+00
2.643000000000000000e+03 3.243489456176757812e+01 -7.831016182899475098e-01 1.536259531974792480e+00 5.282269477844238281e+00 2.045558691024780273e+00 -3.166239976882934570e+00
2.644000000000000000e+03 3.240009689331054688e+01 -1.485433769226074219e+01 6.095118522644042969e-01 5.425701141357421875e+00 1.810563921928405762e+00 2.592450618743896484e+00
2.645000000000000000e+03 3.326614379882812500e+01 -1.500935363769531250e+01 3.775560259819030762e-01 6.393249034881591797e+00 2.031241655349731445e+00 2.594932079315185547e+00
2.646000000000000000e+03 3.180278968811035156e+01 5.324257016181945801e-01 1.210426092147827148e+00 4.807725906372070312e+00 1.805445671081542969e+00 -2.700876951217651367e+00
2.647000000000000000e+03 3.284376525878906250e+01 5.705067515373229980e-01 9.524824023246765137e-01 6.074033260345458984e+00 2.107954740524291992e+00 -2.834795236587524414e+00
2.648000000000000000e+03 3.096679115295410156e+01 1.316895484924316406e+00 1.101669073104858398e+00 4.179983139038085938e+00 1.584495663642883301e+00 -2.382255315780639648e+00
2.649000000000000000e+03 3.334560775756835938e+01 -1.840172958374023438e+01 -5.752709135413169861e-02 6.130844116210937500e+00 1.821995019912719727e+00 1.889512658119201660e+00
2.650000000000000000e+03 3.210708236694335938e+01 7.321771144866943359e+00 -1.638058200478553772e-02 5.283753395080566406e+00 1.580211877822875977e+00 -1.704112410545349121e+00
2.651000000000000000e+03 3.107993316650390625e+01 -1.992024803161621094e+01 1.069076657295227051e-01 4.785402774810791016e+00 1.467693209648132324e+00 1.702652335166931152e+00
2.652000000000000000e+03 2.995248985290527344e+01 2.963383197784423828e+00 8.235949277877807617e-01 3.733891725540161133e+00 1.367245912551879883e+00 -2.015377283096313477e+00
2.653000000000000000e+03 3.110797309875488281e+01 9.087733268737792969e+00 -6.435281783342361450e-02 4.783936023712158203e+00 1.415874958038330078e+00 -1.549384951591491699e+00
2.654000000000000000e+03 3.075815200805664062e+01 1.128875064849853516e+01 -1.717287153005599976e-01 4.606295585632324219e+00 1.330369949340820312e+00 -1.361133933067321777e+00
2.655000000000000000e+03 2.868104934692382812e+01 1.362469768524169922e+01 -1.313075870275497437e-01 3.887528896331787109e+00 1.126866340637207031e+00 -1.193094015121459961e+00
2.656000000000000000e+03 6.470027923583984375e+01 -6.918426990509033203e+00 5.762618780136108398e-01 7.380369186401367188e+00 2.386989355087280273e+00 5.529586225748062134e-02
2.657000000000000000e+03 6.379903793334960938e+01 -6.120522499084472656e+00 6.400586366653442383e-01 7.402183532714843750e+00 2.412672758102416992e+00 1.133887544274330139e-01
2.658000000000000000e+03 6.367184829711914062e+01 -9.888668060302734375e+00 6.075430512428283691e-01 7.423390865325927734e+00 2.409280061721801758e+00 -1.470240652561187744e-01
2.659000000000000000e+03 6.190552520751953125e+01 -1.609863162040710449e+00 6.998863816261291504e-01 7.490563392639160156e+00 2.457134962081909180e+00 4.582234621047973633e-01
2.660000000000000000e+03 6.507599639892578125e+01 2.347802400588989258e+00 3.760375678539276123e-01 7.518979549407958984e+00 2.368505239486694336e+00 5.929799079895019531e-01
2.661000000000000000e+03 6.298606872558593750e+01 -1.334918308258056641e+01 5.310552716255187988e-01 7.496347904205322266e+00 2.408221006393432617e+00 -3.743798732757568359e-01
2.662000000000000000e+03 6.767963409423828125e+01 -1.242241287231445312e+01 3.193366527557373047e-01 7.346116065979003906e+00 2.299635887145996094e+00 -2.421004325151443481e-01
2.663000000000000000e+03 6.808664703369140625e+01 -1.378591918945312500e+01 2.777742445468902588e-01 7.357951641082763672e+00 2.290717840194702148e+00 -2.913974523544311523e-01
2.664000000000000000e+03 2.890661811828613281e+01 -2.479713439941406250e+01 -5.603322386741638184e-02 3.949108123779296875e+00 1.167922496795654297e+00 1.158210992813110352e+00
2.665000000000000000e+03 3.159356689453125000e+01 -2.355456161499023438e+01 -2.223983705043792725e-01 5.028580665588378906e+00 1.441854596138000488e+00 1.296988725662231445e+00
2.666000000000000000e+03 6.262056350708007812e+01 -2.088068008422851562e+01 1.376090347766876221e-01 7.693037986755371094e+00 2.349194049835205078e+00 -6.077006459236145020e-01
2.667000000000000000e+03 6.218601608276367188e+01 -1.494972515106201172e+01 4.746956825256347656e-01 7.557330608367919922e+00 2.409607887268066406e+00 -4.671621620655059814e-01
2.668000000000000000e+03 6.233520126342773438e+01 3.524986028671264648e+00 4.309344887733459473e-01 7.605438709259033203e+00 2.410912036895751953e+00 7.126099467277526855e-01
2.669000000000000000e+03 6.426193237304687500e+01 4.474053382873535156e+00 3.190476894378662109e-01 7.592618942260742188e+00 2.373499870300292969e+00 6.912144422531127930e-01
2.670000000000000000e+03 6.334383392333984375e+01 1.039104175567626953e+01 6.571810692548751831e-02 7.760428428649902344e+00 2.347843885421752930e+00 8.049222230911254883e-01
2.671000000000000000e+03 6.201009750366210938e+01 7.303721904754638672e+00 2.250802665948867798e-01 7.710004806518554688e+00 2.380525588989257812e+00 8.136234283447265625e-01
2.672000000000000000e+03 3.206108856201171875e+01 8.966233253479003906e+00 -1.526248157024383545e-01 5.182328701019287109e+00 1.508911132812500000e+00 -1.511718392372131348e+00
2.673000000000000000e+03 3.985010528564453125e+01 -7.602415561676025391e+00 5.777522563934326172e+00 1.073999691009521484e+01 4.955255985260009766e+00 -9.004250168800354004e-01
2.674000000000000000e+03 3.807332992553710938e+01 -2.419498205184936523e+00 1.605520606040954590e+00 1.239203453063964844e+01 4.199266433715820312e+00 4.547810256481170654e-01
2.675000000000000000e+03 3.754742813110351562e+01 -1.124851512908935547e+01 8.208125233650207520e-01 1.250481700897216797e+01 3.997688770294189453e+00 1.341368108987808228e-01
2.676000000000000000e+03 3.898884201049804688e+01 -9.143763542175292969e+00 4.067038059234619141e+00 1.211623477935791016e+01 4.854981899261474609e+00 -1.667066335678100586e+00
2.677000000000000000e+03 3.395429992675781250e+01 -1.340907454490661621e+00 1.205620050430297852e+00 7.865403175354003906e+00 2.721306800842285156e+00 -3.466083288192749023e+00
2.678000000000000000e+03 3.584288024902343750e+01 -1.189684772491455078e+01 2.102574855089187622e-01 1.096903610229492188e+01 3.353788137435913086e+00 2.169812917709350586e+00
2.679000000000000000e+03 3.455052566528320312e+01 -1.464570522308349609e+01 1.041143015027046204e-01 7.802938461303710938e+00 2.372115850448608398e+00 2.399790763854980469e+00
2.680000000000000000e+03 3.940518188476562500e+01 -4.016690254211425781e+00 4.035694599151611328e+00 1.157779884338378906e+01 4.684048175811767578e+00 1.483202695846557617e+00
2.681000000000000000e+03 3.896462631225585938e+01 -3.878568410873413086e+00 3.816464662551879883e+00 1.212791919708251953e+01 4.783315181732177734e+00 1.516950249671936035e+00
2.682000000000000000e+03 3.715813827514648438e+01 -1.638181447982788086e+00 7.525297999382019043e-01 1.196050739288330078e+01 3.813910961151123047e+00 -7.041113376617431641e-01
2.683000000000000000e+03 3.940962600708007812e+01 -5.971455097198486328e+00 6.390951633453369141e+00 1.109071826934814453e+01 5.244501113891601562e+00 6.419532299041748047e-01
2.684000000000000000e+03 3.727185821533203125e+01 -1.151586627960205078e+01 5.486935973167419434e-01 1.227727699279785156e+01 3.847791194915771484e+00 5.357325077056884766e-01
2.685000000000000000e+03 3.389303207397460938e+01 -1.313677978515625000e+01 5.585332512855529785e-01 7.425661563873291016e+00 2.395258426666259766e+00 3.083310842514038086e+00
2.686000000000000000e+03 4.016781234741210938e+01 -8.015460968017578125e+00 5.246727943420410156e+00 1.057386970520019531e+01 4.746179103851318359e+00 -1.055110454559326172e+00
2.687000000000000000e+03 3.344530868530273438e+01 -4.140892326831817627e-01 1.073642730712890625e+00 6.828938961029052734e+00 2.370774507522583008e+00 -3.129788160324096680e+00
2.688000000000000000e+03 3.365435028076171875e+01 -1.194542312622070312e+01 1.011068344116210938e+00 7.157392501831054688e+00 2.450538158416748047e+00 3.586739063262939453e+00
2.689000000000000000e+03 3.322702789306640625e+01 -1.431059837341308594e+01 5.205725431442260742e-01 6.407144546508789062e+00 2.078315258026123047e+00 2.769208669662475586e+00
2.690000000000000000e+03 3.268877792358398438e+01 -1.505529212951660156e+01 4.865281879901885986e-01 5.861381053924560547e+00 1.904372692108154297e+00 2.585839986801147461e+00
2.691000000000000000e+03 3.225233840942382812e+01 3.333186507225036621e-01 1.179018735885620117e+00 5.311117649078369141e+00 1.947040915489196777e+00 -2.848201036453247070e+00
2.692000000000000000e+03 3.227906417846679688e+01 3.060577154159545898e+00 5.275447368621826172e-01 5.525218009948730469e+00 1.815828800201416016e+00 -2.280525207519531250e+00
2.693000000000000000e+03 3.113912773132324219e+01 3.670831203460693359e+00 5.742406249046325684e-01 4.638141155242919922e+00 1.563714504241943359e+00 -2.118333101272583008e+00
2.694000000000000000e+03 3.147191810607910156e+01 1.218011140823364258e+00 1.051152706146240234e+00 4.627759933471679688e+00 1.703673720359802246e+00 -2.502551555633544922e+00
2.695000000000000000e+03 3.298029327392578125e+01 -1.537172222137451172e+01 4.016118347644805908e-01 6.131040096282958984e+00 1.959795594215393066e+00 2.538942098617553711e+00
2.696000000000000000e+03 3.055820274353027344e+01 2.940100431442260742e+00 8.039847016334533691e-01 4.146429061889648438e+00 1.485124111175537109e+00 -2.152756452560424805e+00
2.697000000000000000e+03 3.134079933166503906e+01 2.025130033493041992e+00 9.004768729209899902e-01 4.614817142486572266e+00 1.654588222503662109e+00 -2.374880552291870117e+00
2.698000000000000000e+03 3.308884811401367188e+01 -1.747564888000488281e+01 7.241843640804290771e-02 6.063824653625488281e+00 1.840872883796691895e+00 2.066598176956176758e+00
2.699000000000000000e+03 3.208369064331054688e+01 -1.743888092041015625e+01 2.484284490346908569e-01 5.356568813323974609e+00 1.681499123573303223e+00 2.084427833557128906e+00
2.700000000000000000e+03 3.217271423339843750e+01 5.997160434722900391e+00 1.197791621088981628e-01 5.358513832092285156e+00 1.643487930297851562e+00 -1.842963218688964844e+00
2.701000000000000000e+03 3.118976783752441406e+01 3.033593177795410156e+00 7.060168385505676270e-01 4.694004058837890625e+00 1.620006203651428223e+00 -2.209988832473754883e+00
2.702000000000000000e+03 6.442757415771484375e+01 -8.770167350769042969e+00 5.910741090774536133e-01 7.392381668090820312e+00 2.395036697387695312e+00 -6.193635240197181702e-02
2.703000000000000000e+03 3.212793731689453125e+01 1.389725303649902344e+01 -3.652849197387695312e-01 4.990606307983398438e+00 1.387596368789672852e+00 -1.135571837425231934e+00
2.704000000000000000e+03 3.273901367187500000e+01 8.341142654418945312e+00 -1.744582504034042358e-01 5.580672740936279297e+00 1.621864438056945801e+00 -1.506428599357604980e+00
2.705000000000000000e+03 6.302292633056640625e+01 -7.230065822601318359e+00 6.964475512504577637e-01 7.415763854980468750e+00 2.433663368225097656e+00 3.061925619840621948e-02
2.706000000000000000e+03 6.417376708984375000e+01 -2.814174175262451172e+00 5.884960293769836426e-01 7.422766685485839844e+00 2.403378725051879883e+00 3.348565399646759033e-01
2.707000000000000000e+03 6.284256744384765625e+01 -5.438730239868164062e+00 7.178931832313537598e-01 7.420182704925537109e+00 2.441422700881958008e+00 1.589804291725158691e-01
2.708000000000000000e+03 6.519506835937500000e+01 -9.240872383117675781e+00 5.194169878959655762e-01 7.376753807067871094e+00 2.368851184844970703e+00 -9.054096043109893799e-02
2.709000000000000000e+03 6.305731964111328125e+01 -2.189076185226440430e+00 6.439203023910522461e-01 7.455413341522216797e+00 2.429800033569335938e+00 3.972112238407135010e-01
2.710000000000000000e+03 6.408480072021484375e+01 -2.099010467529296875e+01 1.173105537891387939e-01 7.646245956420898438e+00 2.329066991806030273e+00 -5.716513991355895996e-01
2.711000000000000000e+03 6.001830291748046875e+01 -1.615130424499511719e+01 4.851382672786712646e-01 7.662827491760253906e+00 2.444389820098876953e+00 -5.813362598419189453e-01
2.712000000000000000e+03 6.262463378906250000e+01 8.869520187377929688e+00 1.372196525335311890e-01 7.735784053802490234e+00 2.361901044845581055e+00 8.149595856666564941e-01
2.713000000000000000e+03 6.002243423461914062e+01 6.335779666900634766e+00 3.140688240528106689e-01 7.727896690368652344e+00 2.412589550018310547e+00 8.458574414253234863e-01
2.714000000000000000e+03 6.051462554931640625e+01 8.009447097778320312e+00 1.975865215063095093e-01 7.754733085632324219e+00 2.385695934295654297e+00 8.542671203613281250e-01
2.715000000000000000e+03 6.523149108886718750e+01 -3.472424507141113281e+00 5.272859930992126465e-01 7.391582012176513672e+00 2.375660419464111328e+00 2.756559550762176514e-01
2.716000000000000000e+03 2.646167755126953125e+01 1.149021148681640625e+01 9.414309263229370117e-02 3.004680156707763672e+00 9.296469688415527344e-01 -1.215481281280517578e+00
2.717000000000000000e+03 6.185329437255859375e+01 1.132299423217773438e+01 2.010946534574031830e-02 7.793805599212646484e+00 2.344174623489379883e+00 8.309223055839538574e-01
2.718000000000000000e+03 3.114111328125000000e+01 1.637403678894042969e+01 -3.783272206783294678e-01 4.647980213165283203e+00 1.280895829200744629e+00 -9.947078227996826172e-01
2.719000000000000000e+03 2.928374862670898438e+01 1.785709953308105469e+01 -3.059400618076324463e-01 4.081617355346679688e+00 1.132703185081481934e+00 -9.441955685615539551e-01
2.720000000000000000e+03 4.021434402465820312e+01 -7.244213581085205078e+00 5.744664192199707031e+00 1.038409137725830078e+01 4.838626861572265625e+00 -5.386587381362915039e-01
2.721000000000000000e+03 4.018194198608398438e+01 -6.643581867218017578e+00 5.863984107971191406e+00 1.036588382720947266e+01 4.868960380554199219e+00 -5.269806087017059326e-02
2.722000000000000000e+03 3.399322509765625000e+01 -1.367942714691162109e+01 4.200564026832580566e-01 7.448056221008300781e+00 2.360433816909790039e+00 2.864972352981567383e+00
2.723000000000000000e+03 3.259304046630859375e+01 2.452054500579833984e+00 5.753529667854309082e-01 5.784008979797363281e+00 1.907808661460876465e+00 -2.408681869506835938e+00
2.724000000000000000e+03 3.487107467651367188e+01 -1.206834316253662109e+00 7.548028826713562012e-01 9.432871818542480469e+00 3.056302309036254883e+00 -2.959456443786621094e+00
2.725000000000000000e+03 3.357445907592773438e+01 -1.394234561920166016e+01 4.937324523925781250e-01 6.908676624298095703e+00 2.220722675323486328e+00 2.876477003097534180e+00
2.726000000000000000e+03 3.867409133911132812e+01 -2.906544446945190430e+00 2.379468679428100586e+00 1.222408962249755859e+01 4.381067276000976562e+00 1.061957597732543945e+00
2.727000000000000000e+03 3.799983215332031250e+01 -1.117707157135009766e+01 1.111887335777282715e+00 1.243763256072998047e+01 4.064856052398681641e+00 -3.221684992313385010e-01
2.728000000000000000e+03 3.663903045654296875e+01 -1.743353843688964844e+00 6.563561558723449707e-01 1.189444923400878906e+01 3.765241622924804688e+00 -1.265928626060485840e+00
2.729000000000000000e+03 3.943228149414062500e+01 -4.970338821411132812e+00 5.321959018707275391e+00 1.134345817565917969e+01 4.999625205993652344e+00 1.350121140480041504e+00
2.730000000000000000e+03 3.434012985229492188e+01 -1.549303150177001953e+01 3.802830725908279419e-02 7.370615959167480469e+00 2.222593307495117188e+00 2.263485908508300781e+00
2.731000000000000000e+03 3.403929901123046875e+01 -1.229619503021240234e+01 7.224580049514770508e-01 7.836353302001953125e+00 2.567643404006958008e+00 3.361617565155029297e+00
2.732000000000000000e+03 3.441579055786132812e+01 -1.259585499763488770e+00 9.569461941719055176e-01 8.710721969604492188e+00 2.900300502777099609e+00 -3.247312784194946289e+00
2.733000000000000000e+03 3.489286041259765625e+01 -1.170236587524414062e+01 5.073140263557434082e-01 9.757590293884277344e+00 3.079471111297607422e+00 3.173000574111938477e+00
2.734000000000000000e+03 3.344662475585937500e+01 -9.098827838897705078e-01 1.261554718017578125e+00 6.890419006347656250e+00 2.445592164993286133e+00 -3.329770565032958984e+00
2.735000000000000000e+03 3.541099166870117188e+01 -1.280602169036865234e+01 1.340554654598236084e-01 9.722315788269042969e+00 2.956911563873291016e+00 2.399735212326049805e+00
2.736000000000000000e+03 3.995412445068359375e+01 -8.714413642883300781e+00 4.604257106781005859e+00 1.096133613586425781e+01 4.669678211212158203e+00 -1.429095745086669922e+00
2.737000000000000000e+03 3.519173812866210938e+01 -1.191815567016601562e+01 3.501242697238922119e-01 1.006925106048583984e+01 3.125812768936157227e+00 2.863594532012939453e+00
2.738000000000000000e+03 3.371501922607421875e+01 -1.268621158599853516e+01 7.366995811462402344e-01 7.240716934204101562e+00 2.393224954605102539e+00 3.266807556152343750e+00
2.739000000000000000e+03 3.389621353149414062e+01 -3.252430856227874756e-01 8.860993981361389160e-01 7.543916702270507812e+00 2.529004812240600586e+00 -3.043634414672851562e+00
2.740000000000000000e+03 3.631808471679687500e+01 -1.199242305755615234e+01 1.736021339893341064e-01 1.132074260711669922e+01 3.448303461074829102e+00 1.658743500709533691e+00
2.741000000000000000e+03 3.366063690185546875e+01 -1.511240291595458984e+01 2.500766515731811523e-01 6.805923461914062500e+00 2.116800069808959961e+00 2.514496564865112305e+00
2.742000000000000000e+03 3.260026931762695312e+01 1.243290662765502930e+00 8.212260603904724121e-01 5.799294948577880859e+00 1.986156344413757324e+00 -2.647231340408325195e+00
2.743000000000000000e+03 3.351874160766601562e+01 -1.466968917846679688e+01 3.663799464702606201e-01 6.770266056060791016e+00 2.140993833541870117e+00 2.679005384445190430e+00
2.744000000000000000e+03 3.118912315368652344e+01 2.519346714019775391e+00 8.157891035079956055e-01 4.547614097595214844e+00 1.609020948410034180e+00 -2.310524702072143555e+00
2.745000000000000000e+03 3.181613349914550781e+01 2.160047292709350586e+00 7.663825750350952148e-01 5.144007205963134766e+00 1.773116827011108398e+00 -2.386087656021118164e+00
2.746000000000000000e+03 3.411476516723632812e+01 -1.492494964599609375e+01 1.700990349054336548e-01 7.285262107849121094e+00 2.236608505249023438e+00 2.448906421661376953e+00
2.747000000000000000e+03 3.213388442993164062e+01 1.476574659347534180e+00 8.775400519371032715e-01 5.298793792724609375e+00 1.852900147438049316e+00 -2.574595212936401367e+00
2.748000000000000000e+03 3.527391052246093750e+01 -1.776935386657714844e+01 -2.945328056812286377e-01 7.455246448516845703e+00 2.148214101791381836e+00 1.655698418617248535e+00
2.749000000000000000e+03 3.579476928710937500e+01 -1.204436898231506348e+00 5.152775645256042480e-01 1.068823814392089844e+01 3.361054658889770508e+00 -2.187967777252197266e+00
2.750000000000000000e+03 3.332822799682617188e+01 4.821572780609130859e+00 7.974237948656082153e-02 6.142170429229736328e+00 1.866573810577392578e+00 -1.921986222267150879e+00
2.751000000000000000e+03 3.310382843017578125e+01 6.340947628021240234e+00 -5.396477878093719482e-02 5.924123764038085938e+00 1.761047601699829102e+00 -1.707571029663085938e+00
2.752000000000000000e+03 3.303587341308593750e+01 7.347459316253662109e+00 -1.243666782975196838e-01 5.756293773651123047e+00 1.689578175544738770e+00 -1.603746652603149414e+00
2.753000000000000000e+03 6.065151596069335938e+01 -4.477233886718750000e+00 8.888455033302307129e-01 7.471263408660888672e+00 2.508032560348510742e+00 2.570993900299072266e-01
2.754000000000000000e+03 3.539484405517578125e+01 6.349742889404296875e+00 -3.052639663219451904e-01 7.070813655853271484e+00 2.029664993286132812e+00 -1.384583473205566406e+00
2.755000000000000000e+03 3.134576797485351562e+01 1.249921512603759766e+01 -2.611709535121917725e-01 4.809515953063964844e+00 1.364503502845764160e+00 -1.265680193901062012e+00
2.756000000000000000e+03 6.375713348388671875e+01 -8.004294395446777344e+00 6.455239653587341309e-01 7.401723861694335938e+00 2.414174318313598633e+00 -2.693524211645126343e-02
2.757000000000000000e+03 6.458742523193359375e+01 -1.051733589172363281e+01 5.299389958381652832e-01 7.406414508819580078e+00 2.380906105041503906e+00 -1.763452738523483276e-01
2.758000000000000000e+03 6.288641738891601562e+01 -9.087680816650390625e+00 6.837242245674133301e-01 7.429715156555175781e+00 2.434031724929809570e+00 -1.030695959925651550e-01
2.759000000000000000e+03 6.023912811279296875e+01 -5.989575386047363281e+00 9.372081756591796875e-01 7.470284461975097656e+00 2.522247791290283203e+00 1.280508190393447876e-01
2.760000000000000000e+03 6.128532791137695312e+01 -3.044317960739135742e+00 7.993971705436706543e-01 7.475686550140380859e+00 2.482525110244750977e+00 3.674932122230529785e-01
2.761000000000000000e+03 6.276137924194335938e+01 -1.113249969482421875e+01 6.348694562911987305e-01 7.459119796752929688e+00 2.428196668624877930e+00 -2.392885088920593262e-01
2.762000000000000000e+03 3.228290176391601562e+01 -2.035005569458007812e+01 -7.829706370830535889e-02 5.414607048034667969e+00 1.600893020629882812e+00 1.670394897460937500e+00
2.763000000000000000e+03 3.046519088745117188e+01 -2.134943580627441406e+01 5.187818408012390137e-02 4.505862236022949219e+00 1.367322087287902832e+00 1.521334886550903320e+00
2.764000000000000000e+03 6.657614135742187500e+01 -1.121428108215332031e+01 4.259464740753173828e-01 7.363956451416015625e+00 2.336970806121826172e+00 -1.948641687631607056e-01
2.765000000000000000e+03 6.641493225097656250e+01 -1.268402862548828125e+01 3.775881528854370117e-01 7.391819953918457031e+00 2.330822467803955078e+00 -2.759518623352050781e-01
2.766000000000000000e+03 6.287789154052734375e+01 5.080922126770019531e+00 3.300111591815948486e-01 7.636743545532226562e+00 2.390026330947875977e+00 7.490885257720947266e-01
2.767000000000000000e+03 6.251680755615234375e+01 -1.333232820034027100e-01 5.987901687622070312e-01 7.510119438171386719e+00 2.432672739028930664e+00 5.354775786399841309e-01
2.768000000000000000e+03 6.073387145996093750e+01 -1.075464725494384766e+00 7.515343427658081055e-01 7.527319908142089844e+00 2.483656167984008789e+00 5.182618498802185059e-01
2.769000000000000000e+03 6.371109771728515625e+01 2.933308601379394531e+00 4.074668586254119873e-01 7.561727046966552734e+00 2.390758037567138672e+00 6.537263989448547363e-01
2.770000000000000000e+03 3.355147552490234375e+01 -2.586111450195312500e+01 -4.931344687938690186e-01 5.706740856170654297e+00 1.564081907272338867e+00 1.008228302001953125e+00
2.771000000000000000e+03 5.690011978149414062e+01 -1.483842277526855469e+01 7.186304330825805664e-01 7.750046253204345703e+00 2.540602922439575195e+00 -6.217795014381408691e-01
2.772000000000000000e+03 6.066609191894531250e+01 -1.421967983245849609e+01 6.091327667236328125e-01 7.582921981811523438e+00 2.457616567611694336e+00 -4.698070287704467773e-01
2.773000000000000000e+03 6.023851776123046875e+01 -2.045172882080078125e+01 1.708293110132217407e-01 7.764701366424560547e+00 2.380659341812133789e+00 -6.559138894081115723e-01
2.774000000000000000e+03 6.042578506469726562e+01 2.496785640716552734e+00 5.710065364837646484e-01 7.620386123657226562e+00 2.457417726516723633e+00 7.210248112678527832e-01
2.775000000000000000e+03 6.127035140991210938e+01 1.401770973205566406e+01 -1.064170449972152710e-01 7.833367824554443359e+00 2.318085193634033203e+00 8.097257018089294434e-01
2.776000000000000000e+03 5.852297592163085938e+01 6.900185585021972656e+00 2.935275435447692871e-01 7.778412818908691406e+00 2.421581983566284180e+00 8.841188549995422363e-01
2.777000000000000000e+03 5.819920730590820312e+01 5.214452266693115234e+00 4.330503642559051514e-01 7.752387046813964844e+00 2.455631256103515625e+00 8.658941388130187988e-01
2.778000000000000000e+03 3.999208450317382812e+01 -6.333397865295410156e+00 5.987946987152099609e+00 1.053751468658447266e+01 4.957638740539550781e+00 2.313522249460220337e-01
2.779000000000000000e+03 3.983976745605468750e+01 -9.450962066650390625e+00 3.735332250595092773e+00 1.126135921478271484e+01 4.499007701873779297e+00 -1.549941301345825195e+00
2.780000000000000000e+03 3.845679092407226562e+01 -2.234696626663208008e+00 1.648855090141296387e+00 1.203593254089355469e+01 4.105436325073242188e+00 6.366847753524780273e-01
2.781000000000000000e+03 4.019918823242187500e+01 -4.715157032012939453e+00 4.723120689392089844e+00 1.068500137329101562e+01 4.622436523437500000e+00 1.236031770706176758e+00
2.782000000000000000e+03 3.622912597656250000e+01 -1.172630071640014648e+00 4.825007617473602295e-01 1.106438159942626953e+01 3.464064598083496094e+00 -1.727007746696472168e+00
2.783000000000000000e+03 3.768744659423828125e+01 -1.170820045471191406e+01 6.356698870658874512e-01 1.198850154876708984e+01 3.787251472473144531e+00 1.812032908201217651e-01
2.784000000000000000e+03 3.884908294677734375e+01 -1.064523029327392578e+01 2.053934574127197266e+00 1.209655761718750000e+01 4.245147705078125000e+00 -1.125372529029846191e+00
2.785000000000000000e+03 3.344099426269531250e+01 -1.308349609375000000e+01 7.262830138206481934e-01 6.737033367156982422e+00 2.238994836807250977e+00 3.133687257766723633e+00
2.786000000000000000e+03 3.942823410034179688e+01 -9.748331069946289062e+00 3.331426858901977539e+00 1.162783527374267578e+01 4.487778663635253906e+00 -1.523977756500244141e+00
2.787000000000000000e+03 3.915320587158203125e+01 -3.412716150283813477e+00 3.178500890731811523e+00 1.188632011413574219e+01 4.519446372985839844e+00 1.391023159027099609e+00
2.788000000000000000e+03 4.014220428466796875e+01 -5.146206855773925781e+00 5.191263198852539062e+00 1.063385868072509766e+01 4.747536659240722656e+00 1.086006402969360352e+00
2.789000000000000000e+03 3.959087371826171875e+01 -3.598556756973266602e+00 3.520610332489013672e+00 1.140658283233642578e+01 4.478157997131347656e+00 1.438341259956359863e+00
2.790000000000000000e+03 3.965670394897460938e+01 -5.749402046203613281e+00 6.058713436126708984e+00 1.087584400177001953e+01 5.080367088317871094e+00 7.619833946228027344e-01
2.791000000000000000e+03 3.840148925781250000e+01 -1.770805358886718750e+00 1.305664181709289551e+00 1.178855705261230469e+01 3.928266286849975586e+00 3.889171481132507324e-01
2.792000000000000000e+03 3.800138092041015625e+01 -1.711588859558105469e+00 1.116879582405090332e+00 1.192167663574218750e+01 3.911566972732543945e+00 1.111486479640007019e-01
2.793000000000000000e+03 3.662495803833007812e+01 -1.219643688201904297e+01 1.799378097057342529e-01 1.128997135162353516e+01 3.440972805023193359e+00 1.394628286361694336e+00
2.794000000000000000e+03 3.386985778808593750e+01 -1.441988468170166016e+01 3.127694427967071533e-01 7.164923191070556641e+00 2.243307828903198242e+00 2.657660245895385742e+00
2.795000000000000000e+03 3.485402679443359375e+01 -1.542674601078033447e-01 5.184499025344848633e-01 8.759934425354003906e+00 2.783515453338623047e+00 -2.615110158920288086e+00
2.796000000000000000e+03 3.424681472778320312e+01 -1.417260742187500000e+01 2.498504668474197388e-01 7.614370346069335938e+00 2.359266281127929688e+00 2.620546340942382812e+00
2.797000000000000000e+03 3.642132949829101562e+01 -1.166699409484863281e+01 2.874560058116912842e-01 1.177039623260498047e+01 3.617355823516845703e+00 1.509191989898681641e+00
2.798000000000000000e+03 3.439516067504882812e+01 -7.643597126007080078e-01 8.228915929794311523e-01 8.434242248535156250e+00 2.777140140533447266e+00 -3.059102773666381836e+00
2.799000000000000000e+03 3.486731719970703125e+01 -7.075504660606384277e-01 6.459175348281860352e-01 9.113956451416015625e+00 2.927962064743041992e+00 -2.787189722061157227e+00
2.800000000000000000e+03 3.267636871337890625e+01 1.465284079313278198e-01 1.131299257278442383e+00 5.802673339843750000e+00 2.080191850662231445e+00 -2.948055505752563477e+00
2.801000000000000000e+03 3.715359878540039062e+01 -1.196831989288330078e+01 3.229318261146545410e-01 1.179322147369384766e+01 3.634846210479736328e+00 8.389130830764770508e-01
2.802000000000000000e+03 3.278977966308593750e+01 1.701637148857116699e+00 6.753255128860473633e-01 6.009615898132324219e+00 2.005482435226440430e+00 -2.560281276702880859e+00
2.803000000000000000e+03 3.206834793090820312e+01 3.894129514694213867e+00 3.985533416271209717e-01 5.367470264434814453e+00 1.729807019233703613e+00 -2.123398542404174805e+00
2.804000000000000000e+03 3.168041419982910156e+01 2.743196010589599609e+00 6.650983095169067383e-01 5.045111179351806641e+00 1.713062763214111328e+00 -2.293523550033569336e+00
2.805000000000000000e+03 3.230923461914062500e+01 2.001507997512817383e+00 7.058711051940917969e-01 5.537274837493896484e+00 1.872943758964538574e+00 -2.470877647399902344e+00
2.806000000000000000e+03 3.405773925781250000e+01 -1.722638320922851562e+01 -7.195914536714553833e-02 6.818514347076416016e+00 2.023966550827026367e+00 1.991050362586975098e+00
2.807000000000000000e+03 3.387328338623046875e+01 -1.642211532592773438e+01 2.879085764288902283e-02 6.769153594970703125e+00 2.039383411407470703e+00 2.158695459365844727e+00
2.808000000000000000e+03 3.579278182983398438e+01 -6.703369617462158203e-01 4.029704034328460693e-01 1.018865776062011719e+01 3.177488327026367188e+00 -2.093208074569702148e+00
2.809000000000000000e+03 3.449749755859375000e+01 6.810739994049072266e+00 -2.407141625881195068e-01 6.561417102813720703e+00 1.896210908889770508e+00 -1.501279473304748535e+00
2.810000000000000000e+03 3.564971160888671875e+01 -1.648445510864257812e+01 -2.696804106235504150e-01 8.070252418518066406e+00 2.340171575546264648e+00 1.714281201362609863e+00
2.811000000000000000e+03 3.358480834960937500e+01 -1.932608795166015625e+01 -1.831240653991699219e-01 6.225808143615722656e+00 1.812805175781250000e+00 1.703598737716674805e+00
2.812000000000000000e+03 3.397477722167968750e+01 6.071487426757812500e+00 -1.358311772346496582e-01 6.405100822448730469e+00 1.880780935287475586e+00 -1.654177665710449219e+00
2.813000000000000000e+03 6.017709732055664062e+01 -2.503094673156738281e+00 8.612111210823059082e-01 7.507666587829589844e+00 2.510663270950317383e+00 4.284030795097351074e-01
2.814000000000000000e+03 3.599591064453125000e+01 1.131398868560791016e+01 -5.466133952140808105e-01 6.470490932464599609e+00 1.777163267135620117e+00 -9.730149507522583008e-01
2.815000000000000000e+03 6.010935974121093750e+01 -9.741154670715332031e+00 8.828108906745910645e-01 7.501626968383789062e+00 2.515331268310546875e+00 -1.909169256687164307e-01
2.816000000000000000e+03 5.718775939941406250e+01 9.263758659362792969e+00 1.093116030097007751e-01 7.845564842224121094e+00 2.386462926864624023e+00 9.024044871330261230e-01
2.817000000000000000e+03 3.332938766479492188e+01 8.965993881225585938e+00 -2.450373172760009766e-01 5.746295928955078125e+00 1.650377631187438965e+00 -1.433950185775756836e+00
2.818000000000000000e+03 3.256328964233398438e+01 1.166671276092529297e+01 -3.217103183269500732e-01 5.284718513488769531e+00 1.488902449607849121e+00 -1.288827419281005859e+00
2.819000000000000000e+03 6.068598937988281250e+01 -7.958650112152099609e+00 8.791549205780029297e-01 7.467600345611572266e+00 2.504026651382446289e+00 -3.932677581906318665e-02
2.820000000000000000e+03 5.909102249145507812e+01 -1.178145217895507812e+01 8.417593240737915039e-01 7.569307327270507812e+00 2.523319959640502930e+00 -3.634524345397949219e-01
2.821000000000000000e+03 6.383774948120117188e+01 -1.189827442169189453e+01 5.494213104248046875e-01 7.444733619689941406e+00 2.398246526718139648e+00 -2.775872349739074707e-01
2.822000000000000000e+03 6.178958511352539062e+01 1.959719538688659668e+00 5.371514558792114258e-01 7.576272487640380859e+00 2.434027194976806641e+00 6.616718173027038574e-01
2.823000000000000000e+03 3.296451568603515625e+01 1.565494537353515625e+01 -4.651770293712615967e-01 5.164866447448730469e+00 1.409906744956970215e+00 -9.759721755981445312e-01
2.824000000000000000e+03 5.902574920654296875e+01 3.007305383682250977e+00 5.915831923484802246e-01 7.674152374267578125e+00 2.479720592498779297e+00 7.844009995460510254e-01
2.825000000000000000e+03 6.094779586791992188e+01 4.110394001007080078e+00 4.439645111560821533e-01 7.652671337127685547e+00 2.428990840911865234e+00 7.732030749320983887e-01
2.826000000000000000e+03 5.781473541259765625e+01 -1.752670097351074219e+01 4.411842525005340576e-01 7.787668228149414062e+00 2.468655824661254883e+00 -6.830294132232666016e-01
2.827000000000000000e+03 6.029340362548828125e+01 -2.331870841979980469e+01 -2.601989172399044037e-02 7.825872421264648438e+00 2.339955806732177734e+00 -6.470696926116943359e-01
2.828000000000000000e+03 6.136588287353515625e+01 -2.164307022094726562e+01 9.058278799057006836e-02 7.751847267150878906e+00 2.352728843688964844e+00 -6.340194940567016602e-01
2.829000000000000000e+03 5.680441665649414062e+01 5.597520828247070312e+00 4.272414147853851318e-01 7.809472084045410156e+00 2.471014022827148438e+00 9.023610949516296387e-01
2.830000000000000000e+03 5.623397064208984375e+01 -1.956784439086914062e+01 2.498242110013961792e-01 7.909768104553222656e+00 2.447877645492553711e+00 -7.457258105278015137e-01
2.831000000000000000e+03 5.897949981689453125e+01 -1.956429481506347656e+01 2.477075308561325073e-01 7.790918827056884766e+00 2.411587953567504883e+00 -6.824955940246582031e-01
2.832000000000000000e+03 2.542753028869628906e+01 -2.569278907775878906e+01 1.189519688487052917e-01 2.793294429779052734e+00 8.736739158630371094e-01 9.154291749000549316e-01
2.833000000000000000e+03 3.115552902221679688e+01 -2.551305389404296875e+01 -2.762547135353088379e-01 4.829306602478027344e+00 1.365915536880493164e+00 1.125402212142944336e+00
2.834000000000000000e+03 3.981972122192382812e+01 -3.193758010864257812e+00 3.107926130294799805e+00 1.121789073944091797e+01 4.297745227813720703e+00 1.376764535903930664e+00
2.835000000000000000e+03 3.968865203857421875e+01 -4.586188793182373047e+00 4.745880603790283203e+00 1.118050193786621094e+01 4.777915000915527344e+00 1.387652397155761719e+00
2.836000000000000000e+03 3.707850265502929688e+01 -1.046197772026062012e+00 5.436455011367797852e-01 1.131131935119628906e+01 3.556489467620849609e+00 -9.052247405052185059e-01
2.837000000000000000e+03 3.394919204711914062e+01 3.760969161987304688e+00 9.919616580009460449e-02 6.782197475433349609e+00 2.064418077468872070e+00 -1.996110916137695312e+00
2.838000000000000000e+03 3.914600372314453125e+01 -1.001563644409179688e+01 2.890065431594848633e+00 1.203210449218750000e+01 4.476650714874267578e+00 -1.487060427665710449e+00
2.839000000000000000e+03 4.029571533203125000e+01 -9.127006530761718750e+00 4.089577674865722656e+00 1.075386524200439453e+01 4.453032970428466797e+00 -1.431829810142517090e+00
2.840000000000000000e+03 3.913145065307617188e+01 -2.585508823394775391e+00 2.269355535507202148e+00 1.172017955780029297e+01 4.196860313415527344e+00 1.076578855514526367e+00
2.841000000000000000e+03 3.305568313598632812e+01 7.391739636659622192e-03 1.064264774322509766e+00 6.284330844879150391e+00 2.204578638076782227e+00 -3.011141538619995117e+00
2.842000000000000000e+03 3.814329910278320312e+01 -1.168544864654541016e+01 8.074526786804199219e-01 1.190607452392578125e+01 3.814058065414428711e+00 -1.407322734594345093e-01
2.843000000000000000e+03 3.847966003417968750e+01 -1.112214851379394531e+01 1.411996126174926758e+00 1.211325836181640625e+01 4.057576179504394531e+00 -6.841412186622619629e-01
2.844000000000000000e+03 3.305952835083007812e+01 9.865207076072692871e-01 7.736411094665527344e-01 6.294629096984863281e+00 2.120481014251708984e+00 -2.713023662567138672e+00
2.845000000000000000e+03 3.379965972900390625e+01 2.287178337574005127e-01 7.603494524955749512e-01 7.256846904754638672e+00 2.405158996582031250e+00 -2.867629528045654297e+00
2.846000000000000000e+03 3.891786956787109375e+01 -1.030699062347412109e+01 2.527227640151977539e+00 1.212942600250244141e+01 4.396996021270751953e+00 -1.309820294380187988e+00
2.847000000000000000e+03 3.577956390380859375e+01 -1.263693904876708984e+01 9.263447672128677368e-02 1.024083518981933594e+01 3.100040912628173828e+00 2.150838851928710938e+00
2.848000000000000000e+03 4.043045043945312500e+01 -8.452102661132812500e+00 4.726597309112548828e+00 1.048473834991455078e+01 4.563400745391845703e+00 -1.211789488792419434e+00
2.849000000000000000e+03 3.241719818115234375e+01 7.888387441635131836e-01 1.001258254051208496e+00 5.551214694976806641e+00 1.965741991996765137e+00 -2.755153656005859375e+00
2.850000000000000000e+03 3.583984375000000000e+01 -1.108883395791053772e-01 3.062599599361419678e-01 9.797637939453125000e+00 3.031169414520263672e+00 -1.967868804931640625e+00
2.851000000000000000e+03 3.786505889892578125e+01 -1.118015885353088379e+00 7.515997886657714844e-01 1.148415470123291016e+01 3.670726299285888672e+00 -2.145537137985229492e-01
2.852000000000000000e+03 3.678992843627929688e+01 -1.286438083648681641e+01 4.419211670756340027e-02 1.075903415679931641e+01 3.240967750549316406e+00 1.307943105697631836e+00
2.853000000000000000e+03 3.373698043823242188e+01 -1.570772647857666016e+01 1.573365032672882080e-01 6.766428470611572266e+00 2.077129364013671875e+00 2.353786945343017578e+00
2.854000000000000000e+03 3.525019454956054688e+01 -1.576759243011474609e+01 -1.542441248893737793e-01 8.017517089843750000e+00 2.358982086181640625e+00 1.956704020500183105e+00
2.855000000000000000e+03 3.629465866088867188e+01 -1.371931076049804688e+01 -8.240316808223724365e-02 9.847908020019531250e+00 2.929651498794555664e+00 1.681726098060607910e+00
2.856000000000000000e+03 3.490269470214843750e+01 -1.690133857727050781e+01 -1.847057342529296875e-01 7.448335647583007812e+00 2.179089069366455078e+00 1.876148819923400879e+00
2.857000000000000000e+03 3.459630584716796875e+01 -1.614924812316894531e+01 -8.199983090162277222e-02 7.426059246063232422e+00 2.203217744827270508e+00 2.073518753051757812e+00
2.858000000000000000e+03 3.350512695312500000e+01 6.850848197937011719e-01 7.368006110191345215e-01 6.846674919128417969e+00 2.275042772293090820e+00 -2.774130582809448242e+00
2.859000000000000000e+03 3.300690841674804688e+01 3.207996606826782227e+00 3.417742848396301270e-01 6.127610683441162109e+00 1.940815567970275879e+00 -2.214992284774780273e+00
2.860000000000000000e+03 3.641974258422851562e+01 5.887506961822509766e+00 -3.541841506958007812e-01 7.586662292480468750e+00 2.169743537902832031e+00 -1.207145214080810547e+00
2.861000000000000000e+03 3.435325241088867188e+01 4.577997684478759766e+00 -4.044348374009132385e-02 6.882251739501953125e+00 2.052542448043823242e+00 -1.796361684799194336e+00
2.862000000000000000e+03 3.463726425170898438e+01 -1.914638519287109375e+01 -3.073596656322479248e-01 6.797098159790039062e+00 1.946921467781066895e+00 1.606563210487365723e+00
2.863000000000000000e+03 3.433750915527343750e+01 -1.811606025695800781e+01 -1.948227584362030029e-01 6.827610492706298828e+00 1.989836215972900391e+00 1.812839150428771973e+00
2.864000000000000000e+03 3.407519912719726562e+01 8.553598403930664062e+00 -3.096727132797241211e-01 6.142817974090576172e+00 1.749943614006042480e+00 -1.411449790000915527e+00
2.865000000000000000e+03 3.485044479370117188e+01 5.494792938232421875e+00 -1.909895837306976318e-01 6.962334156036376953e+00 2.031403303146362305e+00 -1.576819181442260742e+00
2.866000000000000000e+03 3.499709701538085938e+01 8.533833503723144531e+00 -3.912286758422851562e-01 6.568004131317138672e+00 1.853032588958740234e+00 -1.290540695190429688e+00
2.867000000000000000e+03 3.487786865234375000e+01 7.561205387115478516e+00 -3.247595429420471191e-01 6.654785633087158203e+00 1.899007797241210938e+00 -1.361087322235107422e+00
2.868000000000000000e+03 5.954855728149414062e+01 -6.138419508934020996e-01 8.079131841659545898e-01 7.564074993133544922e+00 2.511596441268920898e+00 5.735953450202941895e-01
2.869000000000000000e+03 3.361046600341796875e+01 1.277120590209960938e+01 -4.413514137268066406e-01 5.587534904479980469e+00 1.543855071067810059e+00 -1.106178760528564453e+00
2.870000000000000000e+03 3.258348846435546875e+01 9.805747032165527344e+00 -2.349552065134048462e-01 5.352333545684814453e+00 1.535213589668273926e+00 -1.425909399986267090e+00
2.871000000000000000e+03 5.995496749877929688e+01 9.005638957023620605e-01 6.886028051376342773e-01 7.591773033142089844e+00 2.484112739562988281e+00 6.550518870353698730e-01
2.872000000000000000e+03 6.125723648071289062e+01 4.167146384716033936e-01 6.442908644676208496e-01 7.550208091735839844e+00 2.458349704742431641e+00 5.958138704299926758e-01
2.873000000000000000e+03 5.747676467895507812e+01 -1.180908584594726562e+01 9.643881320953369141e-01 7.618826866149902344e+00 2.574964523315429688e+00 -4.096522033214569092e-01
2.874000000000000000e+03 5.833150100708007812e+01 -1.562348461151123047e+01 5.944347977638244629e-01 7.715392112731933594e+00 2.492948055267333984e+00 -6.142510771751403809e-01
2.875000000000000000e+03 3.092667388916015625e+01 1.842115020751953125e+01 -4.025973677635192871e-01 4.537382602691650391e+00 1.240435481071472168e+00 -9.114449024200439453e-01
2.876000000000000000e+03 3.195920753479003906e+01 -2.183195877075195312e+01 -1.517602503299713135e-01 5.234129905700683594e+00 1.524710893630981445e+00 1.486239433288574219e+00
2.877000000000000000e+03 5.601071548461914062e+01 -1.764151954650878906e+01 4.661833345890045166e-01 7.873876094818115234e+00 2.502017974853515625e+00 -7.344487309455871582e-01
2.878000000000000000e+03 5.668633270263671875e+01 4.094961166381835938e+00 5.686497688293457031e-01 7.781516075134277344e+00 2.505049705505371094e+00 8.832361102104187012e-01
2.879000000000000000e+03 5.808972930908203125e+01 -2.065966415405273438e+01 1.406164020299911499e-01 7.859616756439208984e+00 2.400069952011108398e+00 -7.031511664390563965e-01
2.880000000000000000e+03 6.023968505859375000e+01 1.233210849761962891e+01 -4.129742085933685303e-02 7.824126243591308594e+00 2.334848642349243164e+00 8.434967398643493652e-01
2.881000000000000000e+03 5.756981277465820312e+01 1.139886379241943359e+01 -3.969236090779304504e-02 7.846353530883789062e+00 2.341998338699340820e+00 8.701105713844299316e-01
2.882000000000000000e+03 3.438668441772460938e+01 -1.307547855377197266e+01 4.018002748489379883e-01 8.144317626953125000e+00 2.563835382461547852e+00 2.937610864639282227e+00
2.883000000000000000e+03 4.006914901733398438e+01 -1.029323863983154297e+01 2.830660820007324219e+00 1.109671783447265625e+01 4.178213596343994141e+00 -1.419591307640075684e+00
2.884000000000000000e+03 4.002803039550781250e+01 -3.758235216140747070e+00 3.743365764617919922e+00 1.098526477813720703e+01 4.418589115142822266e+00 1.415781497955322266e+00
2.885000000000000000e+03 4.022174072265625000e+01 -5.783753395080566406e+00 5.630519390106201172e+00 1.044044017791748047e+01 4.821288108825683594e+00 6.378196477890014648e-01
2.886000000000000000e+03 3.658852767944335938e+01 -1.081370711326599121e+00 4.821837842464447021e-01 1.118045234680175781e+01 3.498790740966796875e+00 -1.396367192268371582e+00
2.887000000000000000e+03 3.591821670532226562e+01 4.793723821640014648e-01 2.021546363830566406e-01 9.443469047546386719e+00 2.893687248229980469e+00 -1.856854438781738281e+00
2.888000000000000000e+03 3.320651626586914062e+01 3.472039103507995605e-01 9.164305329322814941e-01 6.495894908905029297e+00 2.223697662353515625e+00 -2.909085512161254883e+00
2.889000000000000000e+03 3.400624084472656250e+01 2.363555669784545898e+00 2.888426184654235840e-01 7.016125679016113281e+00 2.191490411758422852e+00 -2.240917682647705078e+00
2.890000000000000000e+03 4.074229812622070312e+01 -8.848564147949218750e+00 4.256898880004882812e+00 1.037880134582519531e+01 4.390710353851318359e+00 -1.276379108428955078e+00
2.891000000000000000e+03 3.963078308105468750e+01 -2.239208936691284180e+00 2.139699935913085938e+00 1.120214653015136719e+01 4.002553939819335938e+00 1.088953256607055664e+00
2.892000000000000000e+03 3.985687637329101562e+01 -4.169079303741455078e+00 4.189029693603515625e+00 1.108730888366699219e+01 4.582901954650878906e+00 1.418763995170593262e+00
2.893000000000000000e+03 3.429539489746093750e+01 3.847579061985015869e-01 5.756831765174865723e-01 7.830678939819335938e+00 2.521908760070800781e+00 -2.695402383804321289e+00
2.894000000000000000e+03 3.944487380981445312e+01 -2.951689243316650391e+00 2.750393152236938477e+00 1.156823444366455078e+01 4.295588016510009766e+00 1.298025369644165039e+00
2.895000000000000000e+03 4.046311187744140625e+01 -3.879614114761352539e+00 3.832038402557373047e+00 1.063006877899169922e+01 4.338632106781005859e+00 1.356561779975891113e+00
2.896000000000000000e+03 3.459161376953125000e+01 -1.393557834625244141e+01 1.899000704288482666e-01 8.071613311767578125e+00 2.478454113006591797e+00 2.593239784240722656e+00
2.897000000000000000e+03 3.343020248413085938e+01 1.955310940742492676e+00 5.021635890007019043e-01 6.567696094512939453e+00 2.120957851409912109e+00 -2.470342874526977539e+00
2.898000000000000000e+03 3.944258880615234375e+01 -1.830585360527038574e+00 1.774446129798889160e+00 1.123893547058105469e+01 3.904014587402343750e+00 9.177166819572448730e-01
2.899000000000000000e+03 3.839992523193359375e+01 -1.371964812278747559e+00 1.044065713882446289e+00 1.154288005828857422e+01 3.776083707809448242e+00 2.389504313468933105e-01
2.900000000000000000e+03 3.897972488403320312e+01 -1.106435298919677734e+01 1.704455375671386719e+00 1.185187435150146484e+01 4.066898822784423828e+00 -9.867776632308959961e-01
2.901000000000000000e+03 3.894696807861328125e+01 -2.105268239974975586e+00 1.772075295448303223e+00 1.165940189361572266e+01 4.029443264007568359e+00 8.089934587478637695e-01
2.902000000000000000e+03 3.487991714477539062e+01 -1.317219066619873047e+01 2.202132642269134521e-01 8.807425498962402344e+00 2.708291530609130859e+00 2.689944267272949219e+00
2.903000000000000000e+03 3.537702178955078125e+01 -1.330580902099609375e+01 8.437783271074295044e-02 9.338331222534179688e+00 2.826812744140625000e+00 2.314804553985595703e+00
2.904000000000000000e+03 3.742712020874023438e+01 -1.268082046508789062e+01 1.824005991220474243e-01 1.112544059753417969e+01 3.392352342605590820e+00 7.513982057571411133e-01
2.905000000000000000e+03 3.760181045532226562e+01 -1.219458293914794922e+01 4.014596045017242432e-01 1.162353515625000000e+01 3.607498407363891602e+00 4.106452763080596924e-01
2.906000000000000000e+03 3.326737976074218750e+01 1.443198323249816895e+00 6.382788419723510742e-01 6.455296993255615234e+00 2.128072738647460938e+00 -2.602585315704345703e+00
2.907000000000000000e+03 3.488737487792968750e+01 -1.516040325164794922e+01 -3.435189649462699890e-02 7.935210704803466797e+00 2.370257616043090820e+00 2.172309398651123047e+00
2.908000000000000000e+03 3.538101196289062500e+01 -1.471567916870117188e+01 -8.528229594230651855e-02 8.560123443603515625e+00 2.542452335357666016e+00 2.071230411529541016e+00
2.909000000000000000e+03 3.620506668090820312e+01 -1.424252510070800781e+01 -1.451533734798431396e-01 9.430080413818359375e+00 2.785478115081787109e+00 1.713086485862731934e+00
2.910000000000000000e+03 3.365664291381835938e+01 3.107829093933105469e+00 2.306368798017501831e-01 6.624264240264892578e+00 2.056470394134521484e+00 -2.181018590927124023e+00
2.911000000000000000e+03 3.685440444946289062e+01 -1.675611877441406250e+01 -3.893734514713287354e-01 8.595802307128906250e+00 2.461928844451904297e+00 1.253987193107604980e+00
2.912000000000000000e+03 3.353664016723632812e+01 2.505707502365112305e+00 3.559916913509368896e-01 6.585674762725830078e+00 2.082499980926513672e+00 -2.307618856430053711e+00
2.913000000000000000e+03 3.376187515258789062e+01 1.187054276466369629e+00 5.580635070800781250e-01 7.038891792297363281e+00 2.279086589813232422e+00 -2.599192142486572266e+00
2.914000000000000000e+03 3.612654495239257812e+01 -1.731249427795410156e+01 -3.651955127716064453e-01 8.069808006286621094e+00 2.311383724212646484e+00 1.457320690155029297e+00
2.915000000000000000e+03 3.263832473754882812e+01 -1.910717964172363281e+01 -1.166772935539484024e-02 5.676927566528320312e+00 1.699577927589416504e+00 1.832046151161193848e+00
2.916000000000000000e+03 3.357517623901367188e+01 -2.051474761962890625e+01 -2.612506151199340820e-01 6.115315914154052734e+00 1.756219506263732910e+00 1.562535166740417480e+00
2.917000000000000000e+03 3.658137512207031250e+01 3.867222070693969727e+00 -2.378459274768829346e-01 8.388583183288574219e+00 2.445221185684204102e+00 -1.244236469268798828e+00
2.918000000000000000e+03 3.578905868530273438e+01 7.283309936523437500e+00 -3.711458146572113037e-01 7.044381141662597656e+00 2.001970529556274414e+00 -1.238196134567260742e+00
2.919000000000000000e+03 3.880160522460937500e+01 9.417432785034179688e+00 -5.694173574447631836e-01 7.511342048645019531e+00 2.082577466964721680e+00 -5.737388134002685547e-01
2.920000000000000000e+03 5.668303298950195312e+01 -3.394965410232543945e+00 1.213964939117431641e+00 7.578400611877441406e+00 2.637709617614746094e+00 4.092923998832702637e-01
2.921000000000000000e+03 3.602400970458984375e+01 8.392382621765136719e+00 -4.416239857673645020e-01 6.919707775115966797e+00 1.943425059318542480e+00 -1.127787947654724121e+00
2.922000000000000000e+03 3.785944366455078125e+01 1.725330352783203125e+01 -6.897487640380859375e-01 6.261633872985839844e+00 1.671565532684326172e+00 -5.382112860679626465e-01
2.923000000000000000e+03 5.809461975097656250e+01 -5.829077243804931641e+00 1.141521573066711426e+00 7.516580581665039062e+00 2.597430706024169922e+00 1.516115218400955200e-01
2.924000000000000000e+03 5.779275131225585938e+01 3.661232233047485352e+00 5.838654637336730957e-01 7.728475093841552734e+00 2.493702173233032227e+00 8.367181420326232910e-01
2.925000000000000000e+03 5.882205581665039062e+01 -1.008814811706542969e+01 9.654520750045776367e-01 7.534237384796142578e+00 2.549906730651855469e+00 -2.372520118951797485e-01
2.926000000000000000e+03 5.629092407226562500e+01 -8.310907363891601562e+00 1.293771147727966309e+00 7.578613758087158203e+00 2.661715507507324219e+00 -1.097457110881805420e-01
2.927000000000000000e+03 5.422869491577148438e+01 -1.814969825744628906e+01 4.281592071056365967e-01 7.986208438873291016e+00 2.524310111999511719e+00 -7.930752635002136230e-01
2.928000000000000000e+03 2.797583389282226562e+01 1.773173332214355469e+01 -2.296629399061203003e-01 3.667682647705078125e+00 1.031405925750732422e+00 -9.614006280899047852e-01
2.929000000000000000e+03 5.748206710815429688e+01 -1.342450237274169922e+01 8.437562584877014160e-01 7.666429996490478516e+00 2.553056001663208008e+00 -5.202009677886962891e-01
2.930000000000000000e+03 3.467041397094726562e+01 1.420635509490966797e+01 -5.366479754447937012e-01 5.806077003479003906e+00 1.580828785896301270e+00 -9.417635798454284668e-01
2.931000000000000000e+03 3.418309020996093750e+01 1.736628723144531250e+01 -5.484806299209594727e-01 5.425418376922607422e+00 1.463081359863281250e+00 -8.283461332321166992e-01
2.932000000000000000e+03 5.538634490966796875e+01 9.587988853454589844e+00 6.308694928884506226e-02 7.890027046203613281e+00 2.385934114456176758e+00 9.043229222297668457e-01
2.933000000000000000e+03 5.538437652587890625e+01 5.748533725738525391e+00 4.241086542606353760e-01 7.865181446075439453e+00 2.486787080764770508e+00 9.315297603607177734e-01
2.934000000000000000e+03 5.691529846191406250e+01 2.798871040344238281e+00 6.827589273452758789e-01 7.738074302673339844e+00 2.526249885559082031e+00 8.264993429183959961e-01
2.935000000000000000e+03 5.844926071166992188e+01 1.345809364318847656e+01 -1.334811598062515259e-01 7.842680454254150391e+00 2.312759637832641602e+00 8.309355974197387695e-01
2.936000000000000000e+03 3.356608200073242188e+01 -2.379242324829101562e+01 -4.362916350364685059e-01 5.853065490722656250e+00 1.625032067298889160e+00 1.198398709297180176e+00
2.937000000000000000e+03 5.671935272216796875e+01 -2.139599418640136719e+01 6.913132965564727783e-02 7.929411888122558594e+00 2.399563074111938477e+00 -7.273443341255187988e-01
2.938000000000000000e+03 5.681748962402343750e+01 -2.655517196655273438e+01 -3.073813319206237793e-01 7.963645458221435547e+00 2.296879291534423828e+00 -6.064952611923217773e-01
2.939000000000000000e+03 3.986191940307617188e+01 -6.009202003479003906e+00 6.038835048675537109e+00 1.065675163269042969e+01 5.008676052093505859e+00 5.296143889427185059e-01
2.940000000000000000e+03 3.628886032104492188e+01 -1.556848585605621338e-01 2.738869786262512207e-01 1.020381069183349609e+01 3.143309354782104492e+00 -1.664565682411193848e+00
2.941000000000000000e+03 4.066483688354492188e+01 -5.635103225708007812e+00 5.215937614440917969e+00 1.012555027008056641e+01 4.602446556091308594e+00 6.714228987693786621e-01
2.942000000000000000e+03 4.072076034545898438e+01 -7.816421985626220703e+00 5.073770523071289062e+00 1.016464233398437500e+01 4.571523666381835938e+00 -8.306299448013305664e-01
2.943000000000000000e+03 3.758682250976562500e+01 -8.364240527153015137e-01 5.557895302772521973e-01 1.124780273437500000e+01 3.541077613830566406e+00 -5.354742407798767090e-01
2.944000000000000000e+03 3.654519271850585938e+01 -7.049716114997863770e-01 3.473201394081115723e-01 1.080817985534667969e+01 3.346650123596191406e+00 -1.491252064704895020e+00
2.945000000000000000e+03 4.102500152587890625e+01 -3.570481300354003906e+00 3.497910737991333008e+00 1.028709697723388672e+01 4.135502338409423828e+00 1.327745437622070312e+00
2.946000000000000000e+03 3.534004592895507812e+01 -6.788331270217895508e-01 5.004957318305969238e-01 9.707847595214843750e+00 3.062503099441528320e+00 -2.438436985015869141e+00
2.947000000000000000e+03 3.587268829345703125e+01 3.240424394607543945e+00 -1.197773441672325134e-01 8.136872291564941406e+00 2.405128479003906250e+00 -1.551055669784545898e+00
2.948000000000000000e+03 3.985268783569335938e+01 -2.580529689788818359e+00 2.473924636840820312e+00 1.113786983489990234e+01 4.083538055419921875e+00 1.236137390136718750e+00
2.949000000000000000e+03 3.441427230834960938e+01 -1.355764770507812500e+01 3.073994815349578857e-01 8.003013610839843750e+00 2.493124008178710938e+00 2.786063194274902344e+00
2.950000000000000000e+03 3.493683242797851562e+01 -1.429218196868896484e+01 5.206624045968055725e-02 8.305653572082519531e+00 2.507315874099731445e+00 2.361595869064331055e+00
2.951000000000000000e+03 3.727733993530273438e+01 -6.498637795448303223e-01 4.535557031631469727e-01 1.105893135070800781e+01 3.453746080398559570e+00 -7.839017510414123535e-01
2.952000000000000000e+03 3.447870635986328125e+01 3.318224430084228516e+00 5.329984426498413086e-02 7.194746017456054688e+00 2.174413681030273438e+00 -1.953861117362976074e+00
2.953000000000000000e+03 3.861877822875976562e+01 -1.159824562072753906e+01 1.126555323600769043e+00 1.175446033477783203e+01 3.864304780960083008e+00 -5.342359542846679688e-01
2.954000000000000000e+03 3.954145050048828125e+01 -1.017534828186035156e+01 2.846607923507690430e+00 1.155091667175292969e+01 4.319257259368896484e+00 -1.457123517990112305e+00
2.955000000000000000e+03 4.108368682861328125e+01 -9.205118179321289062e+00 3.883923053741455078e+00 1.021789264678955078e+01 4.230544567108154297e+00 -1.297604084014892578e+00
2.956000000000000000e+03 3.912340927124023438e+01 -1.154073905944824219e+01 1.404368162155151367e+00 1.154706859588623047e+01 3.885431051254272461e+00 -8.384970426559448242e-01
2.957000000000000000e+03 3.569023895263671875e+01 -1.412558364868164062e+01 -7.121729850769042969e-02 9.094808578491210938e+00 2.707077503204345703e+00 1.999877452850341797e+00
2.958000000000000000e+03 3.927655029296875000e+01 -1.053460216522216797e+01 2.373194932937622070e+00 1.168027496337890625e+01 4.216041088104248047e+00 -1.275807499885559082e+00
2.959000000000000000e+03 3.640394210815429688e+01 -1.258962726593017578e+01 8.416561037302017212e-02 1.078795242309570312e+01 3.261635303497314453e+00 1.612109661102294922e+00
2.960000000000000000e+03 4.072032928466796875e+01 -7.375104427337646484e+00 5.332374095916748047e+00 1.008640861511230469e+01 4.625634670257568359e+00 -5.781661868095397949e-01
2.961000000000000000e+03 4.055239105224609375e+01 -6.371594905853271484e+00 5.529861450195312500e+00 1.011056804656982422e+01 4.692128658294677734e+00 1.878314465284347534e-01
2.962000000000000000e+03 4.032548904418945312e+01 -4.289701461791992188e+00 4.272824764251708984e+00 1.067093944549560547e+01 4.483129024505615234e+00 1.325739383697509766e+00
2.963000000000000000e+03 4.039684677124023438e+01 -2.993297576904296875e+00 2.990639209747314453e+00 1.074013900756835938e+01 4.119233608245849609e+00 1.345085978507995605e+00
2.964000000000000000e+03 3.695721817016601562e+01 -1.360920715332031250e+01 -6.818487495183944702e-02 1.028390216827392578e+01 3.064715385437011719e+00 1.194771051406860352e+00
2.965000000000000000e+03 4.067079544067382812e+01 -9.479478836059570312e+00 3.706477165222167969e+00 1.055701446533203125e+01 4.279047489166259766e+00 -1.409211635589599609e+00
2.966000000000000000e+03 3.445841979980468750e+01 2.263804674148559570e+00 2.056582123041152954e-01 7.480320453643798828e+00 2.305793523788452148e+00 -2.143121004104614258e+00
2.967000000000000000e+03 3.529104995727539062e+01 4.215672016143798828e+00 -1.336164474487304688e-01 7.526349544525146484e+00 2.217819929122924805e+00 -1.639092326164245605e+00
2.968000000000000000e+03 3.390074157714843750e+01 1.791193246841430664e+00 4.067467749118804932e-01 7.066859245300292969e+00 2.242081880569458008e+00 -2.397345781326293945e+00
2.969000000000000000e+03 3.663472366333007812e+01 -1.401366424560546875e+01 -1.239309012889862061e-01 9.826122283935546875e+00 2.910657644271850586e+00 1.406718969345092773e+00
2.970000000000000000e+03 3.657225418090820312e+01 2.544824361801147461e+00 -1.222893893718719482e-01 8.777152061462402344e+00 2.596458673477172852e+00 -1.342478513717651367e+00
2.971000000000000000e+03 3.582637786865234375e+01 5.026428699493408203e+00 -2.546364367008209229e-01 7.595921516418457031e+00 2.202385663986206055e+00 -1.401683330535888672e+00
2.972000000000000000e+03 3.670422744750976562e+01 -1.826613426208496094e+01 -4.632229208946228027e-01 8.018609046936035156e+00 2.266615867614746094e+00 1.206863522529602051e+00
2.973000000000000000e+03 3.489452743530273438e+01 -2.038312339782714844e+01 -4.078294932842254639e-01 6.745507717132568359e+00 1.901303410530090332e+00 1.408494949340820312e+00
2.974000000000000000e+03 5.849267196655273438e+01 -3.158397674560546875e+00 1.047531723976135254e+00 7.531862258911132812e+00 2.573818206787109375e+00 4.046694636344909668e-01
2.975000000000000000e+03 5.810372924804687500e+01 -1.571037650108337402e+00 9.633944630622863770e-01 7.582255840301513672e+00 2.563695192337036133e+00 5.364907979965209961e-01
2.976000000000000000e+03 5.834355545043945312e+01 -2.969096601009368896e-01 8.757071495056152344e-01 7.602275848388671875e+00 2.543394804000854492e+00 6.188884973526000977e-01
2.977000000000000000e+03 5.774055480957031250e+01 -4.195911884307861328e+00 1.128745913505554199e+00 7.540173530578613281e+00 2.600675821304321289e+00 3.096576333045959473e-01
2.978000000000000000e+03 6.189451599121093750e+01 -1.016349887847900391e+01 7.162511348724365234e-01 7.465456485748291016e+00 2.454512357711791992e+00 -1.915612369775772095e-01
2.979000000000000000e+03 6.123478317260742188e+01 -9.059930801391601562e+00 8.013249039649963379e-01 7.465310573577880859e+00 2.479990482330322266e+00 -1.231555119156837463e-01
2.980000000000000000e+03 5.619647598266601562e+01 -1.353094768524169922e+01 9.118848443031311035e-01 7.735417842864990234e+00 2.594190835952758789e+00 -5.855744481086730957e-01
2.981000000000000000e+03 3.607206726074218750e+01 9.707246780395507812e+00 -5.054865479469299316e-01 6.728792667388916016e+00 1.866991877555847168e+00 -1.061053991317749023e+00
2.982000000000000000e+03 3.493864822387695312e+01 9.733602523803710938e+00 -4.385182857513427734e-01 6.363322734832763672e+00 1.777441263198852539e+00 -1.201761364936828613e+00
2.983000000000000000e+03 3.458428192138671875e+01 1.124813747406005859e+01 -4.604651927947998047e-01 6.056504249572753906e+00 1.678811669349670410e+00 -1.114328503608703613e+00
2.984000000000000000e+03 3.034883689880371094e+01 2.313351440429687500e+01 -4.268141686916351318e-01 4.246826171875000000e+00 1.146003603935241699e+00 -6.629667282104492188e-01
2.985000000000000000e+03 5.535939407348632812e+01 7.570537567138671875e+00 2.407841235399246216e-01 7.888258457183837891e+00 2.438712835311889648e+00 9.278141856193542480e-01
2.986000000000000000e+03 5.552528762817382812e+01 -1.578524112701416016e+01 6.786301732063293457e-01 7.839646816253662109e+00 2.555483102798461914e+00 -7.014487981796264648e-01
2.987000000000000000e+03 5.569770050048828125e+01 2.621501922607421875e+00 7.579155564308166504e-01 7.781086921691894531e+00 2.561700820922851562e+00 8.532178401947021484e-01
2.988000000000000000e+03 5.383661651611328125e+01 -1.635403442382812500e+01 6.595927476882934570e-01 7.961598396301269531e+00 2.586357355117797852e+00 -7.772831320762634277e-01
2.989000000000000000e+03 5.458288955688476562e+01 -2.005455398559570312e+01 1.900079846382141113e-01 8.007568359375000000e+00 2.459272861480712891e+00 -7.733193635940551758e-01
2.990000000000000000e+03 5.546518707275390625e+01 1.183291053771972656e+01 -1.114353984594345093e-01 7.875524520874023438e+00 2.329226732254028320e+00 8.543626070022583008e-01
2.991000000000000000e+03 5.746699905395507812e+01 -2.933721160888671875e+01 -4.293179810047149658e-01 7.944249629974365234e+00 2.254479408264160156e+00 -5.243392586708068848e-01
2.992000000000000000e+03 5.759657669067382812e+01 -2.323295783996582031e+01 -7.246995717287063599e-02 7.924141883850097656e+00 2.355501651763916016e+00 -6.877675652503967285e-01
2.993000000000000000e+03 6.361486053466796875e+01 2.736419105529785156e+01 -3.161242604255676270e-01 7.940659523010253906e+00 2.287360668182373047e+00 4.621148407459259033e-01
2.994000000000000000e+03 4.072045898437500000e+01 -6.045562744140625000e+00 5.393272399902343750e+00 1.005011653900146484e+01 4.633016586303710938e+00 3.692871034145355225e-01
2.995000000000000000e+03 3.483924865722656250e+01 4.384925067424774170e-01 4.091480076313018799e-01 8.453826904296875000e+00 2.658892393112182617e+00 -2.451113224029541016e+00
2.996000000000000000e+03 3.790921020507812500e+01 -1.294042396545410156e+01 2.167151719331741333e-01 1.100892925262451172e+01 3.367693185806274414e+00 4.221008121967315674e-01
2.997000000000000000e+03 3.950394821166992188e+01 -1.093975162506103516e+01 2.068078279495239258e+00 1.146743297576904297e+01 4.060653209686279297e+00 -1.204133510589599609e+00
2.998000000000000000e+03 4.082461929321289062e+01 -6.967473506927490234e+00 5.396409034729003906e+00 9.979669570922851562e+00 4.612823486328125000e+00 -2.691860496997833252e-01
2.999000000000000000e+03 4.119060897827148438e+01 -6.014366149902343750e+00 5.071988582611083984e+00 9.805574417114257812e+00 4.463268756866455078e+00 3.750204741954803467e-01
3.000000000000000000e+03 4.090468597412109375e+01 -8.228767395019531250e+00 4.726915836334228516e+00 1.012826347351074219e+01 4.456553936004638672e+00 -1.021072268486022949e+00
3.001000000000000000e+03 4.125252151489257812e+01 -7.726911544799804688e+00 4.823714733123779297e+00 9.811147689819335938e+00 4.390458583831787109e+00 -6.575734615325927734e-01
3.002000000000000000e+03 3.812048721313476562e+01 -1.330521941184997559e+00 9.389073252677917480e-01 1.155973339080810547e+01 3.749592304229736328e+00 4.200943559408187866e-02
3.003000000000000000e+03 3.653958129882812500e+01 -1.328780174255371094e+01 -1.791425049304962158e-02 1.026928234100341797e+01 3.075410366058349609e+00 1.508941531181335449e+00
3.004000000000000000e+03 3.586449050903320312e+01 -1.350131988525390625e+01 -2.481505461037158966e-02 9.728894233703613281e+00 2.911223649978637695e+00 1.991785526275634766e+00
3.005000000000000000e+03 4.132466125488281250e+01 -4.344624042510986328e+00 4.087638378143310547e+00 9.964870452880859375e+00 4.215752601623535156e+00 1.118366956710815430e+00
3.006000000000000000e+03 4.021601104736328125e+01 -3.361823797225952148e+00 3.334987163543701172e+00 1.086133003234863281e+01 4.258895397186279297e+00 1.384538888931274414e+00
3.007000000000000000e+03 4.008919525146484375e+01 -2.850011110305786133e+00 2.794517517089843750e+00 1.101025199890136719e+01 4.141430854797363281e+00 1.337506890296936035e+00
3.008000000000000000e+03 3.535218048095703125e+01 2.334660053253173828e+00 3.275056183338165283e-02 8.113937377929687500e+00 2.444006204605102539e+00 -1.878647923469543457e+00
3.009000000000000000e+03 4.061710357666015625e+01 -1.080261898040771484e+01 2.485252141952514648e+00 1.068593883514404297e+01 3.951357126235961914e+00 -1.359221339225769043e+00
3.010000000000000000e+03 3.965518569946289062e+01 -1.145981693267822266e+01 1.665503740310668945e+00 1.123967266082763672e+01 3.871552705764770508e+00 -1.045750617980957031e+00
3.011000000000000000e+03 4.029744338989257812e+01 -9.818342208862304688e+00 3.327359914779663086e+00 1.090578937530517578e+01 4.269944667816162109e+00 -1.480513334274291992e+00
3.012000000000000000e+03 3.630354690551757812e+01 -1.600496673583984375e+01 -3.003011047840118408e-01 8.623465538024902344e+00 2.496949195861816406e+00 1.513138532638549805e+00
3.013000000000000000e+03 3.484997177124023438e+01 1.052240729331970215e+00 3.044284582138061523e-01 8.216506958007812500e+00 2.556280612945556641e+00 -2.309923887252807617e+00
3.014000000000000000e+03 4.007017517089843750e+01 -1.083612346649169922e+01 2.326961755752563477e+00 1.107753753662109375e+01 4.021349906921386719e+00 -1.308811664581298828e+00
3.015000000000000000e+03 4.157845687866210938e+01 -8.349604606628417969e+00 4.439917087554931641e+00 9.777983665466308594e+00 4.265370368957519531e+00 -9.392094612121582031e-01
3.016000000000000000e+03 4.126291275024414062e+01 -6.464541435241699219e+00 5.121939659118652344e+00 9.737973213195800781e+00 4.457973957061767578e+00 9.338127821683883667e-02
3.017000000000000000e+03 4.157538604736328125e+01 -5.428333759307861328e+00 4.611191272735595703e+00 9.651466369628906250e+00 4.278797149658203125e+00 6.481209397315979004e-01
3.018000000000000000e+03 3.773733520507812500e+01 -1.347913074493408203e+01 3.868157044053077698e-02 1.063853740692138672e+01 3.203165769577026367e+00 6.433260440826416016e-01
3.019000000000000000e+03 3.805052947998046875e+01 -1.248062229156494141e+01 4.425657689571380615e-01 1.143466854095458984e+01 3.563170433044433594e+00 1.538799703121185303e-01
3.020000000000000000e+03 3.429524612426757812e+01 1.049500703811645508e+00 4.492309391498565674e-01 7.614505290985107422e+00 2.419120788574218750e+00 -2.513196945190429688e+00
3.021000000000000000e+03 3.521027755737304688e+01 -1.383713340759277344e+01 4.848867654800415039e-02 8.808315277099609375e+00 2.657041072845458984e+00 2.331601619720458984e+00
3.022000000000000000e+03 3.789932632446289062e+01 -4.457129836082458496e-01 5.039682984352111816e-01 1.098643875122070312e+01 3.447122097015380859e+00 -3.891777992248535156e-01
3.023000000000000000e+03 3.512715530395507812e+01 3.377254247665405273e+00 -4.362514242529869080e-02 7.606887340545654297e+00 2.268978595733642578e+00 -1.793218374252319336e+00
3.024000000000000000e+03 3.761252975463867188e+01 5.407719135284423828e+00 -3.684931993484497070e-01 8.155994415283203125e+00 2.336250543594360352e+00 -8.872545957565307617e-01
3.025000000000000000e+03 3.569957733154296875e+01 -1.879194259643554688e+01 -4.160741567611694336e-01 7.434718132019042969e+00 2.105593204498291016e+00 1.430831670761108398e+00
3.026000000000000000e+03 3.739472961425781250e+01 -1.399866676330566406e+01 -9.023891389369964600e-02 1.019159030914306641e+01 3.030405521392822266e+00 9.389149546623229980e-01
3.027000000000000000e+03 3.760719299316406250e+01 -1.755967140197753906e+01 -4.578977525234222412e-01 8.605506896972656250e+00 2.444282770156860352e+00 9.412219524383544922e-01
3.028000000000000000e+03 3.656998062133789062e+01 3.226548194885253906e+00 -1.913333684206008911e-01 8.536821365356445312e+00 2.503646373748779297e+00 -1.317431449890136719e+00
3.029000000000000000e+03 3.799921798706054688e+01 6.448986530303955078e+00 -4.302617907524108887e-01 7.962197780609130859e+00 2.259580850601196289e+00 -7.732535600662231445e-01
3.030000000000000000e+03 5.711157608032226562e+01 -1.581946611404418945e+00 1.036639332771301270e+00 7.608114719390869141e+00 2.593426227569580078e+00 5.577526092529296875e-01
3.031000000000000000e+03 3.722084045410156250e+01 8.086608886718750000e+00 -4.893301725387573242e-01 7.385991096496582031e+00 2.068998336791992188e+00 -8.921756744384765625e-01
3.032000000000000000e+03 3.643159866333007812e+01 1.299323940277099609e+01 -5.979973673820495605e-01 6.399588584899902344e+00 1.740477442741394043e+00 -8.329759836196899414e-01
3.033000000000000000e+03 5.753383636474609375e+01 -8.534368515014648438e+00 1.157308816909790039e+00 7.541875839233398438e+00 2.609755516052246094e+00 -1.242751106619834900e-01
3.034000000000000000e+03 5.909466552734375000e+01 -5.925588607788085938e+00 1.036771416664123535e+00 7.494175434112548828e+00 2.559283971786499023e+00 1.417164802551269531e-01
3.035000000000000000e+03 5.742776489257812500e+01 -1.014425086975097656e+01 1.066658496856689453e+00 7.581661224365234375e+00 2.594495773315429688e+00 -2.784689664840698242e-01
3.036000000000000000e+03 5.873576354980468750e+01 -8.587520599365234375e+00 1.028979778289794922e+00 7.513843059539794922e+00 2.562846899032592773e+00 -1.164992228150367737e-01
3.037000000000000000e+03 5.980563735961914062e+01 -8.478322029113769531e+00 9.436265826225280762e-01 7.490008354187011719e+00 2.530090332031250000e+00 -9.479051083326339722e-02
3.038000000000000000e+03 5.486846160888671875e+01 -1.408385086059570312e+01 9.222622513771057129e-01 7.815573692321777344e+00 2.621350765228271484e+00 -6.498247385025024414e-01
3.039000000000000000e+03 5.339521408081054688e+01 -1.465901088714599609e+01 9.134865999221801758e-01 7.925598144531250000e+00 2.651725530624389648e+00 -7.296930551528930664e-01
3.040000000000000000e+03 5.717824172973632812e+01 1.334160566329956055e+00 8.207573890686035156e-01 7.688008785247802734e+00 2.552629709243774414e+00 7.663844227790832520e-01
3.041000000000000000e+03 5.709646987915039062e+01 -2.474814504384994507e-01 9.673814177513122559e-01 7.635763645172119141e+00 2.580943584442138672e+00 6.503857374191284180e-01
3.042000000000000000e+03 3.738515472412109375e+01 1.083672046661376953e+01 -5.845428109169006348e-01 6.920332431793212891e+00 1.900736927986145020e+00 -7.666571736335754395e-01
3.043000000000000000e+03 5.397398376464843750e+01 5.703359603881835938e+00 4.300128817558288574e-01 7.929292201995849609e+00 2.507791519165039062e+00 9.506406188011169434e-01
3.044000000000000000e+03 5.548146438598632812e+01 4.106410026550292969e+00 5.885362625122070312e-01 7.830400943756103516e+00 2.525681257247924805e+00 9.078908562660217285e-01
3.045000000000000000e+03 3.667448425292968750e+01 -2.139588165283203125e+01 -5.973208546638488770e-01 7.282458305358886719e+00 2.005541324615478516e+00 1.026974797248840332e+00
3.046000000000000000e+03 5.588162231445312500e+01 1.170526623725891113e+00 8.985394239425659180e-01 7.736113548278808594e+00 2.590395927429199219e+00 7.956321239471435547e-01
3.047000000000000000e+03 5.182709503173828125e+01 9.453444480895996094e+00 -2.079361863434314728e-02 7.998744487762451172e+00 2.393385410308837891e+00 8.610754013061523438e-01
3.048000000000000000e+03 5.357115173339843750e+01 9.630394935607910156e+00 1.743861474096775055e-02 7.941525936126708984e+00 2.387689352035522461e+00 8.883318901062011719e-01
3.049000000000000000e+03 5.684817504882812500e+01 1.490903663635253906e+01 -2.360258400440216064e-01 7.837985515594482422e+00 2.280587911605834961e+00 7.923100590705871582e-01
3.050000000000000000e+03 5.522497177124023438e+01 1.404255962371826172e+01 -2.401783764362335205e-01 7.848024368286132812e+00 2.282353878021240234e+00 7.912888526916503906e-01
3.051000000000000000e+03 6.189219284057617188e+01 -2.433255958557128906e+01 -6.151455640792846680e-02 7.788061141967773438e+00 2.317964076995849609e+00 -6.117076873779296875e-01
3.052000000000000000e+03 6.965176391601562500e+01 3.163037300109863281e+01 -1.699625849723815918e-01 8.275430679321289062e+00 2.431640386581420898e+00 2.889752984046936035e-01
3.053000000000000000e+03 4.128855895996093750e+01 -7.344106197357177734e+00 4.960056781768798828e+00 9.754236221313476562e+00 4.414288043975830078e+00 -4.828829765319824219e-01
3.054000000000000000e+03 3.597389984130859375e+01 1.110783934593200684e+00 9.830407053232192993e-02 9.146184921264648438e+00 2.773346662521362305e+00 -1.765134334564208984e+00
3.055000000000000000e+03 4.077610778808593750e+01 -1.124689292907714844e+01 2.148476839065551758e+00 1.057575130462646484e+01 3.817268371582031250e+00 -1.282210826873779297e+00
3.056000000000000000e+03 3.830607604980468750e+01 -1.082971572875976562e+00 8.870350122451782227e-01 1.135143566131591797e+01 3.671541213989257812e+00 8.397714793682098389e-02
3.057000000000000000e+03 4.081340026855468750e+01 -4.354743003845214844e+00 4.230048656463623047e+00 1.029407024383544922e+01 4.357235908508300781e+00 1.210099816322326660e+00
3.058000000000000000e+03 4.077972030639648438e+01 -6.623645782470703125e+00 5.423703193664550781e+00 1.000775432586669922e+01 4.629437446594238281e+00 -6.996207870543003082e-03
3.059000000000000000e+03 4.062845993041992188e+01 -3.472309350967407227e+00 3.466115951538085938e+00 1.054915618896484375e+01 4.204581737518310547e+00 1.375427961349487305e+00
3.060000000000000000e+03 3.874846649169921875e+01 -1.207191371917724609e+01 8.892664909362792969e-01 1.144090747833251953e+01 3.699052333831787109e+00 -4.192914068698883057e-01
3.061000000000000000e+03 3.924396514892578125e+01 -1.207104969024658203e+01 1.077732205390930176e+00 1.124633121490478516e+01 3.697218894958496094e+00 -6.672624349594116211e-01
3.062000000000000000e+03 3.584528732299804688e+01 -1.529624366760253906e+01 -1.990550607442855835e-01 8.649085044860839844e+00 2.535008907318115234e+00 1.780948281288146973e+00
3.063000000000000000e+03 3.835166168212890625e+01 -1.217635726928710938e+01 6.302968263626098633e-01 1.150375175476074219e+01 3.640214681625366211e+00 -5.416550487279891968e-02
3.064000000000000000e+03 3.488486862182617188e+01 1.659275889396667480e+00 2.011585682630538940e-01 7.980832099914550781e+00 2.454597234725952148e+00 -2.173099756240844727e+00
3.065000000000000000e+03 3.438132095336914062e+01 1.687288999557495117e+00 2.969678044319152832e-01 7.531050682067871094e+00 2.348405599594116211e+00 -2.313272476196289062e+00
3.066000000000000000e+03 4.150934982299804688e+01 -8.926844596862792969e+00 3.957894086837768555e+00 9.923663139343261719e+00 4.164467334747314453e+00 -1.145669579505920410e+00
3.067000000000000000e+03 4.135164260864257812e+01 -8.047659873962402344e+00 4.600404262542724609e+00 9.821304321289062500e+00 4.326512813568115234e+00 -8.686311244964599609e-01
3.068000000000000000e+03 3.413953018188476562e+01 2.897366046905517578e+00 1.825532019138336182e-01 6.993515014648437500e+00 2.152820587158203125e+00 -2.107280015945434570e+00
3.069000000000000000e+03 3.540485763549804688e+01 1.079545021057128906e+00 1.892709434032440186e-01 8.703622817993164062e+00 2.667868137359619141e+00 -2.048439502716064453e+00
3.070000000000000000e+03 3.646736145019531250e+01 4.335682690143585205e-01 1.610911041498184204e-01 9.888814926147460938e+00 3.014971971511840820e+00 -1.492369055747985840e+00
3.071000000000000000e+03 4.032123947143554688e+01 -2.299247503280639648e+00 2.367854118347167969e+00 1.077664184570312500e+01 3.943348646163940430e+00 1.225415110588073730e+00
3.072000000000000000e+03 4.131692886352539062e+01 -6.909842491149902344e+00 5.066140174865722656e+00 9.714385986328125000e+00 4.434157848358154297e+00 -2.139200121164321899e-01
3.073000000000000000e+03 4.114080429077148438e+01 -5.595939159393310547e+00 4.946891307830810547e+00 9.853456497192382812e+00 4.440104484558105469e+00 6.208556890487670898e-01
3.074000000000000000e+03 3.793680191040039062e+01 -1.554491138458251953e+01 -2.688000798225402832e-01 9.530054092407226562e+00 2.778376102447509766e+00 7.404368519783020020e-01
3.075000000000000000e+03 4.072422790527343750e+01 -1.003448581695556641e+01 3.109615564346313477e+00 1.061015510559082031e+01 4.115931034088134766e+00 -1.410136342048645020e+00
3.076000000000000000e+03 4.143262863159179688e+01 -9.558917999267578125e+00 3.525912284851074219e+00 1.006683731079101562e+01 4.077824592590332031e+00 -1.301171779632568359e+00
3.077000000000000000e+03 3.743265914916992188e+01 -1.615039443969726562e+01 -3.416098058223724365e-01 9.035222053527832031e+00 2.608083724975585938e+00 1.025883793830871582e+00
3.078000000000000000e+03 3.455029296875000000e+01 2.790521144866943359e+00 1.129036620259284973e-01 7.431159973144531250e+00 2.263219118118286133e+00 -2.011998891830444336e+00
3.079000000000000000e+03 3.688491439819335938e+01 -1.551078033447265625e+01 -2.911056578159332275e-01 9.125858306884765625e+00 2.650425910949707031e+00 1.279386281967163086e+00
3.080000000000000000e+03 3.590560150146484375e+01 2.493208885192871094e+00 -5.965401977300643921e-02 8.413961410522460938e+00 2.506292104721069336e+00 -1.640563488006591797e+00
3.081000000000000000e+03 3.726624679565429688e+01 2.592408418655395508e+00 -1.440371274948120117e-01 9.039710998535156250e+00 2.668702125549316406e+00 -1.073097944259643555e+00
3.082000000000000000e+03 3.721469879150390625e+01 4.588257312774658203e+00 -3.016630709171295166e-01 8.300489425659179688e+00 2.399647951126098633e+00 -1.043083667755126953e+00
3.083000000000000000e+03 3.684016418457031250e+01 6.914760589599609375e+00 -4.295900166034698486e-01 7.544744968414306641e+00 2.134546518325805664e+00 -1.047589540481567383e+00
3.084000000000000000e+03 3.785462570190429688e+01 1.196382236480712891e+01 -6.243707537651062012e-01 6.889865398406982422e+00 1.879648447036743164e+00 -6.614850759506225586e-01
3.085000000000000000e+03 3.615973663330078125e+01 -1.999674034118652344e+01 -5.114487409591674805e-01 7.367550849914550781e+00 2.056830644607543945e+00 1.223296165466308594e+00
3.086000000000000000e+03 3.644443130493164062e+01 4.481909751892089844e+00 -2.498494833707809448e-01 8.028327941894531250e+00 2.333543539047241211e+00 -1.262768507003784180e+00
3.087000000000000000e+03 3.838975143432617188e+01 7.480350494384765625e+00 -4.866645336151123047e-01 7.786090850830078125e+00 2.189827919006347656e+00 -6.545654535293579102e-01
3.088000000000000000e+03 3.739970016479492188e+01 9.442115783691406250e+00 -5.449512600898742676e-01 7.137959480285644531e+00 1.977902531623840332e+00 -8.063535094261169434e-01
3.089000000000000000e+03 5.465044021606445312e+01 -1.027127951383590698e-01 1.126185536384582520e+00 7.742004394531250000e+00 2.660457134246826172e+00 7.431585192680358887e-01
3.090000000000000000e+03 5.777310562133789062e+01 -7.075362205505371094e+00 1.157512187957763672e+00 7.527056694030761719e+00 2.605370759963989258e+00 3.937251493334770203e-02
3.091000000000000000e+03 5.551199722290039062e+01 -6.349329948425292969e+00 1.418253898620605469e+00 7.584177494049072266e+00 2.700729370117187500e+00 1.008970513939857483e-01
3.092000000000000000e+03 5.423027038574218750e+01 3.996595859527587891e+00 6.314753890037536621e-01 7.890790462493896484e+00 2.556679725646972656e+00 9.318446516990661621e-01
3.093000000000000000e+03 5.593046569824218750e+01 -4.735573768615722656e+00 1.321815371513366699e+00 7.587625503540039062e+00 2.672832250595092773e+00 2.876735031604766846e-01
3.094000000000000000e+03 5.589704895019531250e+01 -1.187094020843505859e+01 1.092699170112609863e+00 7.690018177032470703e+00 2.634815216064453125e+00 -4.703796803951263428e-01
3.095000000000000000e+03 5.580022430419921875e+01 -3.834203779697418213e-01 1.079883575439453125e+00 7.687838077545166016e+00 2.630316495895385742e+00 6.950069069862365723e-01
3.096000000000000000e+03 3.935490036010742188e+01 1.724792480468750000e+01 -7.262142300605773926e-01 6.547449588775634766e+00 1.746370553970336914e+00 -3.920934498310089111e-01
3.097000000000000000e+03 6.152951431274414062e+01 -7.282406806945800781e+00 8.209012746810913086e-01 7.446482181549072266e+00 2.480215072631835938e+00 1.659875363111495972e-02
3.098000000000000000e+03 5.017642593383789062e+01 -1.543011188507080078e+01 8.885835409164428711e-01 8.238044738769531250e+00 2.737988471984863281e+00 -8.898544907569885254e-01
3.099000000000000000e+03 5.376901626586914062e+01 7.583178520202636719e+00 2.234845757484436035e-01 7.948419570922851562e+00 2.451571226119995117e+00 9.358917474746704102e-01
3.100000000000000000e+03 5.297991180419921875e+01 3.735424757003784180e+00 6.826644539833068848e-01 7.955267429351806641e+00 2.591379642486572266e+00 9.561971426010131836e-01
3.101000000000000000e+03 6.375207519531250000e+01 -2.964960479736328125e+01 -2.487390935420989990e-01 7.815163612365722656e+00 2.269927501678466797e+00 -4.721935689449310303e-01
3.102000000000000000e+03 6.378373718261718750e+01 -2.702327346801757812e+01 -1.706430763006210327e-01 7.780304431915283203e+00 2.282898426055908203e+00 -5.315498709678649902e-01
3.103000000000000000e+03 6.382413101196289062e+01 2.031711578369140625e+01 -2.331201136112213135e-01 7.907510757446289062e+00 2.302317142486572266e+00 6.609101891517639160e-01
3.104000000000000000e+03 2.695692253112792969e+01 1.942206573486328125e+01 -2.129843533039093018e-01 3.506231069564819336e+00 9.879739880561828613e-01 -8.457887172698974609e-01
3.105000000000000000e+03 2.721868896484375000e+01 2.395030975341796875e+01 -3.146475851535797119e-01 3.559074878692626953e+00 9.733282327651977539e-01 -6.681827902793884277e-01
3.106000000000000000e+03 9.089467048645019531e+00 3.809140014648437500e+01 1.933082006871700287e-02 5.297594666481018066e-01 1.647270917892456055e-01 -6.779177580028772354e-03
3.107000000000000000e+03 4.122774887084960938e+01 -3.155799627304077148e+00 3.215247154235839844e+00 1.020370578765869141e+01 4.025685787200927734e+00 1.331375956535339355e+00
3.108000000000000000e+03 4.132388305664062500e+01 -4.772696971893310547e+00 4.367702484130859375e+00 9.891559600830078125e+00 4.277778625488281250e+00 9.832016825675964355e-01
3.109000000000000000e+03 3.873064422607421875e+01 -1.234610080718994141e+00 1.087234377861022949e+00 1.136126995086669922e+01 3.734551191329956055e+00 3.525439202785491943e-01
3.110000000000000000e+03 4.020311355590820312e+01 -1.135777664184570312e+01 1.892452597618103027e+00 1.092178249359130859e+01 3.844270467758178711e+00 -1.173086643218994141e+00
3.111000000000000000e+03 3.848046493530273438e+01 -5.829523801803588867e-01 7.097526192665100098e-01 1.099262619018554688e+01 3.510713815689086914e+00 1.937423832714557648e-02
3.112000000000000000e+03 3.834376144409179688e+01 -1.644856780767440796e-01 5.266218781471252441e-01 1.076509094238281250e+01 3.387513875961303711e+00 -1.642813235521316528e-01
3.113000000000000000e+03 4.151293945312500000e+01 -1.023209285736083984e+01 2.950603961944580078e+00 1.008631229400634766e+01 3.911074876785278320e+00 -1.295961022377014160e+00
3.114000000000000000e+03 4.088984680175781250e+01 -3.963041543960571289e+00 3.860221385955810547e+00 1.031707000732421875e+01 4.253187656402587891e+00 1.283663868904113770e+00
3.115000000000000000e+03 4.171920394897460938e+01 -7.794779777526855469e+00 4.515915870666503906e+00 9.566178321838378906e+00 4.224628448486328125e+00 -6.315215229988098145e-01
3.116000000000000000e+03 4.080888748168945312e+01 -3.049081087112426758e+00 3.100368499755859375e+00 1.045056629180908203e+01 4.065280437469482422e+00 1.343813896179199219e+00
3.117000000000000000e+03 3.980336761474609375e+01 -1.202253627777099609e+01 1.319039940834045410e+00 1.098888015747070312e+01 3.692375898361206055e+00 -8.916200995445251465e-01
3.118000000000000000e+03 4.184215927124023438e+01 -6.337832450866699219e+00 4.743851661682128906e+00 9.440496444702148438e+00 4.255304336547851562e+00 1.554360687732696533e-01
3.119000000000000000e+03 3.970870590209960938e+01 -1.092222929000854492e+00 1.343913197517395020e+00 1.083899307250976562e+01 3.654871940612792969e+00 7.664707899093627930e-01
3.120000000000000000e+03 3.927273559570312500e+01 -1.395085930824279785e+00 1.384869694709777832e+00 1.118472290039062500e+01 3.770877838134765625e+00 6.838997006416320801e-01
3.121000000000000000e+03 4.226851654052734375e+01 -1.030560493469238281e+01 2.880712270736694336e+00 9.706994056701660156e+00 3.776311874389648438e+00 -1.221813917160034180e+00
3.122000000000000000e+03 4.101900863647460938e+01 -9.788537979125976562e+00 3.355736017227172852e+00 1.034597110748291016e+01 4.110512256622314453e+00 -1.382624149322509766e+00
3.123000000000000000e+03 3.693646240234375000e+01 1.925006359815597534e-01 1.999158412218093872e-01 1.029099178314208984e+01 3.147272109985351562e+00 -1.175542116165161133e+00
3.124000000000000000e+03 4.064953231811523438e+01 -1.638485670089721680e+00 1.942866563796997070e+00 1.047494602203369141e+01 3.725343704223632812e+00 1.109162926673889160e+00
3.125000000000000000e+03 4.013217163085937500e+01 -1.931465029716491699e+00 2.048113584518432617e+00 1.082476425170898438e+01 3.861863374710083008e+00 1.102891802787780762e+00
3.126000000000000000e+03 4.186035156250000000e+01 -9.255331039428710938e+00 3.669927358627319336e+00 9.790386199951171875e+00 4.038094043731689453e+00 -1.187762737274169922e+00
3.127000000000000000e+03 3.490532302856445312e+01 2.218833923339843750e+00 1.094600334763526917e-01 7.858850955963134766e+00 2.390493392944335938e+00 -2.072975158691406250e+00
3.128000000000000000e+03 4.173923492431640625e+01 -5.861732959747314453e+00 4.687877655029296875e+00 9.513828277587890625e+00 4.260511875152587891e+00 4.110242724418640137e-01
3.129000000000000000e+03 3.697297286987304688e+01 -1.447413539886474609e+01 -1.825412213802337646e-01 9.775600433349609375e+00 2.877917766571044922e+00 1.218401670455932617e+00
3.130000000000000000e+03 3.827357482910156250e+01 -1.390261268615722656e+01 3.993859514594078064e-02 1.049612140655517578e+01 3.160818099975585938e+00 3.924097120761871338e-01
3.131000000000000000e+03 3.839888763427734375e+01 -1.290367317199707031e+01 3.661854863166809082e-01 1.101877975463867188e+01 3.415489435195922852e+00 7.002662122249603271e-02
3.132000000000000000e+03 3.741349792480468750e+01 -1.499835872650146484e+01 -2.290518134832382202e-01 9.621654510498046875e+00 2.817780733108520508e+00 9.981711506843566895e-01
3.133000000000000000e+03 3.913010406494140625e+01 6.505358695983886719e+00 -4.487731754779815674e-01 8.257061958312988281e+00 2.342486619949340820e+00 -4.884665310382843018e-01
3.134000000000000000e+03 3.845692825317382812e+01 -1.854433631896972656e+01 -5.214604735374450684e-01 8.523180961608886719e+00 2.400516033172607422e+00 6.753171682357788086e-01
3.135000000000000000e+03 3.863409423828125000e+01 4.638433456420898438e+00 -3.035050034523010254e-01 8.672213554382324219e+00 2.510612726211547852e+00 -5.563492178916931152e-01
3.136000000000000000e+03 3.727858734130859375e+01 3.279970169067382812e+00 -2.116078436374664307e-01 8.798173904418945312e+00 2.575969934463500977e+00 -1.063233852386474609e+00
3.137000000000000000e+03 3.859743881225585938e+01 1.074276351928710938e+01 -6.228495240211486816e-01 7.284847736358642578e+00 1.998599410057067871e+00 -5.827093720436096191e-01
3.138000000000000000e+03 3.896278381347656250e+01 1.248444747924804688e+01 -6.556245684623718262e-01 7.015160083770751953e+00 1.907860636711120605e+00 -5.518712997436523438e-01
3.139000000000000000e+03 5.590913772583007812e+01 -2.063756942749023438e+00 1.190132737159729004e+00 7.636507987976074219e+00 2.647992134094238281e+00 5.452778339385986328e-01
3.140000000000000000e+03 5.399337768554687500e+01 -7.415821552276611328e+00 1.581543326377868652e+00 7.650435447692871094e+00 2.769593715667724609e+00 -4.570621997117996216e-02
3.141000000000000000e+03 5.708814239501953125e+01 -5.356205463409423828e+00 1.214982151985168457e+00 7.543922424316406250e+00 2.627671241760253906e+00 2.030175775289535522e-01
3.142000000000000000e+03 5.664377212524414062e+01 -6.756029129028320312e+00 1.285554051399230957e+00 7.551823139190673828e+00 2.651213169097900391e+00 6.444730609655380249e-02
3.143000000000000000e+03 5.241889190673828125e+01 -1.176075077056884766e+01 1.388561367988586426e+00 7.872727394104003906e+00 2.778386592864990234e+00 -6.087390184402465820e-01
3.144000000000000000e+03 5.437142562866210938e+01 -1.235470008850097656e+01 1.164027452468872070e+00 7.774084091186523438e+00 2.681433439254760742e+00 -5.626239180564880371e-01
3.145000000000000000e+03 5.593497848510742188e+01 -1.004665088653564453e+01 1.228546738624572754e+00 7.632357597351074219e+00 2.658271312713623047e+00 -3.125846683979034424e-01
3.146000000000000000e+03 5.480843734741210938e+01 1.131605863571166992e+00 9.627146720886230469e-01 7.774878978729248047e+00 2.621278047561645508e+00 8.152771592140197754e-01
3.147000000000000000e+03 5.454243087768554688e+01 2.474556207656860352e+00 8.170151114463806152e-01 7.831370353698730469e+00 2.594515562057495117e+00 8.870260119438171387e-01
3.148000000000000000e+03 3.898687362670898438e+01 1.398558425903320312e+01 -6.799125671386718750e-01 6.852230072021484375e+00 1.851695179939270020e+00 -5.119922757148742676e-01
3.149000000000000000e+03 5.249437713623046875e+01 -1.861370468139648438e+01 3.490151464939117432e-01 8.114395141601562500e+00 2.539023160934448242e+00 -8.229686617851257324e-01
3.150000000000000000e+03 5.078743743896484375e+01 -1.898913383483886719e+01 2.590254247188568115e-01 8.236742019653320312e+00 2.548730134963989258e+00 -8.271920084953308105e-01
3.151000000000000000e+03 3.815181350708007812e+01 -2.497192192077636719e+01 -7.633905410766601562e-01 7.134579181671142578e+00 1.911356568336486816e+00 6.422912478446960449e-01
3.152000000000000000e+03 3.888208007812500000e+01 -2.208789062500000000e+01 -6.957303881645202637e-01 7.771352767944335938e+00 2.122686862945556641e+00 5.827875733375549316e-01
3.153000000000000000e+03 3.926713180541992188e+01 8.239071846008300781e+00 -5.354697108268737793e-01 7.838438510894775391e+00 2.190890550613403320e+00 -5.016157031059265137e-01
3.154000000000000000e+03 6.098861694335937500e+01 1.698659706115722656e+01 -2.085277736186981201e-01 7.844660282135009766e+00 2.290839672088623047e+00 7.519464492797851562e-01
3.155000000000000000e+03 6.222535705566406250e+01 2.188195228576660156e+01 -2.962448894977569580e-01 7.873171329498291016e+00 2.273077964782714844e+00 6.241207718849182129e-01
3.156000000000000000e+03 6.526028442382812500e+01 2.202242469787597656e+01 -2.191599458456039429e-01 7.959990501403808594e+00 2.322249174118041992e+00 5.991083979606628418e-01
3.157000000000000000e+03 4.126273345947265625e+01 -1.104077434539794922e+01 2.367093324661254883e+00 1.027793025970458984e+01 3.793507099151611328e+00 -1.307816267013549805e+00
3.158000000000000000e+03 4.189396286010742188e+01 -7.361205101013183594e+00 4.613312244415283203e+00 9.458032608032226562e+00 4.221403598785400391e+00 -4.239280819892883301e-01
3.159000000000000000e+03 4.210103225708007812e+01 -5.146636962890625000e+00 4.250858783721923828e+00 9.440134048461914062e+00 4.107297897338867188e+00 6.949999928474426270e-01
3.160000000000000000e+03 3.871066284179687500e+01 -1.342851257324218750e+01 2.832006812095642090e-01 1.070365524291992188e+01 3.296056747436523438e+00 5.322542414069175720e-02
3.161000000000000000e+03 3.787536239624023438e+01 -1.445730113983154297e+01 -1.208213195204734802e-01 1.007535171508789062e+01 2.986359119415283203e+00 6.993966698646545410e-01
3.162000000000000000e+03 4.040042495727539062e+01 -1.226498246192932129e+00 1.606667637825012207e+00 1.054297637939453125e+01 3.644893169403076172e+00 9.902592897415161133e-01
3.163000000000000000e+03 3.992295837402343750e+01 -1.528367638587951660e+00 1.697159290313720703e+00 1.084697341918945312e+01 3.763239860534667969e+00 9.480667114257812500e-01
3.164000000000000000e+03 4.101029968261718750e+01 -1.042348194122314453e+01 2.766664743423461914e+00 1.041915416717529297e+01 3.955745697021484375e+00 -1.342173814773559570e+00
3.165000000000000000e+03 4.203643417358398438e+01 -8.148795127868652344e+00 4.288622856140136719e+00 9.483544349670410156e+00 4.131649971008300781e+00 -7.529092431068420410e-01
3.166000000000000000e+03 3.657925796508789062e+01 1.842576503753662109e+00 -3.533307462930679321e-02 9.095375061035156250e+00 2.718012571334838867e+00 -1.383712291717529297e+00
3.167000000000000000e+03 4.166021347045898438e+01 -3.850754022598266602e+00 3.609262704849243164e+00 9.829828262329101562e+00 4.031727313995361328e+00 1.162674903869628906e+00
3.168000000000000000e+03 3.737225723266601562e+01 5.742065310478210449e-01 1.540506631135940552e-01 1.017585563659667969e+01 3.098971843719482422e+00 -9.297425746917724609e-01
3.169000000000000000e+03 3.927422332763671875e+01 -1.266634178161621094e+01 7.245578169822692871e-01 1.094863319396972656e+01 3.501957416534423828e+00 -4.438037872314453125e-01
3.170000000000000000e+03 3.995948028564453125e+01 -1.267529869079589844e+01 9.590579271316528320e-01 1.068948268890380859e+01 3.494562149047851562e+00 -7.179366946220397949e-01
3.171000000000000000e+03 4.095339965820312500e+01 -2.561928033828735352e+00 2.653966665267944336e+00 1.038094043731689453e+01 3.910472154617309570e+00 1.293530464172363281e+00
3.172000000000000000e+03 4.196430587768554688e+01 -4.664272785186767578e+00 4.080194473266601562e+00 9.570760726928710938e+00 4.095286846160888672e+00 9.256409406661987305e-01
3.173000000000000000e+03 3.541468429565429688e+01 1.704327106475830078e+00 1.023008376359939575e-01 8.442899703979492188e+00 2.563560247421264648e+00 -1.940315604209899902e+00
3.174000000000000000e+03 3.597565841674804688e+01 1.780438899993896484e+00 2.212185040116310120e-02 8.818595886230468750e+00 2.652215480804443359e+00 -1.687818050384521484e+00
3.175000000000000000e+03 4.090808486938476562e+01 -1.171460247039794922e+01 1.835604548454284668e+00 1.044149589538574219e+01 3.683130025863647461e+00 -1.170967221260070801e+00
3.176000000000000000e+03 4.169498443603515625e+01 -1.132213401794433594e+01 2.240490198135375977e+00 1.009344959259033203e+01 3.700181961059570312e+00 -1.274924635887145996e+00
3.177000000000000000e+03 3.928195953369140625e+01 -1.328711891174316406e+01 4.845319092273712158e-01 1.070765209197998047e+01 3.357655286788940430e+00 -2.745985090732574463e-01
3.178000000000000000e+03 4.189961242675781250e+01 -6.838990688323974609e+00 4.712013721466064453e+00 9.414540290832519531e+00 4.237966060638427734e+00 -1.453477293252944946e-01
3.179000000000000000e+03 4.259917831420898438e+01 -7.319051265716552734e+00 4.307796955108642578e+00 9.194557189941406250e+00 4.050706386566162109e+00 -3.534935116767883301e-01
3.180000000000000000e+03 3.810408782958984375e+01 3.156239390373229980e-01 3.305505216121673584e-01 1.046325206756591797e+01 3.238140821456909180e+00 -4.021451771259307861e-01
3.181000000000000000e+03 3.901845932006835938e+01 -1.548730850219726562e+01 -1.583495587110519409e-01 9.711651802062988281e+00 2.865990877151489258e+00 2.971207797527313232e-01
3.182000000000000000e+03 3.894966125488281250e+01 3.558963537216186523e+00 -1.611786484718322754e-01 9.051790237426757812e+00 2.667183399200439453e+00 -3.847814202308654785e-01
3.183000000000000000e+03 3.783190155029296875e+01 4.140076160430908203e+00 -2.842203974723815918e-01 8.618911743164062500e+00 2.500407457351684570e+00 -8.334575891494750977e-01
3.184000000000000000e+03 4.102192687988281250e+01 -1.573600959777832031e+01 8.254330605268478394e-02 9.568147659301757812e+00 2.895207405090332031e+00 -3.472964167594909668e-01
3.185000000000000000e+03 3.851285171508789062e+01 -1.606956481933593750e+01 -3.005488812923431396e-01 9.481331825256347656e+00 2.754234790802001953e+00 5.506166815757751465e-01
3.186000000000000000e+03 4.011051559448242188e+01 9.100242614746093750e+00 -5.638610720634460449e-01 7.842270851135253906e+00 2.183522939682006836e+00 -3.266617059707641602e-01
3.187000000000000000e+03 4.233928680419921875e+01 9.137471199035644531e+00 -4.810176789760589600e-01 8.056323051452636719e+00 2.272591590881347656e+00 7.184445858001708984e-02
3.188000000000000000e+03 3.994073867797851562e+01 3.331698894500732422e+00 -4.991868138313293457e-02 9.244332313537597656e+00 2.758324146270751953e+00 -4.587743058800697327e-02
3.189000000000000000e+03 4.220696640014648438e+01 6.895581245422363281e+00 -2.983555495738983154e-01 8.428592681884765625e+00 2.439071178436279297e+00 1.830596327781677246e-01
3.190000000000000000e+03 3.930041122436523438e+01 -1.971261596679687500e+01 -5.811611413955688477e-01 8.382054328918457031e+00 2.340267896652221680e+00 4.668136835098266602e-01
3.191000000000000000e+03 3.735051727294921875e+01 -1.937999916076660156e+01 -5.550513863563537598e-01 7.950399875640869141e+00 2.218604564666748047e+00 9.836285114288330078e-01
3.192000000000000000e+03 5.992406845092773438e+01 -7.338253498077392578e+00 9.500452280044555664e-01 7.478804588317871094e+00 2.528655052185058594e+00 5.367179401218891144e-03
3.193000000000000000e+03 5.454118728637695312e+01 -9.535406112670898438e+00 1.406001567840576172e+00 7.672431945800781250e+00 2.723530054092407227e+00 -2.969863414764404297e-01
3.194000000000000000e+03 5.462090682983398438e+01 -4.414718151092529297e+00 1.445994138717651367e+00 7.630723953247070312e+00 2.723015546798706055e+00 3.324789404869079590e-01
3.195000000000000000e+03 5.359637069702148438e+01 -1.088258075714111328e+01 1.385585665702819824e+00 7.760340690612792969e+00 2.743777990341186523e+00 -4.657281339168548584e-01
3.196000000000000000e+03 5.134818649291992188e+01 -1.234485340118408203e+01 1.406002640724182129e+00 7.982275962829589844e+00 2.816483497619628906e+00 -7.053214907646179199e-01
3.197000000000000000e+03 5.450140762329101562e+01 -2.629266500473022461e+00 1.363834500312805176e+00 7.673153877258300781e+00 2.711096525192260742e+00 5.315592885017395020e-01
3.198000000000000000e+03 5.509962844848632812e+01 -7.911221504211425781e+00 1.426437377929687500e+00 7.610581398010253906e+00 2.711105585098266602e+00 -8.374724537134170532e-02
3.199000000000000000e+03 4.915043258666992188e+01 -1.926608657836914062e+01 1.547878980636596680e-01 8.367372512817382812e+00 2.556648015975952148e+00 -8.038063645362854004e-01
3.200000000000000000e+03 5.257029724121093750e+01 5.497934818267822266e+00 4.529818296432495117e-01 8.003177642822265625e+00 2.536847829818725586e+00 9.641948938369750977e-01
3.201000000000000000e+03 5.242878723144531250e+01 1.698707342147827148e+00 1.020247697830200195e+00 7.936406612396240234e+00 2.686996221542358398e+00 9.225896596908569336e-01
3.202000000000000000e+03 4.150561523437500000e+01 1.154946327209472656e+01 -6.149124503135681152e-01 7.603767395019531250e+00 2.096656560897827148e+00 -1.308894902467727661e-01
3.203000000000000000e+03 3.724207687377929688e+01 1.456114482879638672e+01 -6.445233821868896484e-01 6.409364700317382812e+00 1.729452371597290039e+00 -6.787008643150329590e-01
3.204000000000000000e+03 3.342458343505859375e+01 -2.821312904357910156e+01 -5.433583855628967285e-01 5.503276348114013672e+00 1.487975358963012695e+00 8.324145674705505371e-01
3.205000000000000000e+03 5.969900131225585938e+01 1.527661418914794922e+01 -1.843389570713043213e-01 7.838651657104492188e+00 2.296293735504150391e+00 7.887772321701049805e-01
3.206000000000000000e+03 5.934849929809570312e+01 1.849463081359863281e+01 -2.949281334877014160e-01 7.831970214843750000e+00 2.261112689971923828e+00 7.126474380493164062e-01
3.207000000000000000e+03 6.903276062011718750e+01 -3.744620895385742188e+01 -2.081404924392700195e-01 7.819488525390625000e+00 2.283404350280761719e+00 -1.767095029354095459e-01
3.208000000000000000e+03 6.727880096435546875e+01 -3.469040679931640625e+01 -2.508576810359954834e-01 7.813288688659667969e+00 2.268729448318481445e+00 -2.838802039623260498e-01
3.209000000000000000e+03 3.946772384643554688e+01 -6.593608856201171875e-01 1.027294754981994629e+00 1.079947471618652344e+01 3.548030853271484375e+00 5.321014523506164551e-01
3.210000000000000000e+03 4.089448547363281250e+01 -2.064312934875488281e+00 2.298160791397094727e+00 1.040286731719970703e+01 3.810308456420898438e+00 1.219335794448852539e+00
3.211000000000000000e+03 4.084495925903320312e+01 -9.360564351081848145e-01 1.549416899681091309e+00 1.031560516357421875e+01 3.559506654739379883e+00 1.010855913162231445e+00
3.212000000000000000e+03 4.280599212646484375e+01 -3.134718418121337891e+00 3.052154064178466797e+00 9.409591674804687500e+00 3.738523721694946289e+00 1.169363737106323242e+00
3.213000000000000000e+03 3.881484603881835938e+01 1.365191936492919922e-01 5.236814618110656738e-01 1.057461643218994141e+01 3.329489231109619141e+00 1.885414868593215942e-02
3.214000000000000000e+03 3.764651107788085938e+01 2.537121810019016266e-02 3.358132243156433105e-01 1.063931655883789062e+01 3.292538881301879883e+00 -6.559377312660217285e-01
3.215000000000000000e+03 4.036130905151367188e+01 -1.189068031311035156e+01 1.563696026802062988e+00 1.075473117828369141e+01 3.695528030395507812e+00 -1.055702567100524902e+00
3.216000000000000000e+03 4.129710006713867188e+01 -3.992129564285278320e+00 3.805100440979003906e+00 1.004145050048828125e+01 4.153964996337890625e+00 1.194182395935058594e+00
3.217000000000000000e+03 4.148888015747070312e+01 -2.679934024810791016e+00 2.784880399703979492e+00 1.007165718078613281e+01 3.856961488723754883e+00 1.268989682197570801e+00
3.218000000000000000e+03 3.657876205444335938e+01 1.121346235275268555e+00 6.497319787740707397e-02 9.524662017822265625e+00 2.876890659332275391e+00 -1.405553340911865234e+00
3.219000000000000000e+03 3.882357025146484375e+01 -1.439005661010742188e+01 4.379675164818763733e-02 1.019449424743652344e+01 3.071487426757812500e+00 1.909099072217941284e-01
3.220000000000000000e+03 4.190380477905273438e+01 -1.207049465179443359e+01 1.762863397598266602e+00 9.981431007385253906e+00 3.523288249969482422e+00 -1.190973520278930664e+00
3.221000000000000000e+03 4.188689422607421875e+01 -4.182090282440185547e+00 3.827231168746948242e+00 9.668261528015136719e+00 4.048647880554199219e+00 1.065302848815917969e+00
3.222000000000000000e+03 4.192612457275390625e+01 -8.590800285339355469e+00 4.064192771911621094e+00 9.609134674072265625e+00 4.101998329162597656e+00 -9.363467693328857422e-01
3.223000000000000000e+03 4.182710647583007812e+01 -9.918778419494628906e+00 3.235018014907836914e+00 9.897627830505371094e+00 3.939793586730957031e+00 -1.284134387969970703e+00
3.224000000000000000e+03 3.915990829467773438e+01 -1.384873485565185547e+01 2.465485632419586182e-01 1.040576648712158203e+01 3.195694684982299805e+00 -5.630701035261154175e-02
3.225000000000000000e+03 3.841317367553710938e+01 -1.496026706695556641e+01 -1.606764495372772217e-01 9.951745033264160156e+00 2.937320470809936523e+00 4.801135063171386719e-01
3.226000000000000000e+03 4.059226608276367188e+01 -1.248194026947021484e+01 1.234749913215637207e+00 1.048298168182373047e+01 3.515319585800170898e+00 -9.369171857833862305e-01
3.227000000000000000e+03 3.720945739746093750e+01 1.903783798217773438e+00 -4.285471886396408081e-02 9.321303367614746094e+00 2.783534526824951172e+00 -1.069245100021362305e+00
3.228000000000000000e+03 3.803836059570312500e+01 3.398485183715820312e+00 -1.997796595096588135e-01 8.904788970947265625e+00 2.611502885818481445e+00 -7.623093724250793457e-01
3.229000000000000000e+03 3.895744705200195312e+01 -1.674215698242187500e+01 -3.451953232288360596e-01 9.201167106628417969e+00 2.656791687011718750e+00 4.311373829841613770e-01
3.230000000000000000e+03 3.945424270629882812e+01 -1.483758068084716797e+01 4.614197835326194763e-02 9.960243225097656250e+00 3.001915454864501953e+00 1.052421797066926956e-02
3.231000000000000000e+03 4.045608520507812500e+01 -1.674839782714843750e+01 -1.801935136318206787e-01 9.343346595764160156e+00 2.748945951461791992e+00 -7.231645286083221436e-02
3.232000000000000000e+03 3.977910995483398438e+01 5.320904731750488281e+00 -3.021828234195709229e-01 8.635852813720703125e+00 2.500100851058959961e+00 -2.681188285350799561e-01
3.233000000000000000e+03 4.101399612426757812e+01 6.087768554687500000e+00 -2.913817465305328369e-01 8.546943664550781250e+00 2.476668596267700195e+00 1.690603443421423435e-03
3.234000000000000000e+03 5.338157653808593750e+01 -8.718235015869140625e+00 1.609052896499633789e+00 7.701815128326416016e+00 2.793260335922241211e+00 -2.291420251131057739e-01
3.235000000000000000e+03 3.805395889282226562e+01 -2.065755844116210938e+01 -6.325979232788085938e-01 7.869247436523437500e+00 2.170994997024536133e+00 7.719654440879821777e-01
3.236000000000000000e+03 4.024299240112304688e+01 -2.093277359008789062e+01 -6.238542199134826660e-01 8.246790885925292969e+00 2.286881208419799805e+00 2.784703075885772705e-01
3.237000000000000000e+03 5.383261108398437500e+01 -1.059779882431030273e+00 1.270202040672302246e+00 7.753330707550048828e+00 2.707059860229492188e+00 6.997082829475402832e-01
3.238000000000000000e+03 5.888061904907226562e+01 -7.226778030395507812e+00 1.043524980545043945e+00 7.500058650970458984e+00 2.563075065612792969e+00 1.942832767963409424e-02
3.239000000000000000e+03 5.051561737060546875e+01 -1.718836975097656250e+01 5.450546741485595703e-01 8.253286361694335938e+00 2.639502286911010742e+00 -8.739322423934936523e-01
3.240000000000000000e+03 3.957061004638671875e+01 2.435775041580200195e+00 7.250315696001052856e-02 9.555122375488281250e+00 2.888287782669067383e+00 -5.938711389899253845e-02
3.241000000000000000e+03 5.238865280151367188e+01 -7.986928462982177734e+00 1.788460135459899902e+00 7.726460933685302734e+00 2.854476213455200195e+00 -1.406510025262832642e-01
3.242000000000000000e+03 5.174118804931640625e+01 3.306075096130371094e+00 7.652380466461181641e-01 8.037117004394531250e+00 2.640706539154052734e+00 9.812282323837280273e-01
3.243000000000000000e+03 5.392260742187500000e+01 8.537238836288452148e-01 1.072317361831665039e+00 7.814839839935302734e+00 2.666147232055664062e+00 8.302848935127258301e-01
3.244000000000000000e+03 5.035400772094726562e+01 -1.241116237640380859e+01 1.482732653617858887e+00 8.080484390258789062e+00 2.868965148925781250e+00 -7.584032416343688965e-01
3.245000000000000000e+03 5.011400985717773438e+01 -1.375614833831787109e+01 1.212970733642578125e+00 8.180067062377929688e+00 2.817911386489868164e+00 -8.515015244483947754e-01
3.246000000000000000e+03 4.919254302978515625e+01 -2.110386657714843750e+01 -1.073298603296279907e-01 8.307055473327636719e+00 2.459917783737182617e+00 -7.083129286766052246e-01
3.247000000000000000e+03 5.281515502929687500e+01 -2.054155158996582031e+01 1.040742173790931702e-01 8.103906631469726562e+00 2.462394237518310547e+00 -7.816934585571289062e-01
3.248000000000000000e+03 6.247749328613281250e+01 1.561222553253173828e+01 -1.414598971605300903e-01 7.847207069396972656e+00 2.311724185943603516e+00 7.711691260337829590e-01
3.249000000000000000e+03 6.937309265136718750e+01 -1.308891105651855469e+01 2.374232262372970581e-01 7.301156520843505859e+00 2.261573791503906250e+00 -2.434608340263366699e-01
3.250000000000000000e+03 6.938457489013671875e+01 -1.130554485321044922e+01 2.715438604354858398e-01 7.281099319458007812e+00 2.265793085098266602e+00 -1.704912334680557251e-01
3.251000000000000000e+03 6.066022109985351562e+01 -2.937264442443847656e+01 -3.318878710269927979e-01 7.885029315948486328e+00 2.265942335128784180e+00 -5.153204202651977539e-01
3.252000000000000000e+03 4.295702743530273438e+01 -8.585037231445312500e+00 3.774944067001342773e+00 9.184828758239746094e+00 3.887932062149047852e+00 -7.936104536056518555e-01
3.253000000000000000e+03 4.270194625854492188e+01 -7.955967426300048828e+00 4.094320297241210938e+00 9.217293739318847656e+00 3.993484258651733398e+00 -6.117321252822875977e-01
3.254000000000000000e+03 4.017056655883789062e+01 -7.703552842140197754e-01 1.307565569877624512e+00 1.053307819366455078e+01 3.552193164825439453e+00 8.148961663246154785e-01
3.255000000000000000e+03 3.836316680908203125e+01 1.068896174430847168e+00 1.965929567813873291e-01 1.006625938415527344e+01 3.078855752944946289e+00 -3.657804131507873535e-01
3.256000000000000000e+03 4.151079177856445312e+01 -1.658848166465759277e+00 2.101883172988891602e+00 1.006802654266357422e+01 3.650972843170166016e+00 1.193001151084899902e+00
3.257000000000000000e+03 3.997760009765625000e+01 -1.340663909912109375e+01 6.341320276260375977e-01 1.046284484863281250e+01 3.329093217849731445e+00 -5.348557233810424805e-01
3.258000000000000000e+03 4.293984222412109375e+01 -4.062453746795654297e+00 3.469163894653320312e+00 9.225449562072753906e+00 3.808383941650390625e+00 9.425731897354125977e-01
3.259000000000000000e+03 4.104206085205078125e+01 -1.071954250335693359e+01 2.580304622650146484e+00 1.041157722473144531e+01 3.897564649581909180e+00 -1.336233139038085938e+00
3.260000000000000000e+03 4.774747085571289062e+01 -1.243149852752685547e+01 1.639819502830505371e+00 8.413362503051757812e+00 3.015954732894897461e+00 -9.225912094116210938e-01
3.261000000000000000e+03 3.977941131591796875e+01 -1.414087677001953125e+01 2.895274758338928223e-01 1.021085739135742188e+01 3.150115489959716797e+00 -2.495742738246917725e-01
3.262000000000000000e+03 4.130096817016601562e+01 -1.476143646240234375e+01 4.315814077854156494e-01 9.756890296936035156e+00 3.056541442871093750e+00 -6.006526947021484375e-01
3.263000000000000000e+03 4.246020889282226562e+01 -6.184451580047607422e+00 4.387310028076171875e+00 9.210981369018554688e+00 4.079487323760986328e+00 2.009252458810806274e-01
3.264000000000000000e+03 4.234154510498046875e+01 -5.634722232818603516e+00 4.342338562011718750e+00 9.292914390563964844e+00 4.090575695037841797e+00 4.767824709415435791e-01
3.265000000000000000e+03 4.142347335815429688e+01 -1.176652622222900391e+01 1.899285554885864258e+00 1.020691680908203125e+01 3.631860733032226562e+00 -1.219065785408020020e+00
3.266000000000000000e+03 4.230181121826171875e+01 -1.154652690887451172e+01 2.108416795730590820e+00 9.782882690429687500e+00 3.567389726638793945e+00 -1.225492000579833984e+00
3.267000000000000000e+03 4.113936614990234375e+01 -1.266291141510009766e+00 1.789503931999206543e+00 1.019831275939941406e+01 3.596344947814941406e+00 1.094955325126647949e+00
3.268000000000000000e+03 4.254904174804687500e+01 -6.732597351074218750e+00 4.396818161010742188e+00 9.180150032043457031e+00 4.073090553283691406e+00 -6.336757540702819824e-02
3.269000000000000000e+03 3.782962036132812500e+01 1.906933784484863281e+00 -1.583893783390522003e-02 9.582259178161621094e+00 2.869925975799560547e+00 -7.357778549194335938e-01
3.270000000000000000e+03 3.719846725463867188e+01 1.207709431648254395e+00 5.532018840312957764e-02 9.755454063415527344e+00 2.943232297897338867e+00 -1.042513489723205566e+00
3.271000000000000000e+03 3.880328750610351562e+01 2.582886219024658203e+00 -2.952721342444419861e-02 9.468619346618652344e+00 2.831727743148803711e+00 -3.561195135116577148e-01
3.272000000000000000e+03 3.800871658325195312e+01 2.597326755523681641e+00 -9.237501025199890137e-02 9.256959915161132812e+00 2.749375581741333008e+00 -7.072997689247131348e-01
3.273000000000000000e+03 4.017063903808593750e+01 -1.528778457641601562e+01 5.747677385807037354e-02 9.770248413085937500e+00 2.948317527770996094e+00 -1.752639710903167725e-01
3.274000000000000000e+03 3.967182159423828125e+01 -1.608102607727050781e+01 -1.719850152730941772e-01 9.488835334777832031e+00 2.795055150985717773e+00 1.026822477579116821e-01
3.275000000000000000e+03 4.074526596069335938e+01 2.663000583648681641e+00 1.988295912742614746e-01 9.405360221862792969e+00 2.881257057189941406e+00 2.870954871177673340e-01
3.276000000000000000e+03 4.304087066650390625e+01 5.627455234527587891e+00 -6.874492019414901733e-02 8.655898094177246094e+00 2.576145887374877930e+00 4.343408346176147461e-01
3.277000000000000000e+03 5.306765365600585938e+01 2.766383290290832520e-01 1.177037477493286133e+00 7.846991062164306641e+00 2.707208395004272461e+00 8.348577022552490234e-01
3.278000000000000000e+03 4.953775787353515625e+01 -6.223415732383728027e-01 1.556359767913818359e+00 8.113759994506835938e+00 2.901035785675048828e+00 9.153282046318054199e-01
3.279000000000000000e+03 4.476753616333007812e+01 8.627677917480468750e+00 -2.980743348598480225e-01 8.219478607177734375e+00 2.376421213150024414e+00 4.460581839084625244e-01
3.280000000000000000e+03 5.164385223388671875e+01 -8.969985008239746094e+00 1.827557802200317383e+00 7.806341171264648438e+00 2.890169858932495117e+00 -3.123412430286407471e-01
3.281000000000000000e+03 3.730477523803710938e+01 -2.302984046936035156e+01 -6.828987598419189453e-01 7.218202114105224609e+00 1.960591077804565430e+00 8.307747840881347656e-01
3.282000000000000000e+03 5.257881927490234375e+01 -9.828032493591308594e+00 1.626100182533264160e+00 7.774933815002441406e+00 2.820310354232788086e+00 -3.822215199470520020e-01
3.283000000000000000e+03 5.324295425415039062e+01 -4.550857067108154297e+00 1.627917289733886719e+00 7.695059776306152344e+00 2.796893119812011719e+00 3.422516882419586182e-01
3.284000000000000000e+03 4.968984985351562500e+01 1.437836050987243652e+00 1.131937026977539062e+00 8.171615600585937500e+00 2.791065931320190430e+00 9.990270733833312988e-01
3.285000000000000000e+03 5.164700317382812500e+01 -2.204550743103027344e+00 1.636299610137939453e+00 7.841110229492187500e+00 2.843222856521606445e+00 6.613937616348266602e-01
3.286000000000000000e+03 4.879077911376953125e+01 -1.329012107849121094e+01 1.361892819404602051e+00 8.306624412536621094e+00 2.900555133819580078e+00 -8.997894525527954102e-01
3.287000000000000000e+03 4.856357955932617188e+01 -1.590991401672363281e+01 7.857962846755981445e-01 8.430348396301269531e+00 2.764843463897705078e+00 -9.276735782623291016e-01
3.288000000000000000e+03 4.121067428588867188e+01 1.508872509002685547e+01 -7.166137099266052246e-01 7.074606895446777344e+00 1.907397866249084473e+00 -2.143385410308837891e-01
3.289000000000000000e+03 4.285272979736328125e+01 1.402541065216064453e+01 -6.672834753990173340e-01 7.423759460449218750e+00 2.026942729949951172e+00 -5.100130569189786911e-03
3.290000000000000000e+03 4.894979476928710938e+01 -1.755622482299804688e+01 4.426231682300567627e-01 8.396080017089843750e+00 2.651611089706420898e+00 -8.745885491371154785e-01
3.291000000000000000e+03 4.981472778320312500e+01 4.972930908203125000e+00 4.824405908584594727e-01 8.187946319580078125e+00 2.601116180419921875e+00 9.742386341094970703e-01
3.292000000000000000e+03 4.371065521240234375e+01 1.017431735992431641e+01 -4.822705388069152832e-01 7.979678153991699219e+00 2.249222278594970703e+00 2.174407392740249634e-01
3.293000000000000000e+03 3.914770889282226562e+01 -2.672719359397888184e-01 7.638848423957824707e-01 1.072565841674804688e+01 3.446862936019897461e+00 2.736909091472625732e-01
3.294000000000000000e+03 3.922477340698242188e+01 5.165411233901977539e-01 4.810465276241302490e-01 1.033786964416503906e+01 3.245674848556518555e+00 1.227833852171897888e-01
3.295000000000000000e+03 3.959908676147460938e+01 1.606901735067367554e-01 6.950518488883972168e-01 1.039827632904052734e+01 3.327998399734497070e+00 3.578536510467529297e-01
3.296000000000000000e+03 4.237533187866210938e+01 -2.662419557571411133e+00 2.831866741180419922e+00 9.627355575561523438e+00 3.737766742706298828e+00 1.227320909500122070e+00
3.297000000000000000e+03 4.256287765502929688e+01 -4.703065872192382812e+00 3.886488199234008789e+00 9.290671348571777344e+00 3.953147888183593750e+00 8.210229873657226562e-01
3.298000000000000000e+03 3.789225006103515625e+01 8.271818757057189941e-01 1.710707098245620728e-01 1.010844135284423828e+01 3.083853721618652344e+00 -6.177915334701538086e-01
3.299000000000000000e+03 4.109668350219726562e+01 -1.214374637603759766e+01 1.558156132698059082e+00 1.030639457702636719e+01 3.559365272521972656e+00 -1.102328538894653320e+00
3.300000000000000000e+03 4.071422195434570312e+01 -1.365154647827148438e+01 7.161048650741577148e-01 1.017030048370361328e+01 3.265921592712402344e+00 -6.871512532234191895e-01
3.301000000000000000e+03 4.263534927368164062e+01 -9.379018783569335938e+00 3.395122528076171875e+00 9.431443214416503906e+00 3.847969770431518555e+00 -1.053353190422058105e+00
3.302000000000000000e+03 4.233705902099609375e+01 -8.907083511352539062e+00 3.750501155853271484e+00 9.479369163513183594e+00 3.968961000442504883e+00 -9.764278531074523926e-01
3.303000000000000000e+03 4.065492630004882812e+01 -4.852042794227600098e-01 1.306004881858825684e+00 1.028181934356689453e+01 3.476347446441650391e+00 8.744983673095703125e-01
3.304000000000000000e+03 4.238822555541992188e+01 -3.729329109191894531e+00 3.436551094055175781e+00 9.515459060668945312e+00 3.885602951049804688e+00 1.116981625556945801e+00
3.305000000000000000e+03 4.189995193481445312e+01 -3.036169767379760742e+00 3.076910734176635742e+00 9.813357353210449219e+00 3.867080450057983398e+00 1.254374384880065918e+00
3.306000000000000000e+03 4.348406982421875000e+01 -7.731358528137207031e+00 3.830976009368896484e+00 8.933828353881835938e+00 3.829441308975219727e+00 -4.398766756057739258e-01
3.307000000000000000e+03 4.337261199951171875e+01 -7.130385875701904297e+00 3.981632947921752930e+00 8.928681373596191406e+00 3.873094081878662109e+00 -2.202718555927276611e-01
3.308000000000000000e+03 4.326174926757812500e+01 -6.548942565917968750e+00 4.063835144042968750e+00 8.954369544982910156e+00 3.905461549758911133e+00 2.344602346420288086e-02
3.309000000000000000e+03 4.310852432250976562e+01 -4.938602924346923828e+00 3.791148424148559570e+00 9.077319145202636719e+00 3.860540390014648438e+00 6.750825047492980957e-01
3.310000000000000000e+03 3.821275711059570312e+01 1.599684119224548340e+00 6.490686535835266113e-02 9.764926910400390625e+00 2.948950290679931641e+00 -5.256767272949218750e-01
3.311000000000000000e+03 4.362771606445312500e+01 -8.320137023925781250e+00 3.661283016204833984e+00 8.962637901306152344e+00 3.787176370620727539e+00 -6.407616138458251953e-01
3.312000000000000000e+03 5.301271820068359375e+01 -6.962472915649414062e+00 1.700522661209106445e+00 7.692668437957763672e+00 2.817957162857055664e+00 2.453119959682226181e-03
3.313000000000000000e+03 5.212630081176757812e+01 -3.266221880912780762e-01 1.313059091567993164e+00 7.888452053070068359e+00 2.760453462600708008e+00 8.302525281906127930e-01
3.314000000000000000e+03 5.151585388183593750e+01 -5.690817832946777344e+00 1.924561023712158203e+00 7.770214557647705078e+00 2.908432722091674805e+00 2.009441554546356201e-01
3.315000000000000000e+03 4.068635559082031250e+01 4.227436065673828125e+00 -1.063594669103622437e-01 9.009889602661132812e+00 2.671059131622314453e+00 5.905387178063392639e-02
3.316000000000000000e+03 4.343167495727539062e+01 7.750485420227050781e+00 -2.987614572048187256e-01 8.318665504455566406e+00 2.405971288681030273e+00 3.319311439990997314e-01
3.317000000000000000e+03 5.437989044189453125e+01 -6.010967731475830078e+00 1.534759521484375000e+00 7.623506546020507812e+00 2.747479915618896484e+00 1.419328153133392334e-01
3.318000000000000000e+03 5.085217666625976562e+01 -1.149847507476806641e+01 1.588353157043457031e+00 7.983656883239746094e+00 2.871603012084960938e+00 -6.489824056625366211e-01
3.319000000000000000e+03 4.348473358154296875e+01 -1.146619415283203125e+01 2.176935672760009766e+00 9.355935096740722656e+00 3.459861040115356445e+00 -1.177333235740661621e+00
3.320000000000000000e+03 4.782134246826171875e+01 -1.452921104431152344e+01 1.089387297630310059e+00 8.490563392639160156e+00 2.873985290527343750e+00 -9.648703336715698242e-01
3.321000000000000000e+03 5.144957351684570312e+01 1.051953673362731934e+00 1.141440510749816895e+00 7.987877368927001953e+00 2.738795280456542969e+00 9.281088709831237793e-01
3.322000000000000000e+03 4.829259872436523438e+01 -2.800230503082275391e+00 2.165203094482421875e+00 8.143051147460937500e+00 3.092476367950439453e+00 7.432226538658142090e-01
3.323000000000000000e+03 5.324633407592773438e+01 -5.876743793487548828e+00 1.683918118476867676e+00 7.675863265991210938e+00 2.807934522628784180e+00 1.647746115922927856e-01
3.324000000000000000e+03 3.994667816162109375e+01 -2.367565917968750000e+01 -7.537425756454467773e-01 7.701541423797607422e+00 2.084339618682861328e+00 3.635273277759552002e-01
3.325000000000000000e+03 5.168182754516601562e+01 -1.072713375091552734e+01 1.612079143524169922e+00 7.881350994110107422e+00 2.848029136657714844e+00 -5.267143249511718750e-01
3.326000000000000000e+03 4.059669876098632812e+01 1.353859519958496094e+01 -6.871991157531738281e-01 7.226258754730224609e+00 1.961717844009399414e+00 -2.824888825416564941e-01
3.327000000000000000e+03 4.711383819580078125e+01 7.792045116424560547e+00 -4.915072023868560791e-02 8.250494003295898438e+00 2.460402965545654297e+00 7.363654375076293945e-01
3.328000000000000000e+03 4.958512878417968750e+01 3.595203399658203125e+00 7.145883440971374512e-01 8.213476181030273438e+00 2.678419113159179688e+00 1.004654169082641602e+00
3.329000000000000000e+03 4.296015930175781250e+01 2.662288904190063477e+00 4.982788860797882080e-01 9.144724845886230469e+00 2.892901182174682617e+00 7.442623376846313477e-01
3.330000000000000000e+03 4.137250900268554688e+01 -2.219725227355957031e+01 -6.752377748489379883e-01 8.202338218688964844e+00 2.258130311965942383e+00 1.142069995403289795e-01
3.331000000000000000e+03 4.710978317260742188e+01 -1.661990737915039062e+01 5.722865462303161621e-01 8.624961853027343750e+00 2.759174585342407227e+00 -9.150289297103881836e-01
3.332000000000000000e+03 6.596384429931640625e+01 1.445670604705810547e+01 -5.622659623622894287e-02 7.834170818328857422e+00 2.333383321762084961e+00 7.299258112907409668e-01
3.333000000000000000e+03 6.080993270874023438e+01 2.015429687500000000e+01 -3.100285530090332031e-01 7.840325832366943359e+00 2.259089231491088867e+00 6.723698377609252930e-01
3.334000000000000000e+03 6.239454269409179688e+01 1.863980865478515625e+01 -2.258508950471878052e-01 7.869310855865478516e+00 2.293037891387939453e+00 7.106220722198486328e-01
3.335000000000000000e+03 3.878439712524414062e+01 1.248298525810241699e+00 2.104378640651702881e-01 1.005109119415283203e+01 3.078458786010742188e+00 -2.110897749662399292e-01
3.336000000000000000e+03 4.230999755859375000e+01 1.373634576797485352e+00 8.144242763519287109e-01 9.459995269775390625e+00 3.082325696945190430e+00 8.394421935081481934e-01
3.337000000000000000e+03 4.113612747192382812e+01 -2.785659134387969971e-01 1.279048323631286621e+00 1.006690025329589844e+01 3.403784513473510742e+00 9.292296171188354492e-01
3.338000000000000000e+03 3.775034332275390625e+01 1.353316903114318848e+00 5.422672629356384277e-02 9.846071243286132812e+00 2.970089197158813477e+00 -7.541436553001403809e-01
3.339000000000000000e+03 3.855124664306640625e+01 5.865750908851623535e-01 3.281042575836181641e-01 1.033531856536865234e+01 3.199026823043823242e+00 -2.046648114919662476e-01
3.340000000000000000e+03 3.993264770507812500e+01 -2.763719260692596436e-01 9.773294329643249512e-01 1.047631454467773438e+01 3.436093091964721680e+00 5.957005023956298828e-01
3.341000000000000000e+03 3.874198913574218750e+01 1.812803268432617188e+00 8.369715511798858643e-02 9.772021293640136719e+00 2.956715583801269531e+00 -3.088161349296569824e-01
3.342000000000000000e+03 4.192452239990234375e+01 -2.162071466445922852e+00 2.456649780273437500e+00 9.875406265258789062e+00 3.699616909027099609e+00 1.240915298461914062e+00
3.343000000000000000e+03 4.158272933959960938e+01 -3.333642482757568359e+00 3.298484563827514648e+00 9.988370895385742188e+00 3.986056804656982422e+00 1.285509109497070312e+00
3.344000000000000000e+03 4.354055786132812500e+01 -5.241291999816894531e+00 3.727805137634277344e+00 8.907083511352539062e+00 3.790466547012329102e+00 5.268349647521972656e-01
3.345000000000000000e+03 4.428914260864257812e+01 -7.570602416992187500e+00 3.562749147415161133e+00 8.699904441833496094e+00 3.678796052932739258e+00 -3.234872519969940186e-01
3.346000000000000000e+03 4.128773498535156250e+01 1.916309475898742676e+00 4.706929028034210205e-01 9.564308166503906250e+00 3.010500431060791016e+00 5.438168048858642578e-01
3.347000000000000000e+03 4.428268051147460938e+01 -1.011445522308349609e+01 2.745086908340454102e+00 8.949661254882812500e+00 3.508424520492553711e+00 -9.771312475204467773e-01
3.348000000000000000e+03 4.311806869506835938e+01 -6.001904487609863281e+00 4.101154804229736328e+00 9.006580352783203125e+00 3.932320594787597656e+00 2.569640278816223145e-01
3.349000000000000000e+03 4.103021240234375000e+01 -1.298667907714843750e+01 1.068570137023925781e+00 1.023102951049804688e+01 3.389879941940307617e+00 -9.011920690536499023e-01
3.350000000000000000e+03 4.288474273681640625e+01 -1.196744728088378906e+01 1.914659023284912109e+00 9.576453208923339844e+00 3.447333812713623047e+00 -1.184763669967651367e+00
3.351000000000000000e+03 3.992366790771484375e+01 6.503475904464721680e-01 6.018421649932861328e-01 1.016846752166748047e+01 3.231092929840087891e+00 3.741404414176940918e-01
3.352000000000000000e+03 4.144586563110351562e+01 -1.392457485198974609e+01 7.661936879158020020e-01 9.909427642822265625e+00 3.202686548233032227e+00 -8.023493289947509766e-01
3.353000000000000000e+03 4.049449539184570312e+01 -1.446150398254394531e+01 3.448960483074188232e-01 9.995202064514160156e+00 3.102029561996459961e+00 -4.292112886905670166e-01
3.354000000000000000e+03 4.381825637817382812e+01 -5.718690872192382812e+00 3.747831344604492188e+00 8.803697586059570312e+00 3.765458583831787109e+00 3.512190878391265869e-01
3.355000000000000000e+03 4.724940490722656250e+01 -9.280827045440673828e-01 1.806859254837036133e+00 8.403014183044433594e+00 3.062962055206298828e+00 1.001436233520507812e+00
3.356000000000000000e+03 4.147745132446289062e+01 -1.251054763793945312e+01 1.446889638900756836e+00 1.014396095275878906e+01 3.477255344390869141e+00 -1.091489911079406738e+00
3.357000000000000000e+03 4.462978744506835938e+01 -1.273684692382812500e+01 1.615246653556823730e+00 9.057659149169921875e+00 3.201871871948242188e+00 -1.100050330162048340e+00
3.358000000000000000e+03 4.188408279418945312e+01 -1.285654735565185547e+01 1.326048135757446289e+00 9.947944641113281250e+00 3.382197856903076172e+00 -1.069671750068664551e+00
3.359000000000000000e+03 4.337045669555664062e+01 -9.971586227416992188e+00 2.967100143432617188e+00 9.243431091308593750e+00 3.663159132003784180e+00 -1.070279359817504883e+00
3.360000000000000000e+03 4.330005645751953125e+01 -9.219971656799316406e+00 3.326320886611938477e+00 9.155439376831054688e+00 3.744528055191040039e+00 -9.266060590744018555e-01
3.361000000000000000e+03 4.143289184570312500e+01 -1.967686271667480469e+01 -4.850710928440093994e-01 8.664855957031250000e+00 2.453935384750366211e+00 -1.617678254842758179e-02
3.362000000000000000e+03 4.256148910522460938e+01 -1.833740806579589844e+01 -1.958611905574798584e-01 8.930165290832519531e+00 2.620291233062744141e+00 -3.609841763973236084e-01
3.363000000000000000e+03 3.932835388183593750e+01 1.738713383674621582e+00 1.865151375532150269e-01 9.815485000610351562e+00 3.000599861145019531e+00 -5.052519217133522034e-02
3.364000000000000000e+03 4.628083038330078125e+01 -1.835388565063476562e+01 1.433659344911575317e-01 8.657092094421386719e+00 2.640137434005737305e+00 -7.584727406501770020e-01
3.365000000000000000e+03 4.459072113037109375e+01 -1.822120475769042969e+01 7.182486820966005325e-03 8.808502197265625000e+00 2.644705533981323242e+00 -6.304247379302978516e-01
3.366000000000000000e+03 5.228259658813476562e+01 -6.342803001403808594e+00 1.814330577850341797e+00 7.726908206939697266e+00 2.862371683120727539e+00 1.018924489617347717e-01
3.367000000000000000e+03 4.939439010620117188e+01 -1.194866180419921875e+01 1.633793115615844727e+00 8.140733718872070312e+00 2.932358026504516602e+00 -7.684883475303649902e-01
3.368000000000000000e+03 4.878244400024414062e+01 4.376387000083923340e-01 1.371354818344116211e+00 8.239630699157714844e+00 2.883295774459838867e+00 1.000457286834716797e+00
3.369000000000000000e+03 5.005147552490234375e+01 -1.084282112121582031e+01 1.772690296173095703e+00 8.018550872802734375e+00 2.937372446060180664e+00 -6.168849468231201172e-01
3.370000000000000000e+03 4.685076904296875000e+01 -1.166840839385986328e+01 1.918130159378051758e+00 8.504502296447753906e+00 3.126789808273315430e+00 -9.254418611526489258e-01
3.371000000000000000e+03 4.997740936279296875e+01 -9.103503227233886719e+00 2.046993732452392578e+00 7.938719272613525391e+00 2.995713949203491211e+00 -3.979059755802154541e-01
3.372000000000000000e+03 4.863417816162109375e+01 4.621932029724121094e+00 4.912181198596954346e-01 8.298267364501953125e+00 2.636845588684082031e+00 9.709939956665039062e-01
3.373000000000000000e+03 4.180835723876953125e+01 4.957097053527832031e+00 -9.964422881603240967e-02 8.804334640502929688e+00 2.611407041549682617e+00 2.608589828014373779e-01
3.374000000000000000e+03 5.155244064331054688e+01 -7.292407989501953125e+00 1.933697819709777832e+00 7.768586158752441406e+00 2.910685300827026367e+00 -4.213368520140647888e-02
3.375000000000000000e+03 5.202260589599609375e+01 -4.641575813293457031e+00 1.789534330368041992e+00 7.751970767974853516e+00 2.862451553344726562e+00 3.482257723808288574e-01
3.376000000000000000e+03 4.653848266601562500e+01 5.307232379913330078e+00 2.831213176250457764e-01 8.460046768188476562e+00 2.622950553894042969e+00 8.587752580642700195e-01
3.377000000000000000e+03 4.434298324584960938e+01 6.293878555297851562e+00 -6.204380840063095093e-02 8.503964424133300781e+00 2.532576084136962891e+00 5.627572536468505859e-01
3.378000000000000000e+03 4.470155334472656250e+01 -1.526592922210693359e+01 7.270911335945129395e-01 9.013773918151855469e+00 2.922259569168090820e+00 -9.362484812736511230e-01
3.379000000000000000e+03 5.309120941162109375e+01 1.413401222229003906e+01 -3.126163780689239502e-01 7.841965675354003906e+00 2.258804798126220703e+00 7.370235323905944824e-01
3.380000000000000000e+03 4.624424362182617188e+01 9.517034530639648438e+00 -2.988005280494689941e-01 8.115051269531250000e+00 2.344875335693359375e+00 5.448879003524780273e-01
3.381000000000000000e+03 4.535692977905273438e+01 -2.248621177673339844e+01 -4.808399379253387451e-01 8.356630325317382812e+00 2.362737178802490234e+00 -3.883688747882843018e-01
3.382000000000000000e+03 4.252581405639648438e+01 -2.073113250732421875e+01 -4.970069825649261475e-01 8.529448509216308594e+00 2.409732580184936523e+00 -1.518952846527099609e-01
3.383000000000000000e+03 4.526301956176757812e+01 1.117855644226074219e+01 -4.681554436683654785e-01 7.931207180023193359e+00 2.238915443420410156e+00 3.690967857837677002e-01
3.384000000000000000e+03 4.286679840087890625e+01 1.165431690216064453e+01 -5.951274037361145020e-01 7.731742858886718750e+00 2.140984773635864258e+00 5.461339652538299561e-02
3.385000000000000000e+03 4.749648666381835938e+01 -2.108909416198730469e+01 -1.926708221435546875e-01 8.400119781494140625e+00 2.462234497070312500e+00 -6.350106596946716309e-01
3.386000000000000000e+03 4.751092529296875000e+01 -1.794870185852050781e+01 3.104132115840911865e-01 8.557209014892578125e+00 2.660286664962768555e+00 -8.440066576004028320e-01
3.387000000000000000e+03 4.068849945068359375e+01 1.475374817848205566e+00 4.813911616802215576e-01 9.735157966613769531e+00 3.064964532852172852e+00 4.592866301536560059e-01
3.388000000000000000e+03 4.249553680419921875e+01 -1.665123224258422852e+00 2.208312273025512695e+00 9.615056037902832031e+00 3.547010660171508789e+00 1.215198874473571777e+00
3.389000000000000000e+03 4.292039489746093750e+01 -2.172065019607543945e+00 2.479860782623291016e+00 9.427514076232910156e+00 3.572212457656860352e+00 1.204364061355590820e+00
3.390000000000000000e+03 4.212688064575195312e+01 -1.128852128982543945e+00 1.844755291938781738e+00 9.761177062988281250e+00 3.481779813766479492e+00 1.144508838653564453e+00
3.391000000000000000e+03 4.235599136352539062e+01 -1.247584629058837891e+01 1.601107358932495117e+00 9.790627479553222656e+00 3.417520523071289062e+00 -1.156595468521118164e+00
3.392000000000000000e+03 3.892978668212890625e+01 8.520212173461914062e-01 3.367744386196136475e-01 1.023520946502685547e+01 3.171595335006713867e+00 -7.115277647972106934e-02
3.393000000000000000e+03 4.335890960693359375e+01 -3.375432491302490234e+00 3.067526578903198242e+00 9.157526969909667969e+00 3.667516231536865234e+00 1.059449911117553711e+00
3.394000000000000000e+03 4.420339965820312500e+01 -6.902143478393554688e+00 3.669978380203247070e+00 8.693479537963867188e+00 3.709037303924560547e+00 -9.364411234855651855e-02
3.395000000000000000e+03 4.412562942504882812e+01 -4.736217975616455078e+00 3.416118144989013672e+00 8.787582397460937500e+00 3.661110162734985352e+00 6.404319405555725098e-01
3.396000000000000000e+03 4.021794891357421875e+01 1.088819503784179688e+00 5.079859495162963867e-01 9.919209480285644531e+00 3.128158807754516602e+00 3.708544075489044189e-01
3.397000000000000000e+03 3.916765594482421875e+01 1.206726551055908203e+00 2.885289192199707031e-01 1.004954814910888672e+01 3.101423263549804688e+00 -2.870158664882183075e-02
3.398000000000000000e+03 4.039494323730468750e+01 6.011148095130920410e-01 7.253793478012084961e-01 1.007479667663574219e+01 3.240052938461303711e+00 5.449501276016235352e-01
3.399000000000000000e+03 4.048063659667968750e+01 3.548292070627212524e-02 9.541299343109130859e-01 1.018752098083496094e+01 3.342495203018188477e+00 6.713905334472656250e-01
3.400000000000000000e+03 4.337711715698242188e+01 -1.261404514312744141e+01 1.614091634750366211e+00 9.415407180786132812e+00 3.308849573135375977e+00 -1.135138630867004395e+00
3.401000000000000000e+03 4.249401092529296875e+01 -1.088486671447753906e+01 2.527733087539672852e+00 9.674595832824707031e+00 3.660698652267456055e+00 -1.243548512458801270e+00
3.402000000000000000e+03 4.272643661499023438e+01 -1.304569339752197266e+01 1.353845953941345215e+00 9.634915351867675781e+00 3.296628236770629883e+00 -1.090815663337707520e+00
3.403000000000000000e+03 3.982504272460937500e+01 1.465376973152160645e+00 3.333727121353149414e-01 9.879093170166015625e+00 3.063739538192749023e+00 1.869642138481140137e-01
3.404000000000000000e+03 4.404785537719726562e+01 -3.609357833862304688e+00 3.057756662368774414e+00 8.923211097717285156e+00 3.594290256500244141e+00 9.436368346214294434e-01
3.405000000000000000e+03 4.519271850585937500e+01 -7.491822242736816406e+00 3.281924247741699219e+00 8.485869407653808594e+00 3.530338048934936523e+00 -2.563259899616241455e-01
3.406000000000000000e+03 4.845359420776367188e+01 -1.126481914520263672e+01 1.868317604064941406e+00 8.218336105346679688e+00 3.025996208190917969e+00 -7.628974914550781250e-01
3.407000000000000000e+03 4.324088668823242188e+01 -1.078917884826660156e+01 2.521175622940063477e+00 9.377575874328613281e+00 3.569625377655029297e+00 -1.159801244735717773e+00
3.408000000000000000e+03 5.078256225585937500e+01 -6.650542259216308594e+00 2.063696146011352539e+00 7.812141895294189453e+00 2.962751388549804688e+00 5.024014040827751160e-02
3.409000000000000000e+03 4.158428955078125000e+01 -1.328610229492187500e+01 1.033480644226074219e+00 9.980961799621582031e+00 3.304332494735717773e+00 -9.323943853378295898e-01
3.410000000000000000e+03 4.149634552001953125e+01 -1.744221305847167969e+01 -1.718142479658126831e-01 9.149267196655273438e+00 2.693235874176025391e+00 -2.540028691291809082e-01
3.411000000000000000e+03 4.516900253295898438e+01 -1.052232646942138672e+01 2.461241960525512695e+00 8.754083633422851562e+00 3.364597558975219727e+00 -9.426717162132263184e-01
3.412000000000000000e+03 4.710132217407226562e+01 -3.841271638870239258e+00 2.551844835281372070e+00 8.244970321655273438e+00 3.239044427871704102e+00 6.528033018112182617e-01
3.413000000000000000e+03 4.876327514648437500e+01 -1.671666979789733887e+00 1.837452173233032227e+00 8.146480560302734375e+00 2.995179891586303711e+00 8.650998473167419434e-01
3.414000000000000000e+03 4.974139022827148438e+01 -5.363053798675537109e+00 2.217290878295898438e+00 7.891844749450683594e+00 3.032740592956542969e+00 2.769759297370910645e-01
3.415000000000000000e+03 5.083419799804687500e+01 -9.889419555664062500e+00 1.830569267272949219e+00 7.902929782867431641e+00 2.920049905776977539e+00 -4.627125263214111328e-01
3.416000000000000000e+03 5.081072998046875000e+01 -8.206231117248535156e+00 2.032903909683227539e+00 7.836167812347412109e+00 2.960721492767333984e+00 -2.160190343856811523e-01
3.417000000000000000e+03 4.149523544311523438e+01 3.278389930725097656e+00 1.710061430931091309e-01 9.227921485900878906e+00 2.819678306579589844e+00 3.964293897151947021e-01
3.418000000000000000e+03 4.021159362792968750e+01 2.034049987792968750e+00 2.605822980403900146e-01 9.618524551391601562e+00 2.963732004165649414e+00 2.111744582653045654e-01
3.419000000000000000e+03 4.249229049682617188e+01 3.819426774978637695e+00 1.779698729515075684e-01 9.015857696533203125e+00 2.758148431777954102e+00 5.287079215049743652e-01
3.420000000000000000e+03 4.209455490112304688e+01 -1.610548591613769531e+01 1.758266687393188477e-01 9.357771873474121094e+00 2.860079765319824219e+00 -5.425377488136291504e-01
3.421000000000000000e+03 4.862074661254882812e+01 8.502202987670898438e+00 -5.180772021412849426e-02 8.143965721130371094e+00 2.427647590637207031e+00 7.922822833061218262e-01
3.422000000000000000e+03 4.871644973754882812e+01 2.566332578659057617e+00 9.324080348014831543e-01 8.296112060546875000e+00 2.768556118011474609e+00 1.024852871894836426e+00
3.423000000000000000e+03 4.381650161743164062e+01 -2.171370506286621094e+01 -5.021513700485229492e-01 8.428974151611328125e+00 2.378046751022338867e+00 -2.759195566177368164e-01
3.424000000000000000e+03 4.596679687500000000e+01 -2.082876014709472656e+01 -2.573415637016296387e-01 8.487680435180664062e+00 2.469101667404174805e+00 -5.528609752655029297e-01
3.425000000000000000e+03 4.138124465942382812e+01 -2.530102729797363281e+01 -8.073728084564208984e-01 7.763545513153076172e+00 2.086851835250854492e+00 1.717515140771865845e-01
3.426000000000000000e+03 4.417832183837890625e+01 1.270573425292968750e+01 -5.981465578079223633e-01 7.727637767791748047e+00 2.138847351074218750e+00 1.864288896322250366e-01
3.427000000000000000e+03 5.073019790649414062e+01 7.103098392486572266e+00 1.981030106544494629e-01 8.096006393432617188e+00 2.488232612609863281e+00 9.186905622482299805e-01
3.428000000000000000e+03 4.789406967163085938e+01 6.107774734497070312e+00 2.343741804361343384e-01 8.301453590393066406e+00 2.560748338699340820e+00 8.753302693367004395e-01
3.429000000000000000e+03 5.221660614013671875e+01 7.411640167236328125e+00 2.086813598871231079e-01 8.020270347595214844e+00 2.468685626983642578e+00 9.336658120155334473e-01
3.430000000000000000e+03 5.018737792968750000e+01 9.070354461669921875e+00 -4.316682368516921997e-02 8.063064575195312500e+00 2.405969142913818359e+00 8.303558230400085449e-01
3.431000000000000000e+03 4.394201660156250000e+01 1.548516654968261719e+01 -6.864554882049560547e-01 7.394479751586914062e+00 2.012407302856445312e+00 8.166527003049850464e-02
3.432000000000000000e+03 4.764514923095703125e+01 -1.943856811523437500e+01 3.874796256422996521e-02 8.475996971130371094e+00 2.554423570632934570e+00 -7.451574802398681641e-01
3.433000000000000000e+03 4.652536392211914062e+01 -1.545990943908691406e+01 8.006100654602050781e-01 8.710706710815429688e+00 2.853394985198974609e+00 -9.606578946113586426e-01
3.434000000000000000e+03 4.714554595947265625e+01 -2.295745277404785156e+01 -4.213805794715881348e-01 8.290110588073730469e+00 2.360619068145751953e+00 -5.024967193603515625e-01
3.435000000000000000e+03 5.099171829223632812e+01 -2.091283035278320312e+01 2.235471911262720823e-04 8.212333679199218750e+00 2.463767051696777344e+00 -7.604935765266418457e-01
3.436000000000000000e+03 5.333843231201171875e+01 1.182478809356689453e+01 -1.750089824199676514e-01 7.904198169708251953e+00 2.318756818771362305e+00 8.197396397590637207e-01
3.437000000000000000e+03 4.792098617553710938e+01 1.564327716827392578e+00 1.117839097976684570e+00 8.363273620605468750e+00 2.844333887100219727e+00 1.038660526275634766e+00
3.438000000000000000e+03 5.011786270141601562e+01 -7.473948478698730469e+00 2.178050041198730469e+00 7.866712570190429688e+00 3.013428688049316406e+00 -1.075853034853935242e-01
3.439000000000000000e+03 4.863986206054687500e+01 1.351166915893554688e+01 -4.574936926364898682e-01 7.826113224029541016e+00 2.210585832595825195e+00 5.529963374137878418e-01
3.440000000000000000e+03 5.926902389526367188e+01 2.170969772338867188e+01 -3.778135180473327637e-01 7.798163890838623047e+00 2.226105213165283203e+00 6.141849160194396973e-01
3.441000000000000000e+03 4.106702423095703125e+01 2.146579474210739136e-01 1.030986070632934570e+00 9.944304466247558594e+00 3.292587280273437500e+00 7.967354655265808105e-01
3.442000000000000000e+03 4.206083679199218750e+01 6.051020622253417969e-01 1.058577418327331543e+00 9.618083953857421875e+00 3.202998399734497070e+00 9.048352241516113281e-01
3.443000000000000000e+03 4.300224304199218750e+01 -1.379827976226806641e+01 1.054580092430114746e+00 9.500678062438964844e+00 3.166577339172363281e+00 -1.002467393875122070e+00
3.444000000000000000e+03 3.953664779663085938e+01 9.578971862792968750e-01 4.229487776756286621e-01 1.011899662017822266e+01 3.162583589553833008e+00 1.583367288112640381e-01
3.445000000000000000e+03 4.493216705322265625e+01 -5.896609306335449219e+00 3.391637563705444336e+00 8.536776542663574219e+00 3.578524112701416016e+00 2.519056499004364014e-01
3.446000000000000000e+03 4.902621459960937500e+01 -3.053062438964843750e+00 2.071863174438476562e+00 8.035859107971191406e+00 3.032316684722900391e+00 6.715261936187744141e-01
3.447000000000000000e+03 4.185801696777343750e+01 -5.076380968093872070e-01 1.508761048316955566e+00 9.831851005554199219e+00 3.402183532714843750e+00 1.061394214630126953e+00
3.448000000000000000e+03 4.162261199951171875e+01 1.162793874740600586e+00 7.554111480712890625e-01 9.652193069458007812e+00 3.122281074523925781e+00 7.393845319747924805e-01
3.449000000000000000e+03 4.346069717407226562e+01 -1.638793468475341797e+00 2.217094421386718750e+00 9.287837028503417969e+00 3.451479434967041016e+00 1.186812043190002441e+00
3.450000000000000000e+03 4.333985900878906250e+01 -2.722554445266723633e+00 2.758958339691162109e+00 9.237676620483398438e+00 3.598990440368652344e+00 1.141518831253051758e+00
3.451000000000000000e+03 4.396807861328125000e+01 -8.850659370422363281e+00 3.339226722717285156e+00 8.905538558959960938e+00 3.673429489135742188e+00 -7.725378274917602539e-01
3.452000000000000000e+03 4.610041046142578125e+01 -1.265712547302246094e+01 1.649760127067565918e+00 8.711097717285156250e+00 3.108257293701171875e+00 -1.033357024192810059e+00
3.453000000000000000e+03 4.220891571044921875e+01 -1.490729522705078125e+01 5.554051995277404785e-01 9.564931869506835938e+00 3.036101102828979492e+00 -7.646892070770263672e-01
3.454000000000000000e+03 4.273962402343750000e+01 -7.019366621971130371e-01 1.696710109710693359e+00 9.497786521911621094e+00 3.358348846435546875e+00 1.128489017486572266e+00
3.455000000000000000e+03 4.690114212036132812e+01 -1.350572204589843750e+01 1.383841276168823242e+00 8.602200508117675781e+00 2.995812654495239258e+00 -1.001516222953796387e+00
3.456000000000000000e+03 4.823661804199218750e+01 -9.317980766296386719e+00 2.302585601806640625e+00 8.117926597595214844e+00 3.126153707504272461e+00 -4.973214566707611084e-01
3.457000000000000000e+03 4.354405212402343750e+01 -1.937033462524414062e+01 -2.565324008464813232e-01 8.736386299133300781e+00 2.543956279754638672e+00 -4.149731397628784180e-01
3.458000000000000000e+03 4.864133071899414062e+01 -7.070615768432617188e+00 2.454813480377197266e+00 7.996366500854492188e+00 3.135354042053222656e+00 -6.737686693668365479e-02
3.459000000000000000e+03 4.459067916870117188e+01 -5.257674694061279297e+00 3.397054433822631836e+00 8.631772041320800781e+00 3.608648061752319336e+00 4.469048082828521729e-01
3.460000000000000000e+03 4.404681777954101562e+01 -6.276660442352294922e+00 3.734957218170166016e+00 8.722620964050292969e+00 3.737273454666137695e+00 1.285237818956375122e-01
3.461000000000000000e+03 4.404405593872070312e+01 -1.205607700347900391e+01 1.883761763572692871e+00 9.211047172546386719e+00 3.328442573547363281e+00 -1.138461112976074219e+00
3.462000000000000000e+03 4.407742309570312500e+01 2.936809539794921875e+00 5.494448542594909668e-01 8.934573173522949219e+00 2.845205545425415039e+00 8.419301509857177734e-01
3.463000000000000000e+03 4.724229431152343750e+01 6.268375515937805176e-01 1.335581660270690918e+00 8.459711074829101562e+00 2.938587665557861328e+00 1.041832566261291504e+00
3.464000000000000000e+03 4.793128204345703125e+01 -2.782606184482574463e-01 1.560525417327880859e+00 8.314403533935546875e+00 2.962478637695312500e+00 1.002364993095397949e+00
3.465000000000000000e+03 4.792339324951171875e+01 -1.363368749618530273e+00 1.839610099792480469e+00 8.269422531127929688e+00 3.032709836959838867e+00 9.337158203125000000e-01
3.466000000000000000e+03 4.656592559814453125e+01 -2.461955070495605469e+00 2.259828090667724609e+00 8.414649009704589844e+00 3.202342987060546875e+00 9.027705192565917969e-01
3.467000000000000000e+03 4.505746459960937500e+01 -3.006521463394165039e-01 1.632972955703735352e+00 8.863169670104980469e+00 3.148842811584472656e+00 1.109342455863952637e+00
3.468000000000000000e+03 4.536205673217773438e+01 -1.194821548461914062e+01 1.921468496322631836e+00 8.830586433410644531e+00 3.225616455078125000e+00 -1.056428909301757812e+00
3.469000000000000000e+03 5.153060531616210938e+01 -2.765785598754882812e+01 -5.823594331741333008e-01 8.010932922363281250e+00 2.228572130203247070e+00 -4.942828118801116943e-01
3.470000000000000000e+03 4.917024230957031250e+01 -1.011911201477050781e+01 2.004789113998413086e+00 8.054606437683105469e+00 3.017818689346313477e+00 -5.710651278495788574e-01
3.471000000000000000e+03 4.569202041625976562e+01 7.017962932586669922e+00 -5.768890306353569031e-02 8.376477241516113281e+00 2.495636701583862305e+00 6.535131335258483887e-01
3.472000000000000000e+03 4.586859512329101562e+01 -1.444185829162597656e+01 1.060691952705383301e+00 8.814613342285156250e+00 2.962591409683227539e+00 -1.007910847663879395e+00
3.473000000000000000e+03 4.465065765380859375e+01 -2.024250221252441406e+01 -2.810908854007720947e-01 8.595245361328125000e+00 2.494246482849121094e+00 -4.691582322120666504e-01
3.474000000000000000e+03 4.783053588867187500e+01 1.039680290222167969e+01 -2.785815298557281494e-01 8.032123565673828125e+00 2.326062679290771484e+00 6.408808827400207520e-01
3.475000000000000000e+03 4.452717590332031250e+01 -2.443888092041015625e+01 -6.703996062278747559e-01 8.137057304382324219e+00 2.239997386932373047e+00 -2.053761035203933716e-01
3.476000000000000000e+03 4.911365509033203125e+01 -2.312062263488769531e+01 -3.294699788093566895e-01 8.229598045349121094e+00 2.370038509368896484e+00 -6.002331972122192383e-01
3.477000000000000000e+03 4.020790481567382812e+01 1.221479988098144531e+01 -6.671209335327148438e-01 7.343528747558593750e+00 2.002922296524047852e+00 -3.392725288867950439e-01
3.478000000000000000e+03 4.196287918090820312e+01 1.279093074798583984e+01 -6.478114724159240723e-01 7.443929672241210938e+00 2.038835525512695312e+00 -8.837430179119110107e-02
3.479000000000000000e+03 4.555475234985351562e+01 1.402258014678955078e+01 -5.948201417922973633e-01 7.673564434051513672e+00 2.123623371124267578e+00 2.887115478515625000e-01
3.480000000000000000e+03 3.551261901855468750e+01 -2.361891555786132812e+01 -5.943753719329833984e-01 6.571361064910888672e+00 1.793095588684082031e+00 1.044120550155639648e+00
3.481000000000000000e+03 3.596552658081054688e+01 -2.573917579650878906e+01 -6.789597272872924805e-01 6.519845485687255859e+00 1.752265691757202148e+00 8.425841927528381348e-01
3.482000000000000000e+03 2.065378570556640625e+01 -3.057058334350585938e+01 1.571350991725921631e-01 1.905115008354187012e+00 6.186750531196594238e-01 4.242556691169738770e-01
3.483000000000000000e+03 2.798776817321777344e+01 -2.683724403381347656e+01 -9.244013577699661255e-02 3.726548194885253906e+00 1.090232491493225098e+00 9.784255027770996094e-01
3.484000000000000000e+03 1.514394378662109375e+01 -2.591827964782714844e+01 2.454388439655303955e-01 3.841295242309570312e-01 1.888705193996429443e-01 5.039753764867782593e-02
3.485000000000000000e+03 1.857067108154296875e+01 -2.735508155822753906e+01 2.585312724113464355e-01 1.140177607536315918e+00 4.196126461029052734e-01 3.499035537242889404e-01
3.486000000000000000e+03 5.373859024047851562e+01 1.923686408996582031e+01 -4.985414445400238037e-01 7.705814361572265625e+00 2.162181854248046875e+00 5.879684686660766602e-01
3.487000000000000000e+03 4.142659759521484375e+01 1.965308952331542969e+01 -7.588039040565490723e-01 6.683385848999023438e+00 1.777374505996704102e+00 -1.893400102853775024e-01
3.488000000000000000e+03 5.506542587280273438e+01 -2.205661201477050781e+01 -1.328277215361595154e-02 8.001260757446289062e+00 2.396393299102783203e+00 -7.372582554817199707e-01
3.489000000000000000e+03 5.578737258911132812e+01 -2.418636131286621094e+01 -1.781697571277618408e-01 7.990456104278564453e+00 2.343685865402221680e+00 -6.862111687660217285e-01
3.490000000000000000e+03 2.975146865844726562e+01 2.024730110168457031e+01 -3.627707362174987793e-01 4.186459064483642578e+00 1.147106528282165527e+00 -8.157624006271362305e-01
3.491000000000000000e+03 5.754199600219726562e+01 2.027283668518066406e+01 -4.004974961280822754e-01 7.783976078033447266e+00 2.215043544769287109e+00 6.399974226951599121e-01
3.492000000000000000e+03 3.157633209228515625e+01 2.150987052917480469e+01 -4.706141948699951172e-01 4.626660823822021484e+00 1.246814012527465820e+00 -7.172890901565551758e-01
3.493000000000000000e+03 5.738907241821289062e+01 -3.232688903808593750e+01 -5.585389733314514160e-01 7.930162906646728516e+00 2.211487293243408203e+00 -4.027763307094573975e-01
3.494000000000000000e+03 1.242613124847412109e+01 3.497544097900390625e+01 2.347545698285102844e-02 9.994882345199584961e-01 3.068891167640686035e-01 -6.499826908111572266e-02
3.495000000000000000e+03 4.099143981933593750e+01 8.300435543060302734e-01 7.574310898780822754e-01 9.857314109802246094e+00 3.184423446655273438e+00 6.709369421005249023e-01
3.496000000000000000e+03 4.335408401489257812e+01 -5.795174241065979004e-01 1.713290929794311523e+00 9.311660766601562500e+00 3.307485342025756836e+00 1.138803601264953613e+00
3.497000000000000000e+03 4.396634292602539062e+01 -1.090565395355224609e+01 2.438795328140258789e+00 9.129212379455566406e+00 3.470402240753173828e+00 -1.103625416755676270e+00
3.498000000000000000e+03 4.220310211181640625e+01 -1.398947429656982422e+01 8.683125376701354980e-01 9.703249931335449219e+00 3.171468734741210938e+00 -9.033045768737792969e-01
3.499000000000000000e+03 4.513201141357421875e+01 -6.656296253204345703e+00 3.348769426345825195e+00 8.483631134033203125e+00 3.549720287322998047e+00 2.681727521121501923e-03
3.500000000000000000e+03 4.727143478393554688e+01 -6.151371002197265625e+00 2.778124570846557617e+00 8.143447875976562500e+00 3.276471614837646484e+00 1.493073552846908569e-01
3.501000000000000000e+03 4.616695404052734375e+01 -6.401618480682373047e+00 3.025819063186645508e+00 8.294123649597167969e+00 3.395982742309570312e+00 8.052943646907806396e-02
3.502000000000000000e+03 4.427696609497070312e+01 -8.242760658264160156e+00 3.421573162078857422e+00 8.733323097229003906e+00 3.646468877792358398e+00 -5.295612215995788574e-01
3.503000000000000000e+03 4.383977508544921875e+01 -1.718682861328125000e+01 1.410947442054748535e-01 9.013755798339843750e+00 2.746455192565917969e+00 -6.610770225524902344e-01
3.504000000000000000e+03 4.425750732421875000e+01 -1.425861454010009766e+01 1.005149364471435547e+00 9.145583152770996094e+00 3.045219659805297852e+00 -9.987627863883972168e-01
3.505000000000000000e+03 4.203300476074218750e+01 2.324701070785522461e+00 4.672767519950866699e-01 9.350804328918457031e+00 2.945424318313598633e+00 6.382360458374023438e-01
3.506000000000000000e+03 4.526219940185546875e+01 1.661569237709045410e+00 1.037507295608520508e+00 8.808207511901855469e+00 2.953714609146118164e+00 1.035521864891052246e+00
3.507000000000000000e+03 4.814863586425781250e+01 -4.744599819183349609e+00 2.448065280914306641e+00 8.065736770629882812e+00 3.154140710830688477e+00 4.268651604652404785e-01
3.508000000000000000e+03 4.425534057617187500e+01 4.974988400936126709e-01 1.343824863433837891e+00 9.053313255310058594e+00 3.119141340255737305e+00 1.082150578498840332e+00
3.509000000000000000e+03 4.914734649658203125e+01 -8.225137710571289062e+00 2.289995431900024414e+00 7.972916603088378906e+00 3.078873634338378906e+00 -2.740807533264160156e-01
3.510000000000000000e+03 4.660498428344726562e+01 -1.000021648406982422e+01 2.406324386596679688e+00 8.414825439453125000e+00 3.246344804763793945e+00 -7.452745437622070312e-01
3.511000000000000000e+03 4.456948471069335938e+01 -2.780310630798339844e+00 2.659729480743408203e+00 8.855213165283203125e+00 3.454482793807983398e+00 1.033603429794311523e+00
3.512000000000000000e+03 4.505418395996093750e+01 -1.981666922569274902e+00 2.294326543807983398e+00 8.795783996582031250e+00 3.327033042907714844e+00 1.066666007041931152e+00
3.513000000000000000e+03 4.521457290649414062e+01 -1.630863761901855469e+01 5.110726952552795410e-01 8.895277976989746094e+00 2.821905136108398438e+00 -8.827541470527648926e-01
3.514000000000000000e+03 4.539927673339843750e+01 3.058767318725585938e+00 6.441638469696044922e-01 8.715976715087890625e+00 2.808042049407958984e+00 9.407697319984436035e-01
3.515000000000000000e+03 4.511043167114257812e+01 4.690431594848632812e+00 2.778341174125671387e-01 8.635590553283691406e+00 2.674027442932128906e+00 7.939178943634033203e-01
3.516000000000000000e+03 4.370029449462890625e+01 4.291021823883056641e+00 2.157531380653381348e-01 8.827420234680175781e+00 2.712951898574829102e+00 6.705448031425476074e-01
3.517000000000000000e+03 4.539548492431640625e+01 -1.244545817375183105e+00 2.000975847244262695e+00 8.757389068603515625e+00 3.227509260177612305e+00 1.083599805831909180e+00
3.518000000000000000e+03 4.982482910156250000e+01 -6.553313255310058594e+00 2.215273618698120117e+00 7.877794265747070312e+00 3.027920484542846680e+00 5.581571161746978760e-02
3.519000000000000000e+03 4.600972366333007812e+01 -1.103724384307861328e+01 2.200131416320800781e+00 8.608952522277832031e+00 3.242725372314453125e+00 -9.342092275619506836e-01
3.520000000000000000e+03 4.578227615356445312e+01 -1.733749771118164062e+01 3.094280958175659180e-01 8.775361061096191406e+00 2.725436925888061523e+00 -8.224522471427917480e-01
3.521000000000000000e+03 4.663294982910156250e+01 -2.511704635620117188e+01 -6.184439063072204590e-01 8.136948585510253906e+00 2.255551338195800781e+00 -3.530576527118682861e-01
3.522000000000000000e+03 4.677126312255859375e+01 2.578818082809448242e+00 8.314704895019531250e-01 8.543864250183105469e+00 2.812600374221801758e+00 1.012486338615417480e+00
3.523000000000000000e+03 4.684795761108398438e+01 1.230078601837158203e+01 -4.713949561119079590e-01 7.876113414764404297e+00 2.221415519714355469e+00 4.618593156337738037e-01
3.524000000000000000e+03 3.654596710205078125e+01 -2.835843276977539062e+01 -7.546460628509521484e-01 6.440189361572265625e+00 1.705662965774536133e+00 6.311436295509338379e-01
3.525000000000000000e+03 3.938603973388671875e+01 -2.729759025573730469e+01 -8.444255590438842773e-01 7.135344505310058594e+00 1.887275695800781250e+00 4.049842357635498047e-01
3.526000000000000000e+03 3.206959152221679688e+01 2.625115966796875000e+01 -5.186885595321655273e-01 4.606439113616943359e+00 1.226325273513793945e+00 -5.209847688674926758e-01
3.527000000000000000e+03 6.506678771972656250e+01 1.322264957427978516e+01 -3.045101650059223175e-02 7.810679912567138672e+00 2.334068536758422852e+00 7.576704621315002441e-01
3.528000000000000000e+03 1.816846275329589844e+01 -2.297858619689941406e+01 2.062488198280334473e-01 7.560172677040100098e-01 2.886798381805419922e-01 3.143942952156066895e-01
3.529000000000000000e+03 6.275690078735351562e+01 1.287918853759765625e+01 -3.821713477373123169e-02 7.812515735626220703e+00 2.332289695739746094e+00 8.057119846343994141e-01
3.530000000000000000e+03 3.752532577514648438e+01 1.884827613830566406e+01 -6.969295740127563477e-01 6.074101448059082031e+00 1.613151550292968750e+00 -5.119636058807373047e-01
3.531000000000000000e+03 4.059202194213867188e+01 1.798840904235839844e+01 -7.493503689765930176e-01 6.682858943939208984e+00 1.780052542686462402e+00 -2.730635702610015869e-01
3.532000000000000000e+03 4.511534118652343750e+01 1.713738250732421875e+01 -7.049849629402160645e-01 7.333947181701660156e+00 1.988688707351684570e+00 1.496591418981552124e-01
3.533000000000000000e+03 4.706478118896484375e+01 -5.019520282745361328e+00 2.731450557708740234e+00 8.199849128723144531e+00 3.279389858245849609e+00 4.043162763118743896e-01
3.534000000000000000e+03 4.716875076293945312e+01 -8.772399902343750000e+00 2.587678909301757812e+00 8.223467826843261719e+00 3.243343830108642578e+00 -4.674431979656219482e-01
3.535000000000000000e+03 4.470012664794921875e+01 -9.253854751586914062e+00 3.019526243209838867e+00 8.755328178405761719e+00 3.532456159591674805e+00 -7.821642756462097168e-01
3.536000000000000000e+03 4.622644424438476562e+01 -7.454045295715332031e+00 3.004984378814697266e+00 8.310219764709472656e+00 3.394561290740966797e+00 -2.040632814168930054e-01
3.537000000000000000e+03 4.252088928222656250e+01 9.704548865556716919e-03 1.357009649276733398e+00 9.560095787048339844e+00 3.275131702423095703e+00 1.052786946296691895e+00
3.538000000000000000e+03 4.334229278564453125e+01 3.426965475082397461e-01 1.327184796333312988e+00 9.297606468200683594e+00 3.187437534332275391e+00 1.063176274299621582e+00
3.539000000000000000e+03 4.465144729614257812e+01 -1.135765552520751953e+01 2.210907936096191406e+00 8.966639518737792969e+00 3.353264331817626953e+00 -1.081014990806579590e+00
3.540000000000000000e+03 4.615681457519531250e+01 -3.620868921279907227e+00 2.662990570068359375e+00 8.408423423767089844e+00 3.321424245834350586e+00 7.337778806686401367e-01
3.541000000000000000e+03 4.475636672973632812e+01 -4.049909114837646484e+00 3.042555332183837891e+00 8.677783012390136719e+00 3.516101598739624023e+00 7.776429057121276855e-01
3.542000000000000000e+03 4.446165466308593750e+01 -1.531767010688781738e+00 2.148327112197875977e+00 8.956768035888671875e+00 3.331528425216674805e+00 1.123474955558776855e+00
3.543000000000000000e+03 4.392902755737304688e+01 -9.560859799385070801e-01 1.886742234230041504e+00 9.155655860900878906e+00 3.312719345092773438e+00 1.149567365646362305e+00
3.544000000000000000e+03 4.382609176635742188e+01 -1.336762332916259766e+01 1.315606832504272461e+00 9.292952537536621094e+00 3.182567834854125977e+00 -1.071233749389648438e+00
3.545000000000000000e+03 4.395149993896484375e+01 -2.229151010513305664e+00 2.489178180694580078e+00 9.071801185607910156e+00 3.468293905258178711e+00 1.126093745231628418e+00
3.546000000000000000e+03 4.339425659179687500e+01 -1.595452022552490234e+01 3.753499686717987061e-01 9.202457427978515625e+00 2.873342275619506836e+00 -7.490753531455993652e-01
3.547000000000000000e+03 4.744798660278320312e+01 -2.586381196975708008e+00 2.209215164184570312e+00 8.270756721496582031e+00 3.143991470336914062e+00 8.221802115440368652e-01
3.548000000000000000e+03 4.753182983398437500e+01 -1.056286430358886719e+01 2.153142213821411133e+00 8.309610366821289062e+00 3.138825893402099609e+00 -7.557475566864013672e-01
3.549000000000000000e+03 4.605484390258789062e+01 -8.549163818359375000e+00 2.901157379150390625e+00 8.391514778137207031e+00 3.387801408767700195e+00 -4.857214093208312988e-01
3.550000000000000000e+03 4.523361587524414062e+01 -1.353148078918457031e+01 1.341981649398803711e+00 8.928241729736328125e+00 3.081066846847534180e+00 -1.059732437133789062e+00
3.551000000000000000e+03 4.321676254272460938e+01 -1.475077533721923828e+01 7.313733100891113281e-01 9.386428833007812500e+00 3.035340547561645508e+00 -8.934074640274047852e-01
3.552000000000000000e+03 4.668696975708007812e+01 -2.066225260496139526e-01 1.609851479530334473e+00 8.540374755859375000e+00 3.045067787170410156e+00 1.055783152580261230e+00
3.553000000000000000e+03 4.631674575805664062e+01 1.319835662841796875e+00 1.157598376274108887e+00 8.634787559509277344e+00 2.937715768814086914e+00 1.057053804397583008e+00
3.554000000000000000e+03 5.135592269897460938e+01 1.166044616699218750e+01 -2.221634984016418457e-01 7.943862438201904297e+00 2.316509723663330078e+00 7.707251310348510742e-01
3.555000000000000000e+03 1.415066909790039062e+01 -2.736092567443847656e+01 2.617313861846923828e-01 2.770934402942657471e-01 1.616474539041519165e-01 4.932727664709091187e-03
3.556000000000000000e+03 4.567158126831054688e+01 -5.224922895431518555e-01 1.720475673675537109e+00 8.720601081848144531e+00 3.132323026657104492e+00 1.098173260688781738e+00
3.557000000000000000e+03 4.574880981445312500e+01 -2.303230762481689453e+00 2.340330362319946289e+00 8.612558364868164062e+00 3.285866498947143555e+00 9.938719272613525391e-01
3.558000000000000000e+03 4.338527679443359375e+01 -2.669378852844238281e+01 -8.157534599304199219e-01 7.824613094329833984e+00 2.102657794952392578e+00 -1.277615432627499104e-03
3.559000000000000000e+03 6.639537048339843750e+01 3.353723526000976562e+01 -2.538090944290161133e-01 8.109783172607421875e+00 2.356792449951171875e+00 2.645388841629028320e-01
3.560000000000000000e+03 6.450187683105468750e+01 -3.520070648193359375e+01 -3.511075973510742188e-01 7.859745502471923828e+00 2.252591371536254883e+00 -2.880974709987640381e-01
3.561000000000000000e+03 3.581808853149414062e+01 1.843546295166015625e+01 -6.359975934028625488e-01 5.729070186614990234e+00 1.527921795845031738e+00 -6.697316765785217285e-01
3.562000000000000000e+03 1.606132507324218750e+01 2.970992851257324219e+01 1.446243561804294586e-02 1.397044777870178223e+00 4.234521687030792236e-01 -2.537822723388671875e-01
3.563000000000000000e+03 2.675833129882812500e+01 2.994537353515625000e+01 -3.177043199539184570e-01 3.487771034240722656e+00 9.510200023651123047e-01 -4.269751906394958496e-01
3.564000000000000000e+03 4.421613311767578125e+01 2.033479499816894531e+01 -7.468836307525634766e-01 6.981179714202880859e+00 1.870288848876953125e+00 3.277949988842010498e-02
3.565000000000000000e+03 4.322700119018554688e+01 1.847400283813476562e+01 -7.482136487960815430e-01 7.011296749114990234e+00 1.878924965858459473e+00 -2.876474149525165558e-02
3.566000000000000000e+03 6.542120361328125000e+01 2.931953430175781250e+01 -2.577611804008483887e-01 8.048065185546875000e+00 2.337091207504272461e+00 3.924575150012969971e-01
3.567000000000000000e+03 4.228726196289062500e+01 2.160580635070800781e+01 -7.706473469734191895e-01 6.654492378234863281e+00 1.765153527259826660e+00 -1.196139007806777954e-01
3.568000000000000000e+03 2.993892288208007812e+01 -3.001879692077636719e+01 -3.501770198345184326e-01 4.441118717193603516e+00 1.227282524108886719e+00 7.886444330215454102e-01
3.569000000000000000e+03 4.595972824096679688e+01 3.046764731407165527e-01 1.439596176147460938e+00 8.687360763549804688e+00 3.038087129592895508e+00 1.074830293655395508e+00
3.570000000000000000e+03 4.420141983032226562e+01 1.657937288284301758e+00 9.392782449722290039e-01 9.011308670043945312e+00 2.985176086425781250e+00 9.837589263916015625e-01
3.571000000000000000e+03 4.318528366088867188e+01 1.482644796371459961e+00 8.766409158706665039e-01 9.242807388305664062e+00 3.035834312438964844e+00 9.100149869918823242e-01
3.572000000000000000e+03 4.532799148559570312e+01 -3.205299377441406250e+00 2.701309919357299805e+00 8.626989364624023438e+00 3.398489713668823242e+00 8.884709477424621582e-01
3.573000000000000000e+03 4.545627212524414062e+01 -4.594605922698974609e+00 3.024372339248657227e+00 8.475319862365722656e+00 3.449907779693603516e+00 5.856898427009582520e-01
3.574000000000000000e+03 4.661875915527343750e+01 -1.489210247993469238e+00 1.981731772422790527e+00 8.478240966796875000e+00 3.137991666793823242e+00 9.992448091506958008e-01
3.575000000000000000e+03 4.739936065673828125e+01 -7.415138721466064453e+00 2.699076175689697266e+00 8.136590957641601562e+00 3.250699996948242188e+00 -1.556727439165115356e-01
3.576000000000000000e+03 4.565357589721679688e+01 -9.591068267822265625e+00 2.684481620788574219e+00 8.558135032653808594e+00 3.372785091400146484e+00 -7.542790174484252930e-01
3.577000000000000000e+03 4.513349151611328125e+01 5.495222210884094238e-01 1.355586647987365723e+00 8.848385810852050781e+00 3.061191797256469727e+00 1.082405567169189453e+00
3.578000000000000000e+03 4.485566329956054688e+01 -9.229259490966796875e-01 1.923780679702758789e+00 8.902309417724609375e+00 3.247827053070068359e+00 1.124035477638244629e+00
3.579000000000000000e+03 4.624110031127929688e+01 -8.806117177009582520e-01 1.800768136978149414e+00 8.590950965881347656e+00 3.117515802383422852e+00 1.061701416969299316e+00
3.580000000000000000e+03 4.845186614990234375e+01 -5.772067546844482422e+00 2.512538671493530273e+00 8.011937141418457031e+00 3.157342672348022461e+00 2.228383272886276245e-01
3.581000000000000000e+03 1.229414749145507812e+01 2.936421966552734375e+01 6.187758967280387878e-02 8.077235817909240723e-01 2.608803510665893555e-01 -1.271504461765289307e-01
3.582000000000000000e+03 1.393288040161132812e+01 3.125308609008789062e+01 2.970957569777965546e-02 1.105143427848815918e+00 3.404558897018432617e-01 -1.665635555982589722e-01
3.583000000000000000e+03 5.077631759643554688e+01 1.697423553466796875e+01 -5.199511647224426270e-01 7.688959121704101562e+00 2.150702476501464844e+00 5.374381542205810547e-01
3.584000000000000000e+03 4.902389907836914062e+01 2.053601837158203125e+01 -6.626804471015930176e-01 7.413592815399169922e+00 2.025273799896240234e+00 3.347694873809814453e-01
3.585000000000000000e+03 2.403325653076171875e+01 2.851584053039550781e+01 -2.162918746471405029e-01 2.900907993316650391e+00 8.053848743438720703e-01 -4.573340415954589844e-01
3.586000000000000000e+03 4.596248245239257812e+01 -2.760022735595703125e+01 -7.814332842826843262e-01 7.900768756866455078e+00 2.135800600051879883e+00 -2.088057100772857666e-01
3.587000000000000000e+03 4.617007064819335938e+01 1.906805038452148438e+01 -7.134953141212463379e-01 7.290518283843994141e+00 1.973106861114501953e+00 1.993001699447631836e-01
3.588000000000000000e+03 3.740117263793945312e+01 2.085966682434082031e+01 -6.933145523071289062e-01 5.895180225372314453e+00 1.560559630393981934e+00 -4.642240405082702637e-01
3.589000000000000000e+03 5.415008926391601562e+01 -2.715819549560546875e+01 -4.461517333984375000e-01 8.013788223266601562e+00 2.270290851593017578e+00 -5.719642043113708496e-01
3.590000000000000000e+03 6.622317504882812500e+01 -2.051985549926757812e+01 1.097933948040008545e-01 7.573163032531738281e+00 2.304886817932128906e+00 -5.161266326904296875e-01
3.591000000000000000e+03 5.840379714965820312e+01 2.375307655334472656e+01 -4.244337975978851318e-01 7.751552581787109375e+00 2.198135614395141602e+00 5.484111905097961426e-01
3.592000000000000000e+03 4.595178604125976562e+01 -5.394297122955322266e+00 3.021302461624145508e+00 8.348823547363281250e+00 3.411037683486938477e+00 3.703535795211791992e-01
3.593000000000000000e+03 4.597657775878906250e+01 -1.504375457763671875e+00 2.050197124481201172e+00 8.613683700561523438e+00 3.199164152145385742e+00 1.035409569740295410e+00
3.594000000000000000e+03 3.665445709228515625e+01 1.682687568664550781e+01 -6.476093530654907227e-01 6.050499439239501953e+00 1.620867013931274414e+00 -6.634263992309570312e-01
3.595000000000000000e+03 6.075212478637695312e+01 -3.239949798583984375e+01 -4.333324730396270752e-01 7.899861812591552734e+00 2.239958763122558594e+00 -4.066894650459289551e-01
3.596000000000000000e+03 6.105551147460937500e+01 -3.536260223388671875e+01 -4.819600284099578857e-01 7.899588108062744141e+00 2.225288391113281250e+00 -2.894648015499114990e-01
3.597000000000000000e+03 5.318075180053710938e+01 -2.260850715637207031e+01 -1.151150539517402649e-01 8.086059570312500000e+00 2.391283512115478516e+00 -7.247358560562133789e-01
3.598000000000000000e+03 4.516745758056640625e+01 -3.045051956176757812e+01 -8.960242271423339844e-01 7.628721237182617188e+00 2.019809246063232422e+00 -8.400983363389968872e-02
3.599000000000000000e+03 3.495238113403320312e+01 2.343880844116210938e+01 -6.124053001403808594e-01 5.262427806854248047e+00 1.395006775856018066e+00 -5.377919673919677734e-01
3.600000000000000000e+03 2.714509582519531250e+01 -2.911274909973144531e+01 -1.076411977410316467e-01 3.525047779083251953e+00 1.025221943855285645e+00 8.103833198547363281e-01
3.601000000000000000e+03 2.942795181274414062e+01 2.519922256469726562e+01 -4.055252969264984131e-01 3.999897003173828125e+00 1.078311562538146973e+00 -6.090776324272155762e-01
3.602000000000000000e+03 2.565775680541992188e+01 2.600293731689453125e+01 -2.606467604637145996e-01 3.212599277496337891e+00 8.855857253074645996e-01 -5.654561519622802734e-01
3.603000000000000000e+03 4.895749282836914062e+01 -2.538301467895507812e+01 -5.371066927909851074e-01 8.114826202392578125e+00 2.273315906524658203e+00 -4.871352016925811768e-01
3.604000000000000000e+03 4.879989624023437500e+01 -2.791976356506347656e+01 -6.987628936767578125e-01 7.993962287902832031e+00 2.188559770584106445e+00 -3.761085569858551025e-01
3.605000000000000000e+03 3.513416290283203125e+01 2.065160369873046875e+01 -6.198365688323974609e-01 5.452603340148925781e+00 1.449830055236816406e+00 -6.218428611755371094e-01
3.606000000000000000e+03 2.320664978027343750e+01 -3.415467834472656250e+01 -2.375062368810176849e-02 2.632119894027709961e+00 7.825107574462890625e-01 3.634186387062072754e-01
3.607000000000000000e+03 2.663080787658691406e+01 -3.410890579223632812e+01 -2.250552922487258911e-01 3.581406831741333008e+00 1.006905436515808105e+00 4.882949292659759521e-01
3.608000000000000000e+03 5.392822265625000000e+01 2.194458007812500000e+01 -5.421290993690490723e-01 7.636720180511474609e+00 2.128377199172973633e+00 5.049569606781005859e-01
3.609000000000000000e+03 6.180945968627929688e+01 2.542280197143554688e+01 -3.615182936191558838e-01 7.849379062652587891e+00 2.246358394622802734e+00 5.249139666557312012e-01
3.610000000000000000e+03 5.774337387084960938e+01 2.651185989379882812e+01 -4.980650544166564941e-01 7.680305480957031250e+00 2.154672145843505859e+00 4.548974037170410156e-01
3.611000000000000000e+03 5.132182312011718750e+01 -2.524703598022460938e+01 -4.225646555423736572e-01 8.093027114868164062e+00 2.301138639450073242e+00 -5.846004486083984375e-01
3.612000000000000000e+03 5.115800094604492188e+01 -2.298961830139160156e+01 -2.271477133035659790e-01 8.154791831970214844e+00 2.378293275833129883e+00 -6.777263879776000977e-01
3.613000000000000000e+03 7.595526885986328125e+01 -3.632621765136718750e+01 -4.157946631312370300e-02 7.834610939025878906e+00 2.337909460067749023e+00 -1.000296398997306824e-01
3.614000000000000000e+03 7.111879730224609375e+01 -3.607147216796875000e+01 -1.427633166313171387e-01 7.789727210998535156e+00 2.294089078903198242e+00 -1.887380778789520264e-01
3.615000000000000000e+03 2.956825447082519531e+01 3.094142150878906250e+01 -4.221418499946594238e-01 3.980320215225219727e+00 1.067453503608703613e+00 -3.689039945602416992e-01
3.616000000000000000e+03 2.814194488525390625e+01 2.742336654663085938e+01 -3.643186092376708984e-01 3.760203838348388672e+00 1.018765568733215332e+00 -5.266597867012023926e-01
3.617000000000000000e+03 1.409851932525634766e+01 2.597415733337402344e+01 6.211047619581222534e-02 8.926709890365600586e-01 2.864344418048858643e-01 -2.598951756954193115e-01
3.618000000000000000e+03 3.820111846923828125e+01 2.607882690429687500e+01 -6.983801126480102539e-01 5.764698505401611328e+00 1.519895553588867188e+00 -2.980011403560638428e-01
3.619000000000000000e+03 3.762330627441406250e+01 2.329337120056152344e+01 -6.961687803268432617e-01 5.797329902648925781e+00 1.530348420143127441e+00 -3.853235840797424316e-01
3.620000000000000000e+03 4.866445922851562500e+01 -3.418547058105468750e+01 -8.996793627738952637e-01 7.727990150451660156e+00 2.048493146896362305e+00 -1.855143308639526367e-01
3.621000000000000000e+03 4.428015518188476562e+01 -3.365311050415039062e+01 -9.598831534385681152e-01 7.374094009399414062e+00 1.924263238906860352e+00 -1.002411637455224991e-02
3.622000000000000000e+03 5.722320175170898438e+01 -3.820901107788085938e+01 -6.754042506217956543e-01 7.914312362670898438e+00 2.171672344207763672e+00 -1.736009269952774048e-01
3.623000000000000000e+03 4.952449417114257812e+01 1.117064857482910156e+01 -2.551912963390350342e-01 7.984511852264404297e+00 2.318796157836914062e+00 7.139808535575866699e-01
3.624000000000000000e+03 5.317513275146484375e+01 1.659095573425292969e+01 -4.192895293235778809e-01 7.772360324859619141e+00 2.205921173095703125e+00 6.668052673339843750e-01
3.625000000000000000e+03 1.354920005798339844e+01 -3.035525894165039062e+01 2.578575909137725830e-01 4.287974238395690918e-01 2.059964984655380249e-01 2.349907765164971352e-03
3.626000000000000000e+03 1.432950210571289062e+01 -3.303779602050781250e+01 2.248417586088180542e-01 6.424571871757507324e-01 2.601896822452545166e-01 3.461036831140518188e-02
3.627000000000000000e+03 1.991061973571777344e+01 -3.367866516113281250e+01 1.137831509113311768e-01 1.856712579727172852e+00 5.911487340927124023e-01 3.060336709022521973e-01
3.628000000000000000e+03 3.291220855712890625e+01 -3.083430290222167969e+01 -5.512743592262268066e-01 5.226984024047851562e+00 1.402712941169738770e+00 7.074357271194458008e-01
3.629000000000000000e+03 6.363987731933593750e+01 3.163114738464355469e+01 -3.259834647178649902e-01 7.955904006958007812e+00 2.288976192474365234e+00 3.352635204792022705e-01
3.630000000000000000e+03 6.195523452758789062e+01 2.911544609069824219e+01 -3.756310641765594482e-01 7.854473590850830078e+00 2.243652820587158203e+00 4.147611558437347412e-01
3.631000000000000000e+03 7.131308746337890625e+01 -4.070976257324218750e+01 -1.397871077060699463e-01 7.829006195068359375e+00 2.306765794754028320e+00 -5.365802347660064697e-02
3.632000000000000000e+03 5.507703399658203125e+01 2.561863136291503906e+01 -5.610847473144531250e-01 7.573911190032958984e+00 2.103847980499267578e+00 4.225263297557830811e-01
3.633000000000000000e+03 1.779090881347656250e+01 -3.000136947631835938e+01 2.345638573169708252e-01 1.206817984580993652e+00 4.324145615100860596e-01 2.642467916011810303e-01
3.634000000000000000e+03 1.691375160217285156e+01 3.688051223754882812e+01 -7.282135635614395142e-02 1.745338439941406250e+00 5.017551183700561523e-01 -1.185296699404716492e-01
3.635000000000000000e+03 5.130185317993164062e+01 1.978249740600585938e+01 -6.011624932289123535e-01 7.554014682769775391e+00 2.085855722427368164e+00 4.688924849033355713e-01
3.636000000000000000e+03 2.143129730224609375e+01 2.721357345581054688e+01 -1.308838129043579102e-01 2.384931325912475586e+00 6.762142777442932129e-01 -4.532635509967803955e-01
3.637000000000000000e+03 3.293636322021484375e+01 1.956779670715332031e+01 -5.172981619834899902e-01 4.984750747680664062e+00 1.340235829353332520e+00 -7.842289209365844727e-01
3.638000000000000000e+03 5.609323883056640625e+01 1.827158546447753906e+01 -3.905075490474700928e-01 7.785388469696044922e+00 2.218464136123657227e+00 6.753938794136047363e-01
3.639000000000000000e+03 6.560264587402343750e+01 -3.808451461791992188e+01 -3.325029611587524414e-01 7.858614444732666016e+00 2.257833480834960938e+00 -1.689805537462234497e-01
3.640000000000000000e+03 6.745136260986328125e+01 3.086305236816406250e+01 -2.154487073421478271e-01 8.142275810241699219e+00 2.378048181533813477e+00 3.329286575317382812e-01
3.641000000000000000e+03 5.079949188232421875e+01 1.417254829406738281e+01 -4.081634283065795898e-01 7.825105667114257812e+00 2.225082635879516602e+00 6.415825486183166504e-01
3.642000000000000000e+03 5.453887176513671875e+01 -2.954221153259277344e+01 -5.359445214271545410e-01 7.989970684051513672e+00 2.236207723617553711e+00 -4.916341304779052734e-01
3.643000000000000000e+03 1.261028289794921875e+01 -3.733847045898437500e+01 1.502923816442489624e-01 6.076679229736328125e-01 2.273880988359451294e-01 6.247769109904766083e-03
3.644000000000000000e+03 3.491402816772460938e+01 -3.492194366455078125e+01 -7.430545687675476074e-01 5.714611530303955078e+00 1.491467118263244629e+00 3.392632603645324707e-01
3.645000000000000000e+03 2.291375541687011719e+01 -3.742996597290039062e+01 -7.803180068731307983e-02 2.634249925613403320e+00 7.668654322624206543e-01 2.190325260162353516e-01
3.646000000000000000e+03 4.337472915649414062e+01 -3.712554931640625000e+01 -9.952536821365356445e-01 7.149713516235351562e+00 1.846337914466857910e+00 1.872088387608528137e-02
3.647000000000000000e+03 3.711574935913085938e+01 3.698014450073242188e+01 -6.402118206024169922e-01 5.297881603240966797e+00 1.397300958633422852e+00 -9.877344220876693726e-02
3.648000000000000000e+03 5.269403457641601562e+01 -3.793042755126953125e+01 -8.465833067893981934e-01 7.833673477172851562e+00 2.096127033233642578e+00 -1.498240679502487183e-01
3.649000000000000000e+03 5.713527679443359375e+01 3.696061706542968750e+01 -5.385702252388000488e-01 7.527891159057617188e+00 2.096796274185180664e+00 1.425828933715820312e-01
3.650000000000000000e+03 6.170436477661132812e+01 3.685926818847656250e+01 -3.902637064456939697e-01 7.837651252746582031e+00 2.234216213226318359e+00 1.730384230613708496e-01
3.651000000000000000e+03 6.218816375732421875e+01 -4.113195419311523438e+01 -4.931739270687103271e-01 7.901678085327148438e+00 2.222551345825195312e+00 -5.516279116272926331e-02
3.652000000000000000e+03 6.621173095703125000e+01 3.694023132324218750e+01 -2.509796917438507080e-01 8.116981506347656250e+00 2.359800338745117188e+00 1.713922321796417236e-01
3.653000000000000000e+03 2.824947929382324219e+01 3.717410659790039062e+01 -3.933331966400146484e-01 3.728478670120239258e+00 1.000543594360351562e+00 -1.627669036388397217e-01
3.654000000000000000e+03 4.233941650390625000e+01 2.786226081848144531e+01 -7.316700220108032227e-01 6.319899559020996094e+00 1.676468849182128906e+00 -8.862680196762084961e-02
3.655000000000000000e+03 4.697126388549804688e+01 2.120755195617675781e+01 -7.057667374610900879e-01 7.252523422241210938e+00 1.964026927947998047e+00 2.223119139671325684e-01
3.656000000000000000e+03 4.886871337890625000e+01 -3.087077522277832031e+01 -8.167588710784912109e-01 7.858194828033447266e+00 2.112430810928344727e+00 -2.786374986171722412e-01
3.657000000000000000e+03 5.289680099487304688e+01 2.435208129882812500e+01 -5.861894488334655762e-01 7.509642601013183594e+00 2.077035903930664062e+00 4.046122431755065918e-01
3.658000000000000000e+03 5.986711883544921875e+01 2.994969558715820312e+01 -4.534195363521575928e-01 7.753498077392578125e+00 2.190023660659790039e+00 3.732339143753051758e-01
3.659000000000000000e+03 2.542178535461425781e+01 3.295050430297851562e+01 -2.876565158367156982e-01 3.185149192810058594e+00 8.692477941513061523e-01 -3.215689361095428467e-01
3.660000000000000000e+03 3.079777526855468750e+01 2.866639328002929688e+01 -4.672565460205078125e-01 4.314228057861328125e+00 1.154091477394104004e+00 -4.514218866825103760e-01
3.661000000000000000e+03 1.567939758300781250e+01 -3.556226348876953125e+01 1.550282686948776245e-01 1.063873410224914551e+00 3.656705021858215332e-01 6.754151731729507446e-02
3.662000000000000000e+03 5.199368667602539062e+01 -3.024179267883300781e+01 -6.837392449378967285e-01 7.946475028991699219e+00 2.178820848464965820e+00 -4.094372689723968506e-01
3.663000000000000000e+03 3.268672943115234375e+01 3.393095397949218750e+01 -5.366294384002685547e-01 4.594097137451171875e+00 1.217240333557128906e+00 -2.437537908554077148e-01
3.664000000000000000e+03 5.067116546630859375e+01 2.671994209289550781e+01 -6.675451993942260742e-01 7.257513523101806641e+00 1.976990461349487305e+00 2.592518627643585205e-01
3.665000000000000000e+03 2.380872726440429688e+01 3.644950485229492188e+01 -2.377820014953613281e-01 2.874312400817871094e+00 7.909591197967529297e-01 -1.870172023773193359e-01
3.666000000000000000e+03 4.696056365966796875e+01 2.366692924499511719e+01 -7.369121313095092773e-01 7.078775405883789062e+00 1.902559041976928711e+00 1.698572635650634766e-01
3.667000000000000000e+03 5.176252365112304688e+01 2.239214897155761719e+01 -6.130446195602416992e-01 7.494870185852050781e+00 2.064547538757324219e+00 4.254290461540222168e-01
3.668000000000000000e+03 4.525627899169921875e+01 2.607243347167968750e+01 -7.425205707550048828e-01 6.792913436889648438e+00 1.815117835998535156e+00 6.085291504859924316e-02
3.669000000000000000e+03 3.268087005615234375e+01 3.731079483032226562e+01 -5.354489088058471680e-01 4.548896789550781250e+00 1.204034328460693359e+00 -1.463427394628524780e-01
3.670000000000000000e+03 6.076191329956054688e+01 3.310288238525390625e+01 -4.146362841129302979e-01 7.793438434600830078e+00 2.213640689849853516e+00 2.798185050487518311e-01
3.671000000000000000e+03 4.384594726562500000e+01 3.094400215148925781e+01 -7.487844228744506836e-01 6.368171215057373047e+00 1.685816049575805664e+00 -2.074986509978771210e-02
3.672000000000000000e+03 4.543405914306640625e+01 3.436451339721679688e+01 -7.252306938171386719e-01 6.496158599853515625e+00 1.731278419494628906e+00 1.888885349035263062e-02
3.673000000000000000e+03 5.359938812255859375e+01 2.884802246093750000e+01 -6.071438789367675781e-01 7.378542900085449219e+00 2.031419754028320312e+00 2.969717681407928467e-01
3.674000000000000000e+03 5.268481063842773438e+01 3.677080917358398438e+01 -6.411542296409606934e-01 7.165108203887939453e+00 1.957186222076416016e+00 1.141041442751884460e-01
3.675000000000000000e+03 4.743190002441406250e+01 2.902263069152832031e+01 -7.259163260459899902e-01 6.910151481628417969e+00 1.855270504951477051e+00 1.274831891059875488e-01
3.676000000000000000e+03 4.837628173828125000e+01 3.638323593139648438e+01 -6.977288722991943359e-01 6.772992134094238281e+00 1.822579026222229004e+00 5.401287227869033813e-02
3.677000000000000000e+03 1.807993888854980469e+01 -7.638371944427490234e+00 -1.765880286693572998e-01 -1.660957783460617065e-01 -1.028051376342773438e-01 -1.975329071283340454e-01
3.678000000000000000e+03 1.781014251708984375e+01 -8.005686759948730469e+00 -2.424622327089309692e-01 -2.724950015544891357e-01 -1.544871777296066284e-01 -2.744228243827819824e-01
3.679000000000000000e+03 1.858812713623046875e+01 -3.509536266326904297e+00 -2.262754132971167564e-03 -2.983101904392242432e-01 -9.017188102006912231e-02 3.467060998082160950e-02
3.680000000000000000e+03 4.001506567001342773e-01 -2.190498352050781250e+00 -5.982414222671650350e-05 -9.236462210537865758e-05 -4.565662675304338336e-05 3.238502904423512518e-05
3.681000000000000000e+03 3.877654373645782471e-01 2.095474481582641602e+00 3.973118873545899987e-05 5.718685861211270094e-05 2.907541420427151024e-05 -1.139953837991924956e-05
3.682000000000000000e+03 3.258973693847656250e+01 -5.098386764526367188e+00 3.085057258605957031e+00 1.266699552536010742e+00 1.305527091026306152e+00 -2.265522480010986328e+00
3.683000000000000000e+03 3.336080932617187500e+01 -5.111412525177001953e+00 4.176660537719726562e+00 3.059548139572143555e+00 2.170862674713134766e+00 -3.971822977066040039e+00
3.684000000000000000e+03 3.308817672729492188e+01 -4.947063446044921875e+00 3.797936677932739258e+00 2.636424303054809570e+00 1.930308222770690918e+00 -3.583642959594726562e+00
3.685000000000000000e+03 3.347466278076171875e+01 -4.792934417724609375e+00 4.289181232452392578e+00 4.523267745971679688e+00 2.643734693527221680e+00 -4.694325923919677734e+00
3.686000000000000000e+03 3.318958282470703125e+01 -4.608434677124023438e+00 3.831619262695312500e+00 3.779296159744262695e+00 2.283274650573730469e+00 -4.236136913299560547e+00
3.687000000000000000e+03 3.438768005371093750e+01 -5.097903251647949219e+00 4.502341747283935547e+00 9.890558242797851562e+00 4.317869663238525391e+00 -6.837887763977050781e+00
3.688000000000000000e+03 3.422215652465820312e+01 -4.849122047424316406e+00 4.184111595153808594e+00 8.726605415344238281e+00 3.873214960098266602e+00 -6.319027423858642578e+00
3.689000000000000000e+03 3.457349014282226562e+01 -4.821456909179687500e+00 3.530685901641845703e+00 1.184334278106689453e+01 4.612208366394042969e+00 -6.477793693542480469e+00
3.690000000000000000e+03 3.478253936767578125e+01 -4.768066406250000000e+00 2.976273775100708008e+00 1.342417812347412109e+01 4.920135498046875000e+00 -5.999655246734619141e+00
3.691000000000000000e+03 3.523611831665039062e+01 -4.738196849822998047e+00 2.327464580535888672e+00 1.637851142883300781e+01 5.611793041229248047e+00 -4.442773818969726562e+00
3.692000000000000000e+03 3.501395034790039062e+01 -4.717218875885009766e+00 2.494092702865600586e+00 1.508667850494384766e+01 5.274231433868408203e+00 -5.288445472717285156e+00
3.693000000000000000e+03 3.544493103027343750e+01 -4.769456863403320312e+00 2.262880086898803711e+00 1.774004364013671875e+01 6.000877380371093750e+00 -3.443418264389038086e+00
3.694000000000000000e+03 3.637498474121093750e+01 -5.102760314941406250e+00 4.636493682861328125e+00 1.850960922241210938e+01 6.943830966949462891e+00 1.081614971160888672e+00
3.695000000000000000e+03 3.656811904907226562e+01 -5.235506057739257812e+00 5.699375152587890625e+00 1.813677978515625000e+01 7.150846481323242188e+00 1.808381795883178711e+00
3.696000000000000000e+03 3.687302017211914062e+01 -5.232835292816162109e+00 6.026381492614746094e+00 1.686673736572265625e+01 6.867935657501220703e+00 1.978159308433532715e+00
3.697000000000000000e+03 3.683163452148437500e+01 -5.554507255554199219e+00 7.523477554321289062e+00 1.707376098632812500e+01 7.379171371459960938e+00 2.277509927749633789e+00
3.698000000000000000e+03 3.668230819702148438e+01 -6.127647399902343750e+00 1.094222640991210938e+01 1.716517639160156250e+01 8.432220458984375000e+00 2.027475833892822266e+00
3.699000000000000000e+03 3.725516510009765625e+01 -6.436368465423583984e+00 1.038053417205810547e+01 1.468567848205566406e+01 7.519863605499267578e+00 5.709525942802429199e-01
3.700000000000000000e+03 3.681429290771484375e+01 -6.777305603027343750e+00 1.209922409057617188e+01 1.608175849914550781e+01 8.454295158386230469e+00 -4.814796447753906250e-01
3.701000000000000000e+03 3.667703247070312500e+01 -7.199500560760498047e+00 1.119496154785156250e+01 1.719466781616210938e+01 8.516888618469238281e+00 -2.158625602722167969e+00
3.702000000000000000e+03 3.650793457031250000e+01 -7.579295635223388672e+00 8.588636398315429688e+00 1.874342918395996094e+01 8.199620246887207031e+00 -2.885860204696655273e+00
3.703000000000000000e+03 3.639956283569335938e+01 -7.757422447204589844e+00 7.185831069946289062e+00 1.942505455017089844e+01 7.983265876770019531e+00 -2.673397302627563477e+00
3.704000000000000000e+03 3.613031005859375000e+01 -8.111764907836914062e+00 4.342172622680664062e+00 2.021474266052246094e+01 7.367074489593505859e+00 -1.115019917488098145e+00
3.705000000000000000e+03 3.581999206542968750e+01 -8.641286849975585938e+00 1.980345726013183594e+00 1.860116767883300781e+01 6.174454212188720703e+00 1.521702885627746582e+00
3.706000000000000000e+03 1.297399997711181641e+00 2.717333793640136719e+00 -7.281357102328911424e-05 1.087866621674038470e-04 1.079192770703230053e-05 3.774077777052298188e-05
3.707000000000000000e+03 1.839345741271972656e+01 -7.894466876983642578e+00 -3.228960335254669189e-01 -1.719111651182174683e-01 -1.484421640634536743e-01 -3.343316912651062012e-01
3.708000000000000000e+03 3.776340866088867188e+01 -7.366458892822265625e+00 8.337487220764160156e+00 1.355440711975097656e+01 6.567568302154541016e+00 -1.427657485008239746e+00
3.709000000000000000e+03 3.741914367675781250e+01 -7.486454010009765625e+00 8.510595321655273438e+00 1.460553169250488281e+01 6.934838294982910156e+00 -1.894240260124206543e+00
3.710000000000000000e+03 3.749865722656250000e+01 -7.281243801116943359e+00 8.948551177978515625e+00 1.412975311279296875e+01 6.923491001129150391e+00 -1.455845236778259277e+00
3.711000000000000000e+03 3.196248626708984375e+01 -4.397111892700195312e+00 2.720439195632934570e+00 1.565724015235900879e+00 1.285848975181579590e+00 -2.282254695892333984e+00
3.712000000000000000e+03 3.251325225830078125e+01 -4.569269180297851562e+00 3.227644920349121094e+00 2.175433635711669922e+00 1.620923519134521484e+00 -2.938770771026611328e+00
3.713000000000000000e+03 3.778183364868164062e+01 -6.589063644409179688e+00 9.148801803588867188e+00 1.330348682403564453e+01 6.735686779022216797e+00 1.148110851645469666e-01
3.714000000000000000e+03 9.942092895507812500e+00 -2.138435173034667969e+01 -1.266038566827774048e-01 -4.806516170501708984e-01 -1.821766346693038940e-01 -3.925862610340118408e-01
3.715000000000000000e+03 6.626954650878906250e+01 -3.229651260375976562e+01 -2.470739185810089111e-01 7.805126667022705078e+00 2.267416000366210938e+00 -3.702900707721710205e-01
3.716000000000000000e+03 1.761099052429199219e+01 -7.477725505828857422e+00 -1.142772957682609558e-01 -2.835778594017028809e-01 -1.193565502762794495e-01 -1.814815849065780640e-01
3.717000000000000000e+03 3.711549377441406250e+01 -5.781326293945312500e+00 8.511264801025390625e+00 1.565578746795654297e+01 7.250115394592285156e+00 2.006769180297851562e+00
3.718000000000000000e+03 3.215748596191406250e+01 -3.800251960754394531e+00 2.903594255447387695e+00 2.616952419281005859e+00 1.656163930892944336e+00 -3.006973028182983398e+00
3.719000000000000000e+03 3.469129562377929688e+01 -8.939674377441406250e+00 2.109861612319946289e+00 1.216132831573486328e+01 4.281357288360595703e+00 5.593211650848388672e+00
3.720000000000000000e+03 3.430088424682617188e+01 -8.911029815673828125e+00 2.704710006713867188e+00 9.466287612915039062e+00 3.651299476623535156e+00 5.762763023376464844e+00
3.721000000000000000e+03 3.734926986694335938e+01 -7.006504535675048828e+00 9.904277801513671875e+00 1.436827278137207031e+01 7.281764984130859375e+00 -9.882646799087524414e-01
3.722000000000000000e+03 3.725487518310546875e+01 -7.190677165985107422e+00 9.763778686523437500e+00 1.485881233215332031e+01 7.386777400970458984e+00 -1.532243490219116211e+00
3.723000000000000000e+03 3.451299667358398438e+01 -4.579775810241699219e+00 3.163499116897583008e+00 1.109489727020263672e+01 4.277519226074218750e+00 -5.972939014434814453e+00
3.724000000000000000e+03 3.462063217163085938e+01 -4.201895713806152344e+00 2.486277103424072266e+00 1.162487220764160156e+01 4.233344554901123047e+00 -5.342196464538574219e+00
3.725000000000000000e+03 3.386217880249023438e+01 -4.319222450256347656e+00 3.542315959930419922e+00 7.217086315155029297e+00 3.227820634841918945e+00 -5.435991287231445312e+00
3.726000000000000000e+03 3.361776733398437500e+01 -4.098620891571044922e+00 3.405150890350341797e+00 6.330126762390136719e+00 2.920583248138427734e+00 -4.979456424713134766e+00
3.727000000000000000e+03 3.357375717163085938e+01 -4.597271442413330078e+00 3.878414630889892578e+00 5.418941497802734375e+00 2.789206743240356445e+00 -4.885517597198486328e+00
3.728000000000000000e+03 3.344273376464843750e+01 -4.346375465393066406e+00 3.757532835006713867e+00 5.142488479614257812e+00 2.670006513595581055e+00 -4.767382621765136719e+00
3.729000000000000000e+03 3.496738433837890625e+01 -4.384124755859375000e+00 2.264541625976562500e+00 1.391876888275146484e+01 4.854993343353271484e+00 -4.971752166748046875e+00
3.730000000000000000e+03 3.703156661987304688e+01 -7.820201396942138672e+00 7.322349071502685547e+00 1.626343536376953125e+01 7.075735092163085938e+00 -2.385909080505371094e+00
3.731000000000000000e+03 3.351369857788085938e+01 -8.906570434570312500e+00 3.105308294296264648e+00 5.100281715393066406e+00 2.461677074432373047e+00 4.743130683898925781e+00
3.732000000000000000e+03 3.387703323364257812e+01 -9.373568534851074219e+00 2.506762981414794922e+00 7.430584430694580078e+00 2.981204271316528320e+00 5.127082347869873047e+00
3.733000000000000000e+03 3.565558242797851562e+01 -4.406390666961669922e+00 1.907152295112609863e+00 1.654263114929199219e+01 5.534934997558593750e+00 -2.533216476440429688e+00
3.734000000000000000e+03 7.804645538330078125e+01 -3.569454574584960938e+01 -1.642841845750808716e-02 7.851288318634033203e+00 2.350457906723022461e+00 -5.333375185728073120e-02
3.735000000000000000e+03 3.660417175292968750e+01 -4.954134941101074219e+00 4.456409454345703125e+00 1.744351577758789062e+01 6.569977760314941406e+00 1.262250423431396484e+00
3.736000000000000000e+03 3.614095306396484375e+01 -4.381414890289306641e+00 2.248111248016357422e+00 1.687751197814941406e+01 5.737687110900878906e+00 -9.009261727333068848e-01
3.737000000000000000e+03 3.663179779052734375e+01 -4.660432815551757812e+00 3.697459459304809570e+00 1.689985466003417969e+01 6.179194450378417969e+00 8.421353697776794434e-01
3.738000000000000000e+03 3.822692871093750000e+01 -6.908567905426025391e+00 8.212078094482421875e+00 1.251246738433837891e+01 6.217363834381103516e+00 -4.977618157863616943e-01
3.739000000000000000e+03 3.575935745239257812e+01 -9.088233947753906250e+00 1.325538277626037598e+00 1.650193595886230469e+01 5.348242282867431641e+00 2.198778629302978516e+00
3.740000000000000000e+03 3.178334712982177734e+00 3.723409271240234375e+01 3.018173761665821075e-02 -2.813119888305664062e-01 -7.533907145261764526e-02 -3.082151710987091064e-02
3.741000000000000000e+03 3.504575729370117188e+01 -8.983356475830078125e+00 1.581882715225219727e+00 1.421920108795166016e+01 4.740324974060058594e+00 4.783636569976806641e+00
3.742000000000000000e+03 3.488066101074218750e+01 -9.221963882446289062e+00 1.599327087402343750e+00 1.290320301055908203e+01 4.350759029388427734e+00 4.824431419372558594e+00
3.743000000000000000e+03 3.201691436767578125e+01 -9.029334068298339844e+00 2.010227441787719727e+00 1.585547089576721191e+00 1.078732371330261230e+00 2.302245140075683594e+00
3.744000000000000000e+03 3.140406990051269531e+01 -9.614636421203613281e+00 1.685247421264648438e+00 1.553958892822265625e+00 9.717618823051452637e-01 2.097403764724731445e+00
3.745000000000000000e+03 3.804233789443969727e+00 -3.684230804443359375e+01 6.506940722465515137e-02 -8.436313271522521973e-01 -2.335685789585113525e-01 -7.140230387449264526e-02
3.746000000000000000e+03 4.001358985900878906e+00 -3.501741790771484375e+01 7.209809124469757080e-02 -6.720200777053833008e-01 -1.799765974283218384e-01 -1.100284457206726074e-01
3.747000000000000000e+03 3.717356491088867188e+01 -7.391842365264892578e+00 9.244638442993164062e+00 1.537047576904296875e+01 7.384534358978271484e+00 -2.035892486572265625e+00
3.748000000000000000e+03 3.351011276245117188e+01 -9.381250381469726562e+00 2.678050756454467773e+00 5.854742050170898438e+00 2.559837818145751953e+00 4.687424182891845703e+00
3.749000000000000000e+03 3.337132644653320312e+01 -9.667144775390625000e+00 2.441119670867919922e+00 5.584218978881835938e+00 2.407601594924926758e+00 4.414706707000732422e+00
3.750000000000000000e+03 3.379758834838867188e+01 -9.781588554382324219e+00 2.180988788604736328e+00 7.499564647674560547e+00 2.904165983200073242e+00 4.837119102478027344e+00
3.751000000000000000e+03 3.281999206542968750e+01 -4.394981384277343750e+00 3.456028699874877930e+00 3.122759342193603516e+00 1.973636388778686523e+00 -3.614089965820312500e+00
3.752000000000000000e+03 3.305690765380859375e+01 -3.902564048767089844e+00 3.256986141204833984e+00 4.549391746520996094e+00 2.341913461685180664e+00 -4.190307140350341797e+00
3.753000000000000000e+03 3.755924987792968750e+01 -7.085453033447265625e+00 9.253319740295410156e+00 1.390202617645263672e+01 6.946603775024414062e+00 -1.070896863937377930e+00
3.754000000000000000e+03 3.339523696899414062e+01 -4.583966732025146484e+00 3.724283218383789062e+00 4.319720745086669922e+00 2.413201332092285156e+00 -4.443064212799072266e+00
3.755000000000000000e+03 3.314179229736328125e+01 -4.285930156707763672e+00 3.592529773712158203e+00 4.287821292877197266e+00 2.364105224609375000e+00 -4.231643676757812500e+00
3.756000000000000000e+03 3.737476348876953125e+01 -5.765179634094238281e+00 8.296167373657226562e+00 1.479006099700927734e+01 6.925868511199951172e+00 1.774130344390869141e+00
3.757000000000000000e+03 3.440652847290039062e+01 -4.362507820129394531e+00 2.995824575424194336e+00 1.035630512237548828e+01 4.005639076232910156e+00 -5.668623447418212891e+00
3.758000000000000000e+03 3.599505233764648438e+01 -9.359584808349609375e+00 1.254615902900695801e+00 1.596279621124267578e+01 5.165223598480224609e+00 1.528959989547729492e+00
3.759000000000000000e+03 3.715679931640625000e+01 -4.745249748229980469e+00 4.631056308746337891e+00 1.562014579772949219e+01 6.075360774993896484e+00 1.578937649726867676e+00
3.760000000000000000e+03 9.075723648071289062e+00 -2.270756340026855469e+01 -2.479882352054119110e-02 -3.954854607582092285e-01 -1.260852813720703125e-01 -4.036509990692138672e-01
3.761000000000000000e+03 3.687159729003906250e+01 -9.234491348266601562e+00 2.442656755447387695e+00 1.571356868743896484e+01 5.446867465972900391e+00 -6.949782371520996094e-01
3.762000000000000000e+03 3.235595321655273438e+01 -3.211008310317993164e+00 2.705830335617065430e+00 3.677167654037475586e+00 1.914899349212646484e+00 -3.410707235336303711e+00
3.763000000000000000e+03 3.804651641845703125e+01 -7.491599559783935547e+00 7.635976314544677734e+00 1.305604076385498047e+01 6.207605361938476562e+00 -1.447144985198974609e+00
3.764000000000000000e+03 3.304684829711914062e+01 -1.043187046051025391e+01 1.992787241935729980e+00 5.350021362304687500e+00 2.202842473983764648e+00 4.007564067840576172e+00
3.765000000000000000e+03 3.408418273925781250e+01 -4.318381309509277344e+00 3.387773990631103516e+00 8.329004287719726562e+00 3.515033483505249023e+00 -5.605241775512695312e+00
3.766000000000000000e+03 3.638696289062500000e+01 -4.558465003967285156e+00 2.963762283325195312e+00 1.711841773986816406e+01 6.024654388427734375e+00 8.024004846811294556e-02
3.767000000000000000e+03 3.667129516601562500e+01 -3.953183412551879883e+00 2.250843048095703125e+00 1.537934112548828125e+01 5.289055347442626953e+00 -1.175868436694145203e-01
3.768000000000000000e+03 3.240459823608398438e+01 3.078336715698242188e+01 -5.351452827453613281e-01 4.572906017303466797e+00 1.211328148841857910e+00 -3.484018743038177490e-01
3.769000000000000000e+03 3.812772750854492188e+01 -5.885365962982177734e+00 7.692339897155761719e+00 1.288577365875244141e+01 6.173434257507324219e+00 1.153847455978393555e+00
3.770000000000000000e+03 3.758713912963867188e+01 -5.603122711181640625e+00 7.568211555480957031e+00 1.422346878051757812e+01 6.537504196166992188e+00 1.772482037544250488e+00
3.771000000000000000e+03 3.713125610351562500e+01 -5.519860744476318359e+00 7.334292411804199219e+00 1.577794647216796875e+01 6.933671951293945312e+00 2.102873563766479492e+00
3.772000000000000000e+03 3.737784194946289062e+01 -5.533095836639404297e+00 7.285276412963867188e+00 1.498936557769775391e+01 6.682392597198486328e+00 1.925937652587890625e+00
3.773000000000000000e+03 3.491120147705078125e+01 -9.779770851135253906e+00 1.171951413154602051e+00 1.200786495208740234e+01 3.953944921493530273e+00 4.250723838806152344e+00
3.774000000000000000e+03 6.111067962646484375e+01 -2.659986305236816406e+01 -2.082054615020751953e-01 7.853631973266601562e+00 2.293627977371215820e+00 -5.816907286643981934e-01
3.775000000000000000e+03 4.108781814575195312e+00 -2.255722045898437500e+01 -6.243912130594253540e-02 -2.376276254653930664e-01 -9.002002328634262085e-02 -2.904979586601257324e-01
3.776000000000000000e+03 3.701358795166015625e+01 -4.321467876434326172e+00 3.318529844284057617e+00 1.549905395507812500e+01 5.645275115966796875e+00 9.327578544616699219e-01
3.777000000000000000e+03 8.289204597473144531e+00 2.327883529663085938e+01 2.908927574753761292e-02 1.089354380965232849e-01 4.140741378068923950e-02 7.492880523204803467e-02
3.778000000000000000e+03 3.398683547973632812e+01 -4.122889995574951172e+00 3.123664617538452148e+00 7.942391872406005859e+00 3.319816827774047852e+00 -5.289326667785644531e+00
3.779000000000000000e+03 3.359073638916015625e+01 -9.763449668884277344e+00 2.292656183242797852e+00 6.595436096191406250e+00 2.666427612304687500e+00 4.598176479339599609e+00
3.780000000000000000e+03 3.330463409423828125e+01 -9.978356361389160156e+00 2.207243204116821289e+00 5.663477420806884766e+00 2.361216306686401367e+00 4.283924579620361328e+00
3.781000000000000000e+03 3.407912826538085938e+01 -3.809732437133789062e+00 2.664189338684082031e+00 8.451050758361816406e+00 3.334571838378906250e+00 -5.050738334655761719e+00
3.782000000000000000e+03 3.446133041381835938e+01 -3.988344430923461914e+00 2.430413722991943359e+00 1.064045715332031250e+01 3.921261310577392578e+00 -5.115841388702392578e+00
3.783000000000000000e+03 3.415576171875000000e+01 -4.005977153778076172e+00 2.878655195236206055e+00 8.819869041442871094e+00 3.509557247161865234e+00 -5.289534568786621094e+00
3.784000000000000000e+03 3.408926391601562500e+01 -3.514144420623779297e+00 2.406924009323120117e+00 8.635348320007324219e+00 3.312681913375854492e+00 -4.790504455566406250e+00
3.785000000000000000e+03 3.148940086364746094e+00 1.870315361022949219e+01 -3.286020830273628235e-02 -1.317010261118412018e-02 -1.380909327417612076e-02 4.618149250745773315e-02
3.786000000000000000e+03 9.849862098693847656e+00 -3.660963296890258789e+00 3.937049186788499355e-04 -1.070198835805058479e-03 -2.029481838690117002e-04 9.523112385068088770e-05
3.787000000000000000e+03 3.688286972045898438e+01 -8.259536743164062500e+00 5.340012073516845703e+00 1.692890357971191406e+01 6.680674552917480469e+00 -2.135698318481445312e+00
3.788000000000000000e+03 3.126170539855957031e+01 -3.602215766906738281e+00 2.318402767181396484e+00 1.704499840736389160e+00 1.206870794296264648e+00 -2.097432613372802734e+00
3.789000000000000000e+03 2.243730163574218750e+01 -2.102156639099121094e+00 1.946230977773666382e-01 1.173364557325839996e-02 6.190702319145202637e-02 1.972348690032958984e-01
3.790000000000000000e+03 3.491994857788085938e+01 -1.040484237670898438e+01 9.011382460594177246e-01 1.114187717437744141e+01 3.612904548645019531e+00 3.780676364898681641e+00
3.791000000000000000e+03 3.413670349121093750e+01 -1.003299427032470703e+01 1.716219902038574219e+00 8.703635215759277344e+00 3.125956535339355469e+00 4.676945686340332031e+00
3.792000000000000000e+03 3.311522293090820312e+01 -2.952009916305541992e+00 2.507762432098388672e+00 5.655660629272460938e+00 2.449026823043823242e+00 -4.111080169677734375e+00
3.793000000000000000e+03 3.727433395385742188e+01 -9.778969764709472656e+00 1.987849831581115723e+00 1.426538658142089844e+01 4.875970840454101562e+00 -6.035241484642028809e-01
3.794000000000000000e+03 3.522681427001953125e+01 -4.220806121826171875e+00 1.837333559989929199e+00 1.461754703521728516e+01 4.936464309692382812e+00 -4.037084579467773438e+00
3.795000000000000000e+03 3.402239227294921875e+01 -9.665332794189453125e+00 2.118851184844970703e+00 8.219947814941406250e+00 3.101639747619628906e+00 5.012284755706787109e+00
3.796000000000000000e+03 4.549151897430419922e+00 3.890522480010986328e+00 2.296122111147269607e-04 -3.792475326918065548e-04 -4.489059938350692391e-05 -2.907992748077958822e-04
3.797000000000000000e+03 3.306841659545898438e+01 -2.554967403411865234e+00 2.219428539276123047e+00 5.845264911651611328e+00 2.419408082962036133e+00 -3.925857305526733398e+00
3.798000000000000000e+03 3.600392532348632812e+01 -3.870067834854125977e+00 1.563530921936035156e+00 1.535047054290771484e+01 5.074200630187988281e+00 -1.694518089294433594e+00
3.799000000000000000e+03 3.828522491455078125e+01 -5.608766555786132812e+00 6.906656742095947266e+00 1.273114967346191406e+01 5.891342163085937500e+00 1.416187286376953125e+00
3.800000000000000000e+03 3.902146911621093750e+01 -6.530892848968505859e+00 7.160979747772216797e+00 1.144509220123291016e+01 5.581821441650390625e+00 1.170711219310760498e-01
3.801000000000000000e+03 3.672128677368164062e+01 -3.511270046234130859e+00 1.768386602401733398e+00 1.451460456848144531e+01 4.884897708892822266e+00 -4.010219871997833252e-01
3.802000000000000000e+03 3.571100616455078125e+01 -3.825752973556518555e+00 1.482872843742370605e+00 1.471719360351562500e+01 4.860019683837890625e+00 -2.607891798019409180e+00
3.803000000000000000e+03 4.578632831573486328e+00 -2.457326507568359375e+01 1.231206115335226059e-03 -3.422630429267883301e-01 -1.023095548152923584e-01 -3.305009603500366211e-01
3.804000000000000000e+03 3.797044754028320312e+01 -4.817480564117431641e+00 5.280665397644042969e+00 1.360663700103759766e+01 5.666190624237060547e+00 1.765483617782592773e+00
3.805000000000000000e+03 7.567524719238281250e+01 -3.085953521728515625e+01 -2.765899896621704102e-02 7.660800457000732422e+00 2.289942264556884766e+00 -1.918369680643081665e-01
3.806000000000000000e+03 1.642765998840332031e+01 2.404386329650878906e+01 1.421350240707397461e-02 1.253580093383789062e+00 3.803380727767944336e-01 -3.702775239944458008e-01
3.807000000000000000e+03 1.540386676788330078e+01 2.506634140014648438e+01 3.947146236896514893e-02 1.073492407798767090e+00 3.338891565799713135e-01 -3.174123167991638184e-01
3.808000000000000000e+03 1.309300231933593750e+01 2.743273925781250000e+01 7.795812934637069702e-02 8.402848839759826660e-01 2.754729092121124268e-01 -1.784163266420364380e-01
3.809000000000000000e+03 4.527175521850585938e+01 2.225079154968261719e+01 -7.512579560279846191e-01 6.959084033966064453e+00 1.862347722053527832e+00 7.887602597475051880e-02
3.810000000000000000e+03 3.380747985839843750e+01 -1.012395191192626953e+01 1.886720538139343262e+00 7.576832294464111328e+00 2.839065790176391602e+00 4.570330142974853516e+00
3.811000000000000000e+03 3.435166549682617188e+01 -3.633457660675048828e+00 2.222417831420898438e+00 9.767175674438476562e+00 3.596877813339233398e+00 -4.870110034942626953e+00
3.812000000000000000e+03 3.753287506103515625e+01 -7.816195487976074219e+00 7.282631874084472656e+00 1.446068668365478516e+01 6.522995471954345703e+00 -2.125287771224975586e+00
3.813000000000000000e+03 3.484745025634765625e+01 -4.087688446044921875e+00 2.071423053741455078e+00 1.250591278076171875e+01 4.373200416564941406e+00 -4.825429916381835938e+00
3.814000000000000000e+03 6.247841835021972656e+00 -2.567562294006347656e+01 6.798528879880905151e-02 -3.499749600887298584e-01 -8.459690213203430176e-02 -3.541633784770965576e-01
3.815000000000000000e+03 3.573393630981445312e+01 -3.466814756393432617e+00 1.280519366264343262e+00 1.398818588256835938e+01 4.580611705780029297e+00 -2.511894226074218750e+00
3.816000000000000000e+03 5.160898208618164062e+00 5.156861782073974609e+00 2.914480573963373899e-04 -5.507465684786438942e-04 -7.778954750392585993e-05 2.752177897491492331e-05
3.817000000000000000e+03 5.785709381103515625e+00 5.512459754943847656e+00 4.674640367738902569e-04 2.338535996386781335e-04 2.103952865581959486e-04 -1.137387880589812994e-04
3.818000000000000000e+03 3.473136138916015625e+01 -3.250806093215942383e+00 1.639245510101318359e+00 1.086495685577392578e+01 3.751260757446289062e+00 -4.185249805450439453e+00
3.819000000000000000e+03 3.430469131469726562e+01 -2.642987251281738281e+00 1.597940802574157715e+00 9.119247436523437500e+00 3.215156555175781250e+00 -4.042835235595703125e+00
3.820000000000000000e+03 3.483599090576171875e+01 -3.787987947463989258e+00 1.883477330207824707e+00 1.200460243225097656e+01 4.166423797607421875e+00 -4.565315246582031250e+00
3.821000000000000000e+03 3.823249816894531250e+01 -5.120012760162353516e+00 6.030040740966796875e+00 1.303174877166748047e+01 5.718536853790283203e+00 1.679543018341064453e+00
3.822000000000000000e+03 3.869005584716796875e+01 -4.618516921997070312e+00 4.872153282165527344e+00 1.239727973937988281e+01 5.180830001831054688e+00 1.611941814422607422e+00
3.823000000000000000e+03 3.822890853881835938e+01 -1.025365447998046875e+01 2.142700195312500000e+00 1.285176277160644531e+01 4.498338699340820312e+00 -1.056172013282775879e+00
3.824000000000000000e+03 3.818726730346679688e+01 -9.899970054626464844e+00 2.606425523757934570e+00 1.310488033294677734e+01 4.713391780853271484e+00 -1.293259859085083008e+00
3.825000000000000000e+03 3.941275787353515625e+01 -7.867352962493896484e+00 5.848715782165527344e+00 1.124415397644042969e+01 5.127861022949218750e+00 -1.220429062843322754e+00
3.826000000000000000e+03 6.046805572509765625e+01 2.341284370422363281e+01 -3.725188076496124268e-01 7.813848495483398438e+00 2.232398748397827148e+00 5.751872658729553223e-01
3.827000000000000000e+03 5.937782287597656250e+00 8.389918327331542969e+00 5.697190063074231148e-04 -8.690130780450999737e-04 -8.978822006611153483e-05 6.555129657499492168e-04
3.828000000000000000e+03 3.568527603149414062e+01 -1.147991085052490234e+01 3.098033368587493896e-01 1.134370040893554688e+01 3.496051073074340820e+00 2.466084718704223633e+00
3.829000000000000000e+03 2.402257537841796875e+01 -1.852938532829284668e+00 4.282658994197845459e-01 2.368677109479904175e-01 1.995400786399841309e-01 5.184379406273365021e-03
3.830000000000000000e+03 3.430876541137695312e+01 -1.184445381164550781e+01 7.278645038604736328e-01 8.549441337585449219e+00 2.783191680908203125e+00 3.462295055389404297e+00
3.831000000000000000e+03 3.458392715454101562e+01 -1.143481063842773438e+01 7.280117273330688477e-01 9.306854248046875000e+00 3.010459899902343750e+00 3.511941194534301758e+00
3.832000000000000000e+03 3.852787017822265625e+01 -8.420063972473144531e+00 5.339725494384765625e+00 1.264584922790527344e+01 5.395672321319580078e+00 -1.786546111106872559e+00
3.833000000000000000e+03 3.373859024047851562e+01 -2.462647914886474609e+00 1.872663497924804688e+00 7.467135906219482422e+00 2.801939725875854492e+00 -4.070087432861328125e+00
3.834000000000000000e+03 3.494475936889648438e+01 -3.021913290023803711e+00 1.372768282890319824e+00 1.127044773101806641e+01 3.792964935302734375e+00 -3.780969142913818359e+00
3.835000000000000000e+03 3.531724929809570312e+01 -2.944701433181762695e+00 1.134215474128723145e+00 1.212166786193847656e+01 3.976765155792236328e+00 -3.217759132385253906e+00
3.836000000000000000e+03 3.823272323608398438e+01 -9.225430488586425781e+00 3.758515357971191406e+00 1.329520988464355469e+01 5.116117477416992188e+00 -1.711405992507934570e+00
3.837000000000000000e+03 3.581648254394531250e+01 -2.748804092407226562e+00 9.440006613731384277e-01 1.267555713653564453e+01 4.085867404937744141e+00 -2.298238515853881836e+00
3.838000000000000000e+03 3.579187774658203125e+01 -3.091752529144287109e+00 1.079584240913391113e+00 1.321622180938720703e+01 4.288742065429687500e+00 -2.368304252624511719e+00
3.839000000000000000e+03 3.554381942749023438e+01 -3.037579774856567383e+00 1.101227641105651855e+00 1.275529479980468750e+01 4.156956672668457031e+00 -2.799138069152832031e+00
3.840000000000000000e+03 3.857214355468750000e+01 -9.228038787841796875e+00 3.868056774139404297e+00 1.271001243591308594e+01 4.973420619964599609e+00 -1.685177683830261230e+00
3.841000000000000000e+03 3.539307022094726562e+01 -1.166347122192382812e+01 3.542399108409881592e-01 1.070189762115478516e+01 3.316841125488281250e+00 2.737912416458129883e+00
3.842000000000000000e+03 3.684143447875976562e+01 -1.130161190032958984e+01 4.886699616909027100e-01 1.242660903930664062e+01 3.874583721160888672e+00 9.514235854148864746e-01
3.843000000000000000e+03 7.047560882568359375e+01 -2.398159790039062500e+01 -7.385514210909605026e-03 7.530940055847167969e+00 2.257066488265991211e+00 -4.180760681629180908e-01
3.844000000000000000e+03 3.972068786621093750e+01 -5.237144470214843750e+00 5.461511135101318359e+00 1.099074935913085938e+01 4.935678005218505859e+00 1.136034965515136719e+00
3.845000000000000000e+03 3.462309646606445312e+01 -2.467998027801513672e+00 1.307108163833618164e+00 9.852412223815917969e+00 3.347856044769287109e+00 -3.743178129196166992e+00
3.846000000000000000e+03 3.520131683349609375e+01 -2.603235006332397461e+00 1.035923242568969727e+00 1.147715950012207031e+01 3.753924846649169922e+00 -3.222888708114624023e+00
3.847000000000000000e+03 3.551253890991210938e+01 -1.200670242309570312e+01 2.219442725181579590e-01 1.052225971221923828e+01 3.223261117935180664e+00 2.508512735366821289e+00
3.848000000000000000e+03 3.498976135253906250e+01 -2.630746841430664062e+00 1.179897904396057129e+00 1.092757511138916016e+01 3.632241725921630859e+00 -3.487684011459350586e+00
3.849000000000000000e+03 3.674628829956054688e+01 -2.301556110382080078e+00 9.128189086914062500e-01 1.262304878234863281e+01 4.060760498046875000e+00 -9.939785003662109375e-01
3.850000000000000000e+03 3.723273468017578125e+01 -2.248568296432495117e+00 1.082046031951904297e+00 1.258903026580810547e+01 4.101322650909423828e+00 -4.115544557571411133e-01
3.851000000000000000e+03 3.392675018310546875e+01 -8.429664969444274902e-01 1.033389091491699219e+00 7.694771289825439453e+00 2.618448257446289062e+00 -3.239269733428955078e+00
3.852000000000000000e+03 3.880874633789062500e+01 -9.797704696655273438e+00 2.996772766113281250e+00 1.233765697479248047e+01 4.600328922271728516e+00 -1.490177392959594727e+00
3.853000000000000000e+03 3.448069381713867188e+01 -1.255996322631835938e+01 4.799218773841857910e-01 8.467796325683593750e+00 2.684315443038940430e+00 3.081743478775024414e+00
3.854000000000000000e+03 3.997621917724609375e+01 -5.495153903961181641e+00 5.569140911102294922e+00 1.066187953948974609e+01 4.869306087493896484e+00 8.980136513710021973e-01
3.855000000000000000e+03 3.750523757934570312e+01 -2.519488811492919922e+00 1.392023921012878418e+00 1.286707496643066406e+01 4.277729511260986328e+00 3.511275723576545715e-02
3.856000000000000000e+03 3.572745895385742188e+01 -2.230619907379150391e+00 7.957826256752014160e-01 1.173847103118896484e+01 3.760276079177856445e+00 -2.359845399856567383e+00
3.857000000000000000e+03 3.551023864746093750e+01 -2.443954944610595703e+00 8.876054286956787109e-01 1.172227096557617188e+01 3.782963037490844727e+00 -2.709579229354858398e+00
3.858000000000000000e+03 3.554504776000976562e+01 -1.865765571594238281e+00 7.031715512275695801e-01 1.103627300262451172e+01 3.521833419799804688e+00 -2.541892528533935547e+00
3.859000000000000000e+03 3.505841827392578125e+01 -1.228300094604492188e+01 3.170352280139923096e-01 9.627425193786621094e+00 2.983338117599487305e+00 2.825914144515991211e+00
3.860000000000000000e+03 3.272043228149414062e+01 -1.326628971099853516e+01 9.133605957031250000e-01 5.716785430908203125e+00 1.989043831825256348e+00 3.045269727706909180e+00
3.861000000000000000e+03 4.046268463134765625e+01 -6.882298946380615234e+00 5.676123142242431641e+00 1.019066715240478516e+01 4.760036945343017578e+00 -2.029899358749389648e-01
3.862000000000000000e+03 3.493218231201171875e+01 -2.357178926467895508e+00 1.071638107299804688e+00 1.051573085784912109e+01 3.476210594177246094e+00 -3.443702697753906250e+00
3.863000000000000000e+03 3.746650314331054688e+01 -1.884987831115722656e+00 9.702892303466796875e-01 1.218723201751708984e+01 3.947256326675415039e+00 -3.149229884147644043e-01
3.864000000000000000e+03 3.524363708496093750e+01 -2.326130867004394531e+00 9.303386807441711426e-01 1.112714004516601562e+01 3.617243766784667969e+00 -3.025148630142211914e+00
3.865000000000000000e+03 2.509222602844238281e+01 -1.804188919067382812e+01 4.956518113613128662e-01 1.841758370399475098e+00 7.012230157852172852e-01 9.367384910583496094e-01
3.866000000000000000e+03 2.335931396484375000e+01 -1.366944122314453125e+01 2.282100319862365723e-01 6.176394224166870117e-01 2.537548243999481201e-01 1.100120171904563904e-01
3.867000000000000000e+03 2.392606544494628906e+01 -1.556764507293701172e+01 4.301539957523345947e-01 1.039021849632263184e+00 4.407527744770050049e-01 4.920605421066284180e-01
3.868000000000000000e+03 3.835984420776367188e+01 -3.238663434982299805e+00 2.611277103424072266e+00 1.275481605529785156e+01 4.609827995300292969e+00 1.109679341316223145e+00
3.869000000000000000e+03 3.836253356933593750e+01 -2.652524471282958984e+00 2.000533342361450195e+00 1.231868076324462891e+01 4.295764446258544922e+00 7.801324129104614258e-01
3.870000000000000000e+03 2.614529418945312500e+01 -1.737085533142089844e+01 5.799934267997741699e-01 2.048851251602172852e+00 7.886533737182617188e-01 1.094922184944152832e+00
3.871000000000000000e+03 3.918361663818359375e+01 1.876410865783691406e+01 -7.243897914886474609e-01 6.346704483032226562e+00 1.686694383621215820e+00 -3.788731992244720459e-01
3.872000000000000000e+03 3.436426162719726562e+01 -2.239150553941726685e-01 6.996324062347412109e-01 8.157608032226562500e+00 2.657172203063964844e+00 -2.876296758651733398e+00
3.873000000000000000e+03 3.902325820922851562e+01 -9.517738342285156250e+00 3.576908111572265625e+00 1.205973911285400391e+01 4.690994262695312500e+00 -1.585468053817749023e+00
3.874000000000000000e+03 6.981293487548828125e+01 -1.902888488769531250e+01 9.681213647127151489e-02 7.413050651550292969e+00 2.252958774566650391e+00 -3.952175676822662354e-01
3.875000000000000000e+03 3.495179748535156250e+01 -1.270894432067871094e+01 2.828517556190490723e-01 9.159389495849609375e+00 2.832672595977783203e+00 2.746842861175537109e+00
3.876000000000000000e+03 4.035383224487304688e+01 -6.123603343963623047e+00 5.637659549713134766e+00 1.024464607238769531e+01 4.764691829681396484e+00 3.560185730457305908e-01
3.877000000000000000e+03 3.699950027465820312e+01 -1.242444515228271484e+01 1.769008040428161621e-01 1.125335788726806641e+01 3.429077625274658203e+00 1.063359856605529785e+00
3.878000000000000000e+03 3.722539138793945312e+01 -1.315931797027587891e+01 2.888998016715049744e-02 1.071963405609130859e+01 3.224557161331176758e+00 9.794974327087402344e-01
3.879000000000000000e+03 3.340406799316406250e+01 3.031045198440551758e-02 9.500488042831420898e-01 6.736139297485351562e+00 2.305856466293334961e+00 -2.995408296585083008e+00
3.880000000000000000e+03 2.769689750671386719e+01 1.288231468200683594e+01 -3.688316047191619873e-02 3.538840293884277344e+00 1.050587177276611328e+00 -1.208352327346801758e+00
3.881000000000000000e+03 2.906473731994628906e+01 1.045409870147705078e+01 7.931894622743129730e-03 3.951357126235961914e+00 1.187786698341369629e+00 -1.419556617736816406e+00
3.882000000000000000e+03 2.287413024902343750e+01 -1.395225715637207031e+01 1.661380976438522339e-01 5.935291647911071777e-01 2.279001772403717041e-01 8.437389880418777466e-02
3.883000000000000000e+03 4.120666885375976562e+01 -5.207500934600830078e+00 4.636496543884277344e+00 9.861288070678710938e+00 4.349335670471191406e+00 8.001133799552917480e-01
3.884000000000000000e+03 4.066596221923828125e+01 -5.194167137145996094e+00 4.921884059906005859e+00 1.022483348846435547e+01 4.544015407562255859e+00 9.292269945144653320e-01
3.885000000000000000e+03 4.074664306640625000e+01 -4.759403705596923828e+00 4.592328548431396484e+00 1.025486278533935547e+01 4.454157352447509766e+00 1.111526727676391602e+00
3.886000000000000000e+03 2.933113670349121094e+01 8.224700093269348145e-01 1.300735116004943848e+00 2.702371597290039062e+00 1.200932025909423828e+00 -1.916280388832092285e+00
3.887000000000000000e+03 4.635890960693359375e+01 -1.946542358398437500e+01 -4.335631430149078369e-02 8.572552680969238281e+00 2.558758974075317383e+00 -6.760529875755310059e-01
3.888000000000000000e+03 4.538015365600585938e+01 -1.906555747985839844e+01 -5.500201135873794556e-02 8.678185462951660156e+00 2.586955070495605469e+00 -6.362273097038269043e-01
3.889000000000000000e+03 3.781851577758789062e+01 1.594954490661621094e+01 -6.784235835075378418e-01 6.368510246276855469e+00 1.707026004791259766e+00 -5.891284346580505371e-01
3.890000000000000000e+03 3.943160247802734375e+01 1.564301395416259766e+01 -7.143223881721496582e-01 6.714476585388183594e+00 1.800046205520629883e+00 -4.241511523723602295e-01
3.891000000000000000e+03 2.399942016601562500e+01 -1.338011646270751953e+01 3.062432706356048584e-01 6.446020603179931641e-01 2.852535843849182129e-01 1.779620051383972168e-01
3.892000000000000000e+03 2.357024383544921875e+01 -1.299657630920410156e+01 2.057770788669586182e-01 5.171664953231811523e-01 2.168830782175064087e-01 4.597530141472816467e-02
3.893000000000000000e+03 3.683790206909179688e+01 -1.388065695762634277e+00 5.910120606422424316e-01 1.157531929016113281e+01 3.649899482727050781e+00 -1.119233489036560059e+00
3.894000000000000000e+03 3.736793518066406250e+01 -1.264332890510559082e+00 6.566162705421447754e-01 1.161583423614501953e+01 3.681735038757324219e+00 -6.163011193275451660e-01
3.895000000000000000e+03 4.117658233642578125e+01 -8.596710205078125000e+00 4.348472595214843750e+00 1.002723693847656250e+01 4.312713146209716797e+00 -1.090075254440307617e+00
3.896000000000000000e+03 2.480890846252441406e+01 -1.550398349761962891e+01 5.366272926330566406e-01 1.238371610641479492e+00 5.324996709823608398e-01 6.683634519577026367e-01
3.897000000000000000e+03 2.573730659484863281e+01 -1.675455093383789062e+01 6.136132478713989258e-01 1.796682834625244141e+00 7.230888009071350098e-01 9.979123473167419434e-01
3.898000000000000000e+03 3.606829833984375000e+01 -1.228429889678955078e+01 1.375762075185775757e-01 1.083731651306152344e+01 3.292467832565307617e+00 1.908487915992736816e+00
3.899000000000000000e+03 3.884198379516601562e+01 -1.635019898414611816e+00 1.389462828636169434e+00 1.149440002441406250e+01 3.865158796310424805e+00 5.768976211547851562e-01
3.900000000000000000e+03 3.766960906982421875e+01 -1.498313069343566895e+00 8.571463823318481445e-01 1.181020832061767578e+01 3.800206184387207031e+00 -2.679394483566284180e-01
3.901000000000000000e+03 3.613269424438476562e+01 -2.380063295364379883e+00 8.108677268028259277e-01 1.239676380157470703e+01 3.962289571762084961e+00 -1.828601241111755371e+00
3.902000000000000000e+03 6.862792205810546875e+01 -1.795459747314453125e+01 1.489352881908416748e-01 7.429235935211181641e+00 2.273451328277587891e+00 -4.066824615001678467e-01
3.903000000000000000e+03 3.545275115966796875e+01 -1.239345455169677734e+01 1.829563826322555542e-01 1.016225242614746094e+01 3.103562593460083008e+00 2.480447053909301758e+00
3.904000000000000000e+03 3.535363388061523438e+01 -1.155866235494613647e-01 3.852820992469787598e-01 9.318815231323242188e+00 2.911229133605957031e+00 -2.305151939392089844e+00
3.905000000000000000e+03 3.537853622436523438e+01 4.723658859729766846e-01 2.795046865940093994e-01 8.997722625732421875e+00 2.783168315887451172e+00 -2.178133487701416016e+00
3.906000000000000000e+03 3.479708099365234375e+01 -1.361270904541015625e+01 1.819744855165481567e-01 8.484061241149902344e+00 2.599810838699340820e+00 2.599239349365234375e+00
3.907000000000000000e+03 3.813987350463867188e+01 -1.675056076049804688e+01 -3.764300048351287842e-01 9.030163764953613281e+00 2.596120119094848633e+00 7.274604439735412598e-01
3.908000000000000000e+03 3.294560623168945312e+01 -1.469003868103027344e+01 5.088186264038085938e-01 6.067137718200683594e+00 1.972786903381347656e+00 2.670269727706909180e+00
3.909000000000000000e+03 2.768084526062011719e+01 2.569348812103271484e-01 1.230801343917846680e+00 1.659681200981140137e+00 8.671447634696960449e-01 -1.303559899330139160e+00
3.910000000000000000e+03 3.872053527832031250e+01 -1.252139854431152344e+01 6.034822463989257812e-01 1.112410259246826172e+01 3.518275260925292969e+00 -1.972626298666000366e-01
3.911000000000000000e+03 2.560090827941894531e+01 -1.543489551544189453e+01 5.803331136703491211e-01 1.442914962768554688e+00 6.069744229316711426e-01 7.991574406623840332e-01
3.912000000000000000e+03 3.681592559814453125e+01 -8.342316150665283203e-01 4.290104806423187256e-01 1.106403827667236328e+01 3.447914600372314453e+00 -1.184004306793212891e+00
3.913000000000000000e+03 3.599748992919921875e+01 -2.064864397048950195e+00 7.264551520347595215e-01 1.181441879272460938e+01 3.762262344360351562e+00 -1.998130321502685547e+00
3.914000000000000000e+03 3.626658630371093750e+01 -1.629965782165527344e+00 5.993412733078002930e-01 1.149752712249755859e+01 3.629060506820678711e+00 -1.692554593086242676e+00
3.915000000000000000e+03 4.060070037841796875e+01 -1.039160442352294922e+01 2.819629192352294922e+00 1.067656993865966797e+01 4.048859596252441406e+00 -1.382877588272094727e+00
3.916000000000000000e+03 6.802964019775390625e+01 -1.916649818420410156e+01 1.244093403220176697e-01 7.482288837432861328e+00 2.282009363174438477e+00 -4.462398886680603027e-01
3.917000000000000000e+03 3.812476730346679688e+01 -8.018414378166198730e-01 7.029536366462707520e-01 1.117873668670654297e+01 3.564507007598876953e+00 -1.447136700153350830e-01
3.918000000000000000e+03 2.992987442016601562e+01 1.306023502349853516e+01 -1.852654963731765747e-01 4.288666725158691406e+00 1.231020331382751465e+00 -1.227676987648010254e+00
3.919000000000000000e+03 3.698446655273437500e+01 -4.923879802227020264e-01 3.480503261089324951e-01 1.081155300140380859e+01 3.347881078720092773e+00 -1.084259152412414551e+00
3.920000000000000000e+03 3.611939239501953125e+01 -1.299719524383544922e+01 1.333646755665540695e-02 1.026736164093017578e+01 3.084209442138671875e+00 1.851953744888305664e+00
3.921000000000000000e+03 3.400337219238281250e+01 9.513473510742187500e+00 -3.503917157649993896e-01 6.018513679504394531e+00 1.700436592102050781e+00 -1.302062869071960449e+00
3.922000000000000000e+03 6.473526000976562500e+01 -1.601234245300292969e+01 3.375528156757354736e-01 7.509673118591308594e+00 2.354167699813842773e+00 -4.511691331863403320e-01
3.923000000000000000e+03 4.212823867797851562e+01 -1.330936622619628906e+01 1.137382626533508301e+00 9.799989700317382812e+00 3.281211853027343750e+00 -1.006206631660461426e+00
3.924000000000000000e+03 3.908229446411132812e+01 -9.892903566360473633e-01 1.081987857818603516e+00 1.106242465972900391e+01 3.643323659896850586e+00 4.684052765369415283e-01
3.925000000000000000e+03 3.724886703491210938e+01 -2.213593423366546631e-01 3.190303444862365723e-01 1.075686073303222656e+01 3.322767257690429688e+00 -8.778203129768371582e-01
3.926000000000000000e+03 3.667692947387695312e+01 -2.816457748413085938e-01 2.792384326457977295e-01 1.054037475585937500e+01 3.245883941650390625e+00 -1.377262115478515625e+00
3.927000000000000000e+03 4.138236618041992188e+01 -3.673687458038330078e+00 3.518768787384033203e+00 1.005698871612548828e+01 4.072727203369140625e+00 1.268213391304016113e+00
3.928000000000000000e+03 3.090115356445312500e+01 8.894541859626770020e-01 1.233829975128173828e+00 4.019216537475585938e+00 1.575914025306701660e+00 -2.423633337020874023e+00
3.929000000000000000e+03 3.882863235473632812e+01 -6.499514579772949219e-01 8.177077174186706543e-01 1.097037315368652344e+01 3.536424398422241211e+00 2.167419195175170898e-01
3.930000000000000000e+03 3.620315170288085938e+01 -6.777468919754028320e-01 3.549023270606994629e-01 1.054483890533447266e+01 3.269922256469726562e+00 -1.754651784896850586e+00
3.931000000000000000e+03 4.044283676147460938e+01 -2.646591186523437500e+00 2.640037775039672852e+00 1.073017692565917969e+01 4.011064529418945312e+00 1.300544261932373047e+00
3.932000000000000000e+03 3.643411636352539062e+01 -1.487134647369384766e+01 -2.149546444416046143e-01 9.218243598937988281e+00 2.700986862182617188e+00 1.547480344772338867e+00
3.933000000000000000e+03 6.146640777587890625e+01 5.715912818908691406e+00 3.245930671691894531e-01 7.683386325836181641e+00 2.402393817901611328e+00 7.995892763137817383e-01
3.934000000000000000e+03 5.956519317626953125e+01 4.680891513824462891e+00 4.388712346553802490e-01 7.702507495880126953e+00 2.442413568496704102e+00 8.223930001258850098e-01
3.935000000000000000e+03 4.111329269409179688e+01 -1.010763072967529297e+01 3.072528123855590820e+00 1.030993938446044922e+01 4.014739990234375000e+00 -1.336848378181457520e+00
3.936000000000000000e+03 4.155794906616210938e+01 -1.075312709808349609e+01 2.595851898193359375e+00 1.013048553466796875e+01 3.817901134490966797e+00 -1.320470452308654785e+00
3.937000000000000000e+03 3.858258438110351562e+01 -9.132832288742065430e-01 8.789128661155700684e-01 1.123011398315429688e+01 3.632708072662353516e+00 1.722742021083831787e-01
3.938000000000000000e+03 3.234356307983398438e+01 -1.533079338073730469e+01 5.294392108917236328e-01 5.466951847076416016e+00 1.798917293548583984e+00 2.483684778213500977e+00
3.939000000000000000e+03 4.219976425170898438e+01 -9.607328414916992188e+00 3.390018939971923828e+00 9.692434310913085938e+00 3.924736022949218750e+00 -1.200442671775817871e+00
3.940000000000000000e+03 4.264169311523437500e+01 -9.895043373107910156e+00 3.115393400192260742e+00 9.514947891235351562e+00 3.789102554321289062e+00 -1.170124888420104980e+00
3.941000000000000000e+03 3.038806724548339844e+01 3.437196493148803711e+00 6.998940706253051758e-01 4.087439060211181641e+00 1.436199903488159180e+00 -2.066479444503784180e+00
3.942000000000000000e+03 7.217594909667968750e+01 -1.639008331298828125e+01 1.041741520166397095e-01 7.255260944366455078e+00 2.207830429077148438e+00 -2.858868539333343506e-01
3.943000000000000000e+03 4.756705474853515625e+01 3.767306089401245117e+00 6.048015356063842773e-01 8.426598548889160156e+00 2.709419965744018555e+00 9.785807132720947266e-01
3.944000000000000000e+03 4.194890594482421875e+01 -3.477847814559936523e+00 3.345583438873291016e+00 9.736013412475585938e+00 3.924479007720947266e+00 1.215400815010070801e+00
3.945000000000000000e+03 4.130810546875000000e+01 -1.052797508239746094e+01 2.700777053833007812e+00 1.021894359588623047e+01 3.875916242599487305e+00 -1.323638916015625000e+00
3.946000000000000000e+03 3.185601043701171875e+01 -1.533410739898681641e+01 6.148033142089843750e-01 5.046972751617431641e+00 1.698532819747924805e+00 2.441389799118041992e+00
3.947000000000000000e+03 4.191315841674804688e+01 -1.089486980438232422e+01 2.522198677062988281e+00 9.967455863952636719e+00 3.746896266937255859e+00 -1.299072504043579102e+00
3.948000000000000000e+03 4.183361053466796875e+01 -1.052723598480224609e+01 2.715358495712280273e+00 9.958262443542480469e+00 3.802086114883422852e+00 -1.285435199737548828e+00
3.949000000000000000e+03 7.025788116455078125e+01 -1.675915837287902832e+00 2.444058805704116821e-01 7.285593986511230469e+00 2.259000062942504883e+00 2.878691256046295166e-01
3.950000000000000000e+03 4.297024154663085938e+01 -5.477104187011718750e+00 4.044978618621826172e+00 9.079475402832031250e+00 3.937336206436157227e+00 4.905880093574523926e-01
3.951000000000000000e+03 4.356272888183593750e+01 -4.342383384704589844e+00 3.451551198959350586e+00 8.993703842163085938e+00 3.733576536178588867e+00 8.229735493659973145e-01
3.952000000000000000e+03 3.401900482177734375e+01 7.577238559722900391e+00 -2.460104376077651978e-01 6.255677700042724609e+00 1.802900195121765137e+00 -1.510208606719970703e+00
3.953000000000000000e+03 4.302000427246093750e+01 -1.193644762039184570e+00 1.999012231826782227e+00 9.419211387634277344e+00 3.425467014312744141e+00 1.182501435279846191e+00
3.954000000000000000e+03 3.502943420410156250e+01 2.723877429962158203e+00 4.819002375006675720e-02 7.806525707244873047e+00 2.356414794921875000e+00 -1.926655888557434082e+00
3.955000000000000000e+03 3.333209228515625000e+01 5.574338912963867188e+00 -4.577631130814552307e-03 6.152868270874023438e+00 1.844487190246582031e+00 -1.815277695655822754e+00
3.956000000000000000e+03 3.166025161743164062e+01 1.681026458740234375e+00 9.125012755393981934e-01 4.903029441833496094e+00 1.744659185409545898e+00 -2.473117113113403320e+00
3.957000000000000000e+03 3.304400253295898438e+01 2.597645282745361328e+00 4.484535753726959229e-01 6.155608654022216797e+00 1.981218695640563965e+00 -2.357759714126586914e+00
3.958000000000000000e+03 3.297918319702148438e+01 2.136671781539916992e+00 5.677756071090698242e-01 6.135750293731689453e+00 2.011057853698730469e+00 -2.479061603546142578e+00
3.959000000000000000e+03 5.049007415771484375e+01 2.617270052433013916e-01 1.311791419982910156e+00 8.049516677856445312e+00 2.808392286300659180e+00 9.318702220916748047e-01
3.960000000000000000e+03 4.130335235595703125e+01 -7.678037881851196289e-01 1.552661776542663574e+00 1.010004997253417969e+01 3.495813608169555664e+00 1.044499039649963379e+00
3.961000000000000000e+03 4.507282638549804688e+01 -8.376396179199218750e+00 3.187682628631591797e+00 8.567959785461425781e+00 3.526692867279052734e+00 -5.093275308609008789e-01
3.962000000000000000e+03 4.155592727661132812e+01 5.594662204384803772e-02 1.190260648727416992e+00 9.846049308776855469e+00 3.310892820358276367e+00 9.217051267623901367e-01
3.963000000000000000e+03 6.218759536743164062e+01 -8.203746795654296875e+00 7.559352517127990723e-01 7.435374259948730469e+00 2.457392692565917969e+00 -5.478981137275695801e-02
3.964000000000000000e+03 3.600234222412109375e+01 3.943742275238037109e+00 -1.783715784549713135e-01 7.936851501464843750e+00 2.327543973922729492e+00 -1.457287669181823730e+00
3.965000000000000000e+03 6.136005783081054688e+01 -6.185478687286376953e+00 8.388054966926574707e-01 7.448879241943359375e+00 2.486305475234985352e+00 1.080139502882957458e-01
3.966000000000000000e+03 6.763549041748046875e+01 1.013705968856811523e+00 3.033987283706665039e-01 7.427010059356689453e+00 2.319122552871704102e+00 4.680234491825103760e-01
3.967000000000000000e+03 3.720809555053710938e+01 3.930032253265380859e+00 -2.688970267772674561e-01 8.549891471862792969e+00 2.484298229217529297e+00 -1.105798602104187012e+00
3.968000000000000000e+03 5.115195846557617188e+01 -9.561151862144470215e-01 1.495733857154846191e+00 7.935322284698486328e+00 2.829316854476928711e+00 8.094075918197631836e-01
3.969000000000000000e+03 4.944255447387695312e+01 -2.263169765472412109e+00 1.877992391586303711e+00 8.032876968383789062e+00 2.973260641098022461e+00 7.552928924560546875e-01
3.970000000000000000e+03 5.021264266967773438e+01 -1.605612158775329590e+00 1.692267775535583496e+00 7.987614154815673828e+00 2.903964519500732422e+00 7.896136641502380371e-01
3.971000000000000000e+03 4.444310379028320312e+01 -4.017301201820373535e-01 1.678734660148620605e+00 9.023694992065429688e+00 3.210728883743286133e+00 1.125722169876098633e+00
3.972000000000000000e+03 4.802642059326171875e+01 -3.842476129531860352e+00 2.392064809799194336e+00 8.118720054626464844e+00 3.153235435485839844e+00 5.989258289337158203e-01
3.973000000000000000e+03 5.871416473388671875e+01 -4.902151584625244141e+00 1.055328726768493652e+00 7.509225845336914062e+00 2.569366455078125000e+00 2.335040271282196045e-01
3.974000000000000000e+03 6.349020385742187500e+01 -4.185765266418457031e+00 6.596049070358276367e-01 7.417146205902099609e+00 2.423025369644165039e+00 2.480670660734176636e-01
3.975000000000000000e+03 5.314346313476562500e+01 -3.081817626953125000e+00 1.559433817863464355e+00 7.724310874938964844e+00 2.785123348236083984e+00 5.176551938056945801e-01
3.976000000000000000e+03 6.179595184326171875e+01 -4.909185886383056641e+00 8.002354502677917480e-01 7.443380355834960938e+00 2.473084688186645508e+00 2.096171677112579346e-01
3.977000000000000000e+03 5.063233947753906250e+01 -2.687359333038330078e+00 1.814215660095214844e+00 7.905925273895263672e+00 2.916042327880859375e+00 6.434925794601440430e-01
3.978000000000000000e+03 5.759196472167968750e+01 -2.511571884155273438e+00 1.068928718566894531e+00 7.572567462921142578e+00 2.592448949813842773e+00 4.838261604309082031e-01
3.979000000000000000e+03 5.272457122802734375e+01 -1.685627102851867676e+00 1.452802419662475586e+00 7.790420055389404297e+00 2.772966623306274414e+00 6.688746809959411621e-01
3.980000000000000000e+03 4.975300979614257812e+01 -3.057085752487182617e+00 1.963202238082885742e+00 7.964149951934814453e+00 2.978205680847167969e+00 6.337665915489196777e-01
3.981000000000000000e+03 5.095025253295898438e+01 -4.916788101196289062e+00 1.983984470367431641e+00 7.810823440551757812e+00 2.938442230224609375e+00 3.199535608291625977e-01
3.982000000000000000e+03 4.879759979248046875e+01 -4.037388801574707031e+00 2.259844541549682617e+00 8.019366264343261719e+00 3.083763360977172852e+00 5.237715244293212891e-01
3.983000000000000000e+03 4.971369552612304688e+01 -4.133411407470703125e+00 2.124051570892333984e+00 7.928606510162353516e+00 3.015797376632690430e+00 4.798097610473632812e-01
3.984000000000000000e+03 1.488040065765380859e+01 1.046121835708618164e+00 -2.991060318890959024e-04 -3.955049032811075449e-04 -2.083832805510610342e-04 -1.361104386887745932e-05
3.985000000000000000e+03 1.433596038818359375e+01 8.109902739524841309e-01 -2.157685958081856370e-04 1.320912269875407219e-04 -2.510320882720407099e-05 -2.402148675173521042e-04
3.986000000000000000e+03 1.339948463439941406e+01 9.943951964378356934e-01 -1.081901136785745621e-04 -3.343460411997511983e-05 -4.248741606716066599e-05 2.956003845611121505e-05
3.987000000000000000e+03 1.399857616424560547e+01 1.078236818313598633e+00 1.250074565177783370e-04 2.233706618426367640e-04 1.045134413288906217e-04 6.253949322854168713e-06
3.988000000000000000e+03 1.342517852783203125e+01 2.516243755817413330e-01 -2.497668447176693007e-06 2.992619192809797823e-05 8.228556907852180302e-06 -9.885759936878457665e-06
3.989000000000000000e+03 1.503903388977050781e+01 3.840551078319549561e-01 2.320863859495148063e-05 5.261130718281492591e-05 2.274598409712780267e-05 3.863585880026221275e-05
3.990000000000000000e+03 1.424006271362304688e+01 2.423980534076690674e-01 2.283529647684190422e-05 -6.155668961582705379e-05 -1.161641830549342558e-05 -2.720751035667490214e-05
3.991000000000000000e+03 1.447602939605712891e+01 1.142013788223266602e+00 -1.179138998850248754e-04 6.920415216882247478e-06 -3.329804530949331820e-05 -3.053010914300102741e-06
3.992000000000000000e+03 1.113503360748291016e+01 3.384475409984588623e-01 1.352920116914901882e-05 7.175050268415361643e-05 2.558391133788973093e-05 -5.102840987092349678e-06
3.993000000000000000e+03 1.115649890899658203e+01 1.078244447708129883e+00 9.021609730552881956e-05 -3.698555156006477773e-05 1.596916445123497397e-05 7.772005483275279403e-05
3.994000000000000000e+03 1.038435840606689453e+01 3.729175329208374023e-01 6.276784552028402686e-05 -7.925064710434526205e-05 -4.944839020026847720e-06 3.362095230841077864e-05
3.995000000000000000e+03 1.188578510284423828e+01 3.038018345832824707e-01 1.125684957514749840e-05 -5.459781459649093449e-05 -1.300228996115038171e-05 2.175668123527429998e-05
3.996000000000000000e+03 1.263660717010498047e+01 2.689834535121917725e-01 -2.588471943454351276e-05 2.851324097719043493e-05 7.885564059506577905e-07 1.252099991688737646e-06
3.997000000000000000e+03 1.266393947601318359e+01 1.008509635925292969e+00 4.249697667546570301e-05 3.368051329744048417e-05 2.285324626427609473e-05 4.957316559739410877e-05
3.998000000000000000e+03 1.040289020538330078e+01 1.112849831581115723e+00 -3.411410489206900820e-06 3.320835457998327911e-05 8.939083272707648575e-06 -5.941239942330867052e-05
3.999000000000000000e+03 1.191018390655517578e+01 1.043463349342346191e+00 7.272594189089431893e-07 6.587863026652485132e-06 2.194536818933556788e-06 -5.275433977658394724e-06
4.000000000000000000e+03 9.630480766296386719e+00 3.871794641017913818e-01 5.048624370829202235e-05 5.785969187854789197e-05 3.250377994845621288e-05 -3.050757550226990134e-05
4.001000000000000000e+03 8.873666763305664062e+00 3.829238712787628174e-01 1.063369709299877286e-04 -1.290243380935862660e-05 2.803036113618873060e-05 6.258099892875179648e-05
4.002000000000000000e+03 9.660673141479492188e+00 1.127179503440856934e+00 1.311848027398809791e-04 -2.809834086292539723e-06 3.851248766295611858e-05 1.531606976641342044e-04
4.003000000000000000e+03 8.116720199584960938e+00 3.805542886257171631e-01 8.575044194003567100e-05 -4.835203071706928313e-05 1.121952391258673742e-05 -5.609644722426310182e-05
4.004000000000000000e+03 7.360193252563476562e+00 3.795430362224578857e-01 1.420327316736802459e-04 1.074999527190811932e-04 7.485980313504114747e-05 7.745825132587924600e-05
4.005000000000000000e+03 5.847065925598144531e+00 3.768712580204010010e-01 1.438324543414637446e-04 2.060887636616826057e-04 1.049763595801778138e-04 8.342198270838707685e-05
4.006000000000000000e+03 5.091114044189453125e+00 3.758820295333862305e-01 6.704752013320103288e-05 -2.336408506380394101e-04 -4.997799987904727459e-05 -1.005317972158081830e-04
4.007000000000000000e+03 3.579006433486938477e+00 3.681437373161315918e-01 1.924676325870677829e-05 -2.102596918120980263e-04 -5.730387783842161298e-05 -9.071669774129986763e-05
4.008000000000000000e+03 2.823871612548828125e+00 3.614119887351989746e-01 4.862057176069356501e-05 1.728211791487410665e-04 6.643252709181979299e-05 5.608519859379157424e-05
4.009000000000000000e+03 2.070111274719238281e+00 3.578882515430450439e-01 -1.382491609547287226e-05 -1.199777252622880042e-04 -4.014079240732826293e-05 -5.634027911582961679e-05
4.010000000000000000e+03 2.362852334976196289e+00 1.097888231277465820e+00 4.855072256759740412e-05 1.262229052372276783e-04 5.243208943284116685e-05 2.307132308487780392e-05
4.011000000000000000e+03 1.328713655471801758e+00 3.659794926643371582e-01 5.029307885706657544e-06 6.983319326536729932e-05 2.245875111839268357e-05 2.554067941673565656e-05
4.012000000000000000e+03 1.647709608078002930e+00 1.105979442596435547e+00 1.391445493936771527e-05 -8.545224409317597747e-05 -2.146133738278876990e-05 -5.266715015750378370e-05
4.013000000000000000e+03 6.516475677490234375e-01 3.939257264137268066e-01 3.360283153597265482e-05 2.919195367212523706e-06 1.095660809369292110e-05 1.884751691250130534e-05
4.014000000000000000e+03 3.489431142807006836e-01 9.570703506469726562e-01 -3.547298183548264205e-05 -4.409918255987577140e-05 -2.387164931860752404e-05 -1.933733437908813357e-05
4.015000000000000000e+03 3.090358018875122070e+00 1.101411938667297363e+00 3.163828296237625182e-05 -1.400732435286045074e-04 -3.253048998885788023e-05 -9.360364492749795318e-05
4.016000000000000000e+03 3.819237709045410156e+00 1.108143687248229980e+00 9.659137867856770754e-05 1.647710887482389808e-04 7.840873877285048366e-05 4.551243546302430332e-05
4.017000000000000000e+03 4.335169315338134766e+00 3.733847737312316895e-01 1.030829589581117034e-04 2.317076869076117873e-04 1.004371952149085701e-04 7.538508361903950572e-05
4.018000000000000000e+03 6.008533000946044922e+00 1.116871237754821777e+00 6.859766290290281177e-05 -1.693425583653151989e-04 -3.022346754733007401e-05 -1.604476710781455040e-04
4.019000000000000000e+03 6.603851795196533203e+00 3.786112964153289795e-01 9.434772800887003541e-05 -1.678840781096369028e-04 -2.206090357503853738e-05 -8.275292202597483993e-05
4.020000000000000000e+03 8.930113792419433594e+00 1.122923851013183594e+00 3.294405905762687325e-05 -3.079335874645039439e-05 6.452094112319173291e-07 -1.206597880809567869e-04
4.021000000000000000e+03 8.199422836303710938e+00 1.120554327964782715e+00 1.604825374670326710e-04 5.882818732061423361e-05 6.579321780009195209e-05 1.844176149461418390e-04
4.022000000000000000e+03 7.469150543212890625e+00 1.119543075561523438e+00 5.792158117401413620e-05 -1.109065851778723300e-04 -1.589550083735957742e-05 -1.525496336398646235e-04
4.023000000000000000e+03 6.739063739776611328e+00 1.118611335754394531e+00 1.766215282259508967e-04 1.229387125931680202e-04 8.986807370092719793e-05 1.628187019377946854e-04
4.024000000000000000e+03 5.278835773468017578e+00 1.115882039070129395e+00 1.535124029032886028e-04 1.608804450370371342e-04 9.431785292690619826e-05 1.054962413036264479e-04
4.025000000000000000e+03 4.549146175384521484e+00 1.113384723663330078e+00 6.226402911124750972e-05 -1.797007425921037793e-04 -3.523101622704416513e-05 -1.400563196511939168e-04
4.026000000000000000e+03 9.968983530998229980e-01 1.133925795555114746e+00 -3.260774974478408694e-05 1.114557962864637375e-04 2.365441469009965658e-05 1.909843740577343851e-05
4.027000000000000000e+03 7.947246074676513672e+00 -3.790149092674255371e-01 -1.466297835577279329e-04 -6.274054612731561065e-05 -6.281110108830034733e-05 9.920761658577248454e-05
4.028000000000000000e+03 8.798082351684570312e+00 -1.121163964271545410e+00 -1.100463487091474235e-04 4.434447419043863192e-06 -3.168356852256692946e-05 2.463718119543045759e-04
4.029000000000000000e+03 9.582462310791015625e+00 -3.862577378749847412e-01 -9.277963545173406601e-05 6.846560427220538259e-05 -7.294210263353306800e-06 8.490563777741044760e-05
4.030000000000000000e+03 7.128131389617919922e+00 -3.778152763843536377e-01 -1.149166855611838400e-04 1.392049307469278574e-04 7.286475920409429818e-06 -9.981609764508903027e-05
4.031000000000000000e+03 6.302709579467773438e+00 -3.771458566188812256e-01 -1.696179097052663565e-04 -2.024760469794273376e-04 -1.116281855502165854e-04 1.126310162362642586e-04
4.032000000000000000e+03 5.439445972442626953e+00 -3.834656774997711182e-01 -1.642393908696249127e-04 2.342231746297329664e-04 2.099513403663877398e-05 -8.454288035864010453e-05
4.033000000000000000e+03 4.549984931945800781e+00 -3.402172923088073730e-01 -7.961439405335113406e-05 -2.465909346938133240e-04 -9.786160080693662167e-05 4.680189704231452197e-06
4.034000000000000000e+03 4.365737915039062500e+00 -8.721476197242736816e-01 -1.275912218261510134e-04 1.734201941872015595e-04 1.374868952552787960e-05 1.399416669300990179e-05
4.035000000000000000e+03 2.784216165542602539e+00 -7.810403704643249512e-01 -6.236410990823060274e-05 3.395088424440473318e-05 -8.523967153450939804e-06 -2.781366492854431272e-05
4.036000000000000000e+03 1.180924773216247559e+00 -3.613742887973785400e-01 -6.564627983607351780e-05 -9.692510502645745873e-06 -2.260163637402001768e-05 1.012176653603091836e-05
4.037000000000000000e+03 4.100910127162933350e-01 -5.529776215553283691e-01 -2.028922062891069800e-05 -4.420494951773434877e-05 -1.934825195348821580e-05 -3.847207335638813674e-05
4.038000000000000000e+03 7.475960254669189453e-01 -1.101374268531799316e+00 1.772439718479290605e-04 1.390340476064011455e-04 9.488340583629906178e-05 5.698035965906456113e-05
4.039000000000000000e+03 9.582078933715820312e+00 -1.126257777214050293e+00 -1.708091076579876244e-05 -3.420459324843250215e-05 -1.538565084047149867e-05 -1.746706402627751231e-04
4.040000000000000000e+03 8.013586997985839844e+00 -1.119014978408813477e+00 -3.591450513340532780e-05 3.863599704345688224e-05 8.164467999449698254e-07 -2.020481770159676671e-04
4.041000000000000000e+03 7.227835178375244141e+00 -1.117815256118774414e+00 -1.528366847196593881e-04 -4.916515172226354480e-05 -6.060054874978959560e-05 2.353791642235592008e-04
4.042000000000000000e+03 6.435775756835937500e+00 -1.117145895957946777e+00 -3.897231363225728273e-05 8.068447641562670469e-05 1.251364847121294588e-05 -2.133619564119726419e-04
4.043000000000000000e+03 5.605874538421630859e+00 -1.123465657234191895e+00 -1.433593570254743099e-04 -7.927084516268223524e-05 -6.678906356683000922e-05 2.048238820862025023e-04
4.044000000000000000e+03 4.870606899261474609e+00 -1.221678614616394043e+00 -3.322104021208360791e-05 2.853736805263906717e-05 -1.405101784257567488e-06 -3.462003078311681747e-04
4.045000000000000000e+03 4.215381145477294922e+00 -1.291930317878723145e+00 -3.424886745051480830e-05 -7.572562026325613260e-05 -3.299234595033340156e-05 2.344718959648162127e-04
4.046000000000000000e+03 3.483533143997192383e+00 -1.264367222785949707e+00 -1.174720528069883585e-04 1.071505321306176484e-04 -3.096456111961742863e-06 -1.847175008151680231e-04
4.047000000000000000e+03 2.720056772232055664e+00 -1.259521603584289551e+00 4.325329427956603467e-05 -1.165746871265582740e-04 -2.199641858169343323e-05 4.918190097669139504e-05
4.048000000000000000e+03 1.356012225151062012e+00 -1.203287243843078613e+00 -4.606788206729106605e-05 -3.003871825058013201e-04 -1.039365160977467895e-04 -3.594833833631128073e-05
4.049000000000000000e+03 1.973117947578430176e+00 -8.476541042327880859e-01 5.942863936070352793e-05 5.156716360943391919e-05 3.329874016344547272e-05 -8.160275319823995233e-05
4.050000000000000000e+03 8.765102386474609375e+00 -3.811639845371246338e-01 -9.297046199208125472e-05 -6.156531526357866824e-06 -2.973809750983491540e-05 -7.185429421951994300e-05
4.051000000000000000e+03 3.694828748703002930e+00 -2.827752828598022461e-01 -1.063616946339607239e-04 2.126242325175553560e-04 3.187876063748262823e-05 2.165079604310449213e-05
4.052000000000000000e+03 2.863922595977783203e+00 -2.815187871456146240e-01 -1.107307907659560442e-04 -1.393983839079737663e-04 -7.503874803660437465e-05 -3.220954749849624932e-05
4.053000000000000000e+03 1.994147539138793945e+00 -3.323310017585754395e-01 -4.679631092585623264e-05 5.228595910011790693e-05 1.646893906581681222e-06 2.469920218572951853e-06
4.054000000000000000e+03 1.978801369667053223e+00 -1.275323033332824707e+00 -1.620243274373933673e-04 1.977756473934277892e-04 1.072539453161880374e-05 -1.308339997194707394e-04
4.055000000000000000e+03 3.578665971755981445e+00 -7.871425151824951172e-01 -8.954799704952165484e-05 -1.044357195496559143e-04 -5.819511352456174791e-05 6.636084435740485787e-06
4.056000000000000000e+03 1.511178874969482422e+01 -1.151870131492614746e+00 -1.410799177392618731e-05 -4.148982043261639774e-05 -1.667934338911436498e-05 -4.863405774813145399e-05
4.057000000000000000e+03 1.328532791137695312e+01 -1.267471551895141602e+00 1.880988565972074866e-05 1.678322223597206175e-05 1.067793255060678348e-05 8.193311805371195078e-05
4.058000000000000000e+03 1.480503654479980469e+01 -5.744030475616455078e-01 5.840400626766495407e-05 1.186413828691001981e-05 2.108044282067567110e-05 7.646211997780483216e-06
4.059000000000000000e+03 1.453040313720703125e+01 -1.313965797424316406e+00 -1.118807704187929630e-04 3.481006206129677594e-05 -2.312121432623825967e-05 1.046473407768644392e-04
4.060000000000000000e+03 1.393833351135253906e+01 -1.278923630714416504e+00 1.426813742000376806e-05 8.024306225706823170e-06 6.687733275612117723e-06 -1.025429519359022379e-04
4.061000000000000000e+03 1.336329460144042969e+01 -5.279909372329711914e-01 -7.224163596220023464e-07 -6.155234586913138628e-05 -1.868242725322488695e-05 -3.855289469356648624e-05
4.062000000000000000e+03 1.411463356018066406e+01 -5.394020080566406250e-01 2.067535660899011418e-06 4.035234087496064603e-05 1.272596364287892357e-05 3.981085683335550129e-05
4.063000000000000000e+03 1.111242771148681641e+01 -4.403275847434997559e-01 -4.624214852810837328e-05 1.348116493318229914e-04 2.657085133250802755e-05 5.798226629849523306e-05
4.064000000000000000e+03 1.260764503479003906e+01 -5.095726251602172852e-01 2.749404188762127887e-07 8.200465526897460222e-05 2.468387901899404824e-05 3.121739064226858318e-05
4.065000000000000000e+03 1.185993289947509766e+01 -4.741277396678924561e-01 5.419495892056147568e-07 -1.222218852490186691e-04 -3.650397775345481932e-05 -2.038566162809729576e-05
4.066000000000000000e+03 1.109096240997314453e+01 -1.180124521255493164e+00 4.375473508844152093e-05 -1.219645419041626155e-04 -2.346294240851420909e-05 -1.074819519999437034e-04
4.067000000000000000e+03 1.036482620239257812e+01 -4.067706167697906494e-01 -4.053588054375723004e-05 -1.194926371681503952e-04 -4.800855458597652614e-05 -4.991857713321223855e-05
4.068000000000000000e+03 1.034629440307617188e+01 -1.146702885627746582e+00 -9.302447142545133829e-05 7.732337689958512783e-05 -4.710329449153505266e-06 2.245041541755199432e-04
4.069000000000000000e+03 1.258031177520751953e+01 -1.249099493026733398e+00 8.356944817933253944e-06 -8.940685074776411057e-05 -2.431497159705031663e-05 -5.060017429059371352e-05
4.070000000000000000e+03 1.183553314208984375e+01 -1.213789224624633789e+00 -5.981002323096618056e-05 1.067304692696779966e-04 1.407613399351248518e-05 1.089013385353609920e-04
4.071000000000000000e+03 3.501958084106445312e+01 -6.720163822174072266e+00 3.354016876220703125e+01 6.927382946014404297e+00 1.214026546478271484e+01 1.285986423492431641e+01
4.072000000000000000e+03 3.502395629882812500e+01 -6.739134311676025391e+00 3.023840522766113281e+01 1.970262908935546875e+01 1.498231029510498047e+01 2.357173156738281250e+01
4.073000000000000000e+03 3.503194046020507812e+01 -6.756889820098876953e+00 2.765971755981445312e+01 3.183306503295898438e+01 1.784783363342285156e+01 2.706505203247070312e+01
4.074000000000000000e+03 3.504322814941406250e+01 -6.772750854492187500e+00 2.374789428710937500e+01 4.422532272338867188e+01 2.039196395874023438e+01 2.774627685546875000e+01
4.075000000000000000e+03 3.505739212036132812e+01 -6.786110877990722656e+00 2.044277381896972656e+01 5.537672042846679688e+01 2.274584770202636719e+01 2.547953414916992188e+01
4.076000000000000000e+03 3.507388305664062500e+01 -6.796458244323730469e+00 1.745661735534667969e+01 6.477088165283203125e+01 2.466825103759765625e+01 2.079316139221191406e+01
4.077000000000000000e+03 3.509207153320312500e+01 -6.803397655487060547e+00 1.620100212097167969e+01 7.146269226074218750e+01 2.629910850524902344e+01 1.441022872924804688e+01
4.078000000000000000e+03 3.511126327514648438e+01 -6.806662559509277344e+00 1.660518836975097656e+01 7.500090789794921875e+01 2.748182868957519531e+01 7.064046382904052734e+00
4.079000000000000000e+03 3.513072204589843750e+01 -6.806128978729248047e+00 1.912277221679687500e+01 7.535639953613281250e+01 2.834375190734863281e+01 1.282370183616876602e-02
4.080000000000000000e+03 3.514970779418945312e+01 -6.801816940307617188e+00 2.331421470642089844e+01 7.287215423583984375e+01 2.885591125488281250e+01 -5.973681449890136719e+00
4.081000000000000000e+03 3.516748809814453125e+01 -6.793891429901123047e+00 2.867109870910644531e+01 6.845724487304687500e+01 2.913850402832031250e+01 -1.004287815093994141e+01
4.082000000000000000e+03 3.518338775634765625e+01 -6.782655715942382812e+00 3.432861328125000000e+01 6.292192459106445312e+01 2.917516136169433594e+01 -1.196772480010986328e+01
4.083000000000000000e+03 3.519679641723632812e+01 -6.768539905548095703e+00 3.962569427490234375e+01 5.748543548583984375e+01 2.913333892822265625e+01 -1.170481300354003906e+01
4.084000000000000000e+03 3.520719909667968750e+01 -6.752083778381347656e+00 4.395547866821289062e+01 5.273418807983398438e+01 2.900690078735351562e+01 -9.635803222656250000e+00
4.085000000000000000e+03 3.521419906616210938e+01 -6.733917713165283203e+00 4.688808441162109375e+01 4.941027832031250000e+01 2.888950920104980469e+01 -6.294215202331542969e+00
4.086000000000000000e+03 3.521752929687500000e+01 -6.714735984802246094e+00 4.829459381103515625e+01 4.777727508544921875e+01 2.882156181335449219e+01 -2.184150457382202148e+00
4.087000000000000000e+03 3.521706008911132812e+01 -6.695273399353027344e+00 4.809186935424804688e+01 4.798686981201171875e+01 2.882362174987792969e+01 2.085190534591674805e+00
4.088000000000000000e+03 3.521281051635742188e+01 -6.676274776458740234e+00 4.630368041992187500e+01 4.998577117919921875e+01 2.888683509826660156e+01 6.011466979980468750e+00
4.089000000000000000e+03 3.520494461059570312e+01 -6.658466339111328125e+00 4.307526016235351562e+01 5.364133071899414062e+01 2.901497650146484375e+01 9.036100387573242188e+00
4.090000000000000000e+03 3.519375991821289062e+01 -6.642530441284179688e+00 3.861354064941406250e+01 5.849299621582031250e+01 2.913196182250976562e+01 1.064542388916015625e+01
4.091000000000000000e+03 3.517969131469726562e+01 -6.629076480865478516e+00 3.337056350708007812e+01 6.399658203125000000e+01 2.921014404296875000e+01 1.036871719360351562e+01
4.092000000000000000e+03 3.516326904296875000e+01 -6.618618965148925781e+00 2.796478080749511719e+01 6.926727294921875000e+01 2.916961479187011719e+01 7.941658496856689453e+00
4.093000000000000000e+03 3.514512634277343750e+01 -6.611558914184570312e+00 2.307834053039550781e+01 7.330442047119140625e+01 2.891482734680175781e+01 3.408425331115722656e+00
4.094000000000000000e+03 3.512595367431640625e+01 -6.608165740966796875e+00 1.956671714782714844e+01 7.522556304931640625e+01 2.843768501281738281e+01 -2.851398229598999023e+00
4.095000000000000000e+03 3.510649108886718750e+01 -6.608569622039794922e+00 1.773627853393554688e+01 7.419084930419921875e+01 2.757813835144042969e+01 -9.992628097534179688e+00
4.096000000000000000e+03 3.508747863769531250e+01 -6.612755298614501953e+00 1.814734458923339844e+01 7.001100921630859375e+01 2.644750595092773438e+01 -1.713858032226562500e+01
4.097000000000000000e+03 3.506964492797851562e+01 -6.620562076568603516e+00 2.003212356567382812e+01 6.270871353149414062e+01 2.482225036621093750e+01 -2.313085365295410156e+01
4.098000000000000000e+03 3.505367279052734375e+01 -6.631691455841064453e+00 2.351777458190917969e+01 5.290404891967773438e+01 2.292654800415039062e+01 -2.719646072387695312e+01
4.099000000000000000e+03 3.504016876220703125e+01 -6.645717620849609375e+00 2.709360313415527344e+01 4.158356857299804688e+01 2.060315132141113281e+01 -2.873929977416992188e+01
4.100000000000000000e+03 3.502965927124023438e+01 -6.662103652954101562e+00 3.094258117675781250e+01 2.922653579711914062e+01 1.805073547363281250e+01 -2.726374053955078125e+01
4.101000000000000000e+03 3.502253723144531250e+01 -6.680222988128662109e+00 3.322679901123046875e+01 1.752183151245117188e+01 1.522458839416503906e+01 -2.303676033020019531e+01
4.102000000000000000e+03 3.501908111572265625e+01 -6.699381828308105469e+00 3.545389938354492188e+01 5.714155197143554688e+00 1.235041618347167969e+01 -1.156198978424072266e+01
