# el_label, x, y, sXX, sYY, sZZ, sXY
1.000000000000000000e+00 6.481790924072265625e+01 -6.423610687255859375e+00 -5.532836914062500000e+00 -2.637373685836791992e+00 -2.451063156127929688e+00 -2.733936548233032227e+00
2.000000000000000000e+00 6.461993408203125000e+01 -6.444175720214843750e+00 -1.326657056808471680e+00 1.040333628654479980e+00 -8.589702099561691284e-02 7.273930907249450684e-01
3.000000000000000000e+00 6.442195892333984375e+01 -6.464740276336669922e+00 -2.611311912536621094e+00 -4.854722619056701660e-01 -9.290352463722229004e-01 -4.826437681913375854e-03
4.000000000000000000e+00 6.422398376464843750e+01 -6.485304832458496094e+00 -3.006990671157836914e+00 2.676808834075927734e-01 -8.217929005622863770e-01 1.868689358234405518e-01
5.000000000000000000e+00 6.482959747314453125e+01 -6.480834007263183594e+00 9.780578613281250000e+00 -2.446440219879150391e+00 2.200241327285766602e+00 1.985042214393615723e+00
6.000000000000000000e+00 6.463941192626953125e+01 -6.539547443389892578e+00 2.598820686340332031e+00 3.995146751403808594e-01 8.995006084442138672e-01 1.362833380699157715e+00
7.000000000000000000e+00 6.444922637939453125e+01 -6.598260879516601562e+00 2.374097824096679688e+00 7.941655516624450684e-01 9.504790306091308594e-01 2.125341653823852539e+00
8.000000000000000000e+00 6.425904846191406250e+01 -6.656974315643310547e+00 1.240173697471618652e+00 1.943854987621307373e-01 4.303677380084991455e-01 1.416908979415893555e+00
9.000000000000000000e+00 6.485220336914062500e+01 -6.534687042236328125e+00 1.482654571533203125e+01 2.712151527404785156e+00 5.261609077453613281e+00 9.041954994201660156e+00
1.000000000000000000e+01 6.467708587646484375e+01 -6.629302501678466797e+00 8.424720764160156250e+00 1.613990306854248047e+00 3.011613368988037109e+00 5.272893905639648438e+00
1.100000000000000000e+01 6.450196838378906250e+01 -6.723917484283447266e+00 5.259884834289550781e+00 2.116214513778686523e+00 2.212829828262329102e+00 4.145746231079101562e+00
1.200000000000000000e+01 6.432685852050781250e+01 -6.818533420562744141e+00 4.269537448883056641e+00 1.851189613342285156e+00 1.836218237876892090e+00 3.909842014312744141e+00
1.300000000000000000e+01 6.488485717773437500e+01 -6.583109378814697266e+00 1.632218360900878906e+01 9.715464591979980469e+00 7.811294555664062500e+00 1.442104721069335938e+01
1.400000000000000000e+01 6.473151397705078125e+01 -6.710005760192871094e+00 1.005583953857421875e+01 6.050909042358398438e+00 4.832024574279785156e+00 9.412959098815917969e+00
1.500000000000000000e+01 6.457817077636718750e+01 -6.836902618408203125e+00 7.581983089447021484e+00 4.950977325439453125e+00 3.759887933731079102e+00 7.385908126831054688e+00
1.600000000000000000e+01 6.442482757568359375e+01 -6.963799476623535156e+00 5.603293418884277344e+00 4.379547595977783203e+00 2.994852304458618164e+00 6.259342670440673828e+00
1.700000000000000000e+01 6.492631530761718750e+01 -6.624247550964355469e+00 1.437479591369628906e+01 1.845422172546386719e+01 9.848705291748046875e+00 1.765036964416503906e+01
1.800000000000000000e+01 6.480060577392578125e+01 -6.778569221496582031e+00 1.003559017181396484e+01 1.194477367401123047e+01 6.594109058380126953e+00 1.240666961669921875e+01
1.900000000000000000e+01 6.467490386962890625e+01 -6.932891368865966797e+00 7.440800189971923828e+00 9.544467926025390625e+00 5.095580577850341797e+00 9.902647018432617188e+00
2.000000000000000000e+01 6.454919433593750000e+01 -7.087213516235351562e+00 6.102787494659423828e+00 8.235734939575195312e+00 4.301556587219238281e+00 8.641521453857421875e+00
2.100000000000000000e+01 6.497499084472656250e+01 -6.656527519226074219e+00 1.151122188568115234e+01 2.735582351684570312e+01 1.166011333465576172e+01 1.824082183837890625e+01
2.200000000000000000e+01 6.488172912597656250e+01 -6.832369327545166016e+00 8.228651046752929688e+00 1.869520187377929688e+01 8.077156066894531250e+00 1.348574352264404297e+01
2.300000000000000000e+01 6.478847503662109375e+01 -7.008211135864257812e+00 6.482491493225097656e+00 1.495041084289550781e+01 6.429870605468750000e+00 1.129963779449462891e+01
2.400000000000000000e+01 6.469521331787109375e+01 -7.184053421020507812e+00 5.158748149871826172e+00 1.289586639404296875e+01 5.416384696960449219e+00 9.743654251098632812e+00
2.500000000000000000e+01 6.502901458740234375e+01 -6.678713798522949219e+00 8.373685836791992188e+00 3.546499252319335938e+01 1.315160369873046875e+01 1.613937950134277344e+01
2.600000000000000000e+01 6.497177124023437500e+01 -6.869347095489501953e+00 6.333353042602539062e+00 2.520094490051269531e+01 9.460289955139160156e+00 1.279789352416992188e+01
2.700000000000000000e+01 6.491453552246093750e+01 -7.059979915618896484e+00 4.798436641693115234e+00 2.043931961059570312e+01 7.571326732635498047e+00 1.086763381958007812e+01
2.800000000000000000e+01 6.485729980468750000e+01 -7.250612735748291016e+00 3.845587253570556641e+00 1.769722938537597656e+01 6.462844848632812500e+00 9.706406593322753906e+00
2.900000000000000000e+01 6.508632659912109375e+01 -6.689958095550537109e+00 6.606363296508789062e+00 4.176908874511718750e+01 1.451263618469238281e+01 1.211893939971923828e+01
3.000000000000000000e+01 6.506729125976562500e+01 -6.888086795806884766e+00 4.682119369506835938e+00 3.063522720336914062e+01 1.059520435333251953e+01 1.035488319396972656e+01
3.100000000000000000e+01 6.504826354980468750e+01 -7.086215972900390625e+00 3.515495061874389648e+00 2.538019371032714844e+01 8.668706893920898438e+00 9.086546897888183594e+00
3.200000000000000000e+01 6.502923583984375000e+01 -7.284345149993896484e+00 2.584587574005126953e+00 2.193733978271484375e+01 7.356578350067138672e+00 8.117847442626953125e+00
3.300000000000000000e+01 6.514472961425781250e+01 -6.689829349517822266e+00 6.403740882873535156e+00 4.557772827148437500e+01 1.559444141387939453e+01 6.959774971008300781e+00
3.400000000000000000e+01 6.516463470458984375e+01 -6.887872219085693359e+00 4.308556079864501953e+00 3.457873916625976562e+01 1.166618919372558594e+01 6.885640621185302734e+00
3.500000000000000000e+01 6.518453979492187500e+01 -7.085915565490722656e+00 2.850941419601440430e+00 2.894589996337890625e+01 9.539052963256835938e+00 6.186877250671386719e+00
3.600000000000000000e+01 6.520444488525390625e+01 -7.283958911895751953e+00 2.137278079986572266e+00 2.552882385253906250e+01 8.299830436706542969e+00 5.655281066894531250e+00
3.700000000000000000e+01 6.520199584960937500e+01 -6.678332805633544922e+00 8.292495727539062500e+00 4.698086166381835938e+01 1.658200645446777344e+01 1.883647799491882324e+00
3.800000000000000000e+01 6.526007080078125000e+01 -6.868711471557617188e+00 5.132833003997802734e+00 3.658094406127929688e+01 1.251413249969482422e+01 2.917362213134765625e+00
3.900000000000000000e+01 6.531815338134765625e+01 -7.059090614318847656e+00 3.498087644577026367e+00 3.105812072753906250e+01 1.036686229705810547e+01 2.915867805480957031e+00
4.000000000000000000e+01 6.537622833251953125e+01 -7.249469757080078125e+00 2.527060031890869141e+00 2.747828292846679688e+01 9.001603126525878906e+00 2.782872438430786133e+00
4.100000000000000000e+01 6.525592041015625000e+01 -6.655908107757568359e+00 1.168928432464599609e+01 4.617645263671875000e+01 1.735972023010253906e+01 -2.358776807785034180e+00
4.200000000000000000e+01 6.534995269775390625e+01 -6.831337928771972656e+00 7.355689525604248047e+00 3.688019943237304688e+01 1.327076625823974609e+01 -6.779392361640930176e-01
4.300000000000000000e+01 6.544398498535156250e+01 -7.006767272949218750e+00 5.293001651763916016e+00 3.148808860778808594e+01 1.103432655334472656e+01 -2.319523394107818604e-01
4.400000000000000000e+01 6.553801727294921875e+01 -7.182196617126464844e+00 4.035615921020507812e+00 2.788126564025878906e+01 9.575064659118652344e+00 -1.014043111354112625e-02
4.500000000000000000e+01 6.530445098876953125e+01 -6.623414039611816406e+00 1.599573802947998047e+01 4.402833175659179688e+01 1.800722122192382812e+01 -5.070689201354980469e+00
4.600000000000000000e+01 6.543083953857421875e+01 -6.777181148529052734e+00 1.060178375244140625e+01 3.565294265747070312e+01 1.387641811370849609e+01 -3.387292861938476562e+00
4.700000000000000000e+01 6.555722045898437500e+01 -6.930947780609130859e+00 8.027221679687500000e+00 3.062946701049804688e+01 1.159700679779052734e+01 -2.634946346282958984e+00
4.800000000000000000e+01 6.568360137939453125e+01 -7.084714412689208984e+00 6.415070533752441406e+00 2.715234184265136719e+01 1.007022380828857422e+01 -2.304211616516113281e+00
4.900000000000000000e+01 6.534572601318359375e+01 -6.582093715667724609e+00 2.046434402465820312e+01 4.120235061645507812e+01 1.850000762939453125e+01 -6.099984169006347656e+00
5.000000000000000000e+01 6.549963378906250000e+01 -6.708313465118408203e+00 1.430117797851562500e+01 3.358845901489257812e+01 1.436689186096191406e+01 -4.780363082885742188e+00
5.100000000000000000e+01 6.565353393554687500e+01 -6.834533691406250000e+00 1.128000831604003906e+01 2.886157989501953125e+01 1.204247570037841797e+01 -3.966908693313598633e+00
5.200000000000000000e+01 6.580743408203125000e+01 -6.960753440856933594e+00 9.220666885375976562e+00 2.580337524414062500e+01 1.050721263885498047e+01 -3.526656627655029297e+00
5.300000000000000000e+01 6.537816619873046875e+01 -6.533528804779052734e+00 2.439831924438476562e+01 3.854195785522460938e+01 1.888208389282226562e+01 -5.565161705017089844e+00
5.400000000000000000e+01 6.555370330810546875e+01 -6.627371311187744141e+00 1.783369827270507812e+01 3.120485305786132812e+01 1.471156597137451172e+01 -4.745460987091064453e+00
5.500000000000000000e+01 6.572923278808593750e+01 -6.721214294433593750e+00 1.440271472930908203e+01 2.691951370239257812e+01 1.239666843414306641e+01 -4.064745426177978516e+00
5.600000000000000000e+01 6.590476226806640625e+01 -6.815057277679443359e+00 1.212486648559570312e+01 2.406618690490722656e+01 1.085731601715087891e+01 -3.581843376159667969e+00
5.700000000000000000e+01 6.540053558349609375e+01 -6.479576587677001953e+00 2.724374198913574219e+01 3.642017745971679688e+01 1.909917449951171875e+01 -3.845172643661499023e+00
5.800000000000000000e+01 6.559098052978515625e+01 -6.537451267242431641e+00 2.062046623229980469e+01 2.928857994079589844e+01 1.497271347045898438e+01 -3.437876462936401367e+00
5.900000000000000000e+01 6.578141784667968750e+01 -6.595325946807861328e+00 1.681561279296875000e+01 2.518393516540527344e+01 1.259986495971679688e+01 -2.999874830245971680e+00
6.000000000000000000e+01 6.597186279296875000e+01 -6.653201103210449219e+00 1.442979812622070312e+01 2.262891387939453125e+01 1.111761379241943359e+01 -2.692728757858276367e+00
6.100000000000000000e+01 6.541197204589843750e+01 -6.422302246093750000e+00 2.876490592956542969e+01 3.536272811889648438e+01 1.923829078674316406e+01 -1.385917663574218750e+00
6.200000000000000000e+01 6.561003875732421875e+01 -6.441994667053222656e+00 2.211868476867675781e+01 2.811939620971679688e+01 1.507142448425292969e+01 -1.268812894821166992e+00
6.300000000000000000e+01 6.580809783935546875e+01 -6.461686611175537109e+00 1.818365287780761719e+01 2.427486991882324219e+01 1.273755741119384766e+01 -1.124305844306945801e+00
6.400000000000000000e+01 6.600616455078125000e+01 -6.481378555297851562e+00 1.549170207977294922e+01 2.170676612854003906e+01 1.115954017639160156e+01 -1.005126714706420898e+00
6.500000000000000000e+01 6.541204071044921875e+01 -6.363897800445556641e+00 2.877113914489746094e+01 3.534106063842773438e+01 1.923365974426269531e+01 1.337324857711791992e+00
6.600000000000000000e+01 6.561014556884765625e+01 -6.344653606414794922e+00 2.212516593933105469e+01 2.813022804260253906e+01 1.507661819458007812e+01 1.205912590026855469e+00
6.700000000000000000e+01 6.580825805664062500e+01 -6.325409412384033203e+00 1.816259574890136719e+01 2.426323699951171875e+01 1.272775077819824219e+01 1.042793512344360352e+00
6.800000000000000000e+01 6.600636291503906250e+01 -6.306165218353271484e+00 1.551628971099853516e+01 2.164495468139648438e+01 1.114837360382080078e+01 1.007862925529479980e+00
6.900000000000000000e+01 6.540073394775390625e+01 -6.306598186492919922e+00 2.727545928955078125e+01 3.639698410034179688e+01 1.910173416137695312e+01 3.800352334976196289e+00
7.000000000000000000e+01 6.559130859375000000e+01 -6.249154090881347656e+00 2.062781524658203125e+01 2.927814292907714844e+01 1.497178745269775391e+01 3.394290447235107422e+00
7.100000000000000000e+01 6.578187561035156250e+01 -6.191709995269775391e+00 1.678807640075683594e+01 2.519288444519042969e+01 1.259428787231445312e+01 2.945022821426391602e+00
7.200000000000000000e+01 6.597244262695312500e+01 -6.134265899658203125e+00 1.440058517456054688e+01 2.249518013000488281e+01 1.106872940063476562e+01 2.624513387680053711e+00
7.300000000000000000e+01 6.537848663330078125e+01 -6.252595424652099609e+00 2.444496917724609375e+01 3.851499938964843750e+01 1.888799095153808594e+01 5.535382270812988281e+00
7.400000000000000000e+01 6.555422973632812500e+01 -6.159149646759033203e+00 1.784790802001953125e+01 3.117968559265136719e+01 1.470827770233154297e+01 4.731670379638671875e+00
7.500000000000000000e+01 6.572997283935546875e+01 -6.065703868865966797e+00 1.438305377960205078e+01 2.693963241577148438e+01 1.239680576324462891e+01 4.045270919799804688e+00
7.600000000000000000e+01 6.590570831298828125e+01 -5.972258090972900391e+00 1.205173683166503906e+01 2.401782798767089844e+01 1.082086944580078125e+01 3.533545732498168945e+00
7.700000000000000000e+01 6.534615325927734375e+01 -6.203957080841064453e+00 2.050945281982421875e+01 4.115856170654296875e+01 1.850040435791015625e+01 6.096820354461669922e+00
7.800000000000000000e+01 6.550034332275390625e+01 -6.078085422515869141e+00 1.433498764038085938e+01 3.356866455078125000e+01 1.437109565734863281e+01 4.789473533630371094e+00
7.900000000000000000e+01 6.565452575683593750e+01 -5.952213764190673828e+00 1.125092887878417969e+01 2.886927223205566406e+01 1.203606033325195312e+01 4.001272678375244141e+00
8.000000000000000000e+01 6.580871582031250000e+01 -5.826342105865478516e+00 9.258190155029296875e+00 2.586433029174804688e+01 1.053675651550292969e+01 3.536229610443115234e+00
8.100000000000000000e+01 6.530497741699218750e+01 -6.162543296813964844e+00 1.604901313781738281e+01 4.400227737426757812e+01 1.801538658142089844e+01 5.089222431182861328e+00
8.200000000000000000e+01 6.543170928955078125e+01 -6.009062767028808594e+00 1.062873840332031250e+01 3.562229537963867188e+01 1.387530994415283203e+01 3.419339656829833984e+00
8.300000000000000000e+01 6.555843353271484375e+01 -5.855582237243652344e+00 8.034815788269042969e+00 3.062658500671386719e+01 1.159842014312744141e+01 2.716262578964233398e+00
8.400000000000000000e+01 6.568516540527343750e+01 -5.702101707458496094e+00 6.462209701538085938e+00 2.722837448120117188e+01 1.010717487335205078e+01 2.325426101684570312e+00
8.500000000000000000e+01 6.525651550292968750e+01 -6.129939556121826172e+00 1.173355197906494141e+01 4.616751480102539062e+01 1.737031936645507812e+01 2.402131795883178711e+00
8.600000000000000000e+01 6.535094451904296875e+01 -5.954723358154296875e+00 7.368085861206054688e+00 3.687080764770507812e+01 1.327166748046875000e+01 7.215961813926696777e-01
8.700000000000000000e+01 6.544537353515625000e+01 -5.779506683349609375e+00 5.337622165679931641e+00 3.143425559997558594e+01 1.103156375885009766e+01 3.089758455753326416e-01
8.800000000000000000e+01 6.553979492187500000e+01 -5.604290485382080078e+00 3.990198612213134766e+00 2.792607688903808594e+01 9.574882507324218750e+00 8.599317818880081177e-02
8.900000000000000000e+01 6.520263671875000000e+01 -6.107393264770507812e+00 8.293116569519042969e+00 4.699334335327148438e+01 1.658593750000000000e+01 -1.818817615509033203e+00
9.000000000000000000e+01 6.526114654541015625e+01 -5.917146205902099609e+00 5.149558067321777344e+00 3.660304260253906250e+01 1.252578067779541016e+01 -2.873930692672729492e+00
9.100000000000000000e+01 6.531965637207031250e+01 -5.726899147033691406e+00 3.508495807647705078e+00 3.101037406921386719e+01 1.035566139221191406e+01 -2.885102987289428711e+00
9.200000000000000000e+01 6.537816619873046875e+01 -5.536652088165283203e+00 2.472524404525756836e+00 2.736557579040527344e+01 8.951430320739746094e+00 -2.691036462783813477e+00
9.300000000000000000e+01 6.514540100097656250e+01 -6.095767498016357422e+00 6.412442684173583984e+00 4.563691711425781250e+01 1.561480808258056641e+01 -6.887216091156005859e+00
9.400000000000000000e+01 6.516575622558593750e+01 -5.897769927978515625e+00 4.261218070983886719e+00 3.462657546997070312e+01 1.166633796691894531e+01 -6.850516319274902344e+00
9.500000000000000000e+01 6.518610382080078125e+01 -5.699771881103515625e+00 2.859054088592529297e+00 2.897251319885253906e+01 9.549469947814941406e+00 -6.195126533508300781e+00
9.600000000000000000e+01 6.520645904541015625e+01 -5.501774311065673828e+00 2.031531810760498047e+00 2.539584541320800781e+01 8.228213310241699219e+00 -5.686090469360351562e+00
9.700000000000000000e+01 6.508699798583984375e+01 -6.095507144927978516e+00 6.561930656433105469e+00 4.185326385498046875e+01 1.452455806732177734e+01 -1.205817604064941406e+01
9.800000000000000000e+01 6.506842041015625000e+01 -5.897335529327392578e+00 4.630352497100830078e+00 3.073479843139648438e+01 1.060954570770263672e+01 -1.032550716400146484e+01
9.900000000000000000e+01 6.504983520507812500e+01 -5.699163913726806641e+00 3.444717407226562500e+00 2.546310806274414062e+01 8.672348022460937500e+00 -9.126747131347656250e+00
1.000000000000000000e+02 6.503125000000000000e+01 -5.500992298126220703e+00 2.495239019393920898e+00 2.211540985107421875e+01 7.383194923400878906e+00 -8.180003166198730469e+00
1.010000000000000000e+02 6.502966308593750000e+01 -6.106621265411376953e+00 8.318477630615234375e+00 3.558750152587890625e+01 1.317179393768310547e+01 -1.610652351379394531e+01
1.020000000000000000e+02 6.497285461425781250e+01 -5.915859699249267578e+00 6.261266708374023438e+00 2.530934715270996094e+01 9.471183776855468750e+00 -1.277473831176757812e+01
1.030000000000000000e+02 6.491604614257812500e+01 -5.725097656250000000e+00 4.667198657989501953e+00 2.061373710632324219e+01 7.584280490875244141e+00 -1.090388202667236328e+01
1.040000000000000000e+02 6.485923767089843750e+01 -5.534335613250732422e+00 3.807228088378906250e+00 1.802818679809570312e+01 6.550624847412109375e+00 -9.661518096923828125e+00
1.050000000000000000e+02 6.497558593750000000e+01 -6.128685474395751953e+00 1.142634391784667969e+01 2.749865913391113281e+01 1.167750167846679688e+01 -1.823227310180664062e+01
1.060000000000000000e+02 6.488272857666015625e+01 -5.952633380889892578e+00 8.177946090698242188e+00 1.880681228637695312e+01 8.095427513122558594e+00 -1.349754428863525391e+01
1.070000000000000000e+02 6.478986358642578125e+01 -5.776580810546875000e+00 6.334037780761718750e+00 1.513990211486816406e+01 6.442182064056396484e+00 -1.126043605804443359e+01
1.080000000000000000e+02 6.469700622558593750e+01 -5.600528717041015625e+00 5.120134830474853516e+00 1.308771228790283203e+01 5.462354183197021484e+00 -9.659664154052734375e+00
1.090000000000000000e+02 6.492684173583984375e+01 -6.160855293273925781e+00 1.431682395935058594e+01 1.858557701110839844e+01 9.870720863342285156e+00 -1.767505264282226562e+01
1.100000000000000000e+02 6.480148315429687500e+01 -6.006249427795410156e+00 9.970979690551757812e+00 1.206667518615722656e+01 6.611296653747558594e+00 -1.244024181365966797e+01
1.110000000000000000e+02 6.467612457275390625e+01 -5.851643562316894531e+00 7.407058238983154297e+00 9.647727966308593750e+00 5.116436004638671875e+00 -9.847010612487792969e+00
1.120000000000000000e+02 6.455076599121093750e+01 -5.697038173675537109e+00 5.994778633117675781e+00 8.187511444091796875e+00 4.254686832427978516e+00 -8.545278549194335938e+00
1.130000000000000000e+02 6.488529205322265625e+01 -6.201899528503417969e+00 1.632434844970703125e+01 9.839668273925781250e+00 7.849205017089843750e+00 -1.447316837310791016e+01
1.140000000000000000e+02 6.473223114013671875e+01 -6.074656963348388672e+00 9.998734474182128906e+00 6.124507904052734375e+00 4.836972713470458984e+00 -9.448962211608886719e+00
1.150000000000000000e+02 6.457917785644531250e+01 -5.947413444519042969e+00 7.611721992492675781e+00 5.006706714630126953e+00 3.785528659820556641e+00 -7.373592376708984375e+00
1.160000000000000000e+02 6.442611694335937500e+01 -5.820170402526855469e+00 5.648654937744140625e+00 4.233801841735839844e+00 2.964736938476562500e+00 -6.283376216888427734e+00
1.170000000000000000e+02 6.485252380371093750e+01 -6.250247955322265625e+00 1.480812644958496094e+01 2.734287023544311523e+00 5.262723922729492188e+00 -9.139135360717773438e+00
1.180000000000000000e+02 6.467762756347656250e+01 -6.155237197875976562e+00 8.475315093994140625e+00 1.709112644195556641e+00 3.055328369140625000e+00 -5.277702808380126953e+00
1.190000000000000000e+02 6.450272369384765625e+01 -6.060225963592529297e+00 5.247634887695312500e+00 2.066591739654541016e+00 2.194267988204956055e+00 -4.183710098266601562e+00
1.200000000000000000e+02 6.432781982421875000e+01 -5.965214729309082031e+00 4.374234676361083984e+00 1.986812710762023926e+00 1.908314228057861328e+00 -4.058172702789306641e+00
1.210000000000000000e+02 6.482979583740234375e+01 -6.304049491882324219e+00 9.854206085205078125e+00 -2.383584022521972656e+00 2.241186380386352539e+00 -2.046736955642700195e+00
1.220000000000000000e+02 6.463974761962890625e+01 -6.244906425476074219e+00 2.644442081451416016e+00 3.672043681144714355e-01 9.034939408302307129e-01 -1.389808535575866699e+00
1.230000000000000000e+02 6.444969940185546875e+01 -6.185763359069824219e+00 2.457988739013671875e+00 8.457264304161071777e-01 9.911145567893981934e-01 -2.149265766143798828e+00
1.240000000000000000e+02 6.425964355468750000e+01 -6.126620292663574219e+00 1.086006879806518555e+00 2.972095608711242676e-01 4.149649143218994141e-01 -1.420298218727111816e+00
1.250000000000000000e+02 6.481797790527343750e+01 -6.361246109008789062e+00 -5.403415679931640625e+00 -2.593662023544311523e+00 -2.399123191833496094e+00 2.743388175964355469e+00
1.260000000000000000e+02 6.462004852294921875e+01 -6.340234279632568359e+00 -1.268901348114013672e+00 9.814246296882629395e-01 -8.624303340911865234e-02 -7.458495497703552246e-01
1.270000000000000000e+02 6.442211914062500000e+01 -6.319221973419189453e+00 -2.587075948715209961e+00 -4.168178737163543701e-01 -9.011681079864501953e-01 9.979126974940299988e-03
1.280000000000000000e+02 6.422419738769531250e+01 -6.298210144042968750e+00 -2.893062829971313477e+00 2.558851540088653564e-01 -7.911533117294311523e-01 -1.142397522926330566e-01
1.290000000000000000e+02 2.196186065673828125e+01 -6.700578212738037109e+00 -2.386942803859710693e-01 5.250270944088697433e-03 -7.003320008516311646e-02 -3.991259727627038956e-03
1.300000000000000000e+02 2.033289909362792969e+01 -7.179516792297363281e+00 -1.645740717649459839e-01 7.050673477351665497e-03 -4.725702106952667236e-02 -5.977714061737060547e-02
1.310000000000000000e+02 2.261169624328613281e+01 -7.556783676147460938e+00 -3.750597536563873291e-01 1.180183887481689453e-02 -1.089773699641227722e-01 -8.197093009948730469e-02
1.320000000000000000e+02 2.185197448730468750e+01 -7.432458400726318359e+00 -3.023672699928283691e-01 1.448586583137512207e-02 -8.636442571878433228e-02 -7.451973110437393188e-02
1.330000000000000000e+02 2.270871162414550781e+01 -6.822772979736328125e+00 -3.389209508895874023e-01 -4.783898475579917431e-04 -1.018198058009147644e-01 -8.227180805988609791e-04
1.340000000000000000e+02 2.121509361267089844e+01 -6.576943874359130859e+00 -1.590083986520767212e-01 3.437777748331427574e-03 -4.667118564248085022e-02 -1.059381384402513504e-02
1.350000000000000000e+02 2.046852302551269531e+01 -6.451897144317626953e+00 -9.260018169879913330e-02 4.441672004759311676e-03 -2.644755318760871887e-02 -1.421026978641748428e-02
1.360000000000000000e+02 2.109233665466308594e+01 -7.306693553924560547e+00 -2.285533696413040161e-01 1.379723660647869110e-02 -6.442683935165405273e-02 -6.679195910692214966e-02
1.370000000000000000e+02 2.421343040466308594e+01 -6.977969646453857422e+00 -5.167312622070312500e-01 1.448128605261445045e-03 -1.545849293470382690e-01 -1.725980779156088829e-03
1.380000000000000000e+02 2.414235687255859375e+01 -7.714632511138916016e+00 -5.334497094154357910e-01 8.623784407973289490e-03 -1.574477702379226685e-01 -7.961279898881912231e-02
1.390000000000000000e+02 2.337517356872558594e+01 -7.650850772857666016e+00 -4.512907266616821289e-01 6.911838427186012268e-03 -1.333136707544326782e-01 -8.094330877065658569e-02
1.400000000000000000e+02 2.490980529785156250e+01 -7.777047634124755859e+00 -6.153584122657775879e-01 5.363992881029844284e-03 -1.829983294010162354e-01 -8.635426312685012817e-02
1.410000000000000000e+02 2.496787261962890625e+01 -7.039327144622802734e+00 -6.083774566650390625e-01 1.942811184562742710e-03 -1.819303929805755615e-01 1.733501558192074299e-03
1.420000000000000000e+02 2.567740631103515625e+01 -7.838097095489501953e+00 -6.895159482955932617e-01 -2.381775062531232834e-03 -2.075693160295486450e-01 -9.200997650623321533e-02
1.430000000000000000e+02 2.572246742248535156e+01 -7.099318504333496094e+00 -7.169234752655029297e-01 -4.924243316054344177e-03 -2.165543287992477417e-01 -1.748668029904365540e-03
1.440000000000000000e+02 2.345925331115722656e+01 -6.915245532989501953e+00 -4.346673190593719482e-01 -6.987325032241642475e-04 -1.306098103523254395e-01 -2.369067398831248283e-03
1.450000000000000000e+02 2.796761512756347656e+01 -7.914083957672119141e+00 -9.240247607231140137e-01 -4.649246111512184143e-03 -2.786022126674652100e-01 -1.017792075872421265e-01
1.460000000000000000e+02 2.720497512817382812e+01 -7.896495819091796875e+00 -8.487486243247985840e-01 -3.389675635844469070e-03 -2.556414902210235596e-01 -9.222517907619476318e-02
1.470000000000000000e+02 2.644245719909667969e+01 -7.877746582031250000e+00 -7.666060924530029297e-01 -7.115751970559358597e-03 -2.321165502071380615e-01 -9.006194025278091431e-02
1.480000000000000000e+02 2.873032188415527344e+01 -7.930514812469482422e+00 -9.929124712944030762e-01 -1.060033217072486877e-02 -3.010538220405578613e-01 -1.080204471945762634e-01
1.490000000000000000e+02 2.798519706726074219e+01 -7.174292564392089844e+00 -9.625444412231445312e-01 -1.533259055577218533e-04 -2.888093292713165283e-01 -2.043581381440162659e-02
1.500000000000000000e+02 2.723094940185546875e+01 -7.156898498535156250e+00 -8.804754018783569336e-01 -5.734983133152127266e-04 -2.643146514892578125e-01 -1.880808360874652863e-02
1.510000000000000000e+02 2.873951339721679688e+01 -7.190530300140380859e+00 -1.057617902755737305e+00 -5.594287998974323273e-03 -3.189636468887329102e-01 -2.743256092071533203e-02
1.520000000000000000e+02 2.647681999206542969e+01 -7.138342857360839844e+00 -8.095341324806213379e-01 -5.201450083404779434e-03 -2.444206774234771729e-01 -1.244878023862838745e-02
1.530000000000000000e+02 2.949276733398437500e+01 -7.195246696472167969e+00 -1.138688087463378906e+00 -6.026362534612417221e-03 -3.434143364429473877e-01 -3.945454582571983337e-02
1.540000000000000000e+02 2.948995018005371094e+01 -7.935307502746582031e+00 -1.064737200736999512e+00 -1.274000573903322220e-02 -3.232431709766387939e-01 -1.089878082275390625e-01
1.550000000000000000e+02 3.024649810791015625e+01 -7.928795814514160156e+00 -1.140008330345153809e+00 -8.838049136102199554e-03 -3.446539044380187988e-01 -1.136648803949356079e-01
1.560000000000000000e+02 3.099722290039062500e+01 -7.181584835052490234e+00 -1.277011275291442871e+00 -1.900818897411227226e-03 -3.836736083030700684e-01 -5.046965554356575012e-02
1.570000000000000000e+02 3.175983238220214844e+01 -7.913609027862548828e+00 -1.274670004844665527e+00 -1.174859702587127686e-02 -3.859255909919738770e-01 -1.282558441162109375e-01
1.580000000000000000e+02 3.174956512451171875e+01 -7.173673152923583984e+00 -1.359194636344909668e+00 -5.404540337622165680e-03 -4.093797504901885986e-01 -5.674479529261589050e-02
1.590000000000000000e+02 3.024495315551757812e+01 -7.188776493072509766e+00 -1.203091025352478027e+00 -2.389155328273773193e-03 -3.616440594196319580e-01 -4.709625616669654846e-02
1.600000000000000000e+02 3.100312805175781250e+01 -7.921562194824218750e+00 -1.208792090415954590e+00 -8.943754248321056366e-03 -3.653207719326019287e-01 -1.226603537797927856e-01
1.610000000000000000e+02 3.325168609619140625e+01 -7.142140388488769531e+00 -1.499792456626892090e+00 -3.740989603102207184e-03 -4.510600268840789795e-01 -7.124815881252288818e-02
1.620000000000000000e+02 3.401905441284179688e+01 -7.863194465637207031e+00 -1.479466795921325684e+00 -9.679150767624378204e-03 -4.467437863349914551e-01 -1.418515443801879883e-01
1.630000000000000000e+02 3.251437759399414062e+01 -7.900443077087402344e+00 -1.342624545097351074e+00 -1.270511001348495483e-02 -4.065988957881927490e-01 -1.309914141893386841e-01
1.640000000000000000e+02 3.477159881591796875e+01 -7.845397949218750000e+00 -1.545220136642456055e+00 -1.016537379473447800e-02 -4.666156470775604248e-01 -1.463044732809066772e-01
1.650000000000000000e+02 3.475299453735351562e+01 -7.105631351470947266e+00 -1.647156476974487305e+00 -5.084688309580087662e-03 -4.956723451614379883e-01 -7.872561365365982056e-02
1.660000000000000000e+02 3.400221252441406250e+01 -7.123385429382324219e+00 -1.571459889411926270e+00 -2.933324547484517097e-03 -4.723179638385772705e-01 -7.443919777870178223e-02
1.670000000000000000e+02 3.250104904174804688e+01 -7.160549640655517578e+00 -1.433870792388916016e+00 -5.313373636454343796e-03 -4.317552447319030762e-01 -6.542989611625671387e-02
1.680000000000000000e+02 3.326676940917968750e+01 -7.881991863250732422e+00 -1.412819623947143555e+00 -9.778402745723724365e-03 -4.267794191837310791e-01 -1.355800032615661621e-01
1.690000000000000000e+02 3.550323104858398438e+01 -7.085636138916015625e+00 -1.720436453819274902e+00 -4.360275343060493469e-03 -5.174390077590942383e-01 -8.391112834215164185e-02
1.700000000000000000e+02 3.627172470092773438e+01 -7.801253795623779297e+00 -1.680742025375366211e+00 -8.717756718397140503e-03 -5.068379640579223633e-01 -1.522069126367568970e-01
1.710000000000000000e+02 3.552280426025390625e+01 -7.825378894805908203e+00 -1.612055063247680664e+00 -1.051120832562446594e-02 -4.867698848247528076e-01 -1.488391906023025513e-01
1.720000000000000000e+02 3.700176620483398438e+01 -7.040159225463867188e+00 -1.863278508186340332e+00 -3.716645063832402229e-03 -5.600985288619995117e-01 -8.952537924051284790e-02
1.730000000000000000e+02 3.775260925292968750e+01 -7.021411418914794922e+00 -1.935037970542907715e+00 -3.397829830646514893e-03 -5.815307497978210449e-01 -9.140921384096145630e-02
1.740000000000000000e+02 3.777272796630859375e+01 -7.761138439178466797e+00 -1.815525174140930176e+00 -6.705916021019220352e-03 -5.466693043708801270e-01 -1.582960933446884155e-01
1.750000000000000000e+02 3.702170562744140625e+01 -7.779891967773437500e+00 -1.747451424598693848e+00 -7.998540066182613373e-03 -5.266349911689758301e-01 -1.553423553705215454e-01
1.760000000000000000e+02 3.625196838378906250e+01 -7.061516284942626953e+00 -1.790842175483703613e+00 -3.742698114365339279e-03 -5.383754372596740723e-01 -8.711434900760650635e-02
1.770000000000000000e+02 3.925203704833984375e+01 -6.983466625213623047e+00 -2.088283300399780273e+00 -3.565581981092691422e-03 -6.275546550750732422e-01 -9.395752847194671631e-02
1.780000000000000000e+02 3.850259399414062500e+01 -7.002532482147216797e+00 -2.010174036026000977e+00 -2.822003327310085297e-03 -6.038987636566162109e-01 -9.255576133728027344e-02
1.790000000000000000e+02 3.852244567871093750e+01 -7.742266178131103516e+00 -1.883453130722045898e+00 -6.615123245865106583e-03 -5.670204758644104004e-01 -1.611061692237854004e-01
1.800000000000000000e+02 4.076818847656250000e+01 -7.683057308197021484e+00 -2.092972278594970703e+00 -3.337658708915114403e-03 -6.288930177688598633e-01 -1.644969135522842407e-01
1.810000000000000000e+02 4.001962661743164062e+01 -7.703031063079833984e+00 -2.020733833312988281e+00 -6.053040269762277603e-03 -6.080361008644104004e-01 -1.633975952863693237e-01
1.820000000000000000e+02 4.075049972534179688e+01 -6.943266868591308594e+00 -2.239549636840820312e+00 -1.750297727994620800e-03 -6.723899841308593750e-01 -9.538138657808303833e-02
1.830000000000000000e+02 3.927116775512695312e+01 -7.723219394683837891e+00 -1.951202869415283203e+00 -6.526043172925710678e-03 -5.873186588287353516e-01 -1.630234569311141968e-01
1.840000000000000000e+02 4.000121688842773438e+01 -6.963259696960449219e+00 -2.165205240249633789e+00 -3.098860150203108788e-03 -6.504911780357360840e-01 -9.561478346586227417e-02
1.850000000000000000e+02 4.226616287231445312e+01 -7.653321743011474609e+00 -2.233583450317382812e+00 -3.937328699976205826e-03 -6.712562441825866699e-01 -1.683943569660186768e-01
1.860000000000000000e+02 4.225036239624023438e+01 -6.913490295410156250e+00 -2.406044483184814453e+00 -3.479572711512446404e-03 -7.228572368621826172e-01 -9.373269975185394287e-02
1.870000000000000000e+02 4.151683807373046875e+01 -7.666196823120117188e+00 -2.164445638656616211e+00 -3.643070347607135773e-03 -6.504266262054443359e-01 -1.675739735364913940e-01
1.880000000000000000e+02 4.299967193603515625e+01 -6.897992610931396484e+00 -2.489076852798461914e+00 -1.851570443250238895e-03 -7.472785115242004395e-01 -9.505532681941986084e-02
1.890000000000000000e+02 4.301445007324218750e+01 -7.637845039367675781e+00 -2.306023359298706055e+00 -4.052037373185157776e-03 -6.930226087570190430e-01 -1.665854007005691528e-01
1.900000000000000000e+02 4.376168441772460938e+01 -7.619610786437988281e+00 -2.382514238357543945e+00 -1.719103311188519001e-04 -7.148058414459228516e-01 -1.661326438188552856e-01
1.910000000000000000e+02 4.374792480468750000e+01 -6.879736900329589844e+00 -2.568810462951660156e+00 -5.121942376717925072e-04 -7.707967758178710938e-01 -9.334044903516769409e-02
1.920000000000000000e+02 4.150001907348632812e+01 -6.926386356353759766e+00 -2.319763422012329102e+00 -8.827512501738965511e-04 -6.961938738822937012e-01 -9.347379207611083984e-02
1.930000000000000000e+02 4.524763870239257812e+01 -6.857576370239257812e+00 -2.747596502304077148e+00 -2.722626784816384315e-03 -8.250957727432250977e-01 -8.855458348989486694e-02
1.940000000000000000e+02 4.600764846801757812e+01 -7.586318016052246094e+00 -2.600710391998291016e+00 -1.504480955190956593e-03 -7.806645035743713379e-01 -1.632119268178939819e-01
1.950000000000000000e+02 4.450997543334960938e+01 -7.606111049652099609e+00 -2.456659793853759766e+00 -5.815260228700935841e-04 -7.371723651885986328e-01 -1.680445969104766846e-01
1.960000000000000000e+02 4.675494384765625000e+01 -7.572458744049072266e+00 -2.678030729293823242e+00 2.839024877175688744e-03 -8.025575280189514160e-01 -1.614027321338653564e-01
1.970000000000000000e+02 4.525932312011718750e+01 -7.597484111785888672e+00 -2.527160882949829102e+00 -1.122072688303887844e-03 -7.584848999977111816e-01 -1.674289107322692871e-01
1.980000000000000000e+02 4.674534988403320312e+01 -6.832519531250000000e+00 -2.919553518295288086e+00 8.411080343648791313e-04 -8.756137490272521973e-01 -8.647499978542327881e-02
1.990000000000000000e+02 4.449724578857421875e+01 -6.866219043731689453e+00 -2.654943704605102539e+00 8.164928876794874668e-04 -7.962381839752197266e-01 -8.959197998046875000e-02
2.000000000000000000e+02 4.599700927734375000e+01 -6.846394062042236328e+00 -2.835756778717041016e+00 -8.404069230891764164e-04 -8.509791493415832520e-01 -8.933255076408386230e-02
2.010000000000000000e+02 4.824522781372070312e+01 -6.818868637084960938e+00 -3.105568170547485352e+00 -1.645702868700027466e-03 -9.321641325950622559e-01 -7.951579242944717407e-02
2.020000000000000000e+02 4.825285720825195312e+01 -7.558829784393310547e+00 -2.819802045822143555e+00 1.154811470769345760e-03 -8.455941677093505859e-01 -1.596924811601638794e-01
2.030000000000000000e+02 4.750334548950195312e+01 -7.563237667083740234e+00 -2.751734018325805664e+00 2.375202486291527748e-03 -8.248076438903808594e-01 -1.616415083408355713e-01
2.040000000000000000e+02 4.899468994140625000e+01 -6.811831474304199219e+00 -3.196545124053955078e+00 -4.086240951437503099e-04 -9.590861201286315918e-01 -7.989902794361114502e-02
2.050000000000000000e+02 4.900135803222656250e+01 -7.551801681518554688e+00 -2.890450716018676758e+00 9.822219144552946091e-04 -8.668405413627624512e-01 -1.533440053462982178e-01
2.060000000000000000e+02 4.974884033203125000e+01 -7.541996002197265625e+00 -2.963849544525146484e+00 5.002817604690790176e-03 -8.876540064811706543e-01 -1.500377506017684937e-01
2.070000000000000000e+02 4.974313354492187500e+01 -6.802017211914062500e+00 -3.282793521881103516e+00 2.176587004214525223e-03 -9.841850996017456055e-01 -7.639340311288833618e-02
2.080000000000000000e+02 4.749475479125976562e+01 -6.823286056518554688e+00 -3.009378671646118164e+00 1.829876098781824112e-03 -9.022645950317382812e-01 -8.152214437723159790e-02
2.090000000000000000e+02 5.124328231811523438e+01 -6.795847415924072266e+00 -3.471172809600830078e+00 -7.022378267720341682e-04 -1.041562438011169434e+00 -6.832973659038543701e-02
2.100000000000000000e+02 5.199635314941406250e+01 -7.532447814941406250e+00 -3.151400089263916016e+00 2.913151867687702179e-03 -9.445460438728332520e-01 -1.372452378273010254e-01
2.110000000000000000e+02 5.049753570556640625e+01 -7.536636352539062500e+00 -3.031718492507934570e+00 4.712347872555255890e-03 -9.081018567085266113e-01 -1.488676667213439941e-01
2.120000000000000000e+02 5.274426269531250000e+01 -7.526317596435546875e+00 -3.210896253585815430e+00 5.534543655812740326e-03 -9.616085290908813477e-01 -1.318081915378570557e-01
2.130000000000000000e+02 5.124744033813476562e+01 -7.535836219787597656e+00 -3.091062545776367188e+00 2.806369913741946220e-03 -9.264768362045288086e-01 -1.453036218881607056e-01
2.140000000000000000e+02 5.274152374267578125e+01 -6.786322593688964844e+00 -3.650966405868530273e+00 2.309032948687672615e-03 -1.094597220420837402e+00 -6.566886603832244873e-02
2.150000000000000000e+02 5.049266433715820312e+01 -6.796650886535644531e+00 -3.374144077301025391e+00 2.167037688195705414e-03 -1.011593103408813477e+00 -7.074150443077087402e-02
2.160000000000000000e+02 5.199290466308593750e+01 -6.792455673217773438e+00 -3.562986135482788086e+00 -3.428734198678284883e-04 -1.068998694419860840e+00 -6.854121387004852295e-02
2.170000000000000000e+02 5.349121475219726562e+01 -6.783879280090332031e+00 -3.740299463272094727e+00 1.500069512985646725e-03 -1.121639847755432129e+00 -6.116430088877677917e-02
2.180000000000000000e+02 5.424106216430664062e+01 -6.783032417297363281e+00 -3.831008672714233398e+00 1.256206014659255743e-04 -1.149264931678771973e+00 -5.900690332055091858e-02
2.190000000000000000e+02 5.349338912963867188e+01 -7.523876190185546875e+00 -3.260091781616210938e+00 6.400895304977893829e-03 -9.761072397232055664e-01 -1.273157149553298950e-01
2.200000000000000000e+02 5.424282073974609375e+01 -7.523030757904052734e+00 -3.298692941665649414e+00 6.213380489498376846e-03 -9.877438545227050781e-01 -1.180787086486816406e-01
2.210000000000000000e+02 5.499200439453125000e+01 -7.520969867706298828e+00 -3.330745220184326172e+00 6.753833033144474030e-03 -9.971973896026611328e-01 -1.072743386030197144e-01
2.220000000000000000e+02 5.574129104614257812e+01 -7.519091606140136719e+00 -3.348934173583984375e+00 1.257980149239301682e-02 -1.000906348228454590e+00 -9.260994940996170044e-02
2.230000000000000000e+02 5.574037551879882812e+01 -6.779091835021972656e+00 -3.994094610214233398e+00 1.208277535624802113e-03 -1.197865843772888184e+00 -5.434002727270126343e-02
2.240000000000000000e+02 5.499066925048828125e+01 -6.780971050262451172e+00 -3.915914058685302734e+00 1.161814085207879543e-03 -1.174425721168518066e+00 -5.725847184658050537e-02
2.250000000000000000e+02 5.724125289916992188e+01 -6.781723022460937500e+00 -4.132589817047119141e+00 -1.221072394400835037e-03 -1.240143299102783203e+00 -4.274143651127815247e-02
2.260000000000000000e+02 5.799132537841796875e+01 -7.521727561950683594e+00 -3.262598991394042969e+00 2.333015576004981995e-02 -9.717806577682495117e-01 -1.863764971494674683e-02
2.270000000000000000e+02 5.649098205566406250e+01 -7.519072055816650391e+00 -3.349180459976196289e+00 1.405546534806489944e-02 -1.000537514686584473e+00 -7.916940003633499146e-02
2.280000000000000000e+02 5.874002075195312500e+01 -7.518932342529296875e+00 -3.167970657348632812e+00 4.070826247334480286e-02 -9.381787180900573730e-01 3.083136118948459625e-02
2.290000000000000000e+02 5.724164199829101562e+01 -7.521722793579101562e+00 -3.318491935729980469e+00 2.125790528953075409e-02 -9.891701936721801758e-01 -5.224338546395301819e-02
2.300000000000000000e+02 5.874005126953125000e+01 -6.778932571411132812e+00 -4.220897674560546875e+00 6.150497938506305218e-05 -1.266250848770141602e+00 -2.947551384568214417e-02
2.310000000000000000e+02 5.649037933349609375e+01 -6.779072284698486328e+00 -4.067063331604003906e+00 5.409393459558486938e-03 -1.218496203422546387e+00 -4.731455072760581970e-02
2.320000000000000000e+02 5.799114608764648438e+01 -6.781727790832519531e+00 -4.184616088867187500e+00 6.959770806133747101e-03 -1.253296971321105957e+00 -3.688439726829528809e-02
2.330000000000000000e+02 5.949328231811523438e+01 -6.778654575347900391e+00 -4.235620021820068359e+00 1.311823073774576187e-02 -1.266750574111938477e+00 -1.610148698091506958e-02
2.340000000000000000e+02 6.026314544677734375e+01 -6.781415939331054688e+00 -4.245134830474853516e+00 -2.430451102554798126e-02 -1.280831813812255859e+00 -2.621361799538135529e-02
2.350000000000000000e+02 6.195019912719726562e+01 -7.578688621520996094e+00 -1.118021011352539062e+00 1.559631526470184326e-01 -2.886173427104949951e-01 8.142332434654235840e-01
2.360000000000000000e+02 5.949310684204101562e+01 -7.518654346466064453e+00 -3.010037899017333984e+00 2.848086319863796234e-02 -8.944670557975769043e-01 7.392420619726181030e-02
2.370000000000000000e+02 6.182627868652343750e+01 -7.779335975646972656e+00 -8.768095374107360840e-01 3.883461058139801025e-01 -1.465390324592590332e-01 1.031302809715270996e+00
2.380000000000000000e+02 6.193737030029296875e+01 -6.892564773559570312e+00 -3.395268917083740234e+00 1.370862573385238647e-01 -9.774548411369323730e-01 1.081662401556968689e-01
2.390000000000000000e+02 6.197576522827148438e+01 -7.079949378967285156e+00 -2.708834409713745117e+00 1.430369168519973755e-01 -7.697392702102661133e-01 3.439533412456512451e-01
2.400000000000000000e+02 6.201334762573242188e+01 -7.250590324401855469e+00 -1.976334810256958008e+00 1.156221628189086914e-01 -5.582137703895568848e-01 5.545371174812316895e-01
2.410000000000000000e+02 6.191878890991210938e+01 -6.702562808990478516e+00 -3.932874917984008789e+00 2.178301066160202026e-01 -1.114513397216796875e+00 -7.374688982963562012e-02
2.420000000000000000e+02 6.170449829101562500e+01 -7.469030857086181641e+00 -1.523317933082580566e+00 2.394909262657165527e-01 -3.851481080055236816e-01 7.279601097106933594e-01
2.430000000000000000e+02 6.152913284301757812e+01 -6.677163600921630859e+00 -4.315511703491210938e+00 -8.350039273500442505e-02 -1.319703578948974609e+00 -7.172935456037521362e-02
2.440000000000000000e+02 6.182894515991210938e+01 -6.509189605712890625e+00 -4.653681755065917969e+00 8.118376880884170532e-02 -1.371749401092529297e+00 -1.040848791599273682e-01
2.450000000000000000e+02 6.184169006347656250e+01 -7.322564125061035156e+00 -1.832959413528442383e+00 1.564377248287200928e-01 -5.029565095901489258e-01 5.960568189620971680e-01
2.460000000000000000e+02 6.099507904052734375e+01 -6.709791660308837891e+00 -4.294416427612304688e+00 -1.232290547341108322e-02 -1.292021751403808594e+00 -6.380175799131393433e-02
2.470000000000000000e+02 6.026288604736328125e+01 -7.521415710449218750e+00 -2.660607337951660156e+00 5.416059866547584534e-02 -7.819340229034423828e-01 1.887098848819732666e-01
2.480000000000000000e+02 6.098497772216796875e+01 -7.594974994659423828e+00 -2.090893507003784180e+00 1.295594573020935059e-01 -5.884002447128295898e-01 4.235517084598541260e-01
2.490000000000000000e+02 6.147672653198242188e+01 -7.609340667724609375e+00 -1.512023210525512695e+00 3.817436695098876953e-01 -3.390838801860809326e-01 6.656596064567565918e-01
2.500000000000000000e+02 6.119044113159179688e+01 -7.153244495391845703e+00 -3.029492378234863281e+00 3.165289759635925293e-02 -8.993518352508544922e-01 1.891190856695175171e-01
2.510000000000000000e+02 6.200860595703125000e+01 -7.409185886383056641e+00 -1.372332096099853516e+00 1.471709311008453369e-01 -3.675483465194702148e-01 7.022531628608703613e-01
2.520000000000000000e+02 6.171269226074218750e+01 -7.167230129241943359e+00 -2.597950696945190430e+00 1.398408114910125732e-01 -7.374329566955566406e-01 4.623192548751831055e-01
2.530000000000000000e+02 6.158008956909179688e+01 -6.959324836730957031e+00 -3.569125175476074219e+00 3.655762970447540283e-02 -1.059770226478576660e+00 1.487289220094680786e-01
2.540000000000000000e+02 6.150185012817382812e+01 -7.344158172607421875e+00 -2.169632434844970703e+00 2.790591716766357422e-01 -5.671719312667846680e-01 4.614886939525604248e-01
2.550000000000000000e+02 6.577598571777343750e+01 -7.470899581909179688e+00 3.041393995285034180e+00 2.373779487609863281e+01 8.033757209777832031e+00 -4.572631418704986572e-01
2.560000000000000000e+02 6.617887115478515625e+01 -6.728923797607421875e+00 1.227237319946289062e+01 2.054531860351562500e+01 9.845307350158691406e+00 -2.428148508071899414e+00
2.570000000000000000e+02 6.594704437255859375e+01 -5.433534145355224609e+00 4.958756446838378906e+00 2.314608383178710938e+01 8.431451797485351562e+00 2.032588005065917969e+00
2.580000000000000000e+02 6.464709472656250000e+01 -7.485697746276855469e+00 3.492387771606445312e+00 1.292416858673095703e+01 4.924966812133789062e+00 8.415417671203613281e+00
2.590000000000000000e+02 6.318379592895507812e+01 -6.835996627807617188e+00 -1.951277136802673340e+00 1.193267926573753357e-01 -5.495851039886474609e-01 4.295009672641754150e-01
2.600000000000000000e+02 6.220965957641601562e+01 -7.797815322875976562e+00 -2.804638445377349854e-01 9.139770865440368652e-01 1.900539696216583252e-01 1.553426384925842285e+00
2.610000000000000000e+02 6.220153808593750000e+01 -7.616069316864013672e+00 -7.517634630203247070e-01 6.421071290969848633e-01 -3.289689868688583374e-02 1.145925283432006836e+00
2.620000000000000000e+02 6.259544754028320312e+01 -7.767362117767333984e+00 2.133136838674545288e-01 1.018002152442932129e+00 3.693947494029998779e-01 1.899456143379211426e+00
2.630000000000000000e+02 6.280076217651367188e+01 -7.755317687988281250e+00 6.626373529434204102e-01 1.265947341918945312e+00 5.785754323005676270e-01 2.219009637832641602e+00
2.640000000000000000e+02 6.319769287109375000e+01 -7.507145881652832031e+00 1.070727467536926270e+00 1.282054066658020020e+00 7.058344483375549316e-01 2.530974864959716797e+00
2.650000000000000000e+02 6.381748199462890625e+01 -7.477607727050781250e+00 2.928400754928588867e+00 3.237132787704467773e+00 1.849660038948059082e+00 4.478527545928955078e+00
2.660000000000000000e+02 6.521752929687500000e+01 -7.657956600189208984e+00 1.184318900108337402e+00 2.104761886596679688e+01 6.669581413269042969e+00 5.061596393585205078e+00
2.670000000000000000e+02 6.483110046386718750e+01 -7.640348911285400391e+00 2.153079271316528320e+00 1.579558086395263672e+01 5.384597778320312500e+00 7.684263229370117188e+00
2.680000000000000000e+02 6.440055847167968750e+01 -7.240457057952880859e+00 4.967985630035400391e+00 7.114474773406982422e+00 3.624738216400146484e+00 7.553012371063232422e+00
2.690000000000000000e+02 6.443699645996093750e+01 -7.795893192291259766e+00 2.932765960693359375e+00 1.009304141998291016e+01 3.907742261886596680e+00 7.406505107879638672e+00
2.700000000000000000e+02 6.402677917480468750e+01 -6.502204418182373047e+00 -3.357431173324584961e+00 -9.542828798294067383e-02 -1.035857796669006348e+00 5.832630023360252380e-02
2.710000000000000000e+02 6.341034317016601562e+01 -7.761219978332519531e+00 1.868947744369506836e+00 2.458050251007080078e+00 1.298099398612976074e+00 3.650717020034790039e+00
2.720000000000000000e+02 6.220314788818359375e+01 -7.437255859375000000e+00 -1.152526378631591797e+00 2.576637566089630127e-01 -2.684588134288787842e-01 7.874948978424072266e-01
2.730000000000000000e+02 6.280649566650390625e+01 -7.511732578277587891e+00 9.021604061126708984e-02 8.628199100494384766e-01 2.859107851982116699e-01 1.718891024589538574e+00
2.740000000000000000e+02 6.240152359008789062e+01 -7.793664455413818359e+00 -9.858785569667816162e-02 7.918827533721923828e-01 2.079884707927703857e-01 1.655465126037597656e+00
2.750000000000000000e+02 6.524614715576171875e+01 -5.285728454589843750e+00 1.359043717384338379e+00 2.281413269042968750e+01 7.251952648162841797e+00 -4.988288402557373047e+00
2.760000000000000000e+02 6.609829711914062500e+01 -5.882721424102783203e+00 1.050617790222167969e+01 2.176793289184570312e+01 9.682232856750488281e+00 3.222749233245849609e+00
2.770000000000000000e+02 6.638806915283203125e+01 -6.295315265655517578e+00 1.241259574890136719e+01 1.850802040100097656e+01 9.276185035705566406e+00 6.996064186096191406e-01
2.780000000000000000e+02 6.629256439208984375e+01 -7.180088996887207031e+00 7.457166671752929688e+00 2.042270851135253906e+01 8.363962173461914062e+00 -2.828029155731201172e+00
2.790000000000000000e+02 6.545014953613281250e+01 -7.454120635986328125e+00 1.892151117324829102e+00 2.466858863830566406e+01 7.968222141265869141e+00 2.455838680267333984e+00
2.800000000000000000e+02 6.564140319824218750e+01 -7.352771282196044922e+00 3.233877897262573242e+00 2.540067100524902344e+01 8.590364456176757812e+00 -5.613924190402030945e-02
2.810000000000000000e+02 6.221575927734375000e+01 -4.983841419219970703e+00 -3.322428464889526367e-01 8.766077756881713867e-01 1.633094698190689087e-01 -1.581986427307128906e+00
2.820000000000000000e+02 6.220736694335937500e+01 -5.353602886199951172e+00 -1.208885788917541504e+00 2.926507592201232910e-01 -2.748705148696899414e-01 -8.424834012985229492e-01
2.830000000000000000e+02 6.221695327758789062e+01 -5.897948265075683594e+00 -3.123232126235961914e+00 7.254469394683837891e-02 -9.152062535285949707e-01 -1.816936582326889038e-01
2.840000000000000000e+02 6.344907760620117188e+01 -5.311384677886962891e+00 1.649146676063537598e+00 1.676888346672058105e+00 9.978105425834655762e-01 -3.022880077362060547e+00
2.850000000000000000e+02 6.500515747070312500e+01 -5.078789710998535156e+00 1.456319451332092285e+00 1.800306892395019531e+01 5.837816715240478516e+00 -6.566099643707275391e+00
2.860000000000000000e+02 6.477290344238281250e+01 -5.302965641021728516e+00 2.989120960235595703e+00 1.513808917999267578e+01 5.438163280487060547e+00 -8.460686683654785156e+00
2.870000000000000000e+02 6.221652221679687500e+01 -6.274857521057128906e+00 -4.904735565185546875e+00 -1.345942169427871704e-01 -1.511798858642578125e+00 -5.813987925648689270e-02
2.880000000000000000e+02 6.241987228393554688e+01 -6.071749210357666016e+00 -3.893796443939208984e+00 4.276077076792716980e-02 -1.155310630798339844e+00 -1.641153097152709961e-01
2.890000000000000000e+02 6.281987380981445312e+01 -6.255290031433105469e+00 -4.515644073486328125e+00 -3.038755618035793304e-02 -1.363809585571289062e+00 1.043890323489904404e-02
2.900000000000000000e+02 6.321289062500000000e+01 -6.250269889831542969e+00 -4.188219070434570312e+00 -1.016550604254007339e-02 -1.259515285491943359e+00 -8.225405216217041016e-02
2.910000000000000000e+02 6.361415481567382812e+01 -6.245409488677978516e+00 -3.763545036315917969e+00 -8.688737638294696808e-03 -1.131670117378234863e+00 -7.178059965372085571e-02
2.920000000000000000e+02 6.384619903564453125e+01 -6.012695789337158203e+00 -1.340298056602478027e-01 2.261981666088104248e-01 2.765050902962684631e-02 -1.120238661766052246e+00
2.930000000000000000e+02 6.402430725097656250e+01 -6.277035713195800781e+00 -3.217682600021362305e+00 -1.696474254131317139e-01 -1.016198992729187012e+00 -8.267470449209213257e-02
2.940000000000000000e+02 6.617909240722656250e+01 -6.072099685668945312e+00 1.243570518493652344e+01 2.047664833068847656e+01 9.873705863952636719e+00 2.377491474151611328e+00
2.950000000000000000e+02 6.598881530761718750e+01 -5.709855079650878906e+00 8.100290298461914062e+00 2.329285812377929688e+01 9.417944908142089844e+00 3.165351867675781250e+00
2.960000000000000000e+02 6.501163482666015625e+01 -5.271434783935546875e+00 1.816185116767883301e+00 1.969034576416015625e+01 6.451959133148193359e+00 -7.332103729248046875e+00
2.970000000000000000e+02 6.441799926757812500e+01 -5.536610126495361328e+00 4.907224178314208984e+00 7.148718357086181641e+00 3.616782665252685547e+00 -7.650214672088623047e+00
2.980000000000000000e+02 6.454531860351562500e+01 -7.356329917907714844e+00 4.534743309020996094e+00 1.065675449371337891e+01 4.557449340820312500e+00 8.641012191772460938e+00
2.990000000000000000e+02 6.502133941650390625e+01 -7.471641063690185547e+00 2.003637552261352539e+00 2.009365272521972656e+01 6.629187107086181641e+00 7.486324310302734375e+00
3.000000000000000000e+02 6.607549285888671875e+01 -6.919567108154296875e+00 1.037560844421386719e+01 2.203219795227050781e+01 9.722341537475585938e+00 -3.279701948165893555e+00
3.010000000000000000e+02 6.281111907958984375e+01 -6.520123004913330078e+00 -4.476020812988281250e+00 7.568513043224811554e-03 -1.340535759925842285e+00 3.370949998497962952e-02
3.020000000000000000e+02 6.221704483032226562e+01 -6.692642211914062500e+00 -3.844980716705322266e+00 -1.532104909420013428e-01 -1.199457287788391113e+00 1.968022622168064117e-02
3.030000000000000000e+02 6.221601104736328125e+01 -6.503457069396972656e+00 -4.830701351165771484e+00 -1.400000602006912231e-01 -1.491210460662841797e+00 7.520921528339385986e-02
3.040000000000000000e+02 6.221937561035156250e+01 -7.072656631469726562e+00 -2.409951210021972656e+00 8.375618606805801392e-02 -6.978585124015808105e-01 3.539102077484130859e-01
3.050000000000000000e+02 6.241855621337890625e+01 -6.270299434661865234e+00 -4.737731456756591797e+00 4.171131923794746399e-02 -1.408806085586547852e+00 4.192002862691879272e-02
3.060000000000000000e+02 6.259320068359375000e+01 -5.216073036193847656e+00 -2.507897913455963135e-01 6.774719953536987305e-01 1.280046552419662476e-01 -1.486276626586914062e+00
3.070000000000000000e+02 6.483247375488281250e+01 -7.449279308319091797e+00 2.999840974807739258e+00 1.629144096374511719e+01 5.787384986877441406e+00 8.674617767333984375e+00
3.080000000000000000e+02 6.403138732910156250e+01 -7.745369911193847656e+00 3.109290599822998047e+00 5.822923660278320312e+00 2.679664373397827148e+00 6.032094001770019531e+00
3.090000000000000000e+02 6.636071014404296875e+01 -7.022477626800537109e+00 9.214446067810058594e+00 1.973581504821777344e+01 8.685078620910644531e+00 -2.909467697143554688e+00
3.100000000000000000e+02 6.351699447631835938e+01 -6.812335968017578125e+00 -1.312781095504760742e+00 1.075892522931098938e-01 -3.615575730800628662e-01 7.459468841552734375e-01
3.110000000000000000e+02 6.619255828857421875e+01 -7.055795669555664062e+00 8.822157859802246094e+00 2.104838943481445312e+01 8.961163520812988281e+00 -3.124109268188476562e+00
3.120000000000000000e+02 6.340193176269531250e+01 -7.502562999725341797e+00 1.580537676811218262e+00 1.661722540855407715e+00 9.726780652999877930e-01 2.965587377548217773e+00
3.130000000000000000e+02 6.457867431640625000e+01 -5.402066707611083984e+00 4.139972686767578125e+00 1.114616775512695312e+01 4.585842132568359375e+00 -8.646294593811035156e+00
3.140000000000000000e+02 6.555512237548828125e+01 -5.101830005645751953e+00 1.323877215385437012e+00 2.261487388610839844e+01 7.181625843048095703e+00 -2.078249931335449219e+00
3.150000000000000000e+02 6.641160583496093750e+01 -5.975947856903076172e+00 1.061398506164550781e+01 1.881113815307617188e+01 8.827536582946777344e+00 2.254828691482543945e+00
3.160000000000000000e+02 6.385913085937500000e+01 -5.265486240386962891e+00 3.111705064773559570e+00 3.702325582504272461e+00 2.044209241867065430e+00 -4.897400856018066406e+00
3.170000000000000000e+02 6.390513610839843750e+01 -5.520700454711914062e+00 3.059374094009399414e+00 2.573493480682373047e+00 1.689860343933105469e+00 -4.163758277893066406e+00
3.180000000000000000e+02 6.633052825927734375e+01 -5.786088466644287109e+00 9.309549331665039062e+00 1.985748672485351562e+01 8.750110626220703125e+00 2.930604219436645508e+00
3.190000000000000000e+02 6.583241271972656250e+01 -5.562303066253662109e+00 5.657316207885742188e+00 2.468518638610839844e+01 9.102750778198242188e+00 2.249214887619018555e+00
3.200000000000000000e+02 6.621099090576171875e+01 -6.508426666259765625e+00 1.352246189117431641e+01 1.971286201477050781e+01 9.970597267150878906e+00 -9.536687731742858887e-01
3.210000000000000000e+02 6.638948822021484375e+01 -6.499753475189208984e+00 1.239895153045654297e+01 1.853248405456542969e+01 9.279430389404296875e+00 -7.044945955276489258e-01
3.220000000000000000e+02 6.536248779296875000e+01 -7.765713214874267578e+00 7.330450415611267090e-01 2.135462951660156250e+01 6.626302242279052734e+00 3.824907779693603516e+00
3.230000000000000000e+02 6.574715423583984375e+01 -5.146811962127685547e+00 1.980906486511230469e+00 2.282859230041503906e+01 7.442849636077880859e+00 -4.318181574344635010e-01
3.240000000000000000e+02 6.603861236572265625e+01 -7.453721046447753906e+00 4.298407554626464844e+00 2.193211746215820312e+01 7.869157314300537109e+00 -1.848333954811096191e+00
3.250000000000000000e+02 6.617351531982421875e+01 -7.318689823150634766e+00 6.074451446533203125e+00 2.116532325744628906e+01 8.171932220458984375e+00 -2.662721633911132812e+00
3.260000000000000000e+02 6.579974365234375000e+01 -7.218906879425048828e+00 5.549352169036865234e+00 2.516480827331542969e+01 9.214247703552246094e+00 -2.109455823898315430e+00
3.270000000000000000e+02 6.604042053222656250e+01 -5.318179607391357422e+00 4.105457305908203125e+00 2.169846343994140625e+01 7.741176128387451172e+00 1.637539029121398926e+00
3.280000000000000000e+02 6.554470825195312500e+01 -7.687121868133544922e+00 1.327288746833801270e+00 2.237319374084472656e+01 7.110144615173339844e+00 2.122403860092163086e+00
3.290000000000000000e+02 6.649030303955078125e+01 -6.148115158081054688e+00 1.141621303558349609e+01 1.807125854492187500e+01 8.846241950988769531e+00 1.499938368797302246e+00
3.300000000000000000e+02 6.649138641357421875e+01 -6.644562244415283203e+00 1.147247982025146484e+01 1.802635192871093750e+01 8.849649429321289062e+00 -1.520069837570190430e+00
3.310000000000000000e+02 6.613787841796875000e+01 -5.448167800903320312e+00 5.840670108795166016e+00 2.153452682495117188e+01 8.212558746337890625e+00 2.644043684005737305e+00
3.320000000000000000e+02 6.641117858886718750e+01 -6.825601100921630859e+00 1.042573738098144531e+01 1.884922790527343750e+01 8.782489776611328125e+00 -2.242098093032836914e+00
3.330000000000000000e+02 6.589962005615234375e+01 -7.572202682495117188e+00 3.230772256851196289e+00 2.229660415649414062e+01 7.658213138580322266e+00 -8.448032140731811523e-01
3.340000000000000000e+02 6.574175262451171875e+01 -7.639078140258789062e+00 2.119645118713378906e+00 2.301295471191406250e+01 7.539779663085937500e+00 4.290464818477630615e-01
3.350000000000000000e+02 6.578778839111328125e+01 -5.310204029083251953e+00 3.127085447311401367e+00 2.363525581359863281e+01 8.028701782226562500e+00 5.114290118217468262e-01
3.360000000000000000e+02 6.565151977539062500e+01 -5.432199478149414062e+00 3.171869993209838867e+00 2.538502693176269531e+01 8.567069053649902344e+00 6.206088513135910034e-02
3.370000000000000000e+02 6.516434478759765625e+01 -4.990314960479736328e+00 7.353824973106384277e-01 1.945346641540527344e+01 6.056654930114746094e+00 -5.706923961639404297e+00
3.380000000000000000e+02 6.424244689941406250e+01 -7.762613773345947266e+00 3.207018613815307617e+00 7.640041351318359375e+00 3.254117965698242188e+00 6.796413421630859375e+00
3.390000000000000000e+02 6.321001052856445312e+01 -7.763150215148925781e+00 1.521114945411682129e+00 1.900882244110107422e+00 1.026599168777465820e+00 3.094926834106445312e+00
3.400000000000000000e+02 6.381803512573242188e+01 -7.753164768218994141e+00 2.799628496170043945e+00 4.394111633300781250e+00 2.158122062683105469e+00 5.164137840270996094e+00
3.410000000000000000e+02 6.261444854736328125e+01 -7.410023689270019531e+00 -5.557374954223632812e-01 5.517522096633911133e-01 -1.195584889501333237e-03 1.263831138610839844e+00
3.420000000000000000e+02 6.481961059570312500e+01 -7.810245990753173828e+00 1.886458516120910645e+00 1.547256946563720703e+01 5.207708358764648438e+00 7.157747268676757812e+00
3.430000000000000000e+02 6.465774536132812500e+01 -7.646665096282958984e+00 2.773114681243896484e+00 1.360970497131347656e+01 4.914845943450927734e+00 7.949374675750732422e+00
3.440000000000000000e+02 6.301044082641601562e+01 -6.534587860107421875e+00 -4.277972221374511719e+00 6.101140752434730530e-02 -1.265088200569152832e+00 9.032638370990753174e-02
3.450000000000000000e+02 6.501274871826171875e+01 -7.809623241424560547e+00 1.162410974502563477e+00 1.760077476501464844e+01 5.628955841064453125e+00 6.308213233947753906e+00
3.460000000000000000e+02 6.241597747802734375e+01 -6.506489753723144531e+00 -4.682196140289306641e+00 2.295962348580360413e-02 -1.397770881652832031e+00 -4.962298274040222168e-02
3.470000000000000000e+02 6.241548538208007812e+01 -6.702935695648193359e+00 -3.817119598388671875e+00 1.949582248926162720e-02 -1.139287114143371582e+00 1.243670061230659485e-01
3.480000000000000000e+02 6.363310241699218750e+01 -6.520457744598388672e+00 -3.688830137252807617e+00 -8.393081277608871460e-02 -1.131828308105468750e+00 3.671786934137344360e-02
3.490000000000000000e+02 6.341111373901367188e+01 -6.243134498596191406e+00 -3.965694665908813477e+00 4.964441992342472076e-03 -1.188219070434570312e+00 -7.567492127418518066e-02
3.500000000000000000e+02 6.412970733642578125e+01 -5.853242874145507812e+00 3.134429693222045898e+00 1.526062369346618652e+00 1.398147583007812500e+00 -3.399215698242187500e+00
3.510000000000000000e+02 6.262041473388671875e+01 -6.263515472412109375e+00 -4.637447357177734375e+00 7.426172960549592972e-03 -1.389006257057189941e+00 -6.457354873418807983e-03
3.520000000000000000e+02 6.301617050170898438e+01 -6.252987861633300781e+00 -4.390863895416259766e+00 8.059795945882797241e-02 -1.293079853057861328e+00 -2.530778571963310242e-02
3.530000000000000000e+02 6.382055282592773438e+01 -6.258395195007324219e+00 -3.512110233306884766e+00 9.247230738401412964e-02 -1.025891304016113281e+00 -1.284984946250915527e-01
3.540000000000000000e+02 6.501277923583984375e+01 -4.954634189605712891e+00 1.199227213859558105e+00 1.694594955444335938e+01 5.443552970886230469e+00 -5.870285511016845703e+00
3.550000000000000000e+02 6.466573333740234375e+01 -5.029588222503662109e+00 2.332321882247924805e+00 1.320586395263671875e+01 4.661455631256103516e+00 -7.669916152954101562e+00
3.560000000000000000e+02 6.300321578979492188e+01 -5.332372188568115234e+00 3.741364479064941406e-01 8.862228393554687500e-01 3.781077861785888672e-01 -1.873036623001098633e+00
3.570000000000000000e+02 6.301641464233398438e+01 -5.033860683441162109e+00 1.083082199096679688e+00 1.568225026130676270e+00 7.953921556472778320e-01 -2.696269512176513672e+00
3.580000000000000000e+02 6.342376327514648438e+01 -5.032434940338134766e+00 2.040621519088745117e+00 2.548482179641723633e+00 1.376731157302856445e+00 -3.770168304443359375e+00
3.590000000000000000e+02 6.443706512451171875e+01 -5.025105953216552734e+00 2.852222919464111328e+00 1.014646053314208984e+01 3.899605035781860352e+00 -7.484244346618652344e+00
3.600000000000000000e+02 6.261301422119140625e+01 -5.000754833221435547e+00 1.728563159704208374e-01 9.759927988052368164e-01 3.446547389030456543e-01 -1.937532782554626465e+00
3.610000000000000000e+02 6.310075759887695312e+01 -5.779557704925537109e+00 -1.153446197509765625e+00 2.177653908729553223e-01 -2.807042300701141357e-01 -8.815498948097229004e-01
3.620000000000000000e+02 6.382763671875000000e+01 -5.016373157501220703e+00 2.677577972412109375e+00 4.534189224243164062e+00 2.163530111312866211e+00 -5.209289550781250000e+00
3.630000000000000000e+02 6.240510559082031250e+01 -5.183587551116943359e+00 -5.176411271095275879e-01 6.094372272491455078e-01 2.753881737589836121e-02 -1.416660070419311523e+00
3.640000000000000000e+02 6.323199844360351562e+01 -5.349073886871337891e+00 9.359759092330932617e-01 1.177370905876159668e+00 6.340040564537048340e-01 -2.314539909362792969e+00
3.650000000000000000e+02 6.422456359863281250e+01 -5.005302429199218750e+00 2.976527690887451172e+00 7.477582931518554688e+00 3.136233091354370117e+00 -6.644554138183593750e+00
3.660000000000000000e+02 6.319673538208007812e+01 -5.999067306518554688e+00 -2.201771974563598633e+00 1.473609507083892822e-01 -6.163232922554016113e-01 -4.484619200229644775e-01
3.670000000000000000e+02 6.221551895141601562e+01 -5.712911605834960938e+00 -2.356004238128662109e+00 5.779061466455459595e-02 -6.894640326499938965e-01 -3.270322382450103760e-01
3.680000000000000000e+02 6.238309478759765625e+01 -5.358243942260742188e+00 -1.000622630119323730e+00 5.242519974708557129e-01 -1.429111808538436890e-01 -1.034565448760986328e+00
3.690000000000000000e+02 6.368559646606445312e+01 -6.738778114318847656e+00 -1.610184669494628906e+00 1.661411821842193604e-01 -4.332130551338195801e-01 7.287873029708862305e-01
3.700000000000000000e+02 6.300950241088867188e+01 -7.765028476715087891e+00 1.183868050575256348e+00 1.560593008995056152e+00 8.233383297920227051e-01 2.648522853851318359e+00
3.710000000000000000e+02 6.337029266357421875e+01 -6.958371162414550781e+00 -5.870140194892883301e-01 3.210928738117218018e-01 -7.977633923292160034e-02 1.031677961349487305e+00
3.720000000000000000e+02 6.422779083251953125e+01 -7.400687217712402344e+00 4.225979328155517578e+00 6.156770229339599609e+00 3.114825010299682617e+00 6.662343025207519531e+00
3.730000000000000000e+02 6.426357269287109375e+01 -7.097382068634033203e+00 4.679068565368652344e+00 3.978373765945434570e+00 2.597232580184936523e+00 5.731550216674804688e+00
3.740000000000000000e+02 6.298222351074218750e+01 -6.783837795257568359e+00 -2.814275026321411133e+00 1.611434854567050934e-02 -8.394482135772705078e-01 2.300433963537216187e-01
3.750000000000000000e+02 6.279212570190429688e+01 -6.741806030273437500e+00 -3.223735570907592773e+00 1.296504288911819458e-01 -9.282255172729492188e-01 2.041478902101516724e-01
3.760000000000000000e+02 6.394731140136718750e+01 -7.086222648620605469e+00 2.761107444763183594e+00 1.892411589622497559e+00 1.396055698394775391e+00 3.482254266738891602e+00
3.770000000000000000e+02 6.282098388671875000e+01 -6.006261825561523438e+00 -3.038212776184082031e+00 8.203174173831939697e-02 -8.868543505668640137e-01 -2.958923280239105225e-01
3.780000000000000000e+02 6.241484451293945312e+01 -4.989629745483398438e+00 -9.620352089405059814e-02 8.043785095214843750e-01 2.124524861574172974e-01 -1.628990530967712402e+00
3.790000000000000000e+02 6.405865478515625000e+01 -6.717814445495605469e+00 4.785514175891876221e-01 5.213518142700195312e-01 2.999709844589233398e-01 1.405264258384704590e+00
3.800000000000000000e+02 6.413751983642578125e+01 -6.925995826721191406e+00 3.176076173782348633e+00 1.453038334846496582e+00 1.388734340667724609e+00 3.360952377319335938e+00
3.810000000000000000e+02 6.366806411743164062e+01 -5.725993156433105469e+00 9.928730726242065430e-01 9.098162651062011719e-01 5.708068013191223145e-01 -2.189809799194335938e+00
3.820000000000000000e+02 6.425520324707031250e+01 -5.673328399658203125e+00 4.588286876678466797e+00 3.992403984069824219e+00 2.574207305908203125e+00 -5.744173049926757812e+00
3.830000000000000000e+02 6.369371414184570312e+01 -5.519678115844726562e+00 2.202876329421997070e+00 1.693575143814086914e+00 1.168935418128967285e+00 -3.168981790542602539e+00
3.840000000000000000e+02 6.389858245849609375e+01 -5.771554470062255859e+00 2.051855087280273438e+00 1.370666503906250000e+00 1.026756525039672852e+00 -2.855442047119140625e+00
3.850000000000000000e+02 6.239906311035156250e+01 -5.514267444610595703e+00 -1.395680785179138184e+00 2.163815200328826904e-01 -3.537897765636444092e-01 -7.168004512786865234e-01
3.860000000000000000e+02 6.221422958374023438e+01 -7.257769584655761719e+00 -1.770758390426635742e+00 1.759599149227142334e-01 -4.784395694732666016e-01 6.116026043891906738e-01
3.870000000000000000e+02 6.361787796020507812e+01 -5.965626239776611328e+00 -7.564229369163513184e-01 3.271902799606323242e-01 -1.287698000669479370e-01 -9.723421931266784668e-01
3.880000000000000000e+02 6.274705123901367188e+01 -6.944811820983886719e+00 -2.176405429840087891e+00 1.786106377840042114e-01 -5.993384718894958496e-01 4.391238987445831299e-01
3.890000000000000000e+02 6.253525924682617188e+01 -5.410014629364013672e+00 -8.688856363296508789e-01 4.301270544528961182e-01 -1.316275745630264282e-01 -1.152126312255859375e+00
3.900000000000000000e+02 6.402545928955078125e+01 -5.008543014526367188e+00 2.924523353576660156e+00 5.847585678100585938e+00 2.631632566452026367e+00 -5.930799007415771484e+00
3.910000000000000000e+02 6.291433715820312500e+01 -5.612865924835205078e+00 -8.144342899322509766e-01 3.739845454692840576e-01 -1.321349292993545532e-01 -1.064974069595336914e+00
3.920000000000000000e+02 6.327086639404296875e+01 -7.161466121673583984e+00 2.038461416959762573e-01 6.939928531646728516e-01 2.693516910076141357e-01 1.669314146041870117e+00
3.930000000000000000e+02 6.351245498657226562e+01 -5.573197841644287109e+00 1.107988238334655762e+00 1.071142792701721191e+00 6.537393331527709961e-01 -2.267093658447265625e+00
3.940000000000000000e+02 6.272010040283203125e+01 -7.240956783294677734e+00 -8.219092488288879395e-01 3.232356607913970947e-01 -1.496020704507827759e-01 9.883198738098144531e-01
3.950000000000000000e+02 6.358930587768554688e+01 -7.288304328918457031e+00 1.841723561286926270e+00 1.673609256744384766e+00 1.054599881172180176e+00 2.976889133453369141e+00
3.960000000000000000e+02 6.365169525146484375e+01 -7.018725872039794922e+00 1.128334045410156250e+00 7.669203877449035645e-01 5.685763359069824219e-01 1.937428832054138184e+00
3.970000000000000000e+02 6.221245574951171875e+01 -5.170434951782226562e+00 -8.941593766212463379e-01 7.328472137451171875e-01 -4.839365556836128235e-02 -1.134979963302612305e+00
3.980000000000000000e+02 6.278690338134765625e+01 -5.268409729003906250e+00 -1.268916670233011246e-02 7.323960065841674805e-01 2.159120440483093262e-01 -1.662244439125061035e+00
3.990000000000000000e+02 6.220989990234375000e+01 -5.532977581024169922e+00 -1.764849066734313965e+00 2.255741804838180542e-01 -4.617824852466583252e-01 -5.734068155288696289e-01
4.000000000000000000e+02 6.259896087646484375e+01 -5.864321231842041016e+00 -2.789347171783447266e+00 1.180882379412651062e-01 -8.013776540756225586e-01 -3.364444375038146973e-01
4.010000000000000000e+02 6.241571044921875000e+01 -5.879991054534912109e+00 -2.883578062057495117e+00 -2.218117192387580872e-02 -8.717277646064758301e-01 -2.188487946987152100e-01
4.020000000000000000e+02 6.221766662597656250e+01 -6.085527896881103516e+00 -4.013359546661376953e+00 -1.225561797618865967e-01 -1.240774750709533691e+00 -4.453057423233985901e-02
4.030000000000000000e+02 6.339237594604492188e+01 -5.956035137176513672e+00 -1.459983110427856445e+00 1.326299309730529785e-01 -3.982059359550476074e-01 -7.003476619720458984e-01
4.040000000000000000e+02 6.301504135131835938e+01 -6.000524044036865234e+00 -2.701817512512207031e+00 8.363972604274749756e-02 -7.854533195495605469e-01 -3.472029268741607666e-01
4.050000000000000000e+02 6.406019592285156250e+01 -6.065104961395263672e+00 4.046854972839355469e-01 4.137380123138427734e-01 2.455270588397979736e-01 -1.391699671745300293e+00
4.060000000000000000e+02 6.429280853271484375e+01 -5.378119468688964844e+00 4.331063747406005859e+00 6.874166488647460938e+00 3.361569166183471680e+00 -7.093263626098632812e+00
4.070000000000000000e+02 6.411683654785156250e+01 -5.471982955932617188e+00 3.929140329360961914e+00 4.098139286041259766e+00 2.408183813095092773e+00 -5.548784255981445312e+00
4.080000000000000000e+02 6.441458892822265625e+01 -5.245409965515136719e+00 3.693776845932006836e+00 9.307860374450683594e+00 3.900491237640380859e+00 -7.659241199493408203e+00
4.090000000000000000e+02 6.221793365478515625e+01 -6.882740497589111328e+00 -3.076687812805175781e+00 8.506953716278076172e-02 -8.974854946136474609e-01 8.097255229949951172e-02
4.100000000000000000e+02 6.243086242675781250e+01 -7.103049755096435547e+00 -1.901582241058349609e+00 1.923175007104873657e-01 -5.127794146537780762e-01 4.870858788490295410e-01
4.110000000000000000e+02 6.241595458984375000e+01 -6.899886608123779297e+00 -2.865066051483154297e+00 -1.328306645154953003e-02 -8.635047674179077148e-01 2.028476744890213013e-01
4.120000000000000000e+02 6.260576248168945312e+01 -6.714725017547607422e+00 -3.545166969299316406e+00 3.183397278189659119e-02 -1.053999900817871094e+00 8.316645771265029907e-02
4.130000000000000000e+02 6.261375045776367188e+01 -6.510897636413574219e+00 -4.616270065307617188e+00 2.807464636862277985e-02 -1.376458644866943359e+00 1.218447345308959484e-03
4.140000000000000000e+02 6.321957397460937500e+01 -6.556708335876464844e+00 -4.054766654968261719e+00 -3.494065254926681519e-02 -1.226912140846252441e+00 1.056988239288330078e-01
4.150000000000000000e+02 6.343135070800781250e+01 -6.550836563110351562e+00 -3.874493360519409180e+00 5.979650653898715973e-03 -1.160554170608520508e+00 8.311817795038223267e-02
4.160000000000000000e+02 6.385936737060546875e+01 -6.728660583496093750e+00 -5.995446443557739258e-01 3.025273084640502930e-01 -8.910520374774932861e-02 9.876368045806884766e-01
4.170000000000000000e+02 6.383003234863281250e+01 -6.509346485137939453e+00 -3.530355930328369141e+00 1.043176352977752686e-01 -1.027811527252197266e+00 2.306316792964935303e-02
4.180000000000000000e+02 6.242010498046875000e+01 -7.302202224731445312e+00 -1.274002671241760254e+00 2.715594470500946045e-01 -3.007329404354095459e-01 8.215990662574768066e-01
4.190000000000000000e+02 6.236984252929687500e+01 -7.618545055389404297e+00 -3.461737632751464844e-01 6.734074354171752930e-01 9.817009419202804565e-02 1.434675574302673340e+00
4.200000000000000000e+02 6.300390243530273438e+01 -7.528997898101806641e+00 5.954313874244689941e-01 1.124821186065673828e+00 5.160757899284362793e-01 2.156823396682739258e+00
4.210000000000000000e+02 6.361334228515625000e+01 -7.759380817413330078e+00 2.374387025833129883e+00 3.284768819808959961e+00 1.697746753692626953e+00 4.389227867126464844e+00
4.220000000000000000e+02 6.360790634155273438e+01 -7.506386280059814453e+00 2.230159759521484375e+00 2.292159557342529297e+00 1.356695771217346191e+00 3.643435239791870117e+00
4.230000000000000000e+02 6.435673522949218750e+01 -7.537083625793457031e+00 3.818050384521484375e+00 8.012335777282714844e+00 3.549115896224975586e+00 7.239688873291015625e+00
4.240000000000000000e+02 6.462746429443359375e+01 -7.809362888336181641e+00 2.343300104141235352e+00 1.286573600769042969e+01 4.562710762023925781e+00 7.529634952545166016e+00
4.250000000000000000e+02 6.519882202148437500e+01 -7.809232234954833984e+00 7.313181757926940918e-01 1.917341232299804688e+01 5.971418857574462891e+00 5.161087036132812500e+00
4.260000000000000000e+02 6.523144531250000000e+01 -7.483443260192871094e+00 1.433276414871215820e+00 2.289730644226074219e+01 7.299174785614013672e+00 5.172196388244628906e+00
4.270000000000000000e+02 6.605290985107421875e+01 -7.193890094757080078e+00 7.084370136260986328e+00 2.257468605041503906e+01 8.897716522216796875e+00 -2.876158952713012695e+00
4.280000000000000000e+02 6.653526306152343750e+01 -6.483112335205078125e+00 1.130795669555664062e+01 1.747196578979492188e+01 8.633976936340332031e+00 -3.443791866302490234e-01
4.290000000000000000e+02 6.653464508056640625e+01 -6.308061122894287109e+00 1.133306407928466797e+01 1.751660346984863281e+01 8.654899597167968750e+00 3.538834154605865479e-01
4.300000000000000000e+02 6.621041870117187500e+01 -6.283804416656494141e+00 1.361006450653076172e+01 1.972466850280761719e+01 1.000041961669921875e+01 9.616342782974243164e-01
4.310000000000000000e+02 6.622608184814453125e+01 -5.609452247619628906e+00 7.435508251190185547e+00 2.086527633666992188e+01 8.490235328674316406e+00 2.928205966949462891e+00
4.320000000000000000e+02 6.590369415283203125e+01 -5.210931777954101562e+00 3.176237106323242188e+00 2.206405830383300781e+01 7.572088241577148438e+00 9.864483475685119629e-01
4.330000000000000000e+02 6.534210205078125000e+01 -5.046874523162841797e+00 9.284318685531616211e-01 2.142158699035644531e+01 6.705005645751953125e+00 -3.989547491073608398e+00
4.340000000000000000e+02 6.546002960205078125e+01 -5.334616661071777344e+00 1.841300249099731445e+00 2.481266975402832031e+01 7.996191024780273438e+00 -2.282923698425292969e+00
4.350000000000000000e+02 6.485630035400390625e+01 -4.984333992004394531e+00 1.549765110015869141e+00 1.629691886901855469e+01 5.354005336761474609e+00 -7.350404262542724609e+00
4.360000000000000000e+02 6.281298828125000000e+01 -5.017373561859130859e+00 6.145538091659545898e-01 1.196160197257995605e+00 5.432142019271850586e-01 -2.242329597473144531e+00
4.370000000000000000e+02 6.322040557861328125e+01 -5.039146900177001953e+00 1.504111886024475098e+00 2.000093221664428711e+00 1.051261544227600098e+00 -3.148669242858886719e+00
4.380000000000000000e+02 6.365543365478515625e+01 -5.282742023468017578e+00 2.466841220855712891e+00 2.497575044631958008e+00 1.489324808120727539e+00 -3.925092697143554688e+00
4.390000000000000000e+02 6.362673950195312500e+01 -5.023840427398681641e+00 2.440526247024536133e+00 3.395339012145996094e+00 1.750759601593017578e+00 -4.486280918121337891e+00
4.400000000000000000e+02 6.405369567871093750e+01 -5.239711761474609375e+00 3.379568099975585938e+00 5.102978706359863281e+00 2.544764041900634766e+00 -5.801364898681640625e+00
4.410000000000000000e+02 6.594113922119140625e+01 -7.077600002288818359e+00 7.977183818817138672e+00 2.386005210876464844e+01 9.551171302795410156e+00 -3.175528526306152344e+00
4.420000000000000000e+02 6.450593566894531250e+01 -7.618512153625488281e+00 3.438708782196044922e+00 1.044144821166992188e+01 4.164047241210937500e+00 7.949378490447998047e+00
4.430000000000000000e+02 6.409778594970703125e+01 -7.255124568939208984e+00 3.930835008621215820e+00 3.580760478973388672e+00 2.253478527069091797e+00 5.173842906951904297e+00
4.440000000000000000e+02 6.379987335205078125e+01 -6.905321598052978516e+00 8.672822713851928711e-01 4.883405566215515137e-01 4.066868424415588379e-01 1.778120875358581543e+00
4.450000000000000000e+02 6.270656585693359375e+01 -5.500517845153808594e+00 -8.294358253479003906e-01 4.453857541084289551e-01 -1.152150332927703857e-01 -1.101332426071166992e+00
4.460000000000000000e+02 6.330847930908203125e+01 -5.657891750335693359e+00 1.329741440713405609e-02 6.455152034759521484e-01 1.976437866687774658e-01 -1.575376987457275391e+00
4.470000000000000000e+02 6.423520660400390625e+01 -5.210805416107177734e+00 3.525742292404174805e+00 6.813295841217041016e+00 3.101711511611938477e+00 -6.738718032836914062e+00
4.480000000000000000e+02 6.259195709228515625e+01 -6.903508186340332031e+00 -2.751361608505249023e+00 1.227679848670959473e-01 -7.885780930519104004e-01 3.117248415946960449e-01
4.490000000000000000e+02 6.292528915405273438e+01 -7.022166728973388672e+00 -1.335393786430358887e+00 1.502093821763992310e-01 -3.555553257465362549e-01 6.942282319068908691e-01
4.500000000000000000e+02 6.311535644531250000e+01 -7.069238185882568359e+00 -6.541392803192138672e-01 3.244409561157226562e-01 -9.890948981046676636e-02 1.050297141075134277e+00
4.510000000000000000e+02 6.342419815063476562e+01 -7.275232315063476562e+00 1.099449276924133301e+00 1.021134853363037109e+00 6.361752152442932129e-01 2.325228214263916016e+00
4.520000000000000000e+02 6.591470336914062500e+01 -7.332216739654541016e+00 4.986447334289550781e+00 2.359726333618164062e+01 8.575113296508789062e+00 -1.921483159065246582e+00
4.530000000000000000e+02 6.501761627197265625e+01 -7.643234729766845703e+00 1.563763260841369629e+00 1.881902313232421875e+01 6.114836215972900391e+00 6.958771228790283203e+00
4.540000000000000000e+02 6.251603698730468750e+01 -7.567047119140625000e+00 -2.663648426532745361e-01 6.164786815643310547e-01 1.050341427326202393e-01 1.434626102447509766e+00
4.550000000000000000e+02 6.242113113403320312e+01 -5.687522411346435547e+00 -1.964537262916564941e+00 1.653018146753311157e-01 -5.397706627845764160e-01 -5.138957500457763672e-01
4.560000000000000000e+02 6.261666107177734375e+01 -5.695160388946533203e+00 -1.595401644706726074e+00 1.219056025147438049e-01 -4.420488178730010986e-01 -6.025048494338989258e-01
4.570000000000000000e+02 6.237350845336914062e+01 -7.468473911285400391e+00 -8.578122854232788086e-01 5.007188916206359863e-01 -1.071280241012573242e-01 1.086401104927062988e+00
4.580000000000000000e+02 6.403290557861328125e+01 -7.470976352691650391e+00 3.575201749801635742e+00 4.466117858886718750e+00 2.412395954132080078e+00 5.523939609527587891e+00
4.590000000000000000e+02 6.261972808837890625e+01 -6.050439357757568359e+00 -3.516152858734130859e+00 7.606444414705038071e-03 -1.052563905715942383e+00 -1.378056108951568604e-01
4.600000000000000000e+02 6.276191329956054688e+01 -5.797999858856201172e+00 -2.044402599334716797e+00 1.078117266297340393e-01 -5.809773206710815430e-01 -4.585694670677185059e-01
4.610000000000000000e+02 6.376482009887695312e+01 -7.226228237152099609e+00 2.392780542373657227e+00 1.906683325767517090e+00 1.289839267730712891e+00 3.363327026367187500e+00
4.620000000000000000e+02 6.313823318481445312e+01 -7.277612209320068359e+00 2.340587079524993896e-01 7.759817838668823242e-01 3.030121326446533203e-01 1.729067206382751465e+00
4.630000000000000000e+02 6.298035430908203125e+01 -7.325714588165283203e+00 -3.907722234725952148e-02 6.361112594604492188e-01 1.791101992130279541e-01 1.623666286468505859e+00
4.640000000000000000e+02 6.284193038940429688e+01 -7.336894035339355469e+00 -2.814642786979675293e-01 7.317777276039123535e-01 1.350940316915512085e-01 1.493554592132568359e+00
4.650000000000000000e+02 6.287522125244140625e+01 -7.206118106842041016e+00 -6.837969422340393066e-01 3.710412979125976562e-01 -9.382668882608413696e-02 1.091661810874938965e+00
4.660000000000000000e+02 6.262736892700195312e+01 -7.079209804534912109e+00 -1.687635302543640137e+00 1.798935830593109131e-01 -4.523225128650665283e-01 5.839210748672485352e-01
4.670000000000000000e+02 6.351435470581054688e+01 -7.121166706085205078e+00 9.592123627662658691e-01 7.833009362220764160e-01 5.227540135383605957e-01 1.977940678596496582e+00
4.680000000000000000e+02 6.181889724731445312e+01 -6.244261741638183594e+00 -4.701002120971679688e+00 7.861847430467605591e-02 -1.386715054512023926e+00 1.173388287425041199e-01
4.690000000000000000e+02 6.114678955078125000e+01 -5.677155494689941406e+00 -3.272757768630981445e+00 3.166234120726585388e-02 -9.723286628723144531e-01 -1.784639805555343628e-01
4.700000000000000000e+02 6.201109313964843750e+01 -5.866657733917236328e+00 -3.258999824523925781e+00 1.843165308237075806e-01 -9.224050045013427734e-01 -1.564991623163223267e-01
4.710000000000000000e+02 6.183145141601562500e+01 -5.529550552368164062e+00 -2.169915676116943359e+00 3.429356217384338379e-01 -5.480939745903015137e-01 -5.566280484199523926e-01
4.720000000000000000e+02 5.949299621582031250e+01 -5.259690284729003906e+00 -3.089996099472045898e+00 3.364666551351547241e-02 -9.169048070907592773e-01 -8.700025826692581177e-02
4.730000000000000000e+02 6.197649383544921875e+01 -5.385815620422363281e+00 -1.568612933158874512e+00 1.913456320762634277e-01 -4.131802022457122803e-01 -7.243444323539733887e-01
4.740000000000000000e+02 6.153290557861328125e+01 -5.190572261810302734e+00 -1.582350134849548340e+00 3.944412171840667725e-01 -3.563726842403411865e-01 -7.117015123367309570e-01
4.750000000000000000e+02 6.025846099853515625e+01 -5.264941215515136719e+00 -2.779288291931152344e+00 5.110574141144752502e-02 -8.184547424316406250e-01 -1.991199105978012085e-01
4.760000000000000000e+02 5.949282073974609375e+01 -5.999690532684326172e+00 -4.346701145172119141e+00 2.061797678470611572e-02 -1.297824978828430176e+00 2.017251960933208466e-02
4.770000000000000000e+02 6.202875518798828125e+01 -5.712577819824218750e+00 -2.484623193740844727e+00 2.038662880659103394e-01 -6.842270493507385254e-01 -3.821260631084442139e-01
4.780000000000000000e+02 6.194133758544921875e+01 -6.028512477874755859e+00 -3.904385566711425781e+00 2.026546746492385864e-01 -1.110519289970397949e+00 1.649941131472587585e-02
4.790000000000000000e+02 6.183154296875000000e+01 -4.995229244232177734e+00 -9.387555122375488281e-01 4.157402813434600830e-01 -1.569045782089233398e-01 -1.073234915733337402e+00
4.800000000000000000e+02 6.202078247070312500e+01 -5.546195983886718750e+00 -2.019709110260009766e+00 7.144082337617874146e-02 -5.844805240631103516e-01 -4.564312696456909180e-01
4.810000000000000000e+02 6.192693328857421875e+01 -5.205019950866699219e+00 -1.258324623107910156e+00 1.334322690963745117e-01 -3.374677002429962158e-01 -8.664965629577636719e-01
4.820000000000000000e+02 6.098692321777343750e+01 -5.203234195709228516e+00 -2.215689659118652344e+00 1.323392540216445923e-01 -6.250051259994506836e-01 -4.092924296855926514e-01
4.830000000000000000e+02 6.141652679443359375e+01 -6.024172306060791016e+00 -4.285186290740966797e+00 -9.939605742692947388e-02 -1.315374732017517090e+00 6.154737621545791626e-02
4.840000000000000000e+02 6.167687606811523438e+01 -5.831648826599121094e+00 -3.489133596420288086e+00 1.217598840594291687e-01 -1.010212063789367676e+00 -1.705398559570312500e-01
4.850000000000000000e+02 6.095775222778320312e+01 -6.078020095825195312e+00 -4.404521465301513672e+00 2.527110278606414795e-03 -1.320598244667053223e+00 6.997191905975341797e-02
4.860000000000000000e+02 6.025820159912109375e+01 -6.004941463470458984e+00 -4.353275775909423828e+00 -3.505099564790725708e-02 -1.316498041152954102e+00 3.316365927457809448e-02
4.870000000000000000e+02 6.155256271362304688e+01 -5.535354137420654297e+00 -2.545602798461914062e+00 1.181870177388191223e-01 -7.282247543334960938e-01 -4.464273452758789062e-01
4.880000000000000000e+02 6.186622619628906250e+01 -5.732892513275146484e+00 -2.887168884277343750e+00 2.454390674829483032e-01 -7.925189733505249023e-01 -2.943726778030395508e-01
4.890000000000000000e+02 5.648974227905273438e+01 -5.999071121215820312e+00 -4.212340354919433594e+00 4.005376249551773071e-03 -1.262500524520874023e+00 4.154663160443305969e-02
4.900000000000000000e+02 5.723953247070312500e+01 -5.259526252746582031e+00 -3.449759483337402344e+00 2.207508310675621033e-02 -1.028305292129516602e+00 3.452252969145774841e-02
4.910000000000000000e+02 5.723992156982421875e+01 -5.999526023864746094e+00 -4.264947891235351562e+00 -2.312563359737396240e-03 -1.280178189277648926e+00 3.940955176949501038e-02
4.920000000000000000e+02 5.798986434936523438e+01 -5.998773574829101562e+00 -4.305471420288085938e+00 9.354390203952789307e-03 -1.288835167884826660e+00 3.216398134827613831e-02
4.930000000000000000e+02 5.873990631103515625e+01 -5.998174190521240234e+00 -4.334918498992919922e+00 -9.255634620785713196e-03 -1.303252339363098145e+00 3.157835081219673157e-02
4.940000000000000000e+02 5.873993682861328125e+01 -5.258173942565917969e+00 -3.265125989913940430e+00 3.533665835857391357e-02 -9.689368009567260742e-01 -4.134882986545562744e-02
4.950000000000000000e+02 5.648913955688476562e+01 -5.259071350097656250e+00 -3.480707406997680664e+00 7.132227998226881027e-03 -1.042072534561157227e+00 6.003288179636001587e-02
4.960000000000000000e+02 5.798968124389648438e+01 -5.258773326873779297e+00 -3.385161161422729492e+00 1.646323315799236298e-02 -1.010609388351440430e+00 9.775086306035518646e-03
4.970000000000000000e+02 5.348892211914062500e+01 -6.003879547119140625e+00 -3.912944316864013672e+00 4.791023675352334976e-04 -1.173739552497863770e+00 4.294032603502273560e-02
4.980000000000000000e+02 5.423745727539062500e+01 -5.263031959533691406e+00 -3.451028108596801758e+00 6.385364569723606110e-03 -1.033392786979675293e+00 9.868834912776947021e-02
4.990000000000000000e+02 5.423921203613281250e+01 -6.003029823303222656e+00 -3.993678808212280273e+00 -1.416420564055442810e-03 -1.198528528213500977e+00 4.374083876609802246e-02
5.000000000000000000e+02 5.498925781250000000e+01 -6.000969409942626953e+00 -4.072091102600097656e+00 2.855451311916112900e-03 -1.220770597457885742e+00 4.226591810584068298e-02
5.010000000000000000e+02 5.573940658569335938e+01 -5.999091625213623047e+00 -4.147213935852050781e+00 -3.219289006665349007e-03 -1.245129942893981934e+00 4.243107140064239502e-02
5.020000000000000000e+02 5.573849105834960938e+01 -5.259091854095458984e+00 -3.486386060714721680e+00 1.057388167828321457e-02 -1.042743682861328125e+00 7.662977278232574463e-02
5.030000000000000000e+02 5.348674774169921875e+01 -5.263882160186767578e+00 -3.409838676452636719e+00 -1.103820046409964561e-03 -1.023282766342163086e+00 1.059105247259140015e-01
5.040000000000000000e+02 5.498792266845703125e+01 -5.260970592498779297e+00 -3.477102041244506836e+00 3.674125764518976212e-03 -1.042028307914733887e+00 9.138677269220352173e-02
5.050000000000000000e+02 5.048752975463867188e+01 -6.016662120819091797e+00 -3.544657707214355469e+00 -1.179297687485814095e-03 -1.063751101493835449e+00 3.443835675716400146e-02
5.060000000000000000e+02 5.123381042480468750e+01 -5.273665904998779297e+00 -3.244347572326660156e+00 7.550157024525105953e-04 -9.730777740478515625e-01 1.157410144805908203e-01
5.070000000000000000e+02 5.123796844482421875e+01 -6.013654708862304688e+00 -3.635352611541748047e+00 -1.424535876139998436e-03 -1.091033101081848145e+00 3.721655160188674927e-02
5.080000000000000000e+02 5.198816299438476562e+01 -6.009502887725830078e+00 -3.728736877441406250e+00 1.199472462758421898e-03 -1.118261218070983887e+00 3.766591846942901611e-02
5.090000000000000000e+02 5.273845672607421875e+01 -6.005567073822021484e+00 -3.824099063873291016e+00 -3.330277279019355774e-03 -1.148228764533996582e+00 3.994753584265708923e-02
5.100000000000000000e+02 5.273571777343750000e+01 -5.265571594238281250e+00 -3.360410928726196289e+00 1.167479902505874634e-03 -1.007773041725158691e+00 1.121167689561843872e-01
5.110000000000000000e+02 5.048266220092773438e+01 -5.276676654815673828e+00 -3.172803878784179688e+00 -4.669597838073968887e-03 -9.532420635223388672e-01 1.169155091047286987e-01
5.120000000000000000e+02 5.198471069335937500e+01 -5.269510746002197266e+00 -3.306365489959716797e+00 -1.103635644540190697e-03 -9.922407865524291992e-01 1.159728318452835083e-01
5.130000000000000000e+02 4.748569488525390625e+01 -6.043330192565917969e+00 -3.138169765472412109e+00 -1.286453218199312687e-03 -9.418368339538574219e-01 2.215178310871124268e-02
5.140000000000000000e+02 4.822861480712890625e+01 -5.296689510345458984e+00 -2.944184780120849609e+00 -8.492844790453091264e-05 -8.832808732986450195e-01 1.167079359292984009e-01
5.150000000000000000e+02 4.823624420166015625e+01 -6.036650180816650391e+00 -3.236029863357543945e+00 -1.044745440594851971e-03 -9.711223840713500977e-01 2.485789172351360321e-02
5.160000000000000000e+02 4.898653793334960938e+01 -6.028829574584960938e+00 -3.338141918182373047e+00 7.578012300655245781e-04 -1.001215219497680664e+00 2.555975876748561859e-02
5.170000000000000000e+02 4.973693847656250000e+01 -6.021259307861328125e+00 -3.445232629776000977e+00 -3.807955654338002205e-03 -1.034712195396423340e+00 2.905663475394248962e-02
5.180000000000000000e+02 4.973123168945312500e+01 -5.281280040740966797e+00 -3.099042415618896484e+00 -2.479085000231862068e-03 -9.304564595222473145e-01 1.195956394076347351e-01
5.190000000000000000e+02 4.747710418701171875e+01 -5.303378582000732422e+00 -2.857256889343261719e+00 -4.094609990715980530e-03 -8.584054708480834961e-01 1.162815839052200317e-01
5.200000000000000000e+02 4.897986984252929688e+01 -5.288859844207763672e+00 -3.024716854095458984e+00 -2.173555083572864532e-03 -9.080671072006225586e-01 1.197236478328704834e-01
5.210000000000000000e+02 4.448383331298828125e+01 -6.086326122283935547e+00 -2.709355115890502930e+00 -1.094206236302852631e-03 -8.131347894668579102e-01 1.226893533021211624e-02
5.220000000000000000e+02 4.522269439697265625e+01 -5.335564136505126953e+00 -2.593318223953247070e+00 8.965458255261182785e-04 -7.777264714241027832e-01 1.138157397508621216e-01
5.230000000000000000e+02 4.523437500000000000e+01 -6.075472354888916016e+00 -2.812345504760742188e+00 -4.054497985634952784e-04 -8.438252806663513184e-01 1.412851177155971527e-02
5.240000000000000000e+02 4.598466110229492188e+01 -6.063519477844238281e+00 -2.919653177261352539e+00 6.755598005838692188e-04 -8.756932616233825684e-01 1.424992177635431290e-02
5.250000000000000000e+02 4.673505020141601562e+01 -6.051823139190673828e+00 -3.032461643218994141e+00 -3.170769196003675461e-03 -9.106897115707397461e-01 1.722733676433563232e-02
5.260000000000000000e+02 4.672545623779296875e+01 -5.311883449554443359e+00 -2.770278453826904297e+00 -2.098213182762265205e-03 -8.317130208015441895e-01 1.177416220307350159e-01
5.270000000000000000e+02 4.447110748291015625e+01 -5.346434116363525391e+00 -2.497981786727905273e+00 -2.075890544801950455e-03 -7.500172853469848633e-01 1.134782582521438599e-01
5.280000000000000000e+02 4.597402191162109375e+01 -5.323595523834228516e+00 -2.684222459793090820e+00 -9.108056547120213509e-04 -8.055399656295776367e-01 1.170865967869758606e-01
5.290000000000000000e+02 4.223370742797851562e+01 -6.133643150329589844e+00 -2.373759508132934570e+00 9.006095933727920055e-04 -7.118576765060424805e-01 7.304925005882978439e-03
5.300000000000000000e+02 4.148229217529296875e+01 -6.146579742431640625e+00 -2.266716957092285156e+00 -7.705399766564369202e-04 -6.802462339401245117e-01 7.196822203695774078e-03
5.310000000000000000e+02 4.221790695190429688e+01 -5.393811225891113281e+00 -2.213623285293579102e+00 2.551681594923138618e-03 -6.633214354515075684e-01 1.112148985266685486e-01
5.320000000000000000e+02 4.298408889770507812e+01 -6.118122577667236328e+00 -2.484822034835815430e+00 6.163802463561296463e-04 -7.452616691589355469e-01 6.031539291143417358e-03
5.330000000000000000e+02 4.373342132568359375e+01 -6.099862575531005859e+00 -2.600028991699218750e+00 -2.517821500077843666e-03 -7.807640433311462402e-01 8.288486860692501068e-03
5.340000000000000000e+02 4.371966552734375000e+01 -5.359988689422607422e+00 -2.403366088867187500e+00 -4.731292719952762127e-04 -7.211517095565795898e-01 1.149802356958389282e-01
5.350000000000000000e+02 4.146547317504882812e+01 -5.406769752502441406e+00 -2.112360000610351562e+00 8.711244445294141769e-04 -6.334466338157653809e-01 1.120614930987358093e-01
5.360000000000000000e+02 4.296931076049804688e+01 -5.378270149230957031e+00 -2.311107873916625977e+00 1.383448950946331024e-03 -6.929173469543457031e-01 1.141680255532264709e-01
5.370000000000000000e+02 3.846181488037109375e+01 -5.483074665069580078e+00 -1.715287566184997559e+00 4.482975229620933533e-03 -5.132414102554321289e-01 1.141530722379684448e-01
5.380000000000000000e+02 3.848166656494140625e+01 -6.222808361053466797e+00 -1.816562533378601074e+00 7.933155284263193607e-04 -5.447307825088500977e-01 8.061540313065052032e-03
5.390000000000000000e+02 3.923187255859375000e+01 -6.203719139099121094e+00 -1.926515460014343262e+00 1.071858569048345089e-03 -5.776330828666687012e-01 6.514491979032754898e-03
5.400000000000000000e+02 3.998181152343750000e+01 -6.183495998382568359e+00 -2.038570165634155273e+00 8.065822185017168522e-04 -6.113290786743164062e-01 4.918300081044435501e-03
5.410000000000000000e+02 4.073185729980468750e+01 -6.163486957550048828e+00 -2.154775857925415039e+00 -8.621888700872659683e-04 -6.466914415359497070e-01 5.256347823888063431e-03
5.420000000000000000e+02 4.071416854858398438e+01 -5.423696517944335938e+00 -2.013814210891723633e+00 1.769028604030609131e-03 -6.036135554313659668e-01 1.138913780450820923e-01
5.430000000000000000e+02 3.921274185180664062e+01 -5.463966846466064453e+00 -1.816019654273986816e+00 4.818698391318321228e-03 -5.433602929115295410e-01 1.133054196834564209e-01
5.440000000000000000e+02 3.996340179443359375e+01 -5.443724155426025391e+00 -1.916354775428771973e+00 3.744750283658504486e-03 -5.737830400466918945e-01 1.139857769012451172e-01
5.450000000000000000e+02 3.698171997070312500e+01 -6.262598514556884766e+00 -1.593026161193847656e+00 1.365803764201700687e-03 -4.774980843067169189e-01 1.110492181032896042e-02
5.460000000000000000e+02 3.621255493164062500e+01 -5.544963359832763672e+00 -1.417255401611328125e+00 6.903013214468955994e-03 -4.231057465076446533e-01 1.185706034302711487e-01
5.470000000000000000e+02 3.548279571533203125e+01 -6.306656837463378906e+00 -1.372561454772949219e+00 2.479108981788158417e-03 -4.110246896743774414e-01 1.659093797206878662e-02
5.480000000000000000e+02 3.771127700805664062e+01 -5.501970291137695312e+00 -1.615053176879882812e+00 5.047343671321868896e-03 -4.830017387866973877e-01 1.160312518477439880e-01
5.490000000000000000e+02 3.773139953613281250e+01 -6.241697311401367188e+00 -1.705331206321716309e+00 9.460632572881877422e-04 -5.113155245780944824e-01 9.340308606624603271e-03
5.500000000000000000e+02 3.546322250366210938e+01 -5.566914081573486328e+00 -1.320100069046020508e+00 7.475493475794792175e-03 -3.937873840332031250e-01 1.196084916591644287e-01
5.510000000000000000e+02 3.696178054809570312e+01 -5.522866249084472656e+00 -1.516372203826904297e+00 5.808589514344930649e-03 -4.531690776348114014e-01 1.172161251306533813e-01
5.520000000000000000e+02 3.623231124877929688e+01 -6.284700870513916016e+00 -1.482622027397155762e+00 1.556645263917744160e-03 -4.443196058273315430e-01 1.335440576076507568e-02
5.530000000000000000e+02 3.323463058471679688e+01 -6.359344959259033203e+00 -1.061119079589843750e+00 1.215962460264563560e-03 -3.179709315299987793e-01 2.683594822883605957e-02
5.540000000000000000e+02 3.321954727172851562e+01 -5.619493961334228516e+00 -1.034105777740478516e+00 6.554902996867895126e-03 -3.082652688026428223e-01 1.250277012586593628e-01
5.550000000000000000e+02 3.248681640625000000e+01 -6.379900932312011719e+00 -9.566340446472167969e-01 3.297437680885195732e-03 -2.860009968280792236e-01 3.002886101603507996e-02
5.560000000000000000e+02 3.398349380493164062e+01 -6.341384410858154297e+00 -1.164035916328430176e+00 2.164340112358331680e-03 -3.485614657402038574e-01 2.463875897228717804e-02
5.570000000000000000e+02 3.471478271484375000e+01 -5.586100101470947266e+00 -1.223392724990844727e+00 7.537639699876308441e-03 -3.647565245628356934e-01 1.204694882035255432e-01
5.580000000000000000e+02 3.473338699340820312e+01 -6.325866699218750000e+00 -1.266642093658447266e+00 2.651356626302003860e-03 -3.791972398757934570e-01 2.081552520394325256e-02
5.590000000000000000e+02 3.247348785400390625e+01 -5.640007495880126953e+00 -9.452016949653625488e-01 7.051195949316024780e-03 -2.814451456069946289e-01 1.250563263893127441e-01
5.600000000000000000e+02 3.396664810180664062e+01 -5.601575374603271484e+00 -1.127526402473449707e+00 6.128336768597364426e-03 -3.364194333553314209e-01 1.223361194133758545e-01
5.610000000000000000e+02 3.099083137512207031e+01 -6.399948596954345703e+00 -7.719483375549316406e-01 9.366487502120435238e-04 -2.313034981489181519e-01 3.839946910738945007e-02
5.620000000000000000e+02 3.024179267883300781e+01 -5.667771339416503906e+00 -6.858198642730712891e-01 2.141755772754549980e-03 -2.051034420728683472e-01 1.259039491415023804e-01
5.630000000000000000e+02 2.949573898315429688e+01 -6.414954185485839844e+00 -5.878384113311767578e-01 2.327535068616271019e-03 -1.756532639265060425e-01 4.133431613445281982e-02
5.640000000000000000e+02 3.172830200195312500e+01 -5.652883052825927734e+00 -8.562835454940795898e-01 6.193020381033420563e-03 -2.550271451473236084e-01 1.239189133048057556e-01
5.650000000000000000e+02 3.173856925964355469e+01 -6.392818927764892578e+00 -8.606112003326416016e-01 2.824753290042281151e-03 -2.573359310626983643e-01 3.521176800131797791e-02
5.660000000000000000e+02 2.949855422973632812e+01 -5.674893379211425781e+00 -6.080026626586914062e-01 2.260544337332248688e-03 -1.817226409912109375e-01 1.238169968128204346e-01
5.670000000000000000e+02 3.098492622375488281e+01 -5.659971237182617188e+00 -7.687471508979797363e-01 3.020155476406216621e-03 -2.297180891036987305e-01 1.247293949127197266e-01
5.680000000000000000e+02 3.024333572387695312e+01 -6.407790660858154297e+00 -6.806428432464599609e-01 4.980432568117976189e-04 -2.040434330701828003e-01 3.916327282786369324e-02
5.690000000000000000e+02 2.800358009338378906e+01 -6.392907142639160156e+00 -4.364277422428131104e-01 -2.039692597463726997e-03 -1.315402239561080933e-01 4.675479605793952942e-02
5.700000000000000000e+02 2.728431129455566406e+01 -5.636834621429443359e+00 -3.910484015941619873e-01 -7.376627996563911438e-03 -1.195275038480758667e-01 1.152564138174057007e-01
5.710000000000000000e+02 2.651304817199707031e+01 -6.358762741088867188e+00 -2.902843952178955078e-01 -1.604845980182290077e-03 -8.756677061319351196e-02 4.283323511481285095e-02
5.720000000000000000e+02 2.875823974609375000e+01 -5.669638156890869141e+00 -5.320276618003845215e-01 -8.907276787795126438e-05 -1.596350222826004028e-01 1.195657402276992798e-01
5.730000000000000000e+02 2.874904632568359375e+01 -6.409622669219970703e+00 -5.069993138313293457e-01 1.092825084924697876e-03 -1.517719477415084839e-01 4.552087932825088501e-02
5.740000000000000000e+02 2.654741096496582031e+01 -5.619358539581298828e+00 -3.290562331676483154e-01 -8.094968274235725403e-03 -1.011453643441200256e-01 1.088343337178230286e-01
5.750000000000000000e+02 2.802116203308105469e+01 -5.653115749359130859e+00 -4.584375321865081787e-01 -4.592318087816238403e-03 -1.389089524745941162e-01 1.177231147885322571e-01
5.760000000000000000e+02 2.725833702087402344e+01 -6.376431941986083984e+00 -3.631926476955413818e-01 -2.261436311528086662e-03 -1.096362248063087463e-01 4.459487274289131165e-02
5.770000000000000000e+02 2.428754043579101562e+01 -6.197861671447753906e+00 -1.306975632905960083e-01 -5.671564023941755295e-03 -4.091073945164680481e-02 3.481261059641838074e-02
5.780000000000000000e+02 2.435861396789550781e+01 -5.461198806762695312e+00 -1.703558862209320068e-01 -1.875876449048519135e-02 -5.673439428210258484e-02 8.526320755481719971e-02
5.790000000000000000e+02 2.354777717590332031e+01 -6.138960838317871094e+00 -8.555527776479721069e-02 -6.099990103393793106e-03 -2.749658003449440002e-02 2.807579189538955688e-02
5.800000000000000000e+02 2.502826499938964844e+01 -6.258197307586669922e+00 -1.800797134637832642e-01 -6.002000533044338226e-03 -5.582451447844505310e-02 4.031930491328239441e-02
5.810000000000000000e+02 2.581491851806640625e+01 -5.581003189086914062e+00 -2.707680761814117432e-01 -1.135501638054847717e-02 -8.463692665100097656e-02 1.003241911530494690e-01
5.820000000000000000e+02 2.576985549926757812e+01 -6.319781780242919922e+00 -2.299116253852844238e-01 -2.981812460348010063e-03 -6.986802816390991211e-02 4.270184412598609924e-02
5.830000000000000000e+02 2.363185691833496094e+01 -5.403356075286865234e+00 -1.284247934818267822e-01 -1.890621706843376160e-02 -4.419930279254913330e-02 7.367254793643951416e-02
5.840000000000000000e+02 2.508633232116699219e+01 -5.520476818084716797e+00 -2.170592546463012695e-01 -1.545728836208581924e-02 -6.975496560335159302e-02 9.389447420835494995e-02
5.850000000000000000e+02 2.146717453002929688e+01 -5.077126979827880859e+00 -4.157845303416252136e-02 -2.071159146726131439e-02 -1.868701353669166565e-02 3.470784425735473633e-02
5.860000000000000000e+02 2.134441947937011719e+01 -5.806876659393310547e+00 -4.689262248575687408e-03 -3.293986897915601730e-03 -2.394974697381258011e-03 1.007949281483888626e-02
5.870000000000000000e+02 2.061148262023925781e+01 -5.684748649597167969e+00 8.369833230972290039e-03 -5.281009245663881302e-03 9.266472188755869865e-04 3.268711268901824951e-03
5.880000000000000000e+02 2.207760429382324219e+01 -5.928263664245605469e+00 -2.510892786085605621e-02 -7.409414276480674744e-03 -9.755502454936504364e-03 1.591850444674491882e-02
5.890000000000000000e+02 2.290797805786132812e+01 -5.314875125885009766e+00 -9.304692596197128296e-02 -2.098936773836612701e-02 -3.421088680624961853e-02 6.060480326414108276e-02
5.900000000000000000e+02 2.281096076965332031e+01 -6.048885822296142578e+00 -5.053775012493133545e-02 -5.399058107286691666e-03 -1.678104139864444733e-02 2.266380749642848969e-02
5.910000000000000000e+02 2.074710655212402344e+01 -4.957129478454589844e+00 -2.678517997264862061e-02 -1.516620535403490067e-02 -1.258541550487279892e-02 2.224459685385227203e-02
5.920000000000000000e+02 2.218749046325683594e+01 -5.196383476257324219e+00 -6.330734491348266602e-02 -2.124608494341373444e-02 -2.536602877080440521e-02 4.947753623127937317e-02
5.930000000000000000e+02 1.905580329895019531e+01 -4.613489627838134766e+00 -7.431891281157732010e-04 9.577895398251712322e-04 6.438011769205331802e-05 -4.769435618072748184e-03
5.940000000000000000e+02 1.978026580810546875e+01 -5.523462295532226562e+00 1.023662462830543518e-02 -1.234973547980189323e-03 2.700495300814509392e-03 -3.484859829768538475e-03
5.950000000000000000e+02 1.992511749267578125e+01 -4.797539234161376953e+00 -1.225882675498723984e-02 -1.619533635675907135e-02 -8.536248467862606049e-03 7.351109292358160019e-03
5.960000000000000000e+02 1.847771644592285156e+01 -4.667171001434326172e+00 7.376919966191053391e-04 1.373866014182567596e-02 4.342905711382627487e-03 -2.492923988029360771e-03
5.970000000000000000e+02 1.890536689758300781e+01 -5.338151454925537109e+00 2.908156253397464752e-03 1.652705715969204903e-03 1.368258614093065262e-03 -4.517160821706056595e-03
5.980000000000000000e+02 1.839597892761230469e+01 -6.743758678436279297e+00 -1.586223952472209930e-02 -2.043979801237583160e-02 -1.089061144739389420e-02 -1.685222238302230835e-02
5.990000000000000000e+02 1.898709678649902344e+01 -6.887634754180908203e+00 -6.234638765454292297e-02 -1.392511837184429169e-02 -2.288145199418067932e-02 -3.762916848063468933e-02
6.000000000000000000e+02 1.805066490173339844e+01 -6.483493804931640625e+00 6.338843144476413727e-03 5.771157797425985336e-03 3.633000189438462257e-03 8.127758279442787170e-03
6.010000000000000000e+02 1.962771224975585938e+01 -7.039688110351562500e+00 -1.117442101240158081e-01 -1.290413318201899529e-03 -3.391038626432418823e-02 -4.617172852158546448e-02
6.020000000000000000e+02 1.914450645446777344e+01 -6.164547443389892578e+00 -8.875777944922447205e-03 -7.304024416953325272e-03 -4.853940568864345551e-03 -7.493269164115190506e-03
6.030000000000000000e+02 1.977488708496093750e+01 -6.314289569854736328e+00 -4.097623750567436218e-02 1.766553265042603016e-03 -1.176290586590766907e-02 -1.536802016198635101e-02
6.040000000000000000e+02 1.856362152099609375e+01 -6.022982120513916016e+00 8.789740968495607376e-04 2.853418933227658272e-03 1.119717955589294434e-03 -5.486722220666706562e-04
6.050000000000000000e+02 1.765323066711425781e+01 -8.617516517639160156e+00 -1.041276305913925171e-01 -8.763380348682403564e-02 -5.752842873334884644e-02 -1.033514291048049927e-01
6.060000000000000000e+02 1.887291526794433594e+01 -7.716066360473632812e+00 -1.209979429841041565e-01 -2.088676206767559052e-02 -4.256541281938552856e-02 -7.644673436880111694e-02
6.070000000000000000e+02 1.706181144714355469e+01 -9.289070129394531250e+00 -1.047787070274353027e-01 -1.444730758666992188e-01 -7.477553188800811768e-02 -1.282430291175842285e-01
6.080000000000000000e+02 2.173042678833007812e+01 -9.024860382080078125e+00 -3.837886154651641846e-01 1.290089823305606842e-02 -1.112663075327873230e-01 -1.925257742404937744e-01
6.090000000000000000e+02 2.720481491088867188e+01 -8.635981559753417969e+00 -8.112865090370178223e-01 -7.800699211657047272e-03 -2.457261681556701660e-01 -1.647821813821792603e-01
6.100000000000000000e+02 2.410051727294921875e+01 -8.464079856872558594e+00 -5.421314835548400879e-01 1.004018913954496384e-02 -1.596273928880691528e-01 -1.526625603437423706e-01
6.110000000000000000e+02 1.498106193542480469e+01 -1.272430992126464844e+01 -2.821714282035827637e-01 -4.289560317993164062e-01 -2.133382409811019897e-01 -3.395205438137054443e-01
6.120000000000000000e+02 1.239970970153808594e+01 -1.603410530090332031e+01 -4.383225440979003906e-01 -4.566594958305358887e-01 -2.684946060180664062e-01 -4.388106167316436768e-01
6.130000000000000000e+02 1.422835922241210938e+01 -1.575085926055908203e+01 -3.917331099510192871e-01 -3.758934140205383301e-01 -2.302879542112350464e-01 -3.696248829364776611e-01
6.140000000000000000e+02 1.396025657653808594e+01 -2.271943855285644531e+01 -8.533663302659988403e-02 -3.481456041336059570e-01 -1.300446689128875732e-01 -3.000178933143615723e-01
6.150000000000000000e+02 2.004752349853515625e+01 -3.050497627258300781e+01 2.323967963457107544e-01 -3.024150133132934570e-01 -2.100546471774578094e-02 -2.800971269607543945e-01
6.160000000000000000e+02 1.759711456298828125e+01 -4.058429718017578125e+01 3.170694410800933838e-01 -3.632188737392425537e-01 -1.384482346475124359e-02 -5.044007301330566406e-02
6.170000000000000000e+02 2.244708824157714844e+01 -4.077494812011718750e+01 4.501862525939941406e-01 -2.841711044311523438e-01 4.980454593896865845e-02 -4.232136160135269165e-02
6.180000000000000000e+02 1.837871551513671875e+01 -3.684643173217773438e+01 3.167220354080200195e-01 -3.505806326866149902e-01 -1.015757955610752106e-02 -1.408408284187316895e-01
6.190000000000000000e+02 2.264009475708007812e+01 -3.377357482910156250e+01 3.723268210887908936e-01 -2.723723649978637695e-01 2.998633123934268951e-02 -2.285778820514678955e-01
6.200000000000000000e+02 2.168724441528320312e+01 -2.096775436401367188e+01 -1.564942747354507446e-01 -1.677643507719039917e-01 -9.727758914232254028e-02 -3.937528431415557861e-01
6.210000000000000000e+02 2.490162277221679688e+01 -1.318746662139892578e+01 -5.234000086784362793e-01 -1.558382809162139893e-02 -1.616951525211334229e-01 -4.044744372367858887e-01
6.220000000000000000e+02 2.413326454162597656e+01 -1.403909015655517578e+01 -4.744144976139068604e-01 -2.508549764752388000e-02 -1.498499959707260132e-01 -4.157542586326599121e-01
6.230000000000000000e+02 1.330322360992431641e+01 -1.495077514648437500e+01 -4.055635035037994385e-01 -4.576192796230316162e-01 -2.589548528194427490e-01 -4.234499633312225342e-01
6.240000000000000000e+02 1.144112873077392578e+01 -1.715019989013671875e+01 -5.239291787147521973e-01 -4.389636516571044922e-01 -2.888678312301635742e-01 -4.329966008663177490e-01
6.250000000000000000e+02 1.025411510467529297e+01 -1.804077339172363281e+01 -6.397028565406799316e-01 -3.515099585056304932e-01 -2.973638474941253662e-01 -3.592597544193267822e-01
6.260000000000000000e+02 8.980469703674316406e+00 -1.836662673950195312e+01 -4.487465620040893555e-01 -1.178555935621261597e-01 -1.699806451797485352e-01 -1.924388557672500610e-01
6.270000000000000000e+02 7.191617012023925781e+00 -1.738356590270996094e+01 -7.493985444307327271e-02 3.534747660160064697e-02 -1.187771372497081757e-02 -1.744530722498893738e-02
6.280000000000000000e+02 6.354634284973144531e+00 -1.640822792053222656e+01 2.661214442923665047e-03 5.662759300321340561e-03 2.497192239388823509e-03 -9.608709253370761871e-03
6.290000000000000000e+02 7.056914806365966797e+00 -1.511799335479736328e+01 5.507232155650854111e-03 2.717711403965950012e-02 9.805303998291492462e-03 -8.652495220303535461e-03
6.300000000000000000e+02 8.907070159912109375e+00 -1.145103740692138672e+01 -5.278976168483495712e-04 -7.686880999244749546e-04 -3.889757208526134491e-04 5.002350662834942341e-04
6.310000000000000000e+02 9.674604415893554688e+00 -1.030955791473388672e+01 6.937475700397044420e-05 2.295464946655556560e-04 8.967637404566630721e-05 -4.768948128912597895e-04
6.320000000000000000e+02 1.212898635864257812e+01 -7.053107261657714844e+00 2.112804504577070475e-04 -6.277217471506446600e-05 4.455248563317582011e-05 -6.507473881356418133e-05
6.330000000000000000e+02 1.173087215423583984e+01 -2.750843286514282227e+00 9.851769573288038373e-05 2.123426384059712291e-04 9.325809514848515391e-05 -8.537379471817985177e-06
6.340000000000000000e+02 1.224772930145263672e+01 -4.639172077178955078e+00 -1.831497211242094636e-04 -1.242560683749616146e-04 -9.222173684975132346e-05 -9.048619176610372961e-06
6.350000000000000000e+02 1.105221080780029297e+01 -1.911502718925476074e+00 3.536757867550477386e-05 2.276274608448147774e-04 7.889851258369162679e-05 5.152670928509905934e-05
6.360000000000000000e+02 4.277869701385498047e+00 -1.926736712455749512e+00 -6.642536027356982231e-05 -8.107596659101545811e-05 -4.425039878697134554e-05 -1.817203446989879012e-04
6.370000000000000000e+02 1.574093461036682129e+00 -1.474563694000244141e+01 3.136922605335712433e-03 4.527006763964891434e-03 2.299178857356309891e-03 7.222235202789306641e-03
6.380000000000000000e+02 4.430411815643310547e+00 -1.865986061096191406e+01 -8.056188374757766724e-02 -3.045511618256568909e-02 -3.330509737133979797e-02 -3.740957006812095642e-02
6.390000000000000000e+02 6.566839218139648438e-01 -2.478532791137695312e+01 -2.794587519019842148e-03 -1.338261067867279053e-01 -4.098621010780334473e-02 -3.010267578065395355e-02
6.400000000000000000e+02 7.682765722274780273e-01 -3.187178421020507812e+01 2.823909046128392220e-03 -4.557687342166900635e-01 -1.358834505081176758e-01 -2.910025604069232941e-02
6.410000000000000000e+02 2.818815469741821289e+00 -3.787855529785156250e+01 1.713213883340358734e-02 -5.499452352523803711e-01 -1.598439216613769531e-01 -3.340876847505569458e-02
6.420000000000000000e+02 8.053075075149536133e-01 -3.727387237548828125e+01 1.168274669907987118e-03 -5.952839255332946777e-01 -1.782346963882446289e-01 -5.584850441664457321e-03
6.430000000000000000e+02 8.714144706726074219e+00 -3.805298995971679688e+01 1.119095832109451294e-01 -4.444601237773895264e-01 -9.976515918970108032e-02 -8.938765525817871094e-02
6.440000000000000000e+02 7.671873092651367188e+00 -3.293623352050781250e+01 7.196713238954544067e-02 -4.077793657779693604e-01 -1.007436662912368774e-01 -1.785033643245697021e-01
6.450000000000000000e+02 1.264889240264892578e+01 -2.222021675109863281e+01 -1.077962815761566162e-01 -3.604737520217895508e-01 -1.404810100793838501e-01 -2.892387807369232178e-01
6.460000000000000000e+02 1.155669784545898438e+01 -2.239084243774414062e+01 -8.448211103677749634e-02 -3.627965152263641357e-01 -1.341835856437683105e-01 -2.874706685543060303e-01
6.470000000000000000e+02 6.342594027519226074e-01 -2.335887527465820312e+01 -2.057792618870735168e-03 -7.389193028211593628e-02 -2.278491668403148651e-02 -2.468476630747318268e-02
6.480000000000000000e+02 1.254571628570556641e+01 -2.001126527786254883e+00 1.455435412935912609e-04 8.435217750957235694e-05 6.896871491335332394e-05 4.930292925564572215e-05
6.490000000000000000e+02 2.711305809020996094e+01 -4.069609832763671875e+01 5.755261182785034180e-01 -1.713836193084716797e-01 1.212427467107772827e-01 -4.299562796950340271e-02
6.500000000000000000e+02 2.977650642395019531e+01 -3.643265533447265625e+01 6.001163125038146973e-01 -7.922684401273727417e-02 1.562668383121490479e-01 -1.653815507888793945e-01
6.510000000000000000e+02 3.072216987609863281e+01 -3.208398056030273438e+01 4.971826374530792236e-01 -6.544373929500579834e-02 1.295216679573059082e-01 -2.678534984588623047e-01
6.520000000000000000e+02 2.911911010742187500e+01 -2.239883995056152344e+01 -7.874229922890663147e-03 -1.019505262374877930e-01 -3.294742852449417114e-02 -4.779707193374633789e-01
6.530000000000000000e+02 3.109175491333007812e+01 -1.400485801696777344e+01 -6.493632197380065918e-01 -4.104669392108917236e-02 -2.071229666471481323e-01 -4.731673598289489746e-01
6.540000000000000000e+02 3.027196311950683594e+01 -8.661600112915039062e+00 -1.073378920555114746e+00 -1.610034517943859100e-02 -3.268437683582305908e-01 -1.799659579992294312e-01
6.550000000000000000e+02 2.877211952209472656e+01 -9.397331237792968750e+00 -8.960749506950378418e-01 -1.542481407523155212e-02 -2.734499275684356689e-01 -2.319552898406982422e-01
6.560000000000000000e+02 3.845754241943359375e+01 -4.021505737304687500e+01 8.338513970375061035e-01 4.439851045608520508e-01 3.833509385585784912e-01 -3.418591991066932678e-02
6.570000000000000000e+02 3.812862014770507812e+01 -3.157043266296386719e+01 6.694287061691284180e-01 3.229188024997711182e-01 2.977042496204376221e-01 -1.958828419446945190e-01
6.580000000000000000e+02 3.852787780761718750e+01 -2.215440368652343750e+01 1.433982551097869873e-01 1.233659684658050537e-01 8.002927154302597046e-02 -4.023350775241851807e-01
6.590000000000000000e+02 3.907055664062500000e+01 -1.392524528503417969e+01 -8.450124263763427734e-01 -1.509416289627552032e-02 -2.580319643020629883e-01 -4.688889980316162109e-01
6.600000000000000000e+02 3.856343078613281250e+01 -8.471837043762207031e+00 -1.757167816162109375e+00 -1.037679053843021393e-02 -5.302633643150329590e-01 -2.210650742053985596e-01
6.610000000000000000e+02 3.711371612548828125e+01 -9.234601020812988281e+00 -1.522242784500122070e+00 -1.712969504296779633e-02 -4.618117213249206543e-01 -2.688934803009033203e-01
6.620000000000000000e+02 3.556446838378906250e+01 -8.556528091430664062e+00 -1.510589480400085449e+00 -1.454868260771036148e-02 -4.575414359569549561e-01 -2.097139507532119751e-01
6.630000000000000000e+02 4.292194747924804688e+01 -4.062388992309570312e+01 8.930269479751586914e-01 9.209223389625549316e-01 5.441848039627075195e-01 -7.532676216214895248e-03
6.640000000000000000e+02 4.012439346313476562e+01 -3.602614593505859375e+01 8.160526156425476074e-01 5.789384841918945312e-01 4.184973239898681641e-01 -8.581206947565078735e-02
6.650000000000000000e+02 4.143741607666015625e+01 -2.905136489868164062e+01 6.528099775314331055e-01 5.435798168182373047e-01 3.589169383049011230e-01 -1.506826132535934448e-01
6.660000000000000000e+02 4.318749618530273438e+01 -2.133061218261718750e+01 1.866681426763534546e-01 3.290972113609313965e-01 1.547296047210693359e-01 -2.550532519817352295e-01
6.670000000000000000e+02 4.459228515625000000e+01 -1.407032585144042969e+01 -8.331199288368225098e-01 7.625295966863632202e-02 -2.270600944757461548e-01 -3.740241527557373047e-01
6.680000000000000000e+02 4.604090881347656250e+01 -8.309821128845214844e+00 -2.379199981689453125e+00 1.727129332721233368e-03 -7.132418751716613770e-01 -2.262223660945892334e-01
6.690000000000000000e+02 4.305139541625976562e+01 -8.363480567932128906e+00 -2.132483959197998047e+00 -3.595752874389290810e-03 -6.408239006996154785e-01 -2.300016134977340698e-01
6.700000000000000000e+02 4.310190200805664062e+01 -9.079905509948730469e+00 -1.959663271903991699e+00 -5.814154166728258133e-03 -5.896432399749755859e-01 -2.819685339927673340e-01
6.710000000000000000e+02 4.155649185180664062e+01 -8.395245552062988281e+00 -2.006339550018310547e+00 -6.283300463110208511e-03 -6.037868857383728027e-01 -2.283805161714553833e-01
6.720000000000000000e+02 4.764677429199218750e+01 -4.085454177856445312e+01 8.762257695198059082e-01 1.585823297500610352e+00 7.386147379875183105e-01 2.206749655306339264e-02
6.730000000000000000e+02 4.614173126220703125e+01 -3.032877159118652344e+01 7.413197755813598633e-01 1.105147361755371094e+00 5.539401769638061523e-01 4.269952327013015747e-02
6.740000000000000000e+02 5.083186721801757812e+01 -1.469813060760498047e+01 -4.303631484508514404e-01 4.210935533046722412e-01 -2.780886599794030190e-03 5.604429543018341064e-02
6.750000000000000000e+02 5.202118301391601562e+01 -8.249657630920410156e+00 -2.766744375228881836e+00 1.137746870517730713e-02 -8.266100883483886719e-01 -1.788001060485839844e-01
6.760000000000000000e+02 5.056074905395507812e+01 -8.964444160461425781e+00 -2.378206491470336914e+00 1.875769905745983124e-02 -7.078346610069274902e-01 -2.223973721265792847e-01
6.770000000000000000e+02 4.977698135375976562e+01 -8.265693664550781250e+00 -2.651160001754760742e+00 7.848112843930721283e-03 -7.929935455322265625e-01 -2.041890621185302734e-01
6.780000000000000000e+02 6.218824768066406250e+01 -4.063223648071289062e+01 3.912705779075622559e-01 4.796283721923828125e+00 1.556266307830810547e+00 8.158941566944122314e-02
6.790000000000000000e+02 5.729582595825195312e+01 -4.087574386596679688e+01 6.011182665824890137e-01 3.548807144165039062e+00 1.244977593421936035e+00 5.753197148442268372e-02
6.800000000000000000e+02 5.902820587158203125e+01 -3.073272705078125000e+01 3.755712509155273438e-01 3.886280536651611328e+00 1.278555512428283691e+00 5.508053898811340332e-01
6.810000000000000000e+02 5.651803588867187500e+01 -2.145787429809570312e+01 3.012755215167999268e-01 2.712823390960693359e+00 9.042297005653381348e-01 1.002681255340576172e+00
6.820000000000000000e+02 5.629409408569335938e+01 -1.369629955291748047e+01 -1.102906763553619385e-01 1.133544087409973145e+00 3.069760203361511230e-01 9.121740460395812988e-01
6.830000000000000000e+02 5.800987625122070312e+01 -8.199370384216308594e+00 -2.479738473892211914e+00 8.261327445507049561e-02 -7.191375494003295898e-01 9.062109887599945068e-02
6.840000000000000000e+02 5.354968643188476562e+01 -8.923661231994628906e+00 -2.392650365829467773e+00 3.874818608164787292e-02 -7.061706781387329102e-01 -1.399324536323547363e-01
6.850000000000000000e+02 5.501296997070312500e+01 -8.226418495178222656e+00 -2.795859098434448242e+00 2.611855790019035339e-02 -8.309221863746643066e-01 -1.065281108021736145e-01
6.860000000000000000e+02 6.093252182006835938e+01 -3.697881698608398438e+01 4.038864076137542725e-01 4.490691184997558594e+00 1.468373179435729980e+00 2.382103800773620605e-01
6.870000000000000000e+02 6.100372314453125000e+01 -3.039866447448730469e+01 2.515424489974975586e-01 4.471555233001708984e+00 1.416929364204406738e+00 5.461963415145874023e-01
6.880000000000000000e+02 6.524436950683593750e+01 -2.643021774291992188e+01 -1.942609697580337524e-01 5.911712646484375000e+00 1.715235471725463867e+00 6.253392100334167480e-01
6.890000000000000000e+02 6.678669738769531250e+01 -1.965367317199707031e+01 -8.483909964561462402e-01 7.348201751708984375e+00 1.949943184852600098e+00 8.056704401969909668e-01
6.900000000000000000e+02 6.024185562133789062e+01 -8.148760795593261719e+00 -1.619071364402770996e+00 2.440407276153564453e-01 -4.125091731548309326e-01 5.608231425285339355e-01
6.910000000000000000e+02 6.715390777587890625e+01 -4.069610977172851562e+01 2.135676890611648560e-01 5.941385269165039062e+00 1.846485853195190430e+00 6.635304540395736694e-02
6.920000000000000000e+02 6.739315795898437500e+01 -3.732736587524414062e+01 1.801164895296096802e-01 6.042915344238281250e+00 1.866909503936767578e+00 1.712393164634704590e-01
6.930000000000000000e+02 7.095123291015625000e+01 -3.128320693969726562e+01 -3.142103925347328186e-02 7.029222965240478516e+00 2.099340438842773438e+00 1.829173415899276733e-01
6.940000000000000000e+02 7.232781219482421875e+01 -2.319146728515625000e+01 -4.270018935203552246e-01 7.811266899108886719e+00 2.215279579162597656e+00 -7.832762598991394043e-02
6.950000000000000000e+02 7.272614288330078125e+01 -1.829764747619628906e+01 -6.432807445526123047e-01 8.384068489074707031e+00 2.322236299514770508e+00 -5.908756256103515625e-01
6.960000000000000000e+02 6.713066101074218750e+01 -5.834943294525146484e+00 7.930540084838867188e+00 1.538015842437744141e+01 6.993209362030029297e+00 1.637768745422363281e+00
6.970000000000000000e+02 7.396465301513671875e+01 2.583101511001586914e+00 -4.328372776508331299e-01 8.363309860229492188e+00 2.379141807556152344e+00 1.046456456184387207e+00
6.980000000000000000e+02 7.209387969970703125e+01 1.102195358276367188e+01 -4.392052292823791504e-01 7.649800300598144531e+00 2.163178443908691406e+00 -6.404457986354827881e-02
6.990000000000000000e+02 7.259449768066406250e+01 1.868956375122070312e+01 -8.526190370321273804e-02 7.246516704559326172e+00 2.148376464843750000e+00 -2.790462970733642578e-01
7.000000000000000000e+02 7.396789550781250000e+01 2.579998016357421875e+01 2.617008425295352936e-02 7.262070178985595703e+00 2.186472177505493164e+00 -2.339779138565063477e-01
7.010000000000000000e+02 6.866852569580078125e+01 3.132943916320800781e+01 1.373937427997589111e-01 6.097522258758544922e+00 1.870474815368652344e+00 -2.781367897987365723e-01
7.020000000000000000e+02 7.161113739013671875e+01 3.622624969482421875e+01 8.002764731645584106e-02 6.569648742675781250e+00 1.994902968406677246e+00 -1.103252917528152466e-01
7.030000000000000000e+02 7.134609985351562500e+01 3.839243698120117188e+01 1.039361208677291870e-01 6.537024974822998047e+00 1.992288351058959961e+00 -5.531661212444305420e-02
7.040000000000000000e+02 6.210508728027343750e+01 4.045627212524414062e+01 3.307925760746002197e-01 4.826028823852539062e+00 1.547046422958374023e+00 -6.168581545352935791e-02
7.050000000000000000e+02 6.301732635498046875e+01 2.304900550842285156e+01 1.682658642530441284e-01 4.983707427978515625e+00 1.545591950416564941e+00 -5.262579321861267090e-01
7.060000000000000000e+02 6.693136596679687500e+01 1.847171401977539062e+01 -8.157300949096679688e-02 6.049382686614990234e+00 1.790342926979064941e+00 -5.558304190635681152e-01
7.070000000000000000e+02 6.726856994628906250e+01 1.054538345336914062e+01 -5.837315320968627930e-01 6.818912982940673828e+00 1.870554327964782715e+00 -6.729229688644409180e-01
7.080000000000000000e+02 6.029713439941406250e+01 -1.143124252557754517e-01 8.307261019945144653e-02 2.849268436431884766e+00 8.797022700309753418e-01 -2.293545961380004883e+00
7.090000000000000000e+02 6.026988601684570312e+01 -4.589786529541015625e+00 -1.616459250450134277e+00 2.723391354084014893e-01 -4.032360613346099854e-01 -6.360868215560913086e-01
7.100000000000000000e+02 6.659896087646484375e+01 -5.615291118621826172e+00 7.595602035522460938e+00 1.798842430114746094e+01 7.675208091735839844e+00 2.576049089431762695e+00
7.110000000000000000e+02 7.795829772949218750e+01 -4.164347839355468750e+01 8.850024640560150146e-02 8.476346969604492188e+00 2.569454193115234375e+00 2.485994994640350342e-02
7.120000000000000000e+02 7.793738555908203125e+01 -3.696268844604492188e+01 3.279976779595017433e-03 8.482627868652343750e+00 2.545772314071655273e+00 6.439622491598129272e-02
7.130000000000000000e+02 7.794888305664062500e+01 -3.050193977355957031e+01 -1.825059391558170319e-02 8.574805259704589844e+00 2.566966295242309570e+00 8.278776891529560089e-03
7.140000000000000000e+02 7.826326751708984375e+01 -2.353549194335937500e+01 -3.829674050211906433e-02 8.524028778076171875e+00 2.545719623565673828e+00 -1.375538706779479980e-01
7.150000000000000000e+02 7.829866027832031250e+01 -1.665129280090332031e+01 -5.591057613492012024e-02 7.543266296386718750e+00 2.246206760406494141e+00 -5.101240277290344238e-01
7.160000000000000000e+02 7.844329833984375000e+01 -9.739373207092285156e+00 8.679655939340591431e-02 5.580281734466552734e+00 1.700123429298400879e+00 -4.517643451690673828e-01
7.170000000000000000e+02 7.839211273193359375e+01 -2.813760280609130859e+00 8.867423981428146362e-02 5.663529396057128906e+00 1.725661039352416992e+00 4.808373749256134033e-01
7.180000000000000000e+02 7.826463317871093750e+01 4.117228984832763672e+00 -5.943207815289497375e-02 7.570091247558593750e+00 2.253197669982910156e+00 4.940517544746398926e-01
7.190000000000000000e+02 7.797728729248046875e+01 1.111816406250000000e+01 -5.122329294681549072e-02 8.385537147521972656e+00 2.500293970108032227e+00 1.116484478116035461e-01
7.200000000000000000e+02 7.797219085693359375e+01 1.968382835388183594e+01 -8.849423378705978394e-03 8.284270286560058594e+00 2.482626438140869141e+00 -7.810510694980621338e-02
7.210000000000000000e+02 7.660491943359375000e+01 2.257897567749023438e+01 -5.531438160687685013e-03 7.898480415344238281e+00 2.367884635925292969e+00 -1.497999131679534912e-01
7.220000000000000000e+02 7.928302764892578125e+01 3.193858528137207031e+01 5.295199342072010040e-03 8.022889137268066406e+00 2.408455371856689453e+00 -1.512636430561542511e-02
7.230000000000000000e+02 7.898930358886718750e+01 3.740208053588867188e+01 -2.723514102399349213e-03 7.813994884490966797e+00 2.343381404876708984e+00 -4.616325721144676208e-02
7.240000000000000000e+02 5.711544036865234375e+01 4.066646194458007812e+01 4.692336916923522949e-01 3.829174518585205078e+00 1.289522528648376465e+00 -3.927847370505332947e-02
7.250000000000000000e+02 6.068735122680664062e+01 3.639553451538085938e+01 3.562532067298889160e-01 4.543155193328857422e+00 1.469822406768798828e+00 -1.667317897081375122e-01
7.260000000000000000e+02 5.752880859375000000e+01 2.935593795776367188e+01 4.033152163028717041e-01 3.852125406265258789e+00 1.276632189750671387e+00 -3.403622806072235107e-01
7.270000000000000000e+02 5.904969024658203125e+01 2.554711341857910156e+01 3.300879001617431641e-01 4.134180068969726562e+00 1.339280366897583008e+00 -4.534783065319061279e-01
7.280000000000000000e+02 5.969235610961914062e+01 1.499135589599609375e+01 9.056551754474639893e-02 4.160670280456542969e+00 1.275370717048645020e+00 -8.805441856384277344e-01
7.290000000000000000e+02 5.636949920654296875e+01 6.994323253631591797e+00 1.428493410348892212e-01 2.506190776824951172e+00 7.947120666503906250e-01 -1.135858654975891113e+00
7.300000000000000000e+02 5.488181686401367188e+01 -6.202671527862548828e-01 -8.098923563957214355e-01 5.077550411224365234e-01 -9.064119309186935425e-02 -3.981968760490417480e-01
7.310000000000000000e+02 5.430036926269531250e+01 -4.568185806274414062e+00 -2.955727577209472656e+00 1.473953481763601303e-02 -8.822963833808898926e-01 1.121244356036186218e-01
7.320000000000000000e+02 5.654507446289062500e+01 -4.587969303131103516e+00 -2.847123861312866211e+00 4.427445307374000549e-02 -8.408548235893249512e-01 1.492435019463300705e-02
7.330000000000000000e+02 5.355057525634765625e+01 -4.564519882202148438e+00 -2.953406095504760742e+00 1.420362666249275208e-02 -8.817607164382934570e-01 1.311915963888168335e-01
7.340000000000000000e+02 5.219977188110351562e+01 4.074358749389648438e+01 5.744025111198425293e-01 2.956606388092041016e+00 1.059302687644958496e+00 -3.505582734942436218e-02
7.350000000000000000e+02 5.093017959594726562e+01 3.366290664672851562e+01 5.823299884796142578e-01 2.712015628814697266e+00 9.883036613464355469e-01 -1.569772064685821533e-01
7.360000000000000000e+02 5.025824737548828125e+01 2.370588302612304688e+01 5.171063542366027832e-01 2.343732357025146484e+00 8.582516312599182129e-01 -3.017368912696838379e-01
7.370000000000000000e+02 5.000202560424804688e+01 1.497802257537841797e+01 3.904567062854766846e-01 1.786388039588928223e+00 6.530534625053405762e-01 -3.273513913154602051e-01
7.380000000000000000e+02 4.700149154663085938e+01 6.734699249267578125e+00 -6.424293667078018188e-02 6.334604620933532715e-01 1.707652509212493896e-01 1.220681071281433105e-01
7.390000000000000000e+02 4.885192871093750000e+01 -3.510889112949371338e-01 -1.226440548896789551e+00 1.349423527717590332e-01 -3.274494707584381104e-01 2.616301178932189941e-01
7.400000000000000000e+02 4.829155731201171875e+01 -4.585168361663818359e+00 -2.668940305709838867e+00 -1.336295856162905693e-03 -8.010829687118530273e-01 1.892270147800445557e-01
7.410000000000000000e+02 5.054672622680664062e+01 -4.567890167236328125e+00 -2.834646463394165039e+00 2.641605911776423454e-03 -8.496014475822448730e-01 1.752487272024154663e-01
7.420000000000000000e+02 5.129818344116210938e+01 -4.565799713134765625e+00 -2.877684593200683594e+00 1.734824967570602894e-03 -8.627849221229553223e-01 1.673076450824737549e-01
7.430000000000000000e+02 4.235712814331054688e+01 4.081730270385742188e+01 6.967007517814636230e-01 1.461959004402160645e+00 6.475979089736938477e-01 -6.757958326488733292e-03
7.440000000000000000e+02 4.635267257690429688e+01 3.358993148803710938e+01 6.382281780242919922e-01 1.953454971313476562e+00 7.775049209594726562e-01 -8.798427134752273560e-02
7.450000000000000000e+02 4.485552215576171875e+01 2.337677955627441406e+01 5.094293355941772461e-01 1.511118888854980469e+00 6.061644554138183594e-01 -7.152452319860458374e-02
7.460000000000000000e+02 4.282108688354492188e+01 7.153107166290283203e+00 -1.833378970623016357e-01 3.860168457031250000e-01 6.080368161201477051e-02 4.161055982112884521e-01
7.470000000000000000e+02 4.202111434936523438e+01 -3.712517321109771729e-01 -1.188302159309387207e+00 5.053330212831497192e-02 -3.413306474685668945e-01 5.136746764183044434e-01
7.480000000000000000e+02 4.002026748657226562e+01 -4.730774402618408203e+00 -1.803751349449157715e+00 6.013278383761644363e-03 -5.393214225769042969e-01 2.053154110908508301e-01
7.490000000000000000e+02 4.377793884277343750e+01 -4.645966053009033203e+00 -2.229145526885986328e+00 1.361365779303014278e-03 -6.683352589607238770e-01 2.008114308118820190e-01
7.500000000000000000e+02 4.528299713134765625e+01 -4.621847152709960938e+00 -2.387233495712280273e+00 8.468405576422810555e-05 -7.161446213722229004e-01 1.983011662960052490e-01
7.510000000000000000e+02 3.742211914062500000e+01 4.087637710571289062e+01 7.072564959526062012e-01 8.439653515815734863e-01 4.653665423393249512e-01 9.630157001083716750e-05
7.520000000000000000e+02 4.202967453002929688e+01 3.739768981933593750e+01 6.888831257820129395e-01 1.409090399742126465e+00 6.293920874595642090e-01 -2.239499799907207489e-02
7.530000000000000000e+02 4.045938491821289062e+01 3.040631103515625000e+01 6.148951649665832520e-01 1.137144327163696289e+00 5.256118178367614746e-01 -9.335330687463283539e-03
7.540000000000000000e+02 3.950098419189453125e+01 2.148873901367187500e+01 3.991429507732391357e-01 7.767026424407958984e-01 3.527536690235137939e-01 1.367848068475723267e-01
7.550000000000000000e+02 3.162441253662109375e+01 1.632359313964843750e+01 -5.618090927600860596e-02 6.451007723808288574e-02 2.498750342056155205e-03 4.577622115612030029e-01
7.560000000000000000e+02 3.625661849975585938e+01 6.912237167358398438e+00 -3.566122949123382568e-01 1.099215671420097351e-01 -7.400722056627273560e-02 6.767557859420776367e-01
7.570000000000000000e+02 3.620701217651367188e+01 -7.131259441375732422e-01 -9.653080105781555176e-01 2.030117437243461609e-02 -2.835020422935485840e-01 5.639777183532714844e-01
7.580000000000000000e+02 3.403081893920898438e+01 -4.892055511474609375e+00 -1.100187182426452637e+00 9.790849871933460236e-03 -3.271189033985137939e-01 2.092204093933105469e-01
7.590000000000000000e+02 3.477678680419921875e+01 -4.873290061950683594e+00 -1.186268925666809082e+00 9.964136406779289246e-03 -3.528914153575897217e-01 2.090012580156326294e-01
7.600000000000000000e+02 3.702073669433593750e+01 -4.811109542846679688e+00 -1.449289321899414062e+00 9.349534288048744202e-03 -4.319819509983062744e-01 2.084792554378509521e-01
7.610000000000000000e+02 3.248871994018554688e+01 4.090689468383789062e+01 6.905674338340759277e-01 3.128979206085205078e-01 3.010396063327789307e-01 1.075034402310848236e-02
7.620000000000000000e+02 2.772421455383300781e+01 3.761567687988281250e+01 6.197551488876342773e-01 -1.017876267433166504e-01 1.553902626037597656e-01 5.729652196168899536e-02
7.630000000000000000e+02 2.876325988769531250e+01 3.080470848083496094e+01 5.052523016929626465e-01 -7.005626708269119263e-02 1.305588185787200928e-01 1.285726428031921387e-01
7.640000000000000000e+02 3.310467147827148438e+01 2.040160942077636719e+01 1.823530942201614380e-01 2.091785073280334473e-01 1.174594834446907043e-01 3.001487851142883301e-01
7.650000000000000000e+02 2.790164566040039062e+01 8.941247940063476562e+00 -4.093816280364990234e-01 -2.083979398012161255e-01 -1.853338778018951416e-01 7.315903306007385254e-01
7.660000000000000000e+02 2.473742103576660156e+01 2.877347946166992188e+00 -3.215070664882659912e-01 -3.206705451011657715e-01 -1.926532834768295288e-01 6.037573814392089844e-01
7.670000000000000000e+02 2.738682556152343750e+01 -4.921893119812011719e+00 -4.207803606986999512e-01 -1.371653564274311066e-02 -1.303490698337554932e-01 1.785115152597427368e-01
7.680000000000000000e+02 3.031800651550292969e+01 -4.954784393310546875e+00 -6.962421536445617676e-01 1.454049488529562950e-03 -2.084364295005798340e-01 2.006617039442062378e-01
7.690000000000000000e+02 2.901610565185546875e+01 -4.265209674835205078e+00 -5.729218721389770508e-01 -1.083531603217124939e-02 -1.751271486282348633e-01 2.561402022838592529e-01
7.700000000000000000e+02 3.328507232666015625e+01 -4.910284042358398438e+00 -1.015846610069274902e+00 8.814863860607147217e-03 -3.021095395088195801e-01 2.082669138908386230e-01
7.710000000000000000e+02 1.777884292602539062e+01 4.082927322387695312e+01 4.578498601913452148e-01 -6.075482964515686035e-01 -4.490952566266059875e-02 4.101357609033584595e-02
7.720000000000000000e+02 2.265885734558105469e+01 4.086533737182617188e+01 5.653629899024963379e-01 -4.104260802268981934e-01 4.648106917738914490e-02 2.903004921972751617e-02
7.730000000000000000e+02 2.351722717285156250e+01 3.083242416381835938e+01 4.433736205101013184e-01 -4.420063495635986328e-01 4.101844388060271740e-04 1.783388853073120117e-01
7.740000000000000000e+02 2.313228797912597656e+01 2.399564552307128906e+01 1.341337710618972778e-01 -5.604125261306762695e-01 -1.278836280107498169e-01 2.645952999591827393e-01
7.750000000000000000e+02 2.045521545410156250e+01 1.638212776184082031e+01 -5.103993415832519531e-01 -8.736529350280761719e-01 -4.152156710624694824e-01 5.039541125297546387e-01
7.760000000000000000e+02 2.175090217590332031e+01 1.060512828826904297e+01 -5.218962430953979492e-01 -8.235954046249389648e-01 -4.036474823951721191e-01 6.970918774604797363e-01
7.770000000000000000e+02 1.979516983032226562e+01 4.843073368072509766e+00 -1.251653879880905151e-01 -8.169823884963989258e-01 -2.826443314552307129e-01 3.523668944835662842e-01
7.780000000000000000e+02 2.164504814147949219e+01 -4.324507713317871094e+00 -6.913395226001739502e-02 -4.462499916553497314e-02 -3.412768617272377014e-02 6.822984665632247925e-02
7.790000000000000000e+02 2.470365524291992188e+01 -4.038349151611328125e+00 -2.388815283775329590e-01 -5.231978371739387512e-02 -8.736038953065872192e-02 1.865852922201156616e-01
7.800000000000000000e+02 2.377956390380859375e+01 -4.670839309692382812e+00 -1.643371134996414185e-01 -3.802139312028884888e-02 -6.070755049586296082e-02 1.195737197995185852e-01
7.810000000000000000e+02 1.778885078430175781e+01 2.964126396179199219e+01 3.350014686584472656e-01 -7.336634397506713867e-01 -1.195985823869705200e-01 2.939674556255340576e-01
7.820000000000000000e+02 1.655930709838867188e+01 2.237404251098632812e+01 -6.879335641860961914e-02 -9.778770804405212402e-01 -3.140011429786682129e-01 4.361031353473663330e-01
7.830000000000000000e+02 1.298577308654785156e+01 1.740022850036621094e+01 -1.338084697723388672e+00 -1.062896609306335449e+00 -7.202944159507751465e-01 1.077825546264648438e+00
7.840000000000000000e+02 1.499319648742675781e+01 1.538486862182617188e+01 -1.149002075195312500e+00 -1.733975529670715332e+00 -8.648932576179504395e-01 1.284596562385559082e+00
7.850000000000000000e+02 1.789900207519531250e+01 1.561268520355224609e+01 -7.077336311340332031e-01 -1.274352312088012695e+00 -5.946257710456848145e-01 7.108820080757141113e-01
7.860000000000000000e+02 1.582152366638183594e+01 1.424199771881103516e+01 -8.965281248092651367e-01 -2.000266551971435547e+00 -8.690384030342102051e-01 1.216082811355590820e+00
7.870000000000000000e+02 1.818879127502441406e+01 9.043535232543945312e+00 -2.616111040115356445e-01 -1.732013583183288574e+00 -5.980873703956604004e-01 5.783869624137878418e-01
7.880000000000000000e+02 1.860029029846191406e+01 6.235986709594726562e+00 -9.074247628450393677e-02 -1.179294705390930176e+00 -3.810111582279205322e-01 2.931785881519317627e-01
7.890000000000000000e+02 1.883345031738281250e+01 2.137297630310058594e+00 -1.252705883234739304e-02 -4.514446854591369629e-01 -1.391915231943130493e-01 7.339078933000564575e-02
7.900000000000000000e+02 1.881912994384765625e+01 -5.087201595306396484e-01 -5.744855850934982300e-03 -1.373406499624252319e-01 -4.292565211653709412e-02 3.469526022672653198e-02
7.910000000000000000e+02 1.967251586914062500e+01 -3.001098394393920898e+00 -2.431225776672363281e-02 -5.033633485436439514e-02 -2.239457890391349792e-02 3.859983012080192566e-02
7.920000000000000000e+02 1.300569820404052734e+01 4.083700942993164062e+01 3.270282745361328125e-01 -7.060406208038330078e-01 -1.137037053704261780e-01 4.655377194285392761e-02
7.930000000000000000e+02 5.857899665832519531e+00 3.770915603637695312e+01 9.873058646917343140e-02 -7.617683410644531250e-01 -1.989113241434097290e-01 1.272716373205184937e-01
7.940000000000000000e+02 7.610045433044433594e+00 3.270449447631835938e+01 1.302661150693893433e-01 -6.947956681251525879e-01 -1.693588793277740479e-01 2.845810353755950928e-01
7.950000000000000000e+02 7.012618541717529297e+00 2.398327636718750000e+01 -1.199708804488182068e-01 -4.092406928539276123e-01 -1.587634682655334473e-01 4.014492332935333252e-01
7.960000000000000000e+02 1.046898365020751953e+01 1.890657615661621094e+01 -1.036630988121032715e+00 -3.934430778026580811e-01 -4.290221929550170898e-01 5.268084406852722168e-01
7.970000000000000000e+02 1.180603885650634766e+01 1.824053955078125000e+01 -1.292332053184509277e+00 -6.985391974449157715e-01 -5.972613692283630371e-01 8.561073541641235352e-01
7.980000000000000000e+02 2.019846916198730469e+00 4.163561630249023438e+01 1.213322672992944717e-02 -9.373348355293273926e-01 -2.775604724884033203e-01 3.443211782723665237e-03
7.990000000000000000e+02 4.055064678192138672e+00 3.786397171020507812e+01 4.553323611617088318e-02 -8.265612721443176270e-01 -2.343084067106246948e-01 9.463161975145339966e-02
8.000000000000000000e+02 2.309200048446655273e+00 3.565641403198242188e+01 2.744302712380886078e-02 -7.972485423088073730e-01 -2.309416532516479492e-01 8.347964286804199219e-02
8.010000000000000000e+02 1.877535343170166016e+00 2.896059989929199219e+01 3.416507272049784660e-03 -4.645300209522247314e-01 -1.383340507745742798e-01 1.365266144275665283e-01
8.020000000000000000e+02 1.959181785583496094e+00 2.320594215393066406e+01 -2.536804415285587311e-02 -1.188810765743255615e-01 -4.327473789453506470e-02 9.605710953474044800e-02
8.030000000000000000e+02 4.256956577301025391e+00 1.574742889404296875e+01 3.671634010970592499e-03 -2.766101248562335968e-02 -7.196813821792602539e-03 -5.910076200962066650e-03
8.040000000000000000e+02 4.922699928283691406e-01 6.427294254302978516e+00 1.230955676874145865e-04 -3.182865038979798555e-04 -5.855728159076534212e-05 1.210308255394920707e-04
8.050000000000000000e+02 6.064808845520019531e+00 1.858489394187927246e+00 -1.723178138490766287e-04 -5.765178939327597618e-04 -2.246507065137848258e-04 -1.501603110227733850e-04
8.060000000000000000e+02 8.102721214294433594e+00 2.583421468734741211e+00 -1.724101603031158447e-04 -8.017269428819417953e-04 -2.922411367762833834e-04 -5.918822134844958782e-04
8.070000000000000000e+02 9.632320404052734375e+00 1.862476110458374023e+00 1.475083263358101249e-04 4.307418130338191986e-04 1.734750403556972742e-04 4.692826478276401758e-04
8.080000000000000000e+02 1.392513751983642578e+01 1.748234748840332031e+00 4.936429322697222233e-04 -1.523475366411730647e-04 1.023886070470325649e-04 5.907415106776170433e-05
8.090000000000000000e+02 1.444802665710449219e+01 6.253192424774169922e+00 -1.893848995678126812e-03 -3.974112332798540592e-04 -6.873780512250959873e-04 -4.474217421375215054e-04
8.100000000000000000e+02 1.181949329376220703e+01 9.563259124755859375e+00 -1.884693978354334831e-03 -2.650859067216515541e-03 -1.360665890388190746e-03 -2.003828063607215881e-03
8.110000000000000000e+02 1.132704448699951172e+01 1.234158420562744141e+01 4.465096164494752884e-03 2.966818399727344513e-03 2.229574369266629219e-03 3.899434115737676620e-03
8.120000000000000000e+02 1.217059326171875000e+01 1.123606204986572266e+01 -4.172278102487325668e-03 -2.532807644456624985e-03 -2.011525677517056465e-03 -2.490577287971973419e-03
8.130000000000000000e+02 9.417269706726074219e+00 1.446159553527832031e+01 6.424086168408393860e-03 5.893012508749961853e-03 3.695129649713635445e-03 5.164758302271366119e-03
8.140000000000000000e+02 7.869727134704589844e+00 1.688742446899414062e+01 2.079686149954795837e-02 9.733815491199493408e-02 3.544050455093383789e-02 1.619421504437923431e-02
8.150000000000000000e+02 1.792611241340637207e+00 2.175974273681640625e+01 -2.828868292272090912e-02 -5.300243198871612549e-02 -2.438733540475368500e-02 5.949725583195686340e-02
8.160000000000000000e+02 1.153802394866943359e+00 3.858835935592651367e+00 -1.341137067356612533e-05 -1.223289873450994492e-04 -4.072210867889225483e-05 1.451733842259272933e-04
8.170000000000000000e+02 1.385447311401367188e+01 2.567849159240722656e+00 -7.998576038517057896e-04 -6.983759813010692596e-04 -4.494700697250664234e-04 -8.810948347672820091e-04
8.180000000000000000e+02 6.656366729736328125e+01 -7.321901798248291016e+00 6.571588516235351562e+00 1.847334289550781250e+01 7.513479709625244141e+00 -2.703075170516967773e+00
8.190000000000000000e+02 2.177283477783203125e+01 -8.202767372131347656e+00 -3.447729051113128662e-01 1.586505398154258728e-02 -9.867236018180847168e-02 -1.357844173908233643e-01
8.200000000000000000e+02 7.946172332763671875e+01 -1.252583026885986328e+01 3.859779564663767815e-03 5.860055923461914062e+00 1.759174704551696777e+00 -2.288117855787277222e-01
8.210000000000000000e+02 7.947807312011718750e+01 -5.576795101165771484e+00 2.817942388355731964e-02 4.290571689605712891e+00 1.295625329017639160e+00 5.101043730974197388e-02
8.220000000000000000e+02 2.484402656555175781e+01 -2.363556289672851562e+01 1.554773282259702682e-02 -1.639447957277297974e-01 -4.451911896467208862e-02 -4.188315570354461670e-01
8.230000000000000000e+02 3.024658775329589844e+01 -1.395987415313720703e+01 -6.324364542961120605e-01 -4.190004244446754456e-02 -2.023009508848190308e-01 -4.675485491752624512e-01
8.240000000000000000e+02 4.394592285156250000e+01 -1.408221149444580078e+01 -8.433229327201843262e-01 5.798269063234329224e-02 -2.356020659208297729e-01 -3.918748199939727783e-01
8.250000000000000000e+02 4.984804916381835938e+01 -1.381754589080810547e+01 -7.083567380905151367e-01 2.636117339134216309e-01 -1.334234923124313354e-01 -9.063912928104400635e-02
8.260000000000000000e+02 5.559239959716796875e+01 -1.374671554565429688e+01 -1.845757514238357544e-01 9.468693733215332031e-01 2.286880910396575928e-01 7.450962066650390625e-01
8.270000000000000000e+02 7.378842926025390625e+01 -1.945718383789062500e+01 -4.939736723899841309e-01 8.211469650268554688e+00 2.315248727798461914e+00 -5.383382439613342285e-01
8.280000000000000000e+02 7.942153930664062500e+01 -2.225289535522460938e+01 -9.265051223337650299e-03 8.624530792236328125e+00 2.584579706192016602e+00 -7.766182720661163330e-02
8.290000000000000000e+02 5.337419986724853516e+00 -1.564506530761718750e+01 2.319689141586422920e-03 -1.786207035183906555e-02 -4.662713967263698578e-03 -5.363279022276401520e-03
8.300000000000000000e+02 1.766193628311157227e+00 -1.745439147949218750e+01 -3.506633918732404709e-03 4.272698133718222380e-04 -9.238092461600899696e-04 5.956829991191625595e-03
8.310000000000000000e+02 5.585177540779113770e-01 -1.067890644073486328e+01 1.337492256425321102e-03 8.290221448987722397e-04 6.499543087556958199e-04 5.273362039588391781e-04
8.320000000000000000e+02 2.582530975341796875e+01 -3.365964508056640625e+01 4.360076189041137695e-01 -1.988254487514495850e-01 7.115464657545089722e-02 -2.334235310554504395e-01
8.330000000000000000e+02 1.821352386474609375e+01 -2.807214927673339844e+01 1.450881510972976685e-01 -3.149727284908294678e-01 -5.096537247300148010e-02 -3.002512454986572266e-01
8.340000000000000000e+02 4.396030807495117188e+01 -2.295638847351074219e+01 3.491913378238677979e-01 4.686993956565856934e-01 2.453672140836715698e-01 -1.754846870899200439e-01
8.350000000000000000e+02 4.788125991821289062e+01 -2.498153305053710938e+01 5.517599582672119141e-01 1.074504494667053223e+00 4.878793358802795410e-01 1.343438774347305298e-01
8.360000000000000000e+02 6.646699523925781250e+01 -2.533987617492675781e+01 -3.287655413150787354e-01 6.370835781097412109e+00 1.812620997428894043e+00 5.808576941490173340e-01
8.370000000000000000e+02 7.354866027832031250e+01 -2.461547279357910156e+01 -2.659992873668670654e-01 7.881125450134277344e+00 2.284537792205810547e+00 -9.011463075876235962e-02
8.380000000000000000e+02 7.940135192871093750e+01 -2.640677642822265625e+01 -6.642190273851156235e-03 8.887202262878417969e+00 2.664167881011962891e+00 -2.334962412714958191e-02
8.390000000000000000e+02 7.329304814338684082e-01 -3.044408607482910156e+01 -1.197712612338364124e-03 -3.993152081966400146e-01 -1.201538816094398499e-01 -3.085012175142765045e-02
8.400000000000000000e+02 8.343587875366210938e+00 -3.538542938232421875e+01 1.037141531705856323e-01 -4.261651337146759033e-01 -9.673529118299484253e-02 -1.418186873197555542e-01
8.410000000000000000e+02 3.245744323730468750e+01 -3.492214965820312500e+01 6.261523365974426270e-01 1.582377031445503235e-02 1.925928443670272827e-01 -1.862027943134307861e-01
8.420000000000000000e+02 3.698217010498046875e+01 -3.466716003417968750e+01 7.515333890914916992e-01 3.029099702835083008e-01 3.163329958915710449e-01 -1.509108692407608032e-01
8.430000000000000000e+02 4.127938461303710938e+01 -3.236424636840820312e+01 7.553994655609130859e-01 6.182883381843566895e-01 4.121063351631164551e-01 -1.040226668119430542e-01
8.440000000000000000e+02 4.847248077392578125e+01 -3.430238342285156250e+01 8.062450289726257324e-01 1.631994843482971191e+00 7.314719557762145996e-01 1.151798218488693237e-01
8.450000000000000000e+02 7.343796539306640625e+01 -3.110326576232910156e+01 -3.887127339839935303e-02 7.597217559814453125e+00 2.267503976821899414e+00 1.275235861539840698e-01
8.460000000000000000e+02 7.930925750732421875e+01 -3.340250015258789062e+01 9.050479275174438953e-04 8.851670265197753906e+00 2.655772447586059570e+00 6.633854936808347702e-03
8.470000000000000000e+02 7.942794799804687500e+01 2.772242546081542969e+00 -8.679674006998538971e-03 7.039566516876220703e+00 2.109266042709350586e+00 2.169258892536163330e-01
8.480000000000000000e+02 5.991445922851562500e+01 2.323475182056427002e-01 6.771638989448547363e-02 2.705153226852416992e+00 8.318608999252319336e-01 -2.161877870559692383e+00
8.490000000000000000e+02 7.394049072265625000e+01 3.817568063735961914e+00 -5.031806230545043945e-01 8.329442977905273438e+00 2.347878932952880859e+00 8.784394264221191406e-01
8.500000000000000000e+02 7.937396240234375000e+01 8.344426155090332031e+00 -1.206883694976568222e-02 8.399649620056152344e+00 2.516274213790893555e+00 1.011061444878578186e-01
8.510000000000000000e+02 6.629451751708984375e+01 9.685887336730957031e+00 -6.246407032012939453e-01 6.652588367462158203e+00 1.808384299278259277e+00 -8.476019501686096191e-01
8.520000000000000000e+02 7.267295837402343750e+01 9.879406929016113281e+00 -4.604181647300720215e-01 7.832789421081542969e+00 2.211711406707763672e+00 7.489368319511413574e-02
8.530000000000000000e+02 5.561131668090820312e+01 -6.780980825424194336e-01 -7.084385156631469727e-01 5.978408455848693848e-01 -3.317930921912193298e-02 -5.527237057685852051e-01
8.540000000000000000e+02 4.961205673217773438e+01 -3.511388301849365234e-01 -1.198644399642944336e+00 1.592502743005752563e-01 -3.118182420730590820e-01 2.107484489679336548e-01
8.550000000000000000e+02 4.277611923217773438e+01 -3.374763727188110352e-01 -1.205050587654113770e+00 5.551549047231674194e-02 -3.448605537414550781e-01 4.995649158954620361e-01
8.560000000000000000e+02 3.479645919799804688e+01 -4.757922142744064331e-02 -8.355556726455688477e-01 1.250675972551107407e-02 -2.469146698713302612e-01 6.035546660423278809e-01
8.570000000000000000e+02 2.895199012756347656e+01 2.552286982536315918e-01 -5.212913751602172852e-01 -8.672745525836944580e-02 -1.824056506156921387e-01 5.734083652496337891e-01
8.580000000000000000e+02 1.982191467285156250e+01 3.487439632415771484e+00 -7.928213477134704590e-02 -6.452541351318359375e-01 -2.173608839511871338e-01 2.786430716514587402e-01
8.590000000000000000e+02 1.881896400451660156e+01 3.492776393890380859e+00 -2.659945189952850342e-02 -6.897065639495849609e-01 -2.148918062448501587e-01 1.220681071281433105e-01
8.600000000000000000e+02 7.931162261962890625e+01 1.676173210144042969e+01 -5.375591106712818146e-03 8.686012268066406250e+00 2.604191064834594727e+00 -6.805181503295898438e-03
8.610000000000000000e+02 6.440181732177734375e+01 1.852421951293945312e+01 -1.271480508148670197e-02 5.435920715332031250e+00 1.626961827278137207e+00 -6.378483772277832031e-01
8.620000000000000000e+02 7.256761932373046875e+01 1.743478775024414062e+01 -1.201262623071670532e-01 7.303512096405029297e+00 2.155015707015991211e+00 -2.618032693862915039e-01
8.630000000000000000e+02 6.008594512939453125e+01 1.280372428894042969e+01 4.426362924277782440e-03 4.261018753051757812e+00 1.279633522033691406e+00 -1.026117920875549316e+00
8.640000000000000000e+02 4.800747680664062500e+01 6.532616615295410156e+00 -3.511038422584533691e-02 7.126724123954772949e-01 2.032686173915863037e-01 2.365190535783767700e-02
8.650000000000000000e+02 4.315565872192382812e+01 8.635065078735351562e+00 -3.962274640798568726e-02 4.919046759605407715e-01 1.356845796108245850e-01 3.445882499217987061e-01
8.660000000000000000e+02 3.533641052246093750e+01 7.619330883026123047e+00 -3.273015320301055908e-01 9.963169693946838379e-02 -6.830094754695892334e-02 6.829125881195068359e-01
8.670000000000000000e+02 2.588655471801757812e+01 1.095002079010009766e+01 -4.427720010280609131e-01 -3.494994640350341797e-01 -2.376814484596252441e-01 6.878959536552429199e-01
8.680000000000000000e+02 2.053980445861816406e+01 1.176427268981933594e+01 -5.693747401237487793e-01 -1.020302534103393555e+00 -4.769032001495361328e-01 6.964960098266601562e-01
8.690000000000000000e+02 7.936239624023437500e+01 2.371220588684082031e+01 2.196504967287182808e-03 8.377851486206054688e+00 2.514014244079589844e+00 -2.495329640805721283e-02
8.700000000000000000e+02 6.611296081542968750e+01 2.292731094360351562e+01 7.637908309698104858e-02 5.747617244720458984e+00 1.747198939323425293e+00 -4.877950847148895264e-01
8.710000000000000000e+02 7.355333709716796875e+01 2.440538787841796875e+01 1.194205321371555328e-02 7.225127696990966797e+00 2.171120882034301758e+00 -2.494037151336669922e-01
8.720000000000000000e+02 5.742417526245117188e+01 1.429168891906738281e+01 2.015290260314941406e-01 3.469766139984130859e+00 1.101388573646545410e+00 -8.627066612243652344e-01
8.730000000000000000e+02 4.842422485351562500e+01 1.731833076477050781e+01 4.283380210399627686e-01 1.704333662986755371e+00 6.398015022277832031e-01 -2.358221113681793213e-01
8.740000000000000000e+02 4.448517990112304688e+01 1.845859909057617188e+01 4.156976342201232910e-01 1.239522576332092285e+00 4.965660870075225830e-01 -6.651361007243394852e-03
8.750000000000000000e+02 3.320352554321289062e+01 1.646563148498535156e+01 7.896985858678817749e-03 1.623528301715850830e-01 5.107494816184043884e-02 4.334068596363067627e-01
8.760000000000000000e+02 2.805249977111816406e+01 1.751304435729980469e+01 -1.362116038799285889e-01 -1.710447818040847778e-01 -9.217692166566848755e-02 4.333388209342956543e-01
8.770000000000000000e+02 2.071378898620605469e+01 1.792359161376953125e+01 -4.021652638912200928e-01 -8.158667683601379395e-01 -3.654096126556396484e-01 4.438578188419342041e-01
8.780000000000000000e+02 2.716060638427734375e+00 2.099679756164550781e+01 -4.645603150129318237e-02 -7.304753363132476807e-02 -3.585106879472732544e-02 6.261487305164337158e-02
8.790000000000000000e+02 7.934252929687500000e+01 2.920435142517089844e+01 -2.133368543582037091e-04 8.119813919067382812e+00 2.435880184173583984e+00 -2.098500169813632965e-02
8.800000000000000000e+02 5.889632797241210938e+01 3.265151977539062500e+01 3.922676742076873779e-01 4.160478591918945312e+00 1.365823864936828613e+00 -2.672005295753479004e-01
8.810000000000000000e+02 7.255007934570312500e+01 3.044820594787597656e+01 6.388895213603973389e-02 6.863751888275146484e+00 2.078292131423950195e+00 -2.227551937103271484e-01
8.820000000000000000e+02 5.302949142456054688e+01 2.359572792053222656e+01 4.683147966861724854e-01 2.830834865570068359e+00 9.897449016571044922e-01 -3.807868063449859619e-01
8.830000000000000000e+02 5.042644119262695312e+01 2.695217323303222656e+01 5.360625982284545898e-01 2.477499723434448242e+00 9.040687084197998047e-01 -2.466906160116195679e-01
8.840000000000000000e+02 3.528968048095703125e+01 2.269750976562500000e+01 3.399935960769653320e-01 4.175254106521606445e-01 2.272557020187377930e-01 1.991429775953292847e-01
8.850000000000000000e+02 3.295055770874023438e+01 2.536412239074707031e+01 3.857944905757904053e-01 2.589619457721710205e-01 1.934269368648529053e-01 1.786536574363708496e-01
8.860000000000000000e+02 2.120416259765625000e+01 2.505973434448242188e+01 1.718597710132598877e-01 -6.661689877510070801e-01 -1.482927650213241577e-01 2.743098139762878418e-01
8.870000000000000000e+02 1.736752700805664062e+01 2.461789131164550781e+01 1.024840697646141052e-01 -8.826569318771362305e-01 -2.340518534183502197e-01 3.764095008373260498e-01
8.880000000000000000e+02 6.758425712585449219e+00 2.216624832153320312e+01 -2.111247926950454712e-01 -2.708180844783782959e-01 -1.445828676223754883e-01 3.455616533756256104e-01
8.890000000000000000e+02 5.155251693725585938e+01 3.719733810424804688e+01 5.807914733886718750e-01 2.832747220993041992e+00 1.024061560630798340e+00 -1.018114909529685974e-01
8.900000000000000000e+02 4.158023071289062500e+01 3.382350158691406250e+01 6.596082448959350586e-01 1.313055634498596191e+00 5.917991399765014648e-01 -2.652334235608577728e-02
8.910000000000000000e+02 1.621094512939453125e+01 3.232182312011718750e+01 3.554533720016479492e-01 -7.231733202934265137e-01 -1.103159785270690918e-01 2.664596140384674072e-01
8.920000000000000000e+02 6.647750854492187500e+00 3.467430877685546875e+01 1.032797172665596008e-01 -7.169306874275207520e-01 -1.840952932834625244e-01 2.208905965089797974e-01
8.930000000000000000e+02 1.981059074401855469e+00 3.165317153930664062e+01 8.543154224753379822e-03 -6.238754987716674805e-01 -1.845997124910354614e-01 1.232776418328285217e-01
8.940000000000000000e+02 1.584875464439392090e+00 9.075645446777343750e+00 -1.571313769090920687e-04 5.048467428423464298e-04 1.043146112351678312e-04 -8.218363509513437748e-04
8.950000000000000000e+02 1.953876304626464844e+01 -7.844283580780029297e+00 -1.661370396614074707e-01 -1.165292505174875259e-02 -5.333698913455009460e-02 -9.413777291774749756e-02
8.960000000000000000e+02 1.417445087432861328e+01 -1.385951614379882812e+01 -3.661967813968658447e-01 -4.692967832088470459e-01 -2.506480813026428223e-01 -3.984658122062683105e-01
8.970000000000000000e+02 7.519479274749755859e+00 -1.384453296661376953e+01 -1.513049355708062649e-03 4.027932416647672653e-03 7.544649415649473667e-04 1.916807377710938454e-03
8.980000000000000000e+02 1.131440162658691406e+01 -8.123999595642089844e+00 -1.781735772965475917e-04 -3.370557169546373188e-05 -6.356374069582670927e-05 -6.918102008057758212e-05
8.990000000000000000e+02 1.016493415832519531e+01 -3.123721837997436523e+00 1.953296305146068335e-05 -2.207228972110897303e-04 -6.035698243067599833e-05 -2.062726707663387060e-04
9.000000000000000000e+02 1.320926952362060547e+01 -1.962713479995727539e+00 -8.041175169637426734e-05 -1.326138590229675174e-04 -6.390768248820677400e-05 -9.038463758770376444e-05
9.010000000000000000e+02 1.491106414794921875e+01 -2.294232845306396484e+00 8.821061055641621351e-05 2.346291148569434881e-05 3.350205588503740728e-05 3.662797098513692617e-06
9.020000000000000000e+02 1.430442142486572266e+01 -2.142291069030761719e+00 -3.068452497245743871e-05 -3.467938222456723452e-05 -1.960917325050104409e-05 -2.517955726943910122e-05
9.030000000000000000e+02 1.375083923339843750e+01 -1.997802138328552246e+00 8.618761967227328569e-06 6.434258830267935991e-05 2.188840517192147672e-05 2.913980824814643711e-05
9.040000000000000000e+02 1.179753684997558594e+01 -1.971303462982177734e+00 -1.131956305471248925e-04 -1.728466450003907084e-04 -8.581268048146739602e-05 2.289865551574621350e-05
9.050000000000000000e+02 1.031660079956054688e+01 -1.853360056877136230e+00 -4.387748413137160242e-05 -2.618855214677751064e-04 -9.172890713671222329e-05 -6.428245978895574808e-05
9.060000000000000000e+02 9.576885223388671875e+00 -1.827291011810302734e+00 1.053194046107819304e-05 2.495081280358135700e-04 7.801201718393713236e-05 1.722965826047584414e-04
9.070000000000000000e+02 8.830071449279785156e+00 -1.833807349205017090e+00 -9.119433525484055281e-05 -2.167934144381433725e-04 -9.239632345270365477e-05 -1.512741728220134974e-04
9.080000000000000000e+02 7.324065208435058594e+00 -1.857973814010620117e+00 -1.056261171470396221e-04 -1.482427469454705715e-04 -7.616065704496577382e-05 -1.637933019082993269e-04
9.090000000000000000e+02 5.799412250518798828e+00 -1.877497196197509766e+00 -4.847868694923818111e-05 -1.382244081469252706e-04 -5.601092925644479692e-05 -1.979617227334529161e-04
9.100000000000000000e+02 3.515578985214233398e+00 -1.972142100334167480e+00 5.758347106166183949e-05 6.218137423275038600e-05 3.592945358832366765e-05 1.346005592495203018e-04
9.110000000000000000e+02 5.037987232208251953e+00 -1.896044850349426270e+00 -6.303738337010145187e-05 1.603148557478561997e-04 2.918324025813490152e-05 1.614339271327480674e-04
9.120000000000000000e+02 4.426678180694580078e+00 -2.761981248855590820e+00 1.835831972130108625e-05 1.847393577918410301e-04 6.092930198065005243e-05 2.107348846038803458e-04
9.130000000000000000e+02 2.749856948852539062e+00 -2.027766227722167969e+00 -1.647266908548772335e-04 -4.065403481945395470e-05 -6.161422061268240213e-05 -1.668621116550639272e-04
9.140000000000000000e+02 1.976438045501708984e+00 -2.074317932128906250e+00 1.160397514468058944e-04 5.245396823738701642e-05 5.054811481386423111e-05 4.088299465365707874e-05
9.150000000000000000e+02 5.022966861724853516e-01 -3.605630636215209961e+00 -3.252761962357908487e-04 -8.231445099227130413e-05 -1.222771970788016915e-04 -1.090377918444573879e-04
9.160000000000000000e+02 2.033946275711059570e+00 -4.162725830078125000e+01 -3.749894094653427601e-04 -6.083569526672363281e-01 -1.826195865869522095e-01 1.000044576358050108e-04
9.170000000000000000e+02 6.139807224273681641e+00 -3.805328369140625000e+01 6.636508554220199585e-02 -4.676033556461334229e-01 -1.203714758157730103e-01 -7.597896456718444824e-02
9.180000000000000000e+02 1.017938852310180664e+00 -3.864114379882812500e+01 -1.273316796869039536e-03 -6.049664616584777832e-01 -1.818719357252120972e-01 -6.534169428050518036e-03
9.190000000000000000e+02 6.572797894477844238e-01 -3.474964141845703125e+01 6.859105080366134644e-03 -5.439224839210510254e-01 -1.611190289258956909e-01 -1.909183710813522339e-02
9.200000000000000000e+02 8.051829934120178223e-01 -3.334653854370117188e+01 1.265804166905581951e-03 -5.049055814743041992e-01 -1.510919332504272461e-01 -2.548769675195217133e-02
9.210000000000000000e+02 6.998513340950012207e-01 -2.902878570556640625e+01 3.112477483227849007e-03 -3.367359340190887451e-01 -1.000870391726493835e-01 -3.243054822087287903e-02
9.220000000000000000e+02 6.769616007804870605e-01 -2.761922454833984375e+01 -2.507499651983380318e-03 -2.687501311302185059e-01 -8.137728273868560791e-02 -3.341699391603469849e-02
9.230000000000000000e+02 6.656863093376159668e-01 -2.620581245422363281e+01 1.080547575838863850e-03 -1.998388469219207764e-01 -5.962748825550079346e-02 -3.164625167846679688e-02
9.240000000000000000e+02 6.029964089393615723e-01 -2.193231391906738281e+01 -2.567274263128638268e-03 -2.277937904000282288e-02 -7.603995967656373978e-03 -1.952295564115047455e-02
9.250000000000000000e+02 1.719835877418518066e+00 -2.036930084228515625e+01 -1.468774396926164627e-02 -2.697036042809486389e-02 -1.249743159860372543e-02 -3.343825042247772217e-02
9.260000000000000000e+02 5.438202619552612305e-01 -1.626183700561523438e+01 2.376451622694730759e-03 2.296654321253299713e-02 7.602898404002189636e-03 4.610705655068159103e-03
9.270000000000000000e+02 5.244703292846679688e-01 -1.487008094787597656e+01 -1.249989029020071030e-03 1.302279345691204071e-02 3.531841328367590904e-03 2.673032227903604507e-03
9.280000000000000000e+02 5.293849706649780273e-01 -1.347915458679199219e+01 1.876760390587151051e-03 6.499935407191514969e-03 2.513008657842874527e-03 2.046422334387898445e-03
9.290000000000000000e+02 4.368286132812500000e+00 -1.488557052612304688e+01 6.236915476620197296e-03 -1.325193326920270920e-02 -2.104505198076367378e-03 -1.556839095428586006e-03
9.300000000000000000e+02 5.579115748405456543e-01 -9.278614997863769531e+00 -9.784548310562968254e-04 7.654161890968680382e-05 -2.705739461816847324e-04 9.659342322265729308e-05
9.310000000000000000e+02 5.485466122627258301e-01 -7.884656429290771484e+00 9.234973113052546978e-04 -1.939622306963428855e-04 2.188605139963328838e-04 8.691231050761416554e-05
9.320000000000000000e+02 5.407072901725769043e-01 -6.492320537567138672e+00 -6.931376410648226738e-04 -1.668465120019391179e-04 -2.579952415544539690e-04 -7.221240957733243704e-05
9.330000000000000000e+02 7.181895446777343750e+01 -4.097557830810546875e+01 8.804027736186981201e-02 7.135911464691162109e+00 2.167185544967651367e+00 1.896543242037296295e-02
9.340000000000000000e+02 5.246224212646484375e+01 -4.093557357788085938e+01 7.680488228797912598e-01 2.492359161376953125e+00 9.781224131584167480e-01 4.626072570681571960e-02
9.350000000000000000e+02 3.150269126892089844e+01 -4.032778930664062500e+01 7.039592266082763672e-01 2.318840473890304565e-02 2.181442826986312866e-01 -5.259075760841369629e-02
9.360000000000000000e+02 1.269184494018554688e+01 -4.068009948730468750e+01 2.046190202236175537e-01 -4.094645977020263672e-01 -6.145367398858070374e-02 -4.359640553593635559e-02
9.370000000000000000e+02 7.837902069091796875e+01 4.019596099853515625e+01 -2.163480781018733978e-02 7.679216861724853516e+00 2.297274589538574219e+00 -7.930649071931838989e-02
9.380000000000000000e+02 7.797936248779296875e+01 4.173028182983398438e+01 1.050330847501754761e-01 7.632478713989257812e+00 2.321253538131713867e+00 -2.940545789897441864e-02
9.390000000000000000e+02 7.859042358398437500e+01 3.875334548950195312e+01 -1.797580346465110779e-02 7.741054534912109375e+00 2.316923618316650391e+00 -6.228592991828918457e-02
9.400000000000000000e+02 7.654994964599609375e+01 3.788086318969726562e+01 -2.405059710144996643e-02 7.479366779327392578e+00 2.236594676971435547e+00 -3.189031034708023071e-02
9.410000000000000000e+02 7.921286010742187500e+01 3.468701934814453125e+01 4.365817643702030182e-03 7.937580585479736328e+00 2.382583856582641602e+00 -2.177437953650951385e-02
9.420000000000000000e+02 7.764264678955078125e+01 3.437077713012695312e+01 -1.078494358807802200e-02 7.690715312957763672e+00 2.303979158401489258e+00 -5.580381304025650024e-02
9.430000000000000000e+02 7.925081634521484375e+01 3.331169128417968750e+01 -8.421195670962333679e-03 7.981853961944580078e+00 2.392029762268066406e+00 -2.037856169044971466e-02
9.440000000000000000e+02 7.931395721435546875e+01 3.057166099548339844e+01 -1.067712582880631089e-05 8.066479682922363281e+00 2.419940710067749023e+00 -2.117530629038810730e-02
9.450000000000000000e+02 7.662008666992187500e+01 2.884768104553222656e+01 1.793456077575683594e-02 7.654626846313476562e+00 2.301768302917480469e+00 -1.153694465756416321e-01
9.460000000000000000e+02 7.937689971923828125e+01 2.645502662658691406e+01 -2.999032731167972088e-04 8.242080688476562500e+00 2.472534179687500000e+00 -2.351592481136322021e-02
9.470000000000000000e+02 7.677201080322265625e+01 2.515405273437500000e+01 7.948949001729488373e-03 7.826195716857910156e+00 2.350243330001831055e+00 -1.397501528263092041e-01
9.480000000000000000e+02 7.937406921386718750e+01 2.508229255676269531e+01 -3.621640207711607218e-04 8.308997154235839844e+00 2.492590427398681641e+00 -2.281606756150722504e-02
9.490000000000000000e+02 7.933914947509765625e+01 2.095514678955078125e+01 2.637177240103483200e-04 8.518128395080566406e+00 2.555517673492431641e+00 -2.283984422683715820e-02
9.500000000000000000e+02 7.932968902587890625e+01 1.956378364562988281e+01 -2.658710116520524025e-03 8.583292961120605469e+00 2.574190378189086914e+00 -2.014222741127014160e-02
9.510000000000000000e+02 7.932105255126953125e+01 1.816544342041015625e+01 -2.407412277534604073e-03 8.640821456909179688e+00 2.591524124145507812e+00 -1.493107248097658157e-02
9.520000000000000000e+02 7.930489349365234375e+01 1.395118522644042969e+01 -7.430798374116420746e-03 8.722309112548828125e+00 2.614463567733764648e+00 1.515911146998405457e-02
9.530000000000000000e+02 7.931059265136718750e+01 1.254818534851074219e+01 -8.585802279412746429e-03 8.703839302062988281e+00 2.608576059341430664e+00 3.141269832849502563e-02
9.540000000000000000e+02 7.932746887207031250e+01 1.114599227905273438e+01 -9.535233490169048309e-03 8.651413917541503906e+00 2.592563629150390625e+00 5.007954314351081848e-02
9.550000000000000000e+02 7.939383697509765625e+01 6.948526859283447266e+00 -1.300614885985851288e-02 8.176063537597656250e+00 2.448917150497436523e+00 1.301813572645187378e-01
9.560000000000000000e+02 7.940876770019531250e+01 5.555019855499267578e+00 -1.280778553336858749e-02 7.876078605651855469e+00 2.358981132507324219e+00 1.610939651727676392e-01
9.570000000000000000e+02 7.941944122314453125e+01 4.163473606109619141e+00 -1.158018596470355988e-02 7.495751380920410156e+00 2.245251178741455078e+00 1.912285834550857544e-01
9.580000000000000000e+02 7.944311523437500000e+01 -6.449043750762939453e-03 2.513683401048183441e-03 5.961447715759277344e+00 1.789188504219055176e+00 2.388287037611007690e-01
9.590000000000000000e+02 7.945233154296875000e+01 -1.398074269294738770e+00 1.131766289472579956e-02 5.404397010803222656e+00 1.624714374542236328e+00 2.224914878606796265e-01
9.600000000000000000e+02 7.841709899902343750e+01 -4.205099582672119141e+00 1.180251389741897583e-01 5.370854377746582031e+00 1.646663904190063477e+00 3.228210210800170898e-01
9.610000000000000000e+02 7.947027587890625000e+01 -4.183918476104736328e+00 2.680231630802154541e-02 4.513966083526611328e+00 1.362230539321899414e+00 1.238676309585571289e-01
9.620000000000000000e+02 7.948386383056640625e+01 -8.357584953308105469e+00 2.528865076601505280e-02 4.447480678558349609e+00 1.341830730438232422e+00 -1.065178886055946350e-01
9.630000000000000000e+02 7.841660308837890625e+01 -1.111491584777832031e+01 4.909441992640495300e-02 5.947974205017089844e+00 1.799120545387268066e+00 -5.568225979804992676e-01
9.640000000000000000e+02 7.947225189208984375e+01 -1.113539791107177734e+01 1.161893922835588455e-02 5.302987575531005859e+00 1.594381928443908691e+00 -2.094663381576538086e-01
9.650000000000000000e+02 7.944136047363281250e+01 -1.530581474304199219e+01 -7.790891453623771667e-03 6.965929031372070312e+00 2.087441444396972656e+00 -2.174087613821029663e-01
9.660000000000000000e+02 7.828207397460937500e+01 -1.803749275207519531e+01 -6.101091206073760986e-02 7.844014644622802734e+00 2.334901094436645508e+00 -4.300248324871063232e-01
9.670000000000000000e+02 7.942730712890625000e+01 -1.808729171752929688e+01 -1.268859859555959702e-02 7.852633476257324219e+00 2.351983547210693359e+00 -1.641907244920730591e-01
9.680000000000000000e+02 7.941939544677734375e+01 -2.363723373413085938e+01 -8.956255391240119934e-03 8.755245208740234375e+00 2.623886585235595703e+00 -5.543697625398635864e-02
9.690000000000000000e+02 7.825061035156250000e+01 -2.489332771301269531e+01 -3.223323449492454529e-02 8.589065551757812500e+00 2.567049503326416016e+00 -8.973462879657745361e-02
9.700000000000000000e+02 7.941429138183593750e+01 -2.502089881896972656e+01 -5.619294475764036179e-03 8.839660644531250000e+00 2.650212287902832031e+00 -3.812383487820625305e-02
9.710000000000000000e+02 7.934494781494140625e+01 -2.920390510559082031e+01 -3.436594270169734955e-03 8.910989761352539062e+00 2.672266006469726562e+00 -6.891874596476554871e-03
9.720000000000000000e+02 7.787472534179687500e+01 -3.194314575195312500e+01 -1.079087425023317337e-02 8.557605743408203125e+00 2.564044237136840820e+00 2.634945511817932129e-02
9.730000000000000000e+02 7.929983520507812500e+01 -3.201486968994140625e+01 5.998164488119073212e-05 8.876757621765136719e+00 2.663045406341552734e+00 7.683296687901020050e-03
9.740000000000000000e+02 7.935424041748046875e+01 -3.612046813964843750e+01 1.179314311593770981e-02 8.760713577270507812e+00 2.631752014160156250e+00 1.976717077195644379e-02
9.750000000000000000e+02 7.926095581054687500e+01 -3.743757629394531250e+01 -2.535645663738250732e-02 8.683735847473144531e+00 2.597513914108276367e+00 4.218102991580963135e-02
9.760000000000000000e+02 7.902613067626953125e+01 -3.873720932006835938e+01 5.793970543891191483e-03 8.599338531494140625e+00 2.581539630889892578e+00 4.997097328305244446e-02
9.770000000000000000e+02 7.864855194091796875e+01 -4.008737182617187500e+01 -2.917929738759994507e-02 8.512708663940429688e+00 2.545058727264404297e+00 7.464073598384857178e-02
9.780000000000000000e+02 2.756675148010253906e+01 4.089714431762695312e+01 6.419317722320556641e-01 -1.020589172840118408e-01 1.619618535041809082e-01 2.007234841585159302e-02
9.790000000000000000e+02 6.716187286376953125e+01 4.063863754272460938e+01 2.040655165910720825e-01 5.714683532714843750e+00 1.775624632835388184e+00 -5.150609463453292847e-02
9.800000000000000000e+02 6.943680047988891602e-01 3.050150871276855469e+00 -2.147335762856528163e-04 -1.825505605665966868e-04 -1.191852425108663738e-04 -2.238698070868849754e-04
9.810000000000000000e+02 3.195839166641235352e+00 2.741512298583984375e+00 1.957991335075348616e-04 2.983933081850409508e-04 1.482577354181557894e-04 3.578023461159318686e-05
9.820000000000000000e+02 5.312754154205322266e+00 2.600518465042114258e+00 -1.134632911998778582e-04 -5.218338919803500175e-04 -1.905891549540683627e-04 -5.477568993228487670e-05
9.830000000000000000e+02 1.514511585235595703e+00 6.361587047576904297e+00 -2.573306264821439981e-04 -1.812651898944750428e-04 -1.315787521889433265e-04 -1.533978356746956706e-04
9.840000000000000000e+02 5.253927707672119141e-01 9.212327957153320312e+00 -1.298895367654040456e-04 1.310597872361540794e-05 -3.503506741253659129e-05 2.241668198621482588e-06
9.850000000000000000e+02 5.840845704078674316e-01 1.201405239105224609e+01 -1.320090086665004492e-04 4.446704406291246414e-03 1.294408575631678104e-03 -1.471520634368062019e-03
9.860000000000000000e+02 1.766274213790893555e+00 1.180670070648193359e+01 1.699259737506508827e-03 1.583103439770638943e-03 9.847088949754834175e-04 -4.056203644722700119e-03
9.870000000000000000e+02 6.309648752212524414e-01 1.765770339965820312e+01 -1.991179073229432106e-03 5.209685117006301880e-02 1.503170188516378403e-02 -6.086283363401889801e-03
9.880000000000000000e+02 7.749533653259277344e+00 1.848007202148437500e+01 -1.817869246006011963e-01 5.770537629723548889e-02 -3.722446411848068237e-02 5.239446833729743958e-02
9.890000000000000000e+02 6.022928357124328613e-01 2.193003654479980469e+01 -7.119091227650642395e-03 1.866680569946765900e-02 3.464314155280590057e-03 2.129695005714893341e-02
9.900000000000000000e+02 6.449577808380126953e-01 2.335520553588867188e+01 -4.019900225102901459e-03 -4.352043196558952332e-02 -1.426209975033998489e-02 3.334056958556175232e-02
9.910000000000000000e+02 6.510558128356933594e-01 2.479932212829589844e+01 -5.750331562012434006e-03 -1.278095245361328125e-01 -4.006795585155487061e-02 4.400994256138801575e-02
9.920000000000000000e+02 6.236810088157653809e-01 2.902997589111328125e+01 2.011991804465651512e-03 -4.492739737033843994e-01 -1.341785937547683716e-01 4.679432511329650879e-02
9.930000000000000000e+02 6.310185194015502930e-01 3.042627334594726562e+01 -9.550891700200736523e-04 -5.544690489768981934e-01 -1.666272431612014771e-01 4.580537229776382446e-02
9.940000000000000000e+02 1.898474574089050293e+00 3.030870437622070312e+01 7.686004508286714554e-03 -5.489405989646911621e-01 -1.623763740062713623e-01 1.283699721097946167e-01
9.950000000000000000e+02 6.563637256622314453e-01 3.182128143310546875e+01 3.738942556083202362e-03 -6.518101096153259277e-01 -1.944213509559631348e-01 4.231847077608108521e-02
9.960000000000000000e+02 7.701973915100097656e-01 3.597840499877929688e+01 5.072144325822591782e-03 -8.579847812652587891e-01 -2.558737695217132568e-01 2.412343025207519531e-02
9.970000000000000000e+02 3.876801729202270508e+00 3.663257598876953125e+01 6.563417613506317139e-02 -7.990642189979553223e-01 -2.200290113687515259e-01 1.127035841345787048e-01
9.980000000000000000e+02 9.765848517417907715e-01 3.872500228881835938e+01 -6.222346564754843712e-04 -9.153879880905151367e-01 -2.748030722141265869e-01 1.387704722583293915e-02
9.990000000000000000e+02 1.306448698043823242e+00 4.008873367309570312e+01 2.331199357286095619e-03 -9.321664571762084961e-01 -2.789505720138549805e-01 1.207779254764318466e-02
1.000000000000000000e+03 1.037209701538085938e+01 1.851228713989257812e+00 -4.047578258905559778e-04 -2.491885097697377205e-04 -1.961838861461728811e-04 -5.322550423443317413e-04
1.001000000000000000e+03 8.911982536315917969e+00 1.860641598701477051e+00 -2.864961570594459772e-04 -5.061561823822557926e-04 -2.377956989221274853e-04 -5.676539731211960316e-04
1.002000000000000000e+03 8.197795867919921875e+00 1.857608318328857422e+00 8.943899956648238003e-06 6.274353945627808571e-04 1.909137790789827704e-04 4.456393071450293064e-04
1.003000000000000000e+03 7.486374855041503906e+00 1.855362296104431152e+00 -2.093586954288184643e-04 -6.124440697021782398e-04 -2.465408470015972853e-04 -4.061078943777829409e-04
1.004000000000000000e+03 5.351620674133300781e+00 1.866361975669860840e+00 -5.250498725217767060e-05 5.866939900442957878e-04 1.602566917426884174e-04 1.257539988728240132e-04
1.005000000000000000e+03 4.637734413146972656e+00 1.879097700119018555e+00 -1.779047306627035141e-04 -4.722753656096756458e-04 -1.950540317920967937e-04 6.186595419421792030e-05
1.006000000000000000e+03 3.924838781356811523e+00 1.893395423889160156e+00 2.613601100165396929e-05 4.457698087207973003e-04 1.415717415511608124e-04 3.373620347701944411e-05
1.007000000000000000e+03 3.215624094009399414e+00 1.902498245239257812e+00 -2.597238344606012106e-04 -3.337910166010260582e-04 -1.780544553184881806e-04 1.297962007811293006e-04
1.008000000000000000e+03 2.515985488891601562e+00 1.900820136070251465e+00 1.671780337346717715e-04 2.525564632378518581e-04 1.259203418157994747e-04 1.254621456610038877e-04
1.009000000000000000e+03 1.821373462677001953e+00 1.898634314537048340e+00 -1.520105142844840884e-04 -2.577427658252418041e-04 -1.229259942192584276e-04 -2.217233486589975655e-05
1.010000000000000000e+03 1.263359165191650391e+01 1.762333154678344727e+00 1.732705713948234916e-04 1.634414802538231015e-04 1.010136184049770236e-04 -2.685365143406670541e-05
1.011000000000000000e+03 1.331502437591552734e+01 1.738762974739074707e+00 -3.513446717988699675e-04 -2.353884774493053555e-04 -1.760199374984949827e-04 -3.118988533969968557e-04
1.012000000000000000e+03 1.513074302673339844e+01 1.858794689178466797e+00 1.829153188737109303e-04 5.036034854128956795e-04 2.059556427411735058e-04 4.126987187191843987e-04
1.013000000000000000e+03 1.325414371490478516e+01 2.472484827041625977e+00 -1.119024182116845623e-05 3.558214229997247458e-04 1.033893495332449675e-04 -3.681799353216774762e-05
1.014000000000000000e+03 1.475708103179931641e+01 3.607746601104736328e+00 -7.175825885497033596e-04 5.610361404251307249e-05 -1.984436967177316546e-04 -1.832976413425058126e-04
1.015000000000000000e+03 1.405537986755371094e+01 7.555676937103271484e+00 2.455905778333544731e-03 2.193304535467177629e-04 8.025708957575261593e-04 9.200729546137154102e-04
1.016000000000000000e+03 1.351820087432861328e+01 8.818572998046875000e+00 -3.010091139003634453e-03 -1.133251469582319260e-03 -1.243002829141914845e-03 -1.261504134163260460e-03
1.017000000000000000e+03 1.288590431213378906e+01 1.004909801483154297e+01 3.463191911578178406e-03 1.000033691525459290e-03 1.338967704214155674e-03 2.136828145012259483e-03
1.018000000000000000e+03 1.029615783691406250e+01 1.168348884582519531e+01 -1.671907608397305012e-03 -3.430803073570132256e-03 -1.530813169665634632e-03 -2.481305738911032677e-03
1.019000000000000000e+03 9.400504112243652344e+00 1.272552394866943359e+01 1.142730470746755600e-03 5.723734386265277863e-03 2.059939550235867500e-03 3.121868008747696877e-03
1.020000000000000000e+03 8.452502250671386719e+00 1.557389831542968750e+01 -7.631057407706975937e-03 2.442242763936519623e-02 5.037411116063594818e-03 -1.001663133502006531e-02
1.021000000000000000e+03 1.597365570068359375e+01 1.611552619934082031e+01 -8.745236992835998535e-01 -1.485183000564575195e+00 -7.079120278358459473e-01 8.882454037666320801e-01
1.022000000000000000e+03 1.653243255615234375e+01 1.301896190643310547e+01 -6.192846894264221191e-01 -1.954652070999145508e+00 -7.721810340881347656e-01 1.042591094970703125e+00
1.023000000000000000e+03 1.778178596496582031e+01 1.043339729309082031e+01 -4.061127603054046631e-01 -1.886341333389282227e+00 -6.877362132072448730e-01 7.650128602981567383e-01
1.024000000000000000e+03 1.842038917541503906e+01 7.629039764404296875e+00 -1.353317797183990479e-01 -1.432467818260192871e+00 -4.703398942947387695e-01 4.045435488224029541e-01
1.025000000000000000e+03 1.874118614196777344e+01 4.860290527343750000e+00 -5.635275319218635559e-02 -9.469480514526367188e-01 -3.009902536869049072e-01 1.990702301263809204e-01
1.026000000000000000e+03 1.924227905273437500e+01 -3.778361320495605469e+00 -1.164225861430168152e-02 -2.110717818140983582e-02 -9.824831038713455200e-03 1.184596493840217590e-02
1.027000000000000000e+03 2.011750984191894531e+01 -4.017919540405273438e+00 -2.952042035758495331e-02 -3.221809118986129761e-02 -1.852155290544033051e-02 2.860766835510730743e-02
1.028000000000000000e+03 2.092312812805175781e+01 -4.191438198089599609e+00 -4.730328544974327087e-02 -4.078263789415359497e-02 -2.642577700316905975e-02 4.550010710954666138e-02
1.029000000000000000e+03 2.306858634948730469e+01 -4.575270652770996094e+00 -1.273776292800903320e-01 -4.095803573727607727e-02 -5.050069838762283325e-02 1.042968183755874634e-01
1.030000000000000000e+03 2.449589920043945312e+01 -4.740618705749511719e+00 -2.061643600463867188e-01 -3.356174752116203308e-02 -7.191783189773559570e-02 1.351711452007293701e-01
1.031000000000000000e+03 2.521584892272949219e+01 -4.803807258605957031e+00 -2.538862824440002441e-01 -2.888407371938228607e-02 -8.483110368251800537e-02 1.480964124202728271e-01
1.032000000000000000e+03 2.593608283996582031e+01 -4.861016273498535156e+00 -3.047887682914733887e-01 -2.338674478232860565e-02 -9.845265001058578491e-02 1.598161906003952026e-01
1.033000000000000000e+03 2.811615180969238281e+01 -4.939645767211914062e+00 -4.846639037132263184e-01 -9.332144632935523987e-03 -1.481988131999969482e-01 1.855614334344863892e-01
1.034000000000000000e+03 2.884695434570312500e+01 -4.954239845275878906e+00 -5.518549084663391113e-01 -5.117309745401144028e-03 -1.670916676521301270e-01 1.915383040904998779e-01
1.035000000000000000e+03 3.194825744628906250e+01 -4.253002166748046875e+00 -8.505874276161193848e-01 5.227294750511646271e-03 -2.536080479621887207e-01 2.775449156761169434e-01
1.036000000000000000e+03 3.105726623535156250e+01 -4.948272228240966797e+00 -7.724851965904235840e-01 3.970765043050050735e-03 -2.305543422698974609e-01 2.036708295345306396e-01
1.037000000000000000e+03 3.179794692993164062e+01 -4.940022945404052734e+00 -8.516002297401428223e-01 5.888715852051973343e-03 -2.537134587764739990e-01 2.057191878557205200e-01
1.038000000000000000e+03 3.343076324462890625e+01 -4.223145484924316406e+00 -1.000591874122619629e+00 9.594073519110679626e-03 -2.972993552684783936e-01 2.831488549709320068e-01
1.039000000000000000e+03 3.566518020629882812e+01 -4.164600372314453125e+00 -1.234021067619323730e+00 1.212845183908939362e-02 -3.665677905082702637e-01 2.867218852043151855e-01
1.040000000000000000e+03 3.627215194702148438e+01 -4.832145690917968750e+00 -1.361496567726135254e+00 9.970468468964099884e-03 -4.054578244686126709e-01 2.088250964879989624e-01
1.041000000000000000e+03 3.851939010620117188e+01 -4.770167350769042969e+00 -1.627197384834289551e+00 8.172567933797836304e-03 -4.857074618339538574e-01 2.068226337432861328e-01
1.042000000000000000e+03 3.776971435546875000e+01 -4.790307044982910156e+00 -1.538594007492065430e+00 8.548967540264129639e-03 -4.590134918689727783e-01 2.073965966701507568e-01
1.043000000000000000e+03 3.926974868774414062e+01 -4.750548362731933594e+00 -1.716230750083923340e+00 7.046433165669441223e-03 -5.127552747726440430e-01 2.060785442590713501e-01
1.044000000000000000e+03 4.227411270141601562e+01 -4.677021026611328125e+00 -2.063201665878295898e+00 3.301156684756278992e-03 -6.179701685905456543e-01 2.032284736633300781e-01
1.045000000000000000e+03 4.302592849731445312e+01 -4.661211967468261719e+00 -2.146562576293945312e+00 2.623088657855987549e-03 -6.431818604469299316e-01 2.016011327505111694e-01
1.046000000000000000e+03 4.453046798706054688e+01 -4.632890224456787109e+00 -2.309157609939575195e+00 1.583189936354756355e-03 -6.922723054885864258e-01 1.996347010135650635e-01
1.047000000000000000e+03 4.603497314453125000e+01 -4.611042499542236328e+00 -2.462625026702880859e+00 7.822995539754629135e-04 -7.385528087615966797e-01 1.964367479085922241e-01
1.048000000000000000e+03 4.678709793090820312e+01 -4.600625991821289062e+00 -2.534749984741210938e+00 -1.081367838196456432e-03 -7.607493996620178223e-01 1.946539431810379028e-01
1.049000000000000000e+03 4.753944015502929688e+01 -4.592033386230468750e+00 -2.603796958923339844e+00 3.397240652702748775e-04 -7.810371518135070801e-01 1.923792809247970581e-01
1.050000000000000000e+03 4.979464340209960938e+01 -4.572090625762939453e+00 -2.785057067871093750e+00 -7.860945188440382481e-04 -8.357529044151306152e-01 1.808521449565887451e-01
1.051000000000000000e+03 5.204876327514648438e+01 -4.564328193664550781e+00 -2.913535356521606445e+00 7.551460992544889450e-03 -8.717951774597167969e-01 1.578120142221450806e-01
1.052000000000000000e+03 5.279961013793945312e+01 -4.563382625579833984e+00 -2.939061403274536133e+00 6.620320957154035568e-03 -8.797323107719421387e-01 1.460833102464675903e-01
1.053000000000000000e+03 5.504924011230468750e+01 -4.573190689086914062e+00 -2.941915273666381836e+00 2.677237614989280701e-02 -8.745428919792175293e-01 8.635766804218292236e-02
1.054000000000000000e+03 5.579782485961914062e+01 -4.579400539398193359e+00 -2.908406019210815430e+00 2.685377933084964752e-02 -8.644656538963317871e-01 5.654634535312652588e-02
1.055000000000000000e+03 5.812346649169921875e+01 -4.043580532073974609e+00 -2.019968748092651367e+00 1.528900861740112305e-01 -5.601236224174499512e-01 -2.673444449901580811e-01
1.056000000000000000e+03 5.877199554443359375e+01 -4.617752552032470703e+00 -2.435269117355346680e+00 9.011544287204742432e-02 -7.035461068153381348e-01 -1.941625475883483887e-01
1.057000000000000000e+03 5.951156997680664062e+01 -4.618181228637695312e+00 -2.120786905288696289e+00 1.415047198534011841e-01 -5.937846899032592773e-01 -3.510296344757080078e-01
1.058000000000000000e+03 6.101588821411132812e+01 -4.608641147613525391e+00 -1.171117782592773438e+00 4.245060086250305176e-01 -2.239835262298583984e-01 -9.633460044860839844e-01
1.059000000000000000e+03 6.216669845581054688e+01 -4.676231861114501953e+00 1.136438250541687012e-01 9.708805084228515625e-01 3.253572881221771240e-01 -1.908417463302612305e+00
1.060000000000000000e+03 6.303684616088867188e+01 -4.776491641998291016e+00 1.363864421844482422e+00 2.142638206481933594e+00 1.051950812339782715e+00 -3.128018617630004883e+00
1.061000000000000000e+03 6.460588836669921875e+01 -4.771870136260986328e+00 1.675680518150329590e+00 1.218178939819335938e+01 4.157240867614746094e+00 -6.936653137207031250e+00
1.062000000000000000e+03 6.596268463134765625e+01 -4.563444614410400391e+00 7.715737223625183105e-01 1.903017807006835938e+01 5.940525531768798828e+00 -7.061868906021118164e-01
1.063000000000000000e+03 6.618536376953125000e+01 -5.126550674438476562e+00 3.505792856216430664e+00 2.044389343261718750e+01 7.184905529022216797e+00 1.572152018547058105e+00
1.064000000000000000e+03 6.648136138916015625e+01 -5.430613040924072266e+00 6.315302848815917969e+00 1.890835571289062500e+01 7.567097663879394531e+00 2.688862323760986328e+00
1.065000000000000000e+03 6.676237487792968750e+01 -6.016604900360107422e+00 9.685276985168457031e+00 1.664936447143554688e+01 7.900392532348632812e+00 1.560780167579650879e+00
1.066000000000000000e+03 6.674557495117187500e+01 -6.897464275360107422e+00 8.918806076049804688e+00 1.691289329528808594e+01 7.749509334564208984e+00 -1.998307466506958008e+00
1.067000000000000000e+03 6.653109741210937500e+01 -7.869043827056884766e+00 3.341083526611328125e+00 1.838893318176269531e+01 6.519005298614501953e+00 -1.817392230033874512e+00
1.068000000000000000e+03 6.609056091308593750e+01 -7.804252624511718750e+00 2.474944353103637695e+00 2.051364898681640625e+01 6.896577835083007812e+00 -8.860669732093811035e-01
1.069000000000000000e+03 6.440337371826171875e+01 -8.060305595397949219e+00 2.040392637252807617e+00 1.012733364105224609e+01 3.650317907333374023e+00 6.814855098724365234e+00
1.070000000000000000e+03 6.280680465698242188e+01 -8.411590576171875000e+00 1.349453568458557129e+00 2.529557943344116211e+00 1.163703441619873047e+00 3.334337711334228516e+00
1.071000000000000000e+03 6.166469955444335938e+01 -8.098972320556640625e+00 -5.731709599494934082e-01 7.025526762008666992e-01 3.881451487541198730e-02 1.339566588401794434e+00
1.072000000000000000e+03 5.875856018066406250e+01 -8.188400268554687500e+00 -2.290569067001342773e+00 1.062089502811431885e-01 -6.553080677986145020e-01 1.808451265096664429e-01
1.073000000000000000e+03 5.950320816040039062e+01 -8.172048568725585938e+00 -1.990075469017028809e+00 1.255739927291870117e-01 -5.593504309654235840e-01 3.304754793643951416e-01
1.074000000000000000e+03 6.096846008300781250e+01 -8.121613502502441406e+00 -1.197939634323120117e+00 3.637019395828247070e-01 -2.502713203430175781e-01 8.650695681571960449e-01
1.075000000000000000e+03 5.650847625732421875e+01 -8.212891578674316406e+00 -2.703969955444335938e+00 4.543075710535049438e-02 -7.975617647171020508e-01 -3.370787575840950012e-02
1.076000000000000000e+03 5.576132202148437500e+01 -8.219350814819335938e+00 -2.765456199645996094e+00 3.385711088776588440e-02 -8.194797635078430176e-01 -7.770343869924545288e-02
1.077000000000000000e+03 5.276874542236328125e+01 -8.243195533752441406e+00 -2.791727066040039062e+00 1.391878537833690643e-02 -8.333424925804138184e-01 -1.660952121019363403e-01
1.078000000000000000e+03 5.351578903198242188e+01 -8.237361907958984375e+00 -2.806548833847045898e+00 1.741423271596431732e-02 -8.367404341697692871e-01 -1.499198973178863525e-01
1.079000000000000000e+03 5.426379776000976562e+01 -8.232323646545410156e+00 -2.810051679611206055e+00 2.078141272068023682e-02 -8.367810249328613281e-01 -1.318822503089904785e-01
1.080000000000000000e+03 5.127244949340820312e+01 -8.254978179931640625e+00 -2.734277486801147461e+00 1.036691013723611832e-02 -8.171731829643249512e-01 -1.878890544176101685e-01
1.081000000000000000e+03 4.678760910034179688e+01 -8.297839164733886719e+00 -2.438188791275024414e+00 2.267511328682303429e-03 -7.307763695716857910e-01 -2.232405394315719604e-01
1.082000000000000000e+03 4.753309249877929688e+01 -8.288022041320800781e+00 -2.494843244552612305e+00 4.441290628165006638e-03 -7.471205592155456543e-01 -2.199585437774658203e-01
1.083000000000000000e+03 4.903019332885742188e+01 -8.273625373840332031e+00 -2.602376461029052734e+00 6.536426953971385956e-03 -7.787520289421081543e-01 -2.108135968446731567e-01
1.084000000000000000e+03 4.529249954223632812e+01 -8.321440696716308594e+00 -2.318107128143310547e+00 -5.929425824433565140e-04 -6.956099867820739746e-01 -2.276659011840820312e-01
1.085000000000000000e+03 4.454554367065429688e+01 -8.333380699157714844e+00 -2.256678819656372070e+00 -8.016618085093796253e-04 -6.772441267967224121e-01 -2.294339239597320557e-01
1.086000000000000000e+03 4.230418395996093750e+01 -8.379276275634765625e+00 -2.069177389144897461e+00 -5.685922689735889435e-03 -6.224589943885803223e-01 -2.293804138898849487e-01
1.087000000000000000e+03 4.235474777221679688e+01 -9.096378326416015625e+00 -1.906632900238037109e+00 -6.409009452909231186e-03 -5.739125609397888184e-01 -2.817864418029785156e-01
1.088000000000000000e+03 4.080863189697265625e+01 -8.413074493408203125e+00 -1.944174170494079590e+00 -7.676417008042335510e-03 -5.855551958084106445e-01 -2.272299230098724365e-01
1.089000000000000000e+03 3.931150817871093750e+01 -8.452033996582031250e+00 -1.819319486618041992e+00 -9.677585214376449585e-03 -5.486990809440612793e-01 -2.229968309402465820e-01
1.090000000000000000e+03 3.781381607055664062e+01 -8.492611885070800781e+00 -1.695471405982971191e+00 -1.147215534001588821e-02 -5.120830535888671875e-01 -2.184288054704666138e-01
1.091000000000000000e+03 3.481157302856445312e+01 -8.575873374938964844e+00 -1.448810696601867676e+00 -1.562408078461885452e-02 -4.393304288387298584e-01 -2.056517302989959717e-01
1.092000000000000000e+03 3.631394195556640625e+01 -8.535328865051269531e+00 -1.571656227111816406e+00 -1.401664596050977707e-02 -4.757018685340881348e-01 -2.123727351427078247e-01
1.093000000000000000e+03 3.330464935302734375e+01 -8.611883163452148438e+00 -1.325120687484741211e+00 -1.698696427047252655e-02 -4.026322960853576660e-01 -1.973760873079299927e-01
1.094000000000000000e+03 3.254973220825195312e+01 -8.629947662353515625e+00 -1.263103246688842773e+00 -1.657472364604473114e-02 -3.839034140110015869e-01 -1.936661154031753540e-01
1.095000000000000000e+03 2.951047706604003906e+01 -8.668969154357910156e+00 -1.009010791778564453e+00 -1.452280860394239426e-02 -3.070600926876068115e-01 -1.767656803131103516e-01
1.096000000000000000e+03 2.797378921508789062e+01 -8.651979446411132812e+00 -8.784633874893188477e-01 -9.730800054967403412e-03 -2.664582729339599609e-01 -1.683833301067352295e-01
1.097000000000000000e+03 2.643287467956542969e+01 -8.616613388061523438e+00 -7.440963387489318848e-01 -3.601024858653545380e-03 -2.243092060089111328e-01 -1.628346741199493408e-01
1.098000000000000000e+03 2.254430961608886719e+01 -8.313892364501953125e+00 -4.099550843238830566e-01 1.580098085105419159e-02 -1.182462275028228760e-01 -1.436797976493835449e-01
1.099000000000000000e+03 2.332134056091308594e+01 -8.400687217712402344e+00 -4.753910601139068604e-01 1.472779829055070877e-02 -1.381989717483520508e-01 -1.491957902908325195e-01
1.100000000000000000e+03 2.100681877136230469e+01 -8.087337493896484375e+00 -2.831349968910217285e-01 1.155875436961650848e-02 -8.147287368774414062e-02 -1.239924579858779907e-01
1.101000000000000000e+03 2.024984931945800781e+01 -7.969532012939453125e+00 -2.227339446544647217e-01 2.042568754404783249e-03 -6.620740890502929688e-02 -1.090373471379280090e-01
1.102000000000000000e+03 1.823026847839355469e+01 -8.520175933837890625e+00 -1.359464675188064575e-01 -5.176963284611701965e-02 -5.631482973694801331e-02 -1.132687255740165710e-01
1.103000000000000000e+03 6.534069824218750000e+01 -4.364350795745849609e+00 -5.440339818596839905e-02 1.705079841613769531e+01 5.098918437957763672e+00 -3.839219331741333008e+00
1.104000000000000000e+03 6.734098815917968750e+01 -5.358218669891357422e+00 5.827807426452636719e+00 1.502449798583984375e+01 6.255692005157470703e+00 2.106000661849975586e+00
1.105000000000000000e+03 6.640253448486328125e+01 -7.489257335662841797e+00 5.126062393188476562e+00 1.938451004028320312e+01 7.353171825408935547e+00 -2.397141218185424805e+00
1.106000000000000000e+03 6.606263732910156250e+01 -8.301287651062011719e+00 8.920468688011169434e-01 1.858955764770507812e+01 5.844481468200683594e+00 4.080581963062286377e-01
1.107000000000000000e+03 6.634239196777343750e+01 -5.267925739288330078e+00 4.942521095275878906e+00 1.985662078857421875e+01 7.439742565155029297e+00 2.404817581176757812e+00
1.108000000000000000e+03 6.719481658935546875e+01 -6.091251373291015625e+00 8.489968299865722656e+00 1.496009349822998047e+01 7.035018444061279297e+00 9.841476082801818848e-01
1.109000000000000000e+03 6.669420623779296875e+01 -5.811816692352294922e+00 8.755778312683105469e+00 1.723822021484375000e+01 7.798199653625488281e+00 2.197948217391967773e+00
1.110000000000000000e+03 6.583249664306640625e+01 -4.884269714355468750e+00 1.263975381851196289e+00 2.075340270996093750e+01 6.605213165283203125e+00 -6.266549825668334961e-01
1.111000000000000000e+03 6.546237182617187500e+01 -8.022918701171875000e+00 4.287481307983398438e-01 1.971796417236328125e+01 6.044013500213623047e+00 3.223886251449584961e+00
1.112000000000000000e+03 6.556934356689453125e+01 -8.339445114135742188e+00 9.456512331962585449e-02 1.802789306640625000e+01 5.436737537384033203e+00 2.847524404525756836e+00
1.113000000000000000e+03 6.589528656005859375e+01 -7.918740272521972656e+00 1.402624845504760742e+00 2.057895469665527344e+01 6.594473838806152344e+00 3.251080513000488281e-01
1.114000000000000000e+03 6.475963592529296875e+01 -4.513828754425048828e+00 9.151189327239990234e-01 1.352428150177001953e+01 4.331820011138916016e+00 -6.161584377288818359e+00
1.115000000000000000e+03 6.213738250732421875e+01 -8.080357551574707031e+00 8.770251274108886719e-02 9.090601205825805664e-01 2.990287840366363525e-01 1.790271997451782227e+00
1.116000000000000000e+03 6.320422363281250000e+01 -8.091308593750000000e+00 1.743639469146728516e+00 2.784529209136962891e+00 1.358450651168823242e+00 3.704707384109497070e+00
1.117000000000000000e+03 6.369506454467773438e+01 -8.190416336059570312e+00 2.219969272613525391e+00 5.150916099548339844e+00 2.211265563964843750e+00 5.183272838592529297e+00
1.118000000000000000e+03 6.278400421142578125e+01 -8.021450042724609375e+00 9.807531833648681641e-01 1.763183593750000000e+00 8.231810331344604492e-01 2.720399141311645508e+00
1.119000000000000000e+03 6.460827636718750000e+01 -8.080914497375488281e+00 1.597197175025939941e+00 1.226763057708740234e+01 4.159448146820068359e+00 6.808103561401367188e+00
1.120000000000000000e+03 6.379561996459960938e+01 -8.003292083740234375e+00 2.455353498458862305e+00 5.170246601104736328e+00 2.287679910659790039e+00 5.423675537109375000e+00
1.121000000000000000e+03 6.342739486694335938e+01 -8.044489860534667969e+00 2.139319419860839844e+00 3.417401790618896484e+00 1.667016386985778809e+00 4.282480716705322266e+00
1.122000000000000000e+03 6.385359191894531250e+01 -8.336865425109863281e+00 2.001946210861206055e+00 6.469291687011718750e+00 2.541371345520019531e+00 5.649242877960205078e+00
1.123000000000000000e+03 6.238984680175781250e+01 -8.052393913269042969e+00 3.750255107879638672e-01 1.191161870956420898e+00 4.698562026023864746e-01 2.024590730667114258e+00
1.124000000000000000e+03 6.482434082031250000e+01 -8.115666389465332031e+00 1.008875608444213867e+00 1.449770927429199219e+01 4.651975154876708984e+00 6.334057331085205078e+00
1.125000000000000000e+03 6.519922637939453125e+01 -4.739300727844238281e+00 4.030802845954895020e-01 1.821626853942871094e+01 5.585804939270019531e+00 -4.895830154418945312e+00
1.126000000000000000e+03 6.359610366821289062e+01 -4.743284225463867188e+00 2.142282247543334961e+00 4.272736072540283203e+00 1.924505591392517090e+00 -4.759155273437500000e+00
1.127000000000000000e+03 6.264048004150390625e+01 -4.699092864990234375e+00 8.286198377609252930e-01 1.515410661697387695e+00 7.032091617584228516e-01 -2.518262624740600586e+00
1.128000000000000000e+03 6.284999847412109375e+01 -4.732058048248291016e+00 1.135940194129943848e+00 1.751724600791931152e+00 8.662994503974914551e-01 -2.875241994857788086e+00
1.129000000000000000e+03 6.379940032958984375e+01 -4.730910778045654297e+00 2.376967191696166992e+00 5.296935558319091797e+00 2.302170753479003906e+00 -5.403808593750000000e+00
1.130000000000000000e+03 6.400673675537109375e+01 -4.737324714660644531e+00 2.422585487365722656e+00 6.569449901580810547e+00 2.697610616683959961e+00 -5.958019733428955078e+00
1.131000000000000000e+03 6.440877532958984375e+01 -4.771488666534423828e+00 2.055723190307617188e+00 1.038581562042236328e+01 3.732461690902709961e+00 -6.892208099365234375e+00
1.132000000000000000e+03 6.420997619628906250e+01 -4.757077217102050781e+00 2.403216361999511719e+00 8.245212554931640625e+00 3.194528579711914062e+00 -6.556472778320312500e+00
1.133000000000000000e+03 6.170388412475585938e+01 -4.663787841796875000e+00 -5.514244437217712402e-01 7.572214007377624512e-01 6.173910200595855713e-02 -1.415583133697509766e+00
1.134000000000000000e+03 1.452264976501464844e+01 1.738731026649475098e+00 1.130189921241253614e-04 -1.908103586174547672e-04 -2.333741031179670244e-05 -1.285069447476416826e-04
1.135000000000000000e+03 1.463248157501220703e+01 2.562461853027343750e+00 2.706724990275688469e-05 -5.795318284071981907e-04 -1.657393731875345111e-04 -8.722478378331288695e-05
1.136000000000000000e+03 1.188578224182128906e+01 1.795659184455871582e+00 -4.544025869108736515e-04 -5.383087409427389503e-05 -1.524700346635654569e-04 -2.508112229406833649e-04
1.137000000000000000e+03 1.446676158905029297e+01 -3.374553918838500977e+00 -7.111870218068361282e-05 1.214522999362088740e-04 1.510007950855651870e-05 -6.603022939088987187e-06
1.138000000000000000e+03 1.384749794006347656e+01 -2.965127468109130859e+00 1.754704280756413937e-04 -1.014555600704625249e-04 2.220445821876637638e-05 -4.333575998316518962e-05
1.139000000000000000e+03 1.884828758239746094e+01 -8.628729820251464844e+00 -1.728790998458862305e-01 -4.212047159671783447e-02 -6.449986994266510010e-02 -1.330100148916244507e-01
1.140000000000000000e+03 3.925629615783691406e+00 3.527517318725585938e+00 1.855212904047220945e-04 3.810791822616010904e-04 1.699801359791308641e-04 1.109072763938456774e-04
1.141000000000000000e+03 9.533064842224121094e+00 2.602206707000732422e+00 -3.218625788576900959e-04 -6.333432975225150585e-04 -2.865617570932954550e-04 -7.392182596959173679e-04
1.142000000000000000e+03 7.404488563537597656e+00 2.575775861740112305e+00 -2.114183007506653666e-05 8.854566258378326893e-04 2.592944365460425615e-04 4.323392349760979414e-04
1.143000000000000000e+03 6.775898933410644531e+00 1.855337381362915039e+00 -6.055099584045819938e-05 6.713302573189139366e-04 1.832337729865685105e-04 2.951929927803575993e-04
1.144000000000000000e+03 6.709265232086181641e+00 2.573545217514038086e+00 -9.132790728472173214e-05 -7.216429221443831921e-04 -2.438912633806467056e-04 -3.087588411290198565e-04
1.145000000000000000e+03 7.992538452148437500e+00 3.340819835662841797e+00 3.454470788710750639e-05 1.160138170234858990e-03 3.584048536140471697e-04 5.344399833120405674e-04
1.146000000000000000e+03 5.888218879699707031e+00 4.017720222473144531e+00 1.901628420455381274e-04 7.305705803446471691e-04 2.762200310826301575e-04 8.556203101761639118e-05
1.147000000000000000e+03 1.555332779884338379e+00 7.727744102478027344e+00 5.598066491074860096e-04 3.039542752958368510e-05 1.770606177160516381e-04 1.845099177444353700e-05
1.148000000000000000e+03 3.925766348838806152e-01 3.799321889877319336e+00 3.743441775441169739e-04 -1.707681258267257363e-05 1.071802107617259026e-04 2.517188841011375189e-04
1.149000000000000000e+03 2.406916856765747070e+00 3.694608688354492188e+00 4.487693659029901028e-04 1.696132239885628223e-04 1.855147711466997862e-04 9.234876779373735189e-05
1.150000000000000000e+03 3.877762556076049805e-01 2.099599838256835938e+00 -1.440497289877384901e-04 -1.403052301611751318e-04 -8.530648483429104090e-05 2.565911927376873791e-05
1.151000000000000000e+03 1.124488115310668945e+00 1.946320891380310059e+00 -2.180991214117966592e-05 1.427580573363229632e-04 3.628444392234086990e-05 1.382730697514489293e-04
1.152000000000000000e+03 1.112880611419677734e+01 1.825953841209411621e+00 3.077036817558109760e-04 1.511442824266850948e-04 1.376543950755149126e-04 2.937049721367657185e-04
1.153000000000000000e+03 8.688793182373046875e+00 3.358232021331787109e+00 -1.614169304957613349e-04 -9.971692925319075584e-04 -3.475758421700447798e-04 -7.302146404981613159e-04
1.154000000000000000e+03 2.665928840637207031e+01 -4.900024414062500000e+00 -3.604960441589355469e-01 -1.871350035071372986e-02 -1.137628629803657532e-01 1.692258417606353760e-01
1.155000000000000000e+03 2.584241676330566406e+01 -2.774567604064941406e+00 -3.360554575920104980e-01 -7.811724394559860229e-02 -1.242518126964569092e-01 3.078720867633819580e-01
1.156000000000000000e+03 2.329987907409667969e+01 -3.840511560440063477e+00 -1.584436893463134766e-01 -6.613878905773162842e-02 -6.737474352121353149e-02 1.510396152734756470e-01
1.157000000000000000e+03 2.613472366333007812e+01 -4.168004035949707031e+00 -3.374285101890563965e-01 -3.697078302502632141e-02 -1.123197898268699646e-01 2.159852981567382812e-01
1.158000000000000000e+03 2.399818611145019531e+01 -3.949761629104614258e+00 -1.956208944320678711e-01 -5.950370058417320251e-02 -7.653737813234329224e-02 1.700213849544525146e-01
1.159000000000000000e+03 2.423311614990234375e+01 -3.239656448364257812e+00 -2.237220257520675659e-01 -8.304020017385482788e-02 -9.202867001295089722e-02 2.215446829795837402e-01
1.160000000000000000e+03 2.235869789123535156e+01 -4.453329563140869141e+00 -9.698867797851562500e-02 -4.367132112383842468e-02 -4.219799861311912537e-02 8.668588846921920776e-02
1.161000000000000000e+03 1.910133743286132812e+01 -2.620095491409301758e+00 -7.378255948424339294e-03 -3.783804178237915039e-02 -1.356488931924104691e-02 2.584969438612461090e-02
1.162000000000000000e+03 2.259983825683593750e+01 -3.708198785781860352e+00 -1.235624030232429504e-01 -7.128726691007614136e-02 -5.845490097999572754e-02 1.310859173536300659e-01
1.163000000000000000e+03 2.958072471618652344e+01 -4.959194660186767578e+00 -6.224032640457153320e-01 -1.498427474871277809e-03 -1.871705055236816406e-01 1.960884630680084229e-01
1.164000000000000000e+03 2.685082626342773438e+01 -4.208173751831054688e+00 -3.911910355091094971e-01 -2.957418188452720642e-02 -1.262295544147491455e-01 2.285352647304534912e-01
1.165000000000000000e+03 2.864456176757812500e+01 -2.892455577850341797e+00 -5.403630733489990234e-01 -3.463541716337203979e-02 -1.724995523691177368e-01 3.649990260601043701e-01
1.166000000000000000e+03 2.756939125061035156e+01 -4.235168933868408203e+00 -4.486915469169616699e-01 -2.290473505854606628e-02 -1.414788812398910522e-01 2.387467920780181885e-01
1.167000000000000000e+03 3.254045486450195312e+01 -4.927328586578369141e+00 -9.323971271514892578e-01 7.863364182412624359e-03 -2.773601114749908447e-01 2.072181552648544312e-01
1.168000000000000000e+03 3.063306236267089844e+01 -3.581519365310668945e+00 -7.118474841117858887e-01 -5.900859832763671875e-03 -2.153245061635971069e-01 3.332450091838836670e-01
1.169000000000000000e+03 3.237336730957031250e+01 -2.184362649917602539e+00 -8.115434646606445312e-01 -3.058175090700387955e-03 -2.443805038928985596e-01 4.615577459335327148e-01
1.170000000000000000e+03 2.974358177185058594e+01 -4.269873619079589844e+00 -6.385387778282165527e-01 -6.019109394401311874e-03 -1.933673620223999023e-01 2.633752226829528809e-01
1.171000000000000000e+03 1.346146488189697266e+01 -4.838036537170410156e+00 2.817774657160043716e-04 1.982423236768227071e-05 9.048050560522824526e-05 -2.371701339143328369e-05
1.172000000000000000e+03 1.286836147308349609e+01 -5.959002017974853516e+00 -2.505861048121005297e-04 -6.410948844859376550e-05 -9.440868598176166415e-05 4.081618681084364653e-05
1.173000000000000000e+03 1.332967376708984375e+01 -2.563480854034423828e+00 8.206988422898575664e-05 8.179283759091049433e-05 4.915881800116039813e-05 6.292157922871410847e-05
1.174000000000000000e+03 8.158053398132324219e+00 -2.562979459762573242e+00 -1.291668595513328910e-04 -1.629990583751350641e-04 -8.764977246755734086e-05 -2.057989186141639948e-04
1.175000000000000000e+03 3.268852233886718750e+01 -4.239534854888916016e+00 -9.250546693801879883e-01 7.501755375415086746e-03 -2.752658724784851074e-01 2.806308269500732422e-01
1.176000000000000000e+03 3.552389526367187500e+01 -4.853267192840576172e+00 -1.273248434066772461e+00 1.050510257482528687e-02 -3.788230121135711670e-01 2.090618759393692017e-01
1.177000000000000000e+03 3.445776367187500000e+01 -2.821365594863891602e+00 -1.015626907348632812e+00 1.109035219997167587e-02 -3.013609647750854492e-01 4.168072044849395752e-01
1.178000000000000000e+03 3.491969299316406250e+01 -4.185009956359863281e+00 -1.155394077301025391e+00 1.196078862994909286e-02 -3.430299758911132812e-01 2.861671149730682373e-01
1.179000000000000000e+03 4.379898452758789062e+01 -8.347611427307128906e+00 -2.194887638092041016e+00 -3.148704767227172852e-03 -6.594108939170837402e-01 -2.302830964326858521e-01
1.180000000000000000e+03 4.459417724609375000e+01 -9.046965599060058594e+00 -2.064057588577270508e+00 -1.102784764952957630e-03 -6.195481419563293457e-01 -2.793008089065551758e-01
1.181000000000000000e+03 4.462081909179687500e+01 -9.755387306213378906e+00 -1.873419761657714844e+00 2.078764839097857475e-03 -5.614023208618164062e-01 -3.186573088169097900e-01
1.182000000000000000e+03 4.385023498535156250e+01 -9.063041687011718750e+00 -2.012662649154663086e+00 -2.308888826519250870e-03 -6.044914722442626953e-01 -2.810201048851013184e-01
1.183000000000000000e+03 4.683356857299804688e+01 -9.007581710815429688e+00 -2.207712173461914062e+00 6.749136839061975479e-03 -6.602888703346252441e-01 -2.683348655700683594e-01
1.184000000000000000e+03 4.237979888916015625e+01 -9.812243461608886719e+00 -1.743079423904418945e+00 -8.638662286102771759e-03 -5.255154371261596680e-01 -3.252859413623809814e-01
1.185000000000000000e+03 4.088452148437500000e+01 -1.057806777954101562e+01 -1.503010630607604980e+00 -1.379979494959115982e-02 -4.550431072711944580e-01 -3.618944585323333740e-01
1.186000000000000000e+03 4.005981063842773438e+01 -8.432458877563476562e+00 -1.881508708000183105e+00 -8.230303414165973663e-03 -5.669217109680175781e-01 -2.249592840671539307e-01
1.187000000000000000e+03 4.086047744750976562e+01 -9.132056236267089844e+00 -1.798288702964782715e+00 -9.866678155958652496e-03 -5.424466133117675781e-01 -2.794523239135742188e-01
1.188000000000000000e+03 4.908858108520507812e+01 -9.684089660644531250e+00 -2.053767442703247070e+00 2.536740154027938843e-02 -6.085199713706970215e-01 -2.659843564033508301e-01
1.189000000000000000e+03 4.907226943969726562e+01 -8.981609344482421875e+00 -2.323325872421264648e+00 1.252743415534496307e-02 -6.932395696640014648e-01 -2.456292510032653809e-01
1.190000000000000000e+03 4.828065490722656250e+01 -8.280807495117187500e+00 -2.549890279769897461e+00 4.603189881891012192e-03 -7.635861635208129883e-01 -2.148264646530151367e-01
1.191000000000000000e+03 4.757411956787109375e+01 -8.996554374694824219e+00 -2.250205039978027344e+00 8.060908876359462738e-03 -6.726432442665100098e-01 -2.618872523307800293e-01
1.192000000000000000e+03 4.011111068725585938e+01 -9.151630401611328125e+00 -1.743824005126953125e+00 -1.207654736936092377e-02 -5.267701745033264160e-01 -2.780939936637878418e-01
1.193000000000000000e+03 4.088692474365234375e+01 -9.850628852844238281e+00 -1.651354193687438965e+00 -1.325923949480056763e-02 -4.993840157985687256e-01 -3.248385488986968994e-01
1.194000000000000000e+03 3.936162948608398438e+01 -9.171224594116210938e+00 -1.688381075859069824e+00 -1.245271041989326477e-02 -5.102501511573791504e-01 -2.760290503501892090e-01
1.195000000000000000e+03 3.706320571899414062e+01 -8.513987541198730469e+00 -1.633703947067260742e+00 -1.227844506502151489e-02 -4.937947094440460205e-01 -2.156345993280410767e-01
1.196000000000000000e+03 3.786464691162109375e+01 -9.213152885437011719e+00 -1.577953577041625977e+00 -1.499620825052261353e-02 -4.778849482536315918e-01 -2.718558311462402344e-01
1.197000000000000000e+03 5.207374191284179688e+01 -9.642228126525878906e+00 -2.060013771057128906e+00 5.089116096496582031e-02 -6.027368307113647461e-01 -1.774493902921676636e-01
1.198000000000000000e+03 5.052351379394531250e+01 -8.259416580200195312e+00 -2.694671154022216797e+00 8.898749947547912598e-03 -8.057317137718200684e-01 -1.972008496522903442e-01
1.199000000000000000e+03 4.981719207763671875e+01 -8.972582817077636719e+00 -2.353500604629516602e+00 1.685679703950881958e-02 -7.009931802749633789e-01 -2.359494417905807495e-01
1.200000000000000000e+03 5.280626678466796875e+01 -8.936276435852050781e+00 -2.403136253356933594e+00 3.274493291974067688e-02 -7.111173868179321289e-01 -1.666087955236434937e-01
1.201000000000000000e+03 5.730121612548828125e+01 -9.487593650817871094e+00 -1.520993947982788086e+00 2.442483007907867432e-01 -3.830236792564392090e-01 3.106621205806732178e-01
1.202000000000000000e+03 5.579401016235351562e+01 -8.879374504089355469e+00 -2.252990245819091797e+00 7.805044203996658325e-02 -6.524819731712341309e-01 -8.809389546513557434e-03
1.203000000000000000e+03 5.728778839111328125e+01 -8.846159934997558594e+00 -2.020888328552246094e+00 1.298411786556243896e-01 -5.673141479492187500e-01 1.481870412826538086e-01
1.204000000000000000e+03 5.879820251464843750e+01 -8.800879478454589844e+00 -1.593750476837158203e+00 2.377626597881317139e-01 -4.067963361740112305e-01 4.285516440868377686e-01
1.205000000000000000e+03 5.725814437866210938e+01 -8.207140922546386719e+00 -2.614651918411254883e+00 5.980684235692024231e-02 -7.664535641670227051e-01 1.568926498293876648e-02
1.206000000000000000e+03 5.653706741333007812e+01 -8.862259864807128906e+00 -2.161125898361206055e+00 1.020446345210075378e-01 -6.177243590354919434e-01 5.687524378299713135e-02
1.207000000000000000e+03 3.654945373535156250e+01 -3.455042600631713867e+00 -1.259325385093688965e+00 1.390795875340700150e-02 -3.736252188682556152e-01 3.571725785732269287e-01
1.208000000000000000e+03 3.641170120239257812e+01 -4.144015789031982422e+00 -1.312418103218078613e+00 1.229237858206033707e-02 -3.900377154350280762e-01 2.871954739093780518e-01
1.209000000000000000e+03 5.953955078125000000e+01 -8.760363578796386719e+00 -1.302649497985839844e+00 3.399625420570373535e-01 -2.888061106204986572e-01 6.553975343704223633e-01
1.210000000000000000e+03 6.026145935058593750e+01 -8.696711540222167969e+00 -9.626764655113220215e-01 4.723894298076629639e-01 -1.470861136913299561e-01 9.110759496688842773e-01
1.211000000000000000e+03 6.170966339111328125e+01 -4.224013328552246094e+00 -3.837428614497184753e-02 1.144235610961914062e+00 3.317584097385406494e-01 -1.906390428543090820e+00
1.212000000000000000e+03 6.022747802734375000e+01 -4.037823200225830078e+00 -1.019382715225219727e+00 5.183366537094116211e-01 -1.503138244152069092e-01 -9.658883213996887207e-01
1.213000000000000000e+03 5.953646850585937500e+01 -4.088903903961181641e+00 -1.496553659439086914e+00 2.819365262985229492e-01 -3.643851578235626221e-01 -6.065751910209655762e-01
1.214000000000000000e+03 3.636556625366210938e+01 -9.255401611328125000e+00 -1.466646671295166016e+00 -1.755586825311183929e-02 -4.452607631683349609e-01 -2.665165364742279053e-01
1.215000000000000000e+03 3.789173126220703125e+01 -9.933982849121093750e+00 -1.459249854087829590e+00 -1.920421794056892395e-02 -4.435362219810485840e-01 -3.185303509235382080e-01
1.216000000000000000e+03 3.405831909179687500e+01 -8.593759536743164062e+00 -1.387656927108764648e+00 -1.546515338122844696e-02 -4.209366142749786377e-01 -2.015712410211563110e-01
1.217000000000000000e+03 3.486236190795898438e+01 -9.293648719787597656e+00 -1.355247497558593750e+00 -1.985857076942920685e-02 -4.125318229198455811e-01 -2.596853971481323242e-01
1.218000000000000000e+03 5.739710998535156250e+01 -4.012487411499023438e+00 -2.180786132812500000e+00 1.265542805194854736e-01 -6.162695288658142090e-01 -1.688007265329360962e-01
1.219000000000000000e+03 5.803230667114257812e+01 -4.608951091766357422e+00 -2.621529579162597656e+00 7.764639705419540405e-02 -7.631649971008300781e-01 -1.075933128595352173e-01
1.220000000000000000e+03 5.728985214233398438e+01 -4.598453521728515625e+00 -2.759003400802612305e+00 4.768550023436546326e-02 -8.133953809738159180e-01 -3.177791088819503784e-02
1.221000000000000000e+03 5.822506713867187500e+01 -3.464622497558593750e+00 -1.460374832153320312e+00 3.039293289184570312e-01 -3.469336628913879395e-01 -4.969058632850646973e-01
1.222000000000000000e+03 5.883828735351562500e+01 -4.073406696319580078e+00 -1.789841294288635254e+00 2.145622223615646362e-01 -4.725837409496307373e-01 -4.156779348850250244e-01
1.223000000000000000e+03 5.442845535278320312e+01 -3.920650959014892578e+00 -2.513304710388183594e+00 4.905369505286216736e-02 -7.392752766609191895e-01 8.152925968170166016e-02
1.224000000000000000e+03 5.517451477050781250e+01 -3.937229871749877930e+00 -2.469540357589721680e+00 5.557169020175933838e-02 -7.241906523704528809e-01 3.911197558045387268e-02
1.225000000000000000e+03 5.666227722167968750e+01 -3.982507467269897461e+00 -2.310672521591186523e+00 8.833541721105575562e-02 -6.667011380195617676e-01 -8.188557624816894531e-02
1.226000000000000000e+03 5.591984939575195312e+01 -3.957114934921264648e+00 -2.401407480239868164e+00 7.876647263765335083e-02 -6.967923045158386230e-01 -1.836611330509185791e-02
1.227000000000000000e+03 4.917375564575195312e+01 -3.896819114685058594e+00 -2.458229064941406250e+00 5.686597432941198349e-03 -7.357627153396606445e-01 2.299508601427078247e-01
1.228000000000000000e+03 4.904299926757812500e+01 -4.578413963317871094e+00 -2.729826688766479492e+00 1.036275643855333328e-03 -8.186371326446533203e-01 1.855123788118362427e-01
1.229000000000000000e+03 5.142953109741210938e+01 -3.891849040985107422e+00 -2.543174028396606445e+00 1.735044457018375397e-02 -7.577470541000366211e-01 1.894342452287673950e-01
1.230000000000000000e+03 5.217815399169921875e+01 -3.894360065460205078e+00 -2.553809881210327148e+00 1.870122924447059631e-02 -7.605325579643249512e-01 1.702946126461029053e-01
1.231000000000000000e+03 5.367951202392578125e+01 -3.907265663146972656e+00 -2.540606975555419922e+00 3.210310637950897217e-02 -7.525511384010314941e-01 1.177732869982719421e-01
1.232000000000000000e+03 5.292777633666992188e+01 -3.898788452148437500e+00 -2.553384065628051758e+00 2.891715243458747864e-02 -7.573400735855102539e-01 1.463226526975631714e-01
1.233000000000000000e+03 3.715880584716796875e+01 -4.124083518981933594e+00 -1.391902446746826172e+00 1.177815720438957214e-02 -4.140373170375823975e-01 2.866542339324951172e-01
1.234000000000000000e+03 4.077095794677734375e+01 -4.711160182952880859e+00 -1.891356110572814941e+00 4.838333465158939362e-03 -5.659553408622741699e-01 2.043293267488479614e-01
1.235000000000000000e+03 3.865442276000976562e+01 -4.085236072540283203e+00 -1.549808144569396973e+00 1.055222563445568085e-02 -4.617767632007598877e-01 2.850252985954284668e-01
1.236000000000000000e+03 4.152234268188476562e+01 -4.693306922912597656e+00 -1.978155851364135742e+00 4.456336610019207001e-03 -5.921098589897155762e-01 2.034231424331665039e-01
1.237000000000000000e+03 4.015074157714843750e+01 -4.045260429382324219e+00 -1.704728960990905762e+00 8.699017576873302460e-03 -5.088089704513549805e-01 2.825740575790405273e-01
1.238000000000000000e+03 3.940270233154296875e+01 -4.065494060516357422e+00 -1.627303004264831543e+00 9.917422197759151459e-03 -4.852156639099121094e-01 2.840162515640258789e-01
1.239000000000000000e+03 4.842338180541992188e+01 -3.902855873107910156e+00 -2.416763067245483398e+00 6.488217040896415710e-03 -7.230824232101440430e-01 2.390265613794326782e-01
1.240000000000000000e+03 4.767084884643554688e+01 -3.908825397491455078e+00 -2.368668556213378906e+00 3.482030006125569344e-03 -7.095559835433959961e-01 2.468115389347076416e-01
1.241000000000000000e+03 5.067798995971679688e+01 -3.890647888183593750e+00 -2.522156238555908203e+00 9.913188405334949493e-03 -7.536728978157043457e-01 2.055850178003311157e-01
1.242000000000000000e+03 4.992477416992187500e+01 -3.892117977142333984e+00 -2.493682861328125000e+00 9.738128632307052612e-03 -7.451834082603454590e-01 2.188900411128997803e-01
1.243000000000000000e+03 4.390609359741210938e+01 -3.957077741622924805e+00 -2.067852258682250977e+00 5.217263009399175644e-03 -6.187905073165893555e-01 2.713170647621154785e-01
1.244000000000000000e+03 4.315372848510742188e+01 -3.971916437149047852e+00 -1.999078512191772461e+00 5.180073436349630356e-03 -5.981695055961608887e-01 2.748113572597503662e-01
1.245000000000000000e+03 4.240211486816406250e+01 -3.988307476043701172e+00 -1.927857637405395508e+00 6.649927701801061630e-03 -5.763623118400573730e-01 2.768499255180358887e-01
1.246000000000000000e+03 4.541350173950195312e+01 -3.935033321380615234e+00 -2.199032306671142578e+00 4.900631494820117950e-03 -6.582395434379577637e-01 2.635015845298767090e-01
1.247000000000000000e+03 4.691768646240234375e+01 -3.916099548339843750e+00 -2.316275119781494141e+00 4.613692872226238251e-03 -6.934984326362609863e-01 2.531279325485229492e-01
1.248000000000000000e+03 4.616540908813476562e+01 -3.925240993499755859e+00 -2.259396553039550781e+00 3.256621770560741425e-03 -6.768419742584228516e-01 2.588719725608825684e-01
1.249000000000000000e+03 3.561723327636718750e+01 -9.275511741638183594e+00 -1.410640716552734375e+00 -1.988873817026615143e-02 -4.291588366031646729e-01 -2.628733217716217041e-01
1.250000000000000000e+03 3.179124069213867188e+01 -8.643584251403808594e+00 -1.200559973716735840e+00 -1.673297956585884094e-02 -3.651878833770751953e-01 -1.893930882215499878e-01
1.251000000000000000e+03 3.259892654418945312e+01 -9.347393035888671875e+00 -1.185861349105834961e+00 -2.201214618980884552e-02 -3.623620569705963135e-01 -2.486896067857742310e-01
1.252000000000000000e+03 3.410993957519531250e+01 -9.311103820800781250e+00 -1.298954129219055176e+00 -2.133631706237792969e-02 -3.960871398448944092e-01 -2.557648122310638428e-01
1.253000000000000000e+03 3.335701370239257812e+01 -9.329204559326171875e+00 -1.243093729019165039e+00 -2.103584632277488708e-02 -3.792388737201690674e-01 -2.522386014461517334e-01
1.254000000000000000e+03 8.809256553649902344e+00 2.593751668930053711e+00 1.205831940751522779e-04 8.195737027563154697e-04 2.820470544975250959e-04 5.849006702192127705e-04
1.255000000000000000e+03 1.360026073455810547e+01 3.918401002883911133e+00 1.211858703754842281e-03 -3.894132387358695269e-04 2.467336598783731461e-04 5.772730801254510880e-04
1.256000000000000000e+03 1.257126331329345703e+01 2.533791065216064453e+00 -6.382712163031101227e-04 9.660889190854504704e-05 -1.624987053219228983e-04 -1.247072214027866721e-04
1.257000000000000000e+03 1.104662799835205078e+01 2.590734958648681641e+00 -5.810239817947149277e-04 -2.593139943201094866e-04 -2.521013957448303699e-04 -6.838700501248240471e-04
1.258000000000000000e+03 2.954757881164550781e+01 -9.397123336791992188e+00 -9.551388621330261230e-01 -1.846217177808284760e-02 -2.920803129673004150e-01 -2.349742501974105835e-01
1.259000000000000000e+03 3.031439208984375000e+01 -9.388649940490722656e+00 -1.013493895530700684e+00 -1.945641823112964630e-02 -3.098851144313812256e-01 -2.380646616220474243e-01
1.260000000000000000e+03 3.103101158142089844e+01 -8.652788162231445312e+00 -1.138004302978515625e+00 -1.567771844565868378e-02 -3.461046218872070312e-01 -1.841901540756225586e-01
1.261000000000000000e+03 3.107393074035644531e+01 -9.376615524291992188e+00 -1.070910334587097168e+00 -2.120859548449516296e-02 -3.276356756687164307e-01 -2.413907200098037720e-01
1.262000000000000000e+03 8.080239295959472656e+00 -1.847265958786010742e+00 3.890757943736389279e-05 1.892019645310938358e-04 6.843286246294155717e-05 2.060021652141585946e-04
1.263000000000000000e+03 1.253816413879394531e+01 -3.692795753479003906e+00 2.114245289703831077e-04 1.530730078229680657e-04 1.093492610380053520e-04 -4.273781087249517441e-06
1.264000000000000000e+03 7.415525913238525391e+00 -2.586286783218383789e+00 5.859687371412292123e-05 1.772614341462031007e-04 7.075748726492747664e-05 2.400455123279243708e-04
1.265000000000000000e+03 1.173940277099609375e+01 -5.608637809753417969e+00 1.706936745904386044e-04 -7.079552597133442760e-05 2.996944385813549161e-05 4.395007272250950336e-05
1.266000000000000000e+03 7.478184700012207031e+00 -4.764323234558105469e+00 -3.465526388026773930e-04 3.956215514335781336e-04 1.472068106522783637e-05 -2.797315828502178192e-04
1.267000000000000000e+03 6.562455177307128906e+00 -1.866566658020019531e+00 -1.301866177527699620e-05 1.649665646255016327e-04 4.558436921797692776e-05 1.935386244440451264e-04
1.268000000000000000e+03 6.660241603851318359e+00 -2.602178573608398438e+00 -8.430719026364386082e-05 -1.433996949344873428e-04 -6.831206701463088393e-05 -2.118175907526165247e-04
1.269000000000000000e+03 5.163200855255126953e+00 -2.679088115692138672e+00 -5.586540282820351422e-05 -1.487692061346024275e-04 -6.139038305263966322e-05 -2.547839831095188856e-04
1.270000000000000000e+03 1.668405294418334961e+00 -7.926744937896728516e+00 -5.860190140083432198e-04 3.404701783438213170e-05 -1.655915984883904457e-04 -1.412111741956323385e-04
1.271000000000000000e+03 3.927138805389404297e+00 -3.721404790878295898e+00 1.190194234368391335e-04 2.130701177520677447e-04 9.962686453945934772e-05 3.092091355938464403e-04
1.272000000000000000e+03 1.635926246643066406e+00 -6.600922107696533203e+00 6.467797211371362209e-04 -8.615211118012666702e-05 1.681882858974859118e-04 1.630418555578216910e-04
1.273000000000000000e+03 1.195756793022155762e+00 -2.134362220764160156e+00 -1.851617125794291496e-04 -8.630274533061310649e-05 -8.143933519022539258e-05 -1.341131428489461541e-04
1.274000000000000000e+03 5.607768297195434570e-01 -5.061455249786376953e+00 4.813332343474030495e-04 -1.848758984124287963e-04 8.893720223568379879e-05 4.888853800366632640e-05
1.275000000000000000e+03 2.487788963317871094e+01 -8.523309707641601562e+00 -6.089934706687927246e-01 5.968099460005760193e-03 -1.809076219797134399e-01 -1.562243402004241943e-01
1.276000000000000000e+03 2.644439315795898438e+01 -9.357822418212890625e+00 -7.210102677345275879e-01 -4.831723868846893311e-03 -2.177526056766510010e-01 -2.230060994625091553e-01
1.277000000000000000e+03 2.799785232543945312e+01 -9.390106201171875000e+00 -8.376206159591674805e-01 -1.292741764336824417e-02 -2.551644146442413330e-01 -2.288783937692642212e-01
1.278000000000000000e+03 2.874312973022460938e+01 -8.665664672851562500e+00 -9.440253376960754395e-01 -1.277532055974006653e-02 -2.870402038097381592e-01 -1.728022694587707520e-01
1.279000000000000000e+03 2.565719223022460938e+01 -9.325064659118652344e+00 -6.619887351989746094e-01 1.054966705851256847e-03 -1.982801407575607300e-01 -2.203156054019927979e-01
1.280000000000000000e+03 2.251229095458984375e+01 -9.103696823120117188e+00 -4.366580545902252197e-01 1.600743830204010010e-02 -1.261951774358749390e-01 -2.005644142627716064e-01
1.281000000000000000e+03 1.950624084472656250e+01 -8.746805191040039062e+00 -2.250063717365264893e-01 -2.309207059442996979e-02 -7.442953437566757202e-02 -1.511723548173904419e-01
1.282000000000000000e+03 2.021214103698730469e+01 -8.850125312805175781e+00 -2.752929329872131348e-01 -9.037105366587638855e-03 -8.529900759458541870e-02 -1.676068156957626343e-01
1.283000000000000000e+03 2.408730697631835938e+01 -9.230079650878906250e+00 -5.485372543334960938e-01 1.162388920783996582e-02 -1.610740125179290771e-01 -2.125714570283889771e-01
1.284000000000000000e+03 2.565617561340332031e+01 -8.578900337219238281e+00 -6.766680479049682617e-01 1.535273477202281356e-04 -2.029543519020080566e-01 -1.595103442668914795e-01
1.285000000000000000e+03 2.330018997192382812e+01 -9.171707153320312500e+00 -4.929066300392150879e-01 1.416633930057287216e-02 -1.436220854520797729e-01 -2.071679085493087769e-01
1.286000000000000000e+03 2.189082527160644531e+01 -3.559417486190795898e+00 -9.363785386085510254e-02 -7.495675981044769287e-02 -5.057838186621665955e-02 1.088742464780807495e-01
1.287000000000000000e+03 2.116491699218750000e+01 -3.396690607070922852e+00 -6.292092055082321167e-02 -7.694093137979507446e-02 -4.195855557918548584e-02 8.479297161102294922e-02
1.288000000000000000e+03 1.217331123352050781e+01 -1.949552345275878906e+01 -2.892316877841949463e-01 -3.756669461727142334e-01 -1.994695812463760376e-01 -2.675947248935699463e-01
1.289000000000000000e+03 3.628076791763305664e+00 -1.966990470886230469e+01 -5.062482506036758423e-02 -5.273655802011489868e-02 -3.100841492414474487e-02 -5.637158080935478210e-02
1.290000000000000000e+03 1.276675796508789062e+01 1.938112449645996094e+01 -7.323924899101257324e-01 -9.594910740852355957e-01 -5.075650811195373535e-01 7.051234245300292969e-01
1.291000000000000000e+03 8.966043472290039062e+00 2.053347206115722656e+01 -5.051491260528564453e-01 -2.996189296245574951e-01 -2.414304167032241821e-01 4.970090985298156738e-01
1.292000000000000000e+03 1.967829704284667969e+01 7.690154552459716797e+00 -2.655246853828430176e-01 -1.151596426963806152e+00 -4.251363277435302734e-01 5.618884563446044922e-01
1.293000000000000000e+03 1.962296295166015625e+01 9.290100097656250000e+00 -4.241666197776794434e-01 -1.218256235122680664e+00 -4.927268624305725098e-01 6.655379533767700195e-01
1.294000000000000000e+03 1.393636226654052734e+01 1.835830879211425781e+01 -8.546414375305175781e-01 -1.121055841445922852e+00 -5.927091836929321289e-01 8.043847680091857910e-01
1.295000000000000000e+03 1.403938770294189453e+01 1.643572044372558594e+01 -1.237530112266540527e+00 -1.352095842361450195e+00 -7.768877744674682617e-01 1.221781134605407715e+00
1.296000000000000000e+03 1.719247436523437500e+01 1.175481796264648438e+01 -4.991723895072937012e-01 -1.905909419059753418e+00 -7.215245366096496582e-01 9.146487116813659668e-01
1.297000000000000000e+03 1.683169174194335938e+01 1.490606784820556641e+01 -8.460589647293090820e-01 -1.517024517059326172e+00 -7.089250683784484863e-01 8.911699056625366211e-01
1.298000000000000000e+03 1.980003356933593750e+01 2.170438289642333984e+00 -4.499166831374168396e-02 -4.775395989418029785e-01 -1.567593812942504883e-01 2.109292894601821899e-01
1.299000000000000000e+03 6.302664279937744141e-01 1.622808647155761719e+01 1.240217010490596294e-03 3.706713393330574036e-02 1.149220485240221024e-02 -7.528845220804214478e-03
1.300000000000000000e+03 1.973727226257324219e+01 6.234423637390136719e+00 -1.783686131238937378e-01 -9.973028898239135742e-01 -3.527014553546905518e-01 4.381940364837646484e-01
1.301000000000000000e+03 1.840999221801757812e+01 1.235670089721679688e+01 -5.855464339256286621e-01 -1.500233650207519531e+00 -6.257340312004089355e-01 7.980872988700866699e-01
1.302000000000000000e+03 1.500767612457275391e+01 1.726890563964843750e+01 -9.095169305801391602e-01 -1.331585884094238281e+00 -6.723308563232421875e-01 8.867312073707580566e-01
1.303000000000000000e+03 1.881819915771484375e+01 8.002188801765441895e-01 -3.436512779444456100e-03 -2.645947635173797607e-01 -8.040938526391983032e-02 4.936671629548072815e-02
1.304000000000000000e+03 1.975347900390625000e+01 9.035597443580627441e-01 -2.728472091257572174e-02 -3.340800404548645020e-01 -1.084094345569610596e-01 1.531994640827178955e-01
1.305000000000000000e+03 1.762518119812011719e+01 1.365784454345703125e+01 -7.185755968093872070e-01 -1.548945546150207520e+00 -6.802563667297363281e-01 9.018934369087219238e-01
1.306000000000000000e+03 2.275180625915527344e+01 -1.267118096351623535e+00 -1.548030078411102295e-01 -1.902440637350082397e-01 -1.035141199827194214e-01 2.702827155590057373e-01
1.307000000000000000e+03 1.885463142395019531e+01 -1.750347018241882324e+00 -2.664165804162621498e-03 -5.473542213439941406e-02 -1.721987687051296234e-02 2.312448807060718536e-02
1.308000000000000000e+03 2.887416839599609375e+00 -1.697795867919921875e+01 -7.255121599882841110e-03 -1.392942201346158981e-02 -6.355363409966230392e-03 4.321173299103975296e-03
1.309000000000000000e+03 5.815691947937011719e-01 -1.766606330871582031e+01 -3.076361259445548058e-03 3.221629187464714050e-02 8.741978555917739868e-03 2.897332189604640007e-03
1.310000000000000000e+03 1.263232803344726562e+01 -1.816101837158203125e+01 -4.046118855476379395e-01 -3.601415455341339111e-01 -2.294260263442993164e-01 -3.131940960884094238e-01
1.311000000000000000e+03 1.026259136199951172e+01 -2.511934280395507812e+00 -1.577783950779121369e-05 2.855439670383930206e-04 8.092983625829219818e-05 1.954297040356323123e-04
1.312000000000000000e+03 1.641163635253906250e+01 -1.039254379272460938e+01 -1.440273672342300415e-01 -2.368412315845489502e-01 -1.142605766654014587e-01 -1.897132247686386108e-01
1.313000000000000000e+03 1.715524482727050781e+01 -1.112272071838378906e+01 -2.489141672849655151e-01 -1.811369508504867554e-01 -1.290153264999389648e-01 -2.497604042291641235e-01
1.314000000000000000e+03 1.572101211547851562e+01 -1.155777359008789062e+01 -2.033038437366485596e-01 -3.413166403770446777e-01 -1.633861511945724487e-01 -2.610368132591247559e-01
1.315000000000000000e+03 2.016817283630371094e+01 -9.789065361022949219e+00 -3.245597779750823975e-01 -2.036625146865844727e-02 -1.034778133034706116e-01 -2.254341691732406616e-01
1.316000000000000000e+03 1.342805671691894531e+01 -1.692603492736816406e+01 -4.219721853733062744e-01 -3.685653507709503174e-01 -2.371612638235092163e-01 -3.716524243354797363e-01
1.317000000000000000e+03 1.648834991455078125e+01 -1.225728130340576172e+01 -2.986616492271423340e-01 -2.453568875789642334e-01 -1.632055640220642090e-01 -2.955521047115325928e-01
1.318000000000000000e+03 1.363884925842285156e+01 -3.802693128585815430e+00 -3.188916016370058060e-04 -1.593748020241037011e-04 -1.434799196431413293e-04 2.768768717942293733e-05
1.319000000000000000e+03 1.577052021026611328e+01 -1.342223834991455078e+01 -3.506541848182678223e-01 -3.052313923835754395e-01 -1.967656761407852173e-01 -3.293043971061706543e-01
1.320000000000000000e+03 1.820804214477539062e+01 -7.610315322875976562e+00 -7.334788888692855835e-02 -3.829502314329147339e-02 -3.349287435412406921e-02 -6.370160728693008423e-02
1.321000000000000000e+03 1.811259269714355469e+01 -9.255887031555175781e+00 -1.751681864261627197e-01 -8.926838636398315430e-02 -7.933096587657928467e-02 -1.636965721845626831e-01
1.322000000000000000e+03 1.501551532745361328e+01 -1.459124565124511719e+01 -3.761790990829467773e-01 -3.487030863761901855e-01 -2.174646556377410889e-01 -3.494679629802703857e-01
1.323000000000000000e+03 1.048126792907714844e+01 -9.201429367065429688e+00 1.769701611920027062e-06 -3.770356706809252501e-04 -1.125797862187027931e-04 4.692537913797423244e-05
1.324000000000000000e+03 9.464588165283203125e+00 -8.668399810791015625e+00 -1.116727507906034589e-04 4.861624329350888729e-04 1.123469046433456242e-04 -2.617935533635318279e-04
1.325000000000000000e+03 1.105912876129150391e+01 -6.603871822357177734e+00 -1.045911340042948723e-04 6.011763616697862744e-05 -1.334204989689169452e-05 -9.199170017382130027e-05
1.326000000000000000e+03 1.027997398376464844e+01 -7.618792057037353516e+00 1.602382835699245334e-04 -3.941931936424225569e-04 -7.018647011136636138e-05 1.515514013590291142e-04
1.327000000000000000e+03 1.695631861686706543e+00 -1.066376018524169922e+01 -2.689653483685106039e-04 4.914964083582162857e-04 6.675931217614561319e-05 9.475302649661898613e-04
1.328000000000000000e+03 8.172055244445800781e+00 -1.262086772918701172e+01 7.264586165547370911e-04 2.259411616250872612e-03 8.957610698416829109e-04 -1.111641176976263523e-03
1.329000000000000000e+03 1.042785167694091797e+01 -4.028802871704101562e+00 -4.643519787350669503e-05 8.134481322485953569e-05 1.047288424160797149e-05 -1.140401000156998634e-04
1.330000000000000000e+03 7.773066711425781250e+01 3.302693176269531250e+01 5.292125046253204346e-03 7.729271411895751953e+00 2.320369005203247070e+00 -5.186997354030609131e-02
1.331000000000000000e+03 7.914383697509765625e+01 3.605126953125000000e+01 -1.521652843803167343e-02 7.882312774658203125e+00 2.360128879547119141e+00 -3.492898866534233093e-02
1.332000000000000000e+03 7.937711334228515625e+01 -2.780061912536621094e+01 -2.389123663306236267e-03 8.907176017761230469e+00 2.671436071395874023e+00 -1.343237422406673431e-02
1.333000000000000000e+03 7.732187652587890625e+01 -3.794388961791992188e+01 -2.392213605344295502e-02 8.368473052978515625e+00 2.503365278244018555e+00 8.265682309865951538e-02
1.334000000000000000e+03 7.933950042724609375e+01 -3.477200317382812500e+01 -1.373182330280542374e-02 8.813455581665039062e+00 2.639917135238647461e+00 2.088341861963272095e-02
1.335000000000000000e+03 7.942339324951171875e+01 -2.086708259582519531e+01 -1.192160882055759430e-02 8.436804771423339844e+00 2.527465105056762695e+00 -1.034364998340606689e-01
1.336000000000000000e+03 7.815277099609375000e+01 -2.764258766174316406e+01 -1.937955617904663086e-02 8.625911712646484375e+00 2.581959724426269531e+00 -2.614803798496723175e-02
1.337000000000000000e+03 7.821817779541015625e+01 -2.625625610351562500e+01 -2.438501827418804169e-02 8.621776580810546875e+00 2.579217433929443359e+00 -5.442059040069580078e-02
1.338000000000000000e+03 7.931501770019531250e+01 -3.061190223693847656e+01 -5.467534065246582031e-03 8.899662971496582031e+00 2.668258666992187500e+00 2.517743036150932312e-03
1.339000000000000000e+03 7.798435974121093750e+01 -3.469762039184570312e+01 -4.140271921642124653e-04 8.538709640502929688e+00 2.561488628387451172e+00 3.518642485141754150e-02
1.340000000000000000e+03 7.787907409667968750e+01 -3.334937286376953125e+01 -1.273026969283819199e-02 8.532971382141113281e+00 2.556072235107421875e+00 4.896357655525207520e-02
1.341000000000000000e+03 7.363005065917968750e+01 -3.817873001098632812e+01 1.427524350583553314e-02 7.486853599548339844e+00 2.250338554382324219e+00 4.400934651494026184e-02
1.342000000000000000e+03 7.642901611328125000e+01 -3.905907440185546875e+01 -3.328244434669613838e-03 8.331125259399414062e+00 2.498339176177978516e+00 3.736597299575805664e-02
1.343000000000000000e+03 7.789548492431640625e+01 1.397589015960693359e+01 -3.201244026422500610e-02 8.412132263183593750e+00 2.514035940170288086e+00 1.563658379018306732e-02
1.344000000000000000e+03 7.930576324462890625e+01 1.535593509674072266e+01 -4.455828573554754257e-03 8.714131355285644531e+00 2.612902879714965820e+00 3.094038460403680801e-03
1.345000000000000000e+03 7.798957824707031250e+01 2.107538795471191406e+01 -6.661067251116037369e-03 8.233124732971191406e+00 2.467938899993896484e+00 -8.746376633644104004e-02
1.346000000000000000e+03 7.934971618652343750e+01 2.233783340454101562e+01 -2.245981711894273758e-03 8.449089050292968750e+00 2.534052848815917969e+00 -2.471628412604331970e-02
1.347000000000000000e+03 7.781005859375000000e+01 3.168914794921875000e+01 4.112767055630683899e-03 7.779934406280517578e+00 2.335214138031005859e+00 -6.280923634767532349e-02
1.348000000000000000e+03 7.808725738525390625e+01 2.774242782592773438e+01 3.702550427988171577e-03 7.956178188323974609e+00 2.387964248657226562e+00 -7.539710402488708496e-02
1.349000000000000000e+03 7.936595153808593750e+01 2.783126640319824219e+01 1.386658754199743271e-03 8.178058624267578125e+00 2.453833818435668945e+00 -2.218362689018249512e-02
1.350000000000000000e+03 7.809699249267578125e+01 2.509538269042968750e+01 3.669748548418283463e-03 8.072854042053222656e+00 2.422957181930541992e+00 -8.594897389411926270e-02
1.351000000000000000e+03 7.805304718017578125e+01 2.377777290344238281e+01 3.483158652670681477e-04 8.127740859985351562e+00 2.438426733016967773e+00 -8.837881684303283691e-02
1.352000000000000000e+03 7.795437622070312500e+01 1.827332115173339844e+01 -1.331388112157583237e-02 8.330723762512207031e+00 2.495222806930541992e+00 -6.685372442007064819e-02
1.353000000000000000e+03 7.790536499023437500e+01 1.541131496429443359e+01 -2.722991630434989929e-02 8.400669097900390625e+00 2.512031793594360352e+00 -2.003500796854496002e-02
1.354000000000000000e+03 7.792935180664062500e+01 1.684702110290527344e+01 -2.067254297435283661e-02 8.370706558227539062e+00 2.505010128021240234e+00 -4.845009371638298035e-02
1.355000000000000000e+03 7.791515350341796875e+01 1.254488468170166016e+01 -4.155967757105827332e-02 8.408452987670898438e+00 2.510068178176879883e+00 5.640088766813278198e-02
1.356000000000000000e+03 7.661337280273437500e+01 1.102546596527099609e+01 -1.292392909526824951e-01 8.174362182617187500e+00 2.413536787033081055e+00 1.466165184974670410e-01
1.357000000000000000e+03 7.813050079345703125e+01 8.288067817687988281e+00 -6.186539307236671448e-02 8.220959663391113281e+00 2.447728157043457031e+00 2.485382854938507080e-01
1.358000000000000000e+03 7.935059356689453125e+01 9.743782043457031250e+00 -1.256445609033107758e-02 8.554462432861328125e+00 2.562569379806518555e+00 7.371005415916442871e-02
1.359000000000000000e+03 7.945112609863281250e+01 -1.391633796691894531e+01 -1.748902956023812294e-03 6.427686214447021484e+00 1.927781224250793457e+00 -2.305813431739807129e-01
1.360000000000000000e+03 7.948316955566406250e+01 -6.968086719512939453e+00 3.161207586526870728e-02 4.264826774597167969e+00 1.288931727409362793e+00 -2.947843074798583984e-02
1.361000000000000000e+03 7.942459106445312500e+01 -1.947816467285156250e+01 -1.228276919573545456e-02 8.181712150573730469e+00 2.450828790664672852e+00 -1.333002001047134399e-01
1.362000000000000000e+03 7.833129882812500000e+01 -3.135031461715698242e-02 5.182010587304830551e-03 6.454755783081054688e+00 1.937981367111206055e+00 6.282482147216796875e-01
1.363000000000000000e+03 7.943540191650390625e+01 1.382559299468994141e+00 -4.771405830979347229e-03 6.519686698913574219e+00 1.954474687576293945e+00 2.347761839628219604e-01
1.364000000000000000e+03 7.819091796875000000e+01 6.890754699707031250e+00 -6.559831649065017700e-02 8.064268112182617188e+00 2.399600982666015625e+00 3.270250558853149414e-01
1.365000000000000000e+03 7.800178527832031250e+01 2.906335639953613281e+01 4.870910197496414185e-03 7.889847755432128906e+00 2.368415594100952148e+00 -7.259873300790786743e-02
1.366000000000000000e+03 7.452144622802734375e+01 3.845891189575195312e+01 2.280051261186599731e-02 7.139796257019042969e+00 2.148778915405273438e+00 -3.760281577706336975e-02
1.367000000000000000e+03 7.404917907714843750e+01 3.665318298339843750e+01 2.736501395702362061e-02 7.032052993774414062e+00 2.117825508117675781e+00 -8.943683654069900513e-02
1.368000000000000000e+03 7.805689239501953125e+01 9.697193145751953125e+00 -5.929150804877281189e-02 8.325602531433105469e+00 2.479893207550048828e+00 1.768802404403686523e-01
1.369000000000000000e+03 7.722619628906250000e+01 -8.154131472110748291e-02 7.085553370416164398e-03 6.936336517333984375e+00 2.083026647567749023e+00 9.057384133338928223e-01
1.370000000000000000e+03 7.828725433349609375e+01 2.731926202774047852e+00 -4.684067517518997192e-02 7.236058235168457031e+00 2.156765222549438477e+00 5.658307075500488281e-01
1.371000000000000000e+03 7.836188507080078125e+01 -1.420076966285705566e+00 4.668685421347618103e-02 6.041801452636718750e+00 1.826546430587768555e+00 5.867455601692199707e-01
1.372000000000000000e+03 7.946176910400390625e+01 -2.791291236877441406e+00 1.941495016217231750e-02 4.902048587799072266e+00 1.476439118385314941e+00 1.837691068649291992e-01
1.373000000000000000e+03 7.845721435546875000e+01 -8.362025260925292969e+00 1.217607706785202026e-01 5.306609630584716797e+00 1.628511071205139160e+00 -2.888276278972625732e-01
1.374000000000000000e+03 7.844068145751953125e+01 -5.596669197082519531e+00 1.355363577604293823e-01 5.196923732757568359e+00 1.599738001823425293e+00 1.268454641103744507e-01
1.375000000000000000e+03 7.948031616210937500e+01 -9.746902465820312500e+00 2.013966068625450134e-02 4.811238288879394531e+00 1.449413418769836426e+00 -1.676041781902313232e-01
1.376000000000000000e+03 7.838408660888671875e+01 -1.249841594696044922e+01 1.332824863493442535e-02 6.364738941192626953e+00 1.913420081138610840e+00 -6.108437180519104004e-01
1.377000000000000000e+03 7.943314361572265625e+01 -1.669647979736328125e+01 -1.064187753945589066e-02 7.445927619934082031e+00 2.230585575103759766e+00 -1.936364769935607910e-01
1.378000000000000000e+03 7.827109527587890625e+01 -2.080370712280273438e+01 -5.463903397321701050e-02 8.281237602233886719e+00 2.467979431152343750e+00 -2.658674418926239014e-01
1.379000000000000000e+03 7.827438354492187500e+01 -1.942387962341308594e+01 -6.046446040272712708e-02 8.089369773864746094e+00 2.408671617507934570e+00 -3.453877866268157959e-01
1.380000000000000000e+03 7.627122879028320312e+00 2.002650642395019531e+01 -4.324959814548492432e-01 -6.677770614624023438e-02 -1.497821062803268433e-01 2.396951019763946533e-01
1.381000000000000000e+03 9.020955085754394531e+00 1.888337898254394531e+01 -5.380293726921081543e-01 -1.078685969114303589e-01 -1.937693953514099121e-01 2.445377558469772339e-01
1.382000000000000000e+03 1.345260620117187500e+00 -4.004741668701171875e+01 6.278191693127155304e-03 -6.083266735076904297e-01 -1.806145459413528442e-01 -1.146450173109769821e-03
1.383000000000000000e+03 8.357315659523010254e-01 3.735575866699218750e+01 4.484459757804870605e-03 -8.919649720191955566e-01 -2.662441730499267578e-01 1.577442139387130737e-02
1.384000000000000000e+03 7.314328551292419434e-01 3.460068893432617188e+01 4.028545692563056946e-03 -8.056162595748901367e-01 -2.404763102531433105e-01 3.295423835515975952e-02
1.385000000000000000e+03 6.936143040657043457e-01 3.321501541137695312e+01 6.773028871975839138e-04 -7.358183264732360840e-01 -2.205423116683959961e-01 3.803809359669685364e-02
1.386000000000000000e+03 6.311882734298706055e-01 2.763339424133300781e+01 2.021125110331922770e-04 -3.404378890991210938e-01 -1.020707339048385620e-01 4.932995885610580444e-02
1.387000000000000000e+03 6.429216265678405762e-01 2.622700119018554688e+01 2.816206833813339472e-04 -2.304261624813079834e-01 -6.904336065053939819e-02 4.987931996583938599e-02
1.388000000000000000e+03 5.933461785316467285e-01 -3.600054550170898438e+01 1.167846145108342171e-03 -5.822137594223022461e-01 -1.743137836456298828e-01 -7.962229661643505096e-03
1.389000000000000000e+03 2.402334451675415039e+00 -3.323668670654296875e+01 1.465601939707994461e-02 -4.664134979248046875e-01 -1.355272531509399414e-01 -7.081083953380584717e-02
1.390000000000000000e+03 3.254803895950317383e+00 2.624232482910156250e+01 -1.279305201023817062e-02 -3.480896651744842529e-01 -1.082648187875747681e-01 2.113023400306701660e-01
1.391000000000000000e+03 3.203342199325561523e+00 2.479211616516113281e+01 -2.783156000077724457e-02 -2.732475697994232178e-01 -9.032373130321502686e-02 2.018652111291885376e-01
1.392000000000000000e+03 2.105154037475585938e+00 3.300403976440429688e+01 1.645016483962535858e-02 -6.931363344192504883e-01 -2.030058503150939941e-01 1.146927401423454285e-01
1.393000000000000000e+03 2.652526855468750000e+00 3.816049194335937500e+01 2.036658860743045807e-02 -8.648462891578674316e-01 -2.533439099788665771e-01 4.894474893808364868e-02
1.394000000000000000e+03 3.342736005783081055e+00 3.916112899780273438e+01 1.769507303833961487e-02 -8.700437545776367188e-01 -2.557046115398406982e-01 6.164271384477615356e-02
1.395000000000000000e+03 2.192299365997314453e+00 -3.034103775024414062e+01 9.760802611708641052e-03 -3.812701106071472168e-01 -1.114527955651283264e-01 -8.744234591722488403e-02
1.396000000000000000e+03 2.024651765823364258e+00 -2.754656791687011719e+01 3.319963812828063965e-03 -2.769638895988464355e-01 -8.209317922592163086e-02 -9.225765615701675415e-02
1.397000000000000000e+03 2.327969551086425781e+00 -3.656913375854492188e+01 1.236553117632865906e-02 -5.425125360488891602e-01 -1.590441018342971802e-01 -4.294991493225097656e-02
1.398000000000000000e+03 5.345052719116210938e+00 -1.760802078247070312e+01 -5.093828961253166199e-02 -2.601695433259010315e-02 -2.308657206594944000e-02 -2.961067715659737587e-03
1.399000000000000000e+03 5.977247357368469238e-01 2.052385902404785156e+01 -4.855726379901170731e-03 5.450578406453132629e-02 1.489501725882291794e-02 6.164704915136098862e-03
1.400000000000000000e+03 6.296533942222595215e-01 1.909725952148437500e+01 -1.903700642287731171e-03 6.025004386901855469e-02 1.750390231609344482e-02 -1.762156956829130650e-03
1.401000000000000000e+03 6.294780969619750977e-01 1.481460189819335938e+01 1.877430768217891455e-04 2.194259501993656158e-02 6.639101542532444000e-03 -5.692339036613702774e-03
1.402000000000000000e+03 6.151849031448364258e-01 1.341419124603271484e+01 1.799598336219787598e-03 1.091105304658412933e-02 3.813195275142788887e-03 -3.776445752009749413e-03
1.403000000000000000e+03 5.107702612876892090e-01 7.819489479064941406e+00 5.260236139292828739e-05 -2.830307639669626951e-04 -6.912852404639124870e-05 -1.818612799979746342e-04
1.404000000000000000e+03 5.945854187011718750e-01 -1.908576965332031250e+01 -1.649952493607997894e-03 3.185675665736198425e-02 9.062040597200393677e-03 -2.483451506122946739e-03
1.405000000000000000e+03 1.696367263793945312e+00 -9.282525062561035156e+00 1.199973397888243198e-03 3.167547765769995749e-05 3.694946644827723503e-04 6.025458569638431072e-04
1.406000000000000000e+03 4.969093322753906250e+00 -4.029930496215820312e+01 3.358877822756767273e-02 -5.187501907348632812e-01 -1.455484181642532349e-01 -3.795143216848373413e-02
1.407000000000000000e+03 3.463010072708129883e+00 -3.909518051147460938e+01 1.890352927148342133e-02 -5.634893774986267090e-01 -1.633757501840591431e-01 -3.801470994949340820e-02
1.408000000000000000e+03 4.722906112670898438e+00 -3.613679885864257812e+01 4.134019836783409119e-02 -4.850817918777465820e-01 -1.331224888563156128e-01 -8.479724824428558350e-02
1.409000000000000000e+03 1.635426759719848633e+00 -3.536832046508789062e+01 9.436048567295074463e-03 -5.281291604042053223e-01 -1.556079238653182983e-01 -3.691576421260833740e-02
1.410000000000000000e+03 2.304595232009887695e+00 -3.177402687072753906e+01 6.405070424079895020e-03 -4.255676269531250000e-01 -1.257487684488296509e-01 -8.058457076549530029e-02
1.411000000000000000e+03 3.363710880279541016e+00 -2.748000526428222656e+01 1.457134960219264030e-03 -2.870087921619415283e-01 -8.566549420356750488e-02 -1.398660093545913696e-01
1.412000000000000000e+03 1.973142266273498535e+00 -2.469999504089355469e+01 -5.268147680908441544e-03 -1.637784540653228760e-01 -5.071398243308067322e-02 -8.197625726461410522e-02
1.413000000000000000e+03 1.993391394615173340e+00 -2.614202690124511719e+01 -5.426802672445774078e-03 -2.192415893077850342e-01 -6.740051507949829102e-02 -9.151940792798995972e-02
1.414000000000000000e+03 5.861085057258605957e-01 -2.050947952270507812e+01 -4.882093053311109543e-03 1.470390986651182175e-02 2.946544904261827469e-03 -1.075466629117727280e-02
1.415000000000000000e+03 2.934824705123901367e+00 -2.156357002258300781e+01 -3.102515265345573425e-02 -8.373257517814636230e-02 -3.442731872200965881e-02 -8.062390238046646118e-02
1.416000000000000000e+03 1.625873804092407227e+00 -1.606940841674804688e+01 3.948081284761428833e-04 5.398349836468696594e-03 1.737947459332644939e-03 8.812310174107551575e-03
1.417000000000000000e+03 1.661186575889587402e+00 -1.205598545074462891e+01 2.273033605888485909e-03 1.193792675621807575e-03 1.040047849528491497e-03 2.500511007383465767e-03
1.418000000000000000e+03 5.475232005119323730e-01 -1.208172893524169922e+01 -1.052258769050240517e-03 2.657192759215831757e-03 4.814801795873790979e-04 8.718454046174883842e-04
1.419000000000000000e+03 8.695648193359375000e+00 -9.779257774353027344e+00 2.265557559439912438e-04 -7.648563478142023087e-04 -1.614901702851057053e-04 4.265405004844069481e-04
1.420000000000000000e+03 5.310122013092041016e+00 -3.439784526824951172e+00 2.915871664299629629e-05 2.564583555795252323e-04 8.568511839257553220e-05 2.738590701483190060e-04
1.421000000000000000e+03 3.686816453933715820e+00 -2.886881828308105469e+00 -1.334224652964621782e-04 -1.018773764371871948e-04 -7.058995106490328908e-05 -2.683485217858105898e-04
1.422000000000000000e+03 2.919009208679199219e+00 -3.084632396697998047e+00 2.053669595625251532e-04 5.587374107562936842e-05 7.837220618966966867e-05 1.610265753697603941e-04
1.423000000000000000e+03 1.369497179985046387e+00 -3.377937555313110352e+00 1.005383383017033339e-04 1.521103986306115985e-04 7.579461816931143403e-05 1.293610548600554466e-04
1.424000000000000000e+03 4.508446753025054932e-01 5.055994033813476562e+00 -2.432687324471771717e-04 -3.691046731546521187e-04 -1.837120216805487871e-04 -1.113872203859500587e-04
1.425000000000000000e+03 1.651435256004333496e+00 1.043176364898681641e+01 1.486820867285132408e-03 9.245229302905499935e-04 7.234031218104064465e-04 -1.187772606499493122e-03
1.426000000000000000e+03 5.497851967811584473e-01 1.061062431335449219e+01 7.044303347356617451e-04 1.304624136537313461e-03 6.027163472026586533e-04 -9.312276379205286503e-04
1.427000000000000000e+03 1.880478382110595703e+00 1.318274784088134766e+01 4.107442684471607208e-03 2.843357156962156296e-03 2.085239859297871590e-03 -7.391621358692646027e-03
1.428000000000000000e+03 1.913494825363159180e+00 1.457670593261718750e+01 4.220563918352127075e-03 3.723297500982880592e-03 2.383158542215824127e-03 -1.214927341789007187e-02
1.429000000000000000e+03 1.883770227432250977e+00 1.600570678710937500e+01 2.185598248615860939e-03 5.867222324013710022e-03 2.415846101939678192e-03 -1.558253634721040726e-02
1.430000000000000000e+03 1.938603401184082031e+00 2.476322746276855469e+01 -2.028360404074192047e-02 -2.058650255203247070e-01 -6.784459203481674194e-02 1.280231177806854248e-01
1.431000000000000000e+03 9.347086906433105469e+00 1.103371334075927734e+01 -2.335854806005954742e-04 4.471422638744115829e-03 1.271351124159991741e-03 1.227776054292917252e-03
1.432000000000000000e+03 1.244465351104736328e+01 8.452043533325195312e+00 1.978847198188304901e-03 1.617747358977794647e-03 1.078978297300636768e-03 1.724159461446106434e-03
1.433000000000000000e+03 1.467734336853027344e+01 4.923339843750000000e+00 1.349426340311765671e-03 -6.785667210351675749e-05 3.844708844553679228e-04 1.975609920918941498e-04
1.434000000000000000e+03 1.181705093383789062e+01 2.569766283035278320e+00 6.401243153959512711e-04 3.447060225880704820e-05 2.023784763878211379e-04 3.554647555574774742e-04
1.435000000000000000e+03 1.038809585571289062e+01 1.339853096008300781e+01 -5.669703707098960876e-03 -3.628606209531426430e-03 -2.789492951706051826e-03 -4.449172876775264740e-03
1.436000000000000000e+03 8.487409591674804688e+00 1.036353588104248047e+01 1.127104274928569794e-03 -7.792561082169413567e-04 1.043544616550207138e-04 9.917198913171887398e-04
1.437000000000000000e+03 8.444270133972167969e+00 1.382388496398925781e+01 -2.062389859929680824e-03 4.858521278947591782e-03 8.388394489884376526e-04 -3.544082399457693100e-03
1.438000000000000000e+03 1.176453495025634766e+01 3.354608774185180664e+00 -9.215684840455651283e-04 -1.744064793456345797e-04 -3.287924919277429581e-04 -9.443963645026087761e-04
1.439000000000000000e+03 7.309765338897705078e+00 -1.210936546325683594e+01 1.404074282618239522e-04 -1.087872442440129817e-04 9.486057024332694709e-06 7.075543544488027692e-05
1.440000000000000000e+03 7.987862110137939453e+00 -1.093454647064208984e+01 -2.148976345779374242e-04 1.777102239429950714e-03 4.686613683588802814e-04 -8.223211625590920448e-04
1.441000000000000000e+03 6.326534271240234375e+01 -8.461685180664062500e+00 1.692573308944702148e+00 3.879212856292724609e+00 1.671535849571228027e+00 4.292312622070312500e+00
1.442000000000000000e+03 6.297723388671875000e+01 -8.081425666809082031e+00 1.358654260635375977e+00 2.208202123641967773e+00 1.070056915283203125e+00 3.212168931961059570e+00
1.443000000000000000e+03 6.419221496582031250e+01 -8.065409660339355469e+00 2.315369606018066406e+00 7.977067470550537109e+00 3.087731122970581055e+00 6.404684543609619141e+00
1.444000000000000000e+03 6.398225021362304688e+01 -8.050808906555175781e+00 2.447141647338867188e+00 6.502384185791015625e+00 2.684857845306396484e+00 5.968204021453857422e+00
1.445000000000000000e+03 6.504574584960937500e+01 -8.107296943664550781e+00 6.935192942619323730e-01 1.641021347045898438e+01 5.131120204925537109e+00 5.567010879516601562e+00
1.446000000000000000e+03 6.574897766113281250e+01 -8.568691253662109375e+00 -5.042348429560661316e-02 1.746414756774902344e+01 5.224117279052734375e+00 2.078297853469848633e+00
1.447000000000000000e+03 6.499835968017578125e+01 -4.753194332122802734e+00 7.436026334762573242e-01 1.657328987121582031e+01 5.195067882537841797e+00 -6.008448600769042969e+00
1.448000000000000000e+03 6.339783477783203125e+01 -4.761473655700683594e+00 1.933820247650146484e+00 3.220342874526977539e+00 1.546249032020568848e+00 -4.148561954498291016e+00
1.449000000000000000e+03 6.296226119995117188e+01 -4.422344684600830078e+00 1.348732352256774902e+00 2.748640060424804688e+00 1.229211807250976562e+00 -3.519010066986083984e+00
1.450000000000000000e+03 6.241606521606445312e+01 -4.682131767272949219e+00 4.414685368537902832e-01 1.304890990257263184e+00 5.239078998565673828e-01 -2.189771175384521484e+00
1.451000000000000000e+03 6.314186477661132812e+01 -4.583936691284179688e+00 1.576439261436462402e+00 2.997583627700805664e+00 1.372206926345825195e+00 -3.780803442001342773e+00
1.452000000000000000e+03 6.422297668457031250e+01 -4.492688179016113281e+00 1.690335035324096680e+00 8.959502220153808594e+00 3.194951057434082031e+00 -6.212558746337890625e+00
1.453000000000000000e+03 6.400751495361328125e+01 -4.416603565216064453e+00 1.812243700027465820e+00 7.476584911346435547e+00 2.786648511886596680e+00 -5.868890285491943359e+00
1.454000000000000000e+03 6.525742340087890625e+01 -8.062236785888671875e+00 4.476163685321807861e-01 1.844430351257324219e+01 5.667576313018798828e+00 4.603705406188964844e+00
1.455000000000000000e+03 6.615736389160156250e+01 -4.703678607940673828e+00 1.521783590316772461e+00 1.924268341064453125e+01 6.229340076446533203e+00 3.753111958503723145e-01
1.456000000000000000e+03 6.575173950195312500e+01 -4.410533905029296875e+00 1.560967117547988892e-01 1.825808334350585938e+01 5.524253845214843750e+00 -1.934136390686035156e+00
1.457000000000000000e+03 6.680813598632812500e+01 -6.451850414276123047e+00 1.016765022277832031e+01 1.630103683471679688e+01 7.940606117248535156e+00 -2.367535531520843506e-01
1.458000000000000000e+03 6.624829101562500000e+01 -7.645936965942382812e+00 3.847812891006469727e+00 2.006704711914062500e+01 7.174458026885986328e+00 -1.810811161994934082e+00
1.459000000000000000e+03 6.668341827392578125e+01 -7.120376110076904297e+00 7.896463871002197266e+00 1.757081794738769531e+01 7.640184879302978516e+00 -2.520238399505615234e+00
1.460000000000000000e+03 6.536347961425781250e+01 -8.390635490417480469e+00 3.544903302099555731e-04 1.727478981018066406e+01 5.182543277740478516e+00 3.734105587005615234e+00
1.461000000000000000e+03 6.513573455810546875e+01 -4.436344146728515625e+00 8.550620824098587036e-02 1.630440521240234375e+01 4.916973590850830078e+00 -4.846417903900146484e+00
1.462000000000000000e+03 6.205808258056640625e+01 -8.474928855895996094e+00 3.930273056030273438e-01 1.298563480377197266e+00 5.074772238731384277e-01 2.196584224700927734e+00
1.463000000000000000e+03 6.239781951904296875e+01 -8.373739242553710938e+00 7.697701454162597656e-01 1.691451191902160645e+00 7.383663654327392578e-01 2.555691242218017578e+00
1.464000000000000000e+03 6.212701034545898438e+01 -4.272661685943603516e+00 4.050130248069763184e-01 1.409732937812805176e+00 5.444238185882568359e-01 -2.309451818466186523e+00
1.465000000000000000e+03 6.243898773193359375e+01 -4.285303592681884766e+00 7.958749532699584961e-01 1.991715431213378906e+00 8.362771272659301758e-01 -2.814101696014404297e+00
1.466000000000000000e+03 2.106170845031738281e+01 -1.633506059646606445e+00 -6.641677021980285645e-02 -1.624786853790283203e-01 -6.866864114999771118e-02 1.502459496259689331e-01
1.467000000000000000e+03 2.144337272644042969e+01 -2.617764234542846680e+00 -8.278837054967880249e-02 -1.143277734518051147e-01 -5.913484096527099609e-02 1.305767893791198730e-01
1.468000000000000000e+03 2.492438888549804688e+01 -3.346501827239990234e+00 -2.659960687160491943e-01 -7.233152538537979126e-02 -1.014982759952545166e-01 2.397975176572799683e-01
1.469000000000000000e+03 3.047446250915527344e+01 -4.268525123596191406e+00 -7.069613337516784668e-01 -1.621800009161233902e-03 -2.125749439001083374e-01 2.688675820827484131e-01
1.470000000000000000e+03 2.775543594360351562e+01 -3.553512573242187500e+00 -4.708005189895629883e-01 -3.286239877343177795e-02 -1.510988771915435791e-01 2.974588274955749512e-01
1.471000000000000000e+03 3.902887344360351562e+00 2.697823286056518555e+00 -1.850869157351553440e-04 -3.648602578323334455e-04 -1.649841578910127282e-04 1.105843548430129886e-04
1.472000000000000000e+03 4.608996868133544922e+00 2.643221139907836914e+00 3.612447108025662601e-05 5.270126275718212128e-04 1.689411292318254709e-04 1.101679226849228144e-04
1.473000000000000000e+03 6.013767719268798828e+00 2.579101085662841797e+00 -3.927864236175082624e-05 7.321790326386690140e-04 2.078701072605326772e-04 2.375786280026659369e-04
1.474000000000000000e+03 5.290886402130126953e+00 3.324244022369384766e+00 5.680772665073163807e-05 6.428680499084293842e-04 2.099027333315461874e-04 1.759123260853812099e-04
1.475000000000000000e+03 5.964285373687744141e+00 3.301934957504272461e+00 -4.349322625785134733e-05 -6.434599636122584343e-04 -2.060859551420435309e-04 -1.400558248860761523e-04
1.476000000000000000e+03 1.028059291839599609e+01 2.602079153060913086e+00 3.369786427356302738e-04 5.016676732338964939e-04 2.515938831493258476e-04 5.889816675335168839e-04
1.477000000000000000e+03 7.311022281646728516e+00 3.321653366088867188e+00 6.398693699338764418e-07 -9.477793937548995018e-04 -2.841418609023094177e-04 -4.164646961726248264e-04
1.478000000000000000e+03 6.635125637054443359e+00 3.307526111602783203e+00 -3.210466456948779523e-05 9.571510017849504948e-04 2.775139000732451677e-04 2.774378226604312658e-04
1.479000000000000000e+03 4.616901397705078125e+00 3.407897949218750000e+00 -1.221189304487779737e-04 -3.884847974404692650e-04 -1.531811140011996031e-04 2.585942456789780408e-05
1.480000000000000000e+03 1.873484253883361816e+00 2.670886993408203125e+00 2.009109739447012544e-04 1.642729912418872118e-04 1.095551851904019713e-04 2.950163616333156824e-04
1.481000000000000000e+03 1.017080783843994141e+01 3.376378774642944336e+00 -3.759415121749043465e-04 -7.647804450243711472e-04 -3.422165755182504654e-04 -9.433464147150516510e-04
1.482000000000000000e+03 2.354855537414550781e+01 -3.115026950836181641e+00 -1.835141479969024658e-01 -9.354706108570098877e-02 -8.311836421489715576e-02 2.022776156663894653e-01
1.483000000000000000e+03 2.541833686828613281e+01 -4.111346244812011719e+00 -2.858089804649353027e-01 -4.446084052324295044e-02 -9.908095002174377441e-02 2.024907320737838745e-01
1.484000000000000000e+03 2.633596420288085938e+01 -3.491037607192993164e+00 -3.632922470569610596e-01 -5.117937177419662476e-02 -1.243414804339408875e-01 2.712640762329101562e-01
1.485000000000000000e+03 2.286062622070312500e+01 -2.968506336212158203e+00 -1.474481821060180664e-01 -1.030174121260643005e-01 -7.513967901468276978e-02 1.800350248813629150e-01
1.486000000000000000e+03 2.216147041320800781e+01 -2.804489135742187500e+00 -1.128533929586410522e-01 -1.099890917539596558e-01 -6.685274839401245117e-02 1.557693779468536377e-01
1.487000000000000000e+03 9.573411941528320312e+00 -2.476776599884033203e+00 -3.075990389334037900e-05 -2.850381715688854456e-04 -9.473942191107198596e-05 -2.032829070230945945e-04
1.488000000000000000e+03 2.829113197326660156e+01 -4.253592491149902344e+00 -5.092647075653076172e-01 -1.647561788558959961e-02 -1.577221006155014038e-01 2.483508288860321045e-01
1.489000000000000000e+03 2.918671989440917969e+01 -3.579648256301879883e+00 -5.869824290275573730e-01 -1.807372272014617920e-02 -1.815168410539627075e-01 3.179028928279876709e-01
1.490000000000000000e+03 2.935400199890136719e+01 -2.898435115814208984e+00 -5.962490439414978027e-01 -2.565086819231510162e-02 -1.865699738264083862e-01 3.755428791046142578e-01
1.491000000000000000e+03 3.120965385437011719e+01 -4.262700557708740234e+00 -7.778381109237670898e-01 1.976282568648457527e-03 -2.327585369348526001e-01 2.737370431423187256e-01
1.492000000000000000e+03 3.209863662719726562e+01 -3.564666509628295898e+00 -8.434675931930541992e-01 2.963091246783733368e-03 -2.521513402462005615e-01 3.441998064517974854e-01
1.493000000000000000e+03 1.157372856140136719e+01 -3.550351619720458984e+00 -7.492503937100991607e-05 -2.376554766669869423e-04 -9.377415699418634176e-05 -1.796900869521778077e-05
1.494000000000000000e+03 1.096832561492919922e+01 -2.627244472503662109e+00 -1.676723150012549013e-05 -2.944236039184033871e-04 -9.335725189885124564e-05 -3.466069392743520439e-05
1.495000000000000000e+03 1.124150466918945312e+01 -4.370024204254150391e+00 1.120534434448927641e-04 8.914684258343186229e-06 3.629043567343614995e-05 1.050386854331009090e-04
1.496000000000000000e+03 4.536304092407226562e+01 -9.738871574401855469e+00 -1.912203311920166016e+00 4.383584484457969666e-03 -5.723459124565124512e-01 -3.136458396911621094e-01
1.497000000000000000e+03 4.608799743652343750e+01 -9.020401954650878906e+00 -2.161653518676757812e+00 2.961881691589951515e-03 -6.476074457168579102e-01 -2.727615237236022949e-01
1.498000000000000000e+03 4.833627319335937500e+01 -9.690957069396972656e+00 -2.034982681274414062e+00 1.939501613378524780e-02 -6.046762466430664062e-01 -2.790133655071258545e-01
1.499000000000000000e+03 1.257666015625000000e+01 -2.801764726638793945e+00 -2.209975646110251546e-04 -1.403257483616471291e-04 -1.083969982573762536e-04 3.670238584163598716e-05
1.500000000000000000e+03 4.388418197631835938e+01 -1.048282241821289062e+01 -1.653486967086791992e+00 1.452160649932920933e-03 -4.956104457378387451e-01 -3.536112308502197266e-01
1.501000000000000000e+03 3.357710647583007812e+01 -3.532544136047363281e+00 -9.800006151199340820e-01 9.052667766809463501e-03 -2.912843823432922363e-01 3.516317009925842285e-01
1.502000000000000000e+03 5.132078170776367188e+01 -9.655678749084472656e+00 -2.071736574172973633e+00 4.143676906824111938e-02 -6.090899705886840820e-01 -2.052736580371856689e-01
1.503000000000000000e+03 3.417494583129882812e+01 -4.204750061035156250e+00 -1.077810645103454590e+00 1.074534468352794647e-02 -3.201195895671844482e-01 2.846359312534332275e-01
1.504000000000000000e+03 3.506179428100585938e+01 -3.494345188140869141e+00 -1.119251370429992676e+00 1.256237644702196121e-02 -3.320067226886749268e-01 3.557751476764678955e-01
1.505000000000000000e+03 5.205888748168945312e+01 -8.948235511779785156e+00 -2.403450012207031250e+00 2.540805190801620483e-02 -7.134125828742980957e-01 -1.886655241250991821e-01
1.506000000000000000e+03 5.429556274414062500e+01 -8.911100387573242188e+00 -2.364479541778564453e+00 4.865482449531555176e-02 -6.947473883628845215e-01 -1.053510457277297974e-01
1.507000000000000000e+03 3.938467788696289062e+01 -9.891949653625488281e+00 -1.556738018989562988e+00 -1.610600203275680542e-02 -4.718532264232635498e-01 -3.220290243625640869e-01
1.508000000000000000e+03 4.387868499755859375e+01 -9.773651123046875000e+00 -1.831439018249511719e+00 -2.351914765313267708e-03 -5.501372814178466797e-01 -3.219755887985229492e-01
1.509000000000000000e+03 4.611199188232421875e+01 -9.724340438842773438e+00 -1.949303507804870605e+00 8.949654176831245422e-03 -5.821061730384826660e-01 -3.077829778194427490e-01
1.510000000000000000e+03 4.533878326416015625e+01 -9.033081054687500000e+00 -2.114009857177734375e+00 2.066398737952113152e-03 -6.335830688476562500e-01 -2.769781351089477539e-01
1.511000000000000000e+03 4.160800933837890625e+01 -9.113389968872070312e+00 -1.852759003639221191e+00 -9.295388124883174896e-03 -5.586163401603698730e-01 -2.810999155044555664e-01
1.512000000000000000e+03 4.685575866699218750e+01 -9.711009025573730469e+00 -1.982135653495788574e+00 1.176653895527124405e-02 -5.911107659339904785e-01 -2.994257509708404541e-01
1.513000000000000000e+03 4.832038116455078125e+01 -8.988821029663085938e+00 -2.288740396499633789e+00 1.108405180275440216e-02 -6.832969188690185547e-01 -2.555982768535614014e-01
1.514000000000000000e+03 5.504609298706054688e+01 -8.896617889404296875e+00 -2.321528196334838867e+00 6.016781553626060486e-02 -6.784081459045410156e-01 -6.388784945011138916e-02
1.515000000000000000e+03 5.505122756958007812e+01 -1.023079490661621094e+01 -1.510451912879943848e+00 1.894416064023971558e-01 -3.963030874729156494e-01 1.005409955978393555e-01
1.516000000000000000e+03 3.861359786987304688e+01 -9.191508293151855469e+00 -1.633682370185852051e+00 -1.425519492477178574e-02 -4.943812787532806396e-01 -2.738560140132904053e-01
1.517000000000000000e+03 3.860503387451171875e+01 -1.139466190338134766e+01 -1.248495578765869141e+00 -2.054538205265998840e-02 -3.807122707366943359e-01 -3.964650034904479980e-01
1.518000000000000000e+03 5.130907058715820312e+01 -8.957425117492675781e+00 -2.394084453582763672e+00 2.269918285310268402e-02 -7.114155888557434082e-01 -2.080221474170684814e-01
1.519000000000000000e+03 4.983298873901367188e+01 -9.675370216369628906e+00 -2.067333698272705078e+00 2.920917421579360962e-02 -6.114373803138732910e-01 -2.486413717269897461e-01
1.520000000000000000e+03 5.282185745239257812e+01 -9.624988555908203125e+00 -2.040713548660278320e+00 6.020540744066238403e-02 -5.941524505615234375e-01 -1.434020847082138062e-01
1.521000000000000000e+03 5.356219482421875000e+01 -9.605963706970214844e+00 -2.006452322006225586e+00 7.514224201440811157e-02 -5.793929696083068848e-01 -1.029934436082839966e-01
1.522000000000000000e+03 5.430743789672851562e+01 -9.585907936096191406e+00 -1.959448218345642090e+00 9.132355451583862305e-02 -5.604373812675476074e-01 -5.347781255841255188e-02
1.523000000000000000e+03 5.804594802856445312e+01 -8.826525688171386719e+00 -1.838768005371093750e+00 1.829566210508346558e-01 -4.967434108257293701e-01 2.629444599151611328e-01
1.524000000000000000e+03 5.580839920043945312e+01 -9.537734031677246094e+00 -1.800573587417602539e+00 1.461277604103088379e-01 -4.963337779045104980e-01 8.685142546892166138e-02
1.525000000000000000e+03 5.806731796264648438e+01 -9.463081359863281250e+00 -1.302250504493713379e+00 3.205721378326416016e-01 -2.945035099983215332e-01 4.778258800506591797e-01
1.526000000000000000e+03 3.790631484985351562e+01 -4.104708194732666016e+00 -1.470481395721435547e+00 1.146329380571842194e-02 -4.377054572105407715e-01 2.861667871475219727e-01
1.527000000000000000e+03 3.519648361206054688e+01 -2.802161455154418945e+00 -1.077246665954589844e+00 1.342616882175207138e-02 -3.191461563110351562e-01 4.189237356185913086e-01
1.528000000000000000e+03 5.883299636840820312e+01 -9.438781738281250000e+00 -1.028010487556457520e+00 4.652274250984191895e-01 -1.688349097967147827e-01 7.119403481483459473e-01
1.529000000000000000e+03 5.958977890014648438e+01 -9.397002220153808594e+00 -7.210019826889038086e-01 6.173032522201538086e-01 -3.110961429774761200e-02 9.990099668502807617e-01
1.530000000000000000e+03 6.120038223266601562e+01 -4.078007698059082031e+00 -3.341833055019378662e-01 9.143093228340148926e-01 1.740378141403198242e-01 -1.541123509407043457e+00
1.531000000000000000e+03 6.083853530883789062e+01 -3.042348861694335938e+00 1.312537491321563721e-02 1.445251941680908203e+00 4.375131726264953613e-01 -1.977531552314758301e+00
1.532000000000000000e+03 3.714003372192382812e+01 -1.068185520172119141e+01 -1.295147299766540527e+00 -2.406600490212440491e-02 -3.957639932632446289e-01 -3.581428825855255127e-01
1.533000000000000000e+03 3.639388275146484375e+01 -9.974326133728027344e+00 -1.359870791435241699e+00 -2.278185449540615082e-02 -4.147957861423492432e-01 -3.137966096401214600e-01
1.534000000000000000e+03 5.751216125488281250e+01 -3.414082288742065430e+00 -1.661926150321960449e+00 2.250608652830123901e-01 -4.310595691204071045e-01 -3.426719307899475098e-01
1.535000000000000000e+03 5.604094314575195312e+01 -3.328821420669555664e+00 -1.932235717773437500e+00 1.438016742467880249e-01 -5.365301966667175293e-01 -1.250408738851547241e-01
1.536000000000000000e+03 5.891936111450195312e+01 -3.516648054122924805e+00 -1.230610609054565430e+00 3.819271922111511230e-01 -2.546050250530242920e-01 -6.774220466613769531e-01
1.537000000000000000e+03 5.529609298706054688e+01 -3.298137903213500977e+00 -2.023564815521240234e+00 1.207895129919052124e-01 -5.708325505256652832e-01 -4.722039774060249329e-02
1.538000000000000000e+03 5.080239486694335938e+01 -3.209982633590698242e+00 -2.216659069061279297e+00 3.126711770892143250e-02 -6.556175947189331055e-01 2.144934535026550293e-01
1.539000000000000000e+03 5.229878234863281250e+01 -3.222220659255981445e+00 -2.206472873687744141e+00 4.875993728637695312e-02 -6.473138928413391113e-01 1.570254266262054443e-01
1.540000000000000000e+03 5.155320739746093750e+01 -3.215162754058837891e+00 -2.216991424560546875e+00 3.577450662851333618e-02 -6.543650627136230469e-01 1.887376159429550171e-01
1.541000000000000000e+03 3.952996063232421875e+01 -3.379359960556030273e+00 -1.535693526268005371e+00 1.282052882015705109e-02 -4.568618834018707275e-01 3.523937761783599854e-01
1.542000000000000000e+03 4.089949798583984375e+01 -4.024908065795898438e+00 -1.780145525932312012e+00 8.041399531066417694e-03 -5.316312313079833984e-01 2.810306549072265625e-01
1.543000000000000000e+03 4.165051269531250000e+01 -4.005933284759521484e+00 -1.854995608329772949e+00 6.702253129333257675e-03 -5.544880032539367676e-01 2.794623374938964844e-01
1.544000000000000000e+03 4.101887130737304688e+01 -3.335017204284667969e+00 -1.665904760360717773e+00 1.125271338969469070e-02 -4.963956177234649658e-01 3.478815555572509766e-01
1.545000000000000000e+03 5.678378295898437500e+01 -3.367449283599853516e+00 -1.808730125427246094e+00 1.868927925825119019e-01 -4.865511953830718994e-01 -2.304325997829437256e-01
1.546000000000000000e+03 4.854702758789062500e+01 -3.216154813766479492e+00 -2.165933370590209961e+00 1.556949224323034286e-02 -6.451091766357421875e-01 2.718954980373382568e-01
1.547000000000000000e+03 5.004723358154296875e+01 -3.207844495773315430e+00 -2.206516504287719727e+00 2.274924144148826599e-02 -6.551302075386047363e-01 2.375030368566513062e-01
1.548000000000000000e+03 4.402529907226562500e+01 -3.262486696243286133e+00 -1.904565095901489258e+00 9.610598906874656677e-03 -5.684863328933715820e-01 3.305003941059112549e-01
1.549000000000000000e+03 4.252083587646484375e+01 -3.295152664184570312e+00 -1.789785981178283691e+00 1.037760917097330093e-02 -5.338225364685058594e-01 3.408493995666503906e-01
1.550000000000000000e+03 4.327215194702148438e+01 -3.277377128601074219e+00 -1.848304390907287598e+00 1.070892345160245895e-02 -5.512786507606506348e-01 3.355593085289001465e-01
1.551000000000000000e+03 4.553622436523437500e+01 -3.243824243545532227e+00 -2.009551286697387695e+00 1.006943359971046448e-02 -5.998445749282836914e-01 3.157429397106170654e-01
1.552000000000000000e+03 4.465986251831054688e+01 -3.944984912872314453e+00 -2.134841680526733398e+00 3.778612706810235977e-03 -6.393188834190368652e-01 2.679797410964965820e-01
1.553000000000000000e+03 4.478169250488281250e+01 -3.252177000045776367e+00 -1.958698749542236328e+00 1.075257919728755951e-02 -5.843838453292846680e-01 3.232058286666870117e-01
1.554000000000000000e+03 3.878482055664062500e+01 -3.399850845336914062e+00 -1.467405796051025391e+00 1.363354083150625229e-02 -4.361316859722137451e-01 3.543842434883117676e-01
1.555000000000000000e+03 5.380248260498046875e+01 -3.249190330505371094e+00 -2.147100687026977539e+00 7.638540863990783691e-02 -6.212146282196044922e-01 7.341635972261428833e-02
1.556000000000000000e+03 3.339000320434570312e+01 -1.004329109191894531e+01 -1.160001754760742188e+00 -2.614284306764602661e-02 -3.558433949947357178e-01 -3.011769652366638184e-01
1.557000000000000000e+03 3.183600997924804688e+01 -9.363359451293945312e+00 -1.128697395324707031e+00 -2.114745229482650757e-02 -3.449534475803375244e-01 -2.448465824127197266e-01
1.558000000000000000e+03 3.186522293090820312e+01 -1.008289051055908203e+01 -1.056416392326354980e+00 -2.607844397425651550e-02 -3.247484564781188965e-01 -2.952005565166473389e-01
1.559000000000000000e+03 3.414105606079101562e+01 -1.002519416809082031e+01 -1.210790753364562988e+00 -2.492581680417060852e-02 -3.707149624824523926e-01 -3.043517172336578369e-01
1.560000000000000000e+03 4.176910400390625000e+01 -3.314269542694091797e+00 -1.728417396545410156e+00 1.137595716863870621e-02 -5.151124000549316406e-01 3.443213999271392822e-01
1.561000000000000000e+03 4.779490661621093750e+01 -3.221330404281616211e+00 -2.134932756423950195e+00 1.466270349919795990e-02 -6.360809803009033203e-01 2.852160036563873291e-01
1.562000000000000000e+03 1.356106948852539062e+01 5.004029750823974609e+00 -1.298660878092050552e-03 -3.891625383403152227e-04 -5.063470453023910522e-04 -8.981664432212710381e-04
1.563000000000000000e+03 9.413180351257324219e+00 3.370285511016845703e+00 2.096497628372162580e-04 1.010516192764043808e-03 3.660497895907610655e-04 7.078704074956476688e-04
1.564000000000000000e+03 1.261268997192382812e+01 4.107388973236083984e+00 -1.288754050619900227e-03 -1.348622899968177080e-04 -4.270849167369306087e-04 -1.208567875437438488e-03
1.565000000000000000e+03 1.258357143402099609e+01 3.298726797103881836e+00 1.208541216328740120e-03 -4.273841623216867447e-04 2.343470987398177385e-04 4.435830051079392433e-04
1.566000000000000000e+03 2.957047653198242188e+01 -1.012515926361083984e+01 -9.007385373115539551e-01 -2.098676562309265137e-02 -2.765175700187683105e-01 -2.868416905403137207e-01
1.567000000000000000e+03 3.034174919128417969e+01 -1.011504077911376953e+01 -9.530359506607055664e-01 -2.378594875335693359e-02 -2.930465638637542725e-01 -2.894947528839111328e-01
1.568000000000000000e+03 2.722484397888183594e+01 -9.377842903137207031e+00 -7.793446183204650879e-01 -8.479987271130084991e-03 -2.363473773002624512e-01 -2.262933701276779175e-01
1.569000000000000000e+03 2.878970909118652344e+01 -1.012847995758056641e+01 -8.485651612281799316e-01 -1.866194605827331543e-02 -2.601681351661682129e-01 -2.841200828552246094e-01
1.570000000000000000e+03 6.182598876953125000e+01 -3.839597225189208984e+00 3.499581217765808105e-01 1.630727767944335938e+00 5.942057967185974121e-01 -2.376789093017578125e+00
1.571000000000000000e+03 3.110245323181152344e+01 -1.010048866271972656e+01 -1.004703402519226074e+00 -2.454485557973384857e-02 -3.087744712829589844e-01 -2.921490669250488281e-01
1.572000000000000000e+03 9.280937194824218750e+00 4.174376487731933594e+00 -9.133543062489479780e-05 -1.223963452503085136e-03 -3.945896751247346401e-04 -8.462978876195847988e-04
1.573000000000000000e+03 2.096094131469726562e+01 -8.940178871154785156e+00 -3.289006948471069336e-01 4.469808656722307205e-03 -9.732926636934280396e-02 -1.816115975379943848e-01
1.574000000000000000e+03 6.755591392517089844e+00 -3.335061788558959961e+00 6.306012801360338926e-05 2.105944295180961490e-04 8.209636871470138431e-05 3.018822753801941872e-04
1.575000000000000000e+03 2.756992101669311523e+00 -6.690883159637451172e+00 -4.077709745615720749e-04 1.121411878557410091e-05 -1.189670510939322412e-04 -3.489080118015408516e-04
1.576000000000000000e+03 7.562462806701660156e+00 -4.078027725219726562e+00 1.501447550253942609e-04 1.443726359866559505e-04 8.835521293804049492e-05 4.251823120284825563e-04
1.577000000000000000e+03 8.876263618469238281e+00 -2.517377376556396484e+00 5.379865979193709791e-05 2.381288795731961727e-04 8.757826435612514615e-05 2.911994815804064274e-04
1.578000000000000000e+03 5.906772136688232422e+00 -2.629029989242553711e+00 -5.636275091092102230e-06 2.068846806650981307e-04 6.037452112650498748e-05 2.322506334166973829e-04
1.579000000000000000e+03 5.466950893402099609e+00 -4.171339988708496094e+00 -9.809416951611638069e-05 -1.505654945503920317e-04 -7.459789776476100087e-05 -3.015185357071459293e-04
1.580000000000000000e+03 4.174928665161132812e+00 -4.520017147064208984e+00 -1.363173942081630230e-04 -2.153894893126562238e-04 -1.055120665114372969e-04 -5.356126348488032818e-04
1.581000000000000000e+03 2.128978490829467773e+00 -3.186791896820068359e+00 -2.305778034497052431e-04 -3.771296178456395864e-05 -8.048723248066380620e-05 -6.381030834745615721e-05
1.582000000000000000e+03 1.666112065315246582e+00 -5.271765232086181641e+00 -4.915478057228028774e-04 3.760388062801212072e-05 -1.361831818940117955e-04 -1.467699767090380192e-04
1.583000000000000000e+03 2.723472976684570312e+01 -1.011766052246093750e+01 -7.461674809455871582e-01 -1.109495572745800018e-02 -2.271787375211715698e-01 -2.783785164356231689e-01
1.584000000000000000e+03 2.801147842407226562e+01 -1.012586879730224609e+01 -7.966696619987487793e-01 -1.453374326229095459e-02 -2.433610111474990845e-01 -2.815316021442413330e-01
1.585000000000000000e+03 2.565631866455078125e+01 -1.007349014282226562e+01 -6.457853317260742188e-01 -8.103703148663043976e-04 -1.939787119626998901e-01 -2.714130580425262451e-01
1.586000000000000000e+03 2.249656105041503906e+01 -9.904350280761718750e+00 -4.570666849613189697e-01 1.140501722693443298e-02 -1.336985081434249878e-01 -2.498326450586318970e-01
1.587000000000000000e+03 2.328736877441406250e+01 -9.948451042175292969e+00 -5.027577877044677734e-01 1.278251316398382187e-02 -1.469925940036773682e-01 -2.564915716648101807e-01
1.588000000000000000e+03 2.407685661315917969e+01 -9.994881629943847656e+00 -5.496118068695068359e-01 8.979813195765018463e-03 -1.621895879507064819e-01 -2.621072232723236084e-01
1.589000000000000000e+03 2.487124633789062500e+01 -9.281169891357421875e+00 -6.050162911415100098e-01 5.721253808587789536e-03 -1.797885149717330933e-01 -2.165017724037170410e-01
1.590000000000000000e+03 2.486537933349609375e+01 -1.003766155242919922e+01 -5.968423485755920410e-01 5.387329962104558945e-03 -1.774365007877349854e-01 -2.675195634365081787e-01
1.591000000000000000e+03 1.730091857910156250e+01 -1.298633480072021484e+01 -3.592459261417388916e-01 -1.787231415510177612e-01 -1.613907217979431152e-01 -3.145196139812469482e-01
1.592000000000000000e+03 2.093067169189453125e+01 -9.826887130737304688e+00 -3.696135580539703369e-01 -2.513111568987369537e-03 -1.116379946470260620e-01 -2.340809702873229980e-01
1.593000000000000000e+03 2.069146728515625000e+01 -2.374636411666870117e+00 -5.050828680396080017e-02 -1.183683499693870544e-01 -5.066299065947532654e-02 1.029634028673171997e-01
1.594000000000000000e+03 2.041085052490234375e+01 -3.209912061691284180e+00 -3.745705261826515198e-02 -6.581930816173553467e-02 -3.098290972411632538e-02 5.505340918898582458e-02
1.595000000000000000e+03 2.170792007446289062e+01 -9.863367080688476562e+00 -4.115030765533447266e-01 7.771967444568872452e-03 -1.211193352937698364e-01 -2.411888837814331055e-01
1.596000000000000000e+03 2.084321212768554688e+01 2.169503211975097656e+00 -9.642237424850463867e-02 -4.662528932094573975e-01 -1.688025742769241333e-01 3.235289156436920166e-01
1.597000000000000000e+03 2.090394401550292969e+01 4.782854557037353516e+00 -1.864131838083267212e-01 -7.025172114372253418e-01 -2.666791081428527832e-01 4.690560996532440186e-01
1.598000000000000000e+03 1.084378814697265625e+01 9.063911437988281250e+00 6.475867703557014465e-04 3.295302391052246094e-03 1.182866748422384262e-03 1.419610460288822651e-03
1.599000000000000000e+03 1.110373401641845703e+01 1.064047908782958984e+01 2.032563090324401855e-03 3.486303379759192467e-03 1.655659871175885201e-03 2.403496531769633293e-03
1.600000000000000000e+03 1.333819484710693359e+01 6.162159442901611328e+00 1.641991897486150265e-03 5.754013545811176300e-04 6.652179872617125511e-04 1.078073284588754177e-03
1.601000000000000000e+03 6.042428970336914062e+00 -1.449125099182128906e+01 6.406366359442472458e-03 -3.724179929122328758e-03 8.046559523791074753e-04 -1.226263027638196945e-02
1.602000000000000000e+03 6.663233757019042969e+00 -1.331118297576904297e+01 -9.304046398028731346e-04 9.081884287297725677e-03 2.445443766191601753e-03 -4.734579008072614670e-03
1.603000000000000000e+03 1.919812583923339844e+01 1.091264057159423828e+01 -5.229274034500122070e-01 -1.332615375518798828e+00 -5.566628575325012207e-01 7.086313962936401367e-01
1.604000000000000000e+03 2.093757247924804688e+01 7.572675704956054688e+00 -3.452952504158020020e-01 -9.036209583282470703e-01 -3.746748566627502441e-01 6.296695470809936523e-01
1.605000000000000000e+03 1.078989982604980469e+01 -3.337265014648437500e+00 1.367150798614602536e-05 1.759581500664353371e-04 5.688889723387546837e-05 1.609471801202744246e-04
1.606000000000000000e+03 8.606469154357910156e+00 -2.037400627136230469e+01 -2.472675144672393799e-01 -2.210064828395843506e-01 -1.404822021722793579e-01 -3.083963692188262939e-01
1.607000000000000000e+03 7.877323627471923828e+00 -1.884032058715820312e+01 -2.509643435478210449e-01 -4.255300387740135193e-02 -8.805520832538604736e-02 -1.483399718999862671e-01
1.608000000000000000e+03 1.005250263214111328e+01 4.170051097869873047e+00 2.479170507285743952e-04 1.257169060409069061e-03 4.515258187893778086e-04 9.165135561488568783e-04
1.609000000000000000e+03 1.004714298248291016e+01 -6.111910820007324219e+00 1.970692683244124055e-04 -3.715320781338959932e-04 -5.233884439803659916e-05 1.890748389996588230e-04
1.610000000000000000e+03 1.508315753936767578e+01 -1.972990608215332031e+01 -2.455278337001800537e-01 -3.060135245323181152e-01 -1.654624044895172119e-01 -2.968085110187530518e-01
1.611000000000000000e+03 1.522169017791748047e+01 -1.651339149475097656e+01 -3.814229965209960938e-01 -2.931991517543792725e-01 -2.023866474628448486e-01 -3.370018899440765381e-01
1.612000000000000000e+03 9.618339538574218750e+00 -1.990376663208007812e+01 -2.225022763013839722e-01 -3.408069312572479248e-01 -1.689927577972412109e-01 -3.406566679477691650e-01
1.613000000000000000e+03 1.973854637145996094e+01 -2.862978279590606689e-01 -2.132498286664485931e-02 -2.196730822324752808e-01 -7.229942083358764648e-02 1.146294325590133667e-01
1.614000000000000000e+03 2.016371917724609375e+01 -1.078437232971191406e+01 -3.701189458370208740e-01 -2.719270437955856323e-02 -1.191934943199157715e-01 -2.723721563816070557e-01
1.615000000000000000e+03 1.340116119384765625e+01 3.112966537475585938e+00 -5.900112446397542953e-04 9.306102292612195015e-04 1.021796924760565162e-04 3.093986015301197767e-04
1.616000000000000000e+03 3.684723138809204102e+00 2.183062553405761719e+01 -8.777642995119094849e-02 -1.209969222545623779e-01 -6.263200938701629639e-02 1.245627328753471375e-01
1.617000000000000000e+03 1.849562835693359375e+01 -1.065555000305175781e+01 -2.890014648437500000e-01 -9.216636419296264648e-02 -1.143503487110137939e-01 -2.491417527198791504e-01
1.618000000000000000e+03 1.771655845642089844e+01 -1.007788181304931641e+01 -2.104253619909286499e-01 -1.279933601617813110e-01 -1.015256196260452271e-01 -2.055480033159255981e-01
1.619000000000000000e+03 7.812625122070312500e+01 -3.592848205566406250e+01 -3.225265815854072571e-02 8.547044754028320312e+00 2.554437637329101562e+00 6.322837620973587036e-02
1.620000000000000000e+03 7.503962707519531250e+01 -3.760922241210937500e+01 1.532784372102469206e-04 7.930539608001708984e+00 2.379207849502563477e+00 -4.340055584907531738e-02
1.621000000000000000e+03 7.454189300537109375e+01 -3.344085693359375000e+01 -2.072919905185699463e-02 7.725882053375244141e+00 2.311545848846435547e+00 6.569693982601165771e-02
1.622000000000000000e+03 7.705599975585937500e+01 -3.610198211669921875e+01 -2.449884638190269470e-02 8.291369438171386719e+00 2.480061054229736328e+00 7.065077871084213257e-02
1.623000000000000000e+03 7.596705627441406250e+01 -2.337078666687011719e+01 -1.662885993719100952e-01 8.206816673278808594e+00 2.412158250808715820e+00 -2.276953756809234619e-01
1.624000000000000000e+03 7.805493164062500000e+01 -2.906059646606445312e+01 -1.136142015457153320e-02 8.601001739501953125e+00 2.576892137527465820e+00 -5.912990774959325790e-03
1.625000000000000000e+03 7.505251312255859375e+01 1.558765697479248047e+01 -1.032898426055908203e-01 7.834678173065185547e+00 2.319416522979736328e+00 -1.045828014612197876e-01
1.626000000000000000e+03 7.647895050048828125e+01 1.547466945648193359e+01 -6.646580994129180908e-02 8.107914924621582031e+00 2.412434577941894531e+00 -5.599323287606239319e-02
1.627000000000000000e+03 7.751074981689453125e+01 3.567039489746093750e+01 -7.603064645081758499e-03 7.655761718750000000e+00 2.294447660446166992e+00 -5.682533979415893555e-02
1.628000000000000000e+03 7.615785980224609375e+01 3.272150421142578125e+01 7.453789934515953064e-03 7.465547084808349609e+00 2.241900205612182617e+00 -1.004837900400161743e-01
1.629000000000000000e+03 7.826733398437500000e+01 -2.217292785644531250e+01 -4.765305668115615845e-02 8.423320770263671875e+00 2.512700319290161133e+00 -1.952224522829055786e-01
1.630000000000000000e+03 7.711618804931640625e+01 -2.344292640686035156e+01 -9.411796182394027710e-02 8.346556663513183594e+00 2.475731611251831055e+00 -1.967003196477890015e-01
1.631000000000000000e+03 7.660380554199218750e+01 -3.032933235168457031e+01 -2.276961877942085266e-02 8.264028549194335938e+00 2.472377777099609375e+00 2.159403823316097260e-02
1.632000000000000000e+03 7.681790924072265625e+01 -2.885863494873046875e+01 -3.470910713076591492e-02 8.337567329406738281e+00 2.490857362747192383e+00 2.746786922216415405e-03
1.633000000000000000e+03 7.706910705566406250e+01 -2.608643722534179688e+01 -6.154872849583625793e-02 8.397606849670410156e+00 2.500817537307739258e+00 -7.513637840747833252e-02
1.634000000000000000e+03 7.697927856445312500e+01 -2.744439697265625000e+01 -4.503327608108520508e-02 8.380731582641601562e+00 2.500709295272827148e+00 -3.325746208429336548e-02
1.635000000000000000e+03 7.639785766601562500e+01 -3.184464263916015625e+01 -3.319999948143959045e-02 8.201917648315429688e+00 2.450615406036376953e+00 3.433381766080856323e-02
1.636000000000000000e+03 7.655072021484375000e+01 -3.482478332519531250e+01 -3.323282301425933838e-02 8.244920730590820312e+00 2.463506221771240234e+00 7.768962532281875610e-02
1.637000000000000000e+03 7.565818786621093750e+01 -2.859067726135253906e+01 -6.126763299107551575e-02 8.108836174011230469e+00 2.414270401000976562e+00 1.232835836708545685e-02
1.638000000000000000e+03 7.494688415527343750e+01 -4.033286666870117188e+01 5.743034556508064270e-02 7.872392177581787109e+00 2.378946781158447266e+00 -2.810231409966945648e-02
1.639000000000000000e+03 7.801396179199218750e+01 2.244104957580566406e+01 -1.278654555790126324e-03 8.178471565246582031e+00 2.453157901763916016e+00 -8.987320214509963989e-02
1.640000000000000000e+03 7.658821105957031250e+01 1.981408882141113281e+01 -2.132812701165676117e-02 7.991653919219970703e+00 2.391097784042358398e+00 -1.323587745428085327e-01
1.641000000000000000e+03 7.512079620361328125e+01 2.274259948730468750e+01 -8.975192904472351074e-03 7.593393325805664062e+00 2.275325536727905273e+00 -2.006674408912658691e-01
1.642000000000000000e+03 7.658850860595703125e+01 2.121348762512207031e+01 -1.374999992549419403e-02 7.942037582397460938e+00 2.378486156463623047e+00 -1.423015743494033813e-01
1.643000000000000000e+03 7.646955108642578125e+01 1.249574947357177734e+01 -1.024660244584083557e-01 8.160766601562500000e+00 2.417490243911743164e+00 6.514271348714828491e-02
1.644000000000000000e+03 7.572010040283203125e+01 8.008118629455566406e+00 -2.610897421836853027e-01 8.081229209899902344e+00 2.346041917800903320e+00 4.006867706775665283e-01
1.645000000000000000e+03 7.642846679687500000e+01 1.398453712463378906e+01 -8.274943381547927856e-02 8.139328002929687500e+00 2.416973590850830078e+00 -1.809707959182560444e-03
1.646000000000000000e+03 7.666662597656250000e+01 2.389263916015625000e+01 3.435211256146430969e-03 7.856250286102294922e+00 2.357905626296997070e+00 -1.489942222833633423e-01
1.647000000000000000e+03 7.811904907226562500e+01 2.641501617431640625e+01 2.185635035857558250e-03 8.016303062438964844e+00 2.405546665191650391e+00 -7.765696942806243896e-02
1.648000000000000000e+03 7.711746215820312500e+01 -2.210738372802734375e+01 -1.138952225446701050e-01 8.285607337951660156e+00 2.451513528823852539e+00 -2.810874283313751221e-01
1.649000000000000000e+03 7.789993286132812500e+01 3.037393760681152344e+01 9.914197959005832672e-03 7.836400508880615234e+00 2.353894472122192383e+00 -6.107457727193832397e-02
1.650000000000000000e+03 7.681199645996093750e+01 2.761791992187500000e+01 1.024337578564882278e-02 7.721245288848876953e+00 2.319446563720703125e+00 -1.247091516852378845e-01
1.651000000000000000e+03 7.701170349121093750e+01 6.792382240295410156e+00 -1.563088446855545044e-01 8.032127380371093750e+00 2.362745523452758789e+00 4.631525874137878418e-01
1.652000000000000000e+03 7.487775421142578125e+01 -1.664194297790527344e+01 -3.714709877967834473e-01 8.174025535583496094e+00 2.340766191482543945e+00 -9.299736618995666504e-01
1.653000000000000000e+03 7.712191009521484375e+01 -2.075646018981933594e+01 -1.332617104053497314e-01 8.197609901428222656e+00 2.419304609298706055e+00 -3.808344900608062744e-01
1.654000000000000000e+03 7.640381622314453125e+01 -9.764346122741699219e+00 3.555147349834442139e-01 6.825571060180664062e+00 2.154325723648071289e+00 -8.302459716796875000e-01
1.655000000000000000e+03 7.832247161865234375e+01 -1.526660442352294922e+01 -4.142228141427040100e-02 7.188871860504150391e+00 2.144234895706176758e+00 -5.758416056632995605e-01
1.656000000000000000e+03 7.624867248535156250e+01 -1.549973368644714355e+00 1.876854002475738525e-01 7.145251750946044922e+00 2.199881076812744141e+00 1.037326574325561523e+00
1.657000000000000000e+03 7.744997406005859375e+01 -7.025526046752929688e+00 3.342252671718597412e-01 5.902424335479736328e+00 1.870994925498962402e+00 -1.392824053764343262e-01
1.658000000000000000e+03 7.823503112792968750e+01 5.501705169677734375e+00 -6.572288274765014648e-02 7.847459793090820312e+00 2.334521055221557617e+00 4.111765325069427490e-01
1.659000000000000000e+03 7.606280517578125000e+01 1.225773572921752930e+00 -1.111083030700683594e-01 7.613541603088378906e+00 2.250730037689208984e+00 1.073013186454772949e+00
1.660000000000000000e+03 7.587992858886718750e+01 3.663935470581054688e+01 1.127349119633436203e-02 7.339331150054931641e+00 2.205181360244750977e+00 -4.192611575126647949e-02
1.661000000000000000e+03 7.729013824462890625e+01 3.687834548950195312e+01 -1.774198561906814575e-02 7.628983497619628906e+00 2.283372402191162109e+00 -5.443271622061729431e-02
1.662000000000000000e+03 7.708322906494140625e+01 5.418357372283935547e+00 -1.579396128654479980e-01 7.897668361663818359e+00 2.321918725967407227e+00 5.835331082344055176e-01
1.663000000000000000e+03 7.734278869628906250e+01 -2.863240957260131836e+00 2.137191295623779297e-01 6.309275627136230469e+00 1.956898450851440430e+00 6.941549181938171387e-01
1.664000000000000000e+03 7.741611480712890625e+01 -9.746665000915527344e+00 2.020845413208007812e-01 6.243205070495605469e+00 1.933586835861206055e+00 -6.606277823448181152e-01
1.665000000000000000e+03 7.716300201416015625e+01 -1.662106132507324219e+01 -1.368500739336013794e-01 7.715868949890136719e+00 2.273705720901489258e+00 -7.347338795661926270e-01
1.666000000000000000e+03 7.591123962402343750e+01 3.536764526367187500e+01 6.640777457505464554e-03 7.358208656311035156e+00 2.209454774856567383e+00 -6.558979302644729614e-02
1.667000000000000000e+03 7.416399383544921875e+01 3.508495712280273438e+01 2.964633330702781677e-02 7.052276134490966797e+00 2.124576807022094727e+00 -1.019401773810386658e-01
1.668000000000000000e+03 7.622950744628906250e+01 3.138877296447753906e+01 2.388985641300678253e-02 7.515076160430908203e+00 2.261689901351928711e+00 -1.000664681196212769e-01
1.669000000000000000e+03 7.657650756835937500e+01 1.839217758178710938e+01 -2.978709898889064789e-02 8.038353919982910156e+00 2.402570009231567383e+00 -1.139118671417236328e-01
1.670000000000000000e+03 7.677518463134765625e+01 9.586207389831542969e+00 -1.385743170976638794e-01 8.169410705566406250e+00 2.409250974655151367e+00 2.429345548152923584e-01
1.671000000000000000e+03 7.835189819335937500e+01 -1.388470077514648438e+01 -1.750824414193630219e-02 6.790719032287597656e+00 2.031963348388671875e+00 -6.136761903762817383e-01
1.672000000000000000e+03 7.720015716552734375e+01 -1.524135208129882812e+01 -1.040696427226066589e-01 7.471634864807128906e+00 2.210269451141357422e+00 -8.333764076232910156e-01
1.673000000000000000e+03 7.845663452148437500e+01 -6.982920646667480469e+00 1.402919590473175049e-01 5.172143459320068359e+00 1.593730688095092773e+00 -8.647845685482025146e-02
1.674000000000000000e+03 7.744723510742187500e+01 -8.388092041015625000e+00 2.869552075862884521e-01 6.019722938537597656e+00 1.892003417015075684e+00 -4.338374137878417969e-01
1.675000000000000000e+03 7.830775451660156250e+01 1.349479913711547852e+00 -2.706505917012691498e-02 6.858984470367431641e+00 2.049575805664062500e+00 6.154024600982666016e-01
1.676000000000000000e+03 7.728759002685546875e+01 -1.468940258026123047e+00 1.109767183661460876e-01 6.617007255554199219e+00 2.018395185470581055e+00 8.496323227882385254e-01
1.677000000000000000e+03 7.718379974365234375e+01 1.295364856719970703e+00 -6.431688368320465088e-02 7.226677894592285156e+00 2.148708343505859375e+00 8.841066956520080566e-01
1.678000000000000000e+03 7.712941741943359375e+01 4.047778606414794922e+00 -1.449753940105438232e-01 7.717770099639892578e+00 2.271838426589965820e+00 7.066024541854858398e-01
1.679000000000000000e+03 7.738279724121093750e+01 -4.255893230438232422e+00 2.813860177993774414e-01 6.074082851409912109e+00 1.906640768051147461e+00 4.593003988265991211e-01
1.680000000000000000e+03 7.742219543457031250e+01 -5.647532463073730469e+00 3.243410587310791016e-01 5.930299282073974609e+00 1.876392126083374023e+00 1.746951490640640259e-01
1.681000000000000000e+03 7.730775451660156250e+01 -1.248092842102050781e+01 2.971898950636386871e-02 6.861927032470703125e+00 2.067493915557861328e+00 -8.905988335609436035e-01
1.682000000000000000e+03 7.712873840332031250e+01 -1.938708305358886719e+01 -1.445069313049316406e-01 8.075863838195800781e+00 2.379407167434692383e+00 -4.962233304977416992e-01
1.683000000000000000e+03 7.485575675964355469e+00 1.311754417419433594e+01 -3.513073083013296127e-03 8.644891902804374695e-03 1.539545599371194839e-03 6.483145058155059814e-03
1.684000000000000000e+03 1.145591640472412109e+01 8.062409400939941406e+00 -6.891536759212613106e-04 -2.640037564560770988e-03 -9.987573139369487762e-04 -1.592269982211291790e-03
1.685000000000000000e+03 1.295762443542480469e+01 7.317551612854003906e+00 -1.759193954057991505e-03 -1.416808809153735638e-03 -9.528007940389215946e-04 -1.421332941390573978e-03
1.686000000000000000e+03 1.869797706604003906e+01 1.437502098083496094e+01 -6.862571239471435547e-01 -1.229331851005554199e+00 -5.746766924858093262e-01 7.186292409896850586e-01
1.687000000000000000e+03 2.231673955917358398e+00 3.434494018554687500e+01 1.655899919569492340e-02 -7.495613098144531250e-01 -2.199006974697113037e-01 1.005681082606315613e-01
1.688000000000000000e+03 1.905069708824157715e+00 2.760625076293945312e+01 1.069422345608472824e-03 -3.781175315380096436e-01 -1.131144315004348755e-01 1.387807875871658325e-01
1.689000000000000000e+03 3.149605274200439453e+00 3.018454360961914062e+01 1.889541931450366974e-02 -5.572925209999084473e-01 -1.615191251039505005e-01 1.969412714242935181e-01
1.690000000000000000e+03 1.931681275367736816e+00 2.621556282043457031e+01 -2.415708731859922409e-03 -2.952585816383361816e-01 -8.930228650569915771e-02 1.393319964408874512e-01
1.691000000000000000e+03 3.214285850524902344e+00 2.763259506225585938e+01 9.387537138536572456e-04 -4.203225970268249512e-01 -1.258151531219482422e-01 2.198478132486343384e-01
1.692000000000000000e+03 3.124921083450317383e+00 2.892765617370605469e+01 1.250758673995733261e-02 -4.917815327644348145e-01 -1.437821835279464722e-01 2.084889560937881470e-01
1.693000000000000000e+03 3.524964332580566406e+00 3.274089050292968750e+01 2.937349118292331696e-02 -6.618764400482177734e-01 -1.897508949041366577e-01 1.812050640583038330e-01
1.694000000000000000e+03 4.828109264373779297e+00 3.238736724853515625e+01 4.601836577057838440e-02 -6.515430212020874023e-01 -1.816573888063430786e-01 2.278348505496978760e-01
1.695000000000000000e+03 3.303369522094726562e+00 3.144319343566894531e+01 2.368748933076858521e-02 -6.136033535003662109e-01 -1.769747585058212280e-01 1.858521401882171631e-01
1.696000000000000000e+03 3.459215641021728516e+00 -3.558098983764648438e+01 3.179237991571426392e-02 -5.030951499938964844e-01 -1.413908302783966064e-01 -7.242263853549957275e-02
1.697000000000000000e+03 3.953742742538452148e+00 -3.441497802734375000e+01 3.346032276749610901e-02 -4.583642184734344482e-01 -1.274711638689041138e-01 -1.022234037518501282e-01
1.698000000000000000e+03 3.632131099700927734e+00 -3.018517494201660156e+01 1.566388644278049469e-02 -3.695464432239532471e-01 -1.061647683382034302e-01 -1.348975747823715210e-01
1.699000000000000000e+03 2.091930150985717773e+00 -2.893432044982910156e+01 2.669723471626639366e-03 -3.300213217735290527e-01 -9.820548444986343384e-02 -9.152707457542419434e-02
1.700000000000000000e+03 4.747266769409179688e+00 -2.742035102844238281e+01 1.110519003123044968e-02 -3.031453490257263184e-01 -8.761204034090042114e-02 -1.814589202404022217e-01
1.701000000000000000e+03 3.257329702377319336e+00 2.326993560791015625e+01 -6.795085966587066650e-02 -1.777236610651016235e-01 -7.370235770940780640e-02 1.649278998374938965e-01
1.702000000000000000e+03 1.593034863471984863e+00 -1.342120361328125000e+01 5.530959460884332657e-04 2.256779465824365616e-03 8.429626468569040298e-04 4.004522226750850677e-03
1.703000000000000000e+03 1.770490288734436035e+00 2.044981575012207031e+01 -1.885773800313472748e-02 -1.073017157614231110e-02 -8.876373060047626495e-03 2.066517807543277740e-02
1.704000000000000000e+03 1.906446337699890137e+00 1.898542785644531250e+01 -1.328977569937705994e-02 -2.379762707278132439e-03 -4.700861405581235886e-03 2.358754165470600128e-03
1.705000000000000000e+03 5.561583042144775391e+00 1.826689338684082031e+01 -7.132066786289215088e-02 -5.087202042341232300e-02 -3.665780648589134216e-02 2.375178039073944092e-02
1.706000000000000000e+03 1.790507197380065918e+00 -1.892267036437988281e+01 -1.723001152276992798e-02 -5.850578192621469498e-03 -6.924177054315805435e-03 -7.894396781921386719e-03
1.707000000000000000e+03 3.587942600250244141e+00 -1.787729454040527344e+01 -2.969347126781940460e-02 -2.583936043083667755e-02 -1.665985025465488434e-02 7.024237129371613264e-05
1.708000000000000000e+03 5.443024635314941406e+00 1.338015270233154297e+01 6.863733287900686264e-03 -1.148134190589189529e-02 -1.385282492265105247e-03 4.548388998955488205e-03
1.709000000000000000e+03 1.787127852439880371e+00 -2.178105735778808594e+01 -1.254194136708974838e-02 -6.207453086972236633e-02 -2.238494157791137695e-02 -5.044358223676681519e-02
1.710000000000000000e+03 6.858485221862792969e+00 -1.986615943908691406e+01 -1.686005741357803345e-01 -7.867939025163650513e-02 -7.418399304151535034e-02 -1.608460098505020142e-01
1.711000000000000000e+03 3.955915927886962891e+00 5.213787078857421875e+00 8.573485538363456726e-04 1.838536991272121668e-04 3.123606729786843061e-04 9.279345977120101452e-05
1.712000000000000000e+03 2.646777391433715820e+00 7.646118164062500000e+00 -3.266776911914348602e-04 5.926736776018515229e-05 -8.022309339139610529e-05 -3.366561140865087509e-04
1.713000000000000000e+03 4.518732070922851562e+00 1.455027198791503906e+01 1.401330437511205673e-02 -1.736140064895153046e-02 -1.004429068416357040e-03 -8.909186581149697304e-04
1.714000000000000000e+03 1.873747467994689941e+00 1.746368408203125000e+01 -5.549200344830751419e-03 6.101712118834257126e-03 1.657534885453060269e-04 -1.216437574476003647e-02
1.715000000000000000e+03 3.507830381393432617e+00 1.998414230346679688e+01 -6.091020256280899048e-02 -6.334932893514633179e-02 -3.727785870432853699e-02 4.697303846478462219e-02
1.716000000000000000e+03 2.655099391937255859e+00 8.937115669250488281e+00 1.763692591339349747e-03 9.257721103494986892e-05 5.568809574469923973e-04 -6.847074837423861027e-04
1.717000000000000000e+03 4.820510864257812500e+00 -4.319262027740478516e+00 -3.660496304291882552e-06 3.964204515796154737e-04 1.178279853775165975e-04 3.402766596991568804e-04
1.718000000000000000e+03 2.801506042480468750e+00 -4.537480831146240234e+00 -4.693249939009547234e-04 2.153921668650582433e-04 -7.617984374519437551e-05 -1.103811082430183887e-04
1.719000000000000000e+03 1.965918183326721191e+00 -4.161328315734863281e+00 4.080929502379149199e-04 -2.900270337704569101e-04 3.541978003340773284e-05 -1.943987881531938910e-04
1.720000000000000000e+03 2.715948820114135742e+00 -1.581392002105712891e+01 3.501198021695017815e-03 -7.635323330760002136e-03 -1.240237616002559662e-03 8.015188388526439667e-03
1.721000000000000000e+03 7.612003803253173828e+00 -9.240008354187011719e+00 -2.973616064991801977e-04 1.031121355481445789e-03 2.201279130531474948e-04 -4.956363118253648281e-04
1.722000000000000000e+03 3.469981193542480469e+00 -2.881105995178222656e+01 1.222578715533018112e-02 -3.282598853111267090e-01 -9.481022506952285767e-02 -1.381495893001556396e-01
1.723000000000000000e+03 4.373887062072753906e+00 -3.767124557495117188e+01 3.379185870289802551e-02 -5.163614749908447266e-01 -1.447708904743194580e-01 -7.033478468656539917e-02
1.724000000000000000e+03 2.842179536819458008e+00 -7.944193840026855469e+00 8.788674022071063519e-04 -4.839295797864906490e-05 2.491423219908028841e-04 4.443775687832385302e-04
1.725000000000000000e+03 2.699092388153076172e+00 -3.458468627929687500e+01 1.661389507353305817e-02 -5.000121593475341797e-01 -1.450194865465164185e-01 -6.720493733882904053e-02
1.726000000000000000e+03 5.376929759979248047e+00 -3.478105163574218750e+01 5.537677556276321411e-02 -4.507848918437957764e-01 -1.186224371194839478e-01 -1.183419525623321533e-01
1.727000000000000000e+03 4.003952980041503906e+00 -3.308410263061523438e+01 2.586612105369567871e-02 -4.377516210079193115e-01 -1.235656514763832092e-01 -1.137867495417594910e-01
1.728000000000000000e+03 2.765230894088745117e+00 -2.024280929565429688e+01 -3.486478328704833984e-02 -4.896593838930130005e-02 -2.514921687543392181e-02 -4.796649515628814697e-02
1.729000000000000000e+03 1.896922349929809570e+00 -2.323392677307128906e+01 -1.109514385461807251e-02 -1.108450219035148621e-01 -3.658204898238182068e-02 -7.198245823383331299e-02
1.730000000000000000e+03 3.306439161300659180e+00 -2.611261940002441406e+01 -2.627329668030142784e-03 -2.423200309276580811e-01 -7.348421216011047363e-02 -1.390733718872070312e-01
1.731000000000000000e+03 6.191635608673095703e+00 -2.518984794616699219e+01 -1.918370649218559265e-02 -2.692983746528625488e-01 -8.654462546110153198e-02 -2.237732410430908203e-01
1.732000000000000000e+03 2.638966560363769531e+00 -1.460998630523681641e+01 3.151200246065855026e-03 -4.914507735520601273e-03 -5.289922701194882393e-04 6.677252240478992462e-03
1.733000000000000000e+03 2.650729656219482422e+00 -1.343059444427490234e+01 4.558620508760213852e-03 -1.991272903978824615e-03 7.702042348682880402e-04 4.172166343778371811e-03
1.734000000000000000e+03 5.938871383666992188e+00 -9.923099517822265625e+00 6.007179763400927186e-06 1.145058893598616123e-03 3.453198296483606100e-04 -1.820923062041401863e-04
1.735000000000000000e+03 2.738209724426269531e+00 1.021209907531738281e+01 5.099116824567317963e-04 1.748798094922676682e-04 2.054374490398913622e-04 -1.716804574243724346e-03
1.736000000000000000e+03 3.253244638442993164e+00 1.289858818054199219e+01 5.636104848235845566e-03 -6.100071594119071960e-03 -1.391900004819035530e-04 -5.092310253530740738e-03
1.737000000000000000e+03 6.849902629852294922e+00 1.667185974121093750e+01 2.306651556864380836e-03 -1.288305595517158508e-02 -3.172921482473611832e-03 2.022239565849304199e-02
1.738000000000000000e+03 5.612795829772949219e+00 1.672807884216308594e+01 -1.029086671769618988e-02 -3.688455000519752502e-02 -1.415262464433908463e-02 9.899633005261421204e-03
1.739000000000000000e+03 4.326250553131103516e+00 1.702705001831054688e+01 -1.165009848773479462e-02 -4.490996152162551880e-02 -1.696801744401454926e-02 -1.848615065682679415e-04
1.740000000000000000e+03 5.345002651214599609e+00 1.536865711212158203e+01 8.619743399322032928e-03 -3.114096075296401978e-02 -6.756365299224853516e-03 6.443424616008996964e-03
1.741000000000000000e+03 7.459840297698974609e+00 1.510612106323242188e+01 -4.119987715966999531e-04 1.958223432302474976e-02 5.751070566475391388e-03 2.144116349518299103e-02
1.742000000000000000e+03 4.153049945831298828e+00 -9.271556854248046875e+00 1.523575396277010441e-03 -5.676868604496121407e-04 2.867665607482194901e-04 4.339387523941695690e-04
1.743000000000000000e+03 9.263913154602050781e+00 -7.068881988525390625e+00 -1.206380329676903784e-04 4.676257958635687828e-04 1.040963325067423284e-04 -1.058938505593687296e-04
1.744000000000000000e+03 8.374228477478027344e+00 -8.083393096923828125e+00 3.676358028315007687e-04 -7.087557460181415081e-04 -1.023359800456091762e-04 1.266434701392427087e-04
1.745000000000000000e+03 1.195516014099121094e+01 7.055999279022216797e+00 1.065854332409799099e-03 1.920228707604110241e-03 8.958249236457049847e-04 1.488139852881431580e-03
1.746000000000000000e+03 1.608890914916992188e+01 1.811301803588867188e+01 -6.336117386817932129e-01 -1.216781139373779297e+00 -5.551179051399230957e-01 6.433847546577453613e-01
1.747000000000000000e+03 2.072505760192871094e+01 9.634841680526733398e-01 -7.058309763669967651e-02 -3.520140349864959717e-01 -1.267791390419006348e-01 2.517663836479187012e-01
1.748000000000000000e+03 2.323117065429687500e+01 4.722161769866943359e+00 -2.964501082897186279e-01 -4.961156547069549561e-01 -2.377697229385375977e-01 6.179388761520385742e-01
1.749000000000000000e+03 1.957590675354003906e+01 1.312669181823730469e+01 -6.365831494331359863e-01 -1.167924046516418457e+00 -5.413521528244018555e-01 7.100390791893005371e-01
1.750000000000000000e+03 1.661937904357910156e+01 -1.414509773254394531e+01 -3.749078810214996338e-01 -2.268417626619338989e-01 -1.805248856544494629e-01 -3.273964822292327881e-01
1.751000000000000000e+03 1.593353557586669922e+01 -1.533042907714843750e+01 -3.828267157077789307e-01 -2.691980302333831787e-01 -1.956074237823486328e-01 -3.351061642169952393e-01
1.752000000000000000e+03 1.451943874359130859e+01 -1.771900558471679688e+01 -3.604982197284698486e-01 -3.094948232173919678e-01 -2.009979039430618286e-01 -3.095891475677490234e-01
1.753000000000000000e+03 2.111571502685546875e+01 9.128302574157714844e+00 -4.535890519618988037e-01 -9.175808429718017578e-01 -4.113509654998779297e-01 6.835014224052429199e-01
1.754000000000000000e+03 2.171311187744140625e+01 1.295501518249511719e+01 -5.630309581756591797e-01 -7.831732034683227539e-01 -4.038612544536590576e-01 6.508489847183227539e-01
1.755000000000000000e+03 1.083722400665283203e+01 -1.951888275146484375e+01 -2.453180700540542603e-01 -3.869826495647430420e-01 -1.896902173757553101e-01 -2.802253067493438721e-01
1.756000000000000000e+03 1.332959651947021484e+01 -2.022579574584960938e+01 -2.223313301801681519e-01 -3.560639321804046631e-01 -1.735185831785202026e-01 -2.818797230720520020e-01
1.757000000000000000e+03 1.989542007446289062e+01 -2.267768144607543945e+00 -2.222174406051635742e-02 -9.947512298822402954e-02 -3.650905936956405640e-02 6.709935516119003296e-02
1.758000000000000000e+03 1.906183052062988281e+01 1.631092071533203125e+01 -5.872497558593750000e-01 -1.048764705657958984e+00 -4.908043146133422852e-01 5.748829841613769531e-01
1.759000000000000000e+03 1.292948627471923828e+01 2.164428901672363281e+01 -2.423828244209289551e-01 -9.390270113945007324e-01 -3.544229567050933838e-01 5.983283519744873047e-01
1.760000000000000000e+03 1.151332378387451172e+01 2.035298919677734375e+01 -5.086201429367065430e-01 -7.670621275901794434e-01 -3.827046751976013184e-01 6.468069553375244141e-01
1.761000000000000000e+03 5.339732170104980469e+00 -9.076292037963867188e+00 3.095450520049780607e-04 -6.055781341274268925e-05 7.469617412425577641e-05 -1.158119644969701767e-03
1.762000000000000000e+03 5.299535751342773438e+00 -1.099779605865478516e+01 2.467898186296224594e-03 -1.768681919202208519e-03 2.097648393828421831e-04 -1.751537551172077656e-03
1.763000000000000000e+03 5.054056167602539062e+00 4.011199951171875000e+01 5.741101130843162537e-02 -8.113194704055786133e-01 -2.261725366115570068e-01 7.241986691951751709e-02
1.764000000000000000e+03 6.298793029785156250e+01 -8.649144172668457031e+00 1.393748879432678223e+00 3.386246681213378906e+00 1.433998584747314453e+00 3.821952581405639648e+00
1.765000000000000000e+03 6.400269317626953125e+01 -8.501173019409179688e+00 1.737222194671630859e+00 7.473362922668457031e+00 2.763175487518310547e+00 5.796988487243652344e+00
1.766000000000000000e+03 6.429603576660156250e+01 -4.088017463684082031e+00 1.077197194099426270e+00 9.669552803039550781e+00 3.224025011062622070e+00 -5.801856517791748047e+00
1.767000000000000000e+03 6.271325302124023438e+01 -4.321916103363037109e+00 1.087815165519714355e+00 2.328881263732910156e+00 1.025008916854858398e+00 -3.224477291107177734e+00
1.768000000000000000e+03 6.516661834716796875e+01 -8.464242935180664062e+00 2.172148972749710083e-02 1.574631404876708984e+01 4.730410575866699219e+00 4.687655925750732422e+00
1.769000000000000000e+03 6.457723236083984375e+01 -4.535733222961425781e+00 1.341702938079833984e+00 1.178245735168457031e+01 3.937247991561889648e+00 -6.450592041015625000e+00
1.770000000000000000e+03 6.502832031250000000e+01 -4.176911354064941406e+00 6.395231187343597412e-02 1.473271656036376953e+01 4.439000606536865234e+00 -4.856289863586425781e+00
1.771000000000000000e+03 6.640280914306640625e+01 -8.061233520507812500e+00 2.145379781723022461e+00 1.846090507507324219e+01 6.181885719299316406e+00 -1.068282127380371094e+00
1.772000000000000000e+03 6.669717407226562500e+01 -7.706771850585937500e+00 4.490188598632812500e+00 1.788609504699707031e+01 6.712885379791259766e+00 -2.262053489685058594e+00
1.773000000000000000e+03 6.672861480712890625e+01 -5.156648159027099609e+00 4.842570304870605469e+00 1.757203292846679688e+01 6.724380970001220703e+00 2.399829864501953125e+00
1.774000000000000000e+03 6.712725830078125000e+01 -7.183507442474365234e+00 6.971652030944824219e+00 1.564676475524902344e+01 6.785525321960449219e+00 -2.087716341018676758e+00
1.775000000000000000e+03 6.793981170654296875e+01 -6.948999404907226562e+00 6.384669780731201172e+00 1.308084774017333984e+01 5.839655399322509766e+00 -1.090375781059265137e+00
1.776000000000000000e+03 6.649675750732421875e+01 -4.571002960205078125e+00 1.839213848114013672e+00 1.786138725280761719e+01 5.910180568695068359e+00 1.012709379196166992e+00
1.777000000000000000e+03 6.688085174560546875e+01 -5.379092693328857422e+00 6.115590095520019531e+00 1.679421424865722656e+01 6.872941493988037109e+00 2.447744607925415039e+00
1.778000000000000000e+03 6.094882202148437500e+01 -8.618948936462402344e+00 -5.297922492027282715e-01 7.054085731506347656e-01 5.268489196896553040e-02 1.271821141242980957e+00
1.779000000000000000e+03 6.152297592163085938e+01 -3.641115188598632812e+00 2.723455429077148438e-01 1.658702611923217773e+00 5.793144702911376953e-01 -2.230471849441528320e+00
1.780000000000000000e+03 5.956562042236328125e+01 -3.570686340332031250e+00 -9.487296342849731445e-01 5.211185812950134277e-01 -1.282833069562911987e-01 -9.179291725158691406e-01
1.781000000000000000e+03 6.079530715942382812e+01 -3.765803813934326172e+00 -4.062236845493316650e-01 8.625903129577636719e-01 1.369099915027618408e-01 -1.485492229461669922e+00
1.782000000000000000e+03 2.091042327880859375e+01 3.450026750564575195e+00 -1.353826224803924561e-01 -5.781002044677734375e-01 -2.140448391437530518e-01 3.954430222511291504e-01
1.783000000000000000e+03 2.562807273864746094e+01 -3.432157516479492188e+00 -3.136278390884399414e-01 -6.131098791956901550e-02 -1.124816536903381348e-01 2.558941841125488281e-01
1.784000000000000000e+03 2.448827743530273438e+01 -2.538080453872680664e+00 -2.478635758161544800e-01 -1.073625832796096802e-01 -1.065678447484970093e-01 2.761677801609039307e-01
1.785000000000000000e+03 1.982481002807617188e+01 -1.368525981903076172e+00 -2.619796991348266602e-02 -1.489839106798171997e-01 -5.255456268787384033e-02 9.004706889390945435e-02
1.786000000000000000e+03 2.704402923583984375e+01 -3.528685569763183594e+00 -4.159980118274688721e-01 -4.178415983915328979e-02 -1.373346447944641113e-01 2.847120165824890137e-01
1.787000000000000000e+03 2.515819358825683594e+01 -2.671046733856201172e+00 -2.912645339965820312e-01 -9.179273247718811035e-02 -1.149171739816665649e-01 2.923942506313323975e-01
1.788000000000000000e+03 2.846953964233398438e+01 -3.569934606552124023e+00 -5.280006527900695801e-01 -2.502812817692756653e-02 -1.659086346626281738e-01 3.079009950160980225e-01
1.789000000000000000e+03 2.722978210449218750e+01 -2.862604141235351562e+00 -4.351184964179992676e-01 -5.393037945032119751e-02 -1.467146575450897217e-01 3.390167057514190674e-01
1.790000000000000000e+03 8.548163414001464844e+00 4.169718265533447266e+00 1.226936728926375508e-04 1.397951506078243256e-03 4.561935493256896734e-04 5.931950290687382221e-04
1.791000000000000000e+03 2.793567276000976562e+01 -2.880718231201171875e+00 -4.869820177555084229e-01 -4.366961494088172913e-02 -1.591954976320266724e-01 3.519893884658813477e-01
1.792000000000000000e+03 2.990755462646484375e+01 -3.583085775375366211e+00 -6.486731171607971191e-01 -1.150028407573699951e-02 -1.980520188808441162e-01 3.260008990764617920e-01
1.793000000000000000e+03 9.607775688171386719e+00 -3.096715688705444336e+00 -5.543384395423345268e-05 3.889493818860501051e-04 1.000546617433428764e-04 3.446045448072254658e-04
1.794000000000000000e+03 8.985320091247558594e+00 -3.241955757141113281e+00 -7.588291191495954990e-05 -2.775996108539402485e-04 -1.060447539202868938e-04 -2.764940436463803053e-04
1.795000000000000000e+03 7.855797290802001953e+00 4.144079208374023438e+00 6.584571383427828550e-05 -1.239610835909843445e-03 -3.521295438986271620e-04 -5.160228465683758259e-04
1.796000000000000000e+03 7.010280609130859375e+00 4.894288063049316406e+00 3.164651861879974604e-04 -1.163180568255484104e-03 -2.540146233513951302e-04 8.653706754557788372e-05
1.797000000000000000e+03 3.761137723922729492e+00 6.309141159057617188e+00 -4.386705113574862480e-04 -1.251257635885849595e-04 -1.691388752078637481e-04 -1.179961836896836758e-04
1.798000000000000000e+03 2.456427574157714844e+00 4.887677669525146484e+00 -3.954897110816091299e-04 -8.858907676767557859e-05 -1.452236319892108440e-04 3.782982821576297283e-05
1.799000000000000000e+03 3.193635463714599609e+00 3.649896383285522461e+00 -2.253320708405226469e-04 -2.697398886084556580e-04 -1.485215907450765371e-04 1.327818754361942410e-04
1.800000000000000000e+03 1.410798668861389160e+00 4.995174884796142578e+00 2.404810948064550757e-04 -3.135608494631014764e-05 6.273750477703288198e-05 2.147711056750267744e-04
1.801000000000000000e+03 1.709282159805297852e+00 3.392111539840698242e+00 -2.405015984550118446e-04 -3.263228863943368196e-04 -1.700473367236554623e-04 -3.205102257197722793e-05
1.802000000000000000e+03 3.136375045776367188e+01 -3.575490951538085938e+00 -7.769184112548828125e-01 -9.895085822790861130e-04 -2.333723753690719604e-01 3.390336930751800537e-01
1.803000000000000000e+03 3.078689956665039062e+01 -2.895486831665039062e+00 -7.107768654823303223e-01 -1.091392990201711655e-02 -2.165072411298751831e-01 3.925946950912475586e-01
1.804000000000000000e+03 2.541057205200195312e+01 -2.019453525543212891e+00 -3.119129240512847900e-01 -1.105797514319419861e-01 -1.267478018999099731e-01 3.429754674434661865e-01
1.805000000000000000e+03 2.314267349243164062e+01 -2.224886178970336914e+00 -1.696390211582183838e-01 -1.365933567285537720e-01 -9.186971187591552734e-02 2.351876497268676758e-01
1.806000000000000000e+03 2.824726867675781250e+01 -1.574822783470153809e+00 -5.050956606864929199e-01 -6.593210250139236450e-02 -1.713083237409591675e-01 4.535590410232543945e-01
1.807000000000000000e+03 3.283638381958007812e+01 -3.549657583236694336e+00 -9.112305045127868652e-01 6.573217455297708511e-03 -2.713971734046936035e-01 3.484630882740020752e-01
1.808000000000000000e+03 3.021498489379882812e+01 -2.218930959701538086e+00 -6.512136459350585938e-01 -2.451697923243045807e-02 -2.027191817760467529e-01 4.386198520660400391e-01
1.809000000000000000e+03 7.509942531585693359e+00 -3.334894895553588867e+00 -1.107605785364285111e-04 -1.446745300199836493e-04 -7.663053111173212528e-05 -2.243744675070047379e-04
1.810000000000000000e+03 1.071859359741210938e+01 -5.214503765106201172e+00 -1.043796801241114736e-04 1.316385751124471426e-04 8.177667950803879648e-06 -8.227544458350166678e-05
1.811000000000000000e+03 3.431945037841796875e+01 -3.514127016067504883e+00 -1.049291491508483887e+00 1.140708569437265396e-02 -3.113653063774108887e-01 3.543181717395782471e-01
1.812000000000000000e+03 3.297772979736328125e+01 -2.858122587203979492e+00 -8.915185928344726562e-01 4.587510135024785995e-03 -2.660793364048004150e-01 4.104445576667785645e-01
1.813000000000000000e+03 3.580459213256835938e+01 -3.474532604217529297e+00 -1.188811898231506348e+00 1.376460958272218704e-02 -3.525141775608062744e-01 3.571304678916931152e-01
1.814000000000000000e+03 3.224303436279296875e+01 -2.874762773513793945e+00 -8.305814862251281738e-01 3.748953167814761400e-04 -2.490619868040084839e-01 4.055159986019134521e-01
1.815000000000000000e+03 4.312839889526367188e+01 -9.793047904968261719e+00 -1.787826657295227051e+00 -4.588902462273836136e-03 -5.377246737480163574e-01 -3.241994678974151611e-01
1.816000000000000000e+03 4.534029388427734375e+01 -1.185355186462402344e+01 -1.342901468276977539e+00 3.288898244500160217e-02 -3.930037617683410645e-01 -3.673156499862670898e-01
1.817000000000000000e+03 4.163477706909179688e+01 -9.830865859985351562e+00 -1.697981595993041992e+00 -9.929217398166656494e-03 -5.123732686042785645e-01 -3.250849246978759766e-01
1.818000000000000000e+03 4.238179779052734375e+01 -1.053283786773681641e+01 -1.579581379890441895e+00 -7.473531644791364670e-03 -4.761164486408233643e-01 -3.607172369956970215e-01
1.819000000000000000e+03 4.685185623168945312e+01 -1.040874576568603516e+01 -1.764679908752441406e+00 2.192142605781555176e-02 -5.228275656700134277e-01 -3.200899064540863037e-01
1.820000000000000000e+03 4.751329803466796875e+01 -1.178422546386718750e+01 -1.357123851776123047e+00 6.493699550628662109e-02 -3.876560628414154053e-01 -3.084691166877746582e-01
1.821000000000000000e+03 4.759206008911132812e+01 -9.699324607849121094e+00 -2.011264085769653320e+00 1.637815497815608978e-02 -5.984657406806945801e-01 -2.910070419311523438e-01
1.822000000000000000e+03 4.013500595092773438e+01 -9.871742248535156250e+00 -1.603498458862304688e+00 -1.390992384403944016e-02 -4.852224886417388916e-01 -3.232372701168060303e-01
1.823000000000000000e+03 4.236882400512695312e+01 -1.126497650146484375e+01 -1.417040348052978516e+00 -6.843446753919124603e-03 -4.271651506423950195e-01 -3.879830241203308105e-01
1.824000000000000000e+03 4.907573699951171875e+01 -1.038265705108642578e+01 -1.796698927879333496e+00 4.078490287065505981e-02 -5.267742276191711426e-01 -2.710050046443939209e-01
1.825000000000000000e+03 4.981998825073242188e+01 -1.037592124938964844e+01 -1.794811367988586426e+00 5.072921514511108398e-02 -5.232246518135070801e-01 -2.487986087799072266e-01
1.826000000000000000e+03 3.863929748535156250e+01 -9.912025451660156250e+00 -1.507837772369384766e+00 -1.662616431713104248e-02 -4.573391675949096680e-01 -3.205765485763549805e-01
1.827000000000000000e+03 4.013023757934570312e+01 -1.060131549835205078e+01 -1.462810993194580078e+00 -1.663182489573955536e-02 -4.438328742980957031e-01 -3.624792695045471191e-01
1.828000000000000000e+03 5.203085708618164062e+01 -1.103659057617187500e+01 -1.447431206703186035e+00 1.303475797176361084e-01 -3.951250910758972168e-01 -1.061590984463691711e-01
1.829000000000000000e+03 5.057348632812500000e+01 -9.665819168090820312e+00 -2.073105812072753906e+00 3.670465201139450073e-02 -6.109203100204467773e-01 -2.300559282302856445e-01
1.830000000000000000e+03 3.384459304809570312e+01 -2.148390293121337891e+00 -9.218225479125976562e-01 7.356635294854640961e-03 -2.743397653102874756e-01 4.702950417995452881e-01
1.831000000000000000e+03 3.729499435424804688e+01 -3.436557531356811523e+00 -1.328939795494079590e+00 1.430913340300321579e-02 -3.943892121315002441e-01 3.569986820220947266e-01
1.832000000000000000e+03 3.593581390380859375e+01 -2.784057617187500000e+00 -1.139309525489807129e+00 1.462859846651554108e-02 -3.374042809009552002e-01 4.195055663585662842e-01
1.833000000000000000e+03 5.281256866455078125e+01 -1.031376171112060547e+01 -1.704539299011230469e+00 1.023661419749259949e-01 -4.806519448757171631e-01 -1.021351441740989685e-01
1.834000000000000000e+03 3.714025878906250000e+01 -9.955245018005371094e+00 -1.409373283386230469e+00 -1.987355016171932220e-02 -4.287740588188171387e-01 -3.170537948608398438e-01
1.835000000000000000e+03 3.937942886352539062e+01 -1.062401199340820312e+01 -1.420493245124816895e+00 -1.758798211812973022e-02 -4.314243793487548828e-01 -3.617098331451416016e-01
1.836000000000000000e+03 5.506055831909179688e+01 -9.563371658325195312e+00 -1.888561844825744629e+00 1.152799278497695923e-01 -5.319845676422119141e-01 1.013425458222627640e-02
1.837000000000000000e+03 4.387445068359375000e+01 -1.119610500335693359e+01 -1.477750539779663086e+00 5.862942431122064590e-03 -4.415662884712219238e-01 -3.775768578052520752e-01
1.838000000000000000e+03 4.462574386596679688e+01 -1.046123981475830078e+01 -1.685672521591186523e+00 5.294186994433403015e-03 -5.041134953498840332e-01 -3.478609323501586914e-01
1.839000000000000000e+03 4.758504486083984375e+01 -1.039683246612548828e+01 -1.781102418899536133e+00 2.659818902611732483e-02 -5.263512730598449707e-01 -3.062484562397003174e-01
1.840000000000000000e+03 5.579840469360351562e+01 -1.019759273529052734e+01 -1.403353929519653320e+00 2.367205917835235596e-01 -3.499899804592132568e-01 2.004414051771163940e-01
1.841000000000000000e+03 5.729043197631835938e+01 -1.013276767730712891e+01 -1.106372952461242676e+00 3.846029043197631836e-01 -2.165310382843017578e-01 4.791659712791442871e-01
1.842000000000000000e+03 5.654872894287109375e+01 -9.511959075927734375e+00 -1.678615212440490723e+00 1.851807832717895508e-01 -4.480303227901458740e-01 1.830785125494003296e-01
1.843000000000000000e+03 5.055942535400390625e+01 -1.036630916595458984e+01 -1.786538243293762207e+00 6.004117429256439209e-02 -5.179491043090820312e-01 -2.199456095695495605e-01
1.844000000000000000e+03 3.564726638793945312e+01 -9.991871833801269531e+00 -1.310910105705261230e+00 -2.306960523128509521e-02 -4.001938998699188232e-01 -3.111964464187622070e-01
1.845000000000000000e+03 3.789030838012695312e+01 -1.066284942626953125e+01 -1.337955236434936523e+00 -2.109692990779876709e-02 -4.077156484127044678e-01 -3.605068325996398926e-01
1.846000000000000000e+03 5.355201339721679688e+01 -1.028905582427978516e+01 -1.657961606979370117e+00 1.230455562472343445e-01 -4.604748189449310303e-01 -4.840216413140296936e-02
1.847000000000000000e+03 5.805844116210937500e+01 -1.010931491851806641e+01 -8.917725682258605957e-01 5.106914639472961426e-01 -1.143243387341499329e-01 6.954251527786254883e-01
1.848000000000000000e+03 3.803954696655273438e+01 -3.418749332427978516e+00 -1.399155139923095703e+00 1.381684467196464539e-02 -4.156014919281005859e-01 3.556180000305175781e-01
1.849000000000000000e+03 3.605042648315429688e+01 -2.094943761825561523e+00 -1.084615111351013184e+00 1.634078659117221832e-02 -3.204823136329650879e-01 4.749763607978820801e-01
1.850000000000000000e+03 5.883709716796875000e+01 -1.010321044921875000e+01 -6.256191730499267578e-01 7.092276811599731445e-01 2.508255466818809509e-02 9.666162729263305664e-01
1.851000000000000000e+03 5.650507736206054688e+01 -1.082571887969970703e+01 -9.359679222106933594e-01 4.358150362968444824e-01 -1.500458717346191406e-01 4.638183414936065674e-01
1.852000000000000000e+03 3.489266586303710938e+01 -1.000824260711669922e+01 -1.260215878486633301e+00 -2.526908181607723236e-02 -3.856454789638519287e-01 -3.075881302356719971e-01
1.853000000000000000e+03 3.637705230712890625e+01 -1.143235588073730469e+01 -1.143155336380004883e+00 -2.993839792907238007e-02 -3.519281148910522461e-01 -3.933368325233459473e-01
1.854000000000000000e+03 1.095780563354492188e+01 3.371345520019531250e+00 5.843233666382730007e-04 5.511335912160575390e-04 3.406370815355330706e-04 8.288740064017474651e-04
1.855000000000000000e+03 1.161793613433837891e+01 5.004914760589599609e+00 -6.449821521528065205e-04 -1.313941553235054016e-03 -5.876771174371242523e-04 -1.731046824716031551e-03
1.856000000000000000e+03 5.466260910034179688e+01 -2.620532274246215820e+00 -1.710995793342590332e+00 1.651303470134735107e-01 -4.637596607208251953e-01 -6.992647796869277954e-02
1.857000000000000000e+03 5.455224990844726562e+01 -3.271734237670898438e+00 -2.096341609954833984e+00 9.033666551113128662e-02 -6.018014550209045410e-01 2.082337439060211182e-02
1.858000000000000000e+03 5.833028411865234375e+01 -2.881160020828247070e+00 -1.023864746093750000e+00 4.882720708847045898e-01 -1.606777906417846680e-01 -7.329064011573791504e-01
1.859000000000000000e+03 5.304788208007812500e+01 -3.232834339141845703e+00 -2.183672189712524414e+00 5.636195465922355652e-02 -6.381930708885192871e-01 1.204254180192947388e-01
1.860000000000000000e+03 5.762791061401367188e+01 -2.804908514022827148e+00 -1.202967524528503418e+00 3.865085542201995850e-01 -2.449376732110977173e-01 -5.612634420394897461e-01
1.861000000000000000e+03 6.012058258056640625e+01 -3.583617687225341797e+00 -6.579412221908569336e-01 7.672709822654724121e-01 3.279893472790718079e-02 -1.214473605155944824e+00
1.862000000000000000e+03 5.091429138183593750e+01 -2.522690773010253906e+00 -1.920507431030273438e+00 5.744400992989540100e-02 -5.589190125465393066e-01 2.049994915723800659e-01
1.863000000000000000e+03 4.027357101440429688e+01 -3.357422590255737305e+00 -1.601099610328674316e+00 1.243017986416816711e-02 -4.766008257865905762e-01 3.502663969993591309e-01
1.864000000000000000e+03 5.903007125854492188e+01 -2.947741270065307617e+00 -7.617077827453613281e-01 6.562395691871643066e-01 -3.164045885205268860e-02 -9.995459914207458496e-01
1.865000000000000000e+03 5.240575027465820312e+01 -2.544633865356445312e+00 -1.876037001609802246e+00 8.489204198122024536e-02 -5.373434424400329590e-01 1.237402930855751038e-01
1.866000000000000000e+03 5.690022277832031250e+01 -2.742658138275146484e+00 -1.368976831436157227e+00 3.120803833007812500e-01 -3.170689344406127930e-01 -3.966185450553894043e-01
1.867000000000000000e+03 3.964205932617187500e+01 -2.690211772918701172e+00 -1.439076662063598633e+00 1.702747307717800140e-02 -4.266147613525390625e-01 4.120616316795349121e-01
1.868000000000000000e+03 3.890283584594726562e+01 -2.713420867919921875e+00 -1.382495284080505371e+00 1.674846559762954712e-02 -4.097240567207336426e-01 4.144986569881439209e-01
1.869000000000000000e+03 4.929567718505859375e+01 -3.210515260696411133e+00 -2.189961433410644531e+00 2.071633376181125641e-02 -6.507735252380371094e-01 2.558775246143341064e-01
1.870000000000000000e+03 4.703977584838867188e+01 -3.226760387420654297e+00 -2.097218036651611328e+00 1.116314809769392014e-02 -6.258164644241333008e-01 2.971797585487365723e-01
1.871000000000000000e+03 5.615147399902343750e+01 -2.694420576095581055e+00 -1.502141714096069336e+00 2.527167797088623047e-01 -3.748274743556976318e-01 -2.674925923347473145e-01
1.872000000000000000e+03 4.865533828735351562e+01 -2.522233486175537109e+00 -1.919521212577819824e+00 3.474843129515647888e-02 -5.654318332672119141e-01 2.885192930698394775e-01
1.873000000000000000e+03 4.412932205200195312e+01 -2.559991836547851562e+00 -1.739272832870483398e+00 1.852291822433471680e-02 -5.162249803543090820e-01 3.772186636924743652e-01
1.874000000000000000e+03 4.262178039550781250e+01 -2.593754291534423828e+00 -1.648723006248474121e+00 1.750020496547222137e-02 -4.893668293952941895e-01 3.932822048664093018e-01
1.875000000000000000e+03 4.628685379028320312e+01 -3.234649181365966797e+00 -2.055924654006958008e+00 1.177130546420812607e-02 -6.132460236549377441e-01 3.067204058170318604e-01
1.876000000000000000e+03 4.639319992065429688e+01 -2.536524772644042969e+00 -1.852101087570190430e+00 2.170259691774845123e-02 -5.491195321083068848e-01 3.419861495494842529e-01
1.877000000000000000e+03 3.263084793090820312e+01 -1.006289100646972656e+01 -1.108867645263671875e+00 -2.561173029243946075e-02 -3.403438031673431396e-01 -2.980103194713592529e-01
1.878000000000000000e+03 5.391176605224609375e+01 -2.588963031768798828e+00 -1.782578349113464355e+00 1.296623349189758301e-01 -4.958747923374176025e-01 8.375622332096099854e-03
1.879000000000000000e+03 5.315446090698242188e+01 -2.563312768936157227e+00 -1.835775256156921387e+00 1.078910380601882935e-01 -5.183652639389038086e-01 6.977096199989318848e-02
1.880000000000000000e+03 3.667767715454101562e+01 -2.766922473907470703e+00 -1.200715422630310059e+00 1.611311174929141998e-02 -3.553807139396667480e-01 4.197317659854888916e-01
1.881000000000000000e+03 3.639716339111328125e+01 -1.069698143005371094e+01 -1.252835988998413086e+00 -2.516849525272846222e-02 -3.834013342857360840e-01 -3.567095100879669189e-01
1.882000000000000000e+03 3.340329742431640625e+01 -1.075765895843505859e+01 -1.077207446098327637e+00 -2.901237271726131439e-02 -3.318659365177154541e-01 -3.445395231246948242e-01
1.883000000000000000e+03 3.415360641479492188e+01 -1.073833942413330078e+01 -1.121574401855468750e+00 -2.983593568205833435e-02 -3.454231023788452148e-01 -3.473277986049652100e-01
1.884000000000000000e+03 5.015719604492187500e+01 -2.516789436340332031e+00 -1.927783012390136719e+00 4.929261282086372375e-02 -5.635471343994140625e-01 2.370034903287887573e-01
1.885000000000000000e+03 4.187160110473632812e+01 -2.615539073944091797e+00 -1.599567174911499023e+00 1.665201596915721893e-02 -4.748745262622833252e-01 4.001645147800445557e-01
1.886000000000000000e+03 4.790457534790039062e+01 -2.527584314346313477e+00 -1.903641462326049805e+00 2.817037701606750488e-02 -5.626413226127624512e-01 3.091326653957366943e-01
1.887000000000000000e+03 4.714761352539062500e+01 -2.530947446823120117e+00 -1.880799293518066406e+00 2.553927712142467499e-02 -5.565779805183410645e-01 3.263576030731201172e-01
1.888000000000000000e+03 4.345082092285156250e+01 -1.855214476585388184e+00 -1.539573550224304199e+00 2.835779637098312378e-02 -4.533647298812866211e-01 4.265784323215484619e-01
1.889000000000000000e+03 4.489001083374023438e+01 -2.552504062652587891e+00 -1.781981229782104492e+00 1.911049149930477142e-02 -5.288612246513366699e-01 3.671348989009857178e-01
1.890000000000000000e+03 3.565391921997070312e+01 -1.070973396301269531e+01 -1.209247589111328125e+00 -2.829422801733016968e-02 -3.712625503540039062e-01 -3.532991111278533936e-01
1.891000000000000000e+03 2.957994079589843750e+01 -1.085573768615722656e+01 -8.462178707122802734e-01 -2.452727593481540680e-02 -2.612235248088836670e-01 -3.324440717697143555e-01
1.892000000000000000e+03 3.035387802124023438e+01 -1.084573936462402344e+01 -8.919274210929870605e-01 -2.647402882575988770e-02 -2.755204439163208008e-01 -3.349651098251342773e-01
1.893000000000000000e+03 6.031575012207031250e+01 -9.298760414123535156e+00 -4.091950953006744385e-01 8.370778560638427734e-01 1.283648312091827393e-01 1.325864553451538086e+00
1.894000000000000000e+03 3.188052177429199219e+01 -1.080861186981201172e+01 -9.841322302818298340e-01 -2.911100164055824280e-02 -3.039729595184326172e-01 -3.399104475975036621e-01
1.895000000000000000e+03 1.076059532165527344e+01 4.966692924499511719e+00 1.917796180350705981e-04 1.692811958491802216e-03 5.653774715028703213e-04 1.335731358267366886e-03
1.896000000000000000e+03 2.723863792419433594e+01 -1.085969638824462891e+01 -7.109543681144714355e-01 -1.294212229549884796e-02 -2.171689420938491821e-01 -3.238892257213592529e-01
1.897000000000000000e+03 2.644908332824707031e+01 -1.010073089599609375e+01 -6.953182816505432129e-01 -5.514741409569978714e-03 -2.102499008178710938e-01 -2.756192088127136230e-01
1.898000000000000000e+03 9.818408966064453125e+00 -4.715490341186523438e+00 1.452785072615370154e-04 -4.075100005138665438e-04 -7.866944361012428999e-05 9.598892938811331987e-05
1.899000000000000000e+03 4.614542484283447266e+00 -3.557382106781005859e+00 -7.159511733334511518e-05 -1.866192615125328302e-04 -7.746431219857186079e-05 -3.426276962272822857e-04
1.900000000000000000e+03 6.238383769989013672e+00 -4.814661502838134766e+00 -3.206007531844079494e-04 6.337139348033815622e-05 -7.716880645602941513e-05 -3.773433563765138388e-04
1.901000000000000000e+03 6.869643688201904297e+00 -4.704487323760986328e+00 2.629353839438408613e-04 1.180966064566746354e-04 1.143096014857292175e-04 5.270308465696871281e-04
1.902000000000000000e+03 8.267365455627441406e+00 -3.329735517501831055e+00 1.326135243289172649e-04 1.879924966488033533e-04 9.618180774850770831e-05 2.876971557270735502e-04
1.903000000000000000e+03 4.087969303131103516e+00 -7.889102935791015625e+00 -1.976146886590868235e-04 1.085500844055786729e-04 -2.671938091225456446e-05 -4.876098828390240669e-04
1.904000000000000000e+03 3.244945764541625977e+00 -3.950043201446533203e+00 -1.861800556071102619e-04 -1.232693466590717435e-04 -9.283481631428003311e-05 -4.709253553301095963e-04
1.905000000000000000e+03 3.647415876388549805e+00 -5.573435783386230469e+00 -3.022254095412790775e-04 -6.823908915976062417e-05 -1.111393503379076719e-04 -4.924411769025027752e-04
1.906000000000000000e+03 2.700295925140380859e+00 -5.539111614227294922e+00 4.892980214208364487e-04 4.453669589565834031e-06 1.481255021644756198e-04 2.181854943046346307e-04
1.907000000000000000e+03 3.111703300476074219e+01 -1.083070373535156250e+01 -9.377732872962951660e-01 -2.894660644233226776e-02 -2.900159657001495361e-01 -3.376926183700561523e-01
1.908000000000000000e+03 2.328955268859863281e+01 -1.072921562194824219e+01 -5.071336627006530762e-01 7.237558253109455109e-03 -1.499688327312469482e-01 -2.974430322647094727e-01
1.909000000000000000e+03 2.407361221313476562e+01 -1.076356601715087891e+01 -5.453693270683288574e-01 6.370254326611757278e-03 -1.616997271776199341e-01 -3.044829666614532471e-01
1.910000000000000000e+03 2.879764556884765625e+01 -1.086137390136718750e+01 -7.999079823493957520e-01 -2.074398286640644073e-02 -2.461955994367599487e-01 -3.298384845256805420e-01
1.911000000000000000e+03 1.171390914916992188e+01 4.158051967620849609e+00 9.264025720767676830e-04 6.382329738698899746e-04 4.693906521424651146e-04 1.233722432516515255e-03
1.912000000000000000e+03 2.801782035827636719e+01 -1.086313533782958984e+01 -7.554257512092590332e-01 -1.779565587639808655e-02 -2.319664210081100464e-01 -3.267968595027923584e-01
1.913000000000000000e+03 1.943481445312500000e+01 -9.722735404968261719e+00 -2.774329185485839844e-01 -4.207492619752883911e-02 -9.585235267877578735e-02 -2.104922980070114136e-01
1.914000000000000000e+03 2.645119667053222656e+01 -1.084831809997558594e+01 -6.684169769287109375e-01 -8.691905066370964050e-03 -2.031326740980148315e-01 -3.196006119251251221e-01
1.915000000000000000e+03 1.874618721008300781e+01 -9.564595222473144531e+00 -2.332795113325119019e-01 -6.152436509728431702e-02 -8.844116330146789551e-02 -1.914829760789871216e-01
1.916000000000000000e+03 1.933616256713867188e+01 -1.084764766693115234e+01 -3.355101644992828369e-01 -5.781131237745285034e-02 -1.179964393377304077e-01 -2.673255205154418945e-01
1.917000000000000000e+03 2.486345100402832031e+01 -1.079948139190673828e+01 -5.852872729301452637e-01 1.502738450653851032e-03 -1.751353591680526733e-01 -3.101292848587036133e-01
1.918000000000000000e+03 2.172262382507324219e+01 -1.071437931060791016e+01 -4.333064854145050049e-01 -6.533795967698097229e-04 -1.301879584789276123e-01 -2.850708365440368652e-01
1.919000000000000000e+03 2.094497489929199219e+01 -1.074561023712158203e+01 -3.982070386409759521e-01 -1.039132010191679001e-02 -1.225795149803161621e-01 -2.766467630863189697e-01
1.920000000000000000e+03 1.013811397552490234e+01 1.005171012878417969e+01 -3.473468677839264274e-05 -3.173275617882609367e-03 -9.624031372368335724e-04 -1.097215921618044376e-03
1.921000000000000000e+03 9.973107337951660156e+00 8.552026748657226562e+00 6.119419704191386700e-04 -2.763975178822875023e-03 -6.456099799834191799e-04 -4.037619510199874640e-04
1.922000000000000000e+03 2.962660789489746094e+00 1.152027702331542969e+01 5.128531716763973236e-03 -9.385464945808053017e-04 1.256995601579546928e-03 -2.795798238366842270e-03
1.923000000000000000e+03 6.672378063201904297e+00 1.831346511840820312e+01 -1.122149899601936340e-01 -3.616714105010032654e-02 -4.451464116573333740e-02 3.509999066591262817e-02
1.924000000000000000e+03 3.089212894439697266e+00 1.725899124145507812e+01 -9.136460721492767334e-03 -2.276724576950073242e-02 -9.571111761033535004e-03 -1.116201840341091156e-02
1.925000000000000000e+03 9.945730209350585938e+00 4.982830524444580078e+00 8.817207708489149809e-05 -1.621843664906919003e-03 -4.601014661602675915e-04 -1.110010081902146339e-03
1.926000000000000000e+03 4.140080928802490234e+00 1.105273532867431641e+01 2.694121096283197403e-03 -2.919450867921113968e-03 -6.759892130503430963e-05 -1.097479835152626038e-03
1.927000000000000000e+03 7.586464405059814453e+00 -2.504863929748535156e+01 -1.604206860065460205e-02 -2.944028675556182861e-01 -9.313347935676574707e-02 -2.548222541809082031e-01
1.928000000000000000e+03 7.885541915893554688e+00 -2.304501724243164062e+01 -8.436418324708938599e-02 -2.517314851284027100e-01 -1.008286997675895691e-01 -2.666224539279937744e-01
1.929000000000000000e+03 2.862086296081542969e+00 -1.903473281860351562e+01 -3.236032277345657349e-02 -2.321507036685943604e-02 -1.667261682450771332e-02 -2.517890371382236481e-02
1.930000000000000000e+03 6.113824367523193359e+00 -1.857971382141113281e+01 -1.476648151874542236e-01 -2.618865109980106354e-02 -5.215603858232498169e-02 -5.842664092779159546e-02
1.931000000000000000e+03 9.856974601745605469e+00 -3.616504669189453125e+00 1.381706388201564550e-04 -4.166513099335134029e-04 -8.354420424439013004e-05 9.211122232954949141e-05
1.932000000000000000e+03 7.694854259490966797e+00 -2.115357208251953125e+01 -1.677453815937042236e-01 -1.694741994142532349e-01 -1.011658757925033569e-01 -2.482876032590866089e-01
1.933000000000000000e+03 2.216846275329589844e+01 7.303527832031250000e+00 -3.794723749160766602e-01 -7.058612704277038574e-01 -3.256000876426696777e-01 6.727212667465209961e-01
1.934000000000000000e+03 2.089078521728515625e+01 6.148159027099609375e+00 -2.493279874324798584e-01 -8.230569958686828613e-01 -3.217155039310455322e-01 5.497233271598815918e-01
1.935000000000000000e+03 2.064114189147949219e+01 -1.244400739669799805e-01 -5.556761845946311951e-02 -2.620397806167602539e-01 -9.528221935033798218e-02 1.904574781656265259e-01
1.936000000000000000e+03 9.273836135864257812e+00 9.454296112060546875e+00 -4.516713379416614771e-04 3.298515221104025841e-03 8.540531271137297153e-04 2.102941361954435706e-04
1.937000000000000000e+03 1.254089355468750000e+01 5.032158374786376953e+00 1.199716469272971153e-03 6.444136961363255978e-04 5.532390205189585686e-04 1.302375691011548042e-03
1.938000000000000000e+03 8.223184585571289062e+00 -5.057644844055175781e+00 3.567487001419067383e-04 -3.628889389801770449e-04 -1.842072947511042003e-06 2.639853628352284431e-04
1.939000000000000000e+03 8.461968421936035156e+00 1.203906345367431641e+01 9.270075242966413498e-04 3.782191197387874126e-05 2.894488279707729816e-04 -3.909619772457517684e-05
1.940000000000000000e+03 5.835535526275634766e+00 1.137647724151611328e+01 3.273112466558814049e-03 -4.445539321750402451e-03 -3.517281438689678907e-04 2.484961412847042084e-03
1.941000000000000000e+03 1.396591472625732422e+01 2.047977638244628906e+01 -3.793115913867950439e-01 -1.036925554275512695e+00 -4.248711466789245605e-01 5.998185873031616211e-01
1.942000000000000000e+03 7.485474395751953125e+01 1.399907493591308594e+01 -1.527031511068344116e-01 7.861573219299316406e+00 2.312660932540893555e+00 -4.744772613048553467e-02
1.943000000000000000e+03 7.613156127929687500e+01 -1.622427701950073242e-01 1.461467891931533813e-02 7.401570320129394531e+00 2.224855422973632812e+00 1.096299648284912109e+00
1.944000000000000000e+03 7.226883697509765625e+01 3.444818115234375000e+01 7.405547797679901123e-02 6.690461158752441406e+00 2.029355049133300781e+00 -1.617178618907928467e-01
1.945000000000000000e+03 7.444925689697265625e+01 3.106840324401855469e+01 3.688552230596542358e-02 7.200468540191650391e+00 2.171206235885620117e+00 -1.724326461553573608e-01
1.946000000000000000e+03 7.600460815429687500e+01 -1.799931716918945312e+01 -2.605272233486175537e-01 8.038499832153320312e+00 2.333391904830932617e+00 -7.269289493560791016e-01
1.947000000000000000e+03 7.597070312500000000e+01 -2.206457901000976562e+01 -2.012321203947067261e-01 8.189204216003417969e+00 2.396391630172729492e+00 -3.249749243259429932e-01
1.948000000000000000e+03 7.690998840332031250e+01 8.178935050964355469e+00 -1.498387157917022705e-01 8.123666763305664062e+00 2.392148494720458984e+00 3.478154838085174561e-01
1.949000000000000000e+03 7.551924896240234375e+01 9.389659881591796875e+00 -2.433064281940460205e-01 8.070559501647949219e+00 2.348176002502441406e+00 2.704641819000244141e-01
1.950000000000000000e+03 7.599457550048828125e+01 -1.937850189208984375e+01 -2.550936937332153320e-01 8.113080024719238281e+00 2.357395887374877930e+00 -5.766603946685791016e-01
1.951000000000000000e+03 7.714039611816406250e+01 -1.800514221191406250e+01 -1.479480415582656860e-01 7.916338920593261719e+00 2.330517292022705078e+00 -6.167776584625244141e-01
1.952000000000000000e+03 7.602487945556640625e+01 -1.661503601074218750e+01 -2.430985718965530396e-01 7.932305335998535156e+00 2.306761980056762695e+00 -8.712213039398193359e-01
1.953000000000000000e+03 7.607486724853515625e+01 -1.523789882659912109e+01 -1.925848424434661865e-01 7.790167808532714844e+00 2.279274940490722656e+00 -9.982570409774780273e-01
1.954000000000000000e+03 7.653947448730468750e+01 1.694684791564941406e+01 -4.322030022740364075e-02 8.075757980346679688e+00 2.409761428833007812e+00 -9.182739257812500000e-02
1.955000000000000000e+03 7.521129608154296875e+01 1.851318168640136719e+01 -5.076279491186141968e-02 7.761399269104003906e+00 2.313190937042236328e+00 -1.660420745611190796e-01
1.956000000000000000e+03 7.514820861816406250e+01 2.134385108947753906e+01 -2.073847688734531403e-02 7.645027160644531250e+00 2.287286520004272461e+00 -1.967286020517349243e-01
1.957000000000000000e+03 7.519525909423828125e+01 1.993233680725097656e+01 -3.393969684839248657e-02 7.704881668090820312e+00 2.301282644271850586e+00 -1.843529343605041504e-01
1.958000000000000000e+03 7.384665679931640625e+01 1.724018669128417969e+01 -9.973265975713729858e-02 7.552925586700439453e+00 2.235957860946655273e+00 -1.955057680606842041e-01
1.959000000000000000e+03 7.479520416259765625e+01 -2.332689666748046875e+01 -2.519713938236236572e-01 8.083151817321777344e+00 2.349354028701782227e+00 -2.200168967247009277e-01
1.960000000000000000e+03 7.525199127197265625e+01 1.082372570037841797e+01 -2.260613292455673218e-01 8.022300720214843750e+00 2.338871955871582031e+00 1.499401777982711792e-01
1.961000000000000000e+03 7.429692840576171875e+01 9.087533950805664062e+00 -3.652965426445007324e-01 8.013022422790527344e+00 2.294317722320556641e+00 2.620102167129516602e-01
1.962000000000000000e+03 7.646540832519531250e+01 -8.434367179870605469e+00 4.875767230987548828e-01 6.621152877807617188e+00 2.132618904113769531e+00 -5.555199384689331055e-01
1.963000000000000000e+03 7.633273315429687500e+01 -2.937012910842895508e+00 3.807824850082397461e-01 6.874840736389160156e+00 2.176687002182006836e+00 8.566560745239257812e-01
1.964000000000000000e+03 7.470750427246093750e+01 2.685203552246093750e+01 3.487673401832580566e-02 7.368478298187255859e+00 2.221006631851196289e+00 -2.026090472936630249e-01
1.965000000000000000e+03 7.356876373291015625e+01 2.288219451904296875e+01 -5.920704454183578491e-03 7.271615028381347656e+00 2.179708242416381836e+00 -2.554380297660827637e-01
1.966000000000000000e+03 7.596881103515625000e+01 -2.465007400512695312e+01 -1.351574659347534180e-01 8.212412834167480469e+00 2.423176527023315430e+00 -1.478730887174606323e-01
1.967000000000000000e+03 7.710532379150390625e+01 -2.476365089416503906e+01 -7.583190500736236572e-02 8.383623123168945312e+00 2.492337465286254883e+00 -1.307939440011978149e-01
1.968000000000000000e+03 7.595506286621093750e+01 -2.591626739501953125e+01 -1.089423000812530518e-01 8.204822540283203125e+00 2.428764104843139648e+00 -8.557537198066711426e-02
1.969000000000000000e+03 7.540721130371093750e+01 -9.778315544128417969e+00 5.288491249084472656e-01 7.360898494720458984e+00 2.366924285888671875e+00 -9.765014648437500000e-01
1.970000000000000000e+03 7.725151824951171875e+01 -1.386553478240966797e+01 -4.610331729054450989e-02 7.182212829589843750e+00 2.140832901000976562e+00 -8.922483921051025391e-01
1.971000000000000000e+03 7.685997772216796875e+01 2.638927078247070312e+01 8.972608484327793121e-03 7.786807060241699219e+00 2.338733911514282227e+00 -1.336121708154678345e-01
1.972000000000000000e+03 7.567202758789062500e+01 2.643165588378906250e+01 1.443141698837280273e-02 7.562102794647216797e+00 2.272960186004638672e+00 -1.802715361118316650e-01
1.973000000000000000e+03 7.639464569091796875e+01 3.009808349609375000e+01 1.789093203842639923e-02 7.572262763977050781e+00 2.277046203613281250e+00 -1.171268299221992493e-01
1.974000000000000000e+03 7.478627777099609375e+01 2.967709159851074219e+01 3.307053074240684509e-02 7.301867008209228516e+00 2.200481176376342773e+00 -1.661251336336135864e-01
1.975000000000000000e+03 7.562430572509765625e+01 2.741562271118164062e+01 2.858966402709484100e-02 7.519733428955078125e+00 2.264497041702270508e+00 -1.657412201166152954e-01
1.976000000000000000e+03 7.715853881835937500e+01 2.671975135803222656e+00 -1.129544600844383240e-01 7.489125251770019531e+00 2.212851285934448242e+00 8.137338757514953613e-01
1.977000000000000000e+03 7.602476501464843750e+01 3.965441942214965820e+00 -2.557625174522399902e-01 7.907563209533691406e+00 2.295540094375610352e+00 8.315763473510742188e-01
1.978000000000000000e+03 7.586563110351562500e+01 6.652226448059082031e+00 -2.725683450698852539e-01 8.057113647460937500e+00 2.335363626480102539e+00 5.402381420135498047e-01
1.979000000000000000e+03 7.596449279785156250e+01 5.309454917907714844e+00 -2.712511718273162842e-01 7.996481895446777344e+00 2.317569255828857422e+00 6.862097382545471191e-01
1.980000000000000000e+03 7.496187591552734375e+01 3.885869026184082031e+00 -3.736739456653594971e-01 8.111829757690429688e+00 2.321446895599365234e+00 8.866501450538635254e-01
1.981000000000000000e+03 7.637617492675781250e+01 -4.334248065948486328e+00 5.007473826408386230e-01 6.663213253021240234e+00 2.149188280105590820e+00 5.539496541023254395e-01
1.982000000000000000e+03 7.647781372070312500e+01 -7.099568843841552734e+00 5.875353217124938965e-01 6.518333435058593750e+00 2.131760597229003906e+00 -2.014325708150863647e-01
1.983000000000000000e+03 7.370369720458984375e+01 -3.634360885620117188e+01 3.198011219501495361e-02 7.571267604827880859e+00 2.280974149703979492e+00 6.405967473983764648e-02
1.984000000000000000e+03 7.605433654785156250e+01 -3.674392318725585938e+01 -1.849574781954288483e-02 8.166852951049804688e+00 2.444507122039794922e+00 4.884004220366477966e-02
1.985000000000000000e+03 7.488980102539062500e+01 -3.163445091247558594e+01 -3.059104084968566895e-02 7.853148460388183594e+00 2.346767187118530273e+00 6.961336731910705566e-02
1.986000000000000000e+03 7.632264709472656250e+01 -1.110583209991455078e+01 2.014089524745941162e-01 7.082062244415283203e+00 2.185041427612304688e+00 -1.010970592498779297e+00
1.987000000000000000e+03 7.736496734619140625e+01 -1.110508346557617188e+01 1.176608353853225708e-01 6.534543514251708984e+00 1.995661258697509766e+00 -8.151243925094604492e-01
1.988000000000000000e+03 7.624099731445312500e+01 -1.247744655609130859e+01 4.998679086565971375e-02 7.345815658569335938e+00 2.218740701675415039e+00 -1.096086263656616211e+00
1.989000000000000000e+03 7.450090789794921875e+01 3.376911544799804688e+01 3.523313254117965698e-02 7.116228580474853516e+00 2.145438671112060547e+00 -1.132641732692718506e-01
1.990000000000000000e+03 7.413875579833984375e+01 -2.960371971130371094e+01 -7.406271994113922119e-02 7.795119285583496094e+00 2.316317081451416016e+00 7.602325081825256348e-02
1.991000000000000000e+03 7.496809387207031250e+01 -3.523704147338867188e+01 -1.312689390033483505e-02 7.827736377716064453e+00 2.344383001327514648e+00 3.600709885358810425e-02
1.992000000000000000e+03 7.632531738281250000e+01 -3.336493682861328125e+01 -1.997774280607700348e-02 8.217872619628906250e+00 2.459368467330932617e+00 4.063756391406059265e-02
1.993000000000000000e+03 7.531731414794921875e+01 -3.004945182800292969e+01 -4.143955931067466736e-02 8.003827095031738281e+00 2.388716220855712891e+00 5.196750536561012268e-02
1.994000000000000000e+03 3.109265565872192383e+00 1.583452892303466797e+01 3.955818712711334229e-03 -1.827905885875225067e-02 -4.296971950680017471e-03 -1.311579626053571701e-02
1.995000000000000000e+03 3.526804208755493164e+00 -1.398119068145751953e+01 5.555732641369104385e-03 -9.198705665767192841e-03 -1.092891790904104710e-03 3.545668441802263260e-03
1.996000000000000000e+03 5.470938205718994141e+00 1.966432762145996094e+01 -1.520462632179260254e-01 -6.870216131210327148e-02 -6.622452288866043091e-02 7.511270791292190552e-02
1.997000000000000000e+03 5.298388004302978516e+00 2.102581787109375000e+01 -1.696253716945648193e-01 -1.194731742143630981e-01 -8.672956377267837524e-02 1.614907085895538330e-01
1.998000000000000000e+03 4.516296863555908203e+00 -1.678549957275390625e+01 -6.175172980874776840e-03 -2.346469834446907043e-02 -8.891961537301540375e-03 -1.931562903337180614e-03
1.999000000000000000e+03 3.273828744888305664e+00 1.437020969390869141e+01 1.001259312033653259e-02 -1.122255343943834305e-02 -3.629881248343735933e-04 -8.141440339386463165e-03
2.000000000000000000e+03 4.382635116577148438e+00 1.839591598510742188e+01 -5.515231937170028687e-02 -5.393171310424804688e-02 -3.272520750761032104e-02 1.721589639782905579e-02
2.001000000000000000e+03 4.422137737274169922e+00 2.480111312866210938e+01 -5.734917521476745605e-02 -3.191696107387542725e-01 -1.129556372761726379e-01 2.683326601982116699e-01
2.002000000000000000e+03 7.109506130218505859e+00 -2.354939460754394531e+01 -6.567966192960739136e-02 -2.385400235652923584e-01 -9.126590192317962646e-02 -2.414482235908508301e-01
2.003000000000000000e+03 5.129459857940673828e+00 -1.381268978118896484e+01 5.466889590024948120e-03 -7.476491853594779968e-03 -6.028806674294173717e-04 -2.967099891975522041e-03
2.004000000000000000e+03 2.888278961181640625e+00 -9.280733108520507812e+00 6.606871920666890219e-06 2.089482040901202708e-05 8.250507562479469925e-06 4.615046782419085503e-05
2.005000000000000000e+03 2.870254039764404297e+00 -1.066159343719482422e+01 2.289516152814030647e-03 -8.070573676377534866e-04 4.447376704774796963e-04 1.183450687676668167e-03
2.006000000000000000e+03 5.167150020599365234e+00 -1.955357360839843750e+01 -9.787192940711975098e-02 -5.645316094160079956e-02 -4.629752784967422485e-02 -8.957563340663909912e-02
2.007000000000000000e+03 3.153775691986083984e+00 -2.307031440734863281e+01 -2.511834166944026947e-02 -1.357183456420898438e-01 -4.825100675225257874e-02 -1.085299104452133179e-01
2.008000000000000000e+03 4.847569465637207031e+00 -2.121093559265136719e+01 -7.821234315633773804e-02 -1.129006445407867432e-01 -5.733389779925346375e-02 -1.321274042129516602e-01
2.009000000000000000e+03 5.995810031890869141e+00 2.306907463073730469e+01 -1.605646163225173950e-01 -2.855895459651947021e-01 -1.338462531566619873e-01 3.297115266323089600e-01
2.010000000000000000e+03 4.599860191345214844e+00 2.780499458312988281e+01 9.275537915527820587e-03 -4.798907339572906494e-01 -1.411845535039901733e-01 2.838668227195739746e-01
2.011000000000000000e+03 5.332156658172607422e+00 2.420639610290527344e+01 -8.614981919527053833e-02 -3.292836844921112061e-01 -1.246300488710403442e-01 3.053858280181884766e-01
2.012000000000000000e+03 3.318218231201171875e+00 -2.462340354919433594e+01 -1.942619122564792633e-02 -1.868813633918762207e-01 -6.189226731657981873e-02 -1.339318752288818359e-01
2.013000000000000000e+03 5.098505973815917969e+00 -2.231275749206542969e+01 -7.203204929828643799e-02 -1.430481672286987305e-01 -6.452406197786331177e-02 -1.624600738286972046e-01
2.014000000000000000e+03 6.107378005981445312e+00 -2.361051368713378906e+01 -4.571080580353736877e-02 -2.250320166349411011e-01 -8.122284710407257080e-02 -2.174284309148788452e-01
2.015000000000000000e+03 3.861737012863159180e+00 -3.162447738647460938e+01 2.657750807702541351e-02 -4.080983102321624756e-01 -1.144562363624572754e-01 -1.252616047859191895e-01
2.016000000000000000e+03 4.870196819305419922e+00 -2.867865753173828125e+01 1.650496572256088257e-02 -3.317718803882598877e-01 -9.458006918430328369e-02 -1.774328052997589111e-01
2.017000000000000000e+03 4.593815326690673828e+00 9.360073089599609375e+00 1.862714765593409538e-03 -1.371865510009229183e-03 1.472547737648710608e-04 -3.484192420728504658e-04
2.018000000000000000e+03 5.946998596191406250e+00 3.082127761840820312e+01 6.749833375215530396e-02 -6.254577636718750000e-01 -1.673878282308578491e-01 2.946044206619262695e-01
2.019000000000000000e+03 5.177402496337890625e+00 3.602536392211914062e+01 8.444748073816299438e-02 -7.511981725692749023e-01 -2.000252157449722290e-01 1.657401770353317261e-01
2.020000000000000000e+03 6.362385272979736328e+00 -1.156757068634033203e+01 -5.524682346731424332e-04 3.127557691186666489e-03 7.725268369540572166e-04 -1.807732624001801014e-03
2.021000000000000000e+03 2.822948694229125977e+00 -1.209137535095214844e+01 1.794659998267889023e-03 -1.240336219780147076e-03 1.662971480982378125e-04 2.270068507641553879e-03
2.022000000000000000e+03 4.099030017852783203e+00 -1.068418216705322266e+01 1.128873554989695549e-03 -6.477269344031810760e-04 1.443439687136560678e-04 -5.641939060296863317e-05
2.023000000000000000e+03 6.144688129425048828e+00 9.609943389892578125e+00 1.682776957750320435e-03 -1.783050480298697948e-03 -3.008205749210901558e-05 9.019420249387621880e-04
2.024000000000000000e+03 3.918702602386474609e+00 -6.643303394317626953e+00 4.603090055752545595e-04 2.645821368787437677e-04 2.174673427361994982e-04 4.643311840482056141e-04
2.025000000000000000e+03 6.976806163787841797e+00 -3.086570167541503906e+01 5.061430484056472778e-02 -3.770421743392944336e-01 -9.792836010456085205e-02 -1.958010941743850708e-01
2.026000000000000000e+03 4.990718841552734375e+00 -2.995670318603515625e+01 3.009719960391521454e-02 -3.653387129306793213e-01 -1.005724519491195679e-01 -1.674058735370635986e-01
2.027000000000000000e+03 5.446127414703369141e+00 -3.139907073974609375e+01 3.725944086909294128e-02 -3.900411427021026611e-01 -1.058345064520835876e-01 -1.639753431081771851e-01
2.028000000000000000e+03 4.306967735290527344e+00 2.900660896301269531e+01 2.310692332684993744e-02 -5.236737132072448730e-01 -1.501700431108474731e-01 2.675291299819946289e-01
2.029000000000000000e+03 3.860713958740234375e+00 3.410977554321289062e+01 4.707792028784751892e-02 -7.138665914535522461e-01 -2.000366002321243286e-01 1.693525612354278564e-01
2.030000000000000000e+03 5.351334095001220703e+00 3.352963638305664062e+01 6.935355067253112793e-02 -6.925375461578369141e-01 -1.869551986455917358e-01 2.237083613872528076e-01
2.031000000000000000e+03 3.736289262771606445e+00 8.872244834899902344e+00 4.863516369368880987e-05 -4.938835627399384975e-05 -2.259577200902640470e-07 -5.657264264300465584e-04
2.032000000000000000e+03 3.507934093475341797e+00 -4.681253433227539062e+00 3.371852799318730831e-04 1.300810545217245817e-04 1.401799090672284365e-04 4.946979461237788200e-04
2.033000000000000000e+03 5.582146644592285156e+00 5.375568866729736328e+00 3.793482319451868534e-04 7.239058613777160645e-04 3.309762396384030581e-04 -4.212407511658966541e-04
2.034000000000000000e+03 6.284859180450439453e+00 -3.599869918823242188e+01 6.319034099578857422e-02 -4.557490348815917969e-01 -1.177676022052764893e-01 -1.121266484260559082e-01
2.035000000000000000e+03 7.443026065826416016e+00 -7.302438259124755859e+00 -1.360348251182585955e-04 9.201054926961660385e-04 2.352212031837552786e-04 3.188430855516344309e-04
2.036000000000000000e+03 1.798755073547363281e+01 -1.183776187896728516e+01 -3.266798555850982666e-01 -1.303937882184982300e-01 -1.371220946311950684e-01 -2.884962558746337891e-01
2.037000000000000000e+03 2.103943824768066406e+01 -1.170818901062011719e+01 -4.216125011444091797e-01 -2.122805081307888031e-02 -1.328521668910980225e-01 -3.171517550945281982e-01
2.038000000000000000e+03 1.694260978698730469e+01 -1.607701492309570312e+01 -3.717873990535736084e-01 -2.108935862779617310e-01 -1.748043000698089600e-01 -3.311090469360351562e-01
2.039000000000000000e+03 1.907896804809570312e+01 -1.462319946289062500e+01 -3.998867869377136230e-01 -1.068501994013786316e-01 -1.520210951566696167e-01 -3.486897349357604980e-01
2.040000000000000000e+03 6.519429206848144531e+00 1.977994918823242188e+01 -2.081685215234756470e-01 -5.111148953437805176e-02 -7.778400182723999023e-02 9.290899336338043213e-02
2.041000000000000000e+03 4.457094669342041016e+00 1.962372970581054688e+01 -9.265547990798950195e-02 -7.090087980031967163e-02 -4.906690493226051331e-02 5.601774156093597412e-02
2.042000000000000000e+03 1.120516872406005859e+01 -2.103760910034179688e+01 -1.509905308485031128e-01 -3.568201661109924316e-01 -1.523431986570358276e-01 -3.013810813426971436e-01
2.043000000000000000e+03 1.390270042419433594e+01 -1.897480010986328125e+01 -2.780798971652984619e-01 -3.343736231327056885e-01 -1.837360560894012451e-01 -2.903060317039489746e-01
2.044000000000000000e+03 1.628874206542968750e+01 -2.023498916625976562e+01 -2.105526030063629150e-01 -2.767618596553802490e-01 -1.461943387985229492e-01 -3.009902536869049072e-01
2.045000000000000000e+03 2.278669357299804688e+01 1.184776592254638672e+01 -5.319292545318603516e-01 -6.622597575187683105e-01 -3.582566976547241211e-01 6.687856316566467285e-01
2.046000000000000000e+03 6.989837646484375000e+00 -1.042935562133789062e+01 7.973680621944367886e-04 -7.200371474027633667e-04 2.319927079952321947e-05 -2.873354824259877205e-04
2.047000000000000000e+03 8.458345413208007812e+00 2.191047477722167969e+01 -2.730674147605895996e-01 -3.924381136894226074e-01 -1.996516585350036621e-01 4.705920815467834473e-01
2.048000000000000000e+03 2.205315589904785156e+01 6.008110046386718750e+00 -3.013558685779571533e-01 -6.685655713081359863e-01 -2.909764349460601807e-01 6.178541779518127441e-01
2.049000000000000000e+03 1.752290153503417969e+01 -1.487157535552978516e+01 -3.871037960052490234e-01 -1.738494485616683960e-01 -1.682859659194946289e-01 -3.356364667415618896e-01
2.050000000000000000e+03 3.929791688919067383e+00 -1.203590011596679688e+01 4.348486196249723434e-03 -3.977226559072732925e-03 1.113778052967973053e-04 7.489113486371934414e-04
2.051000000000000000e+03 1.626712417602539062e+01 -1.727083778381347656e+01 -3.541595935821533203e-01 -2.399645596742630005e-01 -1.782372444868087769e-01 -3.180701434612274170e-01
2.052000000000000000e+03 7.545968627929687500e+01 4.053457641601562500e+01 5.070434138178825378e-02 7.332675933837890625e+00 2.215014219284057617e+00 3.555315360426902771e-02
2.053000000000000000e+03 1.723933982849121094e+01 1.896193122863769531e+01 -4.544582962989807129e-01 -1.092532157897949219e+00 -4.640971124172210693e-01 5.142660737037658691e-01
2.054000000000000000e+03 1.706344985961914062e+01 1.687470817565917969e+01 -7.155606746673583984e-01 -1.255472660064697266e+00 -5.913099646568298340e-01 6.705812811851501465e-01
2.055000000000000000e+03 2.205393028259277344e+01 4.716625213623046875e+00 -2.450820058584213257e-01 -5.939965248107910156e-01 -2.517235577106475830e-01 5.590556859970092773e-01
2.056000000000000000e+03 1.503999042510986328e+01 1.930926704406738281e+01 -5.408263206481933594e-01 -1.140244722366333008e+00 -5.043212771415710449e-01 6.269078850746154785e-01
2.057000000000000000e+03 1.458353424072265625e+01 -2.122905731201171875e+01 -1.578950136899948120e-01 -3.331652283668518066e-01 -1.473180651664733887e-01 -2.829834222793579102e-01
2.058000000000000000e+03 2.247633171081542969e+01 8.592403411865234375e+00 -4.435710012912750244e-01 -6.754882931709289551e-01 -3.357177972793579102e-01 7.008642554283142090e-01
2.059000000000000000e+03 2.512772560119628906e+01 8.496819496154785156e+00 -4.417577087879180908e-01 -4.056156575679779053e-01 -2.542120218276977539e-01 7.229446172714233398e-01
2.060000000000000000e+03 6.456128692626953125e+01 -8.433893203735351562e+00 1.013992667198181152e+00 1.173741436004638672e+01 3.825422048568725586e+00 6.189136028289794922e+00
2.061000000000000000e+03 6.402400970458984375e+01 -4.071681022644042969e+00 1.251169085502624512e+00 8.139713287353515625e+00 2.817264556884765625e+00 -5.636548519134521484e+00
2.062000000000000000e+03 6.339981842041015625e+01 -3.571110486984252930e+00 1.050013542175292969e+00 5.694615840911865234e+00 2.023388862609863281e+00 -4.698317527770996094e+00
2.063000000000000000e+03 6.342199707031250000e+01 -8.797754287719726562e+00 1.467959403991699219e+00 5.240174293518066406e+00 2.012440204620361328e+00 4.727446556091308594e+00
2.064000000000000000e+03 6.312633895874023438e+01 -4.111950397491455078e+00 1.369574069976806641e+00 3.974500894546508789e+00 1.603222489356994629e+00 -4.152286052703857422e+00
2.065000000000000000e+03 6.477743530273437500e+01 -8.528636932373046875e+00 5.268082022666931152e-01 1.320349788665771484e+01 4.119091987609863281e+00 5.679854393005371094e+00
2.066000000000000000e+03 6.486534881591796875e+01 -3.991504907608032227e+00 8.373138308525085449e-02 1.315554809570312500e+01 3.971783876419067383e+00 -5.119141578674316406e+00
2.067000000000000000e+03 6.494373321533203125e+01 -4.481713771820068359e+00 4.577769339084625244e-01 1.501377487182617188e+01 4.641465663909912109e+00 -5.689756870269775391e+00
2.068000000000000000e+03 6.561540222167968750e+01 -8.815402984619140625e+00 -3.798465132713317871e-01 1.607410621643066406e+01 4.708277702331542969e+00 2.780231237411499023e+00
2.069000000000000000e+03 6.619527435302734375e+01 -8.669164657592773438e+00 2.626279294490814209e-01 1.695805168151855469e+01 5.166203975677490234e+00 6.295650005340576172e-01
2.070000000000000000e+03 6.535396575927734375e+01 -3.922469854354858398e+00 -4.013963043689727783e-01 1.516011142730712891e+01 4.427614688873291016e+00 -3.722360372543334961e+00
2.071000000000000000e+03 6.671481323242187500e+01 -8.212811470031738281e+00 2.351661920547485352e+00 1.695913314819335938e+01 5.793238162994384766e+00 -1.432162761688232422e+00
2.072000000000000000e+03 6.526005554199218750e+01 -8.932822227478027344e+00 -3.545418083667755127e-01 1.471881294250488281e+01 4.309281349182128906e+00 3.805280447006225586e+00
2.073000000000000000e+03 6.632319641113281250e+01 -4.414398670196533203e+00 1.108845353126525879e+00 1.795369148254394531e+01 5.718761444091796875e+00 3.309319913387298584e-01
2.074000000000000000e+03 6.613111114501953125e+01 -4.256894588470458984e+00 4.134643077850341797e-01 1.762983703613281250e+01 5.412990093231201172e+00 -5.808851122856140137e-01
2.075000000000000000e+03 6.754087066650390625e+01 -5.615292549133300781e+00 6.482629299163818359e+00 1.418635463714599609e+01 6.200695037841796875e+00 1.670567631721496582e+00
2.076000000000000000e+03 6.632371520996093750e+01 -3.951618671417236328e+00 1.683893203735351562e-01 1.646842765808105469e+01 4.991044998168945312e+00 -4.195735454559326172e-01
2.077000000000000000e+03 6.701905822753906250e+01 -5.600514411926269531e+00 7.114888668060302734e+00 1.602617645263671875e+01 6.942319869995117188e+00 2.164253950119018555e+00
2.078000000000000000e+03 6.669296264648437500e+01 -4.367151260375976562e+00 1.543211698532104492e+00 1.679751014709472656e+01 5.502216815948486328e+00 1.053507685661315918e+00
2.079000000000000000e+03 6.717790222167968750e+01 -7.441085338592529297e+00 5.918753147125244141e+00 1.568084812164306641e+01 6.479880332946777344e+00 -2.204220294952392578e+00
2.080000000000000000e+03 6.739309692382812500e+01 -7.665430545806884766e+00 4.939614772796630859e+00 1.508945274353027344e+01 6.008720397949218750e+00 -2.181364774703979492e+00
2.081000000000000000e+03 6.753825378417968750e+01 -7.208372592926025391e+00 6.344671726226806641e+00 1.418005180358886719e+01 6.157417297363281250e+00 -1.720815658569335938e+00
2.082000000000000000e+03 6.761785125732421875e+01 -6.298986434936523438e+00 7.532985210418701172e+00 1.361136913299560547e+01 6.343306064605712891e+00 2.244183868169784546e-01
2.083000000000000000e+03 6.052470779418945312e+01 -3.409305572509765625e+00 -3.256256580352783203e-01 1.004764080047607422e+00 2.037415355443954468e-01 -1.554816842079162598e+00
2.084000000000000000e+03 6.121845245361328125e+01 -3.331773042678833008e+00 1.844015121459960938e-01 1.588586330413818359e+00 5.318963527679443359e-01 -2.171225786209106445e+00
2.085000000000000000e+03 6.098638153076171875e+01 -9.156906127929687500e+00 -7.447144389152526855e-02 1.180421352386474609e+00 3.317849636077880859e-01 1.727535724639892578e+00
2.086000000000000000e+03 6.159004974365234375e+01 -9.017543792724609375e+00 3.061459064483642578e-01 1.543926954269409180e+00 5.550218820571899414e-01 2.168114900588989258e+00
2.087000000000000000e+03 2.382006645202636719e+01 -2.389749288558959961e+00 -2.085963487625122070e-01 -1.219227835536003113e-01 -9.915573894977569580e-02 2.566176354885101318e-01
2.088000000000000000e+03 2.344890594482421875e+01 -1.465501308441162109e+00 -1.944454461336135864e-01 -1.704800724983215332e-01 -1.094776540994644165e-01 2.954545617103576660e-01
2.089000000000000000e+03 6.041625976562500000e+01 -2.817706346511840820e+00 -1.121494472026824951e-01 1.352492094039916992e+00 3.721027970314025879e-01 -1.778720378875732422e+00
2.090000000000000000e+03 2.204692649841308594e+01 -1.085084795951843262e+00 -1.177229210734367371e-01 -2.062891870737075806e-01 -9.720362722873687744e-02 2.400698363780975342e-01
2.091000000000000000e+03 2.175331115722656250e+01 -1.865345597267150879e+00 -9.669502079486846924e-02 -1.568411141633987427e-01 -7.606083899736404419e-02 1.792724132537841797e-01
2.092000000000000000e+03 2.477457237243652344e+01 -1.848960399627685547e+00 -2.747051119804382324e-01 -1.278944909572601318e-01 -1.207798868417739868e-01 3.306830823421478271e-01
2.093000000000000000e+03 2.653407287597656250e+01 -2.834082603454589844e+00 -3.848057091236114502e-01 -6.575306504964828491e-02 -1.351676285266876221e-01 3.237497508525848389e-01
2.094000000000000000e+03 2.661395263671875000e+01 -1.128992557525634766e+00 -3.974488377571105957e-01 -1.121118068695068359e-01 -1.528681963682174683e-01 4.408313632011413574e-01
2.095000000000000000e+03 2.417183685302734375e+01 4.418829828500747681e-02 -2.559773921966552734e-01 -2.206130623817443848e-01 -1.429771333932876587e-01 4.239672422409057617e-01
2.096000000000000000e+03 2.605417251586914062e+01 -2.151240348815917969e+00 -3.550967872142791748e-01 -9.424640238285064697e-02 -1.348029524087905884e-01 3.573398590087890625e-01
2.097000000000000000e+03 4.058051109313964844e+00 4.359212875366210938e+00 -3.649602003861218691e-04 -5.652149775414727628e-05 -1.264445163542404771e-04 -4.041903594043105841e-06
2.098000000000000000e+03 6.724371910095214844e+00 5.682526111602783203e+00 3.534773422870784998e-04 9.525584173388779163e-04 3.918107249774038792e-04 -2.835022751241922379e-04
2.099000000000000000e+03 6.531701087951660156e+00 4.052112579345703125e+00 9.996366861741989851e-05 -8.346374379470944405e-04 -2.204021293437108397e-04 -3.954739440814591944e-05
2.100000000000000000e+03 5.100152969360351562e+00 4.602350711822509766e+00 6.905438494868576527e-04 1.914020394906401634e-04 2.645837666932493448e-04 3.470537421890185215e-06
2.101000000000000000e+03 5.964597702026367188e+01 -1.010745525360107422e+01 -2.761912047863006592e-01 1.035369277000427246e+00 2.277534306049346924e-01 1.380215167999267578e+00
2.102000000000000000e+03 3.006720542907714844e+01 -2.899264097213745117e+00 -6.526816487312316895e-01 -1.772203482687473297e-02 -2.011211067438125610e-01 3.848600983619689941e-01
2.103000000000000000e+03 5.280592918395996094e+00 3.995168685913085938e+00 -1.171183030237443745e-04 -4.282225563656538725e-04 -1.636022643651813269e-04 -9.813948418013751507e-05
2.104000000000000000e+03 2.810122680664062500e+01 -2.218609333038330078e+00 -4.966767728328704834e-01 -5.568991601467132568e-02 -1.657100021839141846e-01 4.047617316246032715e-01
2.105000000000000000e+03 2.880815315246582031e+01 -2.224022865295410156e+00 -5.490211248397827148e-01 -4.380106180906295776e-02 -1.778466552495956421e-01 4.180888831615447998e-01
2.106000000000000000e+03 8.387090682983398438e+00 5.046636104583740234e+00 6.446828047046437860e-05 -1.410938333719968796e-03 -4.039410268887877464e-04 -5.829686997458338737e-04
2.107000000000000000e+03 7.188454151153564453e+00 4.098622798919677734e+00 -7.755184196867048740e-05 1.314312336035072803e-03 3.710281453095376492e-04 2.703971404116600752e-04
2.108000000000000000e+03 9.210336685180664062e+00 8.033277511596679688e+00 -5.463216803036630154e-04 2.679961966350674629e-03 6.400920683518052101e-04 -1.283899764530360699e-04
2.109000000000000000e+03 4.706564903259277344e+00 4.155376911163330078e+00 1.305537734879180789e-04 3.865873441100120544e-04 1.551423338241875172e-04 7.101163646439090371e-05
2.110000000000000000e+03 3.151279449462890625e+01 -2.887591838836669922e+00 -7.699951529502868652e-01 -4.977514967322349548e-03 -2.324917912483215332e-01 3.997231721878051758e-01
2.111000000000000000e+03 2.895151138305664062e+01 -1.566993713378906250e+00 -5.523561835289001465e-01 -5.220748856663703918e-02 -1.813690960407257080e-01 4.660285115242004395e-01
2.112000000000000000e+03 3.371734237670898438e+01 -2.840149641036987305e+00 -9.535278677940368652e-01 8.501044474542140961e-03 -2.835080623626708984e-01 4.143592119216918945e-01
2.113000000000000000e+03 3.164858627319335938e+01 -2.199926137924194336e+00 -7.577459216117858887e-01 -9.211621247231960297e-03 -2.300872653722763062e-01 4.549166858196258545e-01
2.114000000000000000e+03 4.535592651367187500e+01 -1.114397048950195312e+01 -1.525038123130798340e+00 1.908210292458534241e-02 -4.517868161201477051e-01 -3.574917018413543701e-01
2.115000000000000000e+03 4.313353729248046875e+01 -1.050692081451416016e+01 -1.617357730865478516e+00 -4.029226023703813553e-03 -4.864160716533660889e-01 -3.578928709030151367e-01
2.116000000000000000e+03 4.611247634887695312e+01 -1.042333412170410156e+01 -1.742386341094970703e+00 1.590858772397041321e-02 -5.179433226585388184e-01 -3.307859301567077637e-01
2.117000000000000000e+03 4.977854156494140625e+01 -1.107700443267822266e+01 -1.540124893188476562e+00 7.672995328903198242e-02 -4.390184581279754639e-01 -2.357727438211441040e-01
2.118000000000000000e+03 4.386094665527343750e+01 -1.191630840301513672e+01 -1.307049751281738281e+00 1.390166208148002625e-02 -3.879444003105163574e-01 -3.935978114604949951e-01
2.119000000000000000e+03 3.337876510620117188e+01 -1.302875429391860962e-01 -7.662438750267028809e-01 -2.501647686585783958e-03 -2.306236475706100464e-01 5.990656614303588867e-01
2.120000000000000000e+03 3.458168792724609375e+01 -2.128901958465576172e+00 -9.766677618026733398e-01 1.125236600637435913e-02 -2.896246314048767090e-01 4.730935096740722656e-01
2.121000000000000000e+03 4.903515243530273438e+01 -1.108095932006835938e+01 -1.554923176765441895e+00 6.402035057544708252e-02 -4.472708404064178467e-01 -2.671828567981719971e-01
2.122000000000000000e+03 5.127240753173828125e+01 -1.105646610260009766e+01 -1.488646745681762695e+00 1.091462746262550354e-01 -4.138501286506652832e-01 -1.555672734975814819e-01
2.123000000000000000e+03 4.536665344238281250e+01 -1.044098663330078125e+01 -1.716399192810058594e+00 1.121312007308006287e-02 -5.115557909011840820e-01 -3.408736586570739746e-01
2.124000000000000000e+03 4.158792495727539062e+01 -1.205929279327392578e+01 -1.228640437126159668e+00 -8.783818222582340240e-03 -3.712272644042968750e-01 -4.137662649154663086e-01
2.125000000000000000e+03 4.163413619995117188e+01 -1.055637645721435547e+01 -1.541403770446777344e+00 -1.189737673848867416e-02 -4.659903645515441895e-01 -3.620819747447967529e-01
2.126000000000000000e+03 4.009911727905273438e+01 -1.135531330108642578e+01 -1.317894101142883301e+00 -1.664695702493190765e-02 -4.003623425960540771e-01 -3.944051265716552734e-01
2.127000000000000000e+03 4.682684326171875000e+01 -1.110387706756591797e+01 -1.556235074996948242e+00 3.528010100126266479e-02 -4.562864899635314941e-01 -3.295310437679290771e-01
2.128000000000000000e+03 5.576591110229492188e+01 -1.086634635925292969e+01 -1.068405032157897949e+00 3.474716544151306152e-01 -2.162800133228302002e-01 3.197980821132659912e-01
2.129000000000000000e+03 5.725204849243164062e+01 -1.078921031951904297e+01 -7.754605412483215332e-01 5.481680631637573242e-01 -6.818774342536926270e-02 6.446934342384338379e-01
2.130000000000000000e+03 4.832619476318359375e+01 -1.038836669921875000e+01 -1.792389869689941406e+00 3.421559929847717285e-02 -5.274522900581359863e-01 -2.910443246364593506e-01
2.131000000000000000e+03 3.863666534423828125e+01 -1.064332675933837891e+01 -1.381161093711853027e+00 -1.954527944326400757e-02 -4.202119112014770508e-01 -3.608843982219696045e-01
2.132000000000000000e+03 4.085653305053710938e+01 -1.132713794708251953e+01 -1.351824045181274414e+00 -1.533645205199718475e-02 -4.101481437683105469e-01 -3.942376077175140381e-01
2.133000000000000000e+03 5.206396102905273438e+01 -1.033594512939453125e+01 -1.742710471153259277e+00 8.419460058212280273e-02 -4.975547492504119873e-01 -1.476993113756179810e-01
2.134000000000000000e+03 5.278111648559570312e+01 -1.101111984252929688e+01 -1.401178002357482910e+00 1.541953682899475098e-01 -3.740947842597961426e-01 -4.845216497778892517e-02
2.135000000000000000e+03 5.130766296386718750e+01 -1.035362815856933594e+01 -1.767989397048950195e+00 7.154960930347442627e-02 -5.089319348335266113e-01 -1.878174394369125366e-01
2.136000000000000000e+03 3.921102523803710938e+01 -1.299861431121826172e+01 -1.003764867782592773e+00 -2.017561905086040497e-02 -3.071821331977844238e-01 -4.499182403087615967e-01
2.137000000000000000e+03 3.711289978027343750e+01 -1.142433071136474609e+01 -1.179601907730102539e+00 -2.503412216901779175e-02 -3.613907992839813232e-01 -3.961227536201477051e-01
2.138000000000000000e+03 4.461717605590820312e+01 -1.116854572296142578e+01 -1.504386782646179199e+00 1.338862814009189606e-02 -4.472994506359100342e-01 -3.686753809452056885e-01
2.139000000000000000e+03 5.800818252563476562e+01 -1.077186393737792969e+01 -5.811142921447753906e-01 7.235250473022460938e-01 4.272323846817016602e-02 8.758345246315002441e-01
2.140000000000000000e+03 5.429750442504882812e+01 -1.026151084899902344e+01 -1.591645717620849609e+00 1.527017951011657715e-01 -4.316831827163696289e-01 1.791101507842540741e-02
2.141000000000000000e+03 5.052135848999023438e+01 -1.106921195983886719e+01 -1.517903447151184082e+00 9.426598995923995972e-02 -4.270912408828735352e-01 -2.001977264881134033e-01
2.142000000000000000e+03 5.653781509399414062e+01 -1.016439342498779297e+01 -1.274482369422912598e+00 2.986594438552856445e-01 -2.927468717098236084e-01 3.235301673412322998e-01
2.143000000000000000e+03 5.501880645751953125e+01 -1.090805244445800781e+01 -1.175887465476989746e+00 2.835114598274230957e-01 -2.677128016948699951e-01 1.998505145311355591e-01
2.144000000000000000e+03 3.742048645019531250e+01 -2.750048398971557617e+00 -1.262649774551391602e+00 1.636855117976665497e-02 -3.738843798637390137e-01 4.184511899948120117e-01
2.145000000000000000e+03 8.394576072692871094e+00 -4.175449848175048828e+00 -1.363836199743673205e-04 -1.916843757499009371e-04 -9.842040162766352296e-05 -2.769324055407196283e-04
2.146000000000000000e+03 5.877031707763671875e+01 -1.079397964477539062e+01 -3.394145667552947998e-01 9.514274597167968750e-01 1.836038678884506226e-01 1.175813555717468262e+00
2.147000000000000000e+03 3.785853958129882812e+01 -1.140982341766357422e+01 -1.215529799461364746e+00 -2.348739467561244965e-02 -3.717051446437835693e-01 -3.952889740467071533e-01
2.148000000000000000e+03 3.816167068481445312e+01 -2.732857465744018555e+00 -1.322542309761047363e+00 1.704673096537590027e-02 -3.916486799716949463e-01 4.170903861522674561e-01
2.149000000000000000e+03 3.395340347290039062e+01 -1.459161996841430664e+00 -8.858047127723693848e-01 6.978106219321489334e-03 -2.636479735374450684e-01 5.203115940093994141e-01
2.150000000000000000e+03 3.490403366088867188e+01 -1.072258567810058594e+01 -1.166485190391540527e+00 -2.810232527554035187e-02 -3.583762645721435547e-01 -3.502517938613891602e-01
2.151000000000000000e+03 3.855045700073242188e+01 -1.216937541961669922e+01 -1.119480967521667480e+00 -2.038521878421306610e-02 -3.419598639011383057e-01 -4.245357513427734375e-01
2.152000000000000000e+03 3.531554412841796875e+01 -2.110541582107543945e+00 -1.030938148498535156e+00 1.363563351333141327e-02 -3.051907420158386230e-01 4.743024408817291260e-01
2.153000000000000000e+03 5.426785278320312500e+01 -1.094699859619140625e+01 -1.268366932868957520e+00 2.286254167556762695e-01 -3.119224607944488525e-01 1.006959602236747742e-01
2.154000000000000000e+03 5.482492065429687500e+01 -1.299894571304321289e+00 -1.066435456275939941e+00 3.698196113109588623e-01 -2.089847624301910400e-01 -2.876740992069244385e-01
2.155000000000000000e+03 5.400270843505859375e+01 -1.922883629798889160e+00 -1.448756337165832520e+00 2.103458791971206665e-01 -3.715231418609619141e-01 -7.844232767820358276e-02
2.156000000000000000e+03 5.540466690063476562e+01 -2.655463695526123047e+00 -1.622148036956787109e+00 1.984376907348632812e-01 -4.271131157875061035e-01 -1.555966734886169434e-01
2.157000000000000000e+03 5.751105308532714844e+00 -7.025976181030273438e+00 -9.105177741730585694e-05 6.533003761433064938e-04 1.686745672486722469e-04 3.546183870639652014e-04
2.158000000000000000e+03 5.166348648071289062e+01 -2.531829833984375000e+00 -1.903820633888244629e+00 7.218479365110397339e-02 -5.494907498359680176e-01 1.660980433225631714e-01
2.159000000000000000e+03 4.940314102172851562e+01 -2.516752958297729492e+00 -1.926826596260070801e+00 3.927246108651161194e-02 -5.662662386894226074e-01 2.655964791774749756e-01
2.160000000000000000e+03 4.037905502319335938e+01 -2.663868188858032227e+00 -1.494749546051025391e+00 1.652201637625694275e-02 -4.434682428836822510e-01 4.089918434619903564e-01
2.161000000000000000e+03 5.475337982177734375e+01 -1.964720606803894043e+00 -1.369896888732910156e+00 2.538197636604309082e-01 -3.348231315612792969e-01 -1.708238720893859863e-01
2.162000000000000000e+03 4.564418792724609375e+01 -2.545148372650146484e+00 -1.820255875587463379e+00 2.130902931094169617e-02 -5.396840572357177734e-01 3.545030653476715088e-01
2.163000000000000000e+03 4.112171173095703125e+01 -2.638191223144531250e+00 -1.547034859657287598e+00 1.674789004027843475e-02 -4.590860903263092041e-01 4.048329293727874756e-01
2.164000000000000000e+03 4.337250137329101562e+01 -2.573718070983886719e+00 -1.695080518722534180e+00 1.721663028001785278e-02 -5.033591985702514648e-01 3.866323530673980713e-01
2.165000000000000000e+03 4.799380493164062500e+01 -1.823004961013793945e+00 -1.677894115447998047e+00 5.106407031416893005e-02 -4.880490005016326904e-01 3.187595009803771973e-01
2.166000000000000000e+03 6.343559265136718750e+00 -5.606038570404052734e+00 4.361048922874033451e-04 1.968865108210593462e-04 1.898974296636879444e-04 5.635485285893082619e-04
2.167000000000000000e+03 5.352270889282226562e+01 -1.098155784606933594e+01 -1.339653134346008301e+00 1.880551427602767944e-01 -3.454793989658355713e-01 1.910261064767837524e-02
2.168000000000000000e+03 5.100968933105468750e+01 -1.823185443878173828e+00 -1.637952208518981934e+00 1.001667305827140808e-01 -4.613356292247772217e-01 1.765660196542739868e-01
2.169000000000000000e+03 5.843825149536132812e+01 -2.293695211410522461e+00 -6.656936407089233398e-01 7.080755233764648438e-01 1.271455269306898117e-02 -9.768978953361511230e-01
2.170000000000000000e+03 3.264588928222656250e+01 -1.078176784515380859e+01 -1.030872583389282227e+00 -3.019620478153228760e-02 -3.183206319808959961e-01 -3.423503041267395020e-01
2.171000000000000000e+03 3.899908447265625000e+01 -2.022391796112060547e+00 -1.292352914810180664e+00 2.161474712193012238e-02 -3.812214434146881104e-01 4.671563208103179932e-01
2.172000000000000000e+03 3.826390075683593750e+01 -2.046285390853881836e+00 -1.243407726287841797e+00 1.990097202360630035e-02 -3.670520186424255371e-01 4.696530401706695557e-01
2.173000000000000000e+03 5.175754547119140625e+01 -1.835657954216003418e+00 -1.606009006500244141e+00 1.163732782006263733e-01 -4.468907117843627930e-01 1.279331743717193604e-01
2.174000000000000000e+03 5.025189590454101562e+01 -1.815123081207275391e+00 -1.659330248832702637e+00 8.226772397756576538e-02 -4.731187820434570312e-01 2.220265567302703857e-01
2.175000000000000000e+03 5.324564743041992188e+01 -1.885131359100341797e+00 -1.514827251434326172e+00 1.697898656129837036e-01 -4.035111963748931885e-01 4.815549589693546295e-03
2.176000000000000000e+03 4.949307632446289062e+01 -1.812134385108947754e+00 -1.672330737113952637e+00 7.025410979986190796e-02 -4.806229770183563232e-01 2.590829432010650635e-01
2.177000000000000000e+03 4.195128250122070312e+01 -1.901803851127624512e+00 -1.466768741607666016e+00 2.519167587161064148e-02 -4.324730932712554932e-01 4.456661343574523926e-01
2.178000000000000000e+03 4.120193099975585938e+01 -1.928372263908386230e+00 -1.426364779472351074e+00 2.332251705229282379e-02 -4.209126830101013184e-01 4.536594748497009277e-01
2.179000000000000000e+03 4.497889709472656250e+01 -1.841156840324401855e+00 -1.605327367782592773e+00 3.294229507446289062e-02 -4.717155098915100098e-01 3.983198702335357666e-01
2.180000000000000000e+03 4.200293731689453125e+01 -1.160060763359069824e+00 -1.330981016159057617e+00 3.560471162199974060e-02 -3.886128962039947510e-01 4.844380915164947510e-01
2.181000000000000000e+03 4.573114013671875000e+01 -1.833995103836059570e+00 -1.630585670471191406e+00 3.493267670273780823e-02 -4.786959290504455566e-01 3.828892111778259277e-01
2.182000000000000000e+03 4.421511459350585938e+01 -1.846012115478515625e+00 -1.574140071868896484e+00 2.963712438941001892e-02 -4.633508622646331787e-01 4.139439463615417480e-01
2.183000000000000000e+03 3.340608978271484375e+01 -1.147660064697265625e+01 -9.935970306396484375e-01 -3.341595828533172607e-02 -3.081038892269134521e-01 -3.830570280551910400e-01
2.184000000000000000e+03 3.564082336425781250e+01 -1.143667030334472656e+01 -1.108604669570922852e+00 -3.059483505785465240e-02 -3.417598307132720947e-01 -3.906916081905364990e-01
2.185000000000000000e+03 5.700241470336914062e+01 -2.104906558990478516e+00 -9.784439802169799805e-01 4.861419200897216797e-01 -1.476906090974807739e-01 -5.896985530853271484e-01
2.186000000000000000e+03 4.723807907104492188e+01 -1.825683474540710449e+00 -1.667317152023315430e+00 4.291363060474395752e-02 -4.873210787773132324e-01 3.433175683021545410e-01
2.187000000000000000e+03 4.648115158081054688e+01 -1.827687144279479980e+00 -1.651644349098205566e+00 3.918899595737457275e-02 -4.837366044521331787e-01 3.637916743755340576e-01
2.188000000000000000e+03 2.880052566528320312e+01 -1.160038566589355469e+01 -7.511979341506958008e-01 -2.435668371617794037e-02 -2.326663881540298462e-01 -3.695074915885925293e-01
2.189000000000000000e+03 5.624283599853515625e+01 -2.053026914596557617e+00 -1.141034364700317383e+00 3.799340128898620605e-01 -2.283300906419754028e-01 -4.185312092304229736e-01
2.190000000000000000e+03 5.967360687255859375e+01 -3.056844234466552734e+00 -5.479629039764404297e-01 8.731050491333007812e-01 9.754265099763870239e-02 -1.260593771934509277e+00
2.191000000000000000e+03 5.774485397338867188e+01 -2.176376819610595703e+00 -8.216246962547302246e-01 5.960469841957092285e-01 -6.767331063747406006e-02 -7.826012969017028809e-01
2.192000000000000000e+03 6.018071365356445312e+01 -3.199487686157226562e+00 -3.867674767971038818e-01 1.027710556983947754e+00 1.922829151153564453e-01 -1.470425009727478027e+00
2.193000000000000000e+03 6.825813293457031250e+00 -4.044117927551269531e+00 -1.730010699247941375e-04 -5.338477421901188791e-05 -6.791575287934392691e-05 -3.718020452652126551e-04
2.194000000000000000e+03 6.131661891937255859e+00 -4.088446140289306641e+00 1.645392767386510968e-04 1.888980477815493941e-04 1.060311988112516701e-04 3.480187151581048965e-04
2.195000000000000000e+03 5.615241527557373047e+00 -4.866493701934814453e+00 2.335900207981467247e-04 1.729013165459036827e-04 1.219473997480235994e-04 2.034525532508268952e-04
2.196000000000000000e+03 3.035431671142578125e+01 -1.158818721771240234e+01 -8.301988244056701660e-01 -3.043432347476482391e-02 -2.581899464130401611e-01 -3.753036856651306152e-01
2.197000000000000000e+03 3.112153434753417969e+01 -1.157576274871826172e+01 -8.697058558464050293e-01 -3.183683007955551147e-02 -2.704628109931945801e-01 -3.780022859573364258e-01
2.198000000000000000e+03 3.034587669372558594e+01 -1.234839916229248047e+01 -7.670010924339294434e-01 -3.269315883517265320e-02 -2.399082779884338379e-01 -4.107604920864105225e-01
2.199000000000000000e+03 2.255352592468261719e+01 -1.151091861724853516e+01 -4.761326611042022705e-01 -1.099176821298897266e-03 -1.431695520877838135e-01 -3.248553872108459473e-01
2.200000000000000000e+03 2.724554824829101562e+01 -1.161282062530517578e+01 -6.752840280532836914e-01 -1.708624325692653656e-02 -2.077110856771469116e-01 -3.621436059474945068e-01
2.201000000000000000e+03 2.802329826354980469e+01 -1.160809230804443359e+01 -7.117527723312377930e-01 -2.051847241818904877e-02 -2.196813821792602539e-01 -3.663737177848815918e-01
2.202000000000000000e+03 2.565715980529785156e+01 -1.082829189300537109e+01 -6.258749961853027344e-01 -2.576911356300115585e-03 -1.885355859994888306e-01 -3.157825767993927002e-01
2.203000000000000000e+03 1.086422443389892578e+01 4.165059089660644531e+00 -4.477641487028449774e-04 -9.974300628527998924e-04 -4.335582489147782326e-04 -1.287439023144543171e-03
2.204000000000000000e+03 2.027281379699707031e+01 -1.179158782958984375e+01 -3.962365686893463135e-01 -3.597984835505485535e-02 -1.296649277210235596e-01 -3.102273643016815186e-01
2.205000000000000000e+03 1.141816616058349609e+01 5.890793800354003906e+00 5.275126895867288113e-04 1.867037499323487282e-03 7.183650741353631020e-04 1.544645172543823719e-03
2.206000000000000000e+03 2.407943916320800781e+01 -1.154470348358154297e+01 -5.365019440650939941e-01 -8.100046397885307670e-05 -1.609748899936676025e-01 -3.398163616657257080e-01
2.207000000000000000e+03 2.486850547790527344e+01 -1.157467555999755859e+01 -5.691953301429748535e-01 -2.041592495515942574e-03 -1.713710725307464600e-01 -3.473325669765472412e-01
2.208000000000000000e+03 5.955292129516601562e+01 -1.087413406372070312e+01 -6.017646566033363342e-02 1.394713640213012695e+00 4.003611505031585693e-01 1.601254940032958984e+00
2.209000000000000000e+03 2.250803565979003906e+01 -1.070982360839843750e+01 -4.700369238853454590e-01 7.083133794367313385e-03 -1.388861387968063354e-01 -2.910166382789611816e-01
2.210000000000000000e+03 2.409046745300292969e+01 -1.234902381896972656e+01 -5.221245288848876953e-01 -6.069134920835494995e-03 -1.584580987691879272e-01 -3.706086575984954834e-01
2.211000000000000000e+03 2.134083557128906250e+01 -1.253931522369384766e+01 -4.374700486660003662e-01 -2.600341290235519409e-02 -1.390420347452163696e-01 -3.456195294857025146e-01
2.212000000000000000e+03 2.179684829711914062e+01 -1.155142784118652344e+01 -4.489112496376037598e-01 -5.883303005248308182e-03 -1.364383697509765625e-01 -3.194628357887268066e-01
2.213000000000000000e+03 2.066702079772949219e+01 -1.063160538673400879e+00 -5.425564572215080261e-02 -1.917077749967575073e-01 -7.378903031349182129e-02 1.513120234012603760e-01
2.214000000000000000e+03 2.305625724792480469e+01 9.801005363464355469e+00 -4.798206388950347900e-01 -6.240558624267578125e-01 -3.311629593372344971e-01 7.016229033470153809e-01
2.215000000000000000e+03 7.602082729339599609e+00 1.130211544036865234e+01 -1.233351416885852814e-03 3.161292988806962967e-03 5.783825181424617767e-04 1.552824978716671467e-03
2.216000000000000000e+03 6.597364902496337891e+00 1.229870986938476562e+01 4.627081099897623062e-03 5.414117185864597559e-05 1.404366688802838326e-03 6.857498548924922943e-03
2.217000000000000000e+03 8.515387535095214844e+00 8.835757255554199219e+00 8.904843707568943501e-04 -8.284577634185552597e-04 1.860798147390596569e-05 9.164680959656834602e-04
2.218000000000000000e+03 8.574357986450195312e+00 7.533113956451416016e+00 6.114834686741232872e-04 -7.269836496561765671e-04 -3.465006375336088240e-05 5.439047235995531082e-04
2.219000000000000000e+03 9.157242774963378906e+00 5.029531478881835938e+00 1.055111788446083665e-04 1.659824280068278313e-03 5.296006565913558006e-04 6.607271498069167137e-04
2.220000000000000000e+03 1.057126617431640625e+01 7.647368907928466797e+00 -3.050124541914556175e-05 3.055104753002524376e-03 9.073810069821774960e-04 8.197900606319308281e-04
2.221000000000000000e+03 5.771598339080810547e+00 -1.272293090820312500e+01 3.538061631843447685e-03 -2.123688347637653351e-03 4.243119910825043917e-04 -5.596891511231660843e-03
2.222000000000000000e+03 1.232358074188232422e+01 6.039846897125244141e+00 -1.018410897813737392e-03 -1.411099568940699100e-03 -7.288531051017343998e-04 -1.565766287967562675e-03
2.223000000000000000e+03 2.179783439636230469e+01 1.543648719787597656e+01 -4.981043636798858643e-01 -7.305601835250854492e-01 -3.685993552207946777e-01 5.380567908287048340e-01
2.224000000000000000e+03 2.070342063903808594e+01 1.414914417266845703e+01 -6.043533086776733398e-01 -9.239701032638549805e-01 -4.584970176219940186e-01 6.164599061012268066e-01
2.225000000000000000e+03 2.615143537521362305e+00 6.273244380950927734e+00 6.791863124817609787e-04 1.790989481378346682e-04 2.574855752754956484e-04 4.473275839700363576e-05
2.226000000000000000e+03 9.112698554992675781e+00 -5.540498256683349609e+00 -1.890928833745419979e-04 4.439600743353366852e-04 7.646015728823840618e-05 -1.145161368185654283e-04
2.227000000000000000e+03 9.230504035949707031e+00 -4.023594856262207031e+00 -4.065315442858263850e-05 5.181256565265357494e-04 1.432417484465986490e-04 2.716238959692418575e-04
2.228000000000000000e+03 6.431135654449462891e+00 1.434688186645507812e+01 1.154049392789602280e-02 -4.800460767000913620e-03 2.022010041400790215e-03 1.546146720647811890e-02
2.229000000000000000e+03 2.136173057556152344e+01 -9.449174404144287109e-01 -8.666761964559555054e-02 -2.174211889505386353e-01 -9.122664481401443481e-02 2.072413861751556396e-01
2.230000000000000000e+03 2.168828582763671875e+01 9.170789122581481934e-01 -1.190382391214370728e-01 -3.383404016494750977e-01 -1.372135877609252930e-01 3.236442506313323975e-01
2.231000000000000000e+03 5.201393604278564453e+00 1.036639499664306641e+01 3.700823755934834480e-03 -1.036844216287136078e-03 7.991938618943095207e-04 3.482374886516481638e-04
2.232000000000000000e+03 7.450736236572265625e+01 3.249500274658203125e+01 3.388097137212753296e-02 7.144922256469726562e+00 2.153640985488891602e+00 -1.523542851209640503e-01
2.233000000000000000e+03 7.393209075927734375e+01 2.777490615844726562e+01 3.991705924272537231e-02 7.212894916534423828e+00 2.175843715667724609e+00 -2.264389693737030029e-01
2.234000000000000000e+03 7.552705383300781250e+01 -8.485960960388183594e+00 7.234886884689331055e-01 7.145815849304199219e+00 2.360791444778442383e+00 -6.623366475105285645e-01
2.235000000000000000e+03 7.586843109130859375e+01 -2.721775054931640625e+01 -8.434133231639862061e-02 8.176303863525390625e+00 2.427588939666748047e+00 -2.930362336337566376e-02
2.236000000000000000e+03 7.459597778320312500e+01 -2.825380134582519531e+01 -9.520237892866134644e-02 7.924039363861083984e+00 2.348651170730590820e+00 2.711028233170509338e-02
2.237000000000000000e+03 7.643080902099609375e+01 -5.733717441558837891e+00 5.739436149597167969e-01 6.537650585174560547e+00 2.133478164672851562e+00 1.942694783210754395e-01
2.238000000000000000e+03 7.503823852539062500e+01 -2.900087535381317139e-01 2.600779384374618530e-02 7.888906002044677734e+00 2.374474287033081055e+00 1.240255832672119141e+00
2.239000000000000000e+03 7.493458557128906250e+01 1.156589865684509277e+00 -1.815737485885620117e-01 8.041064262390136719e+00 2.357847213745117188e+00 1.182755231857299805e+00
2.240000000000000000e+03 7.605068969726562500e+01 2.605204343795776367e+00 -2.024544626474380493e-01 7.786144733428955078e+00 2.275107145309448242e+00 9.739788770675659180e-01
2.241000000000000000e+03 7.518261718750000000e+01 2.409126091003417969e+01 6.439455784857273102e-03 7.573256969451904297e+00 2.273908853530883789e+00 -2.002958804368972778e-01
2.242000000000000000e+03 7.456278991699218750e+01 7.769888401031494141e+00 -3.871048688888549805e-01 8.079368591308593750e+00 2.307679176330566406e+00 4.091066718101501465e-01
2.243000000000000000e+03 7.598293304443359375e+01 -2.073519325256347656e+01 -2.308616787195205688e-01 8.159016609191894531e+00 2.378446578979492188e+00 -4.418186545372009277e-01
2.244000000000000000e+03 7.482115173339843750e+01 -2.204467582702636719e+01 -2.993692457675933838e-01 8.114046096801757812e+00 2.344403028488159180e+00 -3.258488476276397705e-01
2.245000000000000000e+03 7.491887664794921875e+01 1.236446380615234375e+01 -1.974258720874786377e-01 7.925943374633789062e+00 2.318555355072021484e+00 3.381942585110664368e-02
2.246000000000000000e+03 7.367858123779296875e+01 1.582977294921875000e+01 -1.330756992101669312e-01 7.590366363525390625e+00 2.237187147140502930e+00 -1.643375903367996216e-01
2.247000000000000000e+03 7.516917419433593750e+01 1.707427787780761719e+01 -6.968349963426589966e-02 7.805554389953613281e+00 2.320761203765869141e+00 -1.371784657239913940e-01
2.248000000000000000e+03 7.539621734619140625e+01 2.533738517761230469e+01 1.247297786176204681e-02 7.565063476562500000e+00 2.273260831832885742e+00 -1.940172463655471802e-01
2.249000000000000000e+03 7.393062591552734375e+01 1.043592071533203125e+01 -3.331078886985778809e-01 7.915732860565185547e+00 2.274787425994873047e+00 1.297242939472198486e-01
2.250000000000000000e+03 7.487902069091796875e+01 -1.802846527099609375e+01 -3.965551853179931641e-01 8.186488151550292969e+00 2.336979866027832031e+00 -7.534227371215820312e-01
2.251000000000000000e+03 7.388214874267578125e+01 1.861841964721679688e+01 -6.850399821996688843e-02 7.496677398681640625e+00 2.228451967239379883e+00 -2.198524922132492065e-01
2.252000000000000000e+03 7.487721252441406250e+01 -1.940291404724121094e+01 -3.741039633750915527e-01 8.165090560913085938e+00 2.337296009063720703e+00 -5.857217907905578613e-01
2.253000000000000000e+03 7.522499847412109375e+01 2.846780204772949219e+01 2.716928534209728241e-02 7.406747341156005859e+00 2.230175018310546875e+00 -1.691430509090423584e-01
2.254000000000000000e+03 7.480736541748046875e+01 -2.457869148254394531e+01 -2.009222805500030518e-01 8.058465957641601562e+00 2.357263088226318359e+00 -1.412125676870346069e-01
2.255000000000000000e+03 7.377803802490234375e+01 -2.579072761535644531e+01 -2.224962115287780762e-01 7.861290454864501953e+00 2.291638135910034180e+00 -4.314240440726280212e-02
2.256000000000000000e+03 7.448065185546875000e+01 -4.337349414825439453e+00 1.049949288368225098e+00 7.663099288940429688e+00 2.613914489746093750e+00 7.373861670494079590e-01
2.257000000000000000e+03 7.539630126953125000e+01 -4.426493644714355469e+00 7.854881882667541504e-01 7.199844360351562500e+00 2.395599603652954102e+00 6.280316114425659180e-01
2.258000000000000000e+03 7.546644592285156250e+01 -5.862221717834472656e+00 8.858364224433898926e-01 7.075096607208251953e+00 2.388279914855957031e+00 1.835795491933822632e-01
2.259000000000000000e+03 7.498142242431640625e+01 2.561517715454101562e+00 -3.138852715492248535e-01 8.086998939514160156e+00 2.331934213638305664e+00 1.041670203208923340e+00
2.260000000000000000e+03 7.529145050048828125e+01 -1.111157417297363281e+01 2.940447926521301270e-01 7.597932815551757812e+00 2.367593288421630859e+00 -1.169481873512268066e+00
2.261000000000000000e+03 7.615553283691406250e+01 -1.386290359497070312e+01 -9.235244244337081909e-02 7.594710826873779297e+00 2.250707626342773438e+00 -1.086010217666625977e+00
2.262000000000000000e+03 7.485379791259765625e+01 -2.074100875854492188e+01 -3.373572528362274170e-01 8.140364646911621094e+00 2.340902328491210938e+00 -4.464366137981414795e-01
2.263000000000000000e+03 7.369152069091796875e+01 2.141942596435546875e+01 -2.633641660213470459e-02 7.346672058105468750e+00 2.196100711822509766e+00 -2.510638236999511719e-01
2.264000000000000000e+03 7.381924438476562500e+01 2.000406837463378906e+01 -4.609844088554382324e-02 7.427034854888916016e+00 2.214280843734741211e+00 -2.382530272006988525e-01
2.265000000000000000e+03 7.246308898925781250e+01 -3.291720199584960938e+01 -5.694950465112924576e-03 7.312690258026123047e+00 2.192098617553710938e+00 1.467815339565277100e-01
2.266000000000000000e+03 7.332276153564453125e+01 1.434742164611816406e+01 -2.048633694648742676e-01 7.606325149536132812e+00 2.220438480377197266e+00 -1.318319141864776611e-01
2.267000000000000000e+03 7.341108703613281250e+01 1.184376144409179688e+01 -3.057616055011749268e-01 7.763747215270996094e+00 2.237395524978637695e+00 -6.000045221298933029e-03
2.268000000000000000e+03 7.482996368408203125e+01 -2.698809242248535156e+01 -1.247247457504272461e-01 7.993372440338134766e+00 2.360594272613525391e+00 -1.957619562745094299e-02
2.269000000000000000e+03 7.488664245605468750e+01 5.181227207183837891e+00 -3.999970853328704834e-01 8.128079414367675781e+00 2.318424701690673828e+00 7.251352667808532715e-01
2.270000000000000000e+03 7.538816070556640625e+01 -3.020832300186157227e+00 5.425479412078857422e-01 7.367125988006591797e+00 2.372902154922485352e+00 9.824449419975280762e-01
2.271000000000000000e+03 7.494334411621093750e+01 -1.525675582885742188e+01 -3.008965551853179932e-01 8.117608070373535156e+00 2.345013618469238281e+00 -1.075181603431701660e+00
2.272000000000000000e+03 7.176525878906250000e+01 3.188039779663085938e+01 7.408349961042404175e-02 6.667321205139160156e+00 2.022421360015869141e+00 -2.206986546516418457e-01
2.273000000000000000e+03 4.610289096832275391e+00 3.117020416259765625e+01 4.045743867754936218e-02 -6.127832531929016113e-01 -1.716977506875991821e-01 2.375742346048355103e-01
2.274000000000000000e+03 6.048235893249511719e+00 3.232162857055664062e+01 7.736713439226150513e-02 -6.683710813522338867e-01 -1.773011833429336548e-01 2.669244408607482910e-01
2.275000000000000000e+03 7.519684600830078125e+01 -1.248376560211181641e+01 5.772930756211280823e-02 7.832667827606201172e+00 2.367119073867797852e+00 -1.247332930564880371e+00
2.276000000000000000e+03 7.507562255859375000e+01 -1.387057304382324219e+01 -1.661080569028854370e-01 8.012154579162597656e+00 2.353813886642456055e+00 -1.195824623107910156e+00
2.277000000000000000e+03 1.029006385803222656e+01 6.423104763031005859e+00 -6.185194943100214005e-04 2.493345178663730621e-03 5.624477053061127663e-04 1.378564484184607863e-04
2.278000000000000000e+03 4.602041721343994141e+00 -2.618689918518066406e+01 -1.051916461437940598e-02 -2.557530403137207031e-01 -7.988166809082031250e-02 -1.784625798463821411e-01
2.279000000000000000e+03 6.457467079162597656e+00 -8.927684783935546875e+00 6.383631261996924877e-04 -1.131929384428076446e-04 1.575510686961933970e-04 3.898469440173357725e-04
2.280000000000000000e+03 4.410505771636962891e+00 2.357004165649414062e+01 -8.934708684682846069e-02 -2.449141144752502441e-01 -1.002783626317977905e-01 2.414281815290451050e-01
2.281000000000000000e+03 1.198148918151855469e+01 2.285031509399414062e+01 -1.503737717866897583e-01 -8.456538915634155273e-01 -2.988083064556121826e-01 5.876781940460205078e-01
2.282000000000000000e+03 1.241581439971923828e+01 2.547284889221191406e+01 5.199601501226425171e-02 -8.273572921752929688e-01 -2.326083928346633911e-01 5.032064914703369141e-01
2.283000000000000000e+03 5.819642066955566406e+00 -2.070087051391601562e+01 -1.160298734903335571e-01 -1.060564368963241577e-01 -6.662589311599731445e-02 -1.487523764371871948e-01
2.284000000000000000e+03 3.953406095504760742e+00 -2.143474578857421875e+01 -4.764603078365325928e-02 -1.019812822341918945e-01 -4.488819465041160583e-02 -1.017163693904876709e-01
2.285000000000000000e+03 4.981634616851806641e+00 -2.345383071899414062e+01 -5.033780634403228760e-02 -1.825904101133346558e-01 -6.987846642732620239e-02 -1.788469105958938599e-01
2.286000000000000000e+03 6.102015018463134766e+00 -2.213519096374511719e+01 -1.023029610514640808e-01 -1.586175262928009033e-01 -7.827614992856979370e-02 -1.972027868032455444e-01
2.287000000000000000e+03 4.639643192291259766e+00 1.228476428985595703e+01 8.308407850563526154e-03 -4.765461664646863937e-03 1.062883762642741203e-03 -3.531136026140302420e-04
2.288000000000000000e+03 4.304207324981689453e+00 -2.040171432495117188e+01 -7.434761524200439453e-02 -7.449874281883239746e-02 -4.465390741825103760e-02 -8.769123256206512451e-02
2.289000000000000000e+03 6.053720474243164062e+00 2.621000099182128906e+01 -2.607213333249092102e-02 -4.610409140586853027e-01 -1.461339145898818970e-01 3.560053706169128418e-01
2.290000000000000000e+03 4.682578563690185547e+00 2.627527046203613281e+01 -1.486544124782085419e-02 -4.134623706340789795e-01 -1.284983456134796143e-01 2.956499159336090088e-01
2.291000000000000000e+03 8.359164237976074219e+00 -6.453167438507080078e+00 2.766846737358719110e-04 -5.987100885249674320e-04 -9.660761861596256495e-05 6.716718780808150768e-05
2.292000000000000000e+03 5.858345031738281250e+00 -2.672414398193359375e+01 4.721081815659999847e-03 -2.981133759021759033e-01 -8.801768720149993896e-02 -2.120671868324279785e-01
2.293000000000000000e+03 4.261370182037353516e+00 2.067920494079589844e+01 -1.088378652930259705e-01 -9.915115684270858765e-02 -6.239670515060424805e-02 9.917210042476654053e-02
2.294000000000000000e+03 4.886179924011230469e+00 2.234799194335937500e+01 -1.512982249259948730e-01 -1.874472498893737793e-01 -1.016236394643783569e-01 2.200523912906646729e-01
2.295000000000000000e+03 5.742922782897949219e+00 -3.317994308471679688e+01 5.259481817483901978e-02 -4.193903207778930664e-01 -1.100386455655097961e-01 -1.471537798643112183e-01
2.296000000000000000e+03 1.132725620269775391e+01 -3.071009445190429688e+01 1.066659465432167053e-01 -3.868807554244995117e-01 -8.406443893909454346e-02 -2.351711839437484741e-01
2.297000000000000000e+03 7.345527648925781250e+00 2.127443885803222656e+01 -3.376629650592803955e-01 -2.106564939022064209e-01 -1.644958406686782837e-01 3.817816078662872314e-01
2.298000000000000000e+03 7.225771903991699219e+00 2.888136863708496094e+01 5.911122635006904602e-02 -6.082083582878112793e-01 -1.647291481494903564e-01 3.704429864883422852e-01
2.299000000000000000e+03 3.757543325424194336e+00 9.943561553955078125e+00 3.606853540986776352e-03 -7.641860283911228180e-04 8.528002072125673294e-04 -1.238184748217463493e-03
2.300000000000000000e+03 5.476282596588134766e+00 8.627593040466308594e+00 1.785012078471481800e-03 1.409072574460878968e-04 5.777758196927607059e-04 6.565571675309911370e-05
2.301000000000000000e+03 3.825028181076049805e+00 7.641174793243408203e+00 1.515603740699589252e-03 2.448305313009768724e-04 5.281302728690207005e-04 -2.655222197063267231e-04
2.302000000000000000e+03 5.270584583282470703e+00 -7.928397655487060547e+00 7.388071971945464611e-04 -7.222480235213879496e-06 2.194754051743075252e-04 4.694182134699076414e-04
2.303000000000000000e+03 3.892714500427246094e+00 3.543611526489257812e+01 5.392411351203918457e-02 -7.566900849342346191e-01 -2.108297944068908691e-01 1.494898647069931030e-01
2.304000000000000000e+03 4.977679252624511719e+00 -6.237507343292236328e+00 2.866276481654495001e-04 -4.807480727322399616e-04 -5.823612445965409279e-05 -4.241968563292175531e-04
2.305000000000000000e+03 4.462782859802246094e+00 -5.359738349914550781e+00 5.502929980139015242e-06 5.199078004807233810e-04 1.576232316438108683e-04 5.291829002089798450e-04
2.306000000000000000e+03 1.432713508605957031e+01 2.278557014465332031e+01 -8.551105111837387085e-02 -9.696689248085021973e-01 -3.165540099143981934e-01 5.199364423751831055e-01
2.307000000000000000e+03 1.105801677703857422e+01 2.409702873229980469e+01 -7.505156099796295166e-02 -7.355270981788635254e-01 -2.431735992431640625e-01 5.575684309005737305e-01
2.308000000000000000e+03 1.973479461669921875e+01 1.519623470306396484e+01 -6.174294948577880859e-01 -1.022144675254821777e+00 -4.918722510337829590e-01 6.138154268264770508e-01
2.309000000000000000e+03 6.377300262451171875e+00 -7.867647647857666016e+00 1.570732856635004282e-04 -3.326892619952559471e-04 -5.268479071673937142e-05 -7.207874441519379616e-04
2.310000000000000000e+03 1.802350425720214844e+01 -1.659195899963378906e+01 -3.545533418655395508e-01 -1.768618077039718628e-01 -1.594245433807373047e-01 -3.381880819797515869e-01
2.311000000000000000e+03 1.558621311187744141e+01 -1.843381881713867188e+01 -2.947871387004852295e-01 -2.813114821910858154e-01 -1.728295832872390747e-01 -3.049728870391845703e-01
2.312000000000000000e+03 1.879729843139648438e+01 -1.268078517913818359e+01 -3.784556984901428223e-01 -9.633073955774307251e-02 -1.424359381198883057e-01 -3.175284564495086670e-01
2.313000000000000000e+03 2.047053718566894531e+01 -1.422842121124267578e+01 -4.146781563758850098e-01 -6.838005036115646362e-02 -1.449174582958221436e-01 -3.652892410755157471e-01
2.314000000000000000e+03 1.830794715881347656e+01 1.764775466918945312e+01 -5.418551564216613770e-01 -1.078242659568786621e+00 -4.860293269157409668e-01 5.248415470123291016e-01
2.315000000000000000e+03 1.622686576843261719e+01 2.021983337402343750e+01 -3.230749666690826416e-01 -1.080918312072753906e+00 -4.211980104446411133e-01 5.023546218872070312e-01
2.316000000000000000e+03 1.959839820861816406e+01 -1.355211353302001953e+01 -4.070594012737274170e-01 -7.784828543663024902e-02 -1.454723030328750610e-01 -3.438060283660888672e-01
2.317000000000000000e+03 1.656046104431152344e+01 -1.901290893554687500e+01 -2.737850546836853027e-01 -2.512684762477874756e-01 -1.575160622596740723e-01 -3.160838186740875244e-01
2.318000000000000000e+03 2.320080757141113281e+01 5.876794815063476562e+00 -3.419325053691864014e-01 -5.362982749938964844e-01 -2.634692490100860596e-01 6.620281934738159180e-01
2.319000000000000000e+03 2.210548782348632812e+01 3.386257886886596680e+00 -1.984766125679016113e-01 -4.999891519546508789e-01 -2.095397263765335083e-01 4.903541803359985352e-01
2.320000000000000000e+03 2.197031784057617188e+01 2.086095571517944336e+00 -1.586256474256515503e-01 -4.162210822105407715e-01 -1.724540144205093384e-01 4.143498539924621582e-01
2.321000000000000000e+03 2.334593963623046875e+01 3.518909931182861328e+00 -2.643753886222839355e-01 -4.266909062862396240e-01 -2.073198854923248291e-01 5.685622692108154297e-01
2.322000000000000000e+03 1.847518920898437500e+01 -1.560009670257568359e+01 -3.844228982925415039e-01 -1.405770927667617798e-01 -1.574999988079071045e-01 -3.494621813297271729e-01
2.323000000000000000e+03 1.937875556945800781e+01 1.858014106750488281e+01 -4.016506671905517578e-01 -9.433469176292419434e-01 -4.034992754459381104e-01 4.438971579074859619e-01
2.324000000000000000e+03 7.192500305175781250e+01 4.103163146972656250e+01 9.354628622531890869e-02 6.670547485351562500e+00 2.029228210449218750e+00 -1.996444910764694214e-02
2.325000000000000000e+03 2.418186187744140625e+01 9.102041244506835938e+00 -4.542624950408935547e-01 -4.947720468044281006e-01 -2.847103774547576904e-01 7.167748808860778809e-01
2.326000000000000000e+03 6.427654266357421875e+01 -8.575924873352050781e+00 1.216392874717712402e+00 9.381075859069824219e+00 3.179240703582763672e+00 5.887424945831298828e+00
2.327000000000000000e+03 6.313943862915039062e+01 -8.948009490966796875e+00 1.310826420783996582e+00 4.491873741149902344e+00 1.740810036659240723e+00 4.309374809265136719e+00
2.328000000000000000e+03 6.442805480957031250e+01 -8.759661674499511719e+00 7.720695734024047852e-01 1.058730316162109375e+01 3.407811880111694336e+00 5.651423931121826172e+00
2.329000000000000000e+03 6.287273025512695312e+01 -9.127539634704589844e+00 1.140718817710876465e+00 3.875816583633422852e+00 1.504960536956787109e+00 3.905439138412475586e+00
2.330000000000000000e+03 6.519248199462890625e+01 -3.717106580734252930e+00 -4.227997660636901855e-01 1.397922420501708984e+01 4.066927433013916016e+00 -4.001220226287841797e+00
2.331000000000000000e+03 6.467147827148437500e+01 -3.592821836471557617e+00 -1.754994154907763004e-03 1.149991512298583984e+01 3.449447870254516602e+00 -4.899365425109863281e+00
2.332000000000000000e+03 6.352763366699218750e+01 -9.171125411987304688e+00 1.113485097885131836e+00 6.109411716461181641e+00 2.166868925094604492e+00 4.767701625823974609e+00
2.333000000000000000e+03 6.571955108642578125e+01 -3.899230957031250000e+00 -3.928468227386474609e-01 1.611004829406738281e+01 4.715160369873046875e+00 -2.319574117660522461e+00
2.334000000000000000e+03 6.537162017822265625e+01 -8.663976669311523438e+00 -2.621497511863708496e-01 1.602321815490722656e+01 4.728320598602294922e+00 3.592327833175659180e+00
2.335000000000000000e+03 6.654431915283203125e+01 -4.127840995788574219e+00 7.929072380065917969e-01 1.667990875244140625e+01 5.241845130920410156e+00 4.121787250041961670e-01
2.336000000000000000e+03 6.758599853515625000e+01 -6.627600193023681641e+00 7.562097549438476562e+00 1.373898029327392578e+01 6.390323162078857422e+00 -5.864741802215576172e-01
2.337000000000000000e+03 6.716575622558593750e+01 -4.700830936431884766e+00 3.407725572586059570e+00 1.577172470092773438e+01 5.753834724426269531e+00 1.978220224380493164e+00
2.338000000000000000e+03 6.738322448730468750e+01 -4.855116844177246094e+00 4.006331443786621094e+00 1.514581298828125000e+01 5.745643138885498047e+00 2.090780735015869141e+00
2.339000000000000000e+03 6.762208557128906250e+01 -5.059244155883789062e+00 4.763012886047363281e+00 1.438110256195068359e+01 5.743234634399414062e+00 2.075153112411499023e+00
2.340000000000000000e+03 6.210448837280273438e+01 -8.882921218872070312e+00 6.880995035171508789e-01 1.975178360939025879e+00 7.989833354949951172e-01 2.710723161697387695e+00
2.341000000000000000e+03 6.269781875610351562e+01 -8.912021636962890625e+00 1.075168132781982422e+00 3.081409931182861328e+00 1.246973395347595215e+00 3.512837171554565430e+00
2.342000000000000000e+03 6.167792892456054688e+01 -9.487314224243164062e+00 5.113469362258911133e-01 2.094590663909912109e+00 7.817812561988830566e-01 2.571349620819091797e+00
2.343000000000000000e+03 6.155485916137695312e+01 -2.882027149200439453e+00 3.959214389324188232e-01 2.393574237823486328e+00 8.368486762046813965e-01 -2.685329914093017578e+00
2.344000000000000000e+03 6.042687606811523438e+01 -9.963433265686035156e+00 -1.936833490617573261e-03 1.370283365249633789e+00 4.105039834976196289e-01 1.768888235092163086e+00
2.345000000000000000e+03 2.412324714660644531e+01 -1.662122845649719238e+00 -2.341179847717285156e-01 -1.496355533599853516e-01 -1.151260584592819214e-01 3.161129355430603027e-01
2.346000000000000000e+03 2.503812789916992188e+01 1.429666996002197266e+00 -3.152956962585449219e-01 -2.456807643175125122e-01 -1.682929396629333496e-01 5.336091518402099609e-01
2.347000000000000000e+03 2.378805923461914062e+01 -7.004539370536804199e-01 -2.224797010421752930e-01 -2.017017155885696411e-01 -1.272544264793395996e-01 3.609025180339813232e-01
2.348000000000000000e+03 5.955984497070312500e+01 -2.269928932189941406e+00 -2.890973985195159912e-01 1.174509167671203613e+00 2.656235396862030029e-01 -1.509098768234252930e+00
2.349000000000000000e+03 2.671320152282714844e+01 -2.202420949935913086e+00 -4.023291766643524170e-01 -7.901684939861297607e-02 -1.444038152694702148e-01 3.731117844581604004e-01
2.350000000000000000e+03 2.510815429687500000e+01 -1.177241086959838867e+00 -3.007828295230865479e-01 -1.462704837322235107e-01 -1.341159939765930176e-01 3.859798610210418701e-01
2.351000000000000000e+03 2.739442634582519531e+01 -2.208085536956787109e+00 -4.475366175174713135e-01 -6.669704616069793701e-02 -1.542700976133346558e-01 3.882057070732116699e-01
2.352000000000000000e+03 2.682928276062011719e+01 -1.594467759132385254e+00 -4.097872972488403320e-01 -9.469138830900192261e-02 -1.513435989618301392e-01 4.180331230163574219e-01
2.353000000000000000e+03 5.740686416625976562e+00 4.704068660736083984e+00 -1.514739269623532891e-04 -4.528691351879388094e-04 -1.813029230106621981e-04 3.163590736221522093e-04
2.354000000000000000e+03 4.846158981323242188e+00 5.351379394531250000e+00 -4.850470868404954672e-04 -1.034974484355188906e-04 -1.765633642207831144e-04 2.663810446392744780e-04
2.355000000000000000e+03 2.446903038024902344e+01 -9.450556039810180664e-01 -2.637997269630432129e-01 -1.707946509122848511e-01 -1.303783208131790161e-01 3.759741783142089844e-01
2.356000000000000000e+03 8.209756851196289062e+00 6.009127140045166016e+00 -1.070845828508026898e-04 2.224027412012219429e-03 6.350828334689140320e-04 3.944794880226254463e-04
2.357000000000000000e+03 2.570759582519531250e+01 -1.397266507148742676e+00 -3.383966386318206787e-01 -1.235619410872459412e-01 -1.385875642299652100e-01 3.924490511417388916e-01
2.358000000000000000e+03 9.916568756103515625e+00 5.811783790588378906e+00 1.125435810536146164e-04 1.614803564734756947e-03 5.182041786611080170e-04 1.467608730308711529e-03
2.359000000000000000e+03 2.625816154479980469e+01 -1.588209748268127441e+00 -3.677023649215698242e-01 -1.077670603990554810e-01 -1.426408290863037109e-01 3.967249095439910889e-01
2.360000000000000000e+03 2.950980377197265625e+01 -2.222820997238159180e+00 -5.997995138168334961e-01 -3.323982656002044678e-02 -1.899117976427078247e-01 4.291090071201324463e-01
2.361000000000000000e+03 7.671435832977294922e+00 5.001657009124755859e+00 -7.297388219740241766e-05 1.746265217661857605e-03 5.019874079152941704e-04 2.954423543997108936e-04
2.362000000000000000e+03 3.092855262756347656e+01 -2.211556911468505859e+00 -7.038912773132324219e-01 -1.640195772051811218e-02 -2.160879820585250854e-01 4.476808607578277588e-01
2.363000000000000000e+03 2.964698028564453125e+01 -1.549597501754760742e+00 -5.978874564170837402e-01 -4.172977432608604431e-02 -1.918851733207702637e-01 4.778967201709747314e-01
2.364000000000000000e+03 6.152683734893798828e+00 5.457955837249755859e+00 2.181253948947414756e-04 -6.957267178222537041e-04 -1.432803837815299630e-04 3.380307462066411972e-04
2.365000000000000000e+03 6.375422000885009766e+00 4.779857635498046875e+00 1.165871362900361419e-04 1.033448730595409870e-03 3.450107760727405548e-04 -1.383501657983288169e-04
2.366000000000000000e+03 2.905970191955566406e+01 -9.208651781082153320e-01 -5.495864748954772949e-01 -6.214057654142379761e-02 -1.835181117057800293e-01 5.098234415054321289e-01
2.367000000000000000e+03 3.034548950195312500e+01 -1.539685606956481934e+00 -6.444547176361083984e-01 -3.112778440117835999e-02 -2.026747465133666992e-01 4.886946380138397217e-01
2.368000000000000000e+03 3.310592651367187500e+01 -2.166795253753662109e+00 -8.667116761207580566e-01 2.850548597052693367e-03 -2.591583430767059326e-01 4.667183756828308105e-01
2.369000000000000000e+03 3.248322677612304688e+01 -1.494450449943542480e+00 -7.882723212242126465e-01 -6.093751639127731323e-03 -2.383098155260086060e-01 5.118417739868164062e-01
2.370000000000000000e+03 3.185437202453613281e+01 -8.196216821670532227e-01 -7.194331884384155273e-01 -1.820409856736660004e-02 -2.212911844253540039e-01 5.501156449317932129e-01
2.371000000000000000e+03 4.679041290283203125e+01 -1.180000877380371094e+01 -1.356788635253906250e+00 5.221195146441459656e-02 -3.913730084896087646e-01 -3.337073326110839844e-01
2.372000000000000000e+03 4.312347412109375000e+01 -1.122922706604003906e+01 -1.448485851287841797e+00 -2.946532913483679295e-04 -4.346341490745544434e-01 -3.839452564716339111e-01
2.373000000000000000e+03 4.161405563354492188e+01 -1.129727363586425781e+01 -1.385322332382202148e+00 -9.972451254725456238e-03 -4.185884296894073486e-01 -3.915518522262573242e-01
2.374000000000000000e+03 4.235232925415039062e+01 -1.201332473754882812e+01 -1.256292223930358887e+00 -2.274552360177040100e-03 -3.775700330734252930e-01 -4.092467725276947021e-01
2.375000000000000000e+03 3.176398277282714844e+01 -1.512121677398681641e+00 -7.396382689476013184e-01 -1.405585650354623795e-02 -2.261082231998443604e-01 5.055466890335083008e-01
2.376000000000000000e+03 4.609437179565429688e+01 -1.112186527252197266e+01 -1.543763041496276855e+00 2.727547287940979004e-02 -4.549462795257568359e-01 -3.460911214351654053e-01
2.377000000000000000e+03 4.897312164306640625e+01 -1.178609752655029297e+01 -1.325239539146423340e+00 8.794344216585159302e-02 -3.711888194084167480e-01 -2.548143565654754639e-01
2.378000000000000000e+03 4.755684661865234375e+01 -1.109124374389648438e+01 -1.562273859977722168e+00 4.247616603970527649e-02 -4.559393227100372314e-01 -3.118684589862823486e-01
2.379000000000000000e+03 4.310796737670898438e+01 -1.271084594726562500e+01 -1.123137116432189941e+00 1.400918327271938324e-02 -3.327383697032928467e-01 -4.144381582736968994e-01
2.380000000000000000e+03 3.934859466552734375e+01 -1.137845230102539062e+01 -1.284972667694091797e+00 -1.896449178457260132e-02 -3.911811411380767822e-01 -3.960280418395996094e-01
2.381000000000000000e+03 4.004414367675781250e+01 -1.214721393585205078e+01 -1.170716047286987305e+00 -1.758124679327011108e-02 -3.564892113208770752e-01 -4.241696596145629883e-01
2.382000000000000000e+03 4.971348190307617188e+01 -1.178214073181152344e+01 -1.305202364921569824e+00 1.137747764587402344e-01 -3.574282824993133545e-01 -2.187118232250213623e-01
2.383000000000000000e+03 5.197735595703125000e+01 -1.175353813171386719e+01 -1.180226445198059082e+00 1.833584010601043701e-01 -2.990604043006896973e-01 -5.558604747056961060e-02
2.384000000000000000e+03 4.829298019409179688e+01 -1.108417606353759766e+01 -1.561577796936035156e+00 5.120911076664924622e-02 -4.531106054782867432e-01 -2.912583351135253906e-01
2.385000000000000000e+03 5.042055130004882812e+01 -1.544977951049804688e+01 -3.250664770603179932e-01 4.580263495445251465e-01 3.988796845078468323e-02 6.299027055501937866e-02
2.386000000000000000e+03 3.678747177124023438e+01 -2.080833673477172852e+00 -1.138762950897216797e+00 1.777935586869716644e-02 -3.362950682640075684e-01 4.739480316638946533e-01
2.387000000000000000e+03 3.541280746459960938e+01 -1.418818831443786621e+00 -9.801165461540222168e-01 1.483975909650325775e-02 -2.895830273628234863e-01 5.233658552169799805e-01
2.388000000000000000e+03 4.081407546997070312e+01 -1.210675334930419922e+01 -1.201060414314270020e+00 -1.136498432606458664e-02 -3.637275993824005127e-01 -4.188202619552612305e-01
2.389000000000000000e+03 4.460439300537109375e+01 -1.188071441650390625e+01 -1.326236248016357422e+00 2.348228916525840759e-02 -3.908261656761169434e-01 -3.819389343261718750e-01
2.390000000000000000e+03 4.459511566162109375e+01 -1.259969329833984375e+01 -1.154018044471740723e+00 3.687323629856109619e-02 -3.351434469223022461e-01 -3.864288032054901123e-01
2.391000000000000000e+03 5.273115158081054688e+01 -1.172759056091308594e+01 -1.121840596199035645e+00 2.221660912036895752e-01 -2.699023485183715820e-01 1.300487015396356583e-02
2.392000000000000000e+03 5.046060562133789062e+01 -1.177628135681152344e+01 -1.273086667060852051e+00 1.354424506425857544e-01 -3.412932753562927246e-01 -1.684142947196960449e-01
2.393000000000000000e+03 5.571838760375976562e+01 -1.155208015441894531e+01 -7.814064025878906250e-01 4.805301427841186523e-01 -9.026287496089935303e-02 4.382888376712799072e-01
2.394000000000000000e+03 5.718927764892578125e+01 -1.146585178375244141e+01 -5.135225057601928711e-01 7.373703718185424805e-01 6.715435534715652466e-02 7.927758693695068359e-01
2.395000000000000000e+03 3.705945587158203125e+01 -1.219699954986572266e+01 -1.058961510658264160e+00 -2.919350191950798035e-02 -3.264465034008026123e-01 -4.269518554210662842e-01
2.396000000000000000e+03 5.791986846923828125e+01 -1.145877456665039062e+01 -3.407082557678222656e-01 9.297096133232116699e-01 1.767003983259201050e-01 1.027963995933532715e+00
2.397000000000000000e+03 5.645531463623046875e+01 -1.150336170196533203e+01 -6.589895486831665039e-01 5.857841372489929199e-01 -2.196161448955535889e-02 5.969425439834594727e-01
2.398000000000000000e+03 3.752547454833984375e+01 -2.065205574035644531e+00 -1.191333055496215820e+00 1.984395273029804230e-02 -3.514467179775238037e-01 4.724560678005218506e-01
2.399000000000000000e+03 3.468410491943359375e+01 -1.437444090843200684e+00 -9.334798455238342285e-01 1.096265763044357300e-02 -2.767551541328430176e-01 5.221699476242065430e-01
2.400000000000000000e+03 3.489921569824218750e+01 -1.144200611114501953e+01 -1.071363806724548340e+00 -3.285522013902664185e-02 -3.312657177448272705e-01 -3.875631093978881836e-01
2.401000000000000000e+03 3.780058288574218750e+01 -1.218260383605957031e+01 -1.088724136352539062e+00 -2.209287509322166443e-02 -3.332450985908508301e-01 -4.286180436611175537e-01
2.402000000000000000e+03 3.475910186767578125e+01 -7.448347210884094238e-01 -8.867399096488952637e-01 1.210078224539756775e-02 -2.623917460441589355e-01 5.658988356590270996e-01
2.403000000000000000e+03 5.422463989257812500e+01 -1.165085315704345703e+01 -9.780101180076599121e-01 3.228293359279632568e-01 -1.965542286634445190e-01 1.892913430929183960e-01
2.404000000000000000e+03 3.415431976318359375e+01 -1.145344161987304688e+01 -1.034033536911010742e+00 -3.193668276071548462e-02 -3.197910785675048828e-01 -3.849100470542907715e-01
2.405000000000000000e+03 3.698566055297851562e+01 -1.302739715576171875e+01 -9.398391842842102051e-01 -3.009965270757675171e-02 -2.909816503524780273e-01 -4.532485604286193848e-01
2.406000000000000000e+03 5.562596797943115234e+00 -5.554242134094238281e+00 -4.909406416118144989e-04 5.520337144844233990e-04 1.832791531342081726e-05 -1.053768864949233830e-04
2.407000000000000000e+03 7.081102848052978516e+00 -5.280011653900146484e+00 1.180689723696559668e-04 -4.363256448414176702e-04 -9.547700028633698821e-05 -3.982106281910091639e-04
2.408000000000000000e+03 5.407711410522460938e+01 -1.244494915008544922e+00 -1.153018116950988770e+00 3.066736757755279541e-01 -2.539033293724060059e-01 -1.701137274503707886e-01
2.409000000000000000e+03 5.549418258666992188e+01 -2.007774353027343750e+00 -1.266134142875671387e+00 3.118368685245513916e-01 -2.862891852855682373e-01 -2.875551283359527588e-01
2.410000000000000000e+03 5.347737503051757812e+01 -1.169332504272460938e+01 -1.057628631591796875e+00 2.650654911994934082e-01 -2.377689480781555176e-01 9.452255815267562866e-02
2.411000000000000000e+03 5.032748413085937500e+01 -1.096756100654602051e+00 -1.403707385063171387e+00 1.293752938508987427e-01 -3.822996318340301514e-01 1.912132203578948975e-01
2.412000000000000000e+03 5.249848937988281250e+01 -1.855627894401550293e+00 -1.565037846565246582e+00 1.421958208084106445e-01 -4.268525838851928711e-01 6.983000040054321289e-02
2.413000000000000000e+03 5.183690261840820312e+01 -1.119287610054016113e+00 -1.327202081680297852e+00 1.804349124431610107e-01 -3.440301418304443359e-01 7.210537791252136230e-02
2.414000000000000000e+03 3.972858810424804688e+01 -1.992221951484680176e+00 -1.339968919754028320e+00 2.156567201018333435e-02 -3.955209851264953613e-01 4.633064568042755127e-01
2.415000000000000000e+03 3.833552932739257812e+01 -1.356832981109619141e+00 -1.160256624221801758e+00 2.529129199683666229e-02 -3.404895961284637451e-01 5.152464509010314941e-01
2.416000000000000000e+03 4.045951461791992188e+01 -1.958519935607910156e+00 -1.382567644119262695e+00 2.287474088370800018e-02 -4.079078733921051025e-01 4.592334330081939697e-01
2.417000000000000000e+03 3.978045654296875000e+01 -1.276861786842346191e+00 -1.234004735946655273e+00 2.874599210917949677e-02 -3.615776300430297852e-01 5.080798864364624023e-01
2.418000000000000000e+03 4.269812011718750000e+01 -1.875288128852844238e+00 -1.504523992538452148e+00 2.603553421795368195e-02 -4.435465335845947266e-01 4.377405345439910889e-01
2.419000000000000000e+03 4.579707717895507812e+01 -1.105142354965209961e+00 -1.443503856658935547e+00 5.500885099172592163e-02 -4.165484905242919922e-01 3.983968794345855713e-01
2.420000000000000000e+03 4.274962234497070312e+01 -1.128515839576721191e+00 -1.356823563575744629e+00 3.936145082116127014e-02 -3.952386379241943359e-01 4.718818068504333496e-01
2.421000000000000000e+03 3.614137649536132812e+01 -1.406404256820678711e+00 -1.026888370513916016e+00 1.757992617785930634e-02 -3.027925193309783936e-01 5.227183103561401367e-01
2.422000000000000000e+03 5.108724594116210938e+01 -1.104583382606506348e+00 -1.369499802589416504e+00 1.526277959346771240e-01 -3.650616109371185303e-01 1.372291743755340576e-01
2.423000000000000000e+03 5.497329330444335938e+01 -1.160281276702880859e+01 -8.899201750755310059e-01 3.922530710697174072e-01 -1.493001431226730347e-01 3.024638891220092773e-01
2.424000000000000000e+03 4.730677032470703125e+01 -1.104267001152038574e+00 -1.460684776306152344e+00 6.951827555894851685e-02 -4.173499643802642822e-01 3.477964401245117188e-01
2.425000000000000000e+03 4.874252319335937500e+01 -1.816468954086303711e+00 -1.678822040557861328e+00 5.830725654959678650e-02 -4.861544370651245117e-01 2.917989492416381836e-01
2.426000000000000000e+03 4.805969238281250000e+01 -1.101422190666198730e+00 -1.457639098167419434e+00 7.865358889102935791e-02 -4.136956334114074707e-01 3.173204064369201660e-01
2.427000000000000000e+03 3.265118408203125000e+01 -1.151181507110595703e+01 -9.528488516807556152e-01 -3.246353566646575928e-02 -2.955937087535858154e-01 -3.812628388404846191e-01
2.428000000000000000e+03 3.414850997924804688e+01 -1.217236137390136719e+01 -9.453613758087158203e-01 -3.690278902649879456e-02 -2.946792542934417725e-01 -4.171545207500457764e-01
2.429000000000000000e+03 5.114609527587890625e+01 -3.604468107223510742e-01 -1.118391156196594238e+00 2.203259617090225220e-01 -2.694195508956909180e-01 8.294135332107543945e-02
2.430000000000000000e+03 3.188753700256347656e+01 -1.154938316345214844e+01 -9.108741283416748047e-01 -3.328463435173034668e-02 -2.832476496696472168e-01 -3.803447186946868896e-01
2.431000000000000000e+03 3.266098022460937500e+01 -1.225876235961914062e+01 -8.743152022361755371e-01 -3.562757745385169983e-02 -2.729828357696533203e-01 -4.168754518032073975e-01
2.432000000000000000e+03 5.332407760620117188e+01 -1.190076470375061035e+00 -1.217914700508117676e+00 2.539117634296417236e-01 -2.892008721828460693e-01 -7.717618346214294434e-02
2.433000000000000000e+03 4.956311035156250000e+01 -1.092047333717346191e+00 -1.429483056068420410e+00 1.086274087429046631e-01 -3.962566852569580078e-01 2.407979369163513184e-01
2.434000000000000000e+03 3.906094360351562500e+01 -1.321124196052551270e+00 -1.199740409851074219e+00 2.579099684953689575e-02 -3.521848320960998535e-01 5.113392472267150879e-01
2.435000000000000000e+03 4.125394821166992188e+01 -1.194901585578918457e+00 -1.300170540809631348e+00 3.314874321222305298e-02 -3.801065385341644287e-01 4.936367869377136230e-01
2.436000000000000000e+03 4.654859542846679688e+01 -1.102649807929992676e+00 -1.453238368034362793e+00 6.024897098541259766e-02 -4.178968071937561035e-01 3.760371804237365723e-01
2.437000000000000000e+03 4.504645538330078125e+01 -1.110898971557617188e+00 -1.429463148117065430e+00 5.035229772329330444e-02 -4.137332439422607422e-01 4.204628169536590576e-01
2.438000000000000000e+03 4.428067016601562500e+01 -1.111736416816711426e+00 -1.408252358436584473e+00 4.653248190879821777e-02 -4.085159897804260254e-01 4.398485422134399414e-01
2.439000000000000000e+03 4.350837326049804688e+01 -1.112652540206909180e+00 -1.382620692253112793e+00 4.188743606209754944e-02 -4.022199809551239014e-01 4.578812122344970703e-01
2.440000000000000000e+03 3.633535385131835938e+01 -1.219480991363525391e+01 -1.034055471420288086e+00 -3.115437366068363190e-02 -3.195629417896270752e-01 -4.253364801406860352e-01
2.441000000000000000e+03 5.556224441528320312e+01 -1.351863503456115723e+00 -9.672579765319824219e-01 4.433535337448120117e-01 -1.571713387966156006e-01 -4.157971739768981934e-01
2.442000000000000000e+03 5.907301330566406250e+01 -2.411375522613525391e+00 -4.914663732051849365e-01 9.475327134132385254e-01 1.368198990821838379e-01 -1.235767126083374023e+00
2.443000000000000000e+03 5.860885620117187500e+01 -1.687985897064208984e+00 -3.627132177352905273e-01 1.079175829887390137e+00 2.149387896060943604e-01 -1.271074652671813965e+00
2.444000000000000000e+03 5.707414627075195312e+01 -1.455016374588012695e+00 -6.921283602714538574e-01 6.757779121398925781e-01 -4.905142821371555328e-03 -7.639634609222412109e-01
2.445000000000000000e+03 2.957986259460449219e+01 -1.159408664703369141e+01 -7.902566194534301758e-01 -2.675060741603374481e-02 -2.451021671295166016e-01 -3.723794519901275635e-01
2.446000000000000000e+03 2.957518386840820312e+01 -1.234199047088623047e+01 -7.339333891868591309e-01 -3.070252947509288788e-02 -2.293907701969146729e-01 -4.074794352054595947e-01
2.447000000000000000e+03 3.341031265258789062e+01 -1.220184326171875000e+01 -9.124904870986938477e-01 -3.429781645536422729e-02 -2.840364873409271240e-01 -4.153016209602355957e-01
2.448000000000000000e+03 5.630671310424804688e+01 -1.403464078903198242e+00 -8.391844034194946289e-01 5.360881090164184570e-01 -9.092889726161956787e-02 -5.767520666122436523e-01
2.449000000000000000e+03 5.863663864135742188e+01 -1.150496196746826172e+01 -1.356650441884994507e-01 1.229346513748168945e+00 3.281044661998748779e-01 1.338855981826782227e+00
2.450000000000000000e+03 3.112014770507812500e+01 -1.234460067749023438e+01 -8.007801175117492676e-01 -3.601512312889099121e-02 -2.510385811328887939e-01 -4.135961234569549561e-01
2.451000000000000000e+03 5.994198226928710938e+01 -2.596654653549194336e+00 -2.248823791742324829e-01 1.240293502807617188e+00 3.046233355998992920e-01 -1.592529892921447754e+00
2.452000000000000000e+03 5.787202835083007812e+01 -1.506894946098327637e+00 -4.967682063579559326e-01 8.755912184715270996e-01 1.136469095945358276e-01 -1.024549484252929688e+00
2.453000000000000000e+03 2.645965385437011719e+01 -1.161025238037109375e+01 -6.383302807807922363e-01 -1.161719858646392822e-02 -1.949842423200607300e-01 -3.584058582782745361e-01
2.454000000000000000e+03 2.566555404663085938e+01 -1.159799671173095703e+01 -6.035874485969543457e-01 -7.473555859178304672e-03 -1.833182871341705322e-01 -3.526947498321533203e-01
2.455000000000000000e+03 2.648338508605957031e+01 -1.239993286132812500e+01 -6.066701412200927734e-01 -1.748544536530971527e-02 -1.872466802597045898e-01 -3.904636800289154053e-01
2.456000000000000000e+03 2.880597305297851562e+01 -1.234837818145751953e+01 -6.997245550155639648e-01 -2.744565345346927643e-02 -2.181510627269744873e-01 -4.035867452621459961e-01
2.457000000000000000e+03 2.803877258300781250e+01 -1.237014865875244141e+01 -6.683726906776428223e-01 -2.519336901605129242e-02 -2.080698162317276001e-01 -3.998506069183349609e-01
2.458000000000000000e+03 2.330922698974609375e+01 -1.151917266845703125e+01 -5.053637027740478516e-01 1.798698329366743565e-03 -1.510694921016693115e-01 -3.325178027153015137e-01
2.459000000000000000e+03 2.006690788269042969e+01 -1.527295207977294922e+01 -3.966587483882904053e-01 -9.184083342552185059e-02 -1.465498805046081543e-01 -3.642568588256835938e-01
2.460000000000000000e+03 2.726742553710937500e+01 -1.239128780364990234e+01 -6.358015537261962891e-01 -2.129462361335754395e-02 -1.971288621425628662e-01 -3.962369859218597412e-01
2.461000000000000000e+03 5.931904983520507812e+01 -1.162764549255371094e+01 3.238558396697044373e-02 1.662538647651672363e+00 5.084772706031799316e-01 1.679144740104675293e+00
2.462000000000000000e+03 2.488158798217773438e+01 -1.237064456939697266e+01 -5.489189624786376953e-01 -9.113212116062641144e-03 -1.674096584320068359e-01 -3.780120313167572021e-01
2.463000000000000000e+03 1.950950622558593750e+01 -1.195158958435058594e+01 -3.747221231460571289e-01 -6.570075452327728271e-02 -1.321268677711486816e-01 -3.056924343109130859e-01
2.464000000000000000e+03 2.333267402648925781e+01 -1.232964515686035156e+01 -4.974898993968963623e-01 -7.568950764834880829e-03 -1.515176594257354736e-01 -3.619258701801300049e-01
2.465000000000000000e+03 2.260955047607421875e+01 -1.230607795715332031e+01 -4.750145673751831055e-01 -9.037609212100505829e-03 -1.452156603336334229e-01 -3.530089855194091797e-01
2.466000000000000000e+03 1.063764953613281250e+01 5.741284847259521484e+00 2.819196088239550591e-04 -2.211232203990221024e-03 -5.787937552668154240e-04 -1.715243794023990631e-03
2.467000000000000000e+03 1.106284427642822266e+01 6.767685413360595703e+00 -7.108609861461445689e-05 -2.509199315682053566e-03 -7.740856381133198738e-04 -1.338513917289674282e-03
2.468000000000000000e+03 7.719772815704345703e+00 9.652245521545410156e+00 -9.611576388124376535e-05 1.205751206725835800e-03 3.328906313981860876e-04 1.015075031318701804e-04
2.469000000000000000e+03 8.205046653747558594e+00 6.903060436248779297e+00 5.347275873646140099e-04 -1.586853526532649994e-03 -3.156377933919429779e-04 -7.702000439167022705e-04
2.470000000000000000e+03 6.834077835083007812e+00 1.049745368957519531e+01 1.985031645745038986e-03 9.239169303327798843e-04 8.726845844648778439e-04 3.027562517672777176e-03
2.471000000000000000e+03 2.149470329284667969e+01 -9.683569520711898804e-02 -9.889294952154159546e-02 -2.688661217689514160e-01 -1.103277280926704407e-01 2.568386495113372803e-01
2.472000000000000000e+03 2.364835166931152344e+01 8.089232444763183594e+00 -4.318064749240875244e-01 -5.422849059104919434e-01 -2.922274172306060791e-01 7.086258530616760254e-01
2.473000000000000000e+03 2.331879615783691406e+01 7.005656242370605469e+00 -3.922244310379028320e-01 -5.474635958671569824e-01 -2.819064259529113770e-01 6.939156651496887207e-01
2.474000000000000000e+03 2.348044776916503906e+01 -1.521339416503906250e+01 -4.244062900543212891e-01 -4.358870163559913635e-02 -1.403985023498535156e-01 -4.242088496685028076e-01
2.475000000000000000e+03 6.357023239135742188e+00 2.110282897949218750e+01 -2.917399406433105469e-01 -1.265391409397125244e-01 -1.254837214946746826e-01 2.462013661861419678e-01
2.476000000000000000e+03 9.769598007202148438e+00 7.181587696075439453e+00 9.640762000344693661e-04 -2.701740246266126633e-03 -5.212991964071989059e-04 -1.291677908739075065e-04
2.477000000000000000e+03 6.972380828857421875e+01 -2.642657279968261719e+01 -2.965830564498901367e-01 7.078774452209472656e+00 2.034657478332519531e+00 2.670017182826995850e-01
2.478000000000000000e+03 6.903274536132812500e+01 -3.166687202453613281e+01 -9.268039837479591370e-03 6.623256206512451172e+00 1.984196543693542480e+00 2.768903076648712158e-01
2.479000000000000000e+03 7.556649780273437500e+01 -7.206480503082275391e+00 8.435205221176147461e-01 7.021869182586669922e+00 2.359616994857788086e+00 -2.788462042808532715e-01
2.480000000000000000e+03 7.472830200195312500e+01 -7.345819473266601562e+00 1.078475594520568848e+00 7.448480129241943359e+00 2.558086872100830078e+00 -3.701529800891876221e-01
2.481000000000000000e+03 7.386614227294921875e+01 1.308368206024169922e+00 -2.867158055305480957e-01 8.427406311035156250e+00 2.442207336425781250e+00 1.201017975807189941e+00
2.482000000000000000e+03 6.705858612060546875e+01 -8.678471565246582031e+00 1.524815082550048828e+00 1.563197326660156250e+01 5.147036552429199219e+00 -1.258991360664367676e+00
2.483000000000000000e+03 7.442107391357421875e+01 -9.759352684020996094e+00 7.246816754341125488e-01 7.899892807006835938e+00 2.587372303009033203e+00 -1.117000699043273926e+00
2.484000000000000000e+03 7.358294677734375000e+01 -2.330203437805175781e+01 -3.472666144371032715e-01 7.953401088714599609e+00 2.281840324401855469e+00 -1.678633838891983032e-01
2.485000000000000000e+03 8.621858596801757812e+00 2.847143173217773438e+01 7.966294139623641968e-02 -6.489859819412231445e-01 -1.707969158887863159e-01 4.114819169044494629e-01
2.486000000000000000e+03 9.789301872253417969e+00 3.263053512573242188e+01 1.933631896972656250e-01 -7.182576060295104980e-01 -1.574683189392089844e-01 3.133708834648132324e-01
2.487000000000000000e+03 7.365875244140625000e+01 -2.202934646606445312e+01 -4.009858667850494385e-01 8.043231964111328125e+00 2.292673826217651367e+00 -2.792074084281921387e-01
2.488000000000000000e+03 7.527021789550781250e+01 -1.676253914833068848e+00 2.917631268501281738e-01 7.604259014129638672e+00 2.368806600570678711e+00 1.167036294937133789e+00
2.489000000000000000e+03 7.119384765625000000e+01 1.657080650329589844e+01 -1.870368123054504395e-01 7.082496166229248047e+00 2.068637847900390625e+00 -3.309307694435119629e-01
2.490000000000000000e+03 7.238466644287109375e+01 1.618674659729003906e+01 -1.660427451133728027e-01 7.331947326660156250e+00 2.149771213531494141e+00 -2.422242313623428345e-01
2.491000000000000000e+03 7.089927673339843750e+01 1.025643444061279297e+01 -5.565533041954040527e-01 7.590602397918701172e+00 2.110214710235595703e+00 -1.544979661703109741e-01
2.492000000000000000e+03 7.311077117919921875e+01 8.682513236999511719e+00 -4.941413700580596924e-01 7.984363079071044922e+00 2.247066497802734375e+00 2.194811254739761353e-01
2.493000000000000000e+03 7.369400787353515625e+01 -1.671991157531738281e+01 -5.321013927459716797e-01 8.424160957336425781e+00 2.367617845535278320e+00 -8.827664256095886230e-01
2.494000000000000000e+03 7.378192901611328125e+01 -1.811281394958496094e+01 -5.290862321853637695e-01 8.305840492248535156e+00 2.333026409149169922e+00 -6.963873505592346191e-01
2.495000000000000000e+03 7.426189422607421875e+01 -1.111961174011230469e+01 3.791144490242004395e-01 8.137557983398437500e+00 2.555001735687255859e+00 -1.296891450881958008e+00
2.496000000000000000e+03 7.294293975830078125e+01 3.749950170516967773e+00 -6.453765630722045898e-01 8.538367271423339844e+00 2.367897272109985352e+00 8.067680597305297852e-01
2.497000000000000000e+03 7.344006347656250000e+01 7.466448783874511719e+00 -5.215729475021362305e-01 8.101653099060058594e+00 2.274024009704589844e+00 3.707849979400634766e-01
2.498000000000000000e+03 7.372355651855468750e+01 -2.075863456726074219e+01 -4.451223015785217285e-01 8.127477645874023438e+00 2.304706573486328125e+00 -3.961063921451568604e-01
2.499000000000000000e+03 7.313680267333984375e+01 -1.231583833694458008e+00 2.575154602527618408e-01 8.762618064880371094e+00 2.706040143966674805e+00 1.397215247154235840e+00
2.500000000000000000e+03 7.285545349121093750e+01 2.674993515014648438e+01 3.793884441256523132e-02 7.054980278015136719e+00 2.127875804901123047e+00 -2.646144032478332520e-01
2.501000000000000000e+03 7.232679748535156250e+01 -2.817192649841308594e+01 -1.635714024305343628e-01 7.497219562530517578e+00 2.200094461441040039e+00 1.082476228475570679e-01
2.502000000000000000e+03 7.403905487060546875e+01 -1.385401821136474609e+01 -2.423750758171081543e-01 8.409849166870117188e+00 2.450242280960083008e+00 -1.248627781867980957e+00
2.503000000000000000e+03 6.685862541198730469e+00 2.753749465942382812e+01 2.354568615555763245e-02 -5.417471528053283691e-01 -1.554604470729827881e-01 3.744723498821258545e-01
2.504000000000000000e+03 7.118814945220947266e+00 2.577594757080078125e+01 -3.651094064116477966e-02 -5.077195763587951660e-01 -1.632691472768783569e-01 4.149903059005737305e-01
2.505000000000000000e+03 7.475663757324218750e+01 6.470748901367187500e+00 -4.011416435241699219e-01 8.115164756774902344e+00 2.314206838607788086e+00 5.629649162292480469e-01
2.506000000000000000e+03 7.368215179443359375e+01 6.249724864959716797e+00 -5.372710227966308594e-01 8.199103355407714844e+00 2.298549652099609375e+00 5.367377996444702148e-01
2.507000000000000000e+03 1.050061225891113281e+01 2.152991485595703125e+01 -3.405807018280029297e-01 -6.192314028739929199e-01 -2.879436314105987549e-01 6.086198091506958008e-01
2.508000000000000000e+03 7.402204132080078125e+01 -6.766627430915832520e-01 8.953934162855148315e-02 8.317218780517578125e+00 2.522027492523193359e+00 1.328866839408874512e+00
2.509000000000000000e+03 8.769434928894042969e+00 -2.416605377197265625e+01 -3.667100891470909119e-02 -3.184750378131866455e-01 -1.065438166260719299e-01 -2.824117839336395264e-01
2.510000000000000000e+03 7.378131103515625000e+01 -1.527029800415039062e+01 -4.479836225509643555e-01 8.472195625305175781e+00 2.407263755798339844e+00 -1.071819186210632324e+00
2.511000000000000000e+03 2.193181419372558594e+01 -1.230499839782714844e+01 -4.541004896163940430e-01 -1.482561882585287094e-02 -1.406778246164321899e-01 -3.448449075222015381e-01
2.512000000000000000e+03 2.260495567321777344e+01 -1.313643741607666016e+01 -4.661468267440795898e-01 -2.096256613731384277e-02 -1.461328268051147461e-01 -3.770491182804107666e-01
2.513000000000000000e+03 6.734776973724365234e+00 -6.429738521575927734e+00 9.654063615016639233e-05 -4.041086358483880758e-04 -9.227039845427498221e-05 -4.669204936362802982e-04
2.514000000000000000e+03 5.925468921661376953e+00 2.847381973266601562e+01 3.278072550892829895e-02 -5.489154458045959473e-01 -1.548404097557067871e-01 3.360059261322021484e-01
2.515000000000000000e+03 7.870841503143310547e+00 8.167634010314941406e+00 1.829140819609165192e-04 5.045763100497424603e-04 2.062471030512824655e-04 -3.603234363254159689e-04
2.516000000000000000e+03 5.700806140899658203e+00 6.025815963745117188e+00 4.445319354999810457e-04 -9.177822357742115855e-05 1.058261113939806819e-04 2.831492565746884793e-05
2.517000000000000000e+03 7.372284889221191406e+00 7.409823894500732422e+00 3.542981867212802172e-04 9.179934859275817871e-04 3.816875105258077383e-04 1.193972071632742882e-03
2.518000000000000000e+03 2.606992340087890625e+01 8.212471961975097656e+00 -4.272076487541198730e-01 -3.191661536693572998e-01 -2.239121347665786743e-01 7.348761558532714844e-01
2.519000000000000000e+03 1.240886878967285156e+01 -2.086403083801269531e+01 -1.491747349500656128e-01 -3.770647943019866943e-01 -1.578718572854995728e-01 -2.849592864513397217e-01
2.520000000000000000e+03 9.201223373413085938e+00 -2.163595581054687500e+01 -1.063125431537628174e-01 -3.196129202842712402e-01 -1.277776360511779785e-01 -3.014236092567443848e-01
2.521000000000000000e+03 1.222095870971679688e+01 -2.343173027038574219e+01 -3.256401047110557556e-02 -3.646839261054992676e-01 -1.191743835806846619e-01 -3.016143143177032471e-01
2.522000000000000000e+03 1.893751525878906250e+01 -2.039739608764648438e+01 -2.087867707014083862e-01 -2.038533240556716919e-01 -1.237920299172401428e-01 -3.462747633457183838e-01
2.523000000000000000e+03 1.525202274322509766e+01 2.148227500915527344e+01 -1.957906633615493774e-01 -1.036989688873291016e+00 -3.698341250419616699e-01 5.201956033706665039e-01
2.524000000000000000e+03 8.904520034790039062e+00 2.402077102661132812e+01 -1.142688766121864319e-01 -5.458812713623046875e-01 -1.980450451374053955e-01 4.955113232135772705e-01
2.525000000000000000e+03 1.341080188751220703e+01 2.412656593322753906e+01 -8.288439130410552025e-05 -8.940254449844360352e-01 -2.682324945926666260e-01 5.128156542778015137e-01
2.526000000000000000e+03 2.387948989868164062e+01 1.297588825225830078e+01 -4.845544397830963135e-01 -5.282170176506042480e-01 -3.038314282894134521e-01 6.247956752777099609e-01
2.527000000000000000e+03 2.461598205566406250e+01 1.766716957092285156e+01 -2.574532330036163330e-01 -4.441305994987487793e-01 -2.104751467704772949e-01 4.263344407081604004e-01
2.528000000000000000e+03 2.100964164733886719e+01 -1.596575260162353516e+01 -3.799688816070556641e-01 -8.376473188400268555e-02 -1.391200870275497437e-01 -3.881567418575286865e-01
2.529000000000000000e+03 2.446205329895019531e+01 4.835419178009033203e+00 -3.498265147209167480e-01 -3.943356275558471680e-01 -2.232486456632614136e-01 6.672440171241760254e-01
2.530000000000000000e+03 8.451456069946289062e+00 -2.992508888244628906e+01 6.144999712705612183e-02 -3.771532773971557617e-01 -9.471098333597183228e-02 -2.270219326019287109e-01
2.531000000000000000e+03 6.083665370941162109e+00 -2.928629112243652344e+01 3.039054013788700104e-02 -3.504665195941925049e-01 -9.602279216051101685e-02 -1.971007734537124634e-01
2.532000000000000000e+03 1.577788352966308594e+01 2.379988479614257812e+01 2.857430465519428253e-02 -9.384289383888244629e-01 -2.729564011096954346e-01 4.412805140018463135e-01
2.533000000000000000e+03 1.602748107910156250e+01 -2.170548057556152344e+01 -1.315867900848388672e-01 -3.018353283405303955e-01 -1.300266385078430176e-01 -3.002794981002807617e-01
2.534000000000000000e+03 2.469420051574707031e+01 7.631775379180908203e+00 -4.207834005355834961e-01 -4.312694072723388672e-01 -2.556158304214477539e-01 7.212002277374267578e-01
2.535000000000000000e+03 2.286798858642578125e+01 1.413956069946289062e+01 -5.009568929672241211e-01 -6.217391490936279297e-01 -3.368088006973266602e-01 5.846899151802062988e-01
2.536000000000000000e+03 7.250283813476562500e+01 1.303694820404052734e+01 -2.934438884258270264e-01 7.558560848236083984e+00 2.179534912109375000e+00 -1.284785866737365723e-01
2.537000000000000000e+03 7.173991680145263672e+00 -2.806657791137695312e+01 2.746332995593547821e-02 -3.372210562229156494e-01 -9.292732179164886475e-02 -2.267305701971054077e-01
2.538000000000000000e+03 1.123796653747558594e+01 -2.446750259399414062e+01 -1.654042862355709076e-02 -3.583473563194274902e-01 -1.124663278460502625e-01 -2.887433767318725586e-01
2.539000000000000000e+03 6.995323944091796875e+01 2.835683059692382812e+01 9.279458969831466675e-02 6.442057609558105469e+00 1.960455775260925293e+00 -3.056565225124359131e-01
2.540000000000000000e+03 6.464463806152343750e+01 -8.899423599243164062e+00 3.604121506214141846e-01 1.163989257812500000e+01 3.600091218948364258e+00 5.305070877075195312e+00
2.541000000000000000e+03 6.442507171630859375e+01 -9.600489616394042969e+00 1.212629675865173340e-02 1.013147163391113281e+01 3.043079376220703125e+00 4.561734676361083984e+00
2.542000000000000000e+03 6.144349670410156250e+01 -2.121231555938720703e+00 3.451049625873565674e-01 2.858623981475830078e+00 9.611186981201171875e-01 -2.806299448013305664e+00
2.543000000000000000e+03 6.338927841186523438e+01 -3.979594469070434570e+00 1.348908782005310059e+00 5.024906635284423828e+00 1.912144541740417480e+00 -4.676858425140380859e+00
2.544000000000000000e+03 6.405133056640625000e+01 -3.723699331283569336e+00 7.991925477981567383e-01 8.483466148376464844e+00 2.784797430038452148e+00 -5.340611934661865234e+00
2.545000000000000000e+03 6.457395935058593750e+01 -9.220273971557617188e+00 1.426023393869400024e-01 1.087876319885253906e+01 3.306409597396850586e+00 4.993523120880126953e+00
2.546000000000000000e+03 6.490802001953125000e+01 -3.567735433578491211e+00 -2.721064388751983643e-01 1.243113994598388672e+01 3.647709846496582031e+00 -4.531485080718994141e+00
2.547000000000000000e+03 6.513250732421875000e+01 -9.233218193054199219e+00 -4.368469417095184326e-01 1.344593048095703125e+01 3.902724981307983398e+00 4.079060077667236328e+00
2.548000000000000000e+03 6.384327316284179688e+01 -9.142403602600097656e+00 9.816972017288208008e-01 7.458926677703857422e+00 2.532187223434448242e+00 5.112530708312988281e+00
2.549000000000000000e+03 6.501589202880859375e+01 -3.829136848449707031e+00 -1.739068329334259033e-01 1.347078418731689453e+01 3.989063024520874023e+00 -4.555755138397216797e+00
2.550000000000000000e+03 7.420140075683593750e+01 -1.249854278564453125e+01 2.614670246839523315e-02 8.284301757812500000e+00 2.493134498596191406e+00 -1.331953287124633789e+00
2.551000000000000000e+03 6.668885803222656250e+01 -4.669475078582763672e+00 2.645659685134887695e+00 1.732147216796875000e+01 5.990139484405517578e+00 1.640748620033264160e+00
2.552000000000000000e+03 6.610620117187500000e+01 -3.785523891448974609e+00 -2.630199193954467773e-01 1.609220123291015625e+01 4.748754024505615234e+00 -1.187781810760498047e+00
2.553000000000000000e+03 6.597184753417968750e+01 -8.764322280883789062e+00 -1.314902901649475098e-01 1.676752281188964844e+01 4.990809440612792969e+00 1.442139625549316406e+00
2.554000000000000000e+03 6.731392669677734375e+01 -4.344701290130615234e+00 2.391307353973388672e+00 1.515421962738037109e+01 5.263658046722412109e+00 1.746554732322692871e+00
2.555000000000000000e+03 7.411923980712890625e+01 -5.351214885711669922e+00 1.286928772926330566e+00 7.762802600860595703e+00 2.714919328689575195e+00 4.103552103042602539e-01
2.556000000000000000e+03 6.246694564819335938e+01 -3.902244091033935547e+00 8.237396478652954102e-01 2.676688432693481445e+00 1.050128459930419922e+00 -3.198173761367797852e+00
2.557000000000000000e+03 7.296185302734375000e+01 -7.811699867248535156e+00 1.729651689529418945e+00 8.430000305175781250e+00 3.047895669937133789e+00 -6.525971889495849609e-01
2.558000000000000000e+03 6.793288421630859375e+01 -7.262177467346191406e+00 5.761043071746826172e+00 1.330316543579101562e+01 5.719262599945068359e+00 -1.500557422637939453e+00
2.559000000000000000e+03 7.368656158447265625e+01 -3.166723012924194336e+00 8.988737463951110840e-01 8.247868537902832031e+00 2.744022846221923828e+00 1.148381590843200684e+00
2.560000000000000000e+03 6.789891052246093750e+01 -5.289565086364746094e+00 5.275325298309326172e+00 1.351685905456542969e+01 5.637655258178710938e+00 1.798467755317687988e+00
2.561000000000000000e+03 6.796320343017578125e+01 -6.624941825866699219e+00 6.745089054107666016e+00 1.290960693359375000e+01 5.896409034729003906e+00 -4.842805266380310059e-01
2.562000000000000000e+03 6.811649322509765625e+01 -5.890943527221679688e+00 6.152764320373535156e+00 1.275817966461181641e+01 5.673283100128173828e+00 9.236021637916564941e-01
2.563000000000000000e+03 6.258776855468750000e+01 -9.229965209960937500e+00 9.675798416137695312e-01 3.240871667861938477e+00 1.262535452842712402e+00 3.553380489349365234e+00
2.564000000000000000e+03 6.322594070434570312e+01 -9.529019355773925781e+00 9.002436399459838867e-01 5.301583766937255859e+00 1.860548257827758789e+00 4.381387233734130859e+00
2.565000000000000000e+03 6.189715957641601562e+01 -3.496560335159301758e+00 5.676149129867553711e-01 2.242969751358032227e+00 8.431754112243652344e-01 -2.753120660781860352e+00
2.566000000000000000e+03 6.112440872192382812e+01 -2.583945274353027344e+00 2.547977566719055176e-01 2.095135927200317383e+00 7.049801349639892578e-01 -2.430300951004028320e+00
2.567000000000000000e+03 6.218717193603515625e+01 -9.314670562744140625e+00 7.640272378921508789e-01 2.689043998718261719e+00 1.035921335220336914e+00 3.067120552062988281e+00
2.568000000000000000e+03 6.109976577758789062e+01 -9.699242591857910156e+00 2.578413188457489014e-01 1.720318317413330078e+00 5.934479236602783203e-01 2.161473274230957031e+00
2.569000000000000000e+03 2.530598258972167969e+01 4.208199977874755859e-01 -3.216650784015655518e-01 -1.992367655038833618e-01 -1.562705487012863159e-01 4.867972135543823242e-01
2.570000000000000000e+03 2.486316871643066406e+01 -2.533530294895172119e-01 -2.931638658046722412e-01 -1.871208101511001587e-01 -1.440853923559188843e-01 4.326867759227752686e-01
2.571000000000000000e+03 6.025144577026367188e+01 -1.114571571350097656e+01 1.698449999094009399e-01 1.974607706069946289e+00 6.433358192443847656e-01 2.049034357070922852e+00
2.572000000000000000e+03 6.229341125488281250e+01 -9.737309455871582031e+00 7.483049631118774414e-01 3.372386217117309570e+00 1.236207365989685059e+00 3.343855619430541992e+00
2.573000000000000000e+03 2.549738311767578125e+01 -5.356228351593017578e-01 -3.289775550365447998e-01 -1.594444960355758667e-01 -1.465266197919845581e-01 4.396548569202423096e-01
2.574000000000000000e+03 9.102848052978515625e+00 5.952770233154296875e+00 2.778623311314731836e-04 -1.910889986902475357e-03 -4.899083287455141544e-04 -9.986426448449492455e-04
2.575000000000000000e+03 2.751436424255371094e+01 -1.544523000717163086e+00 -4.531884491443634033e-01 -8.163321763277053833e-02 -1.604464948177337646e-01 4.374668300151824951e-01
2.576000000000000000e+03 2.608339881896972656e+01 -8.204281926155090332e-01 -3.633455336093902588e-01 -1.354010254144668579e-01 -1.496239602565765381e-01 4.438217878341674805e-01
2.577000000000000000e+03 6.131513977050781250e+01 -1.020626354217529297e+01 4.031709432601928711e-01 2.312220096588134766e+00 8.146173357963562012e-01 2.539890289306640625e+00
2.578000000000000000e+03 2.796499443054199219e+01 -3.600653111934661865e-01 -4.733913540840148926e-01 -9.974843263626098633e-02 -1.719419360160827637e-01 5.219931006431579590e-01
2.579000000000000000e+03 6.253124713897705078e+00 6.423828601837158203e+00 -3.240858786739408970e-04 -1.306155754718929529e-04 -1.364104391541332006e-04 3.611330175772309303e-04
2.580000000000000000e+03 2.769618225097656250e+01 -8.983527421951293945e-01 -4.608180522918701172e-01 -9.390261024236679077e-02 -1.664161980152130127e-01 4.820891022682189941e-01
2.581000000000000000e+03 3.105133056640625000e+01 -1.529158473014831543e+00 -6.922454833984375000e-01 -2.219707518815994263e-02 -2.143327593803405762e-01 4.970783889293670654e-01
2.582000000000000000e+03 2.976091194152832031e+01 -8.642040491104125977e-01 -5.920678377151489258e-01 -4.947248473763465881e-02 -1.924621015787124634e-01 5.234625935554504395e-01
2.583000000000000000e+03 2.838038825988769531e+01 -9.643698930740356445e-01 -5.073413848876953125e-01 -7.479675114154815674e-02 -1.746414452791213989e-01 4.937048852443695068e-01
2.584000000000000000e+03 3.057205390930175781e+01 -1.485856026411056519e-01 -6.151064038276672363e-01 -4.606672003865242004e-02 -1.983519345521926880e-01 5.798638463020324707e-01
2.585000000000000000e+03 3.321645736694335938e+01 -1.477903246879577637e+00 -8.365868330001831055e-01 6.273750332184135914e-04 -2.507878243923187256e-01 5.167136192321777344e-01
2.586000000000000000e+03 3.114886856079101562e+01 -8.484485745429992676e-01 -6.761324405670166016e-01 -2.765322849154472351e-02 -2.111357003450393677e-01 5.437349081039428711e-01
2.587000000000000000e+03 4.310946273803710938e+01 -1.196368312835693359e+01 -1.282968997955322266e+00 3.887404920533299446e-03 -3.837244808673858643e-01 -4.019204974174499512e-01
2.588000000000000000e+03 7.610873699188232422e+00 -5.834045886993408203e+00 -1.922294468386098742e-04 6.803770083934068680e-04 1.464442757423967123e-04 2.156713308067992330e-04
2.589000000000000000e+03 4.746133804321289062e+01 -1.247517967224121094e+01 -1.155527710914611816e+00 8.775619417428970337e-02 -3.203314542770385742e-01 -2.979267537593841553e-01
2.590000000000000000e+03 4.606947708129882812e+01 -1.182681465148925781e+01 -1.350756525993347168e+00 4.070238769054412842e-02 -3.930162191390991211e-01 -3.496112227439880371e-01
2.591000000000000000e+03 5.037727355957031250e+01 -1.249070549011230469e+01 -1.041979074478149414e+00 1.904787719249725342e-01 -2.554500997066497803e-01 -1.321995705366134644e-01
2.592000000000000000e+03 4.459468460083007812e+01 -1.332449817657470703e+01 -9.938103556632995605e-01 5.246137455105781555e-02 -2.824046909809112549e-01 -3.821803033351898193e-01
2.593000000000000000e+03 3.330607223510742188e+01 -7.956550121307373047e-01 -8.029147386550903320e-01 -1.185457454994320869e-03 -2.412300556898117065e-01 5.605933666229248047e-01
2.594000000000000000e+03 3.403778839111328125e+01 -7.750207781791687012e-01 -8.455002307891845703e-01 6.147475913166999817e-03 -2.518058121204376221e-01 5.640627741813659668e-01
2.595000000000000000e+03 4.963422775268554688e+01 -1.249741554260253906e+01 -1.086420297622680664e+00 1.554542183876037598e-01 -2.792898118495941162e-01 -1.912045925855636597e-01
2.596000000000000000e+03 4.077531051635742188e+01 -1.291861820220947266e+01 -1.046208143234252930e+00 -6.720948033034801483e-03 -3.158787190914154053e-01 -4.386667907238006592e-01
2.597000000000000000e+03 4.824155426025390625e+01 -1.178347396850585938e+01 -1.344457387924194336e+00 7.335165888071060181e-02 -3.813317418098449707e-01 -2.811718285083770752e-01
2.598000000000000000e+03 4.675925064086914062e+01 -1.250432491302490234e+01 -1.170740365982055664e+00 7.680755853652954102e-02 -3.281798362731933594e-01 -3.231536746025085449e-01
2.599000000000000000e+03 4.605338668823242188e+01 -1.255253696441650391e+01 -1.169162034988403320e+00 6.082738563418388367e-02 -3.325003981590270996e-01 -3.512054979801177979e-01
2.600000000000000000e+03 3.929379653930664062e+01 -1.216466045379638672e+01 -1.141247630119323730e+00 -1.893005333840847015e-02 -3.480533063411712646e-01 -4.236656725406646729e-01
2.601000000000000000e+03 4.157150650024414062e+01 -1.284389781951904297e+01 -1.076317429542541504e+00 -2.138610463589429855e-03 -3.235368132591247559e-01 -4.298903346061706543e-01
2.602000000000000000e+03 5.113402938842773438e+01 -1.250481986999511719e+01 -9.920530319213867188e-01 2.089410722255706787e-01 -2.349335849285125732e-01 -7.125705480575561523e-02
2.603000000000000000e+03 5.121600723266601562e+01 -1.176974105834960938e+01 -1.227527022361755371e+00 1.585580855607986450e-01 -3.206906914710998535e-01 -1.154007017612457275e-01
2.604000000000000000e+03 3.991351318359375000e+01 -1.389858531951904297e+01 -8.595170378684997559e-01 -8.311022073030471802e-03 -2.603484094142913818e-01 -4.641512930393218994e-01
2.605000000000000000e+03 4.532785034179687500e+01 -1.257640933990478516e+01 -1.158413648605346680e+00 4.915144294500350952e-02 -3.327786326408386230e-01 -3.700748682022094727e-01
2.606000000000000000e+03 3.847484970092773438e+01 -1.296588039398193359e+01 -9.791445732116699219e-01 -1.695105247199535370e-02 -2.988286912441253662e-01 -4.506305754184722900e-01
2.607000000000000000e+03 5.190619659423828125e+01 -1.249787807464599609e+01 -9.331842660903930664e-01 2.547461092472076416e-01 -2.035314589738845825e-01 -6.192189175635576248e-04
2.608000000000000000e+03 4.817334747314453125e+01 -1.249487781524658203e+01 -1.139835596084594727e+00 1.010714024305343628e-01 -3.116292655467987061e-01 -2.707847356796264648e-01
2.609000000000000000e+03 5.266904830932617188e+01 -1.247445869445800781e+01 -8.702805042266845703e-01 2.988474965095520020e-01 -1.714299023151397705e-01 8.287156373262405396e-02
2.610000000000000000e+03 3.687106323242187500e+01 -1.396419405937194824e+00 -1.072487473487854004e+00 2.105733565986156464e-02 -3.154290318489074707e-01 5.211845636367797852e-01
2.611000000000000000e+03 3.408716583251953125e+01 -1.020904183387756348e-01 -8.043727278709411621e-01 6.045223213732242584e-03 -2.394982427358627319e-01 6.011769771575927734e-01
2.612000000000000000e+03 5.492804336547851562e+01 -1.231666755676269531e+01 -6.400250792503356934e-01 5.208611488342285156e-01 -3.574917465448379517e-02 4.067614674568176270e-01
2.613000000000000000e+03 5.711310958862304688e+01 -1.216809749603271484e+01 -3.100484609603881836e-01 9.294384717941284180e-01 1.858170032501220703e-01 9.168403744697570801e-01
2.614000000000000000e+03 5.342289352416992188e+01 -1.243398761749267578e+01 -8.006216883659362793e-01 3.578858077526092529e-01 -1.328207552433013916e-01 1.712866276502609253e-01
2.615000000000000000e+03 5.781295013427734375e+01 -1.216803741455078125e+01 -1.662153750658035278e-01 1.158817887306213379e+00 2.977807521820068359e-01 1.159918308258056641e+00
2.616000000000000000e+03 3.561022186279296875e+01 -1.218315696716308594e+01 -1.005982875823974609e+00 -3.439459204673767090e-02 -3.121132552623748779e-01 -4.231876432895660400e-01
2.617000000000000000e+03 3.487991333007812500e+01 -1.217272949218750000e+01 -9.772327542304992676e-01 -3.474686667323112488e-02 -3.035938739776611328e-01 -4.207943975925445557e-01
2.618000000000000000e+03 3.835917663574218750e+01 -1.375223541259765625e+01 -8.582782149314880371e-01 -2.211887016892433167e-02 -2.641191184520721436e-01 -4.672229886054992676e-01
2.619000000000000000e+03 3.760255050659179688e+01 -1.381433963775634766e+00 -1.117734909057617188e+00 2.272857353091239929e-02 -3.285019099712371826e-01 5.184409022331237793e-01
2.620000000000000000e+03 5.038059997558593750e+01 -3.550812005996704102e-01 -1.164530396461486816e+00 1.873209923505783081e-01 -2.931628227233886719e-01 1.520386785268783569e-01
2.621000000000000000e+03 3.772992706298828125e+01 -1.298238658905029297e+01 -9.593000411987304688e-01 -2.261589281260967255e-02 -2.945747673511505127e-01 -4.507457315921783447e-01
2.622000000000000000e+03 3.548482513427734375e+01 -7.220510840415954590e-01 -9.268191456794738770e-01 1.599993184208869934e-02 -2.732457816600799561e-01 5.654175281524658203e-01
2.623000000000000000e+03 3.907895660400390625e+01 -6.036461591720581055e-01 -1.102512598037719727e+00 3.253687918186187744e-02 -3.209927082061767578e-01 5.496858954429626465e-01
2.624000000000000000e+03 3.903239059448242188e+01 1.349071562290191650e-01 -1.006888389587402344e+00 4.192114993929862976e-02 -2.894901633262634277e-01 5.802071094512939453e-01
2.625000000000000000e+03 5.257930755615234375e+01 -1.147025823593139648e+00 -1.276694178581237793e+00 2.109542936086654663e-01 -3.197219669818878174e-01 3.501388011500239372e-03
2.626000000000000000e+03 4.050957489013671875e+01 -1.232540130615234375e+00 -1.269114971160888672e+00 3.048992715775966644e-02 -3.715875148773193359e-01 5.019416213035583496e-01
2.627000000000000000e+03 4.509539413452148438e+01 -3.541148006916046143e-01 -1.253531098365783691e+00 7.385102659463882446e-02 -3.539040386676788330e-01 4.315884411334991455e-01
2.628000000000000000e+03 5.703823089599609375e+01 -1.290020942687988281e+01 -1.532712280750274658e-01 1.139002442359924316e+00 2.957193851470947266e-01 1.025465130805969238e+00
2.629000000000000000e+03 3.343029785156250000e+01 -1.293038845062255859e+01 -8.310354948043823242e-01 -3.547419235110282898e-02 -2.599529027938842773e-01 -4.468027353286743164e-01
2.630000000000000000e+03 5.417768478393554688e+01 -1.237784004211425781e+01 -7.300464510917663574e-01 4.314039349555969238e-01 -8.959274739027023315e-02 2.793065905570983887e-01
2.631000000000000000e+03 4.810097885131835938e+01 -3.547875285148620605e-01 -1.246550083160400391e+00 1.172936856746673584e-01 -3.387769162654876709e-01 3.053101301193237305e-01
2.632000000000000000e+03 4.880765914916992188e+01 -1.094314932823181152e+00 -1.446826457977294922e+00 9.303277730941772461e-02 -4.061380922794342041e-01 2.817898988723754883e-01
2.633000000000000000e+03 4.126634216308593750e+01 -4.195272922515869141e-01 -1.171760559082031250e+00 4.564745724201202393e-02 -3.378339409828186035e-01 5.272485017776489258e-01
2.634000000000000000e+03 5.118424606323242188e+01 4.148608744144439697e-01 -8.887482881546020508e-01 3.026268780231475830e-01 -1.758364140987396240e-01 2.449375949800014496e-02
2.635000000000000000e+03 4.887351226806640625e+01 4.245009720325469971e-01 -1.017202377319335938e+00 1.897329241037368774e-01 -2.482408285140991211e-01 2.335101366043090820e-01
2.636000000000000000e+03 5.564292526245117188e+01 2.897865325212478638e-02 -4.833975732326507568e-01 7.658821940422058105e-01 8.474537730216979980e-02 -6.737265586853027344e-01
2.637000000000000000e+03 5.414168930053710938e+01 -5.465379953384399414e-01 -8.839006423950195312e-01 4.226378202438354492e-01 -1.383788585662841797e-01 -2.729749977588653564e-01
2.638000000000000000e+03 4.277857589721679688e+01 5.150571465492248535e-01 -1.051135063171386719e+00 7.781205326318740845e-02 -2.919969260692596436e-01 5.163595080375671387e-01
2.639000000000000000e+03 5.265576171875000000e+01 -4.095029830932617188e-01 -1.011249184608459473e+00 3.011585772037506104e-01 -2.130271643400192261e-01 -7.756454497575759888e-02
2.640000000000000000e+03 3.484046173095703125e+01 -1.292209434509277344e+01 -8.805358409881591797e-01 -4.276521876454353333e-02 -2.769903242588043213e-01 -4.465304613113403320e-01
2.641000000000000000e+03 4.735044479370117188e+01 -3.563377559185028076e-01 -1.256874084472656250e+00 1.006226018071174622e-01 -3.468754589557647705e-01 3.433642685413360596e-01
2.642000000000000000e+03 3.979324722290039062e+01 -5.370512008666992188e-01 -1.127405762672424316e+00 3.601486608386039734e-02 -3.274172544479370117e-01 5.447472333908081055e-01
2.643000000000000000e+03 4.584849166870117188e+01 -3.548747599124908447e-01 -1.260457038879394531e+00 7.953754812479019165e-02 -3.542758226394653320e-01 4.066921174526214600e-01
2.644000000000000000e+03 4.354621505737304688e+01 -3.325893580913543701e-01 -1.224046707153320312e+00 6.210967898368835449e-02 -3.485811054706573486e-01 4.797281622886657715e-01
2.645000000000000000e+03 4.192142486572265625e+01 1.428613662719726562e+00 -8.813378214836120605e-01 9.781524538993835449e-02 -2.350567579269409180e-01 5.517614483833312988e-01
2.646000000000000000e+03 5.566786575317382812e+01 -1.225853347778320312e+01 -5.427064895629882812e-01 6.238101720809936523e-01 2.433109655976295471e-02 5.506211519241333008e-01
2.647000000000000000e+03 3.189581298828125000e+01 -1.231396198272705078e+01 -8.358513116836547852e-01 -3.626247122883796692e-02 -2.616341114044189453e-01 -4.157659411430358887e-01
2.648000000000000000e+03 3.413696670532226562e+01 -1.289402580261230469e+01 -8.641710281372070312e-01 -3.603246435523033142e-02 -2.700610458850860596e-01 -4.423028230667114258e-01
2.649000000000000000e+03 5.786507797241210938e+01 -8.055967092514038086e-01 -3.099292218685150146e-01 1.123772740364074707e+00 2.441530823707580566e-01 -1.182176351547241211e+00
2.650000000000000000e+03 3.032208824157714844e+01 -1.313300228118896484e+01 -7.012105584144592285e-01 -3.748071938753128052e-02 -2.216073870658874512e-01 -4.425612986087799072e-01
2.651000000000000000e+03 3.111286926269531250e+01 -1.314961433410644531e+01 -7.297098636627197266e-01 -3.749201446771621704e-02 -2.301605641841888428e-01 -4.460108876228332520e-01
2.652000000000000000e+03 3.191863822937011719e+01 -1.311361217498779297e+01 -7.612906098365783691e-01 -3.928352892398834229e-02 -2.401722371578216553e-01 -4.457240700721740723e-01
2.653000000000000000e+03 5.636884689331054688e+01 7.934344410896301270e-01 -2.178306877613067627e-01 1.150027513504028320e+00 2.796590626239776611e-01 -9.778200387954711914e-01
2.654000000000000000e+03 5.633957290649414062e+01 -7.339122891426086426e-01 -5.975472927093505859e-01 7.097653150558471680e-01 3.366540744900703430e-02 -7.155926823616027832e-01
2.655000000000000000e+03 5.848289489746093750e+01 -1.222540664672851562e+01 -3.858617320656776428e-02 1.474553227424621582e+00 4.307901263236999512e-01 1.428721547126770020e+00
2.656000000000000000e+03 2.956537246704101562e+01 -1.309305572509765625e+01 -6.756038665771484375e-01 -3.402116894721984863e-02 -2.128875106573104858e-01 -4.363618791103363037e-01
2.657000000000000000e+03 5.918199157714843750e+01 -1.957756996154785156e+00 -2.916490733623504639e-01 1.211636900901794434e+00 2.759963274002075195e-01 -1.433228373527526855e+00
2.658000000000000000e+03 2.731771278381347656e+01 -1.321343231201171875e+01 -5.962870121002197266e-01 -2.776095643639564514e-02 -1.872143894433975220e-01 -4.236885011196136475e-01
2.659000000000000000e+03 2.882706451416015625e+01 -1.310122966766357422e+01 -6.493856310844421387e-01 -3.213602304458618164e-02 -2.044564932584762573e-01 -4.325035810470581055e-01
2.660000000000000000e+03 2.568573570251464844e+01 -1.239144039154052734e+01 -5.771039128303527832e-01 -1.178461499512195587e-02 -1.766665577888488770e-01 -3.855983614921569824e-01
2.661000000000000000e+03 2.808444595336914062e+01 -1.316224575042724609e+01 -6.199389100074768066e-01 -3.075837530195713043e-02 -1.952091902494430542e-01 -4.287153482437133789e-01
2.662000000000000000e+03 2.306285858154296875e+01 -4.482907652854919434e-01 -1.804614514112472534e-01 -2.313204556703567505e-01 -1.235345751047134399e-01 3.361555635929107666e-01
2.663000000000000000e+03 2.571515846252441406e+01 -1.321152019500732422e+01 -5.464102625846862793e-01 -1.976055651903152466e-02 -1.698512434959411621e-01 -4.123728275299072266e-01
2.664000000000000000e+03 2.190703582763671875e+01 -1.298263454437255859e+01 -4.520536661148071289e-01 -2.505305409431457520e-02 -1.431320160627365112e-01 -3.649202585220336914e-01
2.665000000000000000e+03 5.910792922973632812e+01 -1.235000514984130859e+01 6.450270116329193115e-02 1.856550931930541992e+00 5.763161182403564453e-01 1.699039578437805176e+00
2.666000000000000000e+03 6.895970821380615234e+00 6.757939815521240234e+00 5.102650611661374569e-04 2.169142389902845025e-04 2.181537856813520193e-04 -6.329223979264497757e-04
2.667000000000000000e+03 2.167551612854003906e+01 -1.378638267517089844e+01 -4.404723048210144043e-01 -3.735026717185974121e-02 -1.433467715978622437e-01 -3.794668912887573242e-01
2.668000000000000000e+03 7.042841434478759766e+00 8.878298759460449219e+00 9.805175941437482834e-04 7.458683685399591923e-04 5.179158179089426994e-04 1.368236960843205452e-03
2.669000000000000000e+03 7.390133666992187500e+01 -6.584405899047851562e+00 1.513735890388488770e+00 7.878683090209960938e+00 2.817725658416748047e+00 -5.847090855240821838e-02
2.670000000000000000e+03 7.464958190917968750e+01 -8.507210731506347656e+00 9.906222820281982422e-01 7.593177318572998047e+00 2.575139760971069336e+00 -7.511242628097534180e-01
2.671000000000000000e+03 7.459945678710937500e+01 -6.193197727203369141e+00 1.209923505783081055e+00 7.503786087036132812e+00 2.614112854003906250e+00 1.012204363942146301e-01
2.672000000000000000e+03 2.341379737854003906e+01 3.812279999256134033e-01 -2.120403498411178589e-01 -2.678539454936981201e-01 -1.439682990312576294e-01 4.080457091331481934e-01
2.673000000000000000e+03 2.259021377563476562e+01 7.089509367942810059e-01 -1.646774411201477051e-01 -3.107474744319915771e-01 -1.426274776458740234e-01 3.740822374820709229e-01
2.674000000000000000e+03 7.133613586425781250e+01 1.204821968078613281e+01 -4.114461243152618408e-01 7.458292961120605469e+00 2.114053964614868164e+00 -1.837994754314422607e-01
2.675000000000000000e+03 7.198534393310546875e+01 1.498086261749267578e+01 -2.220793068408966064e-01 7.323925495147705078e+00 2.130553960800170898e+00 -2.412889152765274048e-01
2.676000000000000000e+03 6.091947078704833984e+00 7.198964595794677734e+00 1.206174492835998535e-03 7.315994589589536190e-04 5.813321913592517376e-04 4.105914849787950516e-04
2.677000000000000000e+03 4.857244491577148438e+00 6.329251289367675781e+00 1.029354869388043880e-03 3.397470864001661539e-04 4.107305721845477819e-04 -1.959739020094275475e-04
2.678000000000000000e+03 7.256764984130859375e+01 -2.076681900024414062e+01 -5.549697875976562500e-01 8.093015670776367188e+00 2.261413574218750000e+00 -2.917456328868865967e-01
2.679000000000000000e+03 7.088381195068359375e+01 -2.610686874389648438e+01 -2.971892952919006348e-01 7.336404323577880859e+00 2.111764430999755859e+00 1.620807647705078125e-01
2.680000000000000000e+03 1.906808662414550781e+01 -1.663105964660644531e+01 -3.527873158454895020e-01 -1.355954557657241821e-01 -1.465148329734802246e-01 -3.572456240653991699e-01
2.681000000000000000e+03 2.044504356384277344e+01 -1.829401588439941406e+01 -2.936351895332336426e-01 -1.378526389598846436e-01 -1.294463425874710083e-01 -3.763509988784790039e-01
2.682000000000000000e+03 2.433871078491210938e+01 6.749569892883300781e+00 -3.960868418216705322e-01 -4.553960561752319336e-01 -2.554448843002319336e-01 7.100750803947448730e-01
2.683000000000000000e+03 2.300521659851074219e+01 1.708025932312011719e+00 -2.063628435134887695e-01 -3.540996313095092773e-01 -1.681387424468994141e-01 4.591276943683624268e-01
2.684000000000000000e+03 2.452527427673339844e+01 3.783463716506958008e+00 -3.286060988903045654e-01 -3.573423326015472412e-01 -2.057845294475555420e-01 6.318719387054443359e-01
2.685000000000000000e+03 2.187422180175781250e+01 -1.829124832153320312e+01 -2.844759225845336914e-01 -1.166757717728614807e-01 -1.203455105423927307e-01 -4.076668620109558105e-01
2.686000000000000000e+03 2.036198997497558594e+01 -2.024608612060546875e+01 -2.017905414104461670e-01 -1.788636445999145508e-01 -1.141962558031082153e-01 -3.728304207324981689e-01
2.687000000000000000e+03 7.292877197265625000e+01 1.594350099563598633e+00 -4.495850503444671631e-01 8.791357040405273438e+00 2.502531528472900391e+00 1.132456302642822266e+00
2.688000000000000000e+03 8.014474868774414062e+00 2.497901153564453125e+01 -7.105781137943267822e-02 -5.186437964439392090e-01 -1.769104897975921631e-01 4.484305083751678467e-01
2.689000000000000000e+03 7.207270812988281250e+01 -2.601828002929687500e+01 -2.685607075691223145e-01 7.545685768127441406e+00 2.183137416839599609e+00 6.595167517662048340e-02
2.690000000000000000e+03 7.306997680664062500e+01 -2.638136863708496094e+01 -2.285730689764022827e-01 7.732880592346191406e+00 2.251292228698730469e+00 1.555901113897562027e-02
2.691000000000000000e+03 7.236357116699218750e+01 7.108384609222412109e+00 -6.567931175231933594e-01 8.143846511840820312e+00 2.246115922927856445e+00 2.923196554183959961e-01
2.692000000000000000e+03 7.106191253662109375e+01 -1.983884239196777344e+01 -7.546348571777343750e-01 8.156589508056640625e+00 2.220586299896240234e+00 -1.585507243871688843e-01
2.693000000000000000e+03 7.129800415039062500e+01 1.761557960510253906e+01 -1.300598084926605225e-01 7.027563095092773438e+00 2.069251060485839844e+00 -3.358895778656005859e-01
2.694000000000000000e+03 7.326627349853515625e+01 -1.253681373596191406e+01 -3.221005201339721680e-02 8.709202766418457031e+00 2.603097915649414062e+00 -1.367937326431274414e+00
2.695000000000000000e+03 7.451150512695312500e+01 -3.090194702148437500e+00 6.997666358947753906e-01 7.801807880401611328e+00 2.550472497940063477e+00 1.077447533607482910e+00
2.696000000000000000e+03 7.435653686523437500e+01 -1.885220170021057129e+00 4.160884320735931396e-01 8.021550178527832031e+00 2.531291484832763672e+00 1.255802035331726074e+00
2.697000000000000000e+03 7.384500885009765625e+01 5.036806583404541016e+00 -5.345136523246765137e-01 8.269484519958496094e+00 2.320491075515747070e+00 7.054689526557922363e-01
2.698000000000000000e+03 7.181398010253906250e+01 4.694983005523681641e+00 -8.074229359626770020e-01 8.551732063293457031e+00 2.323292970657348633e+00 4.978452324867248535e-01
2.699000000000000000e+03 7.341007232666015625e+01 2.428956478834152222e-01 -1.581667661666870117e-01 8.608954429626464844e+00 2.535236358642578125e+00 1.290977597236633301e+00
2.700000000000000000e+03 7.264056396484375000e+01 5.992343425750732422e+00 -6.736589670181274414e-01 8.287393569946289062e+00 2.284120559692382812e+00 4.591937065124511719e-01
2.701000000000000000e+03 7.282464599609375000e+01 4.873717784881591797e+00 -6.730322837829589844e-01 8.421706199645996094e+00 2.324602365493774414e+00 6.299925446510314941e-01
2.702000000000000000e+03 7.502371311187744141e+00 3.060700225830078125e+01 1.049277633428573608e-01 -6.529844999313354492e-01 -1.644170284271240234e-01 3.476887643337249756e-01
2.703000000000000000e+03 7.132394409179687500e+01 1.872865486145019531e+01 -9.491091221570968628e-02 6.982141017913818359e+00 2.066169023513793945e+00 -3.397232294082641602e-01
2.704000000000000000e+03 7.271272277832031250e+01 -1.504272174835205078e+01 -5.673727989196777344e-01 8.790003776550292969e+00 2.466789245605468750e+00 -1.027926445007324219e+00
2.705000000000000000e+03 7.199096679687500000e+01 -1.612516593933105469e+01 -7.427253723144531250e-01 8.798417091369628906e+00 2.416707515716552734e+00 -7.700656652450561523e-01
2.706000000000000000e+03 7.311338806152343750e+01 -2.896166038513183594e+01 -1.118269339203834534e-01 7.609476566314697266e+00 2.249294757843017578e+00 1.037996783852577209e-01
2.707000000000000000e+03 6.905648040771484375e+01 -2.962722969055175781e+01 -1.052302196621894836e-01 6.735745429992675781e+00 1.989154577255249023e+00 3.052035272121429443e-01
2.708000000000000000e+03 7.152936553955078125e+01 2.621015930175781250e+01 4.885214939713478088e-02 6.777955055236816406e+00 2.048042058944702148e+00 -2.872858941555023193e-01
2.709000000000000000e+03 7.081583404541015625e+01 2.109807586669921875e+01 -2.946755103766918182e-02 6.789904117584228516e+00 2.028131008148193359e+00 -3.575672805309295654e-01
2.710000000000000000e+03 2.514846801757812500e+01 6.325428962707519531e+00 -4.015962183475494385e-01 -3.661938905715942383e-01 -2.303370386362075806e-01 7.160343527793884277e-01
2.711000000000000000e+03 2.504188537597656250e+01 1.403354167938232422e+01 -4.178318381309509277e-01 -4.106504023075103760e-01 -2.485446780920028687e-01 5.808225870132446289e-01
2.712000000000000000e+03 7.389489746093750000e+01 -2.679268455505371094e+01 -1.531597077846527100e-01 7.851754188537597656e+00 2.309578418731689453e+00 -2.921543782576918602e-03
2.713000000000000000e+03 2.087165069580078125e+01 -1.324208736419677734e+01 -4.266071319580078125e-01 -4.325523227453231812e-02 -1.409587115049362183e-01 -3.550931215286254883e-01
2.714000000000000000e+03 1.743021774291992188e+01 2.108827590942382812e+01 -1.939830482006072998e-01 -9.923824667930603027e-01 -3.559096455574035645e-01 4.369024634361267090e-01
2.715000000000000000e+03 1.569574737548828125e+01 -2.587130928039550781e+01 4.633641988039016724e-02 -3.395331203937530518e-01 -8.795901387929916382e-02 -3.019261658191680908e-01
2.716000000000000000e+03 9.977020263671875000e+00 -2.564644432067871094e+01 1.107900403439998627e-02 -3.494686186313629150e-01 -1.015168875455856323e-01 -2.801920473575592041e-01
2.717000000000000000e+03 7.134692382812500000e+01 1.388997077941894531e+01 -2.962900102138519287e-01 7.298134326934814453e+00 2.100553274154663086e+00 -2.535685002803802490e-01
2.718000000000000000e+03 7.019641876220703125e+01 1.121122455596923828e+01 -5.135527849197387695e-01 7.358397960662841797e+00 2.053453445434570312e+00 -2.797175049781799316e-01
2.719000000000000000e+03 1.740254592895507812e+01 -2.207277870178222656e+01 -1.134412959218025208e-01 -2.680253982543945312e-01 -1.144400015473365784e-01 -3.196006715297698975e-01
2.720000000000000000e+03 1.644287490844726562e+01 -2.324124336242675781e+01 -6.611058115959167480e-02 -3.014694750308990479e-01 -1.102740168571472168e-01 -3.123611509799957275e-01
2.721000000000000000e+03 1.957671928405761719e+01 2.078435325622558594e+01 -1.746428310871124268e-01 -8.616647720336914062e-01 -3.108922839164733887e-01 3.631683588027954102e-01
2.722000000000000000e+03 7.224297332763671875e+01 2.136749267578125000e+01 -2.214014530181884766e-02 7.052476406097412109e+00 2.109100818634033203e+00 -2.993281185626983643e-01
2.723000000000000000e+03 7.145979309082031250e+01 -3.531110382080078125e+01 3.617810830473899841e-02 7.010688304901123047e+00 2.114059925079345703e+00 1.229520440101623535e-01
2.724000000000000000e+03 3.680415153503417969e+00 -1.603191375732421875e+01 -8.176196133717894554e-04 -2.104262821376323700e-02 -6.558074615895748138e-03 4.298748448491096497e-03
2.725000000000000000e+03 1.913493347167968750e+01 -1.801696968078613281e+01 -3.054252266883850098e-01 -1.607381105422973633e-01 -1.398490071296691895e-01 -3.524350821971893311e-01
2.726000000000000000e+03 7.868599414825439453e+00 2.698018074035644531e+01 9.745714254677295685e-03 -5.727457404136657715e-01 -1.688999980688095093e-01 4.206296503543853760e-01
2.727000000000000000e+03 7.106063079833984375e+01 -2.745352745056152344e+01 -2.111082673072814941e-01 7.248119354248046875e+00 2.111103296279907227e+00 1.751671880483627319e-01
2.728000000000000000e+03 7.363269805908203125e+01 -2.784519004821777344e+01 -1.439826488494873047e-01 7.778107166290283203e+00 2.290237426757812500e+00 4.283693432807922363e-02
2.729000000000000000e+03 7.065097808837890625e+01 3.035888862609863281e+01 9.016177058219909668e-02 6.501282691955566406e+00 1.977433323860168457e+00 -2.706264555454254150e-01
2.730000000000000000e+03 7.179152679443359375e+01 2.775920104980468750e+01 6.473605334758758545e-02 6.783509731292724609e+00 2.054473876953125000e+00 -2.682554125785827637e-01
2.731000000000000000e+03 2.493806457519531250e+01 -1.479200363159179688e+01 -4.636005163192749023e-01 -3.332649543881416321e-02 -1.490781009197235107e-01 -4.406140148639678955e-01
2.732000000000000000e+03 2.015578842163085938e+01 -1.654089927673339844e+01 -3.630381226539611816e-01 -1.083238199353218079e-01 -1.414085775613784790e-01 -3.772485256195068359e-01
2.733000000000000000e+03 7.035214996337890625e+01 -2.937382316589355469e+01 -1.287401169538497925e-01 6.957741260528564453e+00 2.048700332641601562e+00 2.454135715961456299e-01
2.734000000000000000e+03 7.146614837646484375e+01 -2.880399703979492188e+01 -1.415610611438751221e-01 7.251388549804687500e+00 2.132948160171508789e+00 1.428570300340652466e-01
2.735000000000000000e+03 8.999895095825195312e+00 2.622165870666503906e+01 1.946415053680539131e-03 -6.198499202728271484e-01 -1.853710561990737915e-01 4.673598408699035645e-01
2.736000000000000000e+03 2.310363006591796875e+01 1.666249275207519531e+01 -3.774162530899047852e-01 -5.879443883895874023e-01 -2.896082103252410889e-01 4.712205529212951660e-01
2.737000000000000000e+03 9.594573974609375000e+00 -3.202687454223632812e+01 9.356347471475601196e-02 -3.936013281345367432e-01 -9.001135081052780151e-02 -2.066625803709030151e-01
2.738000000000000000e+03 8.572715759277343750e+00 -2.684776115417480469e+01 2.233446203172206879e-02 -3.400256335735321045e-01 -9.530735015869140625e-02 -2.575450539588928223e-01
2.739000000000000000e+03 6.184725189208984375e+01 -2.441371917724609375e+00 4.713976085186004639e-01 3.146930932998657227e+00 1.085498571395874023e+00 -3.087512493133544922e+00
2.740000000000000000e+03 6.455724334716796875e+01 -9.832379341125488281e+00 -1.883471459150314331e-01 1.026417160034179688e+01 3.022747278213500977e+00 4.302144527435302734e+00
2.741000000000000000e+03 6.551469421386718750e+01 -9.123262405395507812e+00 -5.162310004234313965e-01 1.491656017303466797e+01 4.320098876953125000e+00 3.024757385253906250e+00
2.742000000000000000e+03 6.073843383789062500e+01 -1.057467365264892578e+01 2.367889434099197388e-01 2.022843837738037109e+00 6.778898835182189941e-01 2.207565069198608398e+00
2.743000000000000000e+03 6.661283111572265625e+01 -9.029075622558593750e+00 2.569310367107391357e-01 1.577195835113525391e+01 4.808666706085205078e+00 -4.743836447596549988e-02
2.744000000000000000e+03 6.586122894287109375e+01 -8.986431121826171875e+00 -4.016605019569396973e-01 1.603728294372558594e+01 4.690687179565429688e+00 1.938662052154541016e+00
2.745000000000000000e+03 6.530869293212890625e+01 -3.543871641159057617e+00 -5.654712915420532227e-01 1.397100257873535156e+01 4.021659374237060547e+00 -3.616445779800415039e+00
2.746000000000000000e+03 6.607513427734375000e+01 -9.022058486938476562e+00 -2.707331180572509766e-01 1.597195148468017578e+01 4.710365295410156250e+00 1.283233523368835449e+00
2.747000000000000000e+03 6.563938140869140625e+01 -3.401028156280517578e+00 -7.366644740104675293e-01 1.444677639007568359e+01 4.113033294677734375e+00 -2.691450595855712891e+00
2.748000000000000000e+03 6.628011322021484375e+01 -3.478995323181152344e+00 -3.792826235294342041e-01 1.528326511383056641e+01 4.471194744110107422e+00 -9.814147949218750000e-01
2.749000000000000000e+03 6.829527282714843750e+01 -6.953061580657958984e+00 5.890989780426025391e+00 1.246232414245605469e+01 5.505994319915771484e+00 -9.156776070594787598e-01
2.750000000000000000e+03 7.292442321777343750e+01 -1.029376506805419922e+01 7.306301593780517578e-01 8.743852615356445312e+00 2.842344760894775391e+00 -1.351865172386169434e+00
2.751000000000000000e+03 6.802171325683593750e+01 -6.279939651489257812e+00 6.711806297302246094e+00 1.283348369598388672e+01 5.863586902618408203e+00 2.052334100008010864e-01
2.752000000000000000e+03 6.698276519775390625e+01 -4.301107883453369141e+00 1.765958786010742188e+00 1.607712936401367188e+01 5.352926254272460938e+00 1.356774330139160156e+00
2.753000000000000000e+03 7.239620971679687500e+01 -1.258066940307617188e+01 -1.122808158397674561e-01 9.136640548706054688e+00 2.707307815551757812e+00 -1.350521206855773926e+00
2.754000000000000000e+03 6.835234069824218750e+01 -7.277059078216552734e+00 5.299542427062988281e+00 1.249514579772949219e+01 5.338406562805175781e+00 -1.343135595321655273e+00
2.755000000000000000e+03 7.349690246582031250e+01 -2.170568704605102539e+00 5.655363202095031738e-01 8.471316337585449219e+00 2.711055755615234375e+00 1.324110627174377441e+00
2.756000000000000000e+03 6.828703308105468750e+01 -4.589071273803710938e+00 3.375446319580078125e+00 1.296766471862792969e+01 4.902933120727539062e+00 1.877163648605346680e+00
2.757000000000000000e+03 6.723519897460937500e+01 -8.369028091430664062e+00 2.527654647827148438e+00 1.549788093566894531e+01 5.407660484313964844e+00 -1.741683483123779297e+00
2.758000000000000000e+03 7.344557189941406250e+01 -4.967394351959228516e+00 1.522389531135559082e+00 8.155777931213378906e+00 2.903450250625610352e+00 6.475228071212768555e-01
2.759000000000000000e+03 6.831455993652343750e+01 -5.448849201202392578e+00 5.186395645141601562e+00 1.261715698242187500e+01 5.341065883636474609e+00 1.429783701896667480e+00
2.760000000000000000e+03 6.433343505859375000e+01 -3.767718791961669922e+00 5.559010505676269531e-01 9.731372833251953125e+00 3.086182117462158203e+00 -5.374224662780761719e+00
2.761000000000000000e+03 6.396336364746093750e+01 -3.413880348205566406e+00 5.458756685256958008e-01 8.075780868530273438e+00 2.586497068405151367e+00 -5.012661933898925781e+00
2.762000000000000000e+03 2.707506942749023438e+01 -6.302366256713867188e-01 -4.215521514415740967e-01 -1.153345331549644470e-01 -1.610660105943679810e-01 4.822230637073516846e-01
2.763000000000000000e+03 2.652326774597167969e+01 -2.628243565559387207e-01 -3.877798616886138916e-01 -1.423180252313613892e-01 -1.590293645858764648e-01 4.893145859241485596e-01
2.764000000000000000e+03 5.950210952758789062e+01 -1.563582658767700195e+00 -9.884379804134368896e-02 1.487033009529113770e+00 4.164567589759826660e-01 -1.689813971519470215e+00
2.765000000000000000e+03 2.594171524047851562e+01 8.390088379383087158e-02 -3.549664616584777832e-01 -1.694193631410598755e-01 -1.573157459497451782e-01 4.907023608684539795e-01
2.766000000000000000e+03 7.395290374755859375e+01 -7.452513217926025391e+00 1.406750917434692383e+00 7.881024360656738281e+00 2.786332607269287109e+00 -4.445782005786895752e-01
2.767000000000000000e+03 5.991965103149414062e+01 -1.908402800559997559e+00 -3.364049270749092102e-02 1.576283335685729980e+00 4.627928435802459717e-01 -1.823145627975463867e+00
2.768000000000000000e+03 5.858366775512695312e+01 -6.293711066246032715e-01 -1.414019763469696045e-01 1.499577760696411133e+00 4.074527323246002197e-01 -1.489490270614624023e+00
2.769000000000000000e+03 5.993467330932617188e+01 -1.185187244415283203e+01 1.460395306348800659e-01 2.145489931106567383e+00 6.874588727951049805e-01 2.004759550094604492e+00
2.770000000000000000e+03 6.120916748046875000e+01 -1.105299758911132812e+01 3.542920053005218506e-01 2.878165245056152344e+00 9.697371721267700195e-01 2.661900520324707031e+00
2.771000000000000000e+03 7.318066406250000000e+01 -6.306056976318359375e+00 1.811255812644958496e+00 8.211812973022460938e+00 3.006920576095581055e+00 3.567892313003540039e-02
2.772000000000000000e+03 2.984908294677734375e+01 -1.348316073417663574e-01 -5.783908367156982422e-01 -6.051638722419738770e-02 -1.916721612215042114e-01 5.683729052543640137e-01
2.773000000000000000e+03 2.750886917114257812e+01 -6.829164922237396240e-02 -4.486373960971832275e-01 -1.173764094710350037e-01 -1.698041409254074097e-01 5.280821323394775391e-01
2.774000000000000000e+03 3.045859146118164062e+01 -8.540674448013305664e-01 -6.317415237426757812e-01 -3.901714831590652466e-02 -2.012276053428649902e-01 5.336055159568786621e-01
2.775000000000000000e+03 2.849920272827148438e+01 3.531271934509277344e+00 -4.616840183734893799e-01 -1.459115594625473022e-01 -1.822786778211593628e-01 7.026968598365783691e-01
2.776000000000000000e+03 5.968452072143554688e+01 -1.254342079162597656e+01 1.445438414812088013e-01 2.307847976684570312e+00 7.357175350189208984e-01 1.968341946601867676e+00
2.777000000000000000e+03 6.869981384277343750e+01 -6.426360130310058594e+00 5.499786376953125000e+00 1.173133563995361328e+01 5.169336318969726562e+00 -5.113720893859863281e-02
2.778000000000000000e+03 6.846902465820312500e+01 -5.025351524353027344e+00 4.230810642242431641e+00 1.249517154693603516e+01 5.017794609069824219e+00 1.681936383247375488e+00
2.779000000000000000e+03 3.190990638732910156e+01 -1.052892953157424927e-01 -6.921052932739257812e-01 -2.292725816369056702e-02 -2.145097553730010986e-01 5.881658792495727539e-01
2.780000000000000000e+03 3.191341781616210938e+01 6.565504074096679688e-01 -6.547599434852600098e-01 -2.931738831102848053e-02 -2.052232027053833008e-01 6.303143501281738281e-01
2.781000000000000000e+03 4.531570816040039062e+01 -1.331736087799072266e+01 -9.867658615112304688e-01 6.903160363435745239e-02 -2.753202915191650391e-01 -3.633269965648651123e-01
2.782000000000000000e+03 4.385676956176757812e+01 -1.264378643035888672e+01 -1.143196463584899902e+00 2.442445792257785797e-02 -3.356315791606903076e-01 -4.001365005970001221e-01
2.783000000000000000e+03 3.264820480346679688e+01 -1.088177487254142761e-01 -7.271473407745361328e-01 -1.414833217859268188e-02 -2.223886996507644653e-01 5.947155356407165527e-01
2.784000000000000000e+03 3.257133865356445312e+01 -8.041065931320190430e-01 -7.594487667083740234e-01 -9.552007541060447693e-03 -2.307002395391464233e-01 5.560020208358764648e-01
2.785000000000000000e+03 4.234750366210937500e+01 -1.277912807464599609e+01 -1.099764227867126465e+00 9.858177509158849716e-04 -3.296335339546203613e-01 -4.222543537616729736e-01
2.786000000000000000e+03 4.387750625610351562e+01 -1.337372684478759766e+01 -9.832768440246582031e-01 4.237460717558860779e-02 -2.822706699371337891e-01 -4.029736220836639404e-01
2.787000000000000000e+03 4.313744735717773438e+01 -1.347709751129150391e+01 -9.667670130729675293e-01 2.266492694616317749e-02 -2.832306325435638428e-01 -4.137636721134185791e-01
2.788000000000000000e+03 4.678278350830078125e+01 -1.322981262207031250e+01 -9.762531518936157227e-01 1.114003583788871765e-01 -2.594558298587799072e-01 -3.157052099704742432e-01
2.789000000000000000e+03 3.997477722167968750e+01 -1.298861694335937500e+01 -1.020560741424560547e+00 -1.306583732366561890e-02 -3.100879788398742676e-01 -4.451723396778106689e-01
2.790000000000000000e+03 4.077161407470703125e+01 -1.373189163208007812e+01 -9.012165665626525879e-01 2.587753580883145332e-03 -2.695886492729187012e-01 -4.528295397758483887e-01
2.791000000000000000e+03 4.957719039916992188e+01 -1.322517204284667969e+01 -8.845896720886230469e-01 2.034959942102432251e-01 -2.043280899524688721e-01 -1.547094881534576416e-01
2.792000000000000000e+03 5.026625061035156250e+01 -1.321013450622558594e+01 -8.373273611068725586e-01 2.414422333240509033e-01 -1.787655502557754517e-01 -9.419846534729003906e-02
2.793000000000000000e+03 5.101227951049804688e+01 -1.328292083740234375e+01 -7.716201543807983398e-01 2.759907841682434082e-01 -1.486888080835342407e-01 -2.860965020954608917e-02
2.794000000000000000e+03 4.740565872192382812e+01 -1.314788627624511719e+01 -9.940509200096130371e-01 1.066083908081054688e-01 -2.662327587604522705e-01 -2.818878889083862305e-01
2.795000000000000000e+03 4.158163833618164062e+01 -1.364615058898925781e+01 -9.310720562934875488e-01 4.742927849292755127e-03 -2.778987288475036621e-01 -4.421474337577819824e-01
2.796000000000000000e+03 4.607642364501953125e+01 -1.333624362945556641e+01 -9.645748734474182129e-01 8.842717856168746948e-02 -2.628443241119384766e-01 -3.361146450042724609e-01
2.797000000000000000e+03 5.182631301879882812e+01 -1.327227878570556641e+01 -7.061847448348999023e-01 3.345170319080352783e-01 -1.115003228187561035e-01 6.210238486528396606e-02
2.798000000000000000e+03 4.889595031738281250e+01 -1.251357364654541016e+01 -1.118798136711120605e+00 1.191234737634658813e-01 -2.999023795127868652e-01 -2.348593175411224365e-01
2.799000000000000000e+03 4.160158920288085938e+01 -1.448192787170410156e+01 -7.847753763198852539e-01 2.056630328297615051e-02 -2.292627096176147461e-01 -4.432967007160186768e-01
2.800000000000000000e+03 3.552884292602539062e+01 -1.378700137138366699e-02 -8.691909909248352051e-01 1.989491656422615051e-02 -2.547888159751892090e-01 6.029025912284851074e-01
2.801000000000000000e+03 5.260491943359375000e+01 -1.326585292816162109e+01 -6.404764652252197266e-01 3.891952633857727051e-01 -7.538436353206634521e-02 1.497289687395095825e-01
2.802000000000000000e+03 3.626844787597656250e+01 -1.300767326354980469e+01 -9.199789762496948242e-01 -3.122850507497787476e-02 -2.853622436523437500e-01 -4.535884261131286621e-01
2.803000000000000000e+03 3.689662551879882812e+01 -1.399009990692138672e+01 -7.959614992141723633e-01 -2.938800863921642303e-02 -2.476048469543457031e-01 -4.759933054447174072e-01
2.804000000000000000e+03 5.770965957641601562e+01 -1.289979934692382812e+01 -6.003649532794952393e-02 1.389217257499694824e+00 3.987542092800140381e-01 1.248114585876464844e+00
2.805000000000000000e+03 5.639644622802734375e+01 -1.220595264434814453e+01 -4.313329160213470459e-01 7.585232853889465332e-01 9.815711528062820435e-02 7.203025817871093750e-01
2.806000000000000000e+03 3.692403411865234375e+01 -7.127969861030578613e-01 -1.004436135292053223e+00 2.359846793115139008e-02 -2.942512929439544678e-01 5.613483190536499023e-01
2.807000000000000000e+03 3.553738403320312500e+01 6.958966851234436035e-01 -8.079871535301208496e-01 2.431806176900863647e-02 -2.351007312536239624e-01 6.364673972129821777e-01
2.808000000000000000e+03 3.555654144287109375e+01 -1.295788097381591797e+01 -9.001837968826293945e-01 -3.549231588840484619e-02 -2.807028293609619141e-01 -4.535702168941497803e-01
2.809000000000000000e+03 5.337504577636718750e+01 -1.321376895904541016e+01 -5.825473666191101074e-01 4.667519330978393555e-01 -3.473862260580062866e-02 2.510952353477478027e-01
2.810000000000000000e+03 3.586189270019531250e+01 -1.558193492889404297e+01 -5.775489211082458496e-01 -2.739297226071357727e-02 -1.814825534820556641e-01 -5.072780847549438477e-01
2.811000000000000000e+03 5.414395904541015625e+01 -1.312708568572998047e+01 -5.070285201072692871e-01 5.620276927947998047e-01 1.649975962936878204e-02 3.738558590412139893e-01
2.812000000000000000e+03 5.195763778686523438e+01 4.054507315158843994e-01 -8.284379839897155762e-01 3.541677892208099365e-01 -1.422810554504394531e-01 -6.664101034402847290e-02
2.813000000000000000e+03 4.887495040893554688e+01 1.241395950317382812e+00 -8.187037706375122070e-01 2.510572969913482666e-01 -1.702939420938491821e-01 1.978388726711273193e-01
2.814000000000000000e+03 3.764491271972656250e+01 -7.005439400672912598e-01 -1.041768550872802734e+00 2.798483893275260925e-02 -3.041351139545440674e-01 5.577280521392822266e-01
2.815000000000000000e+03 5.190390777587890625e+01 -3.745398223400115967e-01 -1.066013574600219727e+00 2.595050334930419922e-01 -2.419525682926177979e-01 8.715329691767692566e-03
2.816000000000000000e+03 3.836425781250000000e+01 -6.617035269737243652e-01 -1.075245261192321777e+00 3.048027120530605316e-02 -3.134295046329498291e-01 5.531999468803405762e-01
2.817000000000000000e+03 3.625291442871093750e+01 -2.798564732074737549e-03 -9.034882187843322754e-01 2.255963906645774841e-02 -2.642785608768463135e-01 5.993354916572570801e-01
2.818000000000000000e+03 5.041012954711914062e+01 4.166813194751739502e-01 -9.397518634796142578e-01 2.579556405544281006e-01 -2.045388668775558472e-01 1.033878698945045471e-01
2.819000000000000000e+03 4.199858856201171875e+01 4.844250380992889404e-01 -1.043160080909729004e+00 7.097269594669342041e-02 -2.916561961174011230e-01 5.378807187080383301e-01
2.820000000000000000e+03 4.432732391357421875e+01 -3.462016284465789795e-01 -1.241940140724182129e+00 6.769268214702606201e-02 -3.522742390632629395e-01 4.566349089145660400e-01
2.821000000000000000e+03 4.436193084716796875e+01 4.548263549804687500e-01 -1.075188755989074707e+00 9.492035955190658569e-02 -2.940805256366729736e-01 4.639479815959930420e-01
2.822000000000000000e+03 4.587965774536132812e+01 4.301006197929382324e-01 -1.082447767257690430e+00 1.129478141665458679e-01 -2.908499836921691895e-01 4.025796651840209961e-01
2.823000000000000000e+03 5.119842910766601562e+01 1.222627997398376465e+00 -6.811034679412841797e-01 3.963173627853393555e-01 -8.543583005666732788e-02 -3.990195319056510925e-02
2.824000000000000000e+03 3.269676971435546875e+01 -1.302826309204101562e+01 -7.933570742607116699e-01 -3.911267220973968506e-02 -2.497409135103225708e-01 -4.460287988185882568e-01
2.825000000000000000e+03 3.409988021850585938e+01 -1.360676288604736328e+01 -7.820520401000976562e-01 -3.349358588457107544e-02 -2.446636855602264404e-01 -4.709609746932983398e-01
2.826000000000000000e+03 4.963796234130859375e+01 4.200538694858551025e-01 -9.848312735557556152e-01 2.198112607002258301e-01 -2.295060008764266968e-01 1.726910173892974854e-01
2.827000000000000000e+03 5.633950805664062500e+01 -1.293664741516113281e+01 -2.528745830059051514e-01 9.411945939064025879e-01 2.064960002899169922e-01 8.248450756072998047e-01
2.828000000000000000e+03 4.046820068359375000e+01 3.320678174495697021e-01 -1.024486064910888672e+00 5.156344175338745117e-02 -2.918767929077148438e-01 5.672184228897094727e-01
2.829000000000000000e+03 4.051846313476562500e+01 -4.734433591365814209e-01 -1.148271322250366211e+00 4.151248931884765625e-02 -3.320276737213134766e-01 5.379373431205749512e-01
2.830000000000000000e+03 4.736990356445312500e+01 4.292499721050262451e-01 -1.062516570091247559e+00 1.432915925979614258e-01 -2.757675051689147949e-01 3.285697400569915771e-01
2.831000000000000000e+03 4.360707855224609375e+01 1.347510218620300293e+00 -9.052367806434631348e-01 1.198188215494155884e-01 -2.356253862380981445e-01 4.958271384239196777e-01
2.832000000000000000e+03 4.659889984130859375e+01 -3.557446002960205078e-01 -1.262978315353393555e+00 9.012208878993988037e-02 -3.518568575382232666e-01 3.755726218223571777e-01
2.833000000000000000e+03 5.489528656005859375e+01 -1.304865741729736328e+01 -4.297835528850555420e-01 6.578704714775085449e-01 6.842607259750366211e-02 5.075862407684326172e-01
2.834000000000000000e+03 5.421156311035156250e+01 1.752231270074844360e-01 -6.638269424438476562e-01 5.643720030784606934e-01 -2.983647584915161133e-02 -3.731066882610321045e-01
2.835000000000000000e+03 5.492899703979492188e+01 7.433493435382843018e-02 -5.789234638214111328e-01 6.654060482978820801e-01 2.594477124512195587e-02 -5.223237872123718262e-01
2.836000000000000000e+03 2.952595520019531250e+01 -1.382893276214599609e+01 -6.203607916831970215e-01 -3.892829641699790955e-02 -1.977867335081100464e-01 -4.604367315769195557e-01
2.837000000000000000e+03 5.708514404296875000e+01 -7.890899181365966797e-01 -4.720649719238281250e-01 8.577860593795776367e-01 1.157163232564926147e-01 -9.055641293525695801e-01
2.838000000000000000e+03 5.705587768554687500e+01 -9.362804144620895386e-02 -2.982354164123535156e-01 1.074421644210815430e+00 2.328558713197708130e-01 -1.035348534584045410e+00
2.839000000000000000e+03 5.562459564208984375e+01 -1.298645305633544922e+01 -3.422034978866577148e-01 7.808697223663330078e-01 1.315998733043670654e-01 6.538926959037780762e-01
2.840000000000000000e+03 3.349813842773437500e+01 -1.364361190795898438e+01 -7.513799071311950684e-01 -3.676920756697654724e-02 -2.364447265863418579e-01 -4.696653187274932861e-01
2.841000000000000000e+03 5.550828552246093750e+01 1.588860154151916504e+00 -1.971426010131835938e-01 1.116581201553344727e+00 2.758315801620483398e-01 -8.377354741096496582e-01
2.842000000000000000e+03 5.339973068237304688e+01 -4.688119888305664062e-01 -9.529536366462707520e-01 3.549833595752716064e-01 -1.793910712003707886e-01 -1.677156090736389160e-01
2.843000000000000000e+03 3.197243499755859375e+01 -1.396320533752441406e+01 -6.796582341194152832e-01 -4.009529203176498413e-02 -2.159260660409927368e-01 -4.749708771705627441e-01
2.844000000000000000e+03 2.924077224731445312e+01 -1.450446796417236328e+01 -5.571720004081726074e-01 -4.387944936752319336e-02 -1.803154349327087402e-01 -4.757145047187805176e-01
2.845000000000000000e+03 5.834113311767578125e+01 -1.295312690734863281e+01 2.953892573714256287e-02 1.684433460235595703e+00 5.141916871070861816e-01 1.478342771530151367e+00
2.846000000000000000e+03 5.635056304931640625e+01 -1.579940319061279297e-02 -3.964917957782745361e-01 8.990828394889831543e-01 1.507773250341415405e-01 -8.386421799659729004e-01
2.847000000000000000e+03 2.652438735961914062e+01 -1.322878742218017578e+01 -5.704170465469360352e-01 -2.242680639028549194e-02 -1.778531521558761597e-01 -4.201802909374237061e-01
2.848000000000000000e+03 2.740574645996093750e+01 -1.409663963317871094e+01 -5.492845773696899414e-01 -3.346653655171394348e-02 -1.748253256082534790e-01 -4.507895112037658691e-01
2.849000000000000000e+03 5.899037170410156250e+01 -1.170517563819885254e+00 -1.566232144832611084e-01 1.451471567153930664e+00 3.884544968605041504e-01 -1.541925668716430664e+00
2.850000000000000000e+03 5.773856735229492188e+01 -1.351929903030395508e-01 -1.948499828577041626e-01 1.347418189048767090e+00 3.457704484462738037e-01 -1.267993569374084473e+00
2.851000000000000000e+03 2.230094337463378906e+01 -2.255518436431884766e-01 -1.401941776275634766e-01 -2.568337619304656982e-01 -1.191083863377571106e-01 3.028501570224761963e-01
2.852000000000000000e+03 2.820774269104003906e+01 -1.400802516937255859e+01 -5.760552287101745605e-01 -3.781008720397949219e-02 -1.841596066951751709e-01 -4.520538449287414551e-01
2.853000000000000000e+03 2.889978408813476562e+01 -1.384209442138671875e+01 -5.969405174255371094e-01 -3.703690320253372192e-02 -1.901932358741760254e-01 -4.541634917259216309e-01
2.854000000000000000e+03 6.675685119628906250e+01 -3.789441347122192383e+00 4.962014257907867432e-01 1.568963813781738281e+01 4.855751991271972656e+00 3.952120244503021240e-01
2.855000000000000000e+03 2.410261726379394531e+01 -1.318399333953857422e+01 -5.019274353981018066e-01 -1.578208245337009430e-02 -1.553128510713577271e-01 -3.953268826007843018e-01
2.856000000000000000e+03 2.333828735351562500e+01 -1.318550395965576172e+01 -4.831055700778961182e-01 -1.604682952165603638e-02 -1.497457176446914673e-01 -3.868424892425537109e-01
2.857000000000000000e+03 2.334561347961425781e+01 -1.412160396575927734e+01 -4.594330191612243652e-01 -2.990560978651046753e-02 -1.468015909194946289e-01 -4.049274027347564697e-01
2.858000000000000000e+03 2.246903228759765625e+01 -1.526166152954101562e+01 -4.127832353115081787e-01 -5.222783610224723816e-02 -1.395033150911331177e-01 -4.102350175380706787e-01
2.859000000000000000e+03 2.492587089538574219e+01 -1.400769615173339844e+01 -4.936012625694274902e-01 -2.569604665040969849e-02 -1.557891964912414551e-01 -4.253036975860595703e-01
2.860000000000000000e+03 2.656942749023437500e+01 -1.410363483428955078e+01 -5.286454558372497559e-01 -3.078155405819416046e-02 -1.678280979394912720e-01 -4.432277977466583252e-01
2.861000000000000000e+03 7.404395103454589844e+00 5.928370952606201172e+00 4.569779557641595602e-04 -1.390947960317134857e-03 -2.801910159178078175e-04 4.710020439233630896e-04
2.862000000000000000e+03 8.995666503906250000e+00 6.840459346771240234e+00 -4.303318564780056477e-04 3.111106809228658676e-03 8.042324334383010864e-04 5.301417550072073936e-04
2.863000000000000000e+03 5.892859649658203125e+01 -1.305994606018066406e+01 1.018806174397468567e-01 2.036476373672485352e+00 6.415070891380310059e-01 1.705198645591735840e+00
2.864000000000000000e+03 2.140991973876953125e+01 -1.481834793090820312e+01 -4.126790165901184082e-01 -5.778402462601661682e-02 -1.411389112472534180e-01 -3.870528638362884521e-01
2.865000000000000000e+03 2.570438766479492188e+01 4.829463958740234375e+00 -3.876038789749145508e-01 -3.103643059730529785e-01 -2.093904614448547363e-01 6.957283020019531250e-01
2.866000000000000000e+03 5.272856903076171875e+01 3.725098073482513428e-01 -7.650206685066223145e-01 4.153219163417816162e-01 -1.049096211791038513e-01 -1.656619310379028320e-01
2.867000000000000000e+03 4.662585449218750000e+01 4.282440543174743652e-01 -1.074406504631042480e+00 1.252284348011016846e-01 -2.847534120082855225e-01 3.692658245563507080e-01
2.868000000000000000e+03 7.383879089355468750e+01 -8.447007179260253906e+00 1.223016023635864258e+00 8.000168800354003906e+00 2.766955614089965820e+00 -8.106536865234375000e-01
2.869000000000000000e+03 2.217108154296875000e+01 -1.666497802734375000e+01 -3.628483414649963379e-01 -7.931080460548400879e-02 -1.326477378606796265e-01 -4.091089665889739990e-01
2.870000000000000000e+03 6.474409580230712891e+00 8.046906471252441406e+00 5.589483771473169327e-04 -7.095873006619513035e-04 -4.519167487160302699e-05 2.559652421041391790e-05
2.871000000000000000e+03 7.275548553466796875e+01 -1.951984977722167969e+01 -6.098693609237670898e-01 8.251029014587402344e+00 2.292347908020019531e+00 -4.466377496719360352e-01
2.872000000000000000e+03 7.222022247314453125e+01 -1.361431980133056641e+01 -4.159428179264068604e-01 9.117308616638183594e+00 2.610409975051879883e+00 -1.185287833213806152e+00
2.873000000000000000e+03 7.308390045166015625e+01 -1.376646423339843750e+01 -3.204490542411804199e-01 8.762981414794921875e+00 2.532759666442871094e+00 -1.241761684417724609e+00
2.874000000000000000e+03 2.375904464721679688e+01 2.488082885742187500e+00 -2.595210671424865723e-01 -3.566956520080566406e-01 -1.848650127649307251e-01 5.342718362808227539e-01
2.875000000000000000e+03 2.488699531555175781e+01 1.193476009368896484e+01 -4.677535295486450195e-01 -4.322504699230194092e-01 -2.700012028217315674e-01 6.571384072303771973e-01
2.876000000000000000e+03 2.494593620300292969e+01 1.004044818878173828e+01 -4.572745561599731445e-01 -4.244273602962493896e-01 -2.645105719566345215e-01 7.074396014213562012e-01
2.877000000000000000e+03 2.563705253601074219e+01 3.057147026062011719e+00 -3.582892119884490967e-01 -2.787482142448425293e-01 -1.911112219095230103e-01 6.356843113899230957e-01
2.878000000000000000e+03 2.604103279113769531e+01 5.849665641784667969e+00 -4.058825671672821045e-01 -3.074661493301391602e-01 -2.140046209096908569e-01 7.193175554275512695e-01
2.879000000000000000e+03 6.926548767089843750e+01 1.830708885192871094e+01 -1.134859025478363037e-01 6.584906101226806641e+00 1.941426038742065430e+00 -4.369425177574157715e-01
2.880000000000000000e+03 7.073910522460937500e+01 1.557225227355957031e+01 -2.241146117448806763e-01 7.090147018432617188e+00 2.059809684753417969e+00 -3.282990455627441406e-01
2.881000000000000000e+03 7.197970581054687500e+01 8.204844474792480469e+00 -6.248053312301635742e-01 7.972862720489501953e+00 2.204417228698730469e+00 1.299184709787368774e-01
2.882000000000000000e+03 7.213361358642578125e+01 -2.456962966918945312e+01 -3.505344688892364502e-01 7.685372829437255859e+00 2.200451612472534180e+00 -3.104052506387233734e-03
2.883000000000000000e+03 6.893998718261718750e+01 -2.381570625305175781e+01 -4.986536502838134766e-01 7.194162368774414062e+00 2.008652448654174805e+00 3.442577719688415527e-01
2.884000000000000000e+03 7.149254608154296875e+01 9.257366180419921875e+00 -5.899959206581115723e-01 7.783587932586669922e+00 2.158077716827392578e+00 -1.814777031540870667e-02
2.885000000000000000e+03 7.355271911621093750e+01 -9.500150680541992188e+00 9.883806705474853516e-01 8.323862075805664062e+00 2.793673038482666016e+00 -1.183860659599304199e+00
2.886000000000000000e+03 7.779349803924560547e+00 2.302322387695312500e+01 -1.920594573020935059e-01 -3.987341523170471191e-01 -1.772380918264389038e-01 4.389441907405853271e-01
2.887000000000000000e+03 1.006684780120849609e+01 2.525575065612792969e+01 -2.803959138691425323e-02 -6.668196916580200195e-01 -2.084577828645706177e-01 5.068903565406799316e-01
2.888000000000000000e+03 2.389422035217285156e+01 1.090298366546630859e+01 -4.947242736816406250e-01 -5.368804335594177246e-01 -3.094814121723175049e-01 6.893474459648132324e-01
2.889000000000000000e+03 2.712520027160644531e+01 7.888361930847167969e+00 -4.209244251251220703e-01 -2.512338459491729736e-01 -2.016474753618240356e-01 7.391104698181152344e-01
2.890000000000000000e+03 2.565010452270507812e+01 7.231638431549072266e+00 -4.171542227268218994e-01 -3.395427465438842773e-01 -2.270091027021408081e-01 7.304517626762390137e-01
2.891000000000000000e+03 7.204971313476562500e+01 8.832120895385742188e-01 -4.660919606685638428e-01 9.199854850769042969e+00 2.620129108428955078e+00 1.146985769271850586e+00
2.892000000000000000e+03 7.299198150634765625e+01 2.639102458953857422e+00 -5.739464759826660156e-01 8.661603927612304688e+00 2.426297187805175781e+00 9.832930564880371094e-01
2.893000000000000000e+03 7.326036834716796875e+01 -1.129694747924804688e+01 3.861666321754455566e-01 8.645051002502441406e+00 2.709365367889404297e+00 -1.391131639480590820e+00
2.894000000000000000e+03 6.940447998046875000e+01 1.216606712341308594e+01 -4.552182853221893311e-01 7.096820831298828125e+00 1.992480754852294922e+00 -3.986150622367858887e-01
2.895000000000000000e+03 7.163581085205078125e+01 5.715199470520019531e+00 -8.096527457237243652e-01 8.390210151672363281e+00 2.274167299270629883e+00 3.384581506252288818e-01
2.896000000000000000e+03 7.077502441406250000e+01 4.521058082580566406e+00 -9.485089778900146484e-01 8.660346031188964844e+00 2.313551187515258789e+00 2.814848721027374268e-01
2.897000000000000000e+03 6.651220703125000000e+01 -3.629466056823730469e+00 -3.988312557339668274e-02 1.561770534515380859e+01 4.673346519470214844e+00 -3.061942458152770996e-01
2.898000000000000000e+03 6.807423400878906250e+01 -4.420409202575683594e+00 3.063416004180908203e+00 1.343178367614746094e+01 4.948560237884521484e+00 1.912289142608642578e+00
2.899000000000000000e+03 7.140772247314453125e+01 -2.246516799926757812e+01 -5.253410935401916504e-01 7.802164077758789062e+00 2.183046817779541016e+00 -3.992027044296264648e-02
2.900000000000000000e+03 7.045231628417968750e+01 1.296514511108398438e+01 -3.706805408000946045e-01 7.210750579833984375e+00 2.052021026611328125e+00 -2.972368896007537842e-01
2.901000000000000000e+03 1.419961452484130859e+01 3.024060630798339844e+01 2.610422372817993164e-01 -7.822658419609069824e-01 -1.563670784235000610e-01 3.539660274982452393e-01
2.902000000000000000e+03 9.277117729187011719e+00 3.032610702514648438e+01 1.327472329139709473e-01 -6.924673914909362793e-01 -1.679160445928573608e-01 3.790120184421539307e-01
2.903000000000000000e+03 7.126074981689453125e+01 1.984197044372558594e+01 -5.644950643181800842e-02 6.916638374328613281e+00 2.058056592941284180e+00 -3.374145328998565674e-01
2.904000000000000000e+03 7.022969818115234375e+01 1.723751449584960938e+01 -1.536080092191696167e-01 6.835986614227294922e+00 2.004713535308837891e+00 -3.863791227340698242e-01
2.905000000000000000e+03 7.176508331298828125e+01 2.453301811218261719e+01 2.149565517902374268e-02 6.873796939849853516e+00 2.068587779998779297e+00 -3.045679330825805664e-01
2.906000000000000000e+03 2.409486198425292969e+01 1.524617195129394531e+01 -4.081793129444122314e-01 -4.982534646987915039e-01 -2.719298303127288818e-01 5.319562554359436035e-01
2.907000000000000000e+03 9.924803733825683594e+00 -2.873321723937988281e+01 6.438113003969192505e-02 -3.714656829833984375e-01 -9.212537109851837158e-02 -2.507581412792205811e-01
2.908000000000000000e+03 1.838372039794921875e+01 1.984340286254882812e+01 -2.995382249355316162e-01 -9.940521717071533203e-01 -3.880771100521087646e-01 4.235488176345825195e-01
2.909000000000000000e+03 1.860594749450683594e+01 2.196615791320800781e+01 -7.702226936817169189e-02 -8.924940824508666992e-01 -2.908549010753631592e-01 3.728126585483551025e-01
2.910000000000000000e+03 2.087314224243164062e+01 2.149818801879882812e+01 -8.574963361024856567e-02 -7.471474409103393555e-01 -2.498691082000732422e-01 3.318109810352325439e-01
2.911000000000000000e+03 1.135124015808105469e+01 -2.736992073059082031e+01 5.747698247432708740e-02 -3.694011270999908447e-01 -9.357724338769912720e-02 -2.729301750659942627e-01
2.912000000000000000e+03 7.108068084716796875e+01 -1.685395622253417969e+01 -8.836516737937927246e-01 8.766466140747070312e+00 2.364844322204589844e+00 -4.665456414222717285e-01
2.913000000000000000e+03 7.252228546142578125e+01 -1.708036422729492188e+01 -6.871730089187622070e-01 8.573933601379394531e+00 2.366028308868408203e+00 -7.261848449707031250e-01
2.914000000000000000e+03 1.048708629608154297e+01 -2.289581680297851562e+01 -5.998654291033744812e-02 -3.504246771335601807e-01 -1.231233626604080200e-01 -2.996975481510162354e-01
2.915000000000000000e+03 8.488322257995605469e+00 -2.219448661804199219e+01 -9.933929145336151123e-02 -2.869572341442108154e-01 -1.158889606595039368e-01 -2.955521047115325928e-01
2.916000000000000000e+03 7.028346252441406250e+01 1.459119224548339844e+01 -2.769286930561065674e-01 7.045852184295654297e+00 2.030677080154418945e+00 -3.397359251976013184e-01
2.917000000000000000e+03 6.878771209716796875e+01 -2.815168380737304688e+01 -1.959041208028793335e-01 6.742143630981445312e+00 1.963871836662292480e+00 3.517503738403320312e-01
2.918000000000000000e+03 6.909723663330078125e+01 1.042629718780517578e+01 -6.023485660552978516e-01 7.264869213104248047e+00 1.998756170272827148e+00 -4.118563830852508545e-01
2.919000000000000000e+03 7.040245819091796875e+01 8.613819122314453125e+00 -7.115772962570190430e-01 7.770406246185302734e+00 2.117648601531982422e+00 -1.376315951347351074e-01
2.920000000000000000e+03 1.668845939636230469e+01 2.640519714355468750e+01 1.939292848110198975e-01 -8.406430482864379883e-01 -1.940141171216964722e-01 3.700195550918579102e-01
2.921000000000000000e+03 1.908308601379394531e+01 -2.440573310852050781e+01 -1.580803468823432922e-02 -2.617658376693725586e-01 -8.327216655015945435e-02 -3.376274406909942627e-01
2.922000000000000000e+03 1.904927635192871094e+01 -2.242627334594726562e+01 -9.084402024745941162e-02 -2.408257424831390381e-01 -9.950093179941177368e-02 -3.443556725978851318e-01
2.923000000000000000e+03 2.541059303283691406e+01 1.624652671813964844e+01 -3.028732240200042725e-01 -3.764531016349792480e-01 -2.037979066371917725e-01 4.838369190692901611e-01
2.924000000000000000e+03 9.997707366943359375e+00 2.773785591125488281e+01 8.286743611097335815e-02 -6.950581669807434082e-01 -1.836572289466857910e-01 4.475502073764801025e-01
2.925000000000000000e+03 1.127966594696044922e+01 2.671695899963378906e+01 7.757315784692764282e-02 -7.538263201713562012e-01 -2.028759419918060303e-01 4.827175438404083252e-01
2.926000000000000000e+03 2.250694274902343750e+01 -1.975389099121093750e+01 -2.117617279291152954e-01 -1.348734200000762939e-01 -1.039905473589897156e-01 -4.132185578346252441e-01
2.927000000000000000e+03 2.314233779907226562e+01 -1.862152862548828125e+01 -2.710165679454803467e-01 -1.014097705483436584e-01 -1.117279008030891418e-01 -4.343790411949157715e-01
2.928000000000000000e+03 7.098399162292480469e+00 -2.227948379516601562e+01 -9.953051060438156128e-02 -1.955123096704483032e-01 -8.851284533739089966e-02 -2.342682331800460815e-01
2.929000000000000000e+03 9.366580009460449219e+00 -2.292409515380859375e+01 -6.995373964309692383e-02 -3.191971480846405029e-01 -1.167452633380889893e-01 -2.856465578079223633e-01
2.930000000000000000e+03 6.961714172363281250e+01 2.627319335937500000e+01 7.159577310085296631e-02 6.403436183929443359e+00 1.942509531974792480e+00 -3.469673097133636475e-01
2.931000000000000000e+03 7.196495056152343750e+01 2.287036514282226562e+01 -7.131410297006368637e-03 6.959256649017333984e+00 2.085637569427490234e+00 -3.029282391071319580e-01
2.932000000000000000e+03 6.431178283691406250e+01 -9.329461097717285156e+00 3.499326705932617188e-01 9.614057540893554688e+00 2.989197015762329102e+00 4.974264144897460938e+00
2.933000000000000000e+03 6.464073181152343750e+01 -9.463935852050781250e+00 -1.115793213248252869e-01 1.088121223449707031e+01 3.230889797210693359e+00 4.599720001220703125e+00
2.934000000000000000e+03 6.381754302978515625e+01 -9.620772361755371094e+00 5.329133868217468262e-01 7.536488533020019531e+00 2.420820474624633789e+00 4.730641365051269531e+00
2.935000000000000000e+03 6.247985839843750000e+01 -2.427747964859008789e+00 4.852543473243713379e-01 4.409657478332519531e+00 1.468473553657531738e+00 -3.645926237106323242e+00
2.936000000000000000e+03 6.746843719482421875e+01 -8.891188621520996094e+00 1.526346564292907715e+00 1.455900096893310547e+01 4.825603961944580078e+00 -1.441001296043395996e+00
2.937000000000000000e+03 6.760180664062500000e+01 -4.503139019012451172e+00 2.996453762054443359e+00 1.451401042938232422e+01 5.253139495849609375e+00 1.906655192375183105e+00
2.938000000000000000e+03 6.773721313476562500e+01 -7.875386714935302734e+00 4.255888938903808594e+00 1.412660312652587891e+01 5.514747619628906250e+00 -2.036870241165161133e+00
2.939000000000000000e+03 7.330128479003906250e+01 -7.336037158966064453e+00 1.729387640953063965e+00 8.203656196594238281e+00 2.979913234710693359e+00 -4.487489461898803711e-01
2.940000000000000000e+03 6.270595932006835938e+01 -9.589667320251464844e+00 8.780965805053710938e-01 4.035459518432617188e+00 1.474066853523254395e+00 3.811022281646728516e+00
2.941000000000000000e+03 6.784847259521484375e+01 -4.728033065795898438e+00 3.741033315658569336e+00 1.388093948364257812e+01 5.286592006683349609e+00 1.986438274383544922e+00
2.942000000000000000e+03 6.747209167480468750e+01 -8.114234924316406250e+00 3.415501832962036133e+00 1.495018577575683594e+01 5.509706020355224609e+00 -2.016688346862792969e+00
2.943000000000000000e+03 6.857704925537109375e+01 -4.086771011352539062e+00 2.401619195938110352e+00 1.257734966278076172e+01 4.493690490722656250e+00 1.754467248916625977e+00
2.944000000000000000e+03 6.838065338134765625e+01 -7.634461879730224609e+00 4.575453758239746094e+00 1.263972282409667969e+01 5.164553165435791016e+00 -1.636819601058959961e+00
2.945000000000000000e+03 6.479826354980468750e+01 -2.978925228118896484e+00 -4.650917947292327881e-01 1.112622356414794922e+01 3.198339462280273438e+00 -4.111628055572509766e+00
2.946000000000000000e+03 6.345958328247070312e+01 -3.155544281005859375e+00 6.195905208587646484e-01 6.271712779998779297e+00 2.067391157150268555e+00 -4.555514335632324219e+00
2.947000000000000000e+03 6.829871368408203125e+01 -8.410889625549316406e+00 2.924971580505371094e+00 1.303208541870117188e+01 4.787117481231689453e+00 -1.863858699798583984e+00
2.948000000000000000e+03 7.367330169677734375e+01 -4.142388820648193359e+00 1.289731979370117188e+00 8.138693809509277344e+00 2.828527688980102539e+00 9.082208871841430664e-01
2.949000000000000000e+03 6.781774139404296875e+01 -8.389659881591796875e+00 2.828484058380126953e+00 1.406738948822021484e+01 5.068761825561523438e+00 -1.894911170005798340e+00
2.950000000000000000e+03 6.790111541748046875e+01 -7.581417560577392578e+00 5.040834903717041016e+00 1.357662200927734375e+01 5.585237026214599609e+00 -1.858881950378417969e+00
2.951000000000000000e+03 6.855806732177734375e+01 -5.983682155609130859e+00 5.556264877319335938e+00 1.197339248657226562e+01 5.258897304534912109e+00 6.120440959930419922e-01
2.952000000000000000e+03 7.144559478759765625e+01 -4.833587646484375000e+00 2.342971324920654297e+00 9.363211631774902344e+00 3.511854887008666992e+00 9.407399892807006836e-01
2.953000000000000000e+03 6.255383682250976562e+01 -2.841637611389160156e+00 6.621022820472717285e-01 4.136044025421142578e+00 1.439443826675415039e+00 -3.726595878601074219e+00
2.954000000000000000e+03 6.081248855590820312e+01 -1.155761814117431641e+01 2.876928448677062988e-01 2.784113645553588867e+00 9.215419888496398926e-01 2.484426259994506836e+00
2.955000000000000000e+03 6.182855987548828125e+01 -9.934331893920898438e+00 5.907210707664489746e-01 2.771265029907226562e+00 1.008595824241638184e+00 2.918151140213012695e+00
2.956000000000000000e+03 6.029000473022460938e+01 -1.582882642745971680e+00 1.087791249155998230e-01 2.071239471435546875e+00 6.540055871009826660e-01 -2.141371488571166992e+00
2.957000000000000000e+03 6.062253189086914062e+01 -1.974955201148986816e+00 1.818801909685134888e-01 2.082104921340942383e+00 6.791955232620239258e-01 -2.259483575820922852e+00
2.958000000000000000e+03 3.759613037109375000e+01 5.940628647804260254e-01 -9.027224779129028320e-01 3.883277997374534607e-02 -2.591668963432312012e-01 6.133054494857788086e-01
2.959000000000000000e+03 3.974605560302734375e+01 2.376225143671035767e-01 -1.015474915504455566e+00 4.537849128246307373e-02 -2.910289168357849121e-01 5.733481645584106445e-01
2.960000000000000000e+03 5.949229431152343750e+01 -7.975738644599914551e-01 1.874131709337234497e-02 1.906366825103759766e+00 5.775324702262878418e-01 -1.869380354881286621e+00
2.961000000000000000e+03 5.989759826660156250e+01 -1.204274415969848633e+00 3.489677235484123230e-02 1.966843366622924805e+00 6.005220413208007812e-01 -1.994413614273071289e+00
2.962000000000000000e+03 5.915195083618164062e+01 -3.200004696846008301e-01 1.166791748255491257e-02 1.935038924217224121e+00 5.840120315551757812e-01 -1.801350951194763184e+00
2.963000000000000000e+03 2.835422897338867188e+01 -2.343908417969942093e-03 -4.944919049739837646e-01 -9.684639424085617065e-02 -1.774014979600906372e-01 5.512942075729370117e-01
2.964000000000000000e+03 2.846687698364257812e+01 -4.291027486324310303e-01 -5.039540529251098633e-01 -8.543553203344345093e-02 -1.768168807029724121e-01 5.268145203590393066e-01
2.965000000000000000e+03 2.757779693603515625e+01 8.339398503303527832e-01 -4.465124309062957764e-01 -1.369228363037109375e-01 -1.750305891036987305e-01 5.792563557624816895e-01
2.966000000000000000e+03 6.250315093994140625e+01 -1.118506336212158203e+01 2.699393630027770996e-01 4.844457149505615234e+00 1.534318923950195312e+00 3.452173948287963867e+00
2.967000000000000000e+03 2.864382362365722656e+01 7.692539691925048828e-01 -5.025143623352050781e-01 -1.021058410406112671e-01 -1.813860684633255005e-01 5.967783927917480469e-01
2.968000000000000000e+03 3.002321624755859375e+01 1.568147659301757812e+00 -5.430839657783508301e-01 -7.867873460054397583e-02 -1.865288168191909790e-01 6.552430987358093262e-01
2.969000000000000000e+03 5.948145675659179688e+01 -1.322225189208984375e+01 1.341204047203063965e-01 2.447617769241333008e+00 7.745214700698852539e-01 1.924031376838684082e+00
2.970000000000000000e+03 3.120626068115234375e+01 -1.821280121803283691e-01 -6.624504327774047852e-01 -3.034014999866485596e-02 -2.078371793031692505e-01 5.822340846061706543e-01
2.971000000000000000e+03 2.972158050537109375e+01 5.460798144340515137e-01 -5.602113604545593262e-01 -7.127456367015838623e-02 -1.894457787275314331e-01 6.012957692146301270e-01
2.972000000000000000e+03 7.234322357177734375e+01 -1.702626109123229980e+00 4.473691284656524658e-01 9.176044464111328125e+00 2.887023925781250000e+00 1.449253559112548828e+00
2.973000000000000000e+03 7.292492675781250000e+01 -3.298109531402587891e+00 1.138149738311767578e+00 8.670703887939453125e+00 2.942656040191650391e+00 1.215089797973632812e+00
2.974000000000000000e+03 4.425818634033203125e+01 -1.469269847869873047e+01 -7.147346138954162598e-01 8.155419677495956421e-02 -1.899541318416595459e-01 -3.796146512031555176e-01
2.975000000000000000e+03 4.527643585205078125e+01 -1.408550643920898438e+01 -8.246052861213684082e-01 8.723826706409454346e-02 -2.212101072072982788e-01 -3.561775386333465576e-01
2.976000000000000000e+03 5.361358642578125000e+01 1.139004945755004883e+00 -4.846652448177337646e-01 6.404249072074890137e-01 4.672789946198463440e-02 -3.848518729209899902e-01
2.977000000000000000e+03 4.599068069458007812e+01 -1.413241386413574219e+01 -7.950733304023742676e-01 1.154042109847068787e-01 -2.039007395505905151e-01 -3.259074687957763672e-01
2.978000000000000000e+03 4.236942672729492188e+01 -1.357236099243164062e+01 -9.532553553581237793e-01 1.532404031604528427e-02 -2.813794016838073730e-01 -4.280677437782287598e-01
2.979000000000000000e+03 4.323990249633789062e+01 -1.428059101104736328e+01 -8.197323679924011230e-01 4.457427188754081726e-02 -2.325474172830581665e-01 -4.106902182102203369e-01
2.980000000000000000e+03 3.769669342041015625e+01 -1.378037261962890625e+01 -8.336843848228454590e-01 -1.668018475174903870e-02 -2.551093697547912598e-01 -4.698315560817718506e-01
2.981000000000000000e+03 3.406460189819335938e+01 5.582968592643737793e-01 -7.578720450401306152e-01 5.870003718882799149e-03 -2.256006151437759399e-01 6.320429444313049316e-01
2.982000000000000000e+03 4.254724884033203125e+01 -1.535775279998779297e+01 -6.133718490600585938e-01 5.851003900170326233e-02 -1.664585322141647339e-01 -4.164882898330688477e-01
2.983000000000000000e+03 4.715752792358398438e+01 -1.376428413391113281e+01 -8.453685641288757324e-01 1.395264118909835815e-01 -2.117526382207870483e-01 -2.815106809139251709e-01
2.984000000000000000e+03 4.974769973754882812e+01 -1.497832489013671875e+01 -4.554740488529205322e-01 3.488337695598602295e-01 -3.199208900332450867e-02 -3.619515523314476013e-02
2.985000000000000000e+03 5.097369384765625000e+01 -1.402383708953857422e+01 -5.958737134933471680e-01 3.477681577205657959e-01 -7.443165779113769531e-02 3.159639239311218262e-02
2.986000000000000000e+03 4.009820175170898438e+01 -1.471103858947753906e+01 -7.400200366973876953e-01 2.439738716930150986e-03 -2.212740927934646606e-01 -4.639213383197784424e-01
2.987000000000000000e+03 4.881904602050781250e+01 -1.329824733734130859e+01 -9.057718515396118164e-01 1.718514561653137207e-01 -2.201761156320571899e-01 -2.039076536893844604e-01
2.988000000000000000e+03 3.613127136230468750e+01 -1.391180610656738281e+01 -7.901114821434020996e-01 -3.170041367411613464e-02 -2.465435564517974854e-01 -4.754095673561096191e-01
2.989000000000000000e+03 3.476718139648437500e+01 6.689788699150085449e-01 -7.779955863952636719e-01 1.157356705516576767e-02 -2.299266159534454346e-01 6.357910633087158203e-01
2.990000000000000000e+03 4.806956481933593750e+01 -1.323331165313720703e+01 -9.553254842758178711e-01 1.298249363899230957e-01 -2.476501613855361938e-01 -2.556095123291015625e-01
2.991000000000000000e+03 4.863177490234375000e+01 -1.409550571441650391e+01 -7.224310636520385742e-01 2.131588757038116455e-01 -1.527816504240036011e-01 -1.855359971523284912e-01
2.992000000000000000e+03 5.173686599731445312e+01 -1.406806182861328125e+01 -5.230962038040161133e-01 4.127326607704162598e-01 -3.310906514525413513e-02 1.169773936271667480e-01
2.993000000000000000e+03 4.787417221069335938e+01 -1.400433731079101562e+01 -7.769668102264404297e-01 1.642891764640808105e-01 -1.838032901287078857e-01 -2.320097237825393677e-01
2.994000000000000000e+03 3.695272827148437500e+01 -2.917907387018203735e-02 -9.352266192436218262e-01 2.852058783173561096e-02 -2.720118165016174316e-01 5.946966409683227539e-01
2.995000000000000000e+03 3.863256072998046875e+01 -1.490108013153076172e+01 -7.090750932693481445e-01 -1.336743030697107315e-02 -2.167327553033828735e-01 -4.812507629394531250e-01
2.996000000000000000e+03 5.336866378784179688e+01 -1.404707431793212891e+01 -3.660719394683837891e-01 6.013713479042053223e-01 7.058983296155929565e-02 3.410294950008392334e-01
2.997000000000000000e+03 3.764447021484375000e+01 -3.231819719076156616e-02 -9.661423563957214355e-01 3.211468830704689026e-02 -2.802083194255828857e-01 5.895302891731262207e-01
2.998000000000000000e+03 3.547783660888671875e+01 1.358401775360107422e+00 -7.570098638534545898e-01 2.286967076361179352e-02 -2.202420532703399658e-01 6.555783748626708984e-01
2.999000000000000000e+03 3.546861648559570312e+01 -1.374602794647216797e+01 -8.019463419914245605e-01 -4.094539210200309753e-02 -2.528675198554992676e-01 -4.674085974693298340e-01
3.000000000000000000e+03 3.630051803588867188e+01 7.567371129989624023e-01 -8.370193243026733398e-01 2.827575430274009705e-02 -2.426230758428573608e-01 6.314176321029663086e-01
3.001000000000000000e+03 5.197658920288085938e+01 2.087904930114746094e+00 -4.393005073070526123e-01 5.857525467872619629e-01 4.393560811877250671e-02 -2.125297933816909790e-01
3.002000000000000000e+03 3.709098815917968750e+01 -1.508881092071533203e+01 -6.492180824279785156e-01 -2.189061418175697327e-02 -2.013326138257980347e-01 -4.971964359283447266e-01
3.003000000000000000e+03 3.961223602294921875e+01 1.057876586914062500e+00 -9.070802330970764160e-01 5.867784097790718079e-02 -2.545207142829895020e-01 5.994947552680969238e-01
3.004000000000000000e+03 5.041744232177734375e+01 1.219919681549072266e+00 -7.411053776741027832e-01 3.402322530746459961e-01 -1.202619373798370361e-01 5.008215829730033875e-02
3.005000000000000000e+03 4.357088851928710938e+01 4.922140240669250488e-01 -1.061910748481750488e+00 8.781949430704116821e-02 -2.922273576259613037e-01 4.920417666435241699e-01
3.006000000000000000e+03 4.111209869384765625e+01 1.283472299575805664e+00 -8.976014256477355957e-01 7.921881973743438721e-02 -2.455147802829742432e-01 5.728266239166259766e-01
3.007000000000000000e+03 3.475955963134765625e+01 -1.371806240081787109e+01 -8.000822067260742188e-01 -4.163231328129768372e-02 -2.525143623352050781e-01 -4.686039090156555176e-01
3.008000000000000000e+03 3.459738540649414062e+01 -1.460641574859619141e+01 -6.724054813385009766e-01 -3.680045157670974731e-02 -2.127617895603179932e-01 -5.008517503738403320e-01
3.009000000000000000e+03 4.122316741943359375e+01 4.131967127323150635e-01 -1.032186031341552734e+00 6.342457234859466553e-02 -2.906284630298614502e-01 5.556314587593078613e-01
3.010000000000000000e+03 4.290604400634765625e+01 2.385946273803710938e+00 -7.421700358390808105e-01 1.467148810625076294e-01 -1.786365509033203125e-01 5.204355120658874512e-01
3.011000000000000000e+03 7.028259277343750000e+01 -7.729852199554443359e+00 3.165671825408935547e+00 1.021917819976806641e+01 4.015455245971679688e+00 -1.063425064086914062e+00
3.012000000000000000e+03 4.964290237426757812e+01 1.227546334266662598e+00 -7.835178375244140625e-01 2.950754761695861816e-01 -1.465326994657516479e-01 1.311460733413696289e-01
3.013000000000000000e+03 4.512944030761718750e+01 4.342617690563201904e-01 -1.083588600158691406e+00 1.017948091030120850e-01 -2.945381402969360352e-01 4.357891380786895752e-01
3.014000000000000000e+03 5.695101547241210938e+01 -1.443142223358154297e+01 5.344338715076446533e-02 1.570026278495788574e+00 4.870408773422241211e-01 1.162257313728332520e+00
3.015000000000000000e+03 5.763141632080078125e+01 -1.365557289123535156e+01 2.582583948969841003e-02 1.612644910812377930e+00 4.915412366390228271e-01 1.310743689537048340e+00
3.016000000000000000e+03 4.276721954345703125e+01 1.460431218147277832e+00 -8.835642933845520020e-01 1.080391332507133484e-01 -2.326575368642807007e-01 5.282456874847412109e-01
3.017000000000000000e+03 4.811787414550781250e+01 4.286728203296661377e-01 -1.041407346725463867e+00 1.618616133928298950e-01 -2.638637125492095947e-01 2.845574915409088135e-01
3.018000000000000000e+03 5.415158843994140625e+01 -1.388287734985351562e+01 -3.189980387687683105e-01 7.030121684074401855e-01 1.152042374014854431e-01 4.677167236804962158e-01
3.019000000000000000e+03 5.488332366943359375e+01 -1.380150890350341797e+01 -2.529269754886627197e-01 8.058705329895019531e-01 1.658830642700195312e-01 6.007453203201293945e-01
3.020000000000000000e+03 5.823670196533203125e+01 -1.368955707550048828e+01 7.942616194486618042e-02 1.901217699050903320e+00 5.941931605339050293e-01 1.516614317893981934e+00
3.021000000000000000e+03 3.205743408203125000e+01 -1.485922622680664062e+01 -5.880509018898010254e-01 -4.420712962746620178e-02 -1.896774023771286011e-01 -4.991775751113891602e-01
3.022000000000000000e+03 3.105125999450683594e+01 -1.490486335754394531e+01 -5.627272129058837891e-01 -4.624898359179496765e-02 -1.826928555965423584e-01 -4.936134219169616699e-01
3.023000000000000000e+03 5.496027374267578125e+01 7.586843371391296387e-01 -4.082018733024597168e-01 7.984120249748229980e-01 1.170630529522895813e-01 -6.227179765701293945e-01
3.024000000000000000e+03 5.420856094360351562e+01 -1.460920619964599609e+01 -1.824930906295776367e-01 8.540106415748596191e-01 2.014552801847457886e-01 5.564535856246948242e-01
3.025000000000000000e+03 3.833299255371093750e+01 3.562151640653610229e-02 -9.895291924476623535e-01 3.739344701170921326e-02 -2.856407165527343750e-01 5.870109796524047852e-01
3.026000000000000000e+03 3.822035980224609375e+01 7.270705103874206543e-01 -9.054961204528808594e-01 4.116916283965110779e-02 -2.592980861663818359e-01 6.104084253311157227e-01
3.027000000000000000e+03 5.708730316162109375e+01 6.408071517944335938e-01 -1.540438234806060791e-01 1.337868332862854004e+00 3.551473617553710938e-01 -1.156851530075073242e+00
3.028000000000000000e+03 5.563374328613281250e+01 7.877305150032043457e-01 -3.267602026462554932e-01 9.465207457542419434e-01 1.859281659126281738e-01 -7.695915699005126953e-01
3.029000000000000000e+03 5.835787200927734375e+01 -1.444250717759132385e-02 -8.814429491758346558e-02 1.611563086509704590e+00 4.570256173610687256e-01 -1.492549896240234375e+00
3.030000000000000000e+03 2.849484825134277344e+01 -1.492545318603515625e+01 -5.168926119804382324e-01 -4.597024992108345032e-02 -1.688588559627532959e-01 -4.772788584232330322e-01
3.031000000000000000e+03 2.573871994018554688e+01 -1.405670070648193359e+01 -5.114523768424987793e-01 -2.658188529312610626e-02 -1.614102870225906372e-01 -4.355175495147705078e-01
3.032000000000000000e+03 2.384244728088378906e+01 1.157769322395324707e+00 -2.504108250141143799e-01 -2.832366824150085449e-01 -1.600942462682723999e-01 4.741435050964355469e-01
3.033000000000000000e+03 4.736593246459960938e+01 1.266583681106567383e+00 -8.713192343711853027e-01 1.930340379476547241e-01 -2.034855633974075317e-01 3.076264262199401855e-01
3.034000000000000000e+03 4.439446640014648438e+01 1.283287405967712402e+00 -9.186513423919677734e-01 1.259057670831680298e-01 -2.378236651420593262e-01 4.640420079231262207e-01
3.035000000000000000e+03 2.523243713378906250e+01 -1.682092094421386719e+01 -3.612411320209503174e-01 -6.433310359716415405e-02 -1.276722699403762817e-01 -4.626127183437347412e-01
3.036000000000000000e+03 2.471644973754882812e+01 -1.548378849029541016e+01 -4.297862052917480469e-01 -4.350037500262260437e-02 -1.419859677553176880e-01 -4.470848739147186279e-01
3.037000000000000000e+03 5.433737945556640625e+01 9.107687473297119141e-01 -4.515749514102935791e-01 7.437280416488647461e-01 8.764592558145523071e-02 -4.917919337749481201e-01
3.038000000000000000e+03 5.348324966430664062e+01 2.972606122493743896e-01 -7.092742323875427246e-01 4.735530614852905273e-01 -7.071635127067565918e-02 -2.673598229885101318e-01
3.039000000000000000e+03 5.879409790039062500e+01 -1.376077175140380859e+01 1.142319440841674805e-01 2.203485727310180664e+00 6.953153014183044434e-01 1.705638527870178223e+00
3.040000000000000000e+03 2.252764320373535156e+01 -1.407934856414794922e+01 -4.502711594104766846e-01 -3.182215616106987000e-02 -1.446279883384704590e-01 -3.937284648418426514e-01
3.041000000000000000e+03 7.359096527099609375e+01 -5.947258949279785156e+00 1.590708613395690918e+00 7.999670982360839844e+00 2.877113819122314453e+00 1.691814661026000977e-01
3.042000000000000000e+03 2.821416664123535156e+01 1.295796513557434082e+00 -4.733081459999084473e-01 -1.252540647983551025e-01 -1.795686632394790649e-01 6.165389418601989746e-01
3.043000000000000000e+03 2.563271141052246094e+01 3.868854045867919922e+00 -3.689086437225341797e-01 -2.995322048664093018e-01 -2.005322575569152832e-01 6.640737652778625488e-01
3.044000000000000000e+03 5.281975173950195312e+01 2.129673004150390625e+00 -3.560706079006195068e-01 6.881216168403625488e-01 9.961531311273574829e-02 -3.442783951759338379e-01
3.045000000000000000e+03 2.571368408203125000e+01 -1.493269824981689453e+01 -4.700376987457275391e-01 -3.706618770956993103e-02 -1.521311700344085693e-01 -4.509078562259674072e-01
3.046000000000000000e+03 2.752291679382324219e+01 -1.505121707916259766e+01 -4.931766092777252197e-01 -4.266546666622161865e-02 -1.607526242733001709e-01 -4.703062474727630615e-01
3.047000000000000000e+03 7.266036987304687500e+01 -4.421831071376800537e-01 -3.574946150183677673e-02 8.990362167358398438e+00 2.686383962631225586e+00 1.353127479553222656e+00
3.048000000000000000e+03 4.034322738647460938e+01 1.189823508262634277e+00 -9.045325517654418945e-01 6.546855717897415161e-02 -2.517192065715789795e-01 5.869268178939819336e-01
3.049000000000000000e+03 7.270192718505859375e+01 -2.490693569183349609e+00 7.771392464637756348e-01 8.907234191894531250e+00 2.905312061309814453e+00 1.376570701599121094e+00
3.050000000000000000e+03 2.701287841796875000e+01 3.039336800575256348e-01 -4.170051515102386475e-01 -1.410759836435317993e-01 -1.674243509769439697e-01 5.353559255599975586e-01
3.051000000000000000e+03 7.316632843017578125e+01 -8.413441658020019531e+00 1.457255005836486816e+00 8.390617370605468750e+00 2.954361677169799805e+00 -8.825376033782958984e-01
3.052000000000000000e+03 7.208261108398437500e+01 1.702318668365478516e+00 -6.140198707580566406e-01 9.072846412658691406e+00 2.537647962570190430e+00 1.006218314170837402e+00
3.053000000000000000e+03 3.344358444213867188e+01 4.925000667572021484e-01 -7.343297004699707031e-01 -5.002707708626985550e-03 -2.217997312545776367e-01 6.263352036476135254e-01
3.054000000000000000e+03 2.933654403686523438e+01 1.127214074134826660e+00 -5.275821089744567871e-01 -8.949098736047744751e-02 -1.851219385862350464e-01 6.263427138328552246e-01
3.055000000000000000e+03 9.738418579101562500e+00 2.286499404907226562e+01 -2.073337733745574951e-01 -5.676731467247009277e-01 -2.325020879507064819e-01 5.385044217109680176e-01
3.056000000000000000e+03 7.217601776123046875e+01 -1.070590782165527344e+01 6.159988641738891602e-01 9.254566192626953125e+00 2.961169481277465820e+00 -1.465838193893432617e+00
3.057000000000000000e+03 2.578958702087402344e+01 1.126994013786315918e+00 -3.496504426002502441e-01 -2.081892490386962891e-01 -1.673519164323806763e-01 5.418527126312255859e-01
3.058000000000000000e+03 2.506843948364257812e+01 2.116968631744384766e+00 -3.199577629566192627e-01 -2.744364738464355469e-01 -1.783182621002197266e-01 5.702346563339233398e-01
3.059000000000000000e+03 3.280266571044921875e+01 -1.383881568908691406e+01 -7.186724543571472168e-01 -4.278296232223510742e-02 -2.284366190433502197e-01 -4.717620611190795898e-01
3.060000000000000000e+03 7.144843292236328125e+01 -1.343059921264648438e+01 -5.024660825729370117e-01 9.477215766906738281e+00 2.692425012588500977e+00 -1.106141090393066406e+00
3.061000000000000000e+03 2.555096626281738281e+01 -1.584084510803222656e+01 -4.224817752838134766e-01 -4.650438949465751648e-02 -1.406958550214767456e-01 -4.593776762485504150e-01
3.062000000000000000e+03 2.585283660888671875e+01 9.174263000488281250e+00 -4.378004074096679688e-01 -3.446252346038818359e-01 -2.347276955842971802e-01 7.232997417449951172e-01
3.063000000000000000e+03 2.684447479248046875e+01 4.650978088378906250e+00 -4.138411581516265869e-01 -2.388504892587661743e-01 -1.958074867725372314e-01 7.114856243133544922e-01
3.064000000000000000e+03 7.183574676513671875e+01 -1.462413978576660156e+01 -6.553260684013366699e-01 9.128235816955566406e+00 2.541872978210449219e+00 -9.704800248146057129e-01
3.065000000000000000e+03 7.124445343017578125e+01 -1.551436996459960938e+01 -8.367925286293029785e-01 9.081948280334472656e+00 2.473546504974365234e+00 -7.125511169433593750e-01
3.066000000000000000e+03 2.657647705078125000e+01 6.847101688385009766e+00 -4.227981865406036377e-01 -2.797505557537078857e-01 -2.107646316289901733e-01 7.379258275032043457e-01
3.067000000000000000e+03 7.070562744140625000e+01 -2.466427040100097656e+01 -4.057310819625854492e-01 7.442062854766845703e+00 2.110899448394775391e+00 1.393764317035675049e-01
3.068000000000000000e+03 7.172773742675781250e+01 -1.858854103088378906e+01 -7.588835954666137695e-01 8.408497810363769531e+00 2.294884204864501953e+00 -4.166702330112457275e-01
3.069000000000000000e+03 7.020489501953125000e+01 -2.036744308471679688e+01 -7.741262316703796387e-01 7.996124267578125000e+00 2.166599273681640625e+00 3.971674665808677673e-02
3.070000000000000000e+03 2.386561012268066406e+01 1.927161026000976562e+01 -1.817951351404190063e-01 -5.034848451614379883e-01 -2.055840045213699341e-01 3.767966330051422119e-01
3.071000000000000000e+03 2.303755187988281250e+01 2.093021392822265625e+01 -7.688384503126144409e-02 -5.880011916160583496e-01 -1.994655132293701172e-01 3.235234618186950684e-01
3.072000000000000000e+03 7.150942993164062500e+01 -9.891895204782485962e-02 -2.901525497436523438e-01 9.544554710388183594e+00 2.776320695877075195e+00 1.229479908943176270e+00
3.073000000000000000e+03 7.196601867675781250e+01 3.660549402236938477e+00 -7.925202250480651855e-01 8.736210823059082031e+00 2.383107185363769531e+00 6.649484038352966309e-01
3.074000000000000000e+03 6.812741851806640625e+01 1.711816596984863281e+01 -1.621741205453872681e-01 6.406614303588867188e+00 1.873332023620605469e+00 -5.123379230499267578e-01
3.075000000000000000e+03 7.026789855957031250e+01 1.928128051757812500e+01 -7.529091089963912964e-02 6.748838901519775391e+00 2.002064466476440430e+00 -3.887977600097656250e-01
3.076000000000000000e+03 6.819549560546875000e+01 1.961452293395996094e+01 -5.608397349715232849e-02 6.293572425842285156e+00 1.871246576309204102e+00 -4.809109866619110107e-01
3.077000000000000000e+03 6.979205322265625000e+01 9.519113540649414062e+00 -6.651135683059692383e-01 7.528665542602539062e+00 2.059065580368041992e+00 -2.826265692710876465e-01
3.078000000000000000e+03 7.055225372314453125e+01 -1.812710952758789062e+01 -9.058843255043029785e-01 8.491350173950195312e+00 2.275639772415161133e+00 -2.001387625932693481e-01
3.079000000000000000e+03 1.785399055480957031e+01 2.309848213195800781e+01 8.175451308488845825e-03 -9.019997119903564453e-01 -2.681472897529602051e-01 3.830994367599487305e-01
3.080000000000000000e+03 1.103898715972900391e+01 2.956862068176269531e+01 1.625594198703765869e-01 -7.387629747390747070e-01 -1.728610694408416748e-01 4.038947522640228271e-01
3.081000000000000000e+03 1.346348094940185547e+01 -2.422222328186035156e+01 -1.188907399773597717e-02 -3.579106330871582031e-01 -1.109399124979972839e-01 -2.946261167526245117e-01
3.082000000000000000e+03 1.580477333068847656e+01 -2.889295005798339844e+01 1.356515288352966309e-01 -3.509375154972076416e-01 -6.458579748868942261e-02 -2.775605022907257080e-01
3.083000000000000000e+03 6.998919677734375000e+01 -2.781268310546875000e+01 -2.068406790494918823e-01 7.034940719604492188e+00 2.048429965972900391e+00 2.571254372596740723e-01
3.084000000000000000e+03 1.391095161437988281e+01 2.690947532653808594e+01 1.581384241580963135e-01 -8.416711091995239258e-01 -2.050597965717315674e-01 4.360320866107940674e-01
3.085000000000000000e+03 1.494152069091796875e+01 2.533568954467773438e+01 1.060331016778945923e-01 -8.951517939567565918e-01 -2.367356121540069580e-01 4.453447461128234863e-01
3.086000000000000000e+03 7.093078613281250000e+01 7.684716701507568359e+00 -7.419530749320983887e-01 7.971100807189941406e+00 2.168744325637817383e+00 1.098652184009552002e-02
3.087000000000000000e+03 6.877058410644531250e+01 8.786465644836425781e+00 -7.556193470954895020e-01 7.471831321716308594e+00 2.014863729476928711e+00 -4.414348602294921875e-01
3.088000000000000000e+03 7.159232330322265625e+01 -2.051166725158691406e+01 -6.508857011795043945e-01 8.077710151672363281e+00 2.228047370910644531e+00 -1.961482763290405273e-01
3.089000000000000000e+03 1.036331081390380859e+01 3.507763290405273438e+01 2.237817794084548950e-01 -7.268946766853332520e-01 -1.509338766336441040e-01 2.399118989706039429e-01
3.090000000000000000e+03 6.988098907470703125e+01 2.433891677856445312e+01 3.055035322904586792e-02 6.464818477630615234e+00 1.948610544204711914e+00 -3.553947210311889648e-01
3.091000000000000000e+03 6.452365112304687500e+01 -3.087312459945678711e+00 -1.997371166944503784e-01 1.034768199920654297e+01 3.044383525848388672e+00 -4.538067817687988281e+00
3.092000000000000000e+03 6.337859344482421875e+01 -1.021133041381835938e+01 3.725543618202209473e-01 6.401345252990722656e+00 2.032169818878173828e+00 4.214755535125732422e+00
3.093000000000000000e+03 6.497814941406250000e+01 -9.494877815246582031e+00 -4.426725804805755615e-01 1.233418846130371094e+01 3.567454814910888672e+00 4.159151077270507812e+00
3.094000000000000000e+03 6.285544586181640625e+01 -9.952636718750000000e+00 7.279595732688903809e-01 4.797951698303222656e+00 1.657773375511169434e+00 3.956698656082153320e+00
3.095000000000000000e+03 6.620760345458984375e+01 -9.264602661132812500e+00 -3.656988739967346191e-01 1.542988395690917969e+01 4.519255638122558594e+00 1.079498410224914551e+00
3.096000000000000000e+03 6.511735534667968750e+01 -3.509794473648071289e+00 -4.724444150924682617e-01 1.321604633331298828e+01 3.823080778121948242e+00 -4.048621654510498047e+00
3.097000000000000000e+03 6.219393157958984375e+01 -2.708561658859252930e+00 5.841333866119384766e-01 3.426240682601928711e+00 1.203112244606018066e+00 -3.307326078414916992e+00
3.098000000000000000e+03 6.734466552734375000e+01 -9.150503158569335938e+00 9.204127788543701172e-01 1.457959175109863281e+01 4.650001049041748047e+00 -1.094451785087585449e+00
3.099000000000000000e+03 6.682968139648437500e+01 -9.904604911804199219e+00 -4.757772982120513916e-01 1.394277000427246094e+01 4.040097713470458984e+00 3.147965371608734131e-01
3.100000000000000000e+03 6.669746398925781250e+01 -9.486214637756347656e+00 -2.099043279886245728e-01 1.470264720916748047e+01 4.347823143005371094e+00 2.676998376846313477e-01
3.101000000000000000e+03 6.539382934570312500e+01 -9.471805572509765625e+00 -6.803643703460693359e-01 1.365880298614501953e+01 3.893531560897827148e+00 3.245273113250732422e+00
3.102000000000000000e+03 6.705450439453125000e+01 -3.898203611373901367e+00 1.020547032356262207e+00 1.542470455169677734e+01 4.933575630187988281e+00 9.584342837333679199e-01
3.103000000000000000e+03 6.742443084716796875e+01 -3.530520200729370117e+00 7.282567024230957031e-01 1.437199783325195312e+01 4.530076503753662109e+00 1.042421579360961914e+00
3.104000000000000000e+03 6.411706542968750000e+01 -2.933614492416381836e+00 6.289081275463104248e-02 8.715895652770996094e+00 2.633635997772216797e+00 -4.657479286193847656e+00
3.105000000000000000e+03 6.889359283447265625e+01 -6.622560501098632812e+00 5.196022033691406250e+00 1.145977497100830078e+01 4.996738910675048828e+00 -3.220195472240447998e-01
3.106000000000000000e+03 6.839240264892578125e+01 -6.326034545898437500e+00 5.998593330383300781e+00 1.219815635681152344e+01 5.459024906158447266e+00 1.127551123499870300e-01
3.107000000000000000e+03 6.806229400634765625e+01 -8.143657684326171875e+00 3.590439081192016602e+00 1.344856071472167969e+01 5.111700057983398438e+00 -1.958919882774353027e+00
3.108000000000000000e+03 6.902371215820312500e+01 -7.360181808471679688e+00 4.496655464172363281e+00 1.153898143768310547e+01 4.810690879821777344e+00 -1.166740059852600098e+00
3.109000000000000000e+03 6.820599365234375000e+01 -4.095805644989013672e+00 2.299627065658569336e+00 1.317864036560058594e+01 4.643480300903320312e+00 1.780417680740356445e+00
3.110000000000000000e+03 7.234317779541015625e+01 -1.156793880462646484e+01 2.770571708679199219e-01 9.205720901489257812e+00 2.844833374023437500e+00 -1.445833206176757812e+00
3.111000000000000000e+03 6.763302612304687500e+01 -8.640229225158691406e+00 2.121531963348388672e+00 1.437232875823974609e+01 4.948158264160156250e+00 -1.693961143493652344e+00
3.112000000000000000e+03 6.850556182861328125e+01 -4.695678710937500000e+00 3.588083982467651367e+00 1.258129405975341797e+01 4.850813388824462891e+00 1.786996006965637207e+00
3.113000000000000000e+03 6.779906463623046875e+01 -3.830387115478515625e+00 1.663184404373168945e+00 1.392500591278076172e+01 4.676456928253173828e+00 1.586826801300048828e+00
3.114000000000000000e+03 7.119689941406250000e+01 -6.612759113311767578e+00 2.984987974166870117e+00 9.374699592590332031e+00 3.707906246185302734e+00 -1.777203530073165894e-01
3.115000000000000000e+03 6.830714416503906250e+01 -6.641230583190917969e+00 6.143281459808349609e+00 1.238479995727539062e+01 5.558424472808837891e+00 -4.807543456554412842e-01
3.116000000000000000e+03 6.804643249511718750e+01 -8.911414146423339844e+00 1.842124700546264648e+00 1.346668434143066406e+01 4.592642784118652344e+00 -1.682630062103271484e+00
3.117000000000000000e+03 6.881317138671875000e+01 -5.585898876190185547e+00 4.789106369018554688e+00 1.173487091064453125e+01 4.957193374633789062e+00 1.029018282890319824e+00
3.118000000000000000e+03 7.297192382812500000e+01 -4.077586174011230469e+00 1.438434600830078125e+00 8.531937599182128906e+00 2.991111516952514648e+00 1.025582671165466309e+00
3.119000000000000000e+03 6.220475006103515625e+01 -2.057944536209106445e+00 3.678858280181884766e-01 4.121397495269775391e+00 1.346784949302673340e+00 -3.413372993469238281e+00
3.120000000000000000e+03 6.203894805908203125e+01 -1.033004856109619141e+01 5.392661690711975098e-01 3.486773967742919922e+00 1.207812070846557617e+00 3.181740045547485352e+00
3.121000000000000000e+03 6.105776977539062500e+01 -9.296899437904357910e-01 1.682322770357131958e-01 3.174401760101318359e+00 1.002790212631225586e+00 -2.657139539718627930e+00
3.122000000000000000e+03 6.181736755371093750e+01 -1.715752720832824707e+00 2.994025647640228271e-01 3.734500885009765625e+00 1.210170984268188477e+00 -3.116907596588134766e+00
3.123000000000000000e+03 7.238264465332031250e+01 -4.111133098602294922e+00 1.632304906845092773e+00 8.880291938781738281e+00 3.153779029846191406e+00 1.092604756355285645e+00
3.124000000000000000e+03 6.048671340942382812e+01 -1.215529441833496094e+01 2.104945331811904907e-01 2.743442773818969727e+00 8.861812353134155273e-01 2.333694696426391602e+00
3.125000000000000000e+03 6.067938232421875000e+01 -5.142950415611267090e-01 1.157022118568420410e-01 3.012276887893676758e+00 9.383937120437622070e-01 -2.463083267211914062e+00
3.126000000000000000e+03 6.067821884155273438e+01 -1.271360754966735840e+00 1.508867889642715454e-01 2.599552392959594727e+00 8.251317739486694336e-01 -2.408035755157470703e+00
3.127000000000000000e+03 6.029973220825195312e+01 -8.679765462875366211e-01 1.134364679455757141e-01 2.480390071868896484e+00 7.781479954719543457e-01 -2.255123853683471680e+00
3.128000000000000000e+03 7.210660552978515625e+01 -8.100364685058593750e+00 2.021878480911254883e+00 8.951842308044433594e+00 3.292116403579711914e+00 -9.349271059036254883e-01
3.129000000000000000e+03 5.960369873046875000e+01 -7.447727769613265991e-02 4.420555382966995239e-02 2.287748813629150391e+00 6.995863318443298340e-01 -1.985295653343200684e+00
3.130000000000000000e+03 3.620191955566406250e+01 1.585095643997192383e+00 -7.602478265762329102e-01 3.459950536489486694e-02 -2.176945060491561890e-01 6.581523418426513672e-01
3.131000000000000000e+03 3.104824256896972656e+01 4.403438270092010498e-01 -6.251509189605712891e-01 -4.219457507133483887e-02 -2.002036571502685547e-01 6.139081120491027832e-01
3.132000000000000000e+03 2.888491439819335938e+01 1.697498083114624023e+00 -4.970698654651641846e-01 -1.112672239542007446e-01 -1.825011372566223145e-01 6.450342535972595215e-01
3.133000000000000000e+03 2.793305969238281250e+01 2.968319416046142578e+00 -4.467000663280487061e-01 -1.665756702423095703e-01 -1.839827299118041992e-01 6.798105239868164062e-01
3.134000000000000000e+03 6.022563552856445312e+01 -1.279291343688964844e+01 1.687251031398773193e-01 2.828745603561401367e+00 8.992412090301513672e-01 2.219406366348266602e+00
3.135000000000000000e+03 3.274679565429687500e+01 5.943464636802673340e-01 -7.006075978279113770e-01 -1.300253812223672867e-02 -2.140830308198928833e-01 6.305394172668457031e-01
3.136000000000000000e+03 2.992182159423828125e+01 2.495604991912841797e+00 -5.174059867858886719e-01 -9.054116159677505493e-02 -1.823841482400894165e-01 6.890400648117065430e-01
3.137000000000000000e+03 6.815356445312500000e+01 -8.624941825866699219e+00 2.426281929016113281e+00 1.328372192382812500e+01 4.713001251220703125e+00 -1.832668066024780273e+00
3.138000000000000000e+03 4.486903762817382812e+01 -1.535142898559570312e+01 -5.848574042320251465e-01 1.238099783658981323e-01 -1.383142173290252686e-01 -3.430767953395843506e-01
3.139000000000000000e+03 4.243288040161132812e+01 -1.442496299743652344e+01 -7.921441793441772461e-01 3.188225626945495605e-02 -2.280785888433456421e-01 -4.282504916191101074e-01
3.140000000000000000e+03 4.349382781982421875e+01 -1.513380336761474609e+01 -6.381317377090454102e-01 7.607095688581466675e-02 -1.686182469129562378e-01 -3.955594897270202637e-01
3.141000000000000000e+03 4.068671798706054688e+01 -1.521900939941406250e+01 -6.449508070945739746e-01 1.712643913924694061e-02 -1.883473098278045654e-01 -4.527541995048522949e-01
3.142000000000000000e+03 4.254352188110351562e+01 -1.629211616516113281e+01 -4.674899280071258545e-01 7.854259014129638672e-02 -1.166842058300971985e-01 -4.092349708080291748e-01
3.143000000000000000e+03 4.765610122680664062e+01 -1.491234493255615234e+01 -5.607504248619079590e-01 2.306904196739196777e-01 -9.901800006628036499e-02 -2.078476548194885254e-01
3.144000000000000000e+03 4.676012420654296875e+01 -1.449842357635498047e+01 -6.980456709861755371e-01 1.602326035499572754e-01 -1.613439172506332397e-01 -2.842963635921478271e-01
3.145000000000000000e+03 4.155092239379882812e+01 -1.538514995574951172e+01 -6.183394193649291992e-01 3.550692275166511536e-02 -1.748497486114501953e-01 -4.393483996391296387e-01
3.146000000000000000e+03 5.154489517211914062e+01 -1.489141750335693359e+01 -3.559812307357788086e-01 4.970544278621673584e-01 4.232195764780044556e-02 1.540164798498153687e-01
3.147000000000000000e+03 5.254426956176757812e+01 -1.413187313079833984e+01 -4.332469105720520020e-01 5.068351626396179199e-01 2.207647822797298431e-02 2.322439551353454590e-01
3.148000000000000000e+03 4.990683364868164062e+01 -1.634302902221679688e+01 -1.810011863708496094e-01 5.138081908226013184e-01 9.984210133552551270e-02 6.652154773473739624e-02
3.149000000000000000e+03 3.556793975830078125e+01 -1.452097797393798828e+01 -7.114855647087097168e-01 -3.502690419554710388e-02 -2.239537388086318970e-01 -4.946623742580413818e-01
3.150000000000000000e+03 3.481502914428710938e+01 1.352700591087341309e+00 -7.338919043540954590e-01 1.449904590845108032e-02 -2.158178687095642090e-01 6.590449810028076172e-01
3.151000000000000000e+03 4.923726654052734375e+01 -1.440863609313964844e+01 -5.998787283897399902e-01 2.944638133049011230e-01 -9.162446856498718262e-02 -1.097671911120414734e-01
3.152000000000000000e+03 5.032012939453125000e+01 -1.431646156311035156e+01 -5.603943467140197754e-01 3.377780914306640625e-01 -6.678487360477447510e-02 -2.442793361842632294e-02
3.153000000000000000e+03 3.699522018432617188e+01 6.601775288581848145e-01 -8.686166405677795410e-01 3.374336287379264832e-02 -2.504619657993316650e-01 6.242723464965820312e-01
3.154000000000000000e+03 3.798677825927734375e+01 1.383576035499572754e+00 -8.210912942886352539e-01 4.980247467756271362e-02 -2.313866466283798218e-01 6.325870752334594727e-01
3.155000000000000000e+03 3.590351867675781250e+01 -1.703949165344238281e+01 -4.105948805809020996e-01 -1.800947636365890503e-02 -1.285813003778457642e-01 -5.128559470176696777e-01
3.156000000000000000e+03 5.198890686035156250e+01 1.227233767509460449e+00 -6.158682107925415039e-01 4.654514193534851074e-01 -4.512504115700721741e-02 -1.419174373149871826e-01
3.157000000000000000e+03 5.040528106689453125e+01 2.047521352767944336e+00 -5.578075647354125977e-01 4.377098679542541504e-01 -3.602930903434753418e-02 -4.368573718238621950e-04
3.158000000000000000e+03 3.866214370727539062e+01 1.623253345489501953e+00 -8.136234879493713379e-01 5.710536241531372070e-02 -2.269554436206817627e-01 6.292874217033386230e-01
3.159000000000000000e+03 5.118199920654296875e+01 2.059670448303222656e+00 -5.074543356895446777e-01 4.972841143608093262e-01 -3.051057225093245506e-03 -1.005534455180168152e-01
3.160000000000000000e+03 2.991635513305664062e+01 -1.590762901306152344e+01 -4.664665162563323975e-01 -5.503832548856735229e-02 -1.564514487981796265e-01 -5.009928345680236816e-01
3.161000000000000000e+03 3.786955642700195312e+01 -1.593470001220703125e+01 -5.409281253814697266e-01 -7.004453334957361221e-03 -1.643797755241394043e-01 -4.945934116840362549e-01
3.162000000000000000e+03 4.368912506103515625e+01 2.185899734497070312e+00 -7.721166610717773438e-01 1.506865024566650391e-01 -1.864290386438369751e-01 4.856247305870056152e-01
3.163000000000000000e+03 4.963851928710937500e+01 2.059262514114379883e+00 -6.030690670013427734e-01 3.741644620895385742e-01 -6.867138296365737915e-02 8.334089815616607666e-02
3.164000000000000000e+03 4.514745330810546875e+01 1.259849786758422852e+00 -9.181073904037475586e-01 1.388524472713470459e-01 -2.337764948606491089e-01 4.299964308738708496e-01
3.165000000000000000e+03 4.442218017578125000e+01 2.130010128021240234e+00 -7.700719237327575684e-01 1.660840809345245361e-01 -1.811963468790054321e-01 4.545947611331939697e-01
3.166000000000000000e+03 4.588483810424804688e+01 1.261468648910522461e+00 -9.085871577262878418e-01 1.537831276655197144e-01 -2.264412045478820801e-01 3.935098946094512939e-01
3.167000000000000000e+03 4.513730621337890625e+01 2.130471229553222656e+00 -7.598338127136230469e-01 1.814487427473068237e-01 -1.735155284404754639e-01 4.181573092937469482e-01
3.168000000000000000e+03 4.887108993530273438e+01 2.093257904052734375e+00 -6.395449638366699219e-01 3.277575373649597168e-01 -9.353623539209365845e-02 1.574430763721466064e-01
3.169000000000000000e+03 4.811458587646484375e+01 1.258070230484008789e+00 -8.488870859146118164e-01 2.198031544685363770e-01 -1.887251734733581543e-01 2.558142840862274170e-01
3.170000000000000000e+03 5.557240295410156250e+01 -1.455426979064941406e+01 -5.784451961517333984e-02 1.134259343147277832e+00 3.229244649410247803e-01 8.264999389648437500e-01
3.171000000000000000e+03 5.627205276489257812e+01 -1.448430919647216797e+01 1.609756611287593842e-03 1.333371043205261230e+00 4.004942476749420166e-01 9.940307736396789551e-01
3.172000000000000000e+03 3.003633880615234375e+01 -1.485834980010986328e+01 -5.502300262451171875e-01 -4.752945154905319214e-02 -1.793278455734252930e-01 -4.864723980426788330e-01
3.173000000000000000e+03 3.160099601745605469e+01 -1.779620742797851562e+01 -3.180853128433227539e-01 -5.940900743007659912e-02 -1.132482960820198059e-01 -5.246930122375488281e-01
3.174000000000000000e+03 3.297341156005859375e+01 1.307535409927368164e+00 -6.720126867294311523e-01 -1.028035767376422882e-02 -2.046879231929779053e-01 6.616721153259277344e-01
3.175000000000000000e+03 5.697936248779296875e+01 -1.366036128997802734e+01 -4.162804037332534790e-02 1.360932350158691406e+00 3.957913219928741455e-01 1.107608795166015625e+00
3.176000000000000000e+03 5.759573364257812500e+01 -1.441991519927978516e+01 8.502122759819030762e-02 1.853534698486328125e+00 5.815668106079101562e-01 1.357317090034484863e+00
3.177000000000000000e+03 5.759930038452148438e+01 -1.516703510284423828e+01 1.408404707908630371e-01 2.065737962722778320e+00 6.619735360145568848e-01 1.370055794715881348e+00
3.178000000000000000e+03 2.413237190246582031e+01 -1.620338058471679688e+01 -3.907853662967681885e-01 -5.631906166672706604e-02 -1.341313272714614868e-01 -4.408487677574157715e-01
3.179000000000000000e+03 5.627702331542968750e+01 1.684830307960510254e+00 -1.135653778910636902e-01 1.367215633392333984e+00 3.760950863361358643e-01 -1.050702214241027832e+00
3.180000000000000000e+03 5.738166427612304688e+01 1.232508659362792969e+00 -6.752811372280120850e-02 1.627696275711059570e+00 4.680504500865936279e-01 -1.296749114990234375e+00
3.181000000000000000e+03 5.768840789794921875e+01 4.397212266921997070e-01 -1.163398623466491699e-01 1.510416150093078613e+00 4.182229042053222656e-01 -1.325770139694213867e+00
3.182000000000000000e+03 5.785564804077148438e+01 8.578379154205322266e-01 -5.457145348191261292e-02 1.715543866157531738e+00 4.982917308807373047e-01 -1.429520010948181152e+00
3.183000000000000000e+03 5.699724578857421875e+01 1.873392462730407715e+00 -3.480751439929008484e-02 1.643732428550720215e+00 4.826774597167968750e-01 -1.248917460441589355e+00
3.184000000000000000e+03 2.874358177185058594e+01 -1.600745582580566406e+01 -4.524216055870056152e-01 -5.427779629826545715e-02 -1.520098298788070679e-01 -4.927079081535339355e-01
3.185000000000000000e+03 2.425588417053222656e+01 -1.486911392211914062e+01 -4.467879831790924072e-01 -3.646333515644073486e-02 -1.449753940105438232e-01 -4.322239458560943604e-01
3.186000000000000000e+03 2.485804557800292969e+01 -1.797296524047851562e+01 -3.027802407741546631e-01 -7.923791557550430298e-02 -1.146054416894912720e-01 -4.644967913627624512e-01
3.187000000000000000e+03 2.714182472229003906e+01 2.441600799560546875e+00 -4.199724793434143066e-01 -1.900273859500885010e-01 -1.829999536275863647e-01 6.478899121284484863e-01
3.188000000000000000e+03 2.802371406555175781e+01 3.942005038261413574e-01 -4.722538292407989502e-01 -1.133614853024482727e-01 -1.756845861673355103e-01 5.656073093414306641e-01
3.189000000000000000e+03 5.872994995117187500e+01 -1.446391868591308594e+01 1.299698799848556519e-01 2.408818721771240234e+00 7.616365551948547363e-01 1.712914228439331055e+00
3.190000000000000000e+03 5.447709655761718750e+01 2.153509855270385742e+00 -2.063737809658050537e-01 1.011959671974182129e+00 2.416757643222808838e-01 -6.564844250679016113e-01
3.191000000000000000e+03 4.015398025512695312e+01 2.131875514984130859e+00 -7.787935137748718262e-01 8.581741899251937866e-02 -2.078928351402282715e-01 6.087893247604370117e-01
3.192000000000000000e+03 7.080017089843750000e+01 -1.897638893127441406e+01 -8.319196701049804688e-01 8.319265365600585938e+00 2.246203660964965820e+00 -1.793704330921173096e-01
3.193000000000000000e+03 6.962350463867187500e+01 -2.200187301635742188e+01 -6.498397588729858398e-01 7.613793849945068359e+00 2.089186191558837891e+00 2.116064578294754028e-01
3.194000000000000000e+03 4.100850677490234375e+01 2.913316726684570312e+00 -6.701355576515197754e-01 1.259022951126098633e-01 -1.632699817419052124e-01 5.853693485260009766e-01
3.195000000000000000e+03 7.108609771728515625e+01 -1.425484085083007812e+01 -7.248230576515197754e-01 9.425961494445800781e+00 2.610341548919677734e+00 -8.889427185058593750e-01
3.196000000000000000e+03 2.659009552001953125e+01 -1.503925037384033203e+01 -4.790286123752593994e-01 -3.879728540778160095e-02 -1.553477644920349121e-01 -4.625057876110076904e-01
3.197000000000000000e+03 7.293513488769531250e+01 -6.937658786773681641e+00 1.982678532600402832e+00 8.405081748962402344e+00 3.116328001022338867e+00 -2.913473546504974365e-01
3.198000000000000000e+03 6.871128082275390625e+01 -7.163241386413574219e+00 4.978029727935791016e+00 1.190207958221435547e+01 5.064032554626464844e+00 -1.064741492271423340e+00
3.199000000000000000e+03 7.119458007812500000e+01 -1.494517683982849121e+00 2.466330677270889282e-01 9.867414474487304688e+00 3.034214258193969727e+00 1.418328166007995605e+00
3.200000000000000000e+03 7.188245391845703125e+01 -9.371532201766967773e-01 7.148750126361846924e-02 9.439344406127929688e+00 2.853249549865722656e+00 1.380666613578796387e+00
3.201000000000000000e+03 5.279046630859375000e+01 1.214286684989929199e+00 -5.491852760314941406e-01 5.469492077827453613e-01 -6.708203000016510487e-04 -2.570698857307434082e-01
3.202000000000000000e+03 7.206542205810546875e+01 2.646877288818359375e+00 -7.230163812637329102e-01 8.915728569030761719e+00 2.457813501358032227e+00 8.415430784225463867e-01
3.203000000000000000e+03 7.120610809326171875e+01 2.578788280487060547e+00 -8.646284937858581543e-01 9.116619110107421875e+00 2.475597381591796875e+00 6.692378520965576172e-01
3.204000000000000000e+03 7.180519104003906250e+01 -9.026086807250976562e+00 1.649715304374694824e+00 9.294023513793945312e+00 3.283121824264526367e+00 -1.291151404380798340e+00
3.205000000000000000e+03 7.248706054687500000e+01 -7.586348056793212891e+00 2.000484466552734375e+00 8.673129081726074219e+00 3.202084064483642578e+00 -5.883262753486633301e-01
3.206000000000000000e+03 2.644610404968261719e+01 7.060751914978027344e-01 -3.849425911903381348e-01 -1.730658710002899170e-01 -1.674025356769561768e-01 5.419797301292419434e-01
3.207000000000000000e+03 6.760410308837890625e+01 -3.033004045486450195e+00 2.515666484832763672e-01 1.359343242645263672e+01 4.153499603271484375e+00 7.788512706756591797e-01
3.208000000000000000e+03 6.915579986572265625e+01 -4.023892879486083984e+00 2.395116567611694336e+00 1.177255344390869141e+01 4.250300884246826172e+00 1.746776223182678223e+00
3.209000000000000000e+03 6.893260955810546875e+01 -6.154686450958251953e+00 5.150959491729736328e+00 1.142639160156250000e+01 4.973205566406250000e+00 3.165076076984405518e-01
3.210000000000000000e+03 3.325423049926757812e+01 -1.574014759063720703e+01 -5.272327065467834473e-01 -4.576253145933151245e-02 -1.718985736370086670e-01 -5.137728452682495117e-01
3.211000000000000000e+03 3.306639099121093750e+01 -1.471066188812255859e+01 -6.278069019317626953e-01 -4.275572672486305237e-02 -2.011687904596328735e-01 -4.981671571731567383e-01
3.212000000000000000e+03 4.659748077392578125e+01 2.164088249206542969e+00 -7.171653509140014648e-01 2.287425100803375244e-01 -1.465268433094024658e-01 3.272321820259094238e-01
3.213000000000000000e+03 4.662409210205078125e+01 1.265273213386535645e+00 -8.935379981994628906e-01 1.702628433704376221e-01 -2.169825583696365356e-01 3.509485721588134766e-01
3.214000000000000000e+03 2.460215568542480469e+01 7.498884201049804688e-01 -2.877027392387390137e-01 -2.330674678087234497e-01 -1.562310606241226196e-01 4.794288575649261475e-01
3.215000000000000000e+03 2.641484832763671875e+01 1.802079081535339355e+00 -3.807590007781982422e-01 -2.100338339805603027e-01 -1.772378534078598022e-01 5.961884260177612305e-01
3.216000000000000000e+03 6.983683013916015625e+01 5.752243995666503906e+00 -9.818807244300842285e-01 8.337373733520507812e+00 2.206647872924804688e+00 -7.193676382303237915e-02
3.217000000000000000e+03 3.410977172851562500e+01 1.653438568115234375e+00 -6.934273838996887207e-01 6.686702836304903030e-03 -2.060222029685974121e-01 6.701389551162719727e-01
3.218000000000000000e+03 6.805956268310546875e+01 9.642410278320312500e+00 -6.812225580215454102e-01 7.161631584167480469e+00 1.944122791290283203e+00 -5.700560212135314941e-01
3.219000000000000000e+03 6.831929779052734375e+01 1.137704086303710938e+01 -5.294308662414550781e-01 6.971237182617187500e+00 1.932541847229003906e+00 -5.245642662048339844e-01
3.220000000000000000e+03 6.949079895019531250e+01 -1.774530220031738281e+01 -1.017501831054687500e+00 8.523496627807617188e+00 2.251798391342163086e+00 6.121787428855895996e-02
3.221000000000000000e+03 7.147513580322265625e+01 -1.764393997192382812e+01 -8.263074159622192383e-01 8.599343299865722656e+00 2.331910610198974609e+00 -4.626068174839019775e-01
3.222000000000000000e+03 6.942339324951171875e+01 -2.509636688232421875e+01 -4.068568944931030273e-01 7.139075279235839844e+00 2.019665479660034180e+00 2.934863269329071045e-01
3.223000000000000000e+03 7.097380828857421875e+01 -1.257056427001953125e+01 -3.444893956184387207e-01 9.864905357360839844e+00 2.856124639511108398e+00 -1.177805185317993164e+00
3.224000000000000000e+03 7.076219940185546875e+01 -1.320532798767089844e+01 -5.587475299835205078e-01 9.791358947753906250e+00 2.769783496856689453e+00 -1.009240746498107910e+00
3.225000000000000000e+03 6.566368865966796875e+01 1.720028114318847656e+01 -1.075305491685867310e-01 5.810127258300781250e+00 1.710779070854187012e+00 -6.377249360084533691e-01
3.226000000000000000e+03 6.942770385742187500e+01 1.616752243041992188e+01 -2.110015451908111572e-01 6.724905490875244141e+00 1.954171180725097656e+00 -4.375505447387695312e-01
3.227000000000000000e+03 7.047348022460937500e+01 6.324520587921142578e+00 -8.736874461174011230e-01 8.198865890502929688e+00 2.197553396224975586e+00 2.910011075437068939e-02
3.228000000000000000e+03 6.998490142822265625e+01 7.121170043945312500e+00 -8.593279719352722168e-01 8.013816833496093750e+00 2.146346569061279297e+00 -1.223108321428298950e-01
3.229000000000000000e+03 6.858001708984375000e+01 1.321276760101318359e+01 -3.840101063251495361e-01 6.824069023132324219e+00 1.932017683982849121e+00 -4.948570430278778076e-01
3.230000000000000000e+03 7.076563262939453125e+01 -2.134757804870605469e+01 -6.528838872909545898e-01 7.881339073181152344e+00 2.168536663055419922e+00 -1.595795340836048126e-02
3.231000000000000000e+03 2.685834693908691406e+01 9.917179107666015625e+00 -4.211045503616333008e-01 -2.735422551631927490e-01 -2.083940505981445312e-01 7.134377360343933105e-01
3.232000000000000000e+03 6.778091430664062500e+01 -2.906348228454589844e+01 -1.178360208868980408e-01 6.491237163543701172e+00 1.912020325660705566e+00 3.681956231594085693e-01
3.233000000000000000e+03 6.915335845947265625e+01 -2.086425399780273438e+01 -7.644860148429870605e-01 7.750823974609375000e+00 2.095901250839233398e+00 2.500275969505310059e-01
3.234000000000000000e+03 2.747163581848144531e+01 6.463170528411865234e+00 -4.256225228309631348e-01 -2.327026277780532837e-01 -1.974975466728210449e-01 7.402611374855041504e-01
3.235000000000000000e+03 2.787398338317871094e+01 1.089290237426757812e+01 -3.823942840099334717e-01 -2.032996565103530884e-01 -1.757081896066665649e-01 6.872725486755371094e-01
3.236000000000000000e+03 2.202166938781738281e+01 2.238496780395507812e+01 5.686442833393812180e-03 -6.578697562217712402e-01 -1.956549882888793945e-01 3.060347437858581543e-01
3.237000000000000000e+03 1.268136501312255859e+01 -2.584843635559082031e+01 3.500681743025779724e-02 -3.657026588916778564e-01 -9.920874983072280884e-02 -2.881384193897247314e-01
3.238000000000000000e+03 6.871305084228515625e+01 2.204730033874511719e+01 1.434939913451671600e-02 6.303070545196533203e+00 1.895226001739501953e+00 -4.328768253326416016e-01
3.239000000000000000e+03 7.032579040527343750e+01 2.260602569580078125e+01 6.070840638130903244e-03 6.616884708404541016e+00 1.986886620521545410e+00 -3.644527494907379150e-01
3.240000000000000000e+03 6.532172393798828125e+01 -2.941042900085449219e+01 -2.465017512440681458e-02 5.800802707672119141e+00 1.732845783233642578e+00 4.720159173011779785e-01
3.241000000000000000e+03 6.492961883544921875e+01 -9.943183898925781250e+00 -5.670961737632751465e-01 1.143513298034667969e+01 3.260411262512207031e+00 3.828538417816162109e+00
3.242000000000000000e+03 6.317691040039062500e+01 -2.762708663940429688e+00 5.058730840682983398e-01 5.849381446838378906e+00 1.906576395034790039e+00 -4.212681293487548828e+00
3.243000000000000000e+03 6.536488342285156250e+01 -2.912914276123046875e+00 -8.541702032089233398e-01 1.278769302368164062e+01 3.580056905746459961e+00 -3.218841314315795898e+00
3.244000000000000000e+03 6.519382476806640625e+01 -9.773139953613281250e+00 -6.957728266716003418e-01 1.253507423400878906e+01 3.551790475845336914e+00 3.573546409606933594e+00
3.245000000000000000e+03 6.325614547729492188e+01 -9.825534820556640625e+00 6.922668814659118652e-01 5.838459014892578125e+00 1.959217786788940430e+00 4.371936321258544922e+00
3.246000000000000000e+03 6.163113784790039062e+01 -1.064941310882568359e+01 4.259811639785766602e-01 3.070990085601806641e+00 1.049091339111328125e+00 2.891963720321655273e+00
3.247000000000000000e+03 6.601625823974609375e+01 -9.425304412841796875e+00 -5.820950865745544434e-01 1.472477626800537109e+01 4.242804527282714844e+00 1.676984429359436035e+00
3.248000000000000000e+03 6.568470001220703125e+01 -9.619234085083007812e+00 -7.971526980400085449e-01 1.387977600097656250e+01 3.924787044525146484e+00 2.584878921508789062e+00
3.249000000000000000e+03 6.414871978759765625e+01 -1.006132125854492188e+01 -3.542044013738632202e-02 8.740736007690429688e+00 2.611594438552856445e+00 4.420273303985595703e+00
3.250000000000000000e+03 6.604872131347656250e+01 -3.316656827926635742e+00 -6.735222339630126953e-01 1.481097412109375000e+01 4.241235733032226562e+00 -1.650895595550537109e+00
3.251000000000000000e+03 7.093737030029296875e+01 -1.202635860443115234e+01 -1.079479083418846130e-01 1.000766849517822266e+01 2.969916105270385742e+00 -1.298158168792724609e+00
3.252000000000000000e+03 6.562561798095703125e+01 -2.869548559188842773e+00 -9.311096072196960449e-01 1.319662666320800781e+01 3.679655313491821289e+00 -2.692651271820068359e+00
3.253000000000000000e+03 6.536730957031250000e+01 -1.016937160491943359e+01 -8.788014650344848633e-01 1.222809314727783203e+01 3.404787302017211914e+00 3.069705247879028320e+00
3.254000000000000000e+03 6.638332366943359375e+01 -9.592144966125488281e+00 -5.148528814315795898e-01 1.460933876037597656e+01 4.228345870971679688e+00 9.121369719505310059e-01
3.255000000000000000e+03 6.741035461425781250e+01 -3.921202182769775391e+00 1.472994208335876465e+00 1.470323085784912109e+01 4.852867603302001953e+00 1.407147288322448730e+00
3.256000000000000000e+03 6.735561370849609375e+01 -9.440363883972167969e+00 4.360206723213195801e-01 1.429209041595458984e+01 4.418433189392089844e+00 -8.196759819984436035e-01
3.257000000000000000e+03 6.715676116943359375e+01 -3.526975154876708984e+00 4.804421663284301758e-01 1.464512634277343750e+01 4.537670612335205078e+00 6.860375404357910156e-01
3.258000000000000000e+03 6.691809844970703125e+01 -3.406113147735595703e+00 1.039835661649703979e-01 1.483950996398925781e+01 4.483047962188720703e+00 2.336094081401824951e-01
3.259000000000000000e+03 6.860717010498046875e+01 -6.916827678680419922e+00 5.551624298095703125e+00 1.202992057800292969e+01 5.274463653564453125e+00 -7.634955048561096191e-01
3.260000000000000000e+03 7.197889709472656250e+01 -7.640961647033691406e+00 2.256917715072631836e+00 8.996331214904785156e+00 3.375974655151367188e+00 -7.107433080673217773e-01
3.261000000000000000e+03 6.378616714477539062e+01 -1.010880661010742188e+01 2.121822386980056763e-01 7.551329612731933594e+00 2.329053640365600586e+00 4.420705795288085938e+00
3.262000000000000000e+03 6.787653350830078125e+01 -4.202833175659179688e+00 2.401554107666015625e+00 1.389112567901611328e+01 4.887804031372070312e+00 1.823101282119750977e+00
3.263000000000000000e+03 6.776463317871093750e+01 -3.377021074295043945e+00 7.692818641662597656e-01 1.372995758056640625e+01 4.349771976470947266e+00 1.181784152984619141e+00
3.264000000000000000e+03 6.860517883300781250e+01 -6.663853168487548828e+00 5.649069786071777344e+00 1.193262481689453125e+01 5.274508476257324219e+00 -4.389713406562805176e-01
3.265000000000000000e+03 7.122118377685546875e+01 -1.118573093414306641e+01 3.509182631969451904e-01 9.870047569274902344e+00 3.066289901733398438e+00 -1.466455221176147461e+00
3.266000000000000000e+03 6.821743011474609375e+01 -3.694341182708740234e+00 1.644684314727783203e+00 1.311892986297607422e+01 4.429084300994873047e+00 1.617973327636718750e+00
3.267000000000000000e+03 6.842951965332031250e+01 -7.994327068328857422e+00 3.827225446701049805e+00 1.273220634460449219e+01 4.967829704284667969e+00 -1.792200207710266113e+00
3.268000000000000000e+03 6.884427642822265625e+01 -7.999835491180419922e+00 3.731558561325073242e+00 1.196069431304931641e+01 4.707675933837890625e+00 -1.637091994285583496e+00
3.269000000000000000e+03 7.198115539550781250e+01 -2.857163429260253906e+00 1.081632494926452637e+00 9.314062118530273438e+00 3.118708372116088867e+00 1.426208496093750000e+00
3.270000000000000000e+03 6.930356597900390625e+01 -7.813470840454101562e+00 3.728804111480712891e+00 1.130445861816406250e+01 4.509978771209716797e+00 -1.367371201515197754e+00
3.271000000000000000e+03 6.130533218383789062e+01 -1.193987655639648438e+01 2.407499849796295166e-01 3.530814886093139648e+00 1.131469488143920898e+00 2.741541385650634766e+00
3.272000000000000000e+03 6.228727722167968750e+01 -1.064317226409912109e+01 4.806410670280456543e-01 4.099616050720214844e+00 1.374077200889587402e+00 3.410032510757446289e+00
3.273000000000000000e+03 7.181980133056640625e+01 -1.010857295989990234e+01 9.785934090614318848e-01 9.414218902587890625e+00 3.117843866348266602e+00 -1.452584981918334961e+00
3.274000000000000000e+03 6.922335815429687500e+01 -6.412351131439208984e+00 4.807866573333740234e+00 1.107445812225341797e+01 4.764697074890136719e+00 -6.055802479386329651e-02
3.275000000000000000e+03 6.940090179443359375e+01 -4.772318840026855469e+00 3.370563268661499023e+00 1.126855564117431641e+01 4.391735553741455078e+00 1.476197361946105957e+00
3.276000000000000000e+03 6.470613098144531250e+01 -2.655257701873779297e+00 -5.486667752265930176e-01 1.051663780212402344e+01 2.990391254425048828e+00 -4.013217926025390625e+00
3.277000000000000000e+03 7.224145507812500000e+01 -3.518242597579956055e+00 1.382376432418823242e+00 9.044231414794921875e+00 3.127982378005981445e+00 1.271596789360046387e+00
3.278000000000000000e+03 6.143235015869140625e+01 -1.339524865150451660e+00 2.322898507118225098e-01 3.405868530273437500e+00 1.091447472572326660e+00 -2.880439043045043945e+00
3.279000000000000000e+03 6.104373168945312500e+01 -1.712540268898010254e+00 2.387415021657943726e-01 2.683541536331176758e+00 8.766849040985107422e-01 -2.579494953155517578e+00
3.280000000000000000e+03 7.174816894531250000e+01 -8.251149177551269531e+00 2.078006982803344727e+00 9.264655113220214844e+00 3.402798652648925781e+00 -1.049991726875305176e+00
3.281000000000000000e+03 2.586729431152343750e+01 2.374366760253906250e+00 -3.629100918769836426e-01 -2.437862306833267212e-01 -1.820088922977447510e-01 6.081587672233581543e-01
3.282000000000000000e+03 2.771217918395996094e+01 1.849951028823852539e+00 -4.440843760967254639e-01 -1.561283022165298462e-01 -1.800637990236282349e-01 6.325578093528747559e-01
3.283000000000000000e+03 5.992694854736328125e+01 -4.706271290779113770e-01 8.075621724128723145e-02 2.368436574935913086e+00 7.347578406333923340e-01 -2.107833623886108398e+00
3.284000000000000000e+03 3.676344680786132812e+01 3.557327032089233398e+00 -5.926052927970886230e-01 6.695465743541717529e-02 -1.576952040195465088e-01 6.873944401741027832e-01
3.285000000000000000e+03 3.699096679687500000e+01 1.774078726768493652e+00 -7.626341581344604492e-01 4.486236721277236938e-02 -2.153315395116806030e-01 6.572869420051574707e-01
3.286000000000000000e+03 3.128450965881347656e+01 1.774916410446166992e+00 -5.910570025444030762e-01 -4.601702094078063965e-02 -1.911222040653228760e-01 6.722332835197448730e-01
3.287000000000000000e+03 2.876925468444824219e+01 4.311061859130859375e+00 -4.579741954803466797e-01 -1.429845243692398071e-01 -1.802876144647598267e-01 7.229961156845092773e-01
3.288000000000000000e+03 6.174136352539062500e+01 -1.229855442047119141e+01 1.472925096750259399e-01 4.212899208068847656e+00 1.308057546615600586e+00 2.924614191055297852e+00
3.289000000000000000e+03 3.211853027343750000e+01 1.499362587928771973e+00 -6.297286152839660645e-01 -2.774188108742237091e-02 -1.972411423921585083e-01 6.657762527465820312e-01
3.290000000000000000e+03 2.812974739074707031e+01 5.373896121978759766e+00 -4.344606697559356689e-01 -1.797751784324645996e-01 -1.842707544565200806e-01 7.369648814201354980e-01
3.291000000000000000e+03 5.931952285766601562e+01 -1.387753868103027344e+01 1.334505081176757812e-01 2.567822456359863281e+00 8.103818893432617188e-01 1.875968933105468750e+00
3.292000000000000000e+03 6.001350784301757812e+01 -1.343908309936523438e+01 1.360150128602981567e-01 2.923920869827270508e+00 9.179807305335998535e-01 2.133867025375366211e+00
3.293000000000000000e+03 4.903871154785156250e+01 -1.571741485595703125e+01 -3.507446646690368652e-01 3.719508647918701172e-01 6.361860316246747971e-03 -6.722172349691390991e-02
3.294000000000000000e+03 5.234469223022460938e+01 -1.504599666595458984e+01 -2.590468823909759521e-01 6.149323582649230957e-01 1.067656502127647400e-01 2.837888896465301514e-01
3.295000000000000000e+03 4.335936737060546875e+01 -1.667038345336914062e+01 -3.941971659660339355e-01 1.220180317759513855e-01 -8.165374398231506348e-02 -3.699849843978881836e-01
3.296000000000000000e+03 4.856027603149414062e+01 -1.491631507873535156e+01 -5.192970037460327148e-01 2.823979258537292480e-01 -7.106972485780715942e-02 -1.434537023305892944e-01
3.297000000000000000e+03 3.256815719604492188e+01 2.409536838531494141e+00 -5.990451574325561523e-01 -2.060886472463607788e-02 -1.858962029218673706e-01 6.982709765434265137e-01
3.298000000000000000e+03 5.087560653686523438e+01 -1.677053642272949219e+01 -6.016840785741806030e-02 6.672819256782531738e-01 1.821340620517730713e-01 2.043885439634323120e-01
3.299000000000000000e+03 3.766561889648437500e+01 2.022263288497924805e+00 -7.535447478294372559e-01 6.081185489892959595e-02 -2.078198641538619995e-01 6.547766327857971191e-01
3.300000000000000000e+03 3.451061630249023438e+01 -1.570925331115722656e+01 -5.422946810722351074e-01 -3.626744076609611511e-02 -1.735686361789703369e-01 -5.135122537612915039e-01
3.301000000000000000e+03 3.445162200927734375e+01 -1.704273605346679688e+01 -4.090766906738281250e-01 -3.397804871201515198e-02 -1.329164206981658936e-01 -5.215240716934204102e-01
3.302000000000000000e+03 3.574850082397460938e+01 2.332114696502685547e+00 -6.833015084266662598e-01 3.482318297028541565e-02 -1.945434957742691040e-01 6.835227608680725098e-01
3.303000000000000000e+03 3.734271240234375000e+01 1.137082457542419434e+00 -8.310182094573974609e-01 4.150474071502685547e-02 -2.368540465831756592e-01 6.334062814712524414e-01
3.304000000000000000e+03 5.037594223022460938e+01 2.897785902023315430e+00 -4.030458629131317139e-01 5.226436257362365723e-01 3.587932139635086060e-02 -4.463490471243858337e-02
3.305000000000000000e+03 4.963631057739257812e+01 2.912603378295898438e+00 -4.413630962371826172e-01 4.685252308845520020e-01 8.148640394210815430e-03 3.020259737968444824e-02
3.306000000000000000e+03 4.376880645751953125e+01 2.957261323928833008e+00 -6.445423960685729980e-01 1.948189437389373779e-01 -1.349170356988906860e-01 4.722096621990203857e-01
3.307000000000000000e+03 4.318940353393554688e+01 3.143452167510986328e+00 -6.255362033843994141e-01 1.818049699068069458e-01 -1.331193596124649048e-01 4.967618584632873535e-01
3.308000000000000000e+03 3.057045555114746094e+01 2.157435894012451172e+00 -5.471075177192687988e-01 -6.787675619125366211e-02 -1.844952851533889771e-01 6.812413334846496582e-01
3.309000000000000000e+03 4.888423538208007812e+01 2.969707489013671875e+00 -4.700411558151245117e-01 4.160212874412536621e-01 -1.620596088469028473e-02 1.139043793082237244e-01
3.310000000000000000e+03 4.439409637451171875e+01 3.007813215255737305e+00 -6.329205036163330078e-01 2.032810449600219727e-01 -1.288918405771255493e-01 4.380201697349548340e-01
3.311000000000000000e+03 5.112934875488281250e+01 2.919012308120727539e+00 -3.443122208118438721e-01 6.312794685363769531e-01 8.609016984701156616e-02 -1.566861867904663086e-01
3.312000000000000000e+03 4.163014602661132812e+01 2.311065196990966797e+00 -7.558681964874267578e-01 1.160579025745391846e-01 -1.919430792331695557e-01 5.647775530815124512e-01
3.313000000000000000e+03 5.609575271606445312e+01 2.590380191802978516e+00 -2.272673882544040680e-02 1.567417025566101074e+00 4.634070694446563721e-01 -1.066859841346740723e+00
3.314000000000000000e+03 5.527976226806640625e+01 2.445604324340820312e+00 -8.990150690078735352e-02 1.262419819831848145e+00 3.517554700374603271e-01 -8.600841164588928223e-01
3.315000000000000000e+03 7.311661529541015625e+01 -5.580213546752929688e+00 1.722333788871765137e+00 8.288335800170898438e+00 3.003200769424438477e+00 3.731867671012878418e-01
3.316000000000000000e+03 5.332020568847656250e+01 3.394127130508422852e+00 -1.248770207166671753e-01 1.014622449874877930e+00 2.669236361980438232e-01 -5.324193239212036133e-01
3.317000000000000000e+03 5.477784347534179688e+01 1.405150651931762695e+00 -2.982322871685028076e-01 9.157279133796691895e-01 1.852487027645111084e-01 -6.515131592750549316e-01
3.318000000000000000e+03 7.162667846679687500e+01 -2.179321289062500000e+00 6.677330732345581055e-01 9.585409164428710938e+00 3.075942516326904297e+00 1.471668720245361328e+00
3.319000000000000000e+03 5.487452316284179688e+01 -1.460065746307373047e+01 -1.205066666007041931e-01 9.590594768524169922e-01 2.515658438205718994e-01 6.828900575637817383e-01
3.320000000000000000e+03 5.696679306030273438e+01 -1.518363285064697266e+01 1.188110113143920898e-01 1.767603874206542969e+00 5.659244656562805176e-01 1.215833306312561035e+00
3.321000000000000000e+03 2.760579872131347656e+01 -1.610641670227050781e+01 -4.279746115207672119e-01 -5.221485346555709839e-02 -1.440568417310714722e-01 -4.862312376499176025e-01
3.322000000000000000e+03 3.112146377563476562e+01 -1.684832572937011719e+01 -4.016093611717224121e-01 -5.567770823836326599e-02 -1.371861249208450317e-01 -5.152099728584289551e-01
3.323000000000000000e+03 5.558273315429687500e+01 -1.542213153839111328e+01 5.683644115924835205e-02 1.344809055328369141e+00 4.204936325550079346e-01 9.105541706085205078e-01
3.324000000000000000e+03 5.630088424682617188e+01 -1.528870773315429688e+01 9.138225764036178589e-02 1.536620378494262695e+00 4.884007871150970459e-01 1.060355305671691895e+00
3.325000000000000000e+03 4.014215469360351562e+01 3.173631191253662109e+00 -6.464265584945678711e-01 1.207840666174888611e-01 -1.576927602291107178e-01 6.141537427902221680e-01
3.326000000000000000e+03 4.094656753540039062e+01 2.126753568649291992e+00 -7.869099378585815430e-01 1.003583520650863647e-01 -2.059654742479324341e-01 5.866369009017944336e-01
3.327000000000000000e+03 6.925836944580078125e+01 -5.806805610656738281e+00 4.531978130340576172e+00 1.109252357482910156e+01 4.687350749969482422e+00 6.424562335014343262e-01
3.328000000000000000e+03 5.862296676635742188e+01 7.926101684570312500e-01 -5.467219743877649307e-03 2.048984050750732422e+00 6.130550503730773926e-01 -1.673279643058776855e+00
3.329000000000000000e+03 5.892010498046875000e+01 2.554921209812164307e-01 -3.214147407561540604e-03 2.030983448028564453e+00 6.083307862281799316e-01 -1.753833293914794922e+00
3.330000000000000000e+03 5.683973693847656250e+01 2.717572212219238281e+00 1.286403369158506393e-02 1.816815376281738281e+00 5.489038228988647461e-01 -1.257079839706420898e+00
3.331000000000000000e+03 4.082307052612304688e+01 -1.449021816253662109e+01 -7.853764891624450684e-01 9.050903841853141785e-03 -2.328976839780807495e-01 -4.550757706165313721e-01
3.332000000000000000e+03 4.019194412231445312e+01 -1.589876365661621094e+01 -5.514493584632873535e-01 2.471143007278442383e-02 -1.580213755369186401e-01 -4.658987820148468018e-01
3.333000000000000000e+03 5.820931243896484375e+01 -1.521079730987548828e+01 1.378642171621322632e-01 2.399301528930664062e+00 7.611497640609741211e-01 1.560347318649291992e+00
3.334000000000000000e+03 5.819221878051757812e+01 -1.443952941894531250e+01 1.110929474234580994e-01 2.124499320983886719e+00 6.706776618957519531e-01 1.543338894844055176e+00
3.335000000000000000e+03 7.244087219238281250e+01 -7.072696685791015625e+00 2.222131967544555664e+00 8.655770301818847656e+00 3.263370513916015625e+00 -3.973755240440368652e-01
3.336000000000000000e+03 7.285354614257812500e+01 -6.046736240386962891e+00 1.947829484939575195e+00 8.406783103942871094e+00 3.106383800506591797e+00 1.581507027149200439e-01
3.337000000000000000e+03 2.761838912963867188e+01 -1.730650329589843750e+01 -3.528915345668792725e-01 -6.559596210718154907e-02 -1.255462467670440674e-01 -4.950358867645263672e-01
3.338000000000000000e+03 7.190982055664062500e+01 -4.354595184326171875e+00 1.886077404022216797e+00 9.128242492675781250e+00 3.304296016693115234e+00 1.080687880516052246e+00
3.339000000000000000e+03 4.731599807739257812e+01 4.169635295867919922e+00 -3.576369881629943848e-01 4.192352592945098877e-01 1.847948692739009857e-02 1.958250105381011963e-01
3.340000000000000000e+03 4.810531997680664062e+01 2.134272336959838867e+00 -6.635543107986450195e-01 2.859462797641754150e-01 -1.132824122905731201e-01 2.231789082288742065e-01
3.341000000000000000e+03 3.369724273681640625e+01 1.042248845100402832e+00 -7.147189378738403320e-01 1.716287806630134583e-04 -2.143641859292984009e-01 6.515625119209289551e-01
3.342000000000000000e+03 5.479905700683593750e+01 -1.550834941864013672e+01 1.373241376131772995e-02 1.153443932533264160e+00 3.501529097557067871e-01 7.453024387359619141e-01
3.343000000000000000e+03 6.967160034179687500e+01 -1.852200126647949219e+01 -9.575095176696777344e-01 8.340888977050781250e+00 2.215013980865478516e+00 5.682775378227233887e-02
3.344000000000000000e+03 6.988416290283203125e+01 -1.941035652160644531e+01 -8.762803673744201660e-01 8.149226188659667969e+00 2.181883811950683594e+00 6.240992620587348938e-02
3.345000000000000000e+03 4.555762863159179688e+01 -1.476095962524414062e+01 -6.705186963081359863e-01 1.206352561712265015e-01 -1.649650335311889648e-01 -3.298816680908203125e-01
3.346000000000000000e+03 4.629170227050781250e+01 -1.534086227416992188e+01 -5.430197715759277344e-01 1.809015274047851562e-01 -1.086354777216911316e-01 -2.749364674091339111e-01
3.347000000000000000e+03 5.122972106933593750e+01 -1.577731132507324219e+01 -1.951207965612411499e-01 5.911782979965209961e-01 1.188172623515129089e-01 1.826671808958053589e-01
3.348000000000000000e+03 4.585944747924804688e+01 2.149064302444458008e+00 -7.415561676025390625e-01 2.047039121389389038e-01 -1.610556840896606445e-01 3.759762644767761230e-01
3.349000000000000000e+03 3.979717254638671875e+01 -1.666817092895507812e+01 -4.379877150058746338e-01 2.923375181853771210e-02 -1.226261854171752930e-01 -4.667530655860900879e-01
3.350000000000000000e+03 6.920357513427734375e+01 5.074820995330810547e+00 -1.070570468902587891e+00 8.448997497558593750e+00 2.213528156280517578e+00 -2.048223316669464111e-01
3.351000000000000000e+03 7.015973663330078125e+01 3.291128158569335938e+00 -1.038266062736511230e+00 9.039321899414062500e+00 2.400316715240478516e+00 2.790331542491912842e-01
3.352000000000000000e+03 4.732694244384765625e+01 3.125211715698242188e+00 -5.219675898551940918e-01 3.254056572914123535e-01 -5.896857008337974548e-02 2.395821213722229004e-01
3.353000000000000000e+03 7.129989624023437500e+01 1.675052881240844727e+00 -7.528734803199768066e-01 9.315663337707519531e+00 2.568836927413940430e+00 8.532232642173767090e-01
3.354000000000000000e+03 6.739992523193359375e+01 -2.728106975555419922e+00 -2.941184639930725098e-01 1.343251132965087891e+01 3.941517829895019531e+00 2.797253429889678955e-01
3.355000000000000000e+03 7.055413818359375000e+01 -1.622949028015136719e+01 -9.488820433616638184e-01 8.962945938110351562e+00 2.404219150543212891e+00 -4.191314876079559326e-01
3.356000000000000000e+03 7.155493927001953125e+01 -1.066402530670166016e+01 6.310828328132629395e-01 9.664327621459960938e+00 3.088623285293579102e+00 -1.488581538200378418e+00
3.357000000000000000e+03 7.041975402832031250e+01 -3.273590326309204102e+00 1.450247049331665039e+00 1.049748897552490234e+01 3.584320783615112305e+00 1.554869413375854492e+00
3.358000000000000000e+03 7.027111053466796875e+01 -1.738768005371093750e+01 -9.690470099449157715e-01 8.683115005493164062e+00 2.314220428466796875e+00 -2.072059810161590576e-01
3.359000000000000000e+03 7.058384704589843750e+01 1.609188437461853027e+00 -8.776114583015441895e-01 9.517055511474609375e+00 2.591833353042602539e+00 6.790747642517089844e-01
3.360000000000000000e+03 5.206749725341796875e+01 -1.598267745971679688e+01 -1.059598475694656372e-01 7.249158024787902832e-01 1.856867969036102295e-01 3.092015087604522705e-01
3.361000000000000000e+03 2.669728088378906250e+01 3.743450164794921875e+00 -4.076462090015411377e-01 -2.322308421134948730e-01 -1.919631063938140869e-01 6.851096749305725098e-01
3.362000000000000000e+03 2.644787216186523438e+01 2.932533740997314453e+00 -3.951319158077239990e-01 -2.290456295013427734e-01 -1.872532665729522705e-01 6.514293551445007324e-01
3.363000000000000000e+03 7.102750396728515625e+01 3.523133277893066406e+00 -9.278808236122131348e-01 8.906080245971679688e+00 2.393460035324096680e+00 4.741083979606628418e-01
3.364000000000000000e+03 6.979585266113281250e+01 4.206381797790527344e+00 -1.065077543258666992e+00 8.759510993957519531e+00 2.308329820632934570e+00 4.777656495571136475e-02
3.365000000000000000e+03 6.846109008789062500e+01 -8.654265403747558594e+00 2.403226375579833984e+00 1.275924682617187500e+01 4.548741817474365234e+00 -1.766038298606872559e+00
3.366000000000000000e+03 6.941080474853515625e+01 7.951837539672851562e+00 -8.188450932502746582e-01 7.753590106964111328e+00 2.080423593521118164e+00 -2.973192334175109863e-01
3.367000000000000000e+03 6.917546081542968750e+01 6.492197990417480469e+00 -9.662483334541320801e-01 8.057054519653320312e+00 2.127241849899291992e+00 -3.025803565979003906e-01
3.368000000000000000e+03 7.062310028076171875e+01 7.276709675788879395e-01 -7.173272371292114258e-01 9.760530471801757812e+00 2.712961196899414062e+00 8.795860409736633301e-01
3.369000000000000000e+03 6.784555816650390625e+01 -9.163545608520507812e+00 1.307793498039245605e+00 1.364907646179199219e+01 4.487061023712158203e+00 -1.435303092002868652e+00
3.370000000000000000e+03 7.156240081787109375e+01 -1.180289649963378906e+01 1.026833429932594299e-01 9.640614509582519531e+00 2.922989368438720703e+00 -1.406453132629394531e+00
3.371000000000000000e+03 3.822323608398437500e+01 2.923654794692993164e+00 -6.590743064880371094e-01 7.481195777654647827e-02 -1.752787083387374878e-01 6.566130518913269043e-01
3.372000000000000000e+03 6.997557830810546875e+01 -1.457902240753173828e+01 -9.655856490135192871e-01 9.603145599365234375e+00 2.591268062591552734e+00 -5.007278323173522949e-01
3.373000000000000000e+03 6.994159698486328125e+01 -1.678572845458984375e+01 -1.024200558662414551e+00 8.850630760192871094e+00 2.347929000854492188e+00 -1.767024695873260498e-01
3.374000000000000000e+03 3.831019973754882812e+01 2.291146516799926758e+00 -7.425732612609863281e-01 6.617011129856109619e-02 -2.029209434986114502e-01 6.494920253753662109e-01
3.375000000000000000e+03 3.890076828002929688e+01 8.897476196289062500e-01 -9.030591845512390137e-01 5.341442301869392395e-02 -2.548934221267700195e-01 6.081366539001464844e-01
3.376000000000000000e+03 3.206818389892578125e+01 -1.679116249084472656e+01 -4.160257875919342041e-01 -4.999807104468345642e-02 -1.398071646690368652e-01 -5.232325792312622070e-01
3.377000000000000000e+03 3.314667129516601562e+01 -1.696652030944824219e+01 -4.098769724369049072e-01 -4.566893726587295532e-02 -1.366637647151947021e-01 -5.249201655387878418e-01
3.378000000000000000e+03 6.710643005371093750e+01 8.853503227233886719e+00 -7.334142923355102539e-01 7.042317390441894531e+00 1.892670989036560059e+00 -7.491642236709594727e-01
3.379000000000000000e+03 2.612120437622070312e+01 1.857983970642089844e+01 -1.476653218269348145e-01 -3.204067051410675049e-01 -1.404216140508651733e-01 4.001070559024810791e-01
3.380000000000000000e+03 3.387063598632812500e+01 2.766970396041870117e+00 -6.133141517639160156e-01 5.187114235013723373e-03 -1.824381202459335327e-01 7.021937966346740723e-01
3.381000000000000000e+03 2.809186172485351562e+01 7.215252876281738281e+00 -4.203439056873321533e-01 -1.909727007150650024e-01 -1.833949834108352661e-01 7.461081147193908691e-01
3.382000000000000000e+03 2.691672134399414062e+01 1.190899467468261719e+01 -3.986721932888031006e-01 -2.690252661705017090e-01 -2.003092318773269653e-01 6.536031365394592285e-01
3.383000000000000000e+03 6.747250366210937500e+01 1.241471290588378906e+01 -4.318308532238006592e-01 6.640159130096435547e+00 1.862498521804809570e+00 -6.074930429458618164e-01
3.384000000000000000e+03 6.708281707763671875e+01 -2.320387077331542969e+01 -5.256937146186828613e-01 6.832664966583251953e+00 1.892091393470764160e+00 5.863082408905029297e-01
3.385000000000000000e+03 6.828414154052734375e+01 -2.560328292846679688e+01 -3.723862469196319580e-01 6.846935272216796875e+00 1.942364692687988281e+00 4.143836796283721924e-01
3.386000000000000000e+03 6.796092224121093750e+01 2.388604354858398438e+01 5.488631874322891235e-02 6.074935436248779297e+00 1.838946461677551270e+00 -4.334464967250823975e-01
3.387000000000000000e+03 6.946997833251953125e+01 2.051541328430175781e+01 -4.099096357822418213e-02 6.516816616058349609e+00 1.942747712135314941e+00 -4.215854704380035400e-01
3.388000000000000000e+03 2.711604690551757812e+01 5.564179897308349609e+00 -4.186970591545104980e-01 -2.365455776453018188e-01 -1.965727806091308594e-01 7.292886972427368164e-01
3.389000000000000000e+03 6.768048095703125000e+01 -2.447260284423828125e+01 -4.418689608573913574e-01 6.844048023223876953e+00 1.920653700828552246e+00 4.837624728679656982e-01
3.390000000000000000e+03 6.740385437011718750e+01 -2.649631881713867188e+01 -2.751599550247192383e-01 6.554828643798828125e+00 1.883900642395019531e+00 4.584926664829254150e-01
3.391000000000000000e+03 3.103792381286621094e+01 -1.585311508178710938e+01 -4.842834770679473877e-01 -5.182746052742004395e-02 -1.608332842588424683e-01 -5.099608898162841797e-01
3.392000000000000000e+03 3.211548614501953125e+01 -1.579907798767089844e+01 -5.016019940376281738e-01 -4.587216302752494812e-02 -1.642422378063201904e-01 -5.117473006248474121e-01
3.393000000000000000e+03 1.284849739074707031e+01 -2.909258270263671875e+01 1.035559773445129395e-01 -3.778204023838043213e-01 -8.227932453155517578e-02 -2.618935108184814453e-01
3.394000000000000000e+03 6.960064697265625000e+01 1.384871768951416016e+01 -3.414643704891204834e-01 6.946109771728515625e+00 1.981393575668334961e+00 -4.070666432380676270e-01
3.395000000000000000e+03 2.309198188781738281e+01 -2.236857032775878906e+01 -7.137007266283035278e-02 -1.697179377079010010e-01 -7.232639938592910767e-02 -4.099262952804565430e-01
3.396000000000000000e+03 2.445854759216308594e+01 -1.933854866027832031e+01 -2.309346646070480347e-01 -1.038823351263999939e-01 -1.004450991749763489e-01 -4.529772102832794189e-01
3.397000000000000000e+03 2.654002571105957031e+01 -1.605051612854003906e+01 -4.191402196884155273e-01 -5.201054736971855164e-02 -1.413452327251434326e-01 -4.727516472339630127e-01
3.398000000000000000e+03 6.688291931152343750e+01 1.587696075439453125e+01 -2.049276679754257202e-01 6.190593242645263672e+00 1.795699715614318848e+00 -6.024693846702575684e-01
3.399000000000000000e+03 6.782740020751953125e+01 1.449397277832031250e+01 -2.904115021228790283e-01 6.519626140594482422e+00 1.868764400482177734e+00 -5.533562302589416504e-01
3.400000000000000000e+03 2.232107162475585938e+01 1.832801628112792969e+01 -3.080449402332305908e-01 -6.647561788558959961e-01 -2.918403446674346924e-01 4.082232713699340820e-01
3.401000000000000000e+03 6.852893829345703125e+01 7.272133350372314453e+00 -9.036217927932739258e-01 7.738400459289550781e+00 2.050433635711669922e+00 -4.721375405788421631e-01
3.402000000000000000e+03 2.449515342712402344e+01 2.212263488769531250e+01 4.442575201392173767e-02 -4.462844133377075195e-01 -1.205575987696647644e-01 3.002657592296600342e-01
3.403000000000000000e+03 2.070008468627929688e+01 2.306730079650878906e+01 3.066514059901237488e-02 -7.376705408096313477e-01 -2.121016234159469604e-01 3.104324340820312500e-01
3.404000000000000000e+03 1.915669059753417969e+01 2.508345413208007812e+01 1.596103459596633911e-01 -7.762745618820190430e-01 -1.849992573261260986e-01 3.204160630702972412e-01
3.405000000000000000e+03 2.353706741333007812e+01 -1.727579307556152344e+01 -3.319662809371948242e-01 -7.813472300767898560e-02 -1.230302974581718445e-01 -4.395128488540649414e-01
3.406000000000000000e+03 6.501412200927734375e+01 -2.533334016799926758e+00 -7.878415584564208984e-01 1.125931835174560547e+01 3.141443014144897461e+00 -3.556953668594360352e+00
3.407000000000000000e+03 6.501553344726562500e+01 -1.029480934143066406e+01 -7.240471243858337402e-01 1.118901157379150391e+01 3.139489412307739258e+00 3.523426055908203125e+00
3.408000000000000000e+03 6.371721267700195312e+01 -2.734846353530883789e+00 2.015936523675918579e-01 7.340461730957031250e+00 2.262616634368896484e+00 -4.442094802856445312e+00
3.409000000000000000e+03 6.344193649291992188e+01 -1.067682170867919922e+01 1.021195352077484131e-01 6.758082389831542969e+00 2.058060646057128906e+00 4.004580974578857422e+00
3.410000000000000000e+03 6.202628707885742188e+01 -1.101700592041015625e+01 3.819977045059204102e-01 3.973160743713378906e+00 1.306547522544860840e+00 3.214645862579345703e+00
3.411000000000000000e+03 6.620987701416015625e+01 -3.032974958419799805e+00 -7.901843786239624023e-01 1.425663089752197266e+01 4.039933681488037109e+00 -1.404415845870971680e+00
3.412000000000000000e+03 6.179047012329101562e+01 -9.640098214149475098e-01 1.378984302282333374e-01 4.102554321289062500e+00 1.272135853767395020e+00 -3.041899204254150391e+00
3.413000000000000000e+03 6.593740844726562500e+01 -9.648469924926757812e+00 -8.281115293502807617e-01 1.422605228424072266e+01 4.019381999969482422e+00 2.013855695724487305e+00
3.414000000000000000e+03 6.668131256103515625e+01 -3.277269363403320312e+00 -2.157991528511047363e-01 1.477766418457031250e+01 4.368559837341308594e+00 -2.648774683475494385e-01
3.415000000000000000e+03 6.560005950927734375e+01 -2.577962160110473633e+00 -1.007894515991210938e+00 1.259216976165771484e+01 3.475282430648803711e+00 -2.716230630874633789e+00
3.416000000000000000e+03 6.285912322998046875e+01 -2.351493120193481445e+00 3.763009607791900635e-01 5.124867916107177734e+00 1.650350570678710938e+00 -3.873435735702514648e+00
3.417000000000000000e+03 6.017570877075195312e+01 6.936252117156982422e-01 4.716410487890243530e-02 3.055182933807373047e+00 9.307041168212890625e-01 -2.247365474700927734e+00
3.418000000000000000e+03 6.572136688232421875e+01 -1.001111698150634766e+01 -8.906421661376953125e-01 1.316200351715087891e+01 3.681408643722534180e+00 2.471168756484985352e+00
3.419000000000000000e+03 6.812985229492187500e+01 -9.533897399902343750e+00 9.696919918060302734e-01 1.309545612335205078e+01 4.219544410705566406e+00 -1.373176336288452148e+00
3.420000000000000000e+03 6.761231231689453125e+01 -9.349099159240722656e+00 8.531519770622253418e-01 1.391848278045654297e+01 4.431490421295166016e+00 -1.169826984405517578e+00
3.421000000000000000e+03 6.168236160278320312e+01 -1.146264553070068359e+01 3.126045763492584229e-01 3.754340648651123047e+00 1.220083594322204590e+00 2.984036922454833984e+00
3.422000000000000000e+03 6.677146148681640625e+01 -2.549321174621582031e+00 -7.527615427970886230e-01 1.349395751953125000e+01 3.822358846664428711e+00 -6.066153049468994141e-01
3.423000000000000000e+03 6.887297058105468750e+01 -7.678505420684814453e+00 4.200378894805908203e+00 1.180282688140869141e+01 4.800961971282958984e+00 -1.450175523757934570e+00
3.424000000000000000e+03 6.948664855957031250e+01 -6.682053089141845703e+00 4.500475406646728516e+00 1.084200668334960938e+01 4.602744579315185547e+00 -2.945962846279144287e-01
3.425000000000000000e+03 6.895549774169921875e+01 -1.190503692626953125e+01 -6.319794654846191406e-01 1.107968330383300781e+01 3.134311199188232422e+00 -6.757861971855163574e-01
3.426000000000000000e+03 6.216481399536132812e+01 -1.324043631553649902e+00 1.691354364156723022e-01 4.447376251220703125e+00 1.384953498840332031e+00 -3.273786544799804688e+00
3.427000000000000000e+03 6.885791015625000000e+01 -8.303125381469726562e+00 3.111850976943969727e+00 1.207722663879394531e+01 4.556723594665527344e+00 -1.765056729316711426e+00
3.428000000000000000e+03 6.924107360839843750e+01 -7.023887634277343750e+00 4.558075428009033203e+00 1.115866279602050781e+01 4.715021610260009766e+00 -7.011533379554748535e-01
3.429000000000000000e+03 6.820034027099609375e+01 -3.218542575836181641e+00 8.817110657691955566e-01 1.300169181823730469e+01 4.165020942687988281e+00 1.352257966995239258e+00
3.430000000000000000e+03 6.914987182617187500e+01 -5.177260398864746094e+00 4.069570541381835938e+00 1.147164726257324219e+01 4.662365436553955078e+00 1.335136771202087402e+00
3.431000000000000000e+03 6.851473999023437500e+01 -4.426086425781250000e+00 3.088980436325073242e+00 1.268861007690429688e+01 4.733276844024658203e+00 1.828758358955383301e+00
3.432000000000000000e+03 7.056566619873046875e+01 -2.082898855209350586e+00 5.532022118568420410e-01 1.039925670623779297e+01 3.285737752914428711e+00 1.478880882263183594e+00
3.433000000000000000e+03 6.885563659667968750e+01 -4.934672832489013672e+00 3.980744600296020508e+00 1.196492576599121094e+01 4.783700942993164062e+00 1.598307251930236816e+00
3.434000000000000000e+03 7.094827270507812500e+01 -2.698520660400390625e+00 1.007978081703186035e+00 1.009976482391357422e+01 3.332322835922241211e+00 1.517356753349304199e+00
3.435000000000000000e+03 7.040918731689453125e+01 -1.017886924743652344e+01 8.883969783782958984e-01 1.048554515838623047e+01 3.412182569503784180e+00 -1.533707857131958008e+00
3.436000000000000000e+03 6.965984344482421875e+01 -5.367724895477294922e+00 3.840588808059692383e+00 1.073534107208251953e+01 4.372778892517089844e+00 9.729871749877929688e-01
3.437000000000000000e+03 6.983432769775390625e+01 -6.833485603332519531e+00 3.978267908096313477e+00 1.047547435760498047e+01 4.336122512817382812e+00 -4.405219256877899170e-01
3.438000000000000000e+03 6.961986541748046875e+01 -6.093004226684570312e+00 4.285084247589111328e+00 1.067435646057128906e+01 4.487832069396972656e+00 3.135583698749542236e-01
3.439000000000000000e+03 7.233726501464843750e+01 -6.500703334808349609e+00 2.289833545684814453e+00 8.683846473693847656e+00 3.292104005813598633e+00 -8.589068055152893066e-02
3.440000000000000000e+03 6.208328247070312500e+01 -1.187189960479736328e+01 1.826859712600708008e-01 4.526409626007080078e+00 1.412728786468505859e+00 3.147677659988403320e+00
3.441000000000000000e+03 6.350007247924804688e+01 -1.114605617523193359e+01 -9.366413205862045288e-02 6.899753093719482422e+00 2.041826725006103516e+00 3.763323307037353516e+00
3.442000000000000000e+03 6.099404144287109375e+01 -1.248078918457031250e+01 1.828896999359130859e-01 3.433891296386718750e+00 1.085034370422363281e+00 2.581984043121337891e+00
3.443000000000000000e+03 3.015302658081054688e+01 3.094542980194091797e+00 -5.130227208137512207e-01 -8.511714637279510498e-02 -1.794419586658477783e-01 7.034847736358642578e-01
3.444000000000000000e+03 2.908919143676757812e+01 5.171877861022949219e+00 -4.499828517436981201e-01 -1.359004229307174683e-01 -1.757649779319763184e-01 7.382581830024719238e-01
3.445000000000000000e+03 3.553547668457031250e+01 4.696186542510986328e+00 -5.037859678268432617e-01 5.702503398060798645e-02 -1.340282857418060303e-01 7.078695893287658691e-01
3.446000000000000000e+03 3.509304809570312500e+01 2.911625862121582031e+00 -6.217834949493408203e-01 2.862297371029853821e-02 -1.779481470584869385e-01 7.006050944328308105e-01
3.447000000000000000e+03 5.357860183715820312e+01 -1.590783405303955078e+01 -1.133320014923810959e-02 9.739232063293457031e-01 2.887769937515258789e-01 5.564812421798706055e-01
3.448000000000000000e+03 5.762270355224609375e+01 2.122922420501708984e+00 1.656410098075866699e-02 1.997179985046386719e+00 6.041232347488403320e-01 -1.421798348426818848e+00
3.449000000000000000e+03 5.820040893554687500e+01 1.177226781845092773e+00 -2.658319845795631409e-02 1.971297383308410645e+00 5.834142565727233887e-01 -1.552849054336547852e+00
3.450000000000000000e+03 5.172322463989257812e+01 -1.818048667907714844e+01 1.434038877487182617e-01 9.697145819664001465e-01 3.339355289936065674e-01 3.697501122951507568e-01
3.451000000000000000e+03 3.336277389526367188e+01 2.043815374374389648e+00 -6.429482102394104004e-01 -3.942140378057956696e-03 -1.940671056509017944e-01 6.863098144531250000e-01
3.452000000000000000e+03 3.515754318237304688e+01 1.882603406906127930e+00 -7.061995863914489746e-01 2.142057195305824280e-02 -2.054337114095687866e-01 6.751223206520080566e-01
3.453000000000000000e+03 5.596171188354492188e+01 3.483761787414550781e+00 2.382672578096389771e-02 1.689925551414489746e+00 5.141257047653198242e-01 -1.075810670852661133e+00
3.454000000000000000e+03 5.397817993164062500e+01 2.818534612655639648e+00 -1.458331495523452759e-01 1.038718581199645996e+00 2.678656280040740967e-01 -6.142168641090393066e-01
3.455000000000000000e+03 3.500549316406250000e+01 4.049085617065429688e+00 -5.463711619377136230e-01 3.576113283634185791e-02 -1.531829982995986938e-01 7.132154703140258789e-01
3.456000000000000000e+03 4.964469528198242188e+01 3.806338310241699219e+00 -2.937182188034057617e-01 5.753536224365234375e-01 8.449062705039978027e-02 -1.878124289214611053e-02
3.457000000000000000e+03 4.359610366821289062e+01 3.649550199508666992e+00 -5.426124930381774902e-01 2.206873744726181030e-01 -9.657753258943557739e-02 4.673914909362792969e-01
3.458000000000000000e+03 5.103480911254882812e+01 3.766664266586303711e+00 -2.125136554241180420e-01 7.127048969268798828e-01 1.500573605298995972e-01 -1.869321465492248535e-01
3.459000000000000000e+03 4.215890502929687500e+01 2.891540288925170898e+00 -6.877118945121765137e-01 1.442260444164276123e-01 -1.630457490682601929e-01 5.449755787849426270e-01
3.460000000000000000e+03 4.145463943481445312e+01 3.546328544616699219e+00 -6.080132126808166504e-01 1.552089005708694458e-01 -1.358412951231002808e-01 5.666152238845825195e-01
3.461000000000000000e+03 7.280059051513671875e+01 -6.468311309814453125e+00 2.019768953323364258e+00 8.447369575500488281e+00 3.140141725540161133e+00 -4.627409949898719788e-02
3.462000000000000000e+03 7.282098388671875000e+01 -4.771846294403076172e+00 1.766950607299804688e+00 8.531225204467773438e+00 3.089452505111694336e+00 8.044619560241699219e-01
3.463000000000000000e+03 7.164691925048828125e+01 -3.861007690429687500e+00 1.749711155891418457e+00 9.391514778137207031e+00 3.342367649078369141e+00 1.278108716011047363e+00
3.464000000000000000e+03 7.134412384033203125e+01 -3.285454034805297852e+00 1.436914205551147461e+00 9.712498664855957031e+00 3.344823837280273438e+00 1.460627436637878418e+00
3.465000000000000000e+03 5.511589813232421875e+01 -1.767068672180175781e+01 2.254507094621658325e-01 1.671236157417297363e+00 5.690060257911682129e-01 9.064860343933105469e-01
3.466000000000000000e+03 7.256092071533203125e+01 -5.374081134796142578e+00 1.984576463699340820e+00 8.607295036315917969e+00 3.177561521530151367e+00 5.277588367462158203e-01
3.467000000000000000e+03 4.507333755493164062e+01 3.052573919296264648e+00 -6.090912818908691406e-01 2.340778857469558716e-01 -1.125040203332901001e-01 4.025980532169342041e-01
3.468000000000000000e+03 4.811275863647460938e+01 3.068251132965087891e+00 -4.976391494274139404e-01 3.591975569725036621e-01 -4.153247550129890442e-02 1.774089336395263672e-01
3.469000000000000000e+03 5.788490295410156250e+01 1.589462757110595703e+00 -7.980845868587493896e-03 1.977374196052551270e+00 5.908179879188537598e-01 -1.469732761383056641e+00
3.470000000000000000e+03 5.644514083862304688e+01 -1.610098457336425781e+01 1.581759154796600342e-01 1.765590548515319824e+00 5.771299600601196289e-01 1.132707476615905762e+00
3.471000000000000000e+03 5.704710388183593750e+01 -1.587818908691406250e+01 1.567303836345672607e-01 1.956465363502502441e+00 6.339587569236755371e-01 1.248195886611938477e+00
3.472000000000000000e+03 2.785654067993164062e+01 4.496601104736328125e+00 -4.355061650276184082e-01 -1.868307590484619141e-01 -1.867010742425918579e-01 7.180973887443542480e-01
3.473000000000000000e+03 2.845368957519531250e+01 2.329805612564086914e+00 -4.700749218463897705e-01 -1.362466067075729370e-01 -1.818964630365371704e-01 6.647298932075500488e-01
3.474000000000000000e+03 5.189936447143554688e+01 2.979809999465942383e+00 -2.800529003143310547e-01 6.862195134162902832e-01 1.218499839305877686e-01 -2.697761952877044678e-01
3.475000000000000000e+03 5.065723037719726562e+01 4.494749069213867188e+00 -1.476635038852691650e-01 7.422178387641906738e-01 1.783662885427474976e-01 -1.841399818658828735e-01
3.476000000000000000e+03 5.842697143554687500e+01 1.602848291397094727e+00 4.947763402014970779e-03 2.230986118316650391e+00 6.707801222801208496e-01 -1.628607988357543945e+00
3.477000000000000000e+03 5.960408401489257812e+01 9.890673160552978516e-01 3.353985026478767395e-02 2.715888500213623047e+00 8.248285055160522461e-01 -2.045497894287109375e+00
3.478000000000000000e+03 5.682055282592773438e+01 3.632654190063476562e+00 5.302456766366958618e-02 2.042980909347534180e+00 6.288016438484191895e-01 -1.257230520248413086e+00
3.479000000000000000e+03 5.759162521362304688e+01 -1.586602020263671875e+01 1.678417623043060303e-01 2.209582328796386719e+00 7.132272124290466309e-01 1.389502406120300293e+00
3.480000000000000000e+03 5.878255844116210938e+01 -1.521002006530761719e+01 1.259741634130477905e-01 2.650531053543090820e+00 8.329515457153320312e-01 1.723525404930114746e+00
3.481000000000000000e+03 3.455746078491210938e+01 2.317522287368774414e+00 -6.592025756835937500e-01 1.585951820015907288e-02 -1.930029243230819702e-01 6.916758418083190918e-01
3.482000000000000000e+03 3.937151718139648438e+01 1.933476448059082031e+00 -7.863235473632812500e-01 7.581830024719238281e-02 -2.131515741348266602e-01 6.218838095664978027e-01
3.483000000000000000e+03 5.368309020996093750e+01 2.043800115585327148e+00 -2.984735071659088135e-01 8.147655725479125977e-01 1.548876166343688965e-01 -4.794675111770629883e-01
3.484000000000000000e+03 7.117071533203125000e+01 -9.793508529663085938e+00 1.213476538658142090e+00 9.815299987792968750e+00 3.308632850646972656e+00 -1.468471050262451172e+00
3.485000000000000000e+03 7.141365051269531250e+01 -8.529232978820800781e+00 2.124534368515014648e+00 9.517432212829589844e+00 3.492589950561523438e+00 -1.231642007827758789e+00
3.486000000000000000e+03 7.071552276611328125e+01 -2.106467783451080322e-01 -4.092526733875274658e-01 9.961435317993164062e+00 2.865654706954956055e+00 1.113364458084106445e+00
3.487000000000000000e+03 6.867713165283203125e+01 -3.634768009185791016e+00 1.690280795097351074e+00 1.243356323242187500e+01 4.237153053283691406e+00 1.653040528297424316e+00
3.488000000000000000e+03 6.845904541015625000e+01 4.518295288085937500e+00 -1.157593965530395508e+00 8.564043998718261719e+00 2.221935033798217773e+00 -4.052815437316894531e-01
3.489000000000000000e+03 6.936130523681640625e+01 2.941654920578002930e+00 -1.143486142158508301e+00 9.175252914428710938e+00 2.409529924392700195e+00 2.907096035778522491e-02
3.490000000000000000e+03 6.968038940429687500e+01 -3.642699003219604492e+00 1.857328295707702637e+00 1.110669422149658203e+01 3.889206647872924805e+00 1.635715961456298828e+00
3.491000000000000000e+03 7.033431243896484375e+01 -1.063398742675781250e+01 5.605568885803222656e-01 1.053862571716308594e+01 3.329754829406738281e+00 -1.484739542007446289e+00
3.492000000000000000e+03 7.013143157958984375e+01 -1.289012241363525391e+01 -6.169703006744384766e-01 1.017008590698242188e+01 2.865934610366821289e+00 -8.974833488464355469e-01
3.493000000000000000e+03 7.043446350097656250e+01 -1.390050029754638672e+01 -7.943189144134521484e-01 9.740497589111328125e+00 2.683853387832641602e+00 -7.801312804222106934e-01
3.494000000000000000e+03 5.357797622680664062e+01 -1.480026435852050781e+01 -2.067747265100479126e-01 7.452629208564758301e-01 1.615464538335800171e-01 4.363668262958526611e-01
3.495000000000000000e+03 7.056051635742187500e+01 -1.502439308166503906e+01 -9.131343960762023926e-01 9.367610931396484375e+00 2.536343097686767578e+00 -6.109768748283386230e-01
3.496000000000000000e+03 3.444215774536132812e+01 3.426103591918945312e+00 -5.805110335350036621e-01 1.724123395979404449e-02 -1.689809411764144897e-01 7.094262242317199707e-01
3.497000000000000000e+03 7.106724548339843750e+01 -5.944388866424560547e+00 3.002451896667480469e+00 9.481708526611328125e+00 3.745248317718505859e+00 3.189033865928649902e-01
3.498000000000000000e+03 5.286212539672851562e+01 -1.609264564514160156e+01 -3.206690028309822083e-02 8.590146899223327637e-01 2.480843365192413330e-01 4.328606426715850830e-01
3.499000000000000000e+03 6.845857238769531250e+01 5.843800544738769531e+00 -1.040251374244689941e+00 8.083473205566406250e+00 2.112966299057006836e+00 -4.711998403072357178e-01
3.500000000000000000e+03 7.066203308105468750e+01 5.487445354461669922e+00 -9.294750690460205078e-01 8.438831329345703125e+00 2.252806901931762695e+00 1.467323303222656250e-01
3.501000000000000000e+03 6.993930053710937500e+01 1.573645114898681641e+00 -9.842159152030944824e-01 9.672697067260742188e+00 2.606544256210327148e+00 5.025426745414733887e-01
3.502000000000000000e+03 7.042926025390625000e+01 2.440658330917358398e+00 -9.844960570335388184e-01 9.277006149291992188e+00 2.487753152847290039e+00 4.724313318729400635e-01
3.503000000000000000e+03 6.896657562255859375e+01 3.755053520202636719e+00 -1.158811330795288086e+00 8.843091964721679688e+00 2.305284023284912109e+00 -1.987658143043518066e-01
3.504000000000000000e+03 2.767569351196289062e+01 3.667485237121582031e+00 -4.338371157646179199e-01 -1.866333931684494019e-01 -1.861411482095718384e-01 6.959721446037292480e-01
3.505000000000000000e+03 5.187858963012695312e+01 -1.700212287902832031e+01 2.572399936616420746e-02 8.442888855934143066e-01 2.610038518905639648e-01 3.416923582553863525e-01
3.506000000000000000e+03 7.066794586181640625e+01 -1.030005931854248047e+00 -7.185973227024078369e-02 1.014996051788330078e+01 3.023430347442626953e+00 1.286575198173522949e+00
3.507000000000000000e+03 2.640325164794921875e+01 -1.716794776916503906e+01 -3.524695038795471191e-01 -6.403842568397521973e-02 -1.249523758888244629e-01 -4.822503924369812012e-01
3.508000000000000000e+03 4.018712234497070312e+01 4.245200634002685547e+00 -5.258496999740600586e-01 1.547642946243286133e-01 -1.113256141543388367e-01 6.065910458564758301e-01
3.509000000000000000e+03 6.934949493408203125e+01 -1.707066154479980469e+01 -1.061233758926391602e+00 8.709546089172363281e+00 2.294493675231933594e+00 6.393635272979736328e-02
3.510000000000000000e+03 4.406773757934570312e+01 -1.599887275695800781e+01 -4.815723001956939697e-01 1.212378442287445068e-01 -1.081003397703170776e-01 -3.637200891971588135e-01
3.511000000000000000e+03 4.724123382568359375e+01 -1.593166923522949219e+01 -3.905264139175415039e-01 2.664437592029571533e-01 -3.722479194402694702e-02 -1.903241723775863647e-01
3.512000000000000000e+03 3.890917968750000000e+01 2.636927127838134766e+00 -7.029243111610412598e-01 8.502414077520370483e-02 -1.853700578212738037e-01 6.426975131034851074e-01
3.513000000000000000e+03 6.791574859619140625e+01 -2.126981735229492188e+01 -7.284712195396423340e-01 7.378330707550048828e+00 1.994957804679870605e+00 5.082189440727233887e-01
3.514000000000000000e+03 2.390244674682617188e+01 -2.081451988220214844e+01 -1.456260979175567627e-01 -1.352043300867080688e-01 -8.424913138151168823e-02 -4.328931272029876709e-01
3.515000000000000000e+03 2.620248031616210938e+01 -1.844643783569335938e+01 -2.770529687404632568e-01 -8.213812857866287231e-02 -1.077573299407958984e-01 -4.807054996490478516e-01
3.516000000000000000e+03 3.173046112060546875e+01 2.649975776672363281e+00 -5.685118436813354492e-01 -3.704892471432685852e-02 -1.816682219505310059e-01 7.033394575119018555e-01
3.517000000000000000e+03 5.516841506958007812e+01 3.299335718154907227e+00 -3.607628494501113892e-02 1.421411275863647461e+00 4.156004786491394043e-01 -8.923066258430480957e-01
3.518000000000000000e+03 2.922949028015136719e+01 2.598107337951660156e+00 -4.906184077262878418e-01 -1.160109639167785645e-01 -1.819888204336166382e-01 6.831427216529846191e-01
3.519000000000000000e+03 3.078627204895019531e+01 4.470349788665771484e+00 -4.854564070701599121e-01 -6.990452855825424194e-02 -1.666082888841629028e-01 7.365006208419799805e-01
3.520000000000000000e+03 6.869947052001953125e+01 -1.795037841796875000e+01 -1.054139852523803711e+00 8.381537437438964844e+00 2.198219299316406250e+00 3.144226372241973877e-01
3.521000000000000000e+03 6.879249572753906250e+01 -1.878936004638671875e+01 -9.734916687011718750e-01 8.108188629150390625e+00 2.140409231185913086e+00 3.219030499458312988e-01
3.522000000000000000e+03 2.753400993347167969e+01 1.610700988769531250e+01 -2.263440489768981934e-01 -2.048276662826538086e-01 -1.293515115976333618e-01 4.907205104827880859e-01
3.523000000000000000e+03 2.769486618041992188e+01 1.927148437500000000e+01 -4.440065473318099976e-02 -1.942336559295654297e-01 -7.159029692411422729e-02 3.711149692535400391e-01
3.524000000000000000e+03 4.578990554809570312e+01 3.089690685272216797e+00 -5.784677863121032715e-01 2.663952410221099854e-01 -9.362176805734634399e-02 3.508285880088806152e-01
3.525000000000000000e+03 4.734805297851562500e+01 2.160172224044799805e+00 -6.904274821281433105e-01 2.498211413621902466e-01 -1.321818977594375610e-01 2.750962674617767334e-01
3.526000000000000000e+03 2.597840309143066406e+01 1.294590377807617188e+01 -4.104965031147003174e-01 -3.380906283855438232e-01 -2.245761454105377197e-01 6.188663244247436523e-01
3.527000000000000000e+03 3.572093963623046875e+01 -1.856433105468750000e+01 -2.346837222576141357e-01 -7.323705591261386871e-03 -7.260222733020782471e-02 -5.108003616333007812e-01
3.528000000000000000e+03 6.639485168457031250e+01 1.150556087493896484e+01 -4.751893877983093262e-01 6.439241409301757812e+00 1.789215564727783203e+00 -7.581732869148254395e-01
3.529000000000000000e+03 6.838873291015625000e+01 -2.256975555419921875e+01 -6.073963046073913574e-01 7.266409873962402344e+00 1.997704148292541504e+00 4.111503660678863525e-01
3.530000000000000000e+03 4.563903427124023438e+01 -1.612507247924804688e+01 -4.139345884323120117e-01 1.922008246183395386e-01 -6.652012467384338379e-02 -2.864380478858947754e-01
3.531000000000000000e+03 4.077468490600585938e+01 -1.764752769470214844e+01 -2.951818704605102539e-01 7.254375517368316650e-02 -6.679143011569976807e-02 -4.347086846828460693e-01
3.532000000000000000e+03 4.156187820434570312e+01 -1.637683296203613281e+01 -4.707728028297424316e-01 5.736897140741348267e-02 -1.240211501717567444e-01 -4.345769882202148438e-01
3.533000000000000000e+03 4.266469192504882812e+01 -1.718407821655273438e+01 -3.198684751987457275e-01 1.204825565218925476e-01 -5.981577187776565552e-02 -3.839539289474487305e-01
3.534000000000000000e+03 3.888848495483398438e+01 -1.638868331909179688e+01 -4.748727977275848389e-01 9.809819050133228302e-03 -1.395189017057418823e-01 -4.832031726837158203e-01
3.535000000000000000e+03 3.732365798950195312e+01 -1.723846817016601562e+01 -3.827159702777862549e-01 -1.025077304802834988e-03 -1.151223108172416687e-01 -5.010187029838562012e-01
3.536000000000000000e+03 3.045227813720703125e+01 -1.847347259521484375e+01 -2.688547968864440918e-01 -6.822912395000457764e-02 -1.011251807212829590e-01 -5.196337103843688965e-01
3.537000000000000000e+03 6.852907562255859375e+01 -2.680821609497070312e+01 -2.713970839977264404e-01 6.787670612335205078e+00 1.954882144927978516e+00 3.706279098987579346e-01
3.538000000000000000e+03 6.784623718261718750e+01 8.055528640747070312e+00 -8.310010433197021484e-01 7.403688907623291016e+00 1.971806287765502930e+00 -6.260702610015869141e-01
3.539000000000000000e+03 2.627722740173339844e+01 1.504659366607666016e+01 -3.251877129077911377e-01 -3.090080618858337402e-01 -1.902587264776229858e-01 5.387579798698425293e-01
3.540000000000000000e+03 2.887780761718750000e+01 9.942730903625488281e+00 -3.747287392616271973e-01 -1.447402834892272949e-01 -1.558407098054885864e-01 7.076919674873352051e-01
3.541000000000000000e+03 3.108696937561035156e+01 6.641535282135009766e+00 -4.212970733642578125e-01 -5.634308978915214539e-02 -1.432920545339584351e-01 7.441192865371704102e-01
3.542000000000000000e+03 2.840319633483886719e+01 6.339945793151855469e+00 -4.278815984725952148e-01 -1.684883087873458862e-01 -1.789109706878662109e-01 7.466905117034912109e-01
3.543000000000000000e+03 6.557025146484375000e+01 1.471545696258544922e+01 -2.337806522846221924e-01 5.923316478729248047e+00 1.706860780715942383e+00 -7.258213162422180176e-01
3.544000000000000000e+03 6.777204895019531250e+01 5.219045639038085938e+00 -1.104657530784606934e+00 8.120247840881347656e+00 2.104676961898803711e+00 -6.829126477241516113e-01
3.545000000000000000e+03 6.446984100341796875e+01 2.147978210449218750e+01 8.291669189929962158e-02 5.380368709564208984e+00 1.638985633850097656e+00 -5.413071513175964355e-01
3.546000000000000000e+03 1.872042274475097656e+01 2.721293067932128906e+01 2.498087733983993530e-01 -7.589285373687744141e-01 -1.527359336614608765e-01 3.080193698406219482e-01
3.547000000000000000e+03 1.566933917999267578e+01 2.834227371215820312e+01 2.478199154138565063e-01 -8.101465702056884766e-01 -1.686979979276657104e-01 3.656943142414093018e-01
3.548000000000000000e+03 2.112601661682128906e+01 2.761958503723144531e+01 2.948503792285919189e-01 -6.206148862838745117e-01 -9.772934764623641968e-02 2.510582506656646729e-01
3.549000000000000000e+03 2.707685852050781250e+01 2.119520950317382812e+01 4.662732407450675964e-02 -2.430301457643508911e-01 -5.892084538936614990e-02 3.125787973403930664e-01
3.550000000000000000e+03 2.541738700866699219e+01 2.028004837036132812e+01 -6.044929102063179016e-02 -3.776443600654602051e-01 -1.314280927181243896e-01 3.391879498958587646e-01
3.551000000000000000e+03 6.142380905151367188e+01 -5.623888373374938965e-01 1.006850004196166992e-01 3.790907144546508789e+00 1.167477607727050781e+00 -2.836756229400634766e+00
3.552000000000000000e+03 6.351753234863281250e+01 -2.519992589950561523e+00 1.983020603656768799e-01 6.935242176055908203e+00 2.140063285827636719e+00 -4.241423130035400391e+00
3.553000000000000000e+03 6.555001068115234375e+01 -1.058623504638671875e+01 -1.006585955619812012e+00 1.185024642944335938e+01 3.253098249435424805e+00 2.657919883728027344e+00
3.554000000000000000e+03 6.385074996948242188e+01 -1.056918907165527344e+01 -8.648234605789184570e-02 7.783210754394531250e+00 2.309018611907958984e+00 4.090309619903564453e+00
3.555000000000000000e+03 6.420517730712890625e+01 -1.045336818695068359e+01 -2.574917972087860107e-01 8.741226196289062500e+00 2.545120239257812500e+00 4.107213973999023438e+00
3.556000000000000000e+03 6.657226562500000000e+01 -2.820980310440063477e+00 -7.524754405021667480e-01 1.395999431610107422e+01 3.962255716323852539e+00 -8.434101939201354980e-01
3.557000000000000000e+03 6.144569778442382812e+01 1.136235952377319336e+00 -1.350221186876296997e-01 4.359532356262207031e+00 1.267353057861328125e+00 -2.579912900924682617e+00
3.558000000000000000e+03 6.710778808593750000e+01 -3.010266780853271484e+00 -2.142709344625473022e-01 1.396180057525634766e+01 4.124258995056152344e+00 1.634598076343536377e-01
3.559000000000000000e+03 6.633737945556640625e+01 -2.740500688552856445e+00 -8.455642461776733398e-01 1.374964523315429688e+01 3.871224403381347656e+00 -1.240870356559753418e+00
3.560000000000000000e+03 6.728204345703125000e+01 -1.020345115661621094e+01 -4.156871736049652100e-01 1.337504482269287109e+01 3.887807369232177734e+00 -8.842603862285614014e-02
3.561000000000000000e+03 6.613681793212890625e+01 -9.663925170898437500e+00 -7.107217311859130859e-01 1.437166118621826172e+01 4.098281860351562500e+00 1.476652503013610840e+00
3.562000000000000000e+03 6.621923065185546875e+01 -1.020010089874267578e+01 -9.160772562026977539e-01 1.343894577026367188e+01 3.756860733032226562e+00 1.513449072837829590e+00
3.563000000000000000e+03 6.321071624755859375e+01 -2.421346664428710938e+00 2.781682312488555908e-01 6.107623577117919922e+00 1.915737509727478027e+00 -4.080725193023681641e+00
3.564000000000000000e+03 6.589879608154296875e+01 -1.039170455932617188e+01 -1.036270976066589355e+00 1.271337890625000000e+01 3.503132343292236328e+00 2.140127658843994141e+00
3.565000000000000000e+03 6.940119934082031250e+01 -5.750115513801574707e-01 -6.514521241188049316e-01 1.072573947906494141e+01 3.022286176681518555e+00 7.568892240524291992e-01
3.566000000000000000e+03 7.067890930175781250e+01 -1.152822017669677734e+01 3.957461193203926086e-02 1.017383289337158203e+01 3.064022302627563477e+00 -1.344062089920043945e+00
3.567000000000000000e+03 6.961027526855468750e+01 -7.190697669982910156e+00 4.053498744964599609e+00 1.073982238769531250e+01 4.437996387481689453e+00 -8.297015428543090820e-01
3.568000000000000000e+03 6.179532241821289062e+01 -1.879796981811523438e-01 -9.999730624258518219e-03 4.407208919525146484e+00 1.319162845611572266e+00 -2.936682939529418945e+00
3.569000000000000000e+03 6.101272583007812500e+01 7.285886406898498535e-01 -1.612468436360359192e-02 3.843816518783569336e+00 1.148307561874389648e+00 -2.530793905258178711e+00
3.570000000000000000e+03 6.213407135009765625e+01 -5.858505368232727051e-01 5.590374115854501724e-03 4.698871612548828125e+00 1.411338567733764648e+00 -3.113701820373535156e+00
3.571000000000000000e+03 7.010485839843750000e+01 -1.000004053115844727e+00 -2.524594068527221680e-01 1.045380783081054688e+01 3.060404539108276367e+00 1.117214202880859375e+00
3.572000000000000000e+03 7.080043792724609375e+01 -5.292304515838623047e+00 2.964607238769531250e+00 9.768269538879394531e+00 3.819862842559814453e+00 8.032183647155761719e-01
3.573000000000000000e+03 7.042085266113281250e+01 -1.106822109222412109e+01 2.683731317520141602e-01 1.041742992401123047e+01 3.205740690231323242e+00 -1.400125026702880859e+00
3.574000000000000000e+03 7.077898406982421875e+01 -1.080099010467529297e+01 5.292816162109375000e-01 1.016319847106933594e+01 3.207744121551513672e+00 -1.492140293121337891e+00
3.575000000000000000e+03 7.007200622558593750e+01 -8.883856773376464844e+00 2.174086093902587891e+00 1.071420574188232422e+01 3.866487503051757812e+00 -1.577402114868164062e+00
3.576000000000000000e+03 6.894707489013671875e+01 -8.763302803039550781e+00 2.369953393936157227e+00 1.207112312316894531e+01 4.332323074340820312e+00 -1.748317241668701172e+00
3.577000000000000000e+03 6.992826843261718750e+01 -1.120005321502685547e+01 3.735430166125297546e-02 1.076234245300292969e+01 3.239908933639526367e+00 -1.262461900711059570e+00
3.578000000000000000e+03 6.908982086181640625e+01 -4.301156520843505859e+00 2.754507780075073242e+00 1.176563453674316406e+01 4.356042385101318359e+00 1.700336813926696777e+00
3.579000000000000000e+03 7.012516021728515625e+01 -5.703523635864257812e+00 3.683630228042602539e+00 1.027425479888916016e+01 4.187365531921386719e+00 6.120293736457824707e-01
3.580000000000000000e+03 7.122952270507812500e+01 -9.231323242187500000e+00 1.610136866569519043e+00 9.716422080993652344e+00 3.397967815399169922e+00 -1.432520866394042969e+00
3.581000000000000000e+03 6.920045471191406250e+01 -8.355863571166992188e+00 3.003776311874389648e+00 1.162224674224853516e+01 4.387806892395019531e+00 -1.689020514488220215e+00
3.582000000000000000e+03 7.009346771240234375e+01 -3.795563936233520508e+00 2.008543491363525391e+00 1.073460769653320312e+01 3.822945356369018555e+00 1.570966482162475586e+00
3.583000000000000000e+03 7.052682495117187500e+01 -4.674461841583251953e+00 2.731480121612548828e+00 1.011534881591796875e+01 3.854048728942871094e+00 1.198582410812377930e+00
3.584000000000000000e+03 5.982770538330078125e+01 -1.407211875915527344e+01 1.136727705597877502e-01 3.013420820236206055e+00 9.381280541419982910e-01 2.045632123947143555e+00
3.585000000000000000e+03 5.920648574829101562e+01 -1.448733711242675781e+01 1.303346902132034302e-01 2.659995794296264648e+00 8.370991349220275879e-01 1.843424081802368164e+00
3.586000000000000000e+03 6.985158538818359375e+01 -1.355786323547363281e+01 -8.535966873168945312e-01 1.001577091217041016e+01 2.748652219772338867e+00 -6.367957592010498047e-01
3.587000000000000000e+03 6.949413299560546875e+01 -1.416667652130126953e+01 -1.006152510643005371e+00 9.816240310668945312e+00 2.643026351928710938e+00 -3.691498041152954102e-01
3.588000000000000000e+03 6.104595184326171875e+01 -1.357818543910980225e-01 7.374047487974166870e-02 3.557444095611572266e+00 1.089355349540710449e+00 -2.628750085830688477e+00
3.589000000000000000e+03 6.074020767211914062e+01 -1.307087993621826172e+01 1.373516768217086792e-01 3.401366472244262695e+00 1.061615467071533203e+00 2.436634302139282227e+00
3.590000000000000000e+03 5.900016021728515625e+01 1.286962985992431641e+00 1.057817507535219193e-02 2.477268695831298828e+00 7.463540434837341309e-01 -1.837908625602722168e+00
3.591000000000000000e+03 7.081454467773437500e+01 -3.744390010833740234e+00 1.869942307472229004e+00 1.006033039093017578e+01 3.579081773757934570e+00 1.453864097595214844e+00
3.592000000000000000e+03 7.148812866210937500e+01 -7.789862632751464844e+00 2.443821430206298828e+00 9.350568771362304688e+00 3.538317203521728516e+00 -8.718982338905334473e-01
3.593000000000000000e+03 6.052976989746093750e+01 -1.368971347808837891e+01 9.883098304271697998e-02 3.441362619400024414e+00 1.062058091163635254e+00 2.309734106063842773e+00
3.594000000000000000e+03 3.746595001220703125e+01 3.129928112030029297e+00 -6.365451812744140625e-01 7.216776907444000244e-02 -1.693132221698760986e-01 6.707038283348083496e-01
3.595000000000000000e+03 3.382183074951171875e+01 3.954386711120605469e+00 -5.423637628555297852e-01 1.330456137657165527e-02 -1.587177664041519165e-01 7.205488681793212891e-01
3.596000000000000000e+03 4.152645492553710938e+01 5.868594169616699219e+00 -3.338618874549865723e-01 2.552511990070343018e-01 -2.358320355415344238e-02 5.224323272705078125e-01
3.597000000000000000e+03 4.307587814331054688e+01 4.325906276702880859e+00 -4.751103222370147705e-01 2.328395098447799683e-01 -7.268124818801879883e-02 4.792459905147552490e-01
3.598000000000000000e+03 4.716222000122070312e+01 5.081397533416748047e+00 -2.497471868991851807e-01 4.819557964801788330e-01 6.966258585453033447e-02 1.755962669849395752e-01
3.599000000000000000e+03 7.104039001464843750e+01 -8.767697334289550781e+00 2.063101291656494141e+00 9.749149322509765625e+00 3.543675184249877930e+00 -1.328891873359680176e+00
3.600000000000000000e+03 4.108146286010742188e+01 4.360195636749267578e+00 -5.040830969810485840e-01 1.869751662015914917e-01 -9.513237327337265015e-02 5.713811516761779785e-01
3.601000000000000000e+03 4.188266372680664062e+01 4.229913234710693359e+00 -5.044838190078735352e-01 1.970746219158172607e-01 -9.222275763750076294e-02 5.386508107185363770e-01
3.602000000000000000e+03 6.986620330810546875e+01 -6.453442096710205078e+00 4.094105720520019531e+00 1.043692016601562500e+01 4.359307765960693359e+00 -4.590507969260215759e-02
3.603000000000000000e+03 7.236906433105468750e+01 -5.938181400299072266e+00 2.155110597610473633e+00 8.664786338806152344e+00 3.245969057083129883e+00 2.351994663476943970e-01
3.604000000000000000e+03 5.750420761108398438e+01 2.741837739944458008e+00 2.561089769005775452e-02 2.058512449264526367e+00 6.252369880676269531e-01 -1.399680256843566895e+00
3.605000000000000000e+03 2.931684112548828125e+01 3.289741039276123047e+00 -4.842425286769866943e-01 -1.176732406020164490e-01 -1.805747300386428833e-01 7.043849825859069824e-01
3.606000000000000000e+03 5.179598617553710938e+01 3.949770927429199219e+00 -1.439350247383117676e-01 8.575628995895385742e-01 2.140883654356002808e-01 -3.245116174221038818e-01
3.607000000000000000e+03 5.860601425170898438e+01 2.167865991592407227e+00 2.987900562584400177e-02 2.517561674118041992e+00 7.642322182655334473e-01 -1.711065292358398438e+00
3.608000000000000000e+03 5.679993820190429688e+01 -1.690384674072265625e+01 1.920282393693923950e-01 2.087008476257324219e+00 6.837110519409179688e-01 1.215229034423828125e+00
3.609000000000000000e+03 3.315389633178710938e+01 3.251758813858032227e+00 -5.714896917343139648e-01 -5.865713115781545639e-03 -1.732066273689270020e-01 7.158706784248352051e-01
3.610000000000000000e+03 5.992471313476562500e+01 1.637986063957214355e+00 -7.471248973160982132e-03 3.198652744293212891e+00 9.573544263839721680e-01 -2.127449274063110352e+00
3.611000000000000000e+03 5.832834243774414062e+01 3.057003021240234375e+00 4.122233763337135315e-02 2.629162311553955078e+00 8.011153340339660645e-01 -1.623254060745239258e+00
3.612000000000000000e+03 6.799395751953125000e+01 -1.004698181152343750e+01 1.997309774160385132e-01 1.293808841705322266e+01 3.941345930099487305e+00 -9.490037560462951660e-01
3.613000000000000000e+03 7.045921325683593750e+01 -1.232919597625732422e+01 -3.654524385929107666e-01 1.018374538421630859e+01 2.945487976074218750e+00 -1.109858870506286621e+00
3.614000000000000000e+03 7.187110900878906250e+01 -7.120761394500732422e+00 2.475102424621582031e+00 8.987691879272460938e+00 3.438838243484497070e+00 -4.508331418037414551e-01
3.615000000000000000e+03 6.990249633789062500e+01 8.450373411178588867e-01 -8.822174668312072754e-01 9.956418991088867188e+00 2.722260236740112305e+00 6.342252492904663086e-01
3.616000000000000000e+03 6.999587249755859375e+01 -3.315535187721252441e-01 -5.550726652145385742e-01 1.034927654266357422e+01 2.938261270523071289e+00 9.247885942459106445e-01
3.617000000000000000e+03 3.326823806762695312e+01 4.575840473175048828e+00 -5.047744512557983398e-01 4.549927078187465668e-03 -1.500673592090606689e-01 7.311657071113586426e-01
3.618000000000000000e+03 6.950373840332031250e+01 -1.262989139556884766e+01 -7.034910917282104492e-01 1.049452972412109375e+01 2.937311410903930664e+00 -7.307646274566650391e-01
3.619000000000000000e+03 6.795622253417968750e+01 -1.889347648620605469e+01 -9.690656065940856934e-01 7.914244651794433594e+00 2.083553791046142578e+00 5.302135348320007324e-01
3.620000000000000000e+03 6.790469360351562500e+01 -1.808894538879394531e+01 -1.046422600746154785e+00 8.148843765258789062e+00 2.130726337432861328e+00 5.665391087532043457e-01
3.621000000000000000e+03 6.702137756347656250e+01 5.926373958587646484e+00 -1.015939593315124512e+00 7.668440818786621094e+00 1.995750308036804199e+00 -8.815311789512634277e-01
3.622000000000000000e+03 6.861718750000000000e+01 2.632118463516235352e+00 -1.228969693183898926e+00 9.274798393249511719e+00 2.413748741149902344e+00 -2.324195951223373413e-01
3.623000000000000000e+03 6.925160980224609375e+01 -2.511814594268798828e+00 5.969144701957702637e-01 1.154201889038085938e+01 3.641680002212524414e+00 1.386233448982238770e+00
3.624000000000000000e+03 5.388660812377929688e+01 -1.681146049499511719e+01 9.953878819942474365e-02 1.198350310325622559e+00 3.893667161464691162e-01 6.529626250267028809e-01
3.625000000000000000e+03 6.900756072998046875e+01 -1.465529060363769531e+01 -1.148810744285583496e+00 9.679979324340820312e+00 2.559350490570068359e+00 -6.399263441562652588e-02
3.626000000000000000e+03 6.991889190673828125e+01 -1.572583484649658203e+01 -1.047520756721496582e+00 9.179501533508300781e+00 2.439594030380249023e+00 -2.662593424320220947e-01
3.627000000000000000e+03 6.966353607177734375e+01 2.474515587091445923e-01 -7.952570915222167969e-01 1.024176502227783203e+01 2.833952426910400391e+00 6.742392778396606445e-01
3.628000000000000000e+03 6.697439575195312500e+01 -2.201937675476074219e+00 -8.215798139572143555e-01 1.296827411651611328e+01 3.644008159637451172e+00 -4.683019816875457764e-01
3.629000000000000000e+03 6.867758941650390625e+01 1.928089976310729980e+00 -1.228955984115600586e+00 9.631935119628906250e+00 2.520893812179565430e+00 -1.390693336725234985e-01
3.630000000000000000e+03 3.112763595581054688e+01 3.488823652267456055e+00 -5.268600583076477051e-01 -5.742154270410537720e-02 -1.752844750881195068e-01 7.184160351753234863e-01
3.631000000000000000e+03 4.827385711669921875e+01 -1.664218711853027344e+01 -2.247907668352127075e-01 3.947444260120391846e-01 5.098609998822212219e-02 -8.835498988628387451e-02
3.632000000000000000e+03 3.078548431396484375e+01 -2.016913795471191406e+01 -1.496953666210174561e-01 -7.326313853263854980e-02 -6.688755005598068237e-02 -5.108512043952941895e-01
3.633000000000000000e+03 2.885702133178710938e+01 -1.727852249145507812e+01 -3.592940866947174072e-01 -6.286677718162536621e-02 -1.266482621431350708e-01 -5.076542496681213379e-01
3.634000000000000000e+03 6.923940277099609375e+01 1.074559330940246582e+00 -1.078367710113525391e+00 9.999402999877929688e+00 2.676310777664184570e+00 2.534284889698028564e-01
3.635000000000000000e+03 5.571172714233398438e+01 -1.635256958007812500e+01 1.524075567722320557e-01 1.582728505134582520e+00 5.205408334732055664e-01 9.877029657363891602e-01
3.636000000000000000e+03 5.484254837036132812e+01 -1.655499267578125000e+01 1.265052855014801025e-01 1.372541546821594238e+00 4.497140645980834961e-01 8.173338770866394043e-01
3.637000000000000000e+03 6.855229187011718750e+01 -1.573129463195800781e+01 -1.182084679603576660e+00 9.141208648681640625e+00 2.387737274169921875e+00 2.499762177467346191e-01
3.638000000000000000e+03 5.289179229736328125e+01 -1.702716636657714844e+01 7.285168021917343140e-02 1.010161876678466797e+00 3.249040842056274414e-01 4.904707968235015869e-01
3.639000000000000000e+03 4.176475143432617188e+01 -1.744569778442382812e+01 -2.974352538585662842e-01 9.768483042716979980e-02 -5.992512404918670654e-02 -4.115183651447296143e-01
3.640000000000000000e+03 4.064073944091796875e+01 -1.659875488281250000e+01 -4.463589787483215332e-01 4.543735831975936890e-02 -1.202764809131622314e-01 -4.526437520980834961e-01
3.641000000000000000e+03 3.713589477539062500e+01 -1.873785209655761719e+01 -2.096070051193237305e-01 1.830549351871013641e-02 -5.739045515656471252e-02 -4.891897141933441162e-01
3.642000000000000000e+03 4.405140686035156250e+01 -1.757435035705566406e+01 -2.365010678768157959e-01 1.862534433603286743e-01 -1.507428567856550217e-02 -3.203308284282684326e-01
3.643000000000000000e+03 4.487258148193359375e+01 -1.687092590332031250e+01 -3.112697005271911621e-01 1.963731944561004639e-01 -3.446895256638526917e-02 -2.998338639736175537e-01
3.644000000000000000e+03 4.654143142700195312e+01 3.126259088516235352e+00 -5.468511581420898438e-01 2.922962605953216553e-01 -7.636646181344985962e-02 2.980673015117645264e-01
3.645000000000000000e+03 4.565466690063476562e+01 4.057147026062011719e+00 -4.297225773334503174e-01 3.277095258235931396e-01 -3.060390986502170563e-02 3.286695182323455811e-01
3.646000000000000000e+03 3.045629882812500000e+01 5.728774070739746094e+00 -4.466214776039123535e-01 -8.150554448366165161e-02 -1.584381014108657837e-01 7.470970153808593750e-01
3.647000000000000000e+03 3.092278099060058594e+01 2.835228919982910156e+00 -5.390980839729309082e-01 -6.328469514846801758e-02 -1.807148307561874390e-01 7.040609717369079590e-01
3.648000000000000000e+03 6.779728698730468750e+01 -1.996524238586425781e+01 -8.547776341438293457e-01 7.603063583374023438e+00 2.024485826492309570e+00 5.493719577789306641e-01
3.649000000000000000e+03 6.889797973632812500e+01 -1.977480125427246094e+01 -8.680873513221740723e-01 7.902455806732177734e+00 2.110310554504394531e+00 2.871840000152587891e-01
3.650000000000000000e+03 3.922490692138671875e+01 3.383360624313354492e+00 -6.268600821495056152e-01 1.014352813363075256e-01 -1.576274335384368896e-01 6.367517709732055664e-01
3.651000000000000000e+03 2.991676712036132812e+01 9.092323303222656250e+00 -3.725423216819763184e-01 -9.477020800113677979e-02 -1.401937603950500488e-01 7.218604683876037598e-01
3.652000000000000000e+03 2.898335075378417969e+01 8.053283691406250000e+00 -4.057886600494384766e-01 -1.448725461959838867e-01 -1.651983708143234253e-01 7.397567033767700195e-01
3.653000000000000000e+03 6.541530609130859375e+01 8.823335647583007812e+00 -6.456723809242248535e-01 6.483086109161376953e+00 1.751224160194396973e+00 -1.031431555747985840e+00
3.654000000000000000e+03 6.624959564208984375e+01 8.065343856811523438e+00 -7.682357430458068848e-01 6.906489849090576172e+00 1.841476202011108398e+00 -9.425285458564758301e-01
3.655000000000000000e+03 6.702108764648437500e+01 7.330660820007324219e+00 -8.780211210250854492e-01 7.319886207580566406e+00 1.932559609413146973e+00 -8.255903124809265137e-01
3.656000000000000000e+03 6.774486541748046875e+01 6.593144416809082031e+00 -9.738668799400329590e-01 7.721752166748046875e+00 2.024365663528442383e+00 -6.676154732704162598e-01
3.657000000000000000e+03 4.754768753051757812e+01 -1.771989059448242188e+01 -8.792920410633087158e-02 4.162647724151611328e-01 9.850067645311355591e-02 -9.480401873588562012e-02
3.658000000000000000e+03 5.142454910278320312e+01 4.941886901855468750e+00 -7.089546322822570801e-02 9.430286288261413574e-01 2.616399526596069336e-01 -3.141760528087615967e-01
3.659000000000000000e+03 5.161318206787109375e+01 -1.960133552551269531e+01 2.830197215080261230e-01 1.146377325057983398e+00 4.288191199302673340e-01 3.974447250366210938e-01
3.660000000000000000e+03 6.442388916015625000e+01 1.145338153839111328e+01 -3.799966871738433838e-01 5.823092460632324219e+00 1.632928729057312012e+00 -9.656663537025451660e-01
3.661000000000000000e+03 4.209846878051757812e+01 -1.859304428100585938e+01 -1.478475332260131836e-01 1.537034213542938232e-01 1.756765297614037991e-03 -3.728497624397277832e-01
3.662000000000000000e+03 4.313604354858398438e+01 -1.817078971862792969e+01 -1.758041381835937500e-01 1.718075871467590332e-01 -1.198963262140750885e-03 -3.459623456001281738e-01
3.663000000000000000e+03 3.614753341674804688e+01 4.111433982849121094e+00 -5.475120544433593750e-01 6.249026954174041748e-02 -1.455065310001373291e-01 6.981301307678222656e-01
3.664000000000000000e+03 4.895396804809570312e+01 3.843134641647338867e+00 -3.342354595661163330e-01 5.002446174621582031e-01 4.980274662375450134e-02 5.700351670384407043e-02
3.665000000000000000e+03 6.603343963623046875e+01 -2.062590599060058594e+01 -7.101185917854309082e-01 6.926013946533203125e+00 1.864768624305725098e+00 8.678439259529113770e-01
3.666000000000000000e+03 6.370403289794921875e+01 -2.292133331298828125e+01 -2.982647716999053955e-01 5.620078086853027344e+00 1.596544027328491211e+00 9.962977766990661621e-01
3.667000000000000000e+03 3.424909591674804688e+01 -1.847933197021484375e+01 -2.561886310577392578e-01 -2.882218174636363983e-02 -8.550324290990829468e-02 -5.220269560813903809e-01
3.668000000000000000e+03 3.275686645507812500e+01 -1.834774589538574219e+01 -2.790594398975372314e-01 -4.956476017832756042e-02 -9.858725965023040771e-02 -5.261748433113098145e-01
3.669000000000000000e+03 4.494779205322265625e+01 4.035390377044677734e+00 -4.593534171581268311e-01 2.908138632774353027e-01 -5.056186392903327942e-02 3.829068839550018311e-01
3.670000000000000000e+03 4.422026824951171875e+01 3.971846818923950195e+00 -4.847171306610107422e-01 2.591165304183959961e-01 -6.768018007278442383e-02 4.263275563716888428e-01
3.671000000000000000e+03 6.657527160644531250e+01 1.354465293884277344e+01 -3.293505311012268066e-01 6.270686149597167969e+00 1.782400727272033691e+00 -6.788467764854431152e-01
3.672000000000000000e+03 2.592762756347656250e+01 -1.993667221069335938e+01 -1.887371987104415894e-01 -1.011184081435203552e-01 -8.695667982101440430e-02 -4.718909561634063721e-01
3.673000000000000000e+03 4.097812652587890625e+01 -1.886462402343750000e+01 -1.385973244905471802e-01 1.147892400622367859e-01 -7.142425049096345901e-03 -4.059954881668090820e-01
3.674000000000000000e+03 3.971705627441406250e+01 -1.771267509460449219e+01 -3.061367869377136230e-01 4.668124020099639893e-02 -7.783666253089904785e-02 -4.586635828018188477e-01
3.675000000000000000e+03 6.649774169921875000e+01 -2.785002517700195312e+01 -1.550069004297256470e-01 6.202362060546875000e+00 1.814206600189208984e+00 4.805329740047454834e-01
3.676000000000000000e+03 2.801044654846191406e+01 1.287929630279541016e+01 -3.373856246471405029e-01 -1.881713867187500000e-01 -1.576671004295349121e-01 6.163509488105773926e-01
3.677000000000000000e+03 2.716100883483886719e+01 1.395934867858886719e+01 -3.411934971809387207e-01 -2.468178719282150269e-01 -1.764034181833267212e-01 5.787211060523986816e-01
3.678000000000000000e+03 2.670815277099609375e+01 1.712960243225097656e+01 -2.123054713010787964e-01 -2.757238447666168213e-01 -1.464087963104248047e-01 4.454195201396942139e-01
3.679000000000000000e+03 6.574057769775390625e+01 1.993114662170410156e+01 -3.297527320683002472e-03 5.729586124420166016e+00 1.717886567115783691e+00 -5.658695101737976074e-01
3.680000000000000000e+03 6.315860748291015625e+01 1.705333518981933594e+01 -1.858483627438545227e-02 5.143749713897705078e+00 1.537549495697021484e+00 -7.367854714393615723e-01
3.681000000000000000e+03 2.899785232543945312e+01 -1.870170021057128906e+01 -2.575354278087615967e-01 -7.516549527645111084e-02 -9.981027245521545410e-02 -5.090470910072326660e-01
3.682000000000000000e+03 3.315414810180664062e+01 1.830026817321777344e+01 8.951227366924285889e-02 1.868332028388977051e-01 8.290363848209381104e-02 3.694308996200561523e-01
3.683000000000000000e+03 2.758377647399902344e+01 -1.868722152709960938e+01 -2.595510780811309814e-01 -7.902279496192932129e-02 -1.015721634030342102e-01 -4.976894259452819824e-01
3.684000000000000000e+03 3.095909881591796875e+01 -2.225715637207031250e+01 1.529633253812789917e-02 -7.410049438476562500e-02 -1.764124818146228790e-02 -4.884642362594604492e-01
3.685000000000000000e+03 6.594051361083984375e+01 -2.474034309387207031e+00 -1.036241054534912109e+00 1.300669288635253906e+01 3.591135501861572266e+00 -2.032116174697875977e+00
3.686000000000000000e+03 6.542710113525390625e+01 -2.124660015106201172e+00 -1.036884784698486328e+00 1.156343269348144531e+01 3.157964468002319336e+00 -2.872251272201538086e+00
3.687000000000000000e+03 6.429151916503906250e+01 -2.482872486114501953e+00 -3.044010996818542480e-01 9.113942146301269531e+00 2.642862319946289062e+00 -4.210497856140136719e+00
3.688000000000000000e+03 6.498280334472656250e+01 -1.121437358856201172e+01 -9.023765325546264648e-01 1.006744956970214844e+01 2.749521970748901367e+00 3.101447820663452148e+00
3.689000000000000000e+03 6.513259887695312500e+01 -1.872197985649108887e+00 -9.784246683120727539e-01 1.073022556304931641e+01 2.925540208816528320e+00 -3.115640401840209961e+00
3.690000000000000000e+03 6.457632446289062500e+01 -2.337348461151123047e+00 -5.664932727813720703e-01 9.891828536987304688e+00 2.797600746154785156e+00 -3.923402786254882812e+00
3.691000000000000000e+03 6.953726959228515625e+01 -1.194090652465820312e+01 -4.530391097068786621e-01 1.074390888214111328e+01 3.087260961532592773e+00 -9.404799342155456543e-01
3.692000000000000000e+03 6.697015380859375000e+01 -1.026508331298828125e+01 -6.216256618499755859e-01 1.344194793701171875e+01 3.846096515655517578e+00 3.316312134265899658e-01
3.693000000000000000e+03 6.441194152832031250e+01 -2.068656444549560547e+00 -5.363366603851318359e-01 9.258218765258789062e+00 2.616564512252807617e+00 -3.849739074707031250e+00
3.694000000000000000e+03 6.146119308471679688e+01 -1.279445838928222656e+01 9.821104258298873901e-02 4.072405815124511719e+00 1.251185059547424316e+00 2.734579086303710938e+00
3.695000000000000000e+03 6.644929504394531250e+01 -1.061402702331542969e+01 -1.006229400634765625e+00 1.281634807586669922e+01 3.543035507202148438e+00 1.213214278221130371e+00
3.696000000000000000e+03 6.630043792724609375e+01 -2.481167316436767578e+00 -9.579215049743652344e-01 1.330445480346679688e+01 3.703959941864013672e+00 -1.379290819168090820e+00
3.697000000000000000e+03 6.255869293212890625e+01 -1.649618983268737793e+00 1.863725930452346802e-01 5.008763313293457031e+00 1.558540701866149902e+00 -3.543108463287353516e+00
3.698000000000000000e+03 6.332891845703125000e+01 -2.074383735656738281e+00 1.052932068705558777e-01 6.434918403625488281e+00 1.962063550949096680e+00 -3.997531175613403320e+00
3.699000000000000000e+03 6.834378051757812500e+01 -9.938860893249511719e+00 5.426511168479919434e-01 1.255904865264892578e+01 3.930510044097900391e+00 -1.218291401863098145e+00
3.700000000000000000e+03 6.898722839355468750e+01 -1.019065475463867188e+01 5.736986398696899414e-01 1.181462955474853516e+01 3.716498374938964844e+00 -1.365461468696594238e+00
3.701000000000000000e+03 6.628613281250000000e+01 6.629212856292724609e+00 -9.064186811447143555e-01 7.217978954315185547e+00 1.893468141555786133e+00 -1.027966022491455078e+00
3.702000000000000000e+03 6.053250122070312500e+01 1.238534450531005859e+00 -2.526968717575073242e-02 3.535207986831665039e+00 1.052981495857238770e+00 -2.334463357925415039e+00
3.703000000000000000e+03 6.738325500488281250e+01 -1.058906078338623047e+01 -6.344178318977355957e-01 1.280438232421875000e+01 3.650989294052124023e+00 -2.510708989575505257e-03
3.704000000000000000e+03 6.763236236572265625e+01 -1.013568115234375000e+01 -1.225023195147514343e-01 1.319801425933837891e+01 3.922653436660766602e+00 -5.550622344017028809e-01
3.705000000000000000e+03 6.848424530029296875e+01 -9.481412887573242188e+00 1.209312796592712402e+00 1.266781425476074219e+01 4.163137912750244141e+00 -1.510410189628601074e+00
3.706000000000000000e+03 6.901007843017578125e+01 -9.048254966735839844e+00 1.912569999694824219e+00 1.197925662994384766e+01 4.167547702789306641e+00 -1.710604906082153320e+00
3.707000000000000000e+03 6.776579284667968750e+01 -2.691726446151733398e+00 -2.893876656889915466e-02 1.308278656005859375e+01 3.916154384613037109e+00 7.000861167907714844e-01
3.708000000000000000e+03 6.995904541015625000e+01 -7.334848880767822266e+00 3.724889993667602539e+00 1.046759223937988281e+01 4.257744789123535156e+00 -8.711599707603454590e-01
3.709000000000000000e+03 6.985950469970703125e+01 -7.682095050811767578e+00 3.457262039184570312e+00 1.061864376068115234e+01 4.222771644592285156e+00 -1.119697332382202148e+00
3.710000000000000000e+03 6.865534210205078125e+01 -2.064951181411743164e+00 -7.094577699899673462e-02 1.191183853149414062e+01 3.552267789840698242e+00 9.578566551208496094e-01
3.711000000000000000e+03 7.178627014160156250e+01 -6.524074554443359375e+00 2.622408151626586914e+00 9.019274711608886719e+00 3.492504835128784180e+00 -1.233297958970069885e-01
3.712000000000000000e+03 6.921425628662109375e+01 -1.756375283002853394e-02 -8.354092836380004883e-01 1.055562114715576172e+01 2.916063547134399414e+00 5.366968512535095215e-01
3.713000000000000000e+03 6.925610351562500000e+01 -1.069236850738525391e+01 2.330404072999954224e-01 1.143280792236328125e+01 3.499754428863525391e+00 -1.262712001800537109e+00
3.714000000000000000e+03 7.107246398925781250e+01 -8.077459335327148438e+00 2.524065494537353516e+00 9.643800735473632812e+00 3.650359869003295898e+00 -1.083011507987976074e+00
3.715000000000000000e+03 6.285128021240234375e+01 -1.199423909187316895e+00 -3.652592003345489502e-02 5.715785980224609375e+00 1.703778028488159180e+00 -3.544023752212524414e+00
3.716000000000000000e+03 6.870229339599609375e+01 -3.132942438125610352e+00 1.017132401466369629e+00 1.227914237976074219e+01 3.988882303237915039e+00 1.475823879241943359e+00
3.717000000000000000e+03 6.972129821777343750e+01 -1.780152797698974609e+00 1.262265592813491821e-01 1.091839313507080078e+01 3.313385725021362305e+00 1.252944469451904297e+00
3.718000000000000000e+03 6.032970809936523438e+01 -1.433200168609619141e+01 6.731187552213668823e-02 3.474577903747558594e+00 1.062566995620727539e+00 2.195899963378906250e+00
3.719000000000000000e+03 7.195364379882812500e+01 -5.198087692260742188e+00 2.271208763122558594e+00 8.998010635375976562e+00 3.380765914916992188e+00 6.926338672637939453e-01
3.720000000000000000e+03 6.483595275878906250e+01 -1.550103783607482910e+00 -8.971139788627624512e-01 9.826782226562500000e+00 2.678900480270385742e+00 -3.271529674530029297e+00
3.721000000000000000e+03 6.927467346191406250e+01 -9.887243270874023438e+00 9.777398109436035156e-01 1.157735157012939453e+01 3.766527414321899414e+00 -1.529547929763793945e+00
3.722000000000000000e+03 7.073577880859375000e+01 -9.022785186767578125e+00 1.841280698776245117e+00 1.011797428131103516e+01 3.587776422500610352e+00 -1.438572406768798828e+00
3.723000000000000000e+03 6.948693847656250000e+01 -8.247817039489746094e+00 3.051764726638793945e+00 1.118334388732910156e+01 4.270532608032226562e+00 -1.537395119667053223e+00
3.724000000000000000e+03 6.894688415527343750e+01 -9.332559585571289062e+00 1.512581944465637207e+00 1.198437786102294922e+01 4.049088001251220703e+00 -1.604878067970275879e+00
3.725000000000000000e+03 6.142470550537109375e+01 2.501495778560638428e-01 -1.502042263746261597e-02 4.121187210083007812e+00 1.231850028038024902e+00 -2.740807533264160156e+00
3.726000000000000000e+03 7.038371276855468750e+01 -9.237809181213378906e+00 1.727596402168273926e+00 1.043388843536376953e+01 3.648445367813110352e+00 -1.551704049110412598e+00
3.727000000000000000e+03 6.953510284423828125e+01 -4.129628658294677734e+00 2.505668163299560547e+00 1.120870494842529297e+01 4.114311695098876953e+00 1.635361075401306152e+00
3.728000000000000000e+03 7.111405181884765625e+01 -4.286174297332763672e+00 2.199178934097290039e+00 9.709729194641113281e+00 3.572672367095947266e+00 1.251810073852539062e+00
3.729000000000000000e+03 5.962797546386718750e+01 -1.465876102447509766e+01 9.800139814615249634e-02 3.043131351470947266e+00 9.423398375511169434e-01 1.945513844490051270e+00
3.730000000000000000e+03 6.993601989746093750e+01 -4.252583026885986328e+00 2.500487804412841797e+00 1.079132843017578125e+01 3.987545013427734375e+00 1.523567318916320801e+00
3.731000000000000000e+03 6.989473724365234375e+01 -4.807808876037597656e+00 3.143410921096801758e+00 1.069184875488281250e+01 4.150577545166015625e+00 1.301053285598754883e+00
3.732000000000000000e+03 6.986437225341796875e+01 -3.053446292877197266e+00 1.244904041290283203e+00 1.096792221069335938e+01 3.663847923278808594e+00 1.590148806571960449e+00
3.733000000000000000e+03 5.926033401489257812e+01 1.907774925231933594e+00 3.141076490283012390e-02 2.816257715225219727e+00 8.543005585670471191e-01 -1.926964521408081055e+00
3.734000000000000000e+03 7.175960540771484375e+01 -5.856471061706542969e+00 2.555419445037841797e+00 9.062045097351074219e+00 3.485239267349243164e+00 3.345962464809417725e-01
3.735000000000000000e+03 7.026536560058593750e+01 -1.526900649070739746e+00 1.176003590226173401e-01 1.049649906158447266e+01 3.184229850769042969e+00 1.316942930221557617e+00
3.736000000000000000e+03 6.856616210937500000e+01 -1.504438519477844238e+00 -4.882448911666870117e-01 1.161756801605224609e+01 3.338796854019165039e+00 6.675688624382019043e-01
3.737000000000000000e+03 5.735625457763671875e+01 -1.643809890747070312e+01 1.784272342920303345e-01 2.223935127258300781e+00 7.207087278366088867e-01 1.336971402168273926e+00
3.738000000000000000e+03 6.979807281494140625e+01 -1.062006282806396484e+01 4.548483192920684814e-01 1.100016593933105469e+01 3.436504125595092773e+00 -1.407904624938964844e+00
3.739000000000000000e+03 7.012524414062500000e+01 -1.180647659301757812e+01 -2.399361580610275269e-01 1.047378921508789062e+01 3.070156097412109375e+00 -1.149000406265258789e+00
3.740000000000000000e+03 6.929805755615234375e+01 -1.327022838592529297e+01 -9.180737733840942383e-01 1.025696659088134766e+01 2.801667928695678711e+00 -4.652894437313079834e-01
3.741000000000000000e+03 5.526195907592773438e+01 5.419166088104248047e+00 1.095864400267601013e-01 1.894524812698364258e+00 6.012333631515502930e-01 -9.727682471275329590e-01
3.742000000000000000e+03 5.632059478759765625e+01 5.765038013458251953e+00 1.182818040251731873e-01 2.260999679565429688e+00 7.137844562530517578e-01 -1.153973340988159180e+00
3.743000000000000000e+03 5.572072601318359375e+01 4.402159690856933594e+00 6.249263510107994080e-02 1.811314940452575684e+00 5.621423125267028809e-01 -1.047912955284118652e+00
3.744000000000000000e+03 5.381396484375000000e+01 4.091715335845947266e+00 -2.171125262975692749e-02 1.210155367851257324e+00 3.565332293510437012e-01 -6.627363562583923340e-01
3.745000000000000000e+03 5.883669281005859375e+01 2.737729310989379883e+00 3.002060577273368835e-02 2.800757884979248047e+00 8.492335677146911621e-01 -1.778257131576538086e+00
3.746000000000000000e+03 5.804050827026367188e+01 2.503927946090698242e+00 2.777694165706634521e-02 2.296880960464477539e+00 6.973974108695983887e-01 -1.517872691154479980e+00
3.747000000000000000e+03 5.821080780029296875e+01 -1.603186225891113281e+01 1.596580445766448975e-01 2.586303472518920898e+00 8.237884640693664551e-01 1.508826136589050293e+00
3.748000000000000000e+03 5.769556045532226562e+01 3.486639022827148438e+00 4.972723871469497681e-02 2.352428436279296875e+00 7.206466794013977051e-01 -1.460029602050781250e+00
3.749000000000000000e+03 3.255670166015625000e+01 3.888167858123779297e+00 -5.324782729148864746e-01 -1.856703869998455048e-02 -1.653136014938354492e-01 7.257690429687500000e-01
3.750000000000000000e+03 3.041585159301757812e+01 3.769050836563110352e+00 -5.018378496170043945e-01 -8.256191015243530273e-02 -1.753199249505996704e-01 7.228175997734069824e-01
3.751000000000000000e+03 3.182330131530761719e+01 3.450596570968627930e+00 -5.402780771255493164e-01 -3.720454499125480652e-02 -1.732447743415832520e-01 7.212463617324829102e-01
3.752000000000000000e+03 5.652681350708007812e+01 -1.832771492004394531e+01 2.492806762456893921e-01 2.266972064971923828e+00 7.548758387565612793e-01 1.140738606452941895e+00
3.753000000000000000e+03 6.781008148193359375e+01 4.046984195709228516e+00 -1.207613706588745117e+00 8.567301750183105469e+00 2.207906484603881836e+00 -6.414323449134826660e-01
3.754000000000000000e+03 3.442293930053710938e+01 4.546921253204345703e+00 -5.163782835006713867e-01 2.497531287372112274e-02 -1.474208831787109375e-01 7.185664772987365723e-01
3.755000000000000000e+03 6.988762664794921875e+01 -2.398692369461059570e+00 6.623758673667907715e-01 1.092162990570068359e+01 3.475201606750488281e+00 1.471207499504089355e+00
3.756000000000000000e+03 6.956288909912109375e+01 -1.181795954704284668e+00 -3.258151412010192871e-01 1.084855079650878906e+01 3.156820535659790039e+00 1.000552535057067871e+00
3.757000000000000000e+03 6.803242492675781250e+01 2.243200540542602539e+00 -1.289512038230895996e+00 9.394304275512695312e+00 2.431437730789184570e+00 -4.941236674785614014e-01
3.758000000000000000e+03 6.873495483398437500e+01 -1.638518524169921875e+01 -1.136063218116760254e+00 8.918060302734375000e+00 2.334599018096923828e+00 1.851426064968109131e-01
3.759000000000000000e+03 3.558517837524414062e+01 -2.006977653503417969e+01 -9.427151083946228027e-02 1.191603578627109528e-02 -2.470664307475090027e-02 -4.953282773494720459e-01
3.760000000000000000e+03 3.703984832763671875e+01 -2.027959442138671875e+01 -4.957609251141548157e-02 3.895476460456848145e-02 -3.186397487297654152e-03 -4.711220860481262207e-01
3.761000000000000000e+03 6.865110015869140625e+01 -1.716907310485839844e+01 -1.096627593040466309e+00 8.617196083068847656e+00 2.256170749664306641e+00 2.662873864173889160e-01
3.762000000000000000e+03 6.103325653076171875e+01 -1.393912696838378906e+01 2.077932283282279968e-02 3.966879844665527344e+00 1.196297764778137207e+00 2.437364816665649414e+00
3.763000000000000000e+03 6.463014984130859375e+01 7.972683429718017578e+00 -6.494712233543395996e-01 6.298541545867919922e+00 1.694721102714538574e+00 -1.218880653381347656e+00
3.764000000000000000e+03 4.084757614135742188e+01 5.329998970031738281e+00 -4.013697206974029541e-01 2.154275327920913696e-01 -5.578265339136123657e-02 5.624539256095886230e-01
3.765000000000000000e+03 6.916296386718750000e+01 4.950037300586700439e-01 -1.020720005035400391e+00 1.025682830810546875e+01 2.770832538604736328e+00 3.324566185474395752e-01
3.766000000000000000e+03 6.934346008300781250e+01 1.740367174148559570e+00 -1.118521690368652344e+00 9.700661659240722656e+00 2.574641942977905273e+00 2.027738094329833984e-01
3.767000000000000000e+03 6.727209472656250000e+01 -1.861059379577636719e+01 -9.874103665351867676e-01 7.852964401245117188e+00 2.059666156768798828e+00 7.126829028129577637e-01
3.768000000000000000e+03 5.050035095214843750e+01 -1.793100929260253906e+01 7.510599493980407715e-02 7.634766697883605957e-01 2.515747845172882080e-01 2.147025465965270996e-01
3.769000000000000000e+03 3.718336105346679688e+01 4.095354557037353516e+00 -5.517609119415283203e-01 8.618180453777313232e-02 -1.396737247705459595e-01 6.804421544075012207e-01
3.770000000000000000e+03 4.573467636108398438e+01 -1.778735160827636719e+01 -1.499470919370651245e-01 2.939467728137969971e-01 4.319990053772926331e-02 -2.232468277215957642e-01
3.771000000000000000e+03 2.961744117736816406e+01 4.056056499481201172e+00 -4.773365557193756104e-01 -1.106265783309936523e-01 -1.763889342546463013e-01 7.243069410324096680e-01
3.772000000000000000e+03 5.304151153564453125e+01 4.711814880371093750e+00 -1.187648158520460129e-02 1.157786726951599121e+00 3.437730967998504639e-01 -5.512762665748596191e-01
3.773000000000000000e+03 3.671469497680664062e+01 4.686879158020019531e+00 -5.032917857170104980e-01 8.372206240892410278e-02 -1.258709281682968140e-01 6.904095411300659180e-01
3.774000000000000000e+03 5.008333206176757812e+01 -1.935214614868164062e+01 2.168169468641281128e-01 8.717284798622131348e-01 3.265636265277862549e-01 2.267507016658782959e-01
3.775000000000000000e+03 5.433872604370117188e+01 -1.916606140136718750e+01 3.050522804260253906e-01 1.697750329971313477e+00 6.008407473564147949e-01 8.040700554847717285e-01
3.776000000000000000e+03 5.408781433105468750e+01 -1.795271110534667969e+01 2.229156643152236938e-01 1.451835513114929199e+00 5.024253726005554199e-01 7.450289130210876465e-01
3.777000000000000000e+03 4.653927230834960938e+01 -1.689804458618164062e+01 -2.488390952348709106e-01 2.958874106407165527e-01 1.411449816077947617e-02 -2.031653970479965210e-01
3.778000000000000000e+03 4.933715438842773438e+01 -1.738932991027832031e+01 -4.732419177889823914e-02 5.751642584800720215e-01 1.583520174026489258e-01 5.707086250185966492e-02
3.779000000000000000e+03 2.983776092529296875e+01 1.094227981567382812e+01 -3.216847777366638184e-01 -8.595148473978042603e-02 -1.222908794879913330e-01 6.755387783050537109e-01
3.780000000000000000e+03 6.728762817382812500e+01 4.590639114379882812e+00 -1.149460434913635254e+00 8.186521530151367188e+00 2.111118555068969727e+00 -8.312125802040100098e-01
3.781000000000000000e+03 4.517193603515625000e+01 4.848140716552734375e+00 -3.442523181438446045e-01 3.504670262336730957e-01 1.864411984570324421e-03 3.381843864917755127e-01
3.782000000000000000e+03 4.481213378906250000e+01 -1.860339164733886719e+01 -7.091438770294189453e-02 2.854128479957580566e-01 6.434953957796096802e-02 -2.468883693218231201e-01
3.783000000000000000e+03 3.857962799072265625e+01 -1.757003593444824219e+01 -3.328616321086883545e-01 2.609946206212043762e-02 -9.202864766120910645e-02 -4.814346134662628174e-01
3.784000000000000000e+03 3.848337936401367188e+01 -1.892664337158203125e+01 -1.763035804033279419e-01 4.360613971948623657e-02 -3.980923444032669067e-02 -4.642063081264495850e-01
3.785000000000000000e+03 4.437363815307617188e+01 5.679629802703857422e+00 -2.693474888801574707e-01 3.724604845046997070e-01 3.093389421701431274e-02 3.677844107151031494e-01
3.786000000000000000e+03 5.445932006835937500e+01 3.493613719940185547e+00 -4.124955460429191589e-02 1.263750433921813965e+00 3.667502701282501221e-01 -7.371339201927185059e-01
3.787000000000000000e+03 2.919585800170898438e+01 1.377953147888183594e+01 -2.585313320159912109e-01 -1.059164777398109436e-01 -1.093343421816825867e-01 5.787603259086608887e-01
3.788000000000000000e+03 6.539997863769531250e+01 1.055658531188964844e+01 -5.047072172164916992e-01 6.247188568115234375e+00 1.722744464874267578e+00 -9.216639995574951172e-01
3.789000000000000000e+03 2.847679519653320312e+01 1.505511188507080078e+01 -2.363082319498062134e-01 -1.498016566038131714e-01 -1.158329695463180542e-01 5.267852544784545898e-01
3.790000000000000000e+03 3.267969894409179688e+01 -2.190859031677246094e+01 8.261073380708694458e-03 -5.223502218723297119e-02 -1.319218520075082779e-02 -4.914153814315795898e-01
3.791000000000000000e+03 2.887795829772949219e+01 1.184300327301025391e+01 -3.296715319156646729e-01 -1.342718750238418579e-01 -1.391830295324325562e-01 6.489980220794677734e-01
3.792000000000000000e+03 3.088328552246093750e+01 1.014749526977539062e+01 -3.193386495113372803e-01 -4.138916358351707458e-02 -1.082183420658111572e-01 6.892189383506774902e-01
3.793000000000000000e+03 4.294225692749023438e+01 5.729983329772949219e+00 -3.042680919170379639e-01 3.114088177680969238e-01 2.142217010259628296e-03 4.525632858276367188e-01
3.794000000000000000e+03 4.371335983276367188e+01 4.923548698425292969e+00 -3.850330114364624023e-01 2.888294160366058350e-01 -2.886108122766017914e-02 4.311440885066986084e-01
3.795000000000000000e+03 3.827474594116210938e+01 5.362589359283447266e+00 -4.409342110157012939e-01 1.318022459745407104e-01 -9.273958951234817505e-02 6.519190669059753418e-01
3.796000000000000000e+03 3.840721893310546875e+01 3.620520114898681641e+00 -5.966278314590454102e-01 9.281029552221298218e-02 -1.511452496051788330e-01 6.534272432327270508e-01
3.797000000000000000e+03 5.154499435424804688e+01 6.461327075958251953e+00 9.610772132873535156e-02 1.207476854324340820e+00 3.910753726959228516e-01 -3.968064188957214355e-01
3.798000000000000000e+03 4.930409240722656250e+01 4.573154926300048828e+00 -2.120050042867660522e-01 6.069513559341430664e-01 1.184839084744453430e-01 -2.083566598594188690e-02
3.799000000000000000e+03 6.642135620117187500e+01 4.080668926239013672e+00 -1.164507985115051270e+00 8.108673095703125000e+00 2.083249330520629883e+00 -1.163510084152221680e+00
3.800000000000000000e+03 2.945185279846191406e+01 6.188443660736083984e+00 -4.341686964035034180e-01 -1.255869120359420776e-01 -1.679266840219497681e-01 7.461708784103393555e-01
3.801000000000000000e+03 3.005487823486328125e+01 7.280528545379638672e+00 -4.096930027008056641e-01 -9.920160472393035889e-02 -1.526683866977691650e-01 7.446616888046264648e-01
3.802000000000000000e+03 4.994862747192382812e+01 5.325227260589599609e+00 -8.377581834793090820e-02 7.861642837524414062e-01 2.107165455818176270e-01 -1.426731646060943604e-01
3.803000000000000000e+03 4.638223648071289062e+01 5.039002895355224609e+00 -2.889693081378936768e-01 4.235830307006835938e-01 4.038411378860473633e-02 2.439541518688201904e-01
3.804000000000000000e+03 4.375288772583007812e+01 -1.931655120849609375e+01 -1.594251021742820740e-02 2.599720060825347900e-01 7.320884615182876587e-02 -2.853269577026367188e-01
3.805000000000000000e+03 4.129421997070312500e+01 -2.025051879882812500e+01 2.612085826694965363e-02 1.782193928956985474e-01 6.130207702517509460e-02 -3.619925081729888916e-01
3.806000000000000000e+03 6.571242523193359375e+01 -2.394563674926757812e+01 -3.983476459980010986e-01 6.313569068908691406e+00 1.774566411972045898e+00 7.379326224327087402e-01
3.807000000000000000e+03 2.998481559753417969e+01 4.859914779663085938e+00 -4.664552807807922363e-01 -1.015924811363220215e-01 -1.704143285751342773e-01 7.389160990715026855e-01
3.808000000000000000e+03 6.441547393798828125e+01 1.588974189758300781e+01 -1.246270164847373962e-01 5.541690826416015625e+00 1.625119209289550781e+00 -7.363651990890502930e-01
3.809000000000000000e+03 6.544264984130859375e+01 1.251005268096923828e+01 -3.624198138713836670e-01 6.055435657501220703e+00 1.707904696464538574e+00 -8.190624713897705078e-01
3.810000000000000000e+03 3.409181594848632812e+01 -1.998754310607910156e+01 -1.170326992869377136e-01 -2.426899038255214691e-02 -4.239050671458244324e-02 -5.147261619567871094e-01
3.811000000000000000e+03 2.727437210083007812e+01 -2.221484565734863281e+01 -4.019570350646972656e-02 -1.159121170639991760e-01 -4.683234542608261108e-02 -4.667663276195526123e-01
3.812000000000000000e+03 2.550968170166015625e+01 -2.166765403747558594e+01 -8.732078224420547485e-02 -1.307284235954284668e-01 -6.541476398706436157e-02 -4.525148570537567139e-01
3.813000000000000000e+03 6.718043518066406250e+01 2.114883995056152344e+01 6.420908030122518539e-03 6.001004219055175781e+00 1.802227616310119629e+00 -5.028151273727416992e-01
3.814000000000000000e+03 6.325428390502929688e+01 1.457140254974365234e+01 -1.331295520067214966e-01 5.257265090942382812e+00 1.537240743637084961e+00 -8.543517589569091797e-01
3.815000000000000000e+03 6.486217498779296875e+01 -2.150737762451171875e+00 -8.040843605995178223e-01 1.049497222900390625e+01 2.907266378402709961e+00 -3.523083209991455078e+00
3.816000000000000000e+03 6.522882080078125000e+01 -1.087317562103271484e+01 -9.635460376739501953e-01 1.095686531066894531e+01 2.997995615005493164e+00 2.992457389831542969e+00
3.817000000000000000e+03 6.322890472412109375e+01 -1.417763233184814453e+00 -1.185635998845100403e-01 6.376447677612304688e+00 1.877365231513977051e+00 -3.687821626663208008e+00
3.818000000000000000e+03 6.816793060302734375e+01 -1.045253849029541016e+01 -8.181400597095489502e-02 1.244870853424072266e+01 3.710068464279174805e+00 -8.310113549232482910e-01
3.819000000000000000e+03 6.989060211181640625e+01 -9.627643585205078125e+00 1.387408018112182617e+00 1.102445411682128906e+01 3.723558664321899414e+00 -1.622565865516662598e+00
3.820000000000000000e+03 6.850106811523437500e+01 -9.149733543395996094e+00 1.672735452651977539e+00 1.270982074737548828e+01 4.314766883850097656e+00 -1.655478119850158691e+00
3.821000000000000000e+03 6.548246765136718750e+01 -1.116255474090576172e+01 -1.077255010604858398e+00 1.102431583404541016e+01 2.984118223190307617e+00 2.566078424453735352e+00
3.822000000000000000e+03 6.391177749633789062e+01 -1.895098090171813965e+00 -3.120153546333312988e-01 7.950709342956542969e+00 2.291608333587646484e+00 -3.880767345428466797e+00
3.823000000000000000e+03 6.419240570068359375e+01 -2.193061113357543945e+00 -3.529454469680786133e-01 8.750728607177734375e+00 2.519334793090820312e+00 -4.080986976623535156e+00
3.824000000000000000e+03 6.249768447875976562e+01 -1.162431430816650391e+01 1.536847651004791260e-01 5.033486366271972656e+00 1.556151390075683594e+00 3.360514402389526367e+00
3.825000000000000000e+03 5.928726959228515625e+01 -1.506097507476806641e+01 1.100102812051773071e-01 2.884511470794677734e+00 8.983564972877502441e-01 1.838393211364746094e+00
3.826000000000000000e+03 6.380669784545898438e+01 -1.190749168395996094e+01 -4.673469066619873047e-01 7.516832351684570312e+00 2.114845514297485352e+00 3.368621587753295898e+00
3.827000000000000000e+03 6.664146423339843750e+01 -1.110117053985595703e+01 -1.111848592758178711e+00 1.220714664459228516e+01 3.328589439392089844e+00 1.073576331138610840e+00
3.828000000000000000e+03 6.701600646972656250e+01 -1.061029911041259766e+01 -8.381733894348144531e-01 1.288910675048828125e+01 3.615279912948608398e+00 4.661518037319183350e-01
3.829000000000000000e+03 6.734571838378906250e+01 -2.264007806777954102e+00 -6.029787063598632812e-01 1.296713447570800781e+01 3.709246635437011719e+00 -2.288803271949291229e-02
3.830000000000000000e+03 6.610528564453125000e+01 -2.262897968292236328e+00 -1.096559286117553711e+00 1.276677131652832031e+01 3.501063585281372070e+00 -1.787717342376708984e+00
3.831000000000000000e+03 6.610804748535156250e+01 -1.076988601684570312e+01 -1.119183421134948730e+00 1.231350708007812500e+01 3.358297109603881836e+00 1.805051445960998535e+00
3.832000000000000000e+03 6.705166625976562500e+01 -1.106626605987548828e+01 -9.755365252494812012e-01 1.233687686920166016e+01 3.408402204513549805e+00 5.950681567192077637e-01
3.833000000000000000e+03 6.775767517089843750e+01 -2.209100484848022461e+00 -4.103345572948455811e-01 1.266199588775634766e+01 3.675498485565185547e+00 4.059523940086364746e-01
3.834000000000000000e+03 6.869580078125000000e+01 -2.608858585357666016e+00 4.397524893283843994e-01 1.211826515197753906e+01 3.767405271530151367e+00 1.260285615921020508e+00
3.835000000000000000e+03 6.276470565795898438e+01 -5.528616309165954590e-01 -1.761030554771423340e-01 5.720808506011962891e+00 1.663411617279052734e+00 -3.306375741958618164e+00
3.836000000000000000e+03 6.248086547851562500e+01 -9.283196330070495605e-01 -3.409864148125052452e-03 5.189685344696044922e+00 1.555882573127746582e+00 -3.339592218399047852e+00
3.837000000000000000e+03 6.221129226684570312e+01 1.855030953884124756e-01 -1.704670041799545288e-01 5.050250053405761719e+00 1.463934898376464844e+00 -2.978152036666870117e+00
3.838000000000000000e+03 6.918730163574218750e+01 -3.606221675872802734e+00 1.784242272377014160e+00 1.172099971771240234e+01 4.051572322845458984e+00 1.665831565856933594e+00
3.839000000000000000e+03 6.348667907714843750e+01 -9.856602549552917480e-01 -3.557034730911254883e-01 6.906058311462402344e+00 1.965106368064880371e+00 -3.479977607727050781e+00
3.840000000000000000e+03 7.036611938476562500e+01 -4.126880168914794922e+00 2.296173095703125000e+00 1.041209602355957031e+01 3.812480688095092773e+00 1.459514379501342773e+00
3.841000000000000000e+03 7.130987548828125000e+01 -7.233635425567626953e+00 2.770058393478393555e+00 9.374623298645019531e+00 3.643404722213745117e+00 -6.035937666893005371e-01
3.842000000000000000e+03 7.031113433837890625e+01 -7.361990451812744141e+00 3.387815713882446289e+00 1.013586425781250000e+01 4.057104110717773438e+00 -8.169881105422973633e-01
3.843000000000000000e+03 6.819216918945312500e+01 -2.691795587539672852e+00 2.280928045511245728e-01 1.271091461181640625e+01 3.881702184677124023e+00 1.010081052780151367e+00
3.844000000000000000e+03 6.842422485351562500e+01 -1.135108280181884766e+01 -5.537104010581970215e-01 1.168127536773681641e+01 3.338269472122192383e+00 -5.728775262832641602e-01
3.845000000000000000e+03 6.776842498779296875e+01 -1.053056335449218750e+01 -3.859439790248870850e-01 1.270735740661621094e+01 3.696424007415771484e+00 -4.479117095470428467e-01
3.846000000000000000e+03 6.990870666503906250e+01 -9.206590652465820312e+00 1.804071187973022461e+00 1.095854473114013672e+01 3.828784704208374023e+00 -1.635046005249023438e+00
3.847000000000000000e+03 6.214292526245117188e+01 -1.263190841674804688e+01 -9.211262688040733337e-03 4.896244525909423828e+00 1.466109991073608398e+00 3.000078916549682617e+00
3.848000000000000000e+03 6.327949523925781250e+01 -1.186936664581298828e+01 -2.018125206232070923e-01 6.511471271514892578e+00 1.892897605895996094e+00 3.452178716659545898e+00
3.849000000000000000e+03 7.040480041503906250e+01 -8.065641403198242188e+00 2.784940719604492188e+00 1.020645809173583984e+01 3.897419452667236328e+00 -1.231983780860900879e+00
3.850000000000000000e+03 7.069683074951171875e+01 -7.776921272277832031e+00 2.844387292861938477e+00 9.839653968811035156e+00 3.805212259292602539e+00 -9.710625410079956055e-01
3.851000000000000000e+03 6.655082702636718750e+01 4.749799728393554688e+00 -1.109285235404968262e+00 7.889019489288330078e+00 2.033920288085937500e+00 -1.077414274215698242e+00
3.852000000000000000e+03 6.182726669311523438e+01 6.291433572769165039e-01 -1.463314890861511230e-01 4.690000534057617188e+00 1.363100647926330566e+00 -2.769437789916992188e+00
3.853000000000000000e+03 6.013663482666015625e+01 2.359921693801879883e+00 -5.004044994711875916e-02 3.539771556854248047e+00 1.046919345855712891e+00 -2.127779006958007812e+00
3.854000000000000000e+03 6.105483627319335938e+01 1.708090186119079590e+00 -1.222150325775146484e-01 4.076506137847900391e+00 1.186287403106689453e+00 -2.392815351486206055e+00
3.855000000000000000e+03 6.269963836669921875e+01 -1.356178951263427734e+01 -3.089367151260375977e-01 5.760639190673828125e+00 1.635510802268981934e+00 2.827516317367553711e+00
3.856000000000000000e+03 7.040380859375000000e+01 -6.227889537811279297e+00 3.578130722045898438e+00 9.974182128906250000e+00 4.065693855285644531e+00 1.212018430233001709e-01
3.857000000000000000e+03 7.017401123046875000e+01 -7.023293018341064453e+00 3.681716442108154297e+00 1.020469188690185547e+01 4.165922641754150391e+00 -5.740451812744140625e-01
3.858000000000000000e+03 6.981034851074218750e+01 -1.008546066284179688e+01 9.090518355369567871e-01 1.108493137359619141e+01 3.598194837570190430e+00 -1.531157851219177246e+00
3.859000000000000000e+03 7.072185516357421875e+01 -8.391569137573242188e+00 2.465164661407470703e+00 9.975826263427734375e+00 3.732297420501708984e+00 -1.281941413879394531e+00
3.860000000000000000e+03 7.039198303222656250e+01 -8.644722938537597656e+00 2.326061010360717773e+00 1.035289955139160156e+01 3.803688287734985352e+00 -1.437990427017211914e+00
3.861000000000000000e+03 5.946000671386718750e+01 2.556996345520019531e+00 -1.442942651920020580e-03 3.091187715530395508e+00 9.269234538078308105e-01 -1.933142900466918945e+00
3.862000000000000000e+03 6.904235839843750000e+01 -1.354494929313659668e+00 -4.025404155254364014e-01 1.127857494354248047e+01 3.262810230255126953e+00 8.591187000274658203e-01
3.863000000000000000e+03 6.886266326904296875e+01 -7.382159233093261719e-01 -7.520303726196289062e-01 1.104514503479003906e+01 3.087934494018554688e+00 5.514352917671203613e-01
3.864000000000000000e+03 6.630548095703125000e+01 2.320941925048828125e+00 -1.289187192916870117e+00 8.751332283020019531e+00 2.238643407821655273e+00 -1.397175908088684082e+00
3.865000000000000000e+03 6.858351135253906250e+01 1.214785456657409668e+00 -1.209706425666809082e+00 9.978140830993652344e+00 2.630530357360839844e+00 -8.327349275350570679e-02
3.866000000000000000e+03 6.871282958984375000e+01 -9.892911463975906372e-02 -9.724062681198120117e-01 1.072389316558837891e+01 2.925446271896362305e+00 2.809161543846130371e-01
3.867000000000000000e+03 6.885887908935546875e+01 -9.617456436157226562e+00 1.196730732917785645e+00 1.213818645477294922e+01 4.000475406646728516e+00 -1.569912910461425781e+00
3.868000000000000000e+03 6.641775512695312500e+01 -1.222498416900634766e+01 -1.269604325294494629e+00 1.077907848358154297e+01 2.852842330932617188e+00 1.409580588340759277e+00
3.869000000000000000e+03 6.875006866455078125e+01 -1.305384445190429688e+01 -1.004701018333435059e+00 1.050855445861816406e+01 2.851155996322631836e+00 -2.468833476305007935e-01
3.870000000000000000e+03 5.496457290649414062e+01 4.046373844146728516e+00 2.931127324700355530e-02 1.554209232330322266e+00 4.750561416149139404e-01 -8.749587535858154297e-01
3.871000000000000000e+03 6.083856582641601562e+01 -1.458735275268554688e+01 -7.527839858084917068e-03 3.948549509048461914e+00 1.182306528091430664e+00 2.294505357742309570e+00
3.872000000000000000e+03 5.957152557373046875e+01 3.240675210952758789e+00 -3.288232162594795227e-02 3.370677947998046875e+00 1.001338720321655273e+00 -1.911935210227966309e+00
3.873000000000000000e+03 6.753453826904296875e+01 2.876275777816772461e+00 -1.289367318153381348e+00 8.966711044311523438e+00 2.303203105926513672e+00 -7.643989920616149902e-01
3.874000000000000000e+03 5.739931488037109375e+01 -1.768924903869628906e+01 1.943981796503067017e-01 2.488783121109008789e+00 8.049543499946594238e-01 1.319267511367797852e+00
3.875000000000000000e+03 5.603290176391601562e+01 -1.732612037658691406e+01 2.096590995788574219e-01 1.882348418235778809e+00 6.276022195816040039e-01 1.069835186004638672e+00
3.876000000000000000e+03 6.661685180664062500e+01 -1.808763694763183594e+01 -9.869669675827026367e-01 7.729000568389892578e+00 2.022609949111938477e+00 9.335563778877258301e-01
3.877000000000000000e+03 6.007189941406250000e+01 -1.501080703735351562e+01 5.925959721207618713e-02 3.471282243728637695e+00 1.059162497520446777e+00 2.065527915954589844e+00
3.878000000000000000e+03 6.933306121826171875e+01 -1.520504093170166016e+01 -1.118465781211853027e+00 9.432329177856445312e+00 2.494158983230590820e+00 -1.291301101446151733e-01
3.879000000000000000e+03 6.785813140869140625e+01 -1.725106811523437500e+01 -1.119573116302490234e+00 8.422919273376464844e+00 2.191003799438476562e+00 5.842378139495849609e-01
3.880000000000000000e+03 6.904302978515625000e+01 -1.382602119445800781e+01 -1.068363070487976074e+00 1.007388019561767578e+01 2.701655149459838867e+00 -2.234447300434112549e-01
3.881000000000000000e+03 5.665597534179687500e+01 4.638828277587890625e+00 8.217722177505493164e-02 2.155872821807861328e+00 6.714150309562683105e-01 -1.233931183815002441e+00
3.882000000000000000e+03 3.130436706542968750e+01 5.196882247924804688e+00 -4.679180383682250977e-01 -5.293051525950431824e-02 -1.562545746564865112e-01 7.418116331100463867e-01
3.883000000000000000e+03 3.144641304016113281e+01 4.032878398895263672e+00 -5.091354250907897949e-01 -4.904017597436904907e-02 -1.674526780843734741e-01 7.312142848968505859e-01
3.884000000000000000e+03 6.797734832763671875e+01 1.134185671806335449e+00 -1.275459527969360352e+00 9.957024574279785156e+00 2.604469537734985352e+00 -3.948834836483001709e-01
3.885000000000000000e+03 6.857701873779296875e+01 -1.357543277740478516e+01 -1.127238631248474121e+00 1.024991226196289062e+01 2.736802101135253906e+00 -5.098973214626312256e-02
3.886000000000000000e+03 3.482987594604492188e+01 5.211944580078125000e+00 -4.745102226734161377e-01 4.583019390702247620e-02 -1.286040097475051880e-01 7.149398326873779297e-01
3.887000000000000000e+03 3.354931640625000000e+01 5.974267959594726562e+00 -4.374553263187408447e-01 2.353666536509990692e-02 -1.241755932569503784e-01 7.285927534103393555e-01
3.888000000000000000e+03 3.614110183715820312e+01 5.371574878692626953e+00 -4.571837186813354492e-01 7.987830042839050293e-02 -1.131916195154190063e-01 6.973817348480224609e-01
3.889000000000000000e+03 6.059586334228515625e+01 -1.532569599151611328e+01 -1.345882099121809006e-02 3.889528036117553711e+00 1.162820816040039062e+00 2.135801792144775391e+00
3.890000000000000000e+03 6.548967742919921875e+01 7.290171146392822266e+00 -7.819709181785583496e-01 6.767488002777099609e+00 1.795655131340026855e+00 -1.140694618225097656e+00
3.891000000000000000e+03 5.714612960815429688e+01 -1.938923263549804688e+01 2.353156805038452148e-01 2.690003871917724609e+00 8.775959014892578125e-01 1.187859654426574707e+00
3.892000000000000000e+03 3.200697708129882812e+01 4.591395854949951172e+00 -4.925866127014160156e-01 -3.196168318390846252e-02 -1.573644876480102539e-01 7.365964651107788086e-01
3.893000000000000000e+03 3.843248367309570312e+01 4.432585716247558594e+00 -5.246869921684265137e-01 1.111555248498916626e-01 -1.240594312548637390e-01 6.547376513481140137e-01
3.894000000000000000e+03 3.771562576293945312e+01 4.388906478881835938e+00 -5.277568101882934570e-01 1.008454859256744385e-01 -1.280733942985534668e-01 6.684463024139404297e-01
3.895000000000000000e+03 6.657995605468750000e+01 -2.182379722595214844e+01 -6.335614919662475586e-01 6.904942512512207031e+00 1.881414413452148438e+00 7.233692407608032227e-01
3.896000000000000000e+03 3.977035903930664062e+01 -1.898476409912109375e+01 -1.458839625120162964e-01 7.875649631023406982e-02 -2.013823762536048889e-02 -4.388215541839599609e-01
3.897000000000000000e+03 6.167753982543945312e+01 2.092658042907714844e+00 -2.697662711143493652e-01 4.768286228179931641e+00 1.349555969238281250e+00 -2.428945302963256836e+00
3.898000000000000000e+03 4.803432083129882812e+01 -2.219500923156738281e+01 3.854210376739501953e-01 8.673487901687622070e-01 3.758309483528137207e-01 1.023594588041305542e-01
3.899000000000000000e+03 5.294477462768554688e+01 -1.815216827392578125e+01 1.933366805315017700e-01 1.216514587402343750e+00 4.229553937911987305e-01 5.505162477493286133e-01
3.900000000000000000e+03 6.707543182373046875e+01 -1.714176177978515625e+01 -1.106210947036743164e+00 8.224496841430664062e+00 2.135485649108886719e+00 8.325985670089721680e-01
3.901000000000000000e+03 5.889813232421875000e+01 -1.731372451782226562e+01 9.845802932977676392e-02 3.192750215530395508e+00 9.873624444007873535e-01 1.590826034545898438e+00
3.902000000000000000e+03 5.548856735229492188e+01 -1.881855010986328125e+01 2.895723581314086914e-01 1.967144489288330078e+00 6.770150661468505859e-01 9.677833318710327148e-01
3.903000000000000000e+03 4.571086502075195312e+01 -1.972760581970214844e+01 8.961243927478790283e-02 4.204123318195343018e-01 1.530074328184127808e-01 -1.607138216495513916e-01
3.904000000000000000e+03 5.222933578491210938e+01 5.482018470764160156e+00 2.958711236715316772e-02 1.160675168037414551e+00 3.570787012577056885e-01 -4.689291417598724365e-01
3.905000000000000000e+03 5.076386642456054688e+01 5.924728393554687500e+00 1.567727141082286835e-02 9.674618840217590332e-01 2.949417531490325928e-01 -2.617669999599456787e-01
3.906000000000000000e+03 4.772976684570312500e+01 5.577750205993652344e+00 -1.608740389347076416e-01 5.827971100807189941e-01 1.265769153833389282e-01 9.540788084268569946e-02
3.907000000000000000e+03 4.870119094848632812e+01 -1.857140731811523438e+01 6.868981570005416870e-02 6.087267398834228516e-01 2.032249718904495239e-01 4.074299335479736328e-02
3.908000000000000000e+03 5.371644592285156250e+01 5.465082645416259766e+00 8.175119757652282715e-02 1.441490769386291504e+00 4.569725692272186279e-01 -7.014708518981933594e-01
3.909000000000000000e+03 4.232494354248046875e+01 5.030373573303222656e+00 -4.073493778705596924e-01 2.478892952203750610e-01 -4.783802479505538940e-02 5.054106116294860840e-01
3.910000000000000000e+03 3.927113723754882812e+01 4.354008197784423828e+00 -5.238140821456909180e-01 1.255981624126434326e-01 -1.194647699594497681e-01 6.325179338455200195e-01
3.911000000000000000e+03 3.191692924499511719e+01 9.349907875061035156e+00 -3.236530423164367676e-01 -4.562894348055124283e-03 -9.846477955579757690e-02 7.010246515274047852e-01
3.912000000000000000e+03 6.086990356445312500e+01 2.976869821548461914e+00 -1.791338473558425903e-01 4.181690692901611328e+00 1.200767040252685547e+00 -2.156944990158081055e+00
3.913000000000000000e+03 4.510690307617187500e+01 6.369234085083007812e+00 -1.707125306129455566e-01 4.569021463394165039e-01 8.585688471794128418e-02 2.942523360252380371e-01
3.914000000000000000e+03 6.482627868652343750e+01 6.519813060760498047e+00 -7.855265736579895020e-01 6.626179695129394531e+00 1.752195954322814941e+00 -1.347928285598754883e+00
3.915000000000000000e+03 6.025043869018554688e+01 3.116691350936889648e+00 -1.115509197115898132e-01 3.804782629013061523e+00 1.107969522476196289e+00 -2.053525209426879883e+00
3.916000000000000000e+03 3.919539642333984375e+01 5.357973575592041016e+00 -4.353015720844268799e-01 1.543031185865402222e-01 -8.429952710866928101e-02 6.280398964881896973e-01
3.917000000000000000e+03 6.440084838867187500e+01 1.353742218017578125e+01 -2.494386881589889526e-01 5.658372402191162109e+00 1.622680187225341797e+00 -8.481150269508361816e-01
3.918000000000000000e+03 6.352162933349609375e+01 1.041557407379150391e+01 -3.800471723079681396e-01 5.587276935577392578e+00 1.562168955802917480e+00 -1.121295690536499023e+00
3.919000000000000000e+03 5.293149566650390625e+01 6.118804931640625000e+00 1.175934895873069763e-01 1.381468415260314941e+00 4.497185647487640381e-01 -5.924251675605773926e-01
3.920000000000000000e+03 5.263700485229492188e+01 3.891029119491577148e+00 -1.100185289978981018e-01 9.681141972541809082e-01 2.574287056922912598e-01 -4.453639686107635498e-01
3.921000000000000000e+03 3.249142074584960938e+01 -2.000051307678222656e+01 -1.379188746213912964e-01 -5.447047948837280273e-02 -5.771680921316146851e-02 -5.162824988365173340e-01
3.922000000000000000e+03 4.007466888427734375e+01 5.222048282623291016e+00 -4.325102269649505615e-01 1.855171471834182739e-01 -7.409792393445968628e-02 5.990156531333923340e-01
3.923000000000000000e+03 6.266752624511718750e+01 -2.597709083557128906e+01 -4.575807601213455200e-02 5.078961849212646484e+00 1.509961128234863281e+00 8.113535046577453613e-01
3.924000000000000000e+03 2.748539924621582031e+01 -2.029762077331542969e+01 -1.577166169881820679e-01 -9.824805706739425659e-02 -7.678940147161483765e-02 -4.868533313274383545e-01
3.925000000000000000e+03 4.353596496582031250e+01 6.450307369232177734e+00 -2.153884619474411011e-01 3.818493783473968506e-01 4.993827641010284424e-02 3.948273956775665283e-01
3.926000000000000000e+03 4.851318359375000000e+01 5.097400665283203125e+00 -1.815151572227478027e-01 5.983623862266540527e-01 1.250541657209396362e-01 4.246075823903083801e-02
3.927000000000000000e+03 4.628504943847656250e+01 5.790224552154541016e+00 -1.773948669433593750e-01 4.987155199050903320e-01 9.639619290828704834e-02 2.156131416559219360e-01
3.928000000000000000e+03 6.221405410766601562e+01 1.327416324615478516e+01 -1.299933344125747681e-01 4.972830295562744141e+00 1.452851057052612305e+00 -9.704459309577941895e-01
3.929000000000000000e+03 3.849267196655273438e+01 -2.044785690307617188e+01 -1.162494719028472900e-02 7.551688700914382935e-02 1.916758157312870026e-02 -4.428343474864959717e-01
3.930000000000000000e+03 3.546174240112304688e+01 -2.158472824096679688e+01 4.575527831912040710e-02 3.336561098694801331e-02 2.373626641929149628e-02 -4.733820259571075439e-01
3.931000000000000000e+03 6.305837631225585938e+01 1.983933067321777344e+01 8.363426476716995239e-02 5.050690174102783203e+00 1.540297389030456543e+00 -6.290944218635559082e-01
3.932000000000000000e+03 3.089612388610839844e+01 1.311060905456542969e+01 -2.209076881408691406e-01 -1.027878560125827789e-02 -6.935594230890274048e-02 5.896133184432983398e-01
3.933000000000000000e+03 7.107891082763671875e+01 -3.806924438476562500e+01 8.306822180747985840e-02 6.931012630462646484e+00 2.104224443435668945e+00 7.425630092620849609e-02
3.934000000000000000e+03 6.539245605468750000e+01 -1.530013561248779297e+00 -1.118005990982055664e+00 1.081090354919433594e+01 2.907869100570678711e+00 -2.694878339767456055e+00
3.935000000000000000e+03 6.397219467163085938e+01 -1.100397968292236328e+01 -3.148772716522216797e-01 8.080914497375488281e+00 2.329811096191406250e+00 3.802174806594848633e+00
3.936000000000000000e+03 6.409524536132812500e+01 -1.180710601806640625e+01 -5.803026556968688965e-01 8.030005455017089844e+00 2.234910726547241211e+00 3.320375919342041016e+00
3.937000000000000000e+03 6.524434661865234375e+01 -1.140037631988525391e+01 -1.037047505378723145e+00 1.043385314941406250e+01 2.819041490554809570e+00 2.794330358505249023e+00
3.938000000000000000e+03 6.441978454589843750e+01 -1.185843276977539062e+01 -7.372760772705078125e-01 8.574973106384277344e+00 2.351309061050415039e+00 3.198839187622070312e+00
3.939000000000000000e+03 6.447966003417968750e+01 -1.143973064422607422e+01 -6.950774788856506348e-01 8.963814735412597656e+00 2.480621337890625000e+00 3.386187791824340820e+00
3.940000000000000000e+03 6.465544128417968750e+01 -1.104694938659667969e+01 -6.993451118469238281e-01 9.527171134948730469e+00 2.648347854614257812e+00 3.451133728027343750e+00
3.941000000000000000e+03 6.358780670166015625e+01 -1.901273250579833984e+00 -1.225879341363906860e-01 7.089559555053710938e+00 2.090091466903686523e+00 -3.920894145965576172e+00
3.942000000000000000e+03 6.570858001708984375e+01 -2.296160221099853516e+00 -1.085802078247070312e+00 1.234441184997558594e+01 3.377582788467407227e+00 -2.482463121414184570e+00
3.943000000000000000e+03 6.564772033691406250e+01 -1.799075365066528320e+00 -1.159311532974243164e+00 1.143586063385009766e+01 3.082964658737182617e+00 -2.471971511840820312e+00
3.944000000000000000e+03 6.925357055664062500e+01 -3.070379257202148438e+00 1.103078246116638184e+00 1.163730239868164062e+01 3.822114229202270508e+00 1.562206268310546875e+00
3.945000000000000000e+03 6.917096710205078125e+01 -1.943085193634033203e+00 5.806207656860351562e-02 1.141552066802978516e+01 3.442075014114379883e+00 1.143504023551940918e+00
3.946000000000000000e+03 6.276943206787109375e+01 -1.257668018341064453e+01 -1.671823114156723022e-01 5.723891735076904297e+00 1.667012810707092285e+00 3.104805946350097656e+00
3.947000000000000000e+03 6.857451629638671875e+01 -1.034885025024414062e+01 2.081385701894760132e-01 1.215498352050781250e+01 3.708936691284179688e+00 -1.110142827033996582e+00
3.948000000000000000e+03 6.760224914550781250e+01 -1.143415641784667969e+01 -9.232724308967590332e-01 1.196032619476318359e+01 3.311116218566894531e+00 1.359458267688751221e-01
3.949000000000000000e+03 6.674153900146484375e+01 -1.696950674057006836e+00 -1.108340978622436523e+00 1.230087852478027344e+01 3.357761383056640625e+00 -9.699724316596984863e-01
3.950000000000000000e+03 6.333982086181640625e+01 -1.250729846954345703e+01 -3.657473921775817871e-01 6.625818729400634766e+00 1.878021359443664551e+00 3.183736085891723633e+00
3.951000000000000000e+03 6.249746704101562500e+01 -2.347371578216552734e-01 -1.648661643266677856e-01 5.363935470581054688e+00 1.559720754623413086e+00 -3.139417886734008789e+00
3.952000000000000000e+03 6.665803527832031250e+01 -1.154640102386474609e+01 -1.178398251533508301e+00 1.171226119995117188e+01 3.160158872604370117e+00 1.130769968032836914e+00
3.953000000000000000e+03 6.627799987792968750e+01 -1.116407394409179688e+01 -1.189793229103088379e+00 1.192206287384033203e+01 3.219680786132812500e+00 1.576464653015136719e+00
3.954000000000000000e+03 6.649671173095703125e+01 -1.179049682617187500e+01 -1.229917764663696289e+00 1.132160758972167969e+01 3.027506828308105469e+00 1.316011190414428711e+00
3.955000000000000000e+03 6.735427093505859375e+01 -1.748543143272399902e+00 -9.097837209701538086e-01 1.231968021392822266e+01 3.422968864440917969e+00 -2.588227987289428711e-01
3.956000000000000000e+03 6.644161224365234375e+01 -1.889317035675048828e+00 -1.116056084632873535e+00 1.238060188293457031e+01 3.379363775253295898e+00 -1.351432919502258301e+00
3.957000000000000000e+03 6.241870498657226562e+01 -1.225852012634277344e+01 -1.042473688721656799e-02 5.209893226623535156e+00 1.559840559959411621e+00 3.151443004608154297e+00
3.958000000000000000e+03 6.122949600219726562e+01 -1.334560203552246094e+01 5.471039190888404846e-02 4.003816127777099609e+00 1.217558026313781738e+00 2.582368135452270508e+00
3.959000000000000000e+03 6.772016143798828125e+01 -1.710039496421813965e+00 -7.674896717071533203e-01 1.224139785766601562e+01 3.442172288894653320e+00 1.083048582077026367e-01
3.960000000000000000e+03 6.813893890380859375e+01 -1.433396530151367188e+01 -1.216923832893371582e+00 9.725909233093261719e+00 2.552695751190185547e+00 3.290961384773254395e-01
3.961000000000000000e+03 6.874337768554687500e+01 -1.426949596405029297e+01 -1.166141152381896973e+00 9.926227569580078125e+00 2.628026008605957031e+00 -2.196712046861648560e-02
3.962000000000000000e+03 6.890075683593750000e+01 -1.133292770385742188e+01 -3.477590680122375488e-01 1.141246414184570312e+01 3.319411516189575195e+00 -8.635286092758178711e-01
3.963000000000000000e+03 6.747345733642578125e+01 -1.100886440277099609e+01 -7.942298054695129395e-01 1.236629772186279297e+01 3.471620559692382812e+00 7.672148942947387695e-02
3.964000000000000000e+03 6.730284881591796875e+01 -1.296960115432739258e+00 -1.049450159072875977e+00 1.187447452545166016e+01 3.247507333755493164e+00 -4.392669200897216797e-01
3.965000000000000000e+03 5.963299942016601562e+01 -1.572970962524414062e+01 6.994678825139999390e-02 3.304038524627685547e+00 1.012195587158203125e+00 1.894082307815551758e+00
3.966000000000000000e+03 6.866192626953125000e+01 -9.819929122924804688e+00 8.296456933021545410e-01 1.234193038940429688e+01 3.951472997665405273e+00 -1.421734333038330078e+00
3.967000000000000000e+03 6.759194183349609375e+01 1.718917846679687500e+00 -1.325526714324951172e+00 9.549412727355957031e+00 2.467165708541870117e+00 -6.887733936309814453e-01
3.968000000000000000e+03 6.192176437377929688e+01 1.485012292861938477e+00 -2.765927016735076904e-01 4.935378551483154297e+00 1.397635698318481445e+00 -2.589177131652832031e+00
3.969000000000000000e+03 6.940953826904296875e+01 -1.128742694854736328e+01 -1.419234424829483032e-01 1.108903598785400391e+01 3.284133672714233398e+00 -1.107571601867675781e+00
3.970000000000000000e+03 6.835302734375000000e+01 -1.234309577941894531e+01 -9.712787270545959473e-01 1.102339458465576172e+01 3.015634775161743164e+00 -1.657510548830032349e-01
3.971000000000000000e+03 6.889614868164062500e+01 -1.248940753936767578e+01 -8.445608615875244141e-01 1.078383350372314453e+01 2.981781721115112305e+00 -4.696587622165679932e-01
3.972000000000000000e+03 5.962338256835937500e+01 3.949646711349487305e+00 -7.023087888956069946e-02 3.547924995422363281e+00 1.043308258056640625e+00 -1.846114277839660645e+00
3.973000000000000000e+03 6.190051269531250000e+01 -1.308244895935058594e+01 -2.712077088654041290e-02 4.691499233245849609e+00 1.399313449859619141e+00 2.826213598251342773e+00
3.974000000000000000e+03 6.691314697265625000e+01 2.526150941848754883e+00 -1.315825700759887695e+00 8.942487716674804688e+00 2.287998437881469727e+00 -1.064723372459411621e+00
3.975000000000000000e+03 6.080104827880859375e+01 2.336519479751586914e+00 -1.290180236101150513e-01 4.004038810729980469e+00 1.162506222724914551e+00 -2.272022724151611328e+00
3.976000000000000000e+03 6.700955200195312500e+01 3.370188236236572266e+00 -1.251637220382690430e+00 8.582512855529785156e+00 2.199262619018554688e+00 -9.755842685699462891e-01
3.977000000000000000e+03 6.337552261352539062e+01 -3.076775968074798584e-01 -4.743188321590423584e-01 6.718858242034912109e+00 1.873361825942993164e+00 -3.193547487258911133e+00
3.978000000000000000e+03 6.813537597656250000e+01 -5.396412611007690430e-01 -1.023593902587890625e+00 1.111256694793701172e+01 3.026692152023315430e+00 3.964788466691970825e-02
3.979000000000000000e+03 6.864220428466796875e+01 5.389623045921325684e-01 -1.136417746543884277e+00 1.035237503051757812e+01 2.764787197113037109e+00 6.303589791059494019e-02
3.980000000000000000e+03 6.699285888671875000e+01 -1.332907319068908691e+00 -1.135572910308837891e+00 1.185124015808105469e+01 3.214700222015380859e+00 -7.518008947372436523e-01
3.981000000000000000e+03 3.196591377258300781e+01 5.974893569946289062e+00 -4.405526518821716309e-01 -2.856239862740039825e-02 -1.407345235347747803e-01 7.423638701438903809e-01
3.982000000000000000e+03 6.260887908935546875e+01 6.084069013595581055e-01 -3.379287123680114746e-01 5.621109008789062500e+00 1.584954023361206055e+00 -2.926383256912231445e+00
3.983000000000000000e+03 6.805342102050781250e+01 -1.515690994262695312e+01 -1.243297338485717773e+00 9.353951454162597656e+00 2.433196306228637695e+00 4.354903697967529297e-01
3.984000000000000000e+03 5.798672485351562500e+01 -1.689808654785156250e+01 1.618301421403884888e-01 2.582525968551635742e+00 8.233068585395812988e-01 1.440364122390747070e+00
3.985000000000000000e+03 6.252231216430664062e+01 -1.986951828002929688e+01 -3.512584567070007324e-01 5.351190090179443359e+00 1.499979376792907715e+00 1.483058094978332520e+00
3.986000000000000000e+03 6.809874725341796875e+01 -1.342293453216552734e+01 -1.180001497268676758e+00 1.032021236419677734e+01 2.742063283920288086e+00 2.210459858179092407e-01
3.987000000000000000e+03 6.563990783691406250e+01 5.956039428710937500e+00 -9.112046360969543457e-01 7.127429962158203125e+00 1.864867568016052246e+00 -1.226756215095520020e+00
3.988000000000000000e+03 5.340024185180664062e+01 6.858539104461669922e+00 1.602537333965301514e-01 1.639981269836425781e+00 5.400704741477966309e-01 -6.746780872344970703e-01
3.989000000000000000e+03 5.822527694702148438e+01 -1.851035881042480469e+01 1.647933274507522583e-01 3.036985635757446289e+00 9.605336785316467285e-01 1.412330031394958496e+00
3.990000000000000000e+03 5.761269760131835938e+01 4.894813537597656250e+00 6.386569142341613770e-02 2.601204872131347656e+00 7.995212078094482422e-01 -1.400986790657043457e+00
3.991000000000000000e+03 5.884168624877929688e+01 3.932592153549194336e+00 6.064681219868361950e-04 3.024176120758056641e+00 9.074348211288452148e-01 -1.707568645477294922e+00
3.992000000000000000e+03 3.269185256958007812e+01 5.275359153747558594e+00 -4.713125526905059814e-01 -1.060815714299678802e-02 -1.445762068033218384e-01 7.370083928108215332e-01
3.993000000000000000e+03 5.228060531616210938e+01 8.129473686218261719e+00 1.931970864534378052e-01 1.528233051300048828e+00 5.164290666580200195e-01 -5.297372341156005859e-01
3.994000000000000000e+03 4.903171920776367188e+01 6.104798793792724609e+00 -3.537704795598983765e-02 7.847673892974853516e-01 2.248170971870422363e-01 -7.127115130424499512e-02
3.995000000000000000e+03 5.465036392211914062e+01 -2.051543235778808594e+01 3.519387841224670410e-01 1.940063476562500000e+00 6.876006722450256348e-01 8.228696584701538086e-01
3.996000000000000000e+03 6.520858001708984375e+01 -2.245503807067871094e+01 -4.823815226554870605e-01 6.285833835601806641e+00 1.741035699844360352e+00 8.878772258758544922e-01
3.997000000000000000e+03 3.740105819702148438e+01 7.644582748413085938e+00 -2.881675958633422852e-01 1.679387688636779785e-01 -3.606864437460899353e-02 6.352488398551940918e-01
3.998000000000000000e+03 3.695838546752929688e+01 5.996724605560302734e+00 -4.045813977718353271e-01 1.145354658365249634e-01 -8.701377362012863159e-02 6.764185428619384766e-01
3.999000000000000000e+03 6.638361358642578125e+01 3.506933212280273438e+00 -1.196952223777770996e+00 8.224010467529296875e+00 2.108117341995239258e+00 -1.215456366539001465e+00
4.000000000000000000e+03 5.444164657592773438e+01 6.301366329193115234e+00 1.473671793937683105e-01 1.809204459190368652e+00 5.869714617729187012e-01 -8.473812341690063477e-01
4.001000000000000000e+03 6.583943939208984375e+01 4.864333152770996094e+00 -1.030095577239990234e+00 7.466416835784912109e+00 1.930896282196044922e+00 -1.324513792991638184e+00
4.002000000000000000e+03 5.306136703491210938e+01 -1.939893341064453125e+01 3.029194772243499756e-01 1.453329563140869141e+00 5.268747210502624512e-01 6.152794361114501953e-01
4.003000000000000000e+03 5.595159530639648438e+01 -2.006152343750000000e+01 2.981545329093933105e-01 2.309657812118530273e+00 7.823437452316284180e-01 9.908232092857360840e-01
4.004000000000000000e+03 5.331270217895507812e+01 -2.069238853454589844e+01 3.656875491142272949e-01 1.671713471412658691e+00 6.112203001976013184e-01 6.642923355102539062e-01
4.005000000000000000e+03 6.371237182617187500e+01 8.689567565917968750e+00 -5.062066912651062012e-01 5.821457386016845703e+00 1.594575166702270508e+00 -1.263498306274414062e+00
4.006000000000000000e+03 6.450662994384765625e+01 9.609993934631347656e+00 -5.163553953170776367e-01 6.039545059204101562e+00 1.656956911087036133e+00 -1.089546442031860352e+00
4.007000000000000000e+03 3.189459037780761719e+01 7.565140724182128906e+00 -3.816948533058166504e-01 -2.270580455660820007e-02 -1.213201954960823059e-01 7.317231893539428711e-01
4.008000000000000000e+03 3.093737411499023438e+01 8.317434310913085938e+00 -3.742970228195190430e-01 -5.422001332044601440e-02 -1.285551041364669800e-01 7.265131473541259766e-01
4.009000000000000000e+03 4.257054519653320312e+01 -1.987474250793457031e+01 1.677535660564899445e-02 2.192152887582778931e-01 7.079719752073287964e-02 -3.263297975063323975e-01
4.010000000000000000e+03 4.452305984497070312e+01 -2.060082244873046875e+01 1.521476060152053833e-01 3.805722892284393311e-01 1.598159670829772949e-01 -2.058004438877105713e-01
4.011000000000000000e+03 3.414904403686523438e+01 -2.153050994873046875e+01 5.180124659091234207e-03 -1.322960667312145233e-02 -2.414844464510679245e-03 -4.932826459407806396e-01
4.012000000000000000e+03 3.992835617065429688e+01 -2.044393157958984375e+01 1.177886780351400375e-02 1.261631846427917480e-01 4.138261452317237854e-02 -4.024023115634918213e-01
4.013000000000000000e+03 6.336346054077148438e+01 1.236350440979003906e+01 -2.528412938117980957e-01 5.398355484008789062e+00 1.543654203414916992e+00 -9.842646121978759766e-01
4.014000000000000000e+03 5.990074920654296875e+01 9.797637939453125000e+00 -6.708829849958419800e-02 4.135570049285888672e+00 1.220544576644897461e+00 -1.263107299804687500e+00
4.015000000000000000e+03 4.671660995483398438e+01 -1.875789833068847656e+01 1.118356268852949142e-02 4.400959014892578125e-01 1.353838294744491577e-01 -1.162755340337753296e-01
4.016000000000000000e+03 4.787672424316406250e+01 -1.978082275390625000e+01 1.688626855611801147e-01 6.158342361450195312e-01 2.354090660810470581e-01 1.372596435248851776e-02
4.017000000000000000e+03 6.182610702514648438e+01 1.817580032348632812e+01 7.759062945842742920e-02 4.765185356140136719e+00 1.452832818031311035e+00 -7.138316631317138672e-01
4.018000000000000000e+03 5.902781295776367188e+01 -1.961601829528808594e+01 9.786676615476608276e-02 3.527002573013305664e+00 1.087460756301879883e+00 1.410202980041503906e+00
4.019000000000000000e+03 6.393876647949218750e+01 -2.774531364440917969e+01 -3.758176416158676147e-02 5.447878360748291016e+00 1.623088955879211426e+00 6.043097972869873047e-01
4.020000000000000000e+03 6.419880676269531250e+01 -2.476817703247070312e+01 -2.260592132806777954e-01 5.668661594390869141e+00 1.632780671119689941e+00 8.144391775131225586e-01
4.021000000000000000e+03 4.464575576782226562e+01 7.581440448760986328e+00 -8.000824600458145142e-02 5.190744400024414062e-01 1.317198574542999268e-01 2.823969721794128418e-01
4.022000000000000000e+03 4.428722000122070312e+01 8.916172981262207031e+00 1.101009640842676163e-02 5.903663039207458496e-01 1.804129183292388916e-01 2.625157535076141357e-01
4.023000000000000000e+03 4.068618392944335938e+01 6.767571449279785156e+00 -2.693241536617279053e-01 2.715642452239990234e-01 6.720319506712257862e-04 5.382931828498840332e-01
4.024000000000000000e+03 4.216566085815429688e+01 6.556904792785644531e+00 -2.436937242746353149e-01 3.207810223102569580e-01 2.312618866562843323e-02 4.681075811386108398e-01
4.025000000000000000e+03 5.201594161987304688e+01 -2.107261466979980469e+01 3.862482607364654541e-01 1.379637002944946289e+00 5.297656059265136719e-01 4.589475393295288086e-01
4.026000000000000000e+03 4.678804397583007812e+01 -2.093065071105957031e+01 2.502293288707733154e-01 6.186361908912658691e-01 2.606596648693084717e-01 -3.491756692528724670e-02
4.027000000000000000e+03 3.961222076416015625e+01 7.565065860748291016e+00 -2.379751801490783691e-01 2.544663548469543457e-01 4.947347100824117661e-03 5.642285943031311035e-01
4.028000000000000000e+03 5.061924743652343750e+01 7.034358978271484375e+00 9.975863993167877197e-02 1.096211433410644531e+00 3.587910234928131104e-01 -2.956800460815429688e-01
4.029000000000000000e+03 3.301135253906250000e+01 1.044420051574707031e+01 -2.456242293119430542e-01 6.106521189212799072e-02 -5.536770448088645935e-02 6.543198227882385254e-01
4.030000000000000000e+03 3.181943321228027344e+01 1.129832077026367188e+01 -2.512457072734832764e-01 1.620005443692207336e-02 -7.051370292901992798e-02 6.432232856750488281e-01
4.031000000000000000e+03 2.909985923767089844e+01 -2.037409591674804688e+01 -1.412926912307739258e-01 -8.572584390640258789e-02 -6.810556352138519287e-02 -5.014238953590393066e-01
4.032000000000000000e+03 3.130517196655273438e+01 -2.465757942199707031e+01 1.746731549501419067e-01 -7.068734616041183472e-02 3.119574114680290222e-02 -4.419631063938140869e-01
4.033000000000000000e+03 6.488071441650390625e+01 2.503971099853515625e+01 1.528467386960983276e-01 5.408298492431640625e+00 1.668343544006347656e+00 -4.449546039104461670e-01
4.034000000000000000e+03 6.554747009277343750e+01 -1.199479961395263672e+01 -1.164553403854370117e+00 1.026391506195068359e+01 2.729808330535888672e+00 2.317560434341430664e+00
4.035000000000000000e+03 6.402336120605468750e+01 -1.210999679565429688e+01 -5.930512547492980957e-01 7.820520877838134766e+00 2.168240785598754883e+00 3.198497533798217773e+00
4.036000000000000000e+03 6.381374740600585938e+01 -1.231991410255432129e+00 -4.624456167221069336e-01 7.549308776855468750e+00 2.126058816909790039e+00 -3.571431398391723633e+00
4.037000000000000000e+03 6.628638458251953125e+01 -2.077057600021362305e+00 -1.123371124267578125e+00 1.257298183441162109e+01 3.434883356094360352e+00 -1.535313606262207031e+00
4.038000000000000000e+03 6.591962432861328125e+01 -1.530245542526245117e+00 -1.229757428169250488e+00 1.147404289245605469e+01 3.073285579681396484e+00 -2.081008911132812500e+00
4.039000000000000000e+03 6.818544769287109375e+01 -2.154747009277343750e+00 -2.397056668996810913e-01 1.229121685028076172e+01 3.615453481674194336e+00 7.074733972549438477e-01
4.040000000000000000e+03 6.840601348876953125e+01 -9.388180375099182129e-01 -8.258953690528869629e-01 1.132717514038085938e+01 3.150383949279785156e+00 3.487235903739929199e-01
4.041000000000000000e+03 6.596015930175781250e+01 -1.129671669006347656e+01 -1.174577236175537109e+00 1.147697925567626953e+01 3.090720653533935547e+00 1.962933778762817383e+00
4.042000000000000000e+03 6.253203201293945312e+01 -1.293438911437988281e+01 -1.727514415979385376e-01 5.479711055755615234e+00 1.592087984085083008e+00 2.988042831420898438e+00
4.043000000000000000e+03 6.620191955566406250e+01 -1.421506643295288086e+00 -1.230692982673645020e+00 1.152780437469482422e+01 3.089133501052856445e+00 -1.716463446617126465e+00
4.044000000000000000e+03 6.312464141845703125e+01 -7.637581229209899902e-01 -2.573517262935638428e-01 6.267801284790039062e+00 1.803134918212890625e+00 -3.414572238922119141e+00
4.045000000000000000e+03 6.637017059326171875e+01 -1.151661396026611328e+01 -1.188732981681823730e+00 1.161665248870849609e+01 3.128375768661499023e+00 1.459053635597229004e+00
4.046000000000000000e+03 6.831707000732421875e+01 -1.088685989379882812e+01 -3.242192268371582031e-01 1.204200935363769531e+01 3.515336990356445312e+00 -7.003922462463378906e-01
4.047000000000000000e+03 6.723989868164062500e+01 -1.156885623931884766e+01 -1.087754487991333008e+00 1.181989669799804688e+01 3.219642639160156250e+00 5.299391746520996094e-01
4.048000000000000000e+03 6.170105361938476562e+01 -1.359556961059570312e+01 -5.712047591805458069e-02 4.575292587280273438e+00 1.355451703071594238e+00 2.661933183670043945e+00
4.049000000000000000e+03 6.215854644775390625e+01 -1.380066585540771484e+01 -1.894083321094512939e-01 5.132280349731445312e+00 1.482861518859863281e+00 2.694194555282592773e+00
4.050000000000000000e+03 6.748162841796875000e+01 -1.194822120666503906e+01 -1.099754333496093750e+00 1.149347496032714844e+01 3.118116140365600586e+00 3.743829429149627686e-01
4.051000000000000000e+03 6.764425659179687500e+01 -1.243878841400146484e+00 -9.716848731040954590e-01 1.178535938262939453e+01 3.244102478027343750e+00 -1.541980952024459839e-01
4.052000000000000000e+03 6.812684631347656250e+01 -1.628723263740539551e+00 -6.008759737014770508e-01 1.194871139526367188e+01 3.404350757598876953e+00 4.110570549964904785e-01
4.053000000000000000e+03 6.822502899169921875e+01 -7.962825894355773926e-02 -1.107481956481933594e+00 1.080852985382080078e+01 2.910314321517944336e+00 -1.204350218176841736e-02
4.054000000000000000e+03 6.801513671875000000e+01 -1.140733838081359863e+00 -9.068269133567810059e-01 1.164942741394042969e+01 3.222779989242553711e+00 1.257985681295394897e-01
4.055000000000000000e+03 5.895116806030273438e+01 -1.610719299316406250e+01 1.125469952821731567e-01 3.042448043823242188e+00 9.464985132217407227e-01 1.708151459693908691e+00
4.056000000000000000e+03 6.814440155029296875e+01 5.113756060600280762e-01 -1.210554480552673340e+00 1.039412307739257812e+01 2.755070447921752930e+00 -1.906479150056838989e-01
4.057000000000000000e+03 6.876991271972656250e+01 -1.081082344055175781e+01 -6.064197793602943420e-02 1.178594970703125000e+01 3.517592430114746094e+00 -1.014980673789978027e+00
4.058000000000000000e+03 6.849449157714843750e+01 -1.469158744812011719e+01 -1.189333558082580566e+00 9.623777389526367188e+00 2.530333042144775391e+00 1.582648307085037231e-01
4.059000000000000000e+03 6.748052978515625000e+01 8.859964609146118164e-01 -1.326998591423034668e+00 1.002279090881347656e+01 2.608737707138061523e+00 -7.309929132461547852e-01
4.060000000000000000e+03 6.259293746948242188e+01 1.339845299720764160e+00 -4.314209520816802979e-01 5.653567314147949219e+00 1.566643953323364258e+00 -2.716132164001464844e+00
4.061000000000000000e+03 6.820439147949218750e+01 -1.287803649902343750e+01 -1.099076867103576660e+00 1.068644809722900391e+01 2.876211404800415039e+00 5.133394524455070496e-02
4.062000000000000000e+03 6.703182983398437500e+01 2.002642631530761719e+00 -1.325445771217346191e+00 9.215673446655273438e+00 2.367068290710449219e+00 -1.005358695983886719e+00
4.063000000000000000e+03 6.717543792724609375e+01 1.302477955818176270e+00 -1.371656179428100586e+00 9.757734298706054688e+00 2.515823602676391602e+00 -9.428948163986206055e-01
4.064000000000000000e+03 6.656857299804687500e+01 3.028037786483764648e+00 -1.251153349876403809e+00 8.535501480102539062e+00 2.185304641723632812e+00 -1.175248622894287109e+00
4.065000000000000000e+03 6.641521453857421875e+01 6.881997585296630859e-01 -1.361772179603576660e+00 9.803662300109863281e+00 2.532567024230957031e+00 -1.430199146270751953e+00
4.066000000000000000e+03 6.668614959716796875e+01 -1.610069274902343750e+01 -1.171827077865600586e+00 8.483197212219238281e+00 2.193410873413085938e+00 1.045922875404357910e+00
4.067000000000000000e+03 6.804207611083984375e+01 -1.636678314208984375e+01 -1.191344976425170898e+00 8.821072578430175781e+00 2.288918256759643555e+00 5.160313248634338379e-01
4.068000000000000000e+03 6.153597259521484375e+01 -1.416295528411865234e+01 -9.202902019023895264e-02 4.512945175170898438e+00 1.326274871826171875e+00 2.512739658355712891e+00
4.069000000000000000e+03 6.283443832397460938e+01 3.553865909576416016e+00 -5.898286104202270508e-01 5.839682102203369141e+00 1.574956059455871582e+00 -2.172387123107910156e+00
4.070000000000000000e+03 3.276920700073242188e+01 6.782110691070556641e+00 -4.040235877037048340e-01 5.652503576129674911e-03 -1.195113211870193481e-01 7.335920929908752441e-01
4.071000000000000000e+03 6.136405944824218750e+01 2.664709329605102539e+00 -2.532861828804016113e-01 4.574401378631591797e+00 1.296334505081176758e+00 -2.313588857650756836e+00
4.072000000000000000e+03 6.074647521972656250e+01 6.923535823822021484e+00 -2.139944881200790405e-01 4.458719253540039062e+00 1.273417472839355469e+00 -1.585570812225341797e+00
4.073000000000000000e+03 5.885843276977539062e+01 3.312432050704956055e+00 2.258528769016265869e-02 2.936940670013427734e+00 8.878577947616577148e-01 -1.743696331977844238e+00
4.074000000000000000e+03 6.736630249023437500e+01 -1.623772430419921875e+01 -1.192432522773742676e+00 8.691173553466796875e+00 2.249622106552124023e+00 7.511405944824218750e-01
4.075000000000000000e+03 5.848288726806640625e+01 5.223737716674804688e+00 1.494232751429080963e-02 3.159352064132690430e+00 9.522883296012878418e-01 -1.560765624046325684e+00
4.076000000000000000e+03 5.811678695678710938e+01 4.178645610809326172e+00 4.586343094706535339e-02 2.698434591293334961e+00 8.232893943786621094e-01 -1.524429798126220703e+00
4.077000000000000000e+03 6.559149169921875000e+01 4.147384166717529297e+00 -1.055667877197265625e+00 7.574310779571533203e+00 1.955592870712280273e+00 -1.465789675712585449e+00
4.078000000000000000e+03 5.897862625122070312e+01 7.834983348846435547e+00 -2.235154062509536743e-02 3.690648555755615234e+00 1.100489020347595215e+00 -1.397486805915832520e+00
4.079000000000000000e+03 5.784213256835937500e+01 -2.059024810791015625e+01 2.070801705121994019e-01 3.087005376815795898e+00 9.882256388664245605e-01 1.201882243156433105e+00
4.080000000000000000e+03 5.498011398315429688e+01 7.402149677276611328e+00 1.821441203355789185e-01 2.120697736740112305e+00 6.908525824546813965e-01 -9.136354327201843262e-01
4.081000000000000000e+03 6.599452972412109375e+01 -1.900992774963378906e+01 -8.517238497734069824e-01 7.183866977691650391e+00 1.899642825126647949e+00 1.055873513221740723e+00
4.082000000000000000e+03 6.591915893554687500e+01 -1.759992408752441406e+01 -9.764437079429626465e-01 7.566745281219482422e+00 1.977090477943420410e+00 1.208141207695007324e+00
4.083000000000000000e+03 6.392458343505859375e+01 7.124651432037353516e+00 -6.261368989944458008e-01 6.087023258209228516e+00 1.638265967369079590e+00 -1.412773132324218750e+00
4.084000000000000000e+03 6.339183044433593750e+01 4.145859241485595703e+00 -6.819413304328918457e-01 6.126456260681152344e+00 1.633354544639587402e+00 -1.959850311279296875e+00
4.085000000000000000e+03 3.801056671142578125e+01 6.470087528228759766e+00 -3.520552217960357666e-01 1.593093127012252808e-01 -5.782376974821090698e-02 6.407596468925476074e-01
4.086000000000000000e+03 5.752896118164062500e+01 6.606810092926025391e+00 9.297882020473480225e-02 2.889026403427124023e+00 8.946015238761901855e-01 -1.326969265937805176e+00
4.087000000000000000e+03 5.735627365112304688e+01 5.779876232147216797e+00 8.217526227235794067e-02 2.672033548355102539e+00 8.262625932693481445e-01 -1.323424696922302246e+00
4.088000000000000000e+03 6.494708251953125000e+01 -2.102944564819335938e+01 -5.600326061248779297e-01 6.356364727020263672e+00 1.738899707794189453e+00 1.042874813079833984e+00
4.089000000000000000e+03 5.958359527587890625e+01 4.693854331970214844e+00 -7.464342564344406128e-02 3.594556331634521484e+00 1.055973887443542480e+00 -1.766222357749938965e+00
4.090000000000000000e+03 6.511408996582031250e+01 5.241425037384033203e+00 -9.188222289085388184e-01 7.057817935943603516e+00 1.841698765754699707e+00 -1.429565310478210449e+00
4.091000000000000000e+03 5.238105010986328125e+01 6.964032173156738281e+00 1.515314579010009766e-01 1.386071801185607910e+00 4.612809717655181885e-01 -5.258584022521972656e-01
4.092000000000000000e+03 5.493455123901367188e+01 -2.215181159973144531e+01 3.865259587764739990e-01 2.243225097656250000e+00 7.889253497123718262e-01 7.996285557746887207e-01
4.093000000000000000e+03 6.273054122924804688e+01 9.423589706420898438e+00 -3.645559847354888916e-01 5.340163707733154297e+00 1.492682337760925293e+00 -1.267706513404846191e+00
4.094000000000000000e+03 3.528190231323242188e+01 9.882643699645996094e+00 -2.064070850610733032e-01 1.496773809194564819e-01 -1.701891236007213593e-02 6.291419863700866699e-01
4.095000000000000000e+03 5.979594802856445312e+01 -2.324390602111816406e+01 8.839726448059082031e-02 4.066651821136474609e+00 1.246514797210693359e+00 1.112572550773620605e+00
4.096000000000000000e+03 3.918808364868164062e+01 6.462912082672119141e+00 -3.280206620693206787e-01 1.973864436149597168e-01 -3.919027000665664673e-02 6.052207350730895996e-01
4.097000000000000000e+03 3.851367950439453125e+01 8.475343704223632812e+00 -2.025366276502609253e-01 2.423771172761917114e-01 1.195214595645666122e-02 5.773660540580749512e-01
4.098000000000000000e+03 6.245702743530273438e+01 1.122677230834960938e+01 -2.450842261314392090e-01 5.133790969848632812e+00 1.466612100601196289e+00 -1.115421056747436523e+00
4.099000000000000000e+03 6.167502975463867188e+01 1.015622138977050781e+01 -2.230208814144134521e-01 4.863455772399902344e+00 1.392130494117736816e+00 -1.244614481925964355e+00
4.100000000000000000e+03 4.953736877441406250e+01 8.664669990539550781e+00 1.687336415052413940e-01 1.135017633438110352e+00 3.911253809928894043e-01 -2.132969945669174194e-01
4.101000000000000000e+03 4.576568222045898438e+01 7.794393062591552734e+00 -2.136223949491977692e-02 6.207522749900817871e-01 1.798170059919357300e-01 1.887347549200057983e-01
4.102000000000000000e+03 4.043347930908203125e+01 8.528323173522949219e+00 -1.397594064474105835e-01 3.433889448642730713e-01 6.108886003494262695e-02 5.016252398490905762e-01
4.103000000000000000e+03 6.130922317504882812e+01 1.203134536743164062e+01 -1.144849658012390137e-01 4.687727928161621094e+00 1.371972918510437012e+00 -1.084518671035766602e+00
4.104000000000000000e+03 3.268361282348632812e+01 1.238172435760498047e+01 -1.907380670309066772e-01 6.911784410476684570e-02 -3.648606687784194946e-02 5.973668098449707031e-01
4.105000000000000000e+03 4.695301437377929688e+01 7.820720195770263672e+00 2.528775855898857117e-02 7.340127825736999512e-01 2.277901619672775269e-01 8.179347217082977295e-02
4.106000000000000000e+03 4.388625717163085938e+01 1.028974914550781250e+01 8.433713018894195557e-02 6.568740606307983398e-01 2.223633527755737305e-01 2.440698146820068359e-01
4.107000000000000000e+03 6.254720306396484375e+01 -2.916725158691406250e+01 1.114139482378959656e-01 4.933454036712646484e+00 1.513460397720336914e+00 5.957689881324768066e-01
4.108000000000000000e+03 5.088761901855468750e+01 8.349507331848144531e+00 1.811448335647583008e-01 1.305097222328186035e+00 4.458726048469543457e-01 -3.627332150936126709e-01
4.109000000000000000e+03 5.732734680175781250e+01 -2.298753356933593750e+01 2.821688950061798096e-01 3.128006935119628906e+00 1.023052811622619629e+00 9.910695552825927734e-01
4.110000000000000000e+03 4.217860794067382812e+01 8.168865203857421875e+00 -1.180640682578086853e-01 4.032036960124969482e-01 8.554188162088394165e-02 4.201737940311431885e-01
4.111000000000000000e+03 4.363027191162109375e+01 7.426512718200683594e+00 -1.309397369623184204e-01 4.404088258743286133e-01 9.284072369337081909e-02 3.542519211769104004e-01
4.112000000000000000e+03 6.071172332763671875e+01 1.654327011108398438e+01 7.973582297563552856e-02 4.464235305786132812e+00 1.363191246986389160e+00 -7.995840311050415039e-01
4.113000000000000000e+03 6.201575469970703125e+01 1.557846355438232422e+01 -2.190702036023139954e-02 4.856245040893554688e+00 1.450301408767700195e+00 -8.351914882659912109e-01
4.114000000000000000e+03 3.335663986206054688e+01 -2.402492332458496094e+01 1.834231168031692505e-01 -1.611662656068801880e-02 5.019194632768630981e-02 -4.477825462818145752e-01
4.115000000000000000e+03 6.123930358886718750e+01 2.444860267639160156e+01 2.453105300664901733e-01 4.595497608184814453e+00 1.452242493629455566e+00 -5.045961737632751465e-01
4.116000000000000000e+03 6.159202957153320312e+01 2.107664108276367188e+01 1.677519381046295166e-01 4.682153701782226562e+00 1.454971671104431152e+00 -6.091968417167663574e-01
4.117000000000000000e+03 5.074990463256835938e+01 -2.214901924133300781e+01 4.236650168895721436e-01 1.244958162307739258e+00 5.005869269371032715e-01 3.631924092769622803e-01
4.118000000000000000e+03 3.690608978271484375e+01 -2.196204948425292969e+01 9.159260243177413940e-02 6.104618310928344727e-02 4.579163715243339539e-02 -4.453749060630798340e-01
4.119000000000000000e+03 6.725015258789062500e+01 2.615843009948730469e+01 1.099595278501510620e-01 5.888454437255859375e+00 1.799524307250976562e+00 -3.843653798103332520e-01
4.120000000000000000e+03 4.546850204467773438e+01 -2.200765419006347656e+01 3.084804415702819824e-01 5.616373419761657715e-01 2.610353231430053711e-01 -1.091720983386039734e-01
4.121000000000000000e+03 6.098502349853515625e+01 1.414993858337402344e+01 -1.342258974909782410e-02 4.556632995605468750e+00 1.362963080406188965e+00 -9.353204369544982910e-01
4.122000000000000000e+03 6.413376617431640625e+01 -9.260371327400207520e-01 -6.697835326194763184e-01 8.107915878295898438e+00 2.231439590454101562e+00 -3.355142831802368164e+00
4.123000000000000000e+03 6.527377319335937500e+01 -1.224867343902587891e+01 -1.114003062248229980e+00 9.701296806335449219e+00 2.576188087463378906e+00 2.484032154083251953e+00
4.124000000000000000e+03 6.577784729003906250e+01 -1.094528293609619141e+01 -1.124966502189636230e+00 1.166903591156005859e+01 3.163220643997192383e+00 2.246826410293579102e+00
4.125000000000000000e+03 6.502473449707031250e+01 -1.199872112274169922e+01 -1.013043999671936035e+00 9.575970649719238281e+00 2.568877935409545898e+00 2.753521680831909180e+00
4.126000000000000000e+03 6.366992950439453125e+01 -1.275062370300292969e+01 -5.493844747543334961e-01 7.133287906646728516e+00 1.975170969963073730e+00 3.024489641189575195e+00
4.127000000000000000e+03 6.362688064575195312e+01 -1.157498359680175781e+01 -2.763914465904235840e-01 7.142788887023925781e+00 2.059919118881225586e+00 3.564984560012817383e+00
4.128000000000000000e+03 6.292905044555664062e+01 -1.163801288604736328e+01 -7.594887167215347290e-03 5.872954368591308594e+00 1.759607791900634766e+00 3.497359991073608398e+00
4.129000000000000000e+03 6.628858184814453125e+01 -1.701989173889160156e+00 -1.201781511306762695e+00 1.201855564117431641e+01 3.245032310485839844e+00 -1.622232198715209961e+00
4.130000000000000000e+03 6.630691528320312500e+01 -1.140763640403747559e+00 -1.292048692703247070e+00 1.139625835418701172e+01 3.031262874603271484e+00 -1.600698471069335938e+00
4.131000000000000000e+03 6.767676544189453125e+01 -1.277930736541748047e+01 -1.182175755500793457e+00 1.076132202148437500e+01 2.873743772506713867e+00 3.866909444332122803e-01
4.132000000000000000e+03 6.429191589355468750e+01 -1.603039860725402832e+00 -6.021177172660827637e-01 8.670157432556152344e+00 2.420411825180053711e+00 -3.644510746002197266e+00
4.133000000000000000e+03 6.696524047851562500e+01 -1.185444450378417969e+01 -1.190087437629699707e+00 1.145414066314697266e+01 3.079216003417968750e+00 8.660297393798828125e-01
4.134000000000000000e+03 6.660755920410156250e+01 -1.028371453285217285e+00 -1.275670051574707031e+00 1.137920284271240234e+01 3.031059741973876953e+00 -1.280089020729064941e+00
4.135000000000000000e+03 6.194066619873046875e+01 -1.495943737030029297e+01 -2.483447045087814331e-01 5.001869678497314453e+00 1.426057457923889160e+00 2.385895013809204102e+00
4.136000000000000000e+03 6.022089385986328125e+01 -1.891247749328613281e+01 -3.848819807171821594e-02 4.073492527008056641e+00 1.210501313209533691e+00 1.576199531555175781e+00
4.137000000000000000e+03 6.416421508789062500e+01 -1.550740337371826172e+01 -8.020488619804382324e-01 6.998858451843261719e+00 1.859042882919311523e+00 2.076250791549682617e+00
4.138000000000000000e+03 6.223265075683593750e+01 9.976631402969360352e-01 -2.872909307479858398e-01 5.187709808349609375e+00 1.470125675201416016e+00 -2.768740892410278320e+00
4.139000000000000000e+03 6.845612335205078125e+01 -1.184162425994873047e+01 -7.676501870155334473e-01 1.135983848571777344e+01 3.177656412124633789e+00 -4.158174395561218262e-01
4.140000000000000000e+03 6.778629302978515625e+01 -4.492682591080665588e-02 -1.221230626106262207e+00 1.077370452880859375e+01 2.865742206573486328e+00 -3.587676584720611572e-01
4.141000000000000000e+03 6.705385589599609375e+01 6.341325640678405762e-01 -1.367424964904785156e+00 1.014029121398925781e+01 2.631860017776489258e+00 -9.920458197593688965e-01
4.142000000000000000e+03 6.681604766845703125e+01 1.607414364814758301e+00 -1.330737829208374023e+00 9.416510581970214844e+00 2.425731897354125977e+00 -1.114835977554321289e+00
4.143000000000000000e+03 6.803115844726562500e+01 -1.391334342956542969e+01 -1.222047567367553711e+00 1.000105190277099609e+01 2.633701324462890625e+00 3.450388908386230469e-01
4.144000000000000000e+03 6.563657379150390625e+01 3.407284736633300781e+00 -1.119527101516723633e+00 7.859882354736328125e+00 2.022106647491455078e+00 -1.534228205680847168e+00
4.145000000000000000e+03 6.039484786987304688e+01 3.885204553604125977e+00 -1.508202850818634033e-01 4.006361484527587891e+00 1.156662464141845703e+00 -1.974545240402221680e+00
4.146000000000000000e+03 5.877030563354492188e+01 4.552531242370605469e+00 -8.559665642678737640e-03 3.153480529785156250e+00 9.434762597084045410e-01 -1.633386015892028809e+00
4.147000000000000000e+03 6.596997833251953125e+01 2.801649093627929688e+00 -1.215138077735900879e+00 8.327140808105468750e+00 2.133600950241088867e+00 -1.494489192962646484e+00
4.148000000000000000e+03 6.291622161865234375e+01 -1.423950940370559692e-01 -3.211336135864257812e-01 5.964528560638427734e+00 1.693018436431884766e+00 -3.151632308959960938e+00
4.149000000000000000e+03 6.449066925048828125e+01 -1.249971032142639160e+00 -7.743968367576599121e-01 8.896072387695312500e+00 2.436502695083618164e+00 -3.359457969665527344e+00
4.150000000000000000e+03 6.720457458496093750e+01 -8.871397972106933594e-01 -1.189946889877319336e+00 1.144287300109863281e+01 3.075877904891967773e+00 -6.679790019989013672e-01
4.151000000000000000e+03 6.305356979370117188e+01 3.485146760940551758e-01 -4.286768734455108643e-01 6.144811153411865234e+00 1.714840292930603027e+00 -3.015408277511596680e+00
4.152000000000000000e+03 6.238321304321289062e+01 1.726571798324584961e+00 -4.027290642261505127e-01 5.417022705078125000e+00 1.504288077354431152e+00 -2.591182231903076172e+00
4.153000000000000000e+03 6.637559509277343750e+01 -1.682469177246093750e+01 -1.089213490486145020e+00 8.047917366027832031e+00 2.087611198425292969e+00 1.120047330856323242e+00
4.154000000000000000e+03 6.741120910644531250e+01 -1.549627113342285156e+01 -1.232119917869567871e+00 9.010201454162597656e+00 2.333424329757690430e+00 7.335587739944458008e-01
4.155000000000000000e+03 6.772484588623046875e+01 -1.453589057922363281e+01 -1.289831399917602539e+00 9.611020088195800781e+00 2.496356487274169922e+00 5.988128185272216797e-01
4.156000000000000000e+03 6.112783813476562500e+01 3.676213741302490234e+00 -2.387338131666183472e-01 4.429891109466552734e+00 1.257347226142883301e+00 -2.086567401885986328e+00
4.157000000000000000e+03 6.024729919433593750e+01 -1.622453689575195312e+01 -1.450862269848585129e-02 3.745502471923828125e+00 1.119298100471496582e+00 1.939673542976379395e+00
4.158000000000000000e+03 6.241275787353515625e+01 2.990128517150878906e+00 -4.788156747817993164e-01 5.450577259063720703e+00 1.491528511047363281e+00 -2.309538125991821289e+00
4.159000000000000000e+03 6.427738189697265625e+01 5.726394176483154297e+00 -7.761645317077636719e-01 6.514436721801757812e+00 1.721481680870056152e+00 -1.561477065086364746e+00
4.160000000000000000e+03 6.118267059326171875e+01 -1.552277851104736328e+01 -1.320031881332397461e-01 4.378133773803710938e+00 1.273839235305786133e+00 2.178194284439086914e+00
4.161000000000000000e+03 6.470572662353515625e+01 4.427820205688476562e+00 -9.225465059280395508e-01 7.006033897399902344e+00 1.825046300888061523e+00 -1.665111541748046875e+00
4.162000000000000000e+03 5.814902877807617188e+01 5.963643550872802734e+00 4.367292672395706177e-02 3.079736232757568359e+00 9.370227456092834473e-01 -1.465292572975158691e+00
4.163000000000000000e+03 6.054191970825195312e+01 1.087734985351562500e+01 -8.996450901031494141e-02 4.405691623687744141e+00 1.294718146324157715e+00 -1.181314587593078613e+00
4.164000000000000000e+03 3.536152267456054688e+01 6.040179729461669922e+00 -4.224763512611389160e-01 6.731968373060226440e-02 -1.065469980239868164e-01 7.044174075126647949e-01
4.165000000000000000e+03 6.299098205566406250e+01 7.793110847473144531e+00 -4.827620983123779297e-01 5.584703922271728516e+00 1.530582547187805176e+00 -1.429473757743835449e+00
4.166000000000000000e+03 6.328368377685546875e+01 6.244443893432617188e+00 -5.848478674888610840e-01 5.846551418304443359e+00 1.578511118888854980e+00 -1.617376089096069336e+00
4.167000000000000000e+03 6.526716613769531250e+01 -1.991312789916992188e+01 -7.073956131935119629e-01 6.677080631256103516e+00 1.790905475616455078e+00 1.122357368469238281e+00
4.168000000000000000e+03 6.531613922119140625e+01 -1.837606239318847656e+01 -8.391724824905395508e-01 7.076711177825927734e+00 1.871261596679687500e+00 1.272778272628784180e+00
4.169000000000000000e+03 5.933112335205078125e+01 1.155288982391357422e+01 2.445995435118675232e-02 3.975687026977539062e+00 1.200044035911560059e+00 -1.100797772407531738e+00
4.170000000000000000e+03 5.364562988281250000e+01 7.886490345001220703e+00 2.049104273319244385e-01 1.817263126373291016e+00 6.066520810127258301e-01 -7.254348993301391602e-01
4.171000000000000000e+03 6.202986145019531250e+01 8.491516113281250000e+00 -3.278231918811798096e-01 5.072543144226074219e+00 1.423416018486022949e+00 -1.416863560676574707e+00
4.172000000000000000e+03 5.389579391479492188e+01 9.122522354125976562e+00 2.343100309371948242e-01 2.038925647735595703e+00 6.819706559181213379e-01 -7.529910802841186523e-01
4.173000000000000000e+03 5.867785644531250000e+01 -2.191774940490722656e+01 1.607863754034042358e-01 3.564111232757568359e+00 1.117469310760498047e+00 1.185433626174926758e+00
4.174000000000000000e+03 4.815757751464843750e+01 7.652278900146484375e+00 5.458191782236099243e-02 8.405349850654602051e-01 2.685350775718688965e-01 -3.058912046253681183e-02
4.175000000000000000e+03 4.138524246215820312e+01 9.354492187500000000e+00 -4.699421301484107971e-02 4.287609755992889404e-01 1.145300269126892090e-01 4.247213602066040039e-01
4.176000000000000000e+03 3.657866668701171875e+01 9.846573829650878906e+00 -1.757821589708328247e-01 2.080985605716705322e-01 9.694918990135192871e-03 5.977557897567749023e-01
4.177000000000000000e+03 3.395147323608398438e+01 9.411066055297851562e+00 -2.645559906959533691e-01 8.140090852975845337e-02 -5.494652315974235535e-02 6.700739264488220215e-01
4.178000000000000000e+03 4.688166809082031250e+01 9.060371398925781250e+00 1.079314798116683960e-01 8.401546478271484375e-01 2.844258546829223633e-01 4.520741477608680725e-02
4.179000000000000000e+03 4.533689498901367188e+01 1.042603683471679688e+01 1.423144042491912842e-01 8.008762598037719727e-01 2.829571962356567383e-01 1.291110962629318237e-01
4.180000000000000000e+03 4.658929061889648438e+01 -2.348506736755371094e+01 4.454348087310791016e-01 8.015518784523010254e-01 3.740960061550140381e-01 1.302904821932315826e-02
4.181000000000000000e+03 4.931553649902343750e+01 -2.641255760192871094e+01 6.159690618515014648e-01 1.409443974494934082e+00 6.076239347457885742e-01 2.442143559455871582e-01
4.182000000000000000e+03 4.554837036132812500e+01 9.062487602233886719e+00 6.228178739547729492e-02 7.056493759155273438e-01 2.303793579339981079e-01 1.596931219100952148e-01
4.183000000000000000e+03 5.794831848144531250e+01 8.108777046203613281e+00 7.376782596111297607e-02 3.206028461456298828e+00 9.839388728141784668e-01 -1.274797558784484863e+00
4.184000000000000000e+03 3.940882873535156250e+01 9.567705154418945312e+00 -1.041723564267158508e-01 3.240145146846771240e-01 6.595265120267868042e-02 5.135933160781860352e-01
4.185000000000000000e+03 5.326033401489257812e+01 -2.210143280029296875e+01 4.282427132129669189e-01 1.815647363662719727e+00 6.731670498847961426e-01 6.305481791496276855e-01
4.186000000000000000e+03 5.841307830810546875e+01 -2.756234359741210938e+01 3.215374052524566650e-01 3.733163833618164062e+00 1.216410398483276367e+00 7.517195343971252441e-01
4.187000000000000000e+03 4.928284454345703125e+01 -2.084624671936035156e+01 3.134190142154693604e-01 9.112095236778259277e-01 3.673885464668273926e-01 1.904112994670867920e-01
4.188000000000000000e+03 6.371772003173828125e+01 -2.115032958984375000e+01 -4.373453557491302490e-01 5.819794178009033203e+00 1.614734649658203125e+00 1.209908246994018555e+00
4.189000000000000000e+03 6.214450836181640625e+01 -2.279555702209472656e+01 -1.570369750261306763e-01 5.038363933563232422e+00 1.464398145675659180e+00 1.110742688179016113e+00
4.190000000000000000e+03 6.125293731689453125e+01 -2.747357940673828125e+01 1.369364112615585327e-01 4.537702560424804688e+00 1.402391672134399414e+00 7.387922406196594238e-01
4.191000000000000000e+03 5.565653610229492188e+01 -2.402092742919921875e+01 4.147388339042663574e-01 2.628098249435424805e+00 9.128510951995849609e-01 7.881501913070678711e-01
4.192000000000000000e+03 6.123204803466796875e+01 -2.448441696166992188e+01 -2.430955064482986927e-04 4.638961315155029297e+00 1.391615509986877441e+00 9.791216850280761719e-01
4.193000000000000000e+03 3.283716201782226562e+01 8.494438171386718750e+00 -3.356032371520996094e-01 2.549847960472106934e-02 -9.303142875432968140e-02 7.058616280555725098e-01
4.194000000000000000e+03 3.671727752685546875e+01 8.754202842712402344e+00 -2.370595037937164307e-01 1.774621456861495972e-01 -1.787920668721199036e-02 6.280482411384582520e-01
4.195000000000000000e+03 4.016921234130859375e+01 -2.211632537841796875e+01 1.831595897674560547e-01 1.910764575004577637e-01 1.122708171606063843e-01 -3.548168241977691650e-01
4.196000000000000000e+03 4.303956222534179688e+01 -2.575412178039550781e+01 5.112679600715637207e-01 5.225155949592590332e-01 3.101350665092468262e-01 -1.583471596240997314e-01
4.197000000000000000e+03 5.977629470825195312e+01 -2.089413642883300781e+01 3.657621517777442932e-02 3.991125583648681641e+00 1.208310484886169434e+00 1.338218688964843750e+00
4.198000000000000000e+03 5.104827499389648438e+01 9.783963203430175781e+00 2.541044652462005615e-01 1.510306715965270996e+00 5.293233394622802734e-01 -4.055309891700744629e-01
4.199000000000000000e+03 4.173086547851562500e+01 -2.184498214721679688e+01 1.939676851034164429e-01 2.578619420528411865e-01 1.355488896369934082e-01 -3.080036342144012451e-01
4.200000000000000000e+03 5.706709289550781250e+01 1.661541748046875000e+01 2.581553161144256592e-01 3.476900100708007812e+00 1.120516657829284668e+00 -7.299130558967590332e-01
4.201000000000000000e+03 3.862815475463867188e+01 -2.629640769958496094e+01 4.493155479431152344e-01 2.485359013080596924e-01 2.093554288148880005e-01 -3.099089264869689941e-01
4.202000000000000000e+03 3.486561584472656250e+01 -2.297841835021972656e+01 1.527817249298095703e-01 2.616729214787483215e-02 5.368470400571823120e-02 -4.539740979671478271e-01
4.203000000000000000e+03 5.871602249145507812e+01 1.036931324005126953e+01 4.618647694587707520e-02 3.705630540847778320e+00 1.125545144081115723e+00 -1.164807081222534180e+00
4.204000000000000000e+03 7.034152221679687500e+01 3.322026443481445312e+01 1.180284768342971802e-01 6.393950939178466797e+00 1.953593850135803223e+00 -2.086564004421234131e-01
4.205000000000000000e+03 6.512393188476562500e+01 -1.168335723876953125e+01 -1.009909868240356445e+00 9.899559020996093750e+00 2.666894674301147461e+00 2.790910243988037109e+00
4.206000000000000000e+03 6.570153045654296875e+01 -1.205808162689208984e+00 -1.224833846092224121e+00 1.086437416076660156e+01 2.891862154006958008e+00 -2.269905090332031250e+00
4.207000000000000000e+03 6.805578613281250000e+01 -1.177448749542236328e+01 -8.723469376564025879e-01 1.149736309051513672e+01 3.187504768371582031e+00 -1.512323021888732910e-01
4.208000000000000000e+03 6.610323333740234375e+01 -1.162889766693115234e+01 -1.204538583755493164e+00 1.123710441589355469e+01 3.009769678115844727e+00 1.764923691749572754e+00
4.209000000000000000e+03 6.478707122802734375e+01 -9.155422449111938477e-01 -9.563360810279846191e-01 9.220376968383789062e+00 2.479212284088134766e+00 -3.012860298156738281e+00
4.210000000000000000e+03 6.540991973876953125e+01 -8.983045816421508789e-01 -1.180103898048400879e+00 1.016796016693115234e+01 2.696356773376464844e+00 -2.488268375396728516e+00
4.211000000000000000e+03 6.689758300781250000e+01 -9.712628126144409180e-01 -1.224252820014953613e+00 1.145213127136230469e+01 3.068363428115844727e+00 -9.198991656303405762e-01
4.212000000000000000e+03 6.231805801391601562e+01 -1.333566570281982422e+01 -1.739929169416427612e-01 5.269716262817382812e+00 1.528716921806335449e+00 2.845198392868041992e+00
4.213000000000000000e+03 6.583312225341796875e+01 -1.179612541198730469e+01 -1.199234485626220703e+00 1.080670356750488281e+01 2.882240772247314453e+00 2.044132947921752930e+00
4.214000000000000000e+03 6.720185089111328125e+01 -1.268671226501464844e+01 -1.267071008682250977e+00 1.079765987396240234e+01 2.859176635742187500e+00 7.802196741104125977e-01
4.215000000000000000e+03 6.670497894287109375e+01 -1.212012100219726562e+01 -1.249379396438598633e+00 1.106785202026367188e+01 2.945541858673095703e+00 1.143437147140502930e+00
4.216000000000000000e+03 6.540225982666015625e+01 -1.166350936889648438e+01 -1.113296627998352051e+00 1.039504528045654297e+01 2.784524679183959961e+00 2.514979600906372070e+00
4.217000000000000000e+03 6.539137268066406250e+01 2.428484439849853516e+00 -1.162496447563171387e+00 8.131742477416992188e+00 2.090773820877075195e+00 -1.805577039718627930e+00
4.218000000000000000e+03 6.768251037597656250e+01 4.154222607612609863e-01 -1.269876003265380859e+00 1.041025257110595703e+01 2.742112874984741211e+00 -5.039241313934326172e-01
4.219000000000000000e+03 6.708554840087890625e+01 -2.281216233968734741e-01 -1.308106660842895508e+00 1.075284290313720703e+01 2.833420991897583008e+00 -9.043484926223754883e-01
4.220000000000000000e+03 6.726611328125000000e+01 2.626587748527526855e-01 -1.317101240158081055e+00 1.041445732116699219e+01 2.729206800460815430e+00 -8.178330659866333008e-01
4.221000000000000000e+03 6.786878204345703125e+01 -7.564307451248168945e-01 -1.022230267524719238e+00 1.134268379211425781e+01 3.096136331558227539e+00 -9.399802982807159424e-02
4.222000000000000000e+03 6.582727813720703125e+01 2.023633241653442383e+00 -1.247740745544433594e+00 8.645504951477050781e+00 2.219329357147216797e+00 -1.660992145538330078e+00
4.223000000000000000e+03 6.218563461303710938e+01 4.019832134246826172e+00 -4.728328585624694824e-01 5.382991313934326172e+00 1.473047494888305664e+00 -2.071363925933837891e+00
4.224000000000000000e+03 6.291368865966796875e+01 -1.322885799407958984e+01 -3.222567439079284668e-01 5.961087703704833984e+00 1.691649198532104492e+00 2.922612428665161133e+00
4.225000000000000000e+03 6.728981781005859375e+01 -1.220765686035156250e+01 -1.179222583770751953e+00 1.116535854339599609e+01 2.995840787887573242e+00 6.167477369308471680e-01
4.226000000000000000e+03 6.761207580566406250e+01 -1.392946815490722656e+01 -1.281996369361877441e+00 9.982522964477539062e+00 2.610157966613769531e+00 5.985493063926696777e-01
4.227000000000000000e+03 6.761608886718750000e+01 -1.334990978240966797e+01 -1.256919026374816895e+00 1.034374046325683594e+01 2.726046323776245117e+00 5.256295800209045410e-01
4.228000000000000000e+03 6.713228607177734375e+01 -1.393029975891113281e+01 -1.308207392692565918e+00 9.842146873474121094e+00 2.560181856155395508e+00 8.913213014602661133e-01
4.229000000000000000e+03 6.535416412353515625e+01 -1.393229198455810547e+01 -1.126412391662597656e+00 8.700259208679199219e+00 2.272154092788696289e+00 1.990167260169982910e+00
4.230000000000000000e+03 6.616146850585937500e+01 1.647032380104064941e+00 -1.297512292861938477e+00 9.026366233825683594e+00 2.318656206130981445e+00 -1.515128850936889648e+00
4.231000000000000000e+03 6.721417236328125000e+01 -1.456820487976074219e+01 -1.295844674110412598e+00 9.467415809631347656e+00 2.451471328735351562e+00 8.375726342201232910e-01
4.232000000000000000e+03 6.137052536010742188e+01 -1.479964542388916016e+01 -1.122368648648262024e-01 4.449691295623779297e+00 1.301236391067504883e+00 2.356010198593139648e+00
4.233000000000000000e+03 6.003207397460937500e+01 -1.747451972961425781e+01 -3.844178514555096626e-03 3.839051008224487305e+00 1.150562047958374023e+00 1.747496008872985840e+00
4.234000000000000000e+03 6.099876785278320312e+01 -1.634852600097656250e+01 -1.459122002124786377e-01 4.350143909454345703e+00 1.261269569396972656e+00 1.987343430519104004e+00
4.235000000000000000e+03 5.936344528198242188e+01 5.483657360076904297e+00 -4.625442996621131897e-02 3.588181018829345703e+00 1.062577962875366211e+00 -1.662147641181945801e+00
4.236000000000000000e+03 6.052006149291992188e+01 4.750432968139648438e+00 -1.823706626892089844e-01 4.170302391052246094e+00 1.196379423141479492e+00 -1.869894623756408691e+00
4.237000000000000000e+03 6.230924606323242188e+01 2.307637929916381836e+00 -4.131500422954559326e-01 5.359053611755371094e+00 1.483770966529846191e+00 -2.424538850784301758e+00
4.238000000000000000e+03 6.455236816406250000e+01 -1.335406875610351562e+01 -9.049676656723022461e-01 8.101178169250488281e+00 2.158863067626953125e+00 2.546319007873535156e+00
4.239000000000000000e+03 6.420196533203125000e+01 3.610918283462524414e+00 -8.714721202850341797e-01 6.850563526153564453e+00 1.793727397918701172e+00 -1.923264265060424805e+00
4.240000000000000000e+03 6.530295562744140625e+01 -1.706511306762695312e+01 -9.458212852478027344e-01 7.386744022369384766e+00 1.932276844978332520e+00 1.461672067642211914e+00
4.241000000000000000e+03 6.575527191162109375e+01 -1.644345855712890625e+01 -1.053440928459167480e+00 7.871269702911376953e+00 2.045348644256591797e+00 1.400110721588134766e+00
4.242000000000000000e+03 6.178987884521484375e+01 3.303119421005249023e+00 -3.621814548969268799e-01 4.975038528442382812e+00 1.383857131004333496e+00 -2.206197738647460938e+00
4.243000000000000000e+03 5.529707717895507812e+01 8.705899238586425781e+00 2.065550684928894043e-01 2.392002344131469727e+00 7.795672416687011719e-01 -9.388996362686157227e-01
4.244000000000000000e+03 6.228920364379882812e+01 6.894427299499511719e+00 -4.205967187881469727e-01 5.284050941467285156e+00 1.459036350250244141e+00 -1.610291719436645508e+00
4.245000000000000000e+03 6.454911804199218750e+01 -1.918120002746582031e+01 -6.792809367179870605e-01 6.508950710296630859e+00 1.748901009559631348e+00 1.335673570632934570e+00
4.246000000000000000e+03 6.138615036010742188e+01 7.632846355438232422e+00 -2.751363813877105713e-01 4.748945236206054688e+00 1.342142581939697266e+00 -1.529822230339050293e+00
4.247000000000000000e+03 6.100302886962890625e+01 9.164660453796386719e+00 -1.850050538778305054e-01 4.581219196319580078e+00 1.318864345550537109e+00 -1.347072362899780273e+00
4.248000000000000000e+03 6.035730743408203125e+01 5.684896469116210938e+00 -1.679888218641281128e-01 4.149691104888916016e+00 1.194510698318481445e+00 -1.748939394950866699e+00
4.249000000000000000e+03 5.896796035766601562e+01 6.346682071685791016e+00 -1.785478368401527405e-02 3.506470680236816406e+00 1.046584725379943848e+00 -1.546285390853881836e+00
4.250000000000000000e+03 6.473081207275390625e+01 -1.766821861267089844e+01 -8.082075119018554688e-01 6.907813549041748047e+00 1.829881906509399414e+00 1.492811560630798340e+00
4.251000000000000000e+03 5.246639251708984375e+01 9.474075317382812500e+00 2.530321776866912842e-01 1.740232944488525391e+00 5.979795455932617188e-01 -5.672213435173034668e-01
4.252000000000000000e+03 4.964630508422851562e+01 1.006480979919433594e+01 2.431524097919464111e-01 1.297285318374633789e+00 4.621313214302062988e-01 -2.583298087120056152e-01
4.253000000000000000e+03 5.829608154296875000e+01 7.183559894561767578e+00 3.303090482950210571e-02 3.281136035919189453e+00 9.942500591278076172e-01 -1.379400372505187988e+00
4.254000000000000000e+03 3.365927505493164062e+01 7.596566200256347656e+00 -3.524019718170166016e-01 4.780082404613494873e-02 -9.138035029172897339e-02 7.120901346206665039e-01
4.255000000000000000e+03 5.668432617187500000e+01 8.294714927673339844e+00 1.400885581970214844e-01 2.804212570190429688e+00 8.832902908325195312e-01 -1.112486839294433594e+00
4.256000000000000000e+03 6.248616790771484375e+01 -2.116713333129882812e+01 -2.845759987831115723e-01 5.267827510833740234e+00 1.494975328445434570e+00 1.300128459930419922e+00
4.257000000000000000e+03 3.536357116699218750e+01 1.132094478607177734e+01 -1.398308426141738892e-01 1.832249909639358521e-01 1.301824580878019333e-02 5.849975347518920898e-01
4.258000000000000000e+03 6.233784103393554688e+01 -1.791922569274902344e+01 -3.967602849006652832e-01 5.383433818817138672e+00 1.496002078056335449e+00 1.775643825531005859e+00
4.259000000000000000e+03 5.984860229492187500e+01 -2.600666427612304688e+01 1.824458539485931396e-01 4.110898017883300781e+00 1.288003087043762207e+00 8.688052296638488770e-01
4.260000000000000000e+03 5.419849777221679688e+01 1.050836563110351562e+01 2.652709484100341797e-01 2.284768342971801758e+00 7.650118470191955566e-01 -7.661054730415344238e-01
4.261000000000000000e+03 4.515154266357421875e+01 1.187831401824951172e+01 2.148107588291168213e-01 8.926240801811218262e-01 3.322304487228393555e-01 9.899388998746871948e-02
4.262000000000000000e+03 5.232674407958984375e+01 -2.357574462890625000e+01 4.989127218723297119e-01 1.752984881401062012e+00 6.755692362785339355e-01 5.235787630081176758e-01
4.263000000000000000e+03 4.939919281005859375e+01 -2.355079841613769531e+01 4.918259382247924805e-01 1.183822631835937500e+00 5.026945471763610840e-01 2.441248148679733276e-01
4.264000000000000000e+03 3.448284149169921875e+01 6.751898765563964844e+00 -3.930159509181976318e-01 6.011780723929405212e-02 -9.986943751573562622e-02 7.109226584434509277e-01
4.265000000000000000e+03 4.253636169433593750e+01 9.954461097717285156e+00 1.914755068719387054e-02 5.278632044792175293e-01 1.641032397747039795e-01 3.429047763347625732e-01
4.266000000000000000e+03 3.390161132812500000e+01 1.172774791717529297e+01 -1.741060316562652588e-01 1.210013031959533691e-01 -1.593141816556453705e-02 6.015672683715820312e-01
4.267000000000000000e+03 5.990848922729492188e+01 -2.888970375061035156e+01 2.651443779468536377e-01 4.095561504364013672e+00 1.308211684226989746e+00 6.717593669891357422e-01
4.268000000000000000e+03 3.456043624877929688e+01 8.337024688720703125e+00 -3.058454692363739014e-01 8.871263265609741211e-02 -6.513985246419906616e-02 6.844641566276550293e-01
4.269000000000000000e+03 6.656112670898437500e+01 3.281001663208007812e+01 1.943360418081283569e-01 5.724198341369628906e+00 1.775560379028320312e+00 -2.559598088264465332e-01
4.270000000000000000e+03 6.743289184570312500e+01 2.882045745849609375e+01 1.402153521776199341e-01 5.889484882354736328e+00 1.808910131454467773e+00 -3.458693623542785645e-01
4.271000000000000000e+03 4.492844009399414062e+01 -2.472721672058105469e+01 4.934284985065460205e-01 6.830988526344299316e-01 3.529582023620605469e-01 -8.438136428594589233e-02
4.272000000000000000e+03 6.893235778808593750e+01 3.500057601928710938e+01 1.507371217012405396e-01 6.087631702423095703e+00 1.871510744094848633e+00 -1.937796324491500854e-01
4.273000000000000000e+03 5.664534378051757812e+01 1.285230541229248047e+01 2.138803005218505859e-01 3.188918352127075195e+00 1.020839571952819824e+00 -8.924282193183898926e-01
4.274000000000000000e+03 3.652550125122070312e+01 -2.385149574279785156e+01 2.444690316915512085e-01 9.044826775789260864e-02 1.004751920700073242e-01 -4.092155396938323975e-01
4.275000000000000000e+03 2.910054779052734375e+01 -2.483016204833984375e+01 1.469051539897918701e-01 -1.103414297103881836e-01 1.096911635249853134e-02 -4.370885491371154785e-01
4.276000000000000000e+03 3.855652999877929688e+01 -2.409438896179199219e+01 3.079431951045989990e-01 1.801367253065109253e-01 1.464239656925201416e-01 -3.552843630313873291e-01
4.277000000000000000e+03 6.041978836059570312e+01 1.921025848388671875e+01 1.628662645816802979e-01 4.392338752746582031e+00 1.366561532020568848e+00 -6.780621409416198730e-01
4.278000000000000000e+03 6.543438720703125000e+01 -2.545856237411499023e-01 -1.221507906913757324e+00 9.652793884277343750e+00 2.529385805130004883e+00 -2.304373264312744141e+00
4.279000000000000000e+03 6.754663848876953125e+01 -8.377727270126342773e-01 -1.099490761756896973e+00 1.141254520416259766e+01 3.093916177749633789e+00 -3.370562493801116943e-01
4.280000000000000000e+03 6.481087493896484375e+01 -1.222122001647949219e+01 -9.342636466026306152e-01 8.983305931091308594e+00 2.414712905883789062e+00 2.845442533493041992e+00
4.281000000000000000e+03 6.603878021240234375e+01 -8.700559139251708984e-01 -1.291046261787414551e+00 1.085352420806884766e+01 2.868743419647216797e+00 -1.860545635223388672e+00
4.282000000000000000e+03 6.600737762451171875e+01 -1.210308456420898438e+01 -1.248811721801757812e+00 1.061563873291015625e+01 2.810048103332519531e+00 1.841555833816528320e+00
4.283000000000000000e+03 6.575186920166015625e+01 7.003514468669891357e-02 -1.287342548370361328e+00 9.743935585021972656e+00 2.536978006362915039e+00 -2.000437021255493164e+00
4.284000000000000000e+03 6.666333770751953125e+01 -7.277880907058715820e-01 -1.310572624206542969e+00 1.111343765258789062e+01 2.940859317779541016e+00 -1.240511775016784668e+00
4.285000000000000000e+03 6.712833404541015625e+01 -1.329499530792236328e+01 -1.299947381019592285e+00 1.025614166259765625e+01 2.686858415603637695e+00 8.809837102890014648e-01
4.286000000000000000e+03 6.399047851562500000e+01 2.044952362775802612e-01 -7.577315568923950195e-01 7.517513751983642578e+00 2.027934789657592773e+00 -2.919518232345581055e+00
4.287000000000000000e+03 6.353398132324218750e+01 1.964238882064819336e-01 -5.845331549644470215e-01 6.896392345428466797e+00 1.893557786941528320e+00 -3.008772611618041992e+00
4.288000000000000000e+03 6.747770690917968750e+01 -4.727813303470611572e-01 -1.214932322502136230e+00 1.109928989410400391e+01 2.965307235717773438e+00 -5.051922202110290527e-01
4.289000000000000000e+03 6.575778961181640625e+01 -1.232125186920166016e+01 -1.236825108528137207e+00 1.019210529327392578e+01 2.686584234237670898e+00 2.037407875061035156e+00
4.290000000000000000e+03 6.312772750854492188e+01 -1.286777782440185547e+01 -3.373921215534210205e-01 6.257435321807861328e+00 1.776013016700744629e+00 3.035577297210693359e+00
4.291000000000000000e+03 6.349275970458984375e+01 -1.313668727874755859e+01 -5.177443027496337891e-01 6.802506446838378906e+00 1.885428547859191895e+00 2.903811693191528320e+00
4.292000000000000000e+03 6.204877471923828125e+01 -1.434080410003662109e+01 -2.254761755466461182e-01 5.056488513946533203e+00 1.449303746223449707e+00 2.546008825302124023e+00
4.293000000000000000e+03 6.572872161865234375e+01 -5.644304156303405762e-01 -1.270904541015625000e+00 1.022656154632568359e+01 2.686697006225585938e+00 -2.136550426483154297e+00
4.294000000000000000e+03 6.521601104736328125e+01 -1.285930252075195312e+01 -1.107911109924316406e+00 9.198025703430175781e+00 2.427034378051757812e+00 2.335913658142089844e+00
4.295000000000000000e+03 6.254627227783203125e+01 -1.506276893615722656e+01 -4.071207642555236816e-01 5.600769996643066406e+00 1.558094739913940430e+00 2.399712085723876953e+00
4.296000000000000000e+03 6.667761230468750000e+01 3.721089661121368408e-01 -1.368304967880249023e+00 1.015858078002929688e+01 2.637082576751708984e+00 -1.249912023544311523e+00
4.297000000000000000e+03 6.795558929443359375e+01 -1.212207126617431641e+01 -1.026331901550292969e+00 1.122266769409179688e+01 3.058900594711303711e+00 6.622053682804107666e-02
4.298000000000000000e+03 6.690470886230468750e+01 6.094703078269958496e-02 -1.354045391082763672e+00 1.050780105590820312e+01 2.746126651763916016e+00 -1.060824394226074219e+00
4.299000000000000000e+03 6.414549255371093750e+01 -1.258731651306152344e+01 -7.060116529464721680e-01 7.836891174316406250e+00 2.139263868331909180e+00 2.948694229125976562e+00
4.300000000000000000e+03 6.549963378906250000e+01 -1.258017063140869141e+01 -1.187786459922790527e+00 9.721307754516601562e+00 2.560056209564208984e+00 2.201141119003295898e+00
4.301000000000000000e+03 6.647225189208984375e+01 1.307705879211425781e+00 -1.347343444824218750e+00 9.425467491149902344e+00 2.423437118530273438e+00 -1.350320577621459961e+00
4.302000000000000000e+03 6.488761901855468750e+01 3.001383066177368164e+00 -1.016531705856323242e+00 7.515595912933349609e+00 1.949719309806823730e+00 -1.852337121963500977e+00
4.303000000000000000e+03 6.365528488159179688e+01 6.795487999916076660e-01 -6.739559173583984375e-01 6.885934352874755859e+00 1.863593578338623047e+00 -2.796374320983886719e+00
4.304000000000000000e+03 6.676931762695312500e+01 -1.451490211486816406e+01 -1.280755043029785156e+00 9.308970451354980469e+00 2.408464670181274414e+00 1.086605310440063477e+00
4.305000000000000000e+03 6.419572448730468750e+01 -1.690047645568847656e+01 -7.610760331153869629e-01 6.735175132751464844e+00 1.792229652404785156e+00 1.774820446968078613e+00
4.306000000000000000e+03 6.378708267211914062e+01 -5.742902755737304688e-01 -5.798441767692565918e-01 7.367739677429199219e+00 2.036368608474731445e+00 -3.259129524230957031e+00
4.307000000000000000e+03 6.416302490234375000e+01 -2.262782752513885498e-01 -7.823425531387329102e-01 7.885416030883789062e+00 2.130922079086303711e+00 -3.044269561767578125e+00
4.308000000000000000e+03 6.373041915893554688e+01 2.852812051773071289e+00 -7.801024317741394043e-01 6.648454189300537109e+00 1.760505437850952148e+00 -2.201092720031738281e+00
4.309000000000000000e+03 6.281005859375000000e+01 1.742197036743164062e+00 -5.378528237342834473e-01 5.904011726379394531e+00 1.609847664833068848e+00 -2.576230525970458984e+00
4.310000000000000000e+03 6.141689682006835938e+01 6.105952739715576172e+00 -3.245430588722229004e-01 4.795499801635742188e+00 1.341287136077880859e+00 -1.719821691513061523e+00
4.311000000000000000e+03 6.608608245849609375e+01 -1.580545139312744141e+01 -1.139912843704223633e+00 8.304912567138671875e+00 2.149499893188476562e+00 1.337648987770080566e+00
4.312000000000000000e+03 6.523660278320312500e+01 -1.605112457275390625e+01 -1.005469083786010742e+00 7.717974185943603516e+00 2.013751506805419922e+00 1.616549730300903320e+00
4.313000000000000000e+03 6.322337341308593750e+01 1.580343484878540039e+00 -6.432253718376159668e-01 6.348739624023437500e+00 1.711654186248779297e+00 -2.594860076904296875e+00
4.314000000000000000e+03 6.154184722900390625e+01 -1.985027885437011719e+01 -2.181828618049621582e-01 4.838164806365966797e+00 1.385994672775268555e+00 1.496370911598205566e+00
4.315000000000000000e+03 6.305724334716796875e+01 2.957893371582031250e+00 -6.196292638778686523e-01 6.071835041046142578e+00 1.635661721229553223e+00 -2.261249542236328125e+00
4.316000000000000000e+03 6.142881393432617188e+01 4.501942157745361328e+00 -3.135066926479339600e-01 4.736782073974609375e+00 1.326982617378234863e+00 -1.951182842254638672e+00
4.317000000000000000e+03 6.422113800048828125e+01 -1.393819808959960938e+01 -8.238839507102966309e-01 7.522023677825927734e+00 2.009441852569580078e+00 2.448459148406982422e+00
4.318000000000000000e+03 6.384568023681640625e+01 4.921186923980712891e+00 -7.548857331275939941e-01 6.377575397491455078e+00 1.686806917190551758e+00 -1.746084570884704590e+00
4.319000000000000000e+03 6.042677307128906250e+01 8.257182121276855469e+00 -1.473650187253952026e-01 4.310017108917236328e+00 1.248795747756958008e+00 -1.418717026710510254e+00
4.320000000000000000e+03 6.067085647583007812e+01 -2.011737442016601562e+01 -7.280836999416351318e-02 4.361231327056884766e+00 1.286526799201965332e+00 1.420698165893554688e+00
4.321000000000000000e+03 5.743933486938476562e+01 1.089561080932617188e+01 1.372850984334945679e-01 3.295667409896850586e+00 1.029885768890380859e+00 -1.047134637832641602e+00
4.322000000000000000e+03 5.563063049316406250e+01 1.005580806732177734e+01 2.076871246099472046e-01 2.653953075408935547e+00 8.584920167922973633e-01 -9.315047264099121094e-01
4.323000000000000000e+03 5.993516921997070312e+01 7.418262004852294922e+00 -1.143726184964179993e-01 4.044919013977050781e+00 1.179163813591003418e+00 -1.489950537681579590e+00
4.324000000000000000e+03 3.758912658691406250e+01 9.397756576538085938e+00 -1.721207797527313232e-01 2.301707565784454346e-01 1.741499267518520355e-02 5.798717737197875977e-01
4.325000000000000000e+03 6.357502365112304688e+01 -1.972983551025390625e+01 -5.051538944244384766e-01 5.942740917205810547e+00 1.631276130676269531e+00 1.392587780952453613e+00
4.326000000000000000e+03 6.406454467773437500e+01 -1.824917602539062500e+01 -6.749640107154846191e-01 6.406503200531005859e+00 1.719461798667907715e+00 1.575343489646911621e+00
4.327000000000000000e+03 3.577888870239257812e+01 1.284101963043212891e+01 -5.672622844576835632e-02 2.426167428493499756e-01 5.576715618371963501e-02 5.185852050781250000e-01
4.328000000000000000e+03 3.687833786010742188e+01 1.104350566864013672e+01 -9.860182553529739380e-02 2.534517049789428711e-01 4.645496234297752380e-02 5.554693341255187988e-01
4.329000000000000000e+03 4.501900863647460938e+01 1.341263866424560547e+01 2.766086459159851074e-01 9.934009909629821777e-01 3.810029029846191406e-01 6.680364161729812622e-02
4.330000000000000000e+03 4.181410217285156250e+01 1.148565959930419922e+01 8.822714537382125854e-02 5.642919540405273438e-01 1.957557201385498047e-01 3.349221944808959961e-01
4.331000000000000000e+03 6.141262435913085938e+01 -2.085578727722167969e+01 -1.495864689350128174e-01 4.765166759490966797e+00 1.384674072265625000e+00 1.342253327369689941e+00
4.332000000000000000e+03 4.350831222534179688e+01 1.177343273162841797e+01 1.601617187261581421e-01 7.328597307205200195e-01 2.679064273834228516e-01 2.184429764747619629e-01
4.333000000000000000e+03 3.437959289550781250e+01 1.318383598327636719e+01 -8.807688951492309570e-02 1.780938059091567993e-01 2.700507454574108124e-02 5.349125266075134277e-01
4.334000000000000000e+03 3.316246032714843750e+01 1.348261833190917969e+01 -1.198732554912567139e-01 1.154890507459640503e-01 -1.315261702984571457e-03 5.488090515136718750e-01
4.335000000000000000e+03 5.122616577148437500e+01 1.127652359008789062e+01 3.033795356750488281e-01 1.701888084411621094e+00 6.015802621841430664e-01 -4.347976148128509521e-01
4.336000000000000000e+03 3.049114418029785156e+01 1.442667198181152344e+01 -1.839276999235153198e-01 -2.344871684908866882e-02 -6.221292540431022644e-02 5.445157289505004883e-01
4.337000000000000000e+03 3.069437408447265625e+01 1.196180915832519531e+01 -2.636407315731048584e-01 -3.023910149931907654e-02 -8.816394954919815063e-02 6.335722208023071289e-01
4.338000000000000000e+03 4.821579360961914062e+01 8.914575576782226562e+00 1.459550559520721436e-01 9.757823348045349121e-01 3.365212380886077881e-01 -8.066239953041076660e-02
4.339000000000000000e+03 5.879074478149414062e+01 1.354543399810791016e+01 1.098181828856468201e-01 3.854257583618164062e+00 1.189222693443298340e+00 -9.482662677764892578e-01
4.340000000000000000e+03 5.698443603515625000e+01 9.611410140991210938e+00 1.451891660690307617e-01 3.044284343719482422e+00 9.568420648574829102e-01 -1.072389960289001465e+00
4.341000000000000000e+03 5.391688919067382812e+01 -2.524032211303710938e+01 5.043949484825134277e-01 2.250981330871582031e+00 8.266128897666931152e-01 6.107162237167358398e-01
4.342000000000000000e+03 5.533527374267578125e+01 -2.729691505432128906e+01 4.940842390060424805e-01 2.766776084899902344e+00 9.782581329345703125e-01 6.124095916748046875e-01
4.343000000000000000e+03 5.824034881591796875e+01 9.219626426696777344e+00 6.277173012495040894e-02 3.432956218719482422e+00 1.048718333244323730e+00 -1.223035693168640137e+00
4.344000000000000000e+03 5.938063812255859375e+01 8.784211158752441406e+00 -4.411790147423744202e-02 3.899121046066284180e+00 1.156500935554504395e+00 -1.336587905883789062e+00
4.345000000000000000e+03 5.458998870849609375e+01 1.199693202972412109e+01 2.749808728694915771e-01 2.541236877441406250e+00 8.448653221130371094e-01 -7.651193737983703613e-01
4.346000000000000000e+03 4.049142074584960938e+01 -2.404936981201171875e+01 3.446133136749267578e-01 2.734339237213134766e-01 1.854141801595687866e-01 -2.973775863647460938e-01
4.347000000000000000e+03 6.393641662597656250e+01 -3.108243942260742188e+01 1.186580806970596313e-01 5.329625129699707031e+00 1.634484887123107910e+00 4.340778291225433350e-01
4.348000000000000000e+03 5.695251464843750000e+01 -2.588717079162597656e+01 3.691488206386566162e-01 3.198956489562988281e+00 1.070431590080261230e+00 7.574448585510253906e-01
4.349000000000000000e+03 6.607321929931640625e+01 3.852966725826263428e-01 -1.339252233505249023e+00 9.789864540100097656e+00 2.535183906555175781e+00 -1.705882787704467773e+00
4.350000000000000000e+03 6.638467407226562500e+01 -1.358027553558349609e+01 -1.284447073936462402e+00 9.706212997436523438e+00 2.526529788970947266e+00 1.381459951400756836e+00
4.351000000000000000e+03 6.667221069335937500e+01 -1.314225482940673828e+01 -1.303998470306396484e+00 1.017025089263916016e+01 2.659875631332397461e+00 1.195438504219055176e+00
4.352000000000000000e+03 6.437175750732421875e+01 3.665249347686767578e-01 -9.224052429199218750e-01 8.045195579528808594e+00 2.136837005615234375e+00 -2.764096260070800781e+00
4.353000000000000000e+03 6.506060028076171875e+01 1.874164938926696777e+00 -1.115031838417053223e+00 8.094870567321777344e+00 2.093951463699340820e+00 -2.032132863998413086e+00
4.354000000000000000e+03 6.446832275390625000e+01 -5.869097113609313965e-01 -8.672103285789489746e-01 8.527140617370605469e+00 2.297978878021240234e+00 -3.069385766983032227e+00
4.355000000000000000e+03 6.329098129272460938e+01 -1.356515121459960938e+01 -4.941680133342742920e-01 6.455982208251953125e+00 1.788544178009033203e+00 2.787971019744873047e+00
4.356000000000000000e+03 6.619900512695312500e+01 -1.237899684906005859e+01 -1.285452365875244141e+00 1.049933719635009766e+01 2.764165401458740234e+00 1.633285999298095703e+00
4.357000000000000000e+03 6.444248199462890625e+01 -1.274440383911132812e+01 -8.286697268486022949e-01 8.193289756774902344e+00 2.209385871887207031e+00 2.803332328796386719e+00
4.358000000000000000e+03 6.545094299316406250e+01 -1.322340393066406250e+01 -1.165515542030334473e+00 9.212416648864746094e+00 2.414070367813110352e+00 2.087946891784667969e+00
4.359000000000000000e+03 6.765223693847656250e+01 -1.229977035522460938e+01 -1.125055074691772461e+00 1.111289501190185547e+01 2.996352195739746094e+00 3.131650686264038086e-01
4.360000000000000000e+03 6.394499969482421875e+01 1.925732493400573730e+00 -8.213448524475097656e-01 6.962834835052490234e+00 1.842447042465209961e+00 -2.405796766281127930e+00
4.361000000000000000e+03 6.430706787109375000e+01 -1.223963546752929688e+01 -7.344106435775756836e-01 8.249110221862792969e+00 2.254410028457641602e+00 3.046617746353149414e+00
4.362000000000000000e+03 6.311601638793945312e+01 -1.442706394195556641e+01 -5.206081271171569824e-01 6.235336303710937500e+00 1.714418530464172363e+00 2.561246156692504883e+00
4.363000000000000000e+03 6.612474060058593750e+01 1.008168935775756836e+00 -1.328529000282287598e+00 9.398331642150878906e+00 2.420940876007080078e+00 -1.591459989547729492e+00
4.364000000000000000e+03 6.659914398193359375e+01 -1.979880183935165405e-01 -1.352977514266967773e+00 1.057877540588378906e+01 2.767739295959472656e+00 -1.321036696434020996e+00
4.365000000000000000e+03 6.293745803833007812e+01 1.076895475387573242e+00 -4.982875883579254150e-01 6.040189266204833984e+00 1.662570595741271973e+00 -2.776588678359985352e+00
4.366000000000000000e+03 6.516114044189453125e+01 1.376464009284973145e+00 -1.149890184402465820e+00 8.341625213623046875e+00 2.157520532608032227e+00 -2.096642494201660156e+00
4.367000000000000000e+03 6.581623077392578125e+01 1.337759137153625488e+00 -1.282921552658081055e+00 8.956842422485351562e+00 2.302176475524902344e+00 -1.744246006011962891e+00
4.368000000000000000e+03 6.517665863037109375e+01 7.052962779998779297e-01 -1.163204550743103027e+00 8.774596214294433594e+00 2.283417463302612305e+00 -2.227964878082275391e+00
4.369000000000000000e+03 6.624853515625000000e+01 -1.427481365203857422e+01 -1.249122023582458496e+00 9.126125335693359375e+00 2.363100767135620117e+00 1.445616245269775391e+00
4.370000000000000000e+03 6.259214019775390625e+01 -1.393623733520507812e+01 -3.273115158081054688e-01 5.638903141021728516e+00 1.593477487564086914e+00 2.686088085174560547e+00
4.371000000000000000e+03 6.258006286621093750e+01 -1.444482994079589844e+01 -3.647435903549194336e-01 5.614732265472412109e+00 1.574996590614318848e+00 2.552379846572875977e+00
4.372000000000000000e+03 6.472305297851562500e+01 -1.581396484375000000e+01 -9.128714203834533691e-01 7.360178470611572266e+00 1.934192061424255371e+00 1.847486257553100586e+00
4.373000000000000000e+03 6.346649932861328125e+01 2.165416955947875977e+00 -7.116904258728027344e-01 6.516239166259765625e+00 1.741364598274230957e+00 -2.441925525665283203e+00
4.374000000000000000e+03 6.098793029785156250e+01 -1.727101135253906250e+01 -1.448311954736709595e-01 4.504399776458740234e+00 1.307870507240295410e+00 1.848442316055297852e+00
4.375000000000000000e+03 6.479771423339843750e+01 -1.646710014343261719e+01 -9.038186073303222656e-01 7.246407508850097656e+00 1.902776598930358887e+00 1.721559166908264160e+00
4.376000000000000000e+03 6.553042602539062500e+01 -1.548336887359619141e+01 -1.090349674224853516e+00 8.088443756103515625e+00 2.099428176879882812e+00 1.606122732162475586e+00
4.377000000000000000e+03 6.639476776123046875e+01 -1.528686237335205078e+01 -1.208628177642822266e+00 8.720314025878906250e+00 2.253505706787109375e+00 1.237561106681823730e+00
4.378000000000000000e+03 6.372335052490234375e+01 -1.382074642181396484e+01 -6.484569311141967773e-01 6.909535408020019531e+00 1.878323554992675781e+00 2.625946283340454102e+00
4.379000000000000000e+03 6.138288116455078125e+01 -1.877645683288574219e+01 -2.092754244804382324e-01 4.767796516418457031e+00 1.367556333541870117e+00 1.664080619812011719e+00
4.380000000000000000e+03 6.292432785034179688e+01 2.292098760604858398e+00 -5.903645157814025879e-01 6.055364608764648438e+00 1.639500021934509277e+00 -2.430251598358154297e+00
4.381000000000000000e+03 6.247326278686523438e+01 -1.573280906677246094e+01 -4.120139479637145996e-01 5.557811260223388672e+00 1.543739199638366699e+00 2.246332168579101562e+00
4.382000000000000000e+03 5.606557464599609375e+01 1.144245529174804688e+01 2.149534672498703003e-01 2.914419651031494141e+00 9.388119578361511230e-01 -9.106988906860351562e-01
4.383000000000000000e+03 6.328339004516601562e+01 -1.865248870849609375e+01 -5.197486281394958496e-01 5.885679721832275391e+00 1.609779357910156250e+00 1.613967657089233398e+00
4.384000000000000000e+03 3.824056243896484375e+01 1.047094726562500000e+01 -9.215717017650604248e-02 2.947703599929809570e-01 6.078395992517471313e-02 5.268741846084594727e-01
4.385000000000000000e+03 6.364107894897460938e+01 -1.747982025146484375e+01 -6.354133486747741699e-01 6.249289035797119141e+00 1.684162616729736328e+00 1.787372112274169922e+00
4.386000000000000000e+03 6.171241760253906250e+01 -1.638618278503417969e+01 -2.752693593502044678e-01 4.971417903900146484e+00 1.408844470977783203e+00 2.084309577941894531e+00
4.387000000000000000e+03 6.167969894409179688e+01 -1.712169075012207031e+01 -2.679008543491363525e-01 4.974723339080810547e+00 1.412046790122985840e+00 1.977098464965820312e+00
4.388000000000000000e+03 5.271508026123046875e+01 1.091829681396484375e+01 2.932681739330291748e-01 1.969378709793090820e+00 6.787940859794616699e-01 -5.961117744445800781e-01
4.389000000000000000e+03 4.974538421630859375e+01 1.155410671234130859e+01 3.027260601520538330e-01 1.466688990592956543e+00 5.308244824409484863e-01 -2.904259562492370605e-01
4.390000000000000000e+03 4.040406036376953125e+01 1.070410919189453125e+01 -9.270768496207892895e-04 4.393866062164306641e-01 1.315378546714782715e-01 4.294154644012451172e-01
4.391000000000000000e+03 3.732699584960937500e+01 1.243085098266601562e+01 -1.876913756132125854e-02 3.169877231121063232e-01 8.946557343006134033e-02 4.911662936210632324e-01
4.392000000000000000e+03 4.826022338867187500e+01 1.175559997558593750e+01 2.883383333683013916e-01 1.253285288810729980e+00 4.624870717525482178e-01 -1.568113565444946289e-01
4.393000000000000000e+03 4.823896408081054688e+01 1.028520965576171875e+01 2.203291654586791992e-01 1.119043588638305664e+00 4.018118083477020264e-01 -1.208355352282524109e-01
4.394000000000000000e+03 6.202041625976562500e+01 5.255328178405761719e+00 -4.106439650058746338e-01 5.144560813903808594e+00 1.420174956321716309e+00 -1.843443870544433594e+00
4.395000000000000000e+03 6.239313125610351562e+01 -1.880813217163085938e+01 -3.697477579116821289e-01 5.403550148010253906e+00 1.510140657424926758e+00 1.620804786682128906e+00
4.396000000000000000e+03 4.317311477661132812e+01 1.495094490051269531e+01 2.774393856525421143e-01 8.908802866935729980e-01 3.504959046840667725e-01 1.471659094095230103e-01
4.397000000000000000e+03 4.140425109863281250e+01 1.323504638671875000e+01 1.553264707326889038e-01 6.267494559288024902e-01 2.346227914094924927e-01 3.012012541294097900e-01
4.398000000000000000e+03 4.492574691772460938e+01 1.502692604064941406e+01 3.259815573692321777e-01 1.090227127075195312e+00 4.248625934123992920e-01 3.269497305154800415e-02
4.399000000000000000e+03 3.798019409179687500e+01 1.568945121765136719e+01 1.500455737113952637e-01 4.570010602474212646e-01 1.821139901876449585e-01 3.541399240493774414e-01
4.400000000000000000e+03 4.229635238647460938e+01 -2.366838836669921875e+01 3.638823032379150391e-01 3.767739832401275635e-01 2.221968919038772583e-01 -2.354290634393692017e-01
4.401000000000000000e+03 4.616619491577148438e+01 -2.653369903564453125e+01 6.141299605369567871e-01 9.593071341514587402e-01 4.720311164855957031e-01 2.848332747817039490e-02
4.402000000000000000e+03 5.836611938476562500e+01 1.581168460845947266e+01 1.826167702674865723e-01 3.785432815551757812e+00 1.190414905548095703e+00 -8.083754777908325195e-01
4.403000000000000000e+03 5.599382400512695312e+01 1.511561965942382812e+01 2.860712409019470215e-01 3.114637613296508789e+00 1.020212650299072266e+00 -7.521278262138366699e-01
4.404000000000000000e+03 6.603488159179687500e+01 -2.327577471733093262e-01 -1.333636522293090820e+00 1.024993896484375000e+01 2.674890756607055664e+00 -1.817540287971496582e+00
4.405000000000000000e+03 6.715420532226562500e+01 -5.266677737236022949e-01 -1.262552976608276367e+00 1.109168720245361328e+01 2.948740243911743164e+00 -7.868387103080749512e-01
4.406000000000000000e+03 6.665512847900390625e+01 -1.402705097198486328e+01 -1.293151855468750000e+00 9.565554618835449219e+00 2.481720924377441406e+00 1.171219348907470703e+00
4.407000000000000000e+03 6.578961944580078125e+01 7.000139951705932617e-01 -1.287411093711853027e+00 9.336285591125488281e+00 2.414662361145019531e+00 -1.861055970191955566e+00
4.408000000000000000e+03 6.481831359863281250e+01 -2.667051553726196289e-01 -1.028022289276123047e+00 8.852537155151367188e+00 2.347354412078857422e+00 -2.734927892684936523e+00
4.409000000000000000e+03 6.678731536865234375e+01 -1.259917926788330078e+01 -1.288990974426269531e+00 1.071020126342773438e+01 2.826363325119018555e+00 1.092926859855651855e+00
4.410000000000000000e+03 6.634151458740234375e+01 8.339955657720565796e-02 -1.358580350875854492e+00 1.021337604522705078e+01 2.656438589096069336e+00 -1.522210240364074707e+00
4.411000000000000000e+03 6.456028747558593750e+01 5.184783414006233215e-02 -9.600118398666381836e-01 8.362005233764648438e+00 2.220597982406616211e+00 -2.762414932250976562e+00
4.412000000000000000e+03 6.473645782470703125e+01 -1.272863578796386719e+01 -9.403175711631774902e-01 8.622160911560058594e+00 2.304552793502807617e+00 2.657380580902099609e+00
4.413000000000000000e+03 6.399731826782226562e+01 -1.294046592712402344e+01 -6.920204758644104004e-01 7.561799049377441406e+00 2.060933589935302734e+00 2.881604671478271484e+00
4.414000000000000000e+03 6.462774658203125000e+01 6.262488961219787598e-01 -1.001639127731323242e+00 8.164323806762695312e+00 2.148805379867553711e+00 -2.552858352661132812e+00
4.415000000000000000e+03 6.181739425659179688e+01 -1.564752197265625000e+01 -2.730245888233184814e-01 4.959399223327636719e+00 1.405912518501281738e+00 2.226700544357299805e+00
4.416000000000000000e+03 6.604152679443359375e+01 -1.324277019500732422e+01 -1.266894817352294922e+00 9.734930992126464844e+00 2.540410757064819336e+00 1.677541375160217285e+00
4.417000000000000000e+03 6.318189239501953125e+01 -1.511622428894042969e+01 -5.724548697471618652e-01 6.223392486572265625e+00 1.695281386375427246e+00 2.354335069656372070e+00
4.418000000000000000e+03 6.686989593505859375e+01 -1.552234745025634766e+01 -1.212336421012878418e+00 8.743549346923828125e+00 2.259363889694213867e+00 1.006484627723693848e+00
4.419000000000000000e+03 6.386204910278320312e+01 -1.333913612365722656e+01 -6.697348356246948242e-01 7.266734123229980469e+00 1.979099869728088379e+00 2.757144689559936523e+00
4.420000000000000000e+03 6.531517791748046875e+01 -1.468735694885253906e+01 -1.071761608123779297e+00 8.238660812377929688e+00 2.150069713592529297e+00 1.843121409416198730e+00
4.421000000000000000e+03 6.237090682983398438e+01 -1.714747238159179688e+01 -3.960004150867462158e-01 5.407274723052978516e+00 1.503382205963134766e+00 1.947504281997680664e+00
4.422000000000000000e+03 6.313273239135742188e+01 -1.580103397369384766e+01 -5.697903633117675781e-01 6.139647960662841797e+00 1.670957326889038086e+00 2.208687305450439453e+00
4.423000000000000000e+03 6.501741027832031250e+01 -1.519593811035156250e+01 -1.005652785301208496e+00 7.798772335052490234e+00 2.037935972213745117e+00 1.888590931892395020e+00
4.424000000000000000e+03 6.369782257080078125e+01 -1.616734886169433594e+01 -6.898584961891174316e-01 6.503718376159667969e+00 1.744157910346984863e+00 2.018129587173461914e+00
4.425000000000000000e+03 6.448363494873046875e+01 1.852835536003112793e+00 -9.703795313835144043e-01 7.546509265899658203e+00 1.972838997840881348e+00 -2.224880933761596680e+00
4.426000000000000000e+03 6.364270401000976562e+01 1.362867712974548340e+00 -7.347662448883056641e-01 6.804447650909423828e+00 1.820904374122619629e+00 -2.593386650085449219e+00
4.427000000000000000e+03 6.150378417968750000e+01 -1.784105491638183594e+01 -2.359593659639358521e-01 4.825698852539062500e+00 1.376921772956848145e+00 1.804822087287902832e+00
4.428000000000000000e+03 6.307552719116210938e+01 -1.714422798156738281e+01 -5.454308390617370605e-01 5.917175769805908203e+00 1.611523509025573730e+00 1.895151495933532715e+00
4.429000000000000000e+03 4.673702621459960938e+01 1.186803817749023438e+01 2.560288906097412109e-01 1.069684505462646484e+00 3.977140188217163086e-01 -2.861846983432769775e-02
4.430000000000000000e+03 4.680309677124023438e+01 1.041492938995361328e+01 1.894356459379196167e-01 9.485766887664794922e-01 3.414036929607391357e-01 6.663504056632518768e-03
4.431000000000000000e+03 5.164503097534179688e+01 1.458048629760742188e+01 3.678774237632751465e-01 2.081832885742187500e+00 7.349130511283874512e-01 -4.479251205921173096e-01
4.432000000000000000e+03 3.899353790283203125e+01 1.180599403381347656e+01 1.215929165482521057e-02 3.969634473323822021e-01 1.227368190884590149e-01 4.519201815128326416e-01
4.433000000000000000e+03 3.949687194824218750e+01 1.345849514007568359e+01 1.029080525040626526e-01 4.923802316188812256e-01 1.785864830017089844e-01 3.779157400131225586e-01
4.434000000000000000e+03 4.665760040283203125e+01 1.513710880279541016e+01 3.690213263034820557e-01 1.313750743865966797e+00 5.048316121101379395e-01 -9.003246575593948364e-02
4.435000000000000000e+03 4.326511001586914062e+01 1.334340000152587891e+01 2.233434468507766724e-01 8.047587871551513672e-01 3.084306716918945312e-01 1.863038390874862671e-01
4.436000000000000000e+03 4.669475936889648438e+01 1.342745304107666016e+01 3.146077096462249756e-01 1.190511703491210938e+00 4.515358209609985352e-01 -5.923360586166381836e-02
4.437000000000000000e+03 4.479479217529296875e+01 1.671459960937500000e+01 3.730871975421905518e-01 1.180008888244628906e+00 4.659288227558135986e-01 5.038500297814607620e-03
4.438000000000000000e+03 6.306630325317382812e+01 -1.783556365966796875e+01 -5.159290432929992676e-01 5.834103584289550781e+00 1.595452308654785156e+00 1.750765800476074219e+00
4.439000000000000000e+03 5.803797912597656250e+01 1.219307518005371094e+01 1.283506155014038086e-01 3.566476821899414062e+00 1.108448266983032227e+00 -1.006800413131713867e+00
4.440000000000000000e+03 3.610618591308593750e+01 1.441160106658935547e+01 2.612563595175743103e-02 3.003965318202972412e-01 9.795664995908737183e-02 4.536100924015045166e-01
4.441000000000000000e+03 3.322642898559570312e+01 1.486334228515625000e+01 -6.254106014966964722e-02 1.427657753229141235e-01 2.406741492450237274e-02 4.931858479976654053e-01
4.442000000000000000e+03 3.141259574890136719e+01 1.812627983093261719e+01 2.018043771386146545e-02 6.557455658912658691e-02 2.572649903595447540e-02 3.953415155410766602e-01
4.443000000000000000e+03 3.463007736206054688e+01 1.471670913696289062e+01 -1.453077141195535660e-02 2.213854342699050903e-01 6.205639988183975220e-02 4.762776494026184082e-01
4.444000000000000000e+03 3.967029190063476562e+01 1.526104736328125000e+01 1.927534490823745728e-01 5.807968974113464355e-01 2.320650964975357056e-01 3.087149262428283691e-01
4.445000000000000000e+03 5.511231994628906250e+01 1.358012676239013672e+01 2.893967032432556152e-01 2.811944723129272461e+00 9.304023981094360352e-01 -7.603914141654968262e-01
4.446000000000000000e+03 3.000256729125976562e+01 1.591671562194824219e+01 -1.443268805742263794e-01 -4.621129855513572693e-02 -5.716145411133766174e-02 4.875154495239257812e-01
4.447000000000000000e+03 5.936933517456054688e+01 1.745472335815429688e+01 1.697035282850265503e-01 4.105641365051269531e+00 1.282603502273559570e+00 -7.470843195915222168e-01
4.448000000000000000e+03 6.591577148437500000e+01 -1.456601047515869141e+01 -1.196911096572875977e+00 8.785652160644531250e+00 2.276622295379638672e+00 1.598479151725769043e+00
4.449000000000000000e+03 6.432160186767578125e+01 -1.308211231231689453e+01 -8.118104934692382812e-01 7.938815593719482422e+00 2.138101577758789062e+00 2.723054409027099609e+00
4.450000000000000000e+03 6.422361755371093750e+01 -1.344352340698242188e+01 -8.003669977188110352e-01 7.664302825927734375e+00 2.059180736541748047e+00 2.617001295089721680e+00
4.451000000000000000e+03 6.563729858398437500e+01 -1.427113151550292969e+01 -1.176112174987792969e+00 8.746530532836914062e+00 2.271125555038452148e+00 1.772136926651000977e+00
4.452000000000000000e+03 6.298925399780273438e+01 -1.388650798797607422e+01 -4.455640614032745361e-01 6.114606380462646484e+00 1.700712680816650391e+00 2.713627815246582031e+00
4.453000000000000000e+03 6.399148559570312500e+01 6.519839167594909668e-01 -8.062410354614257812e-01 7.425577163696289062e+00 1.985800862312316895e+00 -2.718867301940917969e+00
4.454000000000000000e+03 6.548633575439453125e+01 1.026696681976318359e+00 -1.230404376983642578e+00 8.875761032104492188e+00 2.293606758117675781e+00 -1.991755604743957520e+00
4.455000000000000000e+03 6.439807128906250000e+01 1.203350067138671875e+00 -9.510212540626525879e-01 7.696324348449707031e+00 2.023591041564941406e+00 -2.447312593460083008e+00
4.456000000000000000e+03 6.455876159667968750e+01 -1.484468936920166016e+01 -9.197269678115844727e-01 7.600997447967529297e+00 2.004381179809570312e+00 2.141187667846679688e+00
4.457000000000000000e+03 6.430628967285156250e+01 2.453993797302246094e+00 -9.229713082313537598e-01 7.236932277679443359e+00 1.894188284873962402e+00 -2.132257461547851562e+00
4.458000000000000000e+03 6.241048049926757812e+01 -1.642646980285644531e+01 -4.020263552665710449e-01 5.481400489807128906e+00 1.523812174797058105e+00 2.101238012313842773e+00
4.459000000000000000e+03 6.374921417236328125e+01 -1.496583557128906250e+01 -6.978352069854736328e-01 6.723290920257568359e+00 1.807636737823486328e+00 2.284292936325073242e+00
4.460000000000000000e+03 6.433599090576171875e+01 7.217488884925842285e-01 -9.253093600273132324e-01 7.808196067810058594e+00 2.064866065979003906e+00 -2.683557987213134766e+00
4.461000000000000000e+03 3.487685775756835938e+01 1.823281669616699219e+01 1.448245197534561157e-01 3.035972714424133301e-01 1.345265358686447144e-01 3.434825837612152100e-01
4.462000000000000000e+03 2.938044357299804688e+01 1.978044319152832031e+01 3.407810255885124207e-02 -6.840322166681289673e-02 -1.029753591865301132e-02 3.496695160865783691e-01
4.463000000000000000e+03 5.142494583129882812e+01 1.287569141387939453e+01 3.480034470558166504e-01 1.898746132850646973e+00 6.740248799324035645e-01 -4.517260789871215820e-01
4.464000000000000000e+03 4.829675674438476562e+01 1.335537719726562500e+01 3.380924761295318604e-01 1.398211956024169922e+00 5.208913087844848633e-01 -1.892963200807571411e-01
4.465000000000000000e+03 5.339240646362304688e+01 1.416258907318115234e+01 3.364409208297729492e-01 2.456006765365600586e+00 8.377343416213989258e-01 -6.152263879776000977e-01
4.466000000000000000e+03 5.302180480957031250e+01 1.247940444946289062e+01 3.204801380634307861e-01 2.204884529113769531e+00 7.576094269752502441e-01 -6.097864508628845215e-01
4.467000000000000000e+03 3.634621810913085938e+01 1.609985733032226562e+01 1.060571447014808655e-01 3.570177853107452393e-01 1.389224827289581299e-01 3.883861005306243896e-01
4.468000000000000000e+03 6.078870010375976562e+01 -2.197794342041015625e+01 -4.008964821696281433e-02 4.444432735443115234e+00 1.321303009986877441e+00 1.222780942916870117e+00
4.469000000000000000e+03 4.243088531494140625e+01 1.930993080139160156e+01 4.051499664783477783e-01 1.036084651947021484e+00 4.323703646659851074e-01 8.986448496580123901e-02
4.470000000000000000e+03 3.476479339599609375e+01 1.637679481506347656e+01 6.153925135731697083e-02 2.623706459999084473e-01 9.717296808958053589e-02 4.112105667591094971e-01
4.471000000000000000e+03 5.800482940673828125e+01 1.827447700500488281e+01 2.392730861902236938e-01 3.764103651046752930e+00 1.201012969017028809e+00 -6.892940998077392578e-01
4.472000000000000000e+03 5.392786788940429688e+01 1.705000686645507812e+01 3.732311129570007324e-01 2.751960992813110352e+00 9.375576376914978027e-01 -5.731323957443237305e-01
4.473000000000000000e+03 5.489194107055664062e+01 1.613339996337890625e+01 3.342459797859191895e-01 2.903384208679199219e+00 9.712890386581420898e-01 -6.750518679618835449e-01
4.474000000000000000e+03 6.574745178222656250e+01 -1.291483306884765625e+01 -1.227157711982727051e+00 9.722588539123535156e+00 2.548629283905029297e+00 1.937281727790832520e+00
4.475000000000000000e+03 6.510162353515625000e+01 -1.353878021240234375e+01 -1.072974205017089844e+00 8.662178993225097656e+00 2.276761531829833984e+00 2.198935031890869141e+00
4.476000000000000000e+03 6.547020721435546875e+01 3.842051625251770020e-01 -1.234236240386962891e+00 9.254578590393066406e+00 2.406102657318115234e+00 -2.131745338439941406e+00
4.477000000000000000e+03 6.599902343750000000e+01 -1.391393280029296875e+01 -1.235781431198120117e+00 9.206617355346679688e+00 2.391250848770141602e+00 1.625640511512756348e+00
4.478000000000000000e+03 6.494747924804687500e+01 -1.432242679595947266e+01 -1.014757752418518066e+00 8.108714103698730469e+00 2.128186941146850586e+00 2.103262186050415039e+00
4.479000000000000000e+03 6.488561248779296875e+01 3.640506863594055176e-01 -1.072309851646423340e+00 8.606839179992675781e+00 2.260358810424804688e+00 -2.484635591506958008e+00
4.480000000000000000e+03 6.362827682495117188e+01 -1.438397407531738281e+01 -6.392616629600524902e-01 6.693810939788818359e+00 1.816364765167236328e+00 2.515936613082885742e+00
4.481000000000000000e+03 6.484265136718750000e+01 1.036947846412658691e+00 -1.083456039428710938e+00 8.241765975952148438e+00 2.147492885589599609e+00 -2.329245567321777344e+00
4.482000000000000000e+03 6.571978759765625000e+01 -1.357641696929931641e+01 -1.207509517669677734e+00 9.236032485961914062e+00 2.408556699752807617e+00 1.834730863571166992e+00
4.483000000000000000e+03 4.653275299072265625e+01 1.700017547607421875e+01 4.032631218433380127e-01 1.413699984550476074e+00 5.450888872146606445e-01 -1.069365963339805603e-01
4.484000000000000000e+03 3.658293914794921875e+01 1.794785881042480469e+01 1.933101862668991089e-01 4.208925664424896240e-01 1.842608302831649780e-01 3.162069916725158691e-01
4.485000000000000000e+03 5.317790222167968750e+01 2.089520645141601562e+01 4.262047708034515381e-01 2.749148130416870117e+00 9.526058435440063477e-01 -4.385227859020233154e-01
4.486000000000000000e+03 4.171221542358398438e+01 1.811948394775390625e+01 3.494632244110107422e-01 8.813996315002441406e-01 3.692588508129119873e-01 1.520415991544723511e-01
4.487000000000000000e+03 6.469393157958984375e+01 -1.384024238586425781e+01 -9.610216617584228516e-01 8.070719718933105469e+00 2.132909536361694336e+00 2.324793338775634766e+00
4.488000000000000000e+03 6.410685729980468750e+01 -1.451392364501953125e+01 -8.118976354598999023e-01 7.281148910522460938e+00 1.940775394439697266e+00 2.313564062118530273e+00
4.489000000000000000e+03 4.302058029174804688e+01 1.803194808959960938e+01 3.760932087898254395e-01 1.056777834892272949e+00 4.298613071441650391e-01 8.469134569168090820e-02
4.490000000000000000e+03 3.119649887084960938e+01 2.019205665588378906e+01 1.107169613242149353e-01 6.448157131671905518e-02 5.255956202745437622e-02 3.244749903678894043e-01
4.491000000000000000e+03 3.693224334716796875e+01 1.999420356750488281e+01 2.799287736415863037e-01 5.012949109077453613e-01 2.343671172857284546e-01 2.426756769418716431e-01
4.492000000000000000e+03 4.091147232055664062e+01 -2.628916358947753906e+01 4.975587725639343262e-01 3.899610042572021484e-01 2.662559449672698975e-01 -2.271827310323715210e-01
4.493000000000000000e+03 2.816852760314941406e+01 2.427115821838378906e+01 2.322458028793334961e-01 -1.477854698896408081e-01 2.533810213208198547e-02 2.343494892120361328e-01
4.494000000000000000e+03 5.356176376342773438e+01 1.576422882080078125e+01 3.695168495178222656e-01 2.610728263854980469e+00 8.940735459327697754e-01 -6.027586460113525391e-01
4.495000000000000000e+03 4.985580825805664062e+01 1.317517757415771484e+01 3.525125682353973389e-01 1.625835895538330078e+00 5.935045480728149414e-01 -3.139573931694030762e-01
4.496000000000000000e+03 2.965377044677734375e+01 1.773309707641601562e+01 -6.574082374572753906e-02 -5.957052111625671387e-02 -3.759340569376945496e-02 4.219144582748413086e-01
4.497000000000000000e+03 5.586631393432617188e+01 1.741184806823730469e+01 3.161464035511016846e-01 3.186957597732543945e+00 1.050931215286254883e+00 -6.705649495124816895e-01
4.498000000000000000e+03 4.801615524291992188e+01 1.939480590820312500e+01 4.803512990474700928e-01 1.781322717666625977e+00 6.785022020339965820e-01 -2.232926785945892334e-01
4.499000000000000000e+03 4.835700988769531250e+01 1.516734886169433594e+01 3.935037851333618164e-01 1.551916956901550293e+00 5.836262106895446777e-01 -2.141352146863937378e-01
4.500000000000000000e+03 4.118680572509765625e+01 2.045791816711425781e+01 4.071519970893859863e-01 9.190912842750549316e-01 3.978729844093322754e-01 1.131090000271797180e-01
4.501000000000000000e+03 4.141028976440429688e+01 1.500199031829833984e+01 2.306181490421295166e-01 7.191943526268005371e-01 2.849437296390533447e-01 2.443665862083435059e-01
4.502000000000000000e+03 3.989532089233398438e+01 1.700462532043457031e+01 2.600659132003784180e-01 6.617711782455444336e-01 2.765511274337768555e-01 2.471347153186798096e-01
4.503000000000000000e+03 3.871720123291015625e+01 1.942282104492187500e+01 3.134580552577972412e-01 6.392961144447326660e-01 2.858262658119201660e-01 2.131131142377853394e-01
4.504000000000000000e+03 4.150309371948242188e+01 1.664108085632324219e+01 2.968967556953430176e-01 8.057219386100769043e-01 3.307856023311614990e-01 1.953020691871643066e-01
4.505000000000000000e+03 4.312779617309570312e+01 1.654467391967773438e+01 3.335874080657958984e-01 9.799404740333557129e-01 3.940583765506744385e-01 1.105906069278717041e-01
4.506000000000000000e+03 2.889103889465332031e+01 2.193667030334472656e+01 1.356463134288787842e-01 -9.942634403705596924e-02 1.086599193513393402e-02 2.916241884231567383e-01
4.507000000000000000e+03 4.760305786132812500e+01 2.137131118774414062e+01 4.857769012451171875e-01 1.829321384429931641e+00 6.945294737815856934e-01 -1.776541918516159058e-01
4.508000000000000000e+03 4.032558822631835938e+01 1.873863983154296875e+01 3.364050686359405518e-01 7.655699849128723145e-01 3.305925130844116211e-01 1.812080889940261841e-01
4.509000000000000000e+03 5.197331619262695312e+01 1.634279441833496094e+01 4.024921953678131104e-01 2.310021877288818359e+00 8.137542605400085449e-01 -4.692433476448059082e-01
4.510000000000000000e+03 5.029770278930664062e+01 1.709812736511230469e+01 4.250377714633941650e-01 1.995842099189758301e+00 7.262639999389648438e-01 -3.322548568248748779e-01
4.511000000000000000e+03 4.381335067749023438e+01 2.026870536804199219e+01 4.526177644729614258e-01 1.258381962776184082e+00 5.132999420166015625e-01 3.411144251003861427e-03
4.512000000000000000e+03 6.850827789306640625e+01 -3.432888031005859375e+01 7.397311925888061523e-02 6.403229713439941406e+00 1.943160772323608398e+00 2.586053311824798584e-01
4.513000000000000000e+03 6.585234069824218750e+01 -3.296788787841796875e+01 1.062694042921066284e-01 5.838681221008300781e+00 1.783485174179077148e+00 3.355486690998077393e-01
4.514000000000000000e+03 1.005678081512451172e+01 3.762275314331054688e+01 2.116721719503402710e-01 -7.393376827239990234e-01 -1.582996547222137451e-01 1.648606657981872559e-01
4.515000000000000000e+03 1.348938369750976562e+01 3.429060363769531250e+01 3.133705556392669678e-01 -7.269552350044250488e-01 -1.240754052996635437e-01 2.536288201808929443e-01
4.516000000000000000e+03 4.956194305419921875e+01 2.086015319824218750e+01 4.700760841369628906e-01 2.117472887039184570e+00 7.762647271156311035e-01 -2.863653004169464111e-01
4.517000000000000000e+03 2.905083847045898438e+01 -2.769094848632812500e+01 2.973893880844116211e-01 -1.196304261684417725e-01 5.332768335938453674e-02 -3.687784969806671143e-01
4.518000000000000000e+03 3.191660881042480469e+01 -2.750518035888671875e+01 3.539576530456542969e-01 -4.425280913710594177e-02 9.291145205497741699e-02 -3.718393743038177490e-01
4.519000000000000000e+03 6.298392486572265625e+01 2.696685028076171875e+01 2.329756915569305420e-01 4.982063770294189453e+00 1.564511775970458984e+00 -4.153470098972320557e-01
4.520000000000000000e+03 6.476378631591796875e+01 2.987517929077148438e+01 2.080654799938201904e-01 5.352424144744873047e+00 1.668146967887878418e+00 -3.135420382022857666e-01
4.521000000000000000e+03 4.616719818115234375e+01 1.893645668029785156e+01 4.510509371757507324e-01 1.478374600410461426e+00 5.788276791572570801e-01 -1.038090959191322327e-01
4.522000000000000000e+03 2.067522239685058594e+01 -2.208015632629394531e+01 -1.006151214241981506e-01 -2.075278908014297485e-01 -9.244290739297866821e-02 -3.681453466415405273e-01
4.523000000000000000e+03 1.731788253784179688e+01 -2.486999320983886719e+01 1.046482566744089127e-02 -3.020133376121520996e-01 -8.746455609798431396e-02 -3.178400099277496338e-01
4.524000000000000000e+03 3.427577972412109375e+01 -2.643688201904296875e+01 3.618548214435577393e-01 4.043005406856536865e-02 1.206854656338691711e-01 -3.849435150623321533e-01
4.525000000000000000e+03 3.635213851928710938e+01 -2.598299026489257812e+01 3.816058933734893799e-01 1.132391914725303650e-01 1.484535187482833862e-01 -3.691316545009613037e-01
4.526000000000000000e+03 2.589098548889160156e+01 2.944035720825195312e+01 4.195939898490905762e-01 -2.875970005989074707e-01 3.959909826517105103e-02 1.725749969482421875e-01
4.527000000000000000e+03 2.489345550537109375e+01 2.556517410278320312e+01 2.481574118137359619e-01 -4.188309907913208008e-01 -5.120207741856575012e-02 2.353275716304779053e-01
4.528000000000000000e+03 5.993439102172851562e+01 2.216311264038085938e+01 2.462172210216522217e-01 4.292597770690917969e+00 1.361644387245178223e+00 -5.712270736694335938e-01
4.529000000000000000e+03 5.661656188964843750e+01 1.896457290649414062e+01 2.992603182792663574e-01 3.441796779632568359e+00 1.122317075729370117e+00 -6.240579485893249512e-01
4.530000000000000000e+03 5.696099853515625000e+01 -2.944735145568847656e+01 4.543657898902893066e-01 3.340978622436523438e+00 1.138603329658508301e+00 5.654264092445373535e-01
4.531000000000000000e+03 6.208717727661132812e+01 -3.262222290039062500e+01 2.652303278446197510e-01 4.749554634094238281e+00 1.504435539245605469e+00 4.241156876087188721e-01
4.532000000000000000e+03 5.385033798217773438e+01 1.912859153747558594e+01 3.951359689235687256e-01 2.797106981277465820e+00 9.576728940010070801e-01 -5.080041885375976562e-01
4.533000000000000000e+03 5.128227233886718750e+01 1.941167259216308594e+01 4.552558958530426025e-01 2.335101127624511719e+00 8.371071219444274902e-01 -3.856759071350097656e-01
4.534000000000000000e+03 3.503919219970703125e+01 2.034007453918457031e+01 2.392648905515670776e-01 3.576602339744567871e-01 1.790775358676910400e-01 2.726439535617828369e-01
4.535000000000000000e+03 3.088507080078125000e+01 2.248473739624023438e+01 2.109220027923583984e-01 6.186885014176368713e-02 8.183725923299789429e-02 2.639157474040985107e-01
4.536000000000000000e+03 3.748344039916992188e+01 2.225660896301269531e+01 3.813024759292602539e-01 6.092674732208251953e-01 2.971709966659545898e-01 1.701309531927108765e-01
4.537000000000000000e+03 7.961479663848876953e+00 3.641329193115234375e+01 1.521012485027313232e-01 -7.366784811019897461e-01 -1.753731667995452881e-01 1.859845221042633057e-01
4.538000000000000000e+03 2.619494628906250000e+01 -2.715565109252929688e+01 2.031864076852798462e-01 -1.792958080768585205e-01 7.167179603129625320e-03 -3.709929585456848145e-01
4.539000000000000000e+03 2.041307640075683594e+01 3.053948211669921875e+01 4.013216197490692139e-01 -6.135563850402832031e-01 -6.367043405771255493e-02 2.342561483383178711e-01
4.540000000000000000e+03 5.473543548583984375e+01 1.813072013854980469e+01 3.711553215980529785e-01 2.941098690032958984e+00 9.936761856079101562e-01 -5.914821624755859375e-01
4.541000000000000000e+03 5.891051864624023438e+01 2.011530685424804688e+01 2.423733621835708618e-01 4.028606414794921875e+00 1.281293869018554688e+00 -6.360571384429931641e-01
4.542000000000000000e+03 4.778166198730468750e+01 -2.812465095520019531e+01 6.783248782157897949e-01 1.254766702651977539e+00 5.799274444580078125e-01 1.302048414945602417e-01
4.543000000000000000e+03 5.085469818115234375e+01 -2.497810173034667969e+01 5.589116811752319336e-01 1.558418035507202148e+00 6.351988911628723145e-01 3.832681179046630859e-01
4.544000000000000000e+03 1.081441211700439453e+01 -3.444728851318359375e+01 1.347617655992507935e-01 -4.068639278411865234e-01 -8.163065463304519653e-02 -1.779362112283706665e-01
4.545000000000000000e+03 1.423283958435058594e+01 -2.733061790466308594e+01 7.834135740995407104e-02 -3.622755110263824463e-01 -8.518025279045104980e-02 -2.847191989421844482e-01
4.546000000000000000e+03 2.688445281982421875e+01 -2.449521827697753906e+01 9.016629308462142944e-02 -1.459190100431442261e-01 -1.672581583261489868e-02 -4.293147325515747070e-01
4.547000000000000000e+03 1.261549186706542969e+01 2.838126564025878906e+01 1.756948083639144897e-01 -7.898764610290527344e-01 -1.842544972896575928e-01 4.220271408557891846e-01
4.548000000000000000e+03 5.799229431152343750e+01 2.302944755554199219e+01 3.289484679698944092e-01 3.865624904632568359e+00 1.258371949195861816e+00 -5.254265069961547852e-01
4.549000000000000000e+03 7.315814971923828125e+01 3.304278564453125000e+01 6.388238817453384399e-02 6.886862277984619141e+00 2.085223436355590820e+00 -1.769216209650039673e-01
4.550000000000000000e+03 4.410195922851562500e+01 -2.820587539672851562e+01 6.598252654075622559e-01 7.651256918907165527e-01 4.274852871894836426e-01 -6.635107100009918213e-02
4.551000000000000000e+03 8.106994628906250000e+00 -4.096676635742187500e+01 8.836551010608673096e-02 -4.585693180561065674e-01 -1.110611408948898315e-01 -3.015878424048423767e-02
4.552000000000000000e+03 1.296031188964843750e+01 -3.285471725463867188e+01 1.517571061849594116e-01 -3.915657699108123779e-01 -7.194260507822036743e-02 -2.105747014284133911e-01
4.553000000000000000e+03 1.218286323547363281e+01 3.173231315612792969e+01 2.441962808370590210e-01 -7.506690025329589844e-01 -1.519418060779571533e-01 3.382183015346527100e-01
4.554000000000000000e+03 2.367851638793945312e+01 2.808685302734375000e+01 3.321837484836578369e-01 -4.893389344215393066e-01 -4.714655131101608276e-02 2.093845605850219727e-01
4.555000000000000000e+03 6.419375610351562500e+01 3.484125900268554688e+01 2.666792273521423340e-01 5.210418701171875000e+00 1.643129467964172363e+00 -1.968654394149780273e-01
4.556000000000000000e+03 8.437091827392578125e+00 4.075021362304687500e+01 1.607757806777954102e-01 -7.562441825866699219e-01 -1.786405146121978760e-01 5.901012197136878967e-02
4.557000000000000000e+03 1.217418479919433594e+01 -3.730198669433593750e+01 1.797701418399810791e-01 -4.080716371536254883e-01 -6.849044561386108398e-02 -1.210673078894615173e-01
4.558000000000000000e+03 2.246696853637695312e+01 -3.727258682250976562e+01 4.262058436870574951e-01 -2.846133112907409668e-01 4.247775673866271973e-02 -1.321933567523956299e-01
4.559000000000000000e+03 3.488963699340820312e+01 -3.818466949462890625e+01 7.557614445686340332e-01 1.898884922266006470e-01 2.836949825286865234e-01 -8.330496400594711304e-02
4.560000000000000000e+03 4.383602905273437500e+01 -3.691134643554687500e+01 8.506745100021362305e-01 9.830384254455566406e-01 5.501138567924499512e-01 -1.225358340889215469e-02
4.561000000000000000e+03 5.672414398193359375e+01 -3.755755615234375000e+01 6.057967543601989746e-01 3.435285568237304688e+00 1.212324738502502441e+00 1.822997927665710449e-01
4.562000000000000000e+03 6.752780914306640625e+01 3.739979171752929688e+01 1.933488100767135620e-01 5.799818992614746094e+00 1.797950387001037598e+00 -1.345742940902709961e-01
4.563000000000000000e+03 5.618146896362304688e+01 3.697431945800781250e+01 4.797250628471374512e-01 3.671114206314086914e+00 1.245251774787902832e+00 -1.217575818300247192e-01
4.564000000000000000e+03 4.682106399536132812e+01 3.726040267944335938e+01 6.506767868995666504e-01 2.068186759948730469e+00 8.156590461730957031e-01 -5.721567571163177490e-02
4.565000000000000000e+03 3.723291778564453125e+01 3.760170364379882812e+01 6.935494542121887207e-01 8.052887916564941406e-01 4.496514499187469482e-01 8.069354109466075897e-03
4.566000000000000000e+03 1.834838867187500000e+01 3.731092834472656250e+01 4.543519318103790283e-01 -6.118758320808410645e-01 -4.725717008113861084e-02 1.293744593858718872e-01
4.567000000000000000e+03 2.302891921997070312e+01 3.751054382324218750e+01 5.585361719131469727e-01 -4.030427038669586182e-01 4.664803668856620789e-02 8.452462404966354370e-02
4.568000000000000000e+03 1.385047912597656250e+01 3.742801666259765625e+01 3.299673795700073242e-01 -7.050924897193908691e-01 -1.125375255942344666e-01 1.591528952121734619e-01
4.569000000000000000e+03 5.724288558959960938e+01 2.083194351196289062e+01 3.122407495975494385e-01 3.652616024017333984e+00 1.189457058906555176e+00 -5.841724276542663574e-01
4.570000000000000000e+03 4.967644119262695312e+01 -2.925464248657226562e+01 6.943160295486450195e-01 1.632261991500854492e+00 6.979734301567077637e-01 2.186972647905349731e-01
4.571000000000000000e+03 4.560356140136718750e+01 2.100425720214843750e+01 4.940225481986999512e-01 1.512639641761779785e+00 6.019986271858215332e-01 -1.003226935863494873e-01
4.572000000000000000e+03 4.071298599243164062e+01 2.373181533813476562e+01 4.844726026058197021e-01 9.904966354370117188e-01 4.424907565116882324e-01 5.814176797866821289e-02
4.573000000000000000e+03 4.264665985107421875e+01 2.216916656494140625e+01 4.811974465847015381e-01 1.173307418823242188e+00 4.963514506816864014e-01 2.832138352096080780e-02
4.574000000000000000e+03 6.042483901977539062e+01 2.833244895935058594e+01 3.234351575374603271e-01 4.433417797088623047e+00 1.427055954933166504e+00 -3.822365999221801758e-01
4.575000000000000000e+03 1.457611560821533203e+01 -3.085107231140136719e+01 1.560979783535003662e-01 -3.729523420333862305e-01 -6.505630910396575928e-02 -2.464063465595245361e-01
4.576000000000000000e+03 1.509015083312988281e+01 -3.522465896606445312e+01 2.250120192766189575e-01 -3.804259300231933594e-01 -4.662417620420455933e-02 -1.693293601274490356e-01
4.577000000000000000e+03 5.229717636108398438e+01 -2.657507705688476562e+01 5.776908993721008301e-01 1.961232423782348633e+00 7.616770267486572266e-01 4.533537626266479492e-01
4.578000000000000000e+03 5.358136749267578125e+01 -2.855566787719726562e+01 5.800935029983520508e-01 2.395631074905395508e+00 8.927174210548400879e-01 4.871327877044677734e-01
4.579000000000000000e+03 2.192898941040039062e+01 -2.389408683776855469e+01 -1.309387385845184326e-02 -2.139765620231628418e-01 -6.812113523483276367e-02 -3.734798729419708252e-01
4.580000000000000000e+03 2.379652786254882812e+01 -2.581722068786621094e+01 1.118977516889572144e-01 -2.052792012691497803e-01 -2.801443450152873993e-02 -3.746761381626129150e-01
4.581000000000000000e+03 3.304828262329101562e+01 2.276495742797851562e+01 2.788427770137786865e-01 2.345507442951202393e-01 1.540180593729019165e-01 2.280613929033279419e-01
4.582000000000000000e+03 2.718624496459960938e+01 2.677360725402832031e+01 3.463282883167266846e-01 -2.024690657854080200e-01 4.315776750445365906e-02 2.045392692089080811e-01
4.583000000000000000e+03 5.074649810791015625e+01 -2.775574302673339844e+01 6.299889087677001953e-01 1.738914370536804199e+00 7.106710076332092285e-01 3.321085572242736816e-01
4.584000000000000000e+03 1.943686103820800781e+01 -2.611847877502441406e+01 8.442390710115432739e-02 -2.817939817905426025e-01 -5.921102315187454224e-02 -3.308671116828918457e-01
4.585000000000000000e+03 2.070940017700195312e+01 -2.528036880493164062e+01 3.277735412120819092e-02 -2.457678914070129395e-01 -6.389716267585754395e-02 -3.509129583835601807e-01
4.586000000000000000e+03 6.698287200927734375e+01 -3.082757568359375000e+01 -1.011818833649158478e-02 6.163218975067138672e+00 1.845930218696594238e+00 3.829807043075561523e-01
4.587000000000000000e+03 2.618610000610351562e+01 2.329467391967773438e+01 1.409296989440917969e-01 -3.100540041923522949e-01 -5.073728784918785095e-02 2.692789435386657715e-01
4.588000000000000000e+03 4.479114151000976562e+01 -3.332120132446289062e+01 8.059478998184204102e-01 1.023829698562622070e+00 5.489332675933837891e-01 -4.366484936326742172e-03
4.589000000000000000e+03 5.596271133422851562e+01 -3.413631439208984375e+01 5.849522352218627930e-01 3.228935241699218750e+00 1.144166231155395508e+00 3.269370794296264648e-01
4.590000000000000000e+03 3.042765998840332031e+01 2.499829483032226562e+01 3.226433396339416504e-01 3.770710155367851257e-02 1.081051379442214966e-01 2.057686001062393188e-01
4.591000000000000000e+03 3.822727966308593750e+01 2.471419143676757812e+01 4.597083926200866699e-01 7.336019873619079590e-01 3.579930961132049561e-01 1.008703485131263733e-01
4.592000000000000000e+03 6.407522583007812500e+01 -3.534243774414062500e+01 2.487017810344696045e-01 5.271571636199951172e+00 1.656082034111022949e+00 2.692373096942901611e-01
4.593000000000000000e+03 1.799332237243652344e+01 -2.649359321594238281e+01 8.227010816335678101e-02 -3.027144670486450195e-01 -6.613330543041229248e-02 -3.181128799915313721e-01
4.594000000000000000e+03 1.934333992004394531e+01 3.374567413330078125e+01 4.352642595767974854e-01 -6.194300055503845215e-01 -5.524972081184387207e-02 1.941670626401901245e-01
4.595000000000000000e+03 2.352223014831542969e+01 3.401310348510742188e+01 5.108780264854431152e-01 -4.040937423706054688e-01 3.203528746962547302e-02 1.345976740121841431e-01
4.596000000000000000e+03 1.948036575317382812e+01 -3.344741058349609375e+01 2.905581891536712646e-01 -3.261013627052307129e-01 -1.066294591873884201e-02 -2.261893600225448608e-01
4.597000000000000000e+03 3.858025741577148438e+01 -2.879136657714843750e+01 5.824241638183593750e-01 3.069514930248260498e-01 2.668127119541168213e-01 -2.485582232475280762e-01
4.598000000000000000e+03 3.443872833251953125e+01 -3.286473464965820312e+01 6.344455480575561523e-01 1.128760874271392822e-01 2.241964787244796753e-01 -2.219287008047103882e-01
4.599000000000000000e+03 5.939341354370117188e+01 -3.353715515136718750e+01 4.179623723030090332e-01 4.031168937683105469e+00 1.334739446640014648e+00 4.195972681045532227e-01
4.600000000000000000e+03 5.512047576904296875e+01 3.337609863281250000e+01 4.966464936733245850e-01 3.460385084152221680e+00 1.187109470367431641e+00 -2.065782994031906128e-01
4.601000000000000000e+03 5.533023071289062500e+01 2.118257331848144531e+01 3.777761757373809814e-01 3.235461473464965820e+00 1.083971261978149414e+00 -5.142931938171386719e-01
4.602000000000000000e+03 5.201789855957031250e+01 -3.169602012634277344e+01 7.010161280632019043e-01 2.236681938171386719e+00 8.813094496726989746e-01 2.924797534942626953e-01
4.603000000000000000e+03 4.903486251831054688e+01 -3.147818183898925781e+01 7.540789246559143066e-01 1.617978096008300781e+00 7.116171121597290039e-01 1.673698574304580688e-01
4.604000000000000000e+03 2.207401275634765625e+01 -2.743188095092773438e+01 1.549907028675079346e-01 -2.465410828590393066e-01 -2.746511064469814301e-02 -3.379146456718444824e-01
4.605000000000000000e+03 3.561533737182617188e+01 2.527490234375000000e+01 4.230125248432159424e-01 4.930364787578582764e-01 2.748146951198577881e-01 1.365448534488677979e-01
4.606000000000000000e+03 4.753582000732421875e+01 2.382378578186035156e+01 5.258214473724365234e-01 1.903203010559082031e+00 7.287073135375976562e-01 -1.772821843624114990e-01
4.607000000000000000e+03 4.179135513305664062e+01 2.625207519531250000e+01 5.437853932380676270e-01 1.151189684867858887e+00 5.084925293922424316e-01 1.514537539333105087e-02
4.608000000000000000e+03 5.645254898071289062e+01 2.633535194396972656e+01 4.120620787143707275e-01 3.590569257736206055e+00 1.200789332389831543e+00 -4.067704975605010986e-01
4.609000000000000000e+03 3.536831665039062500e+01 -3.048782730102539062e+01 5.644731521606445312e-01 1.455300301313400269e-01 2.130009680986404419e-01 -2.791883945465087891e-01
4.610000000000000000e+03 4.433886718750000000e+01 2.604647636413574219e+01 5.548334717750549316e-01 1.543987631797790527e+00 6.296463012695312500e-01 -5.560553446412086487e-02
4.611000000000000000e+03 2.977198219299316406e+01 2.774238204956054688e+01 4.172036051750183105e-01 3.336054738610982895e-03 1.261619031429290771e-01 1.603676527738571167e-01
4.612000000000000000e+03 5.422010421752929688e+01 3.000891304016113281e+01 4.913222789764404297e-01 3.237739324569702148e+00 1.118718504905700684e+00 -2.795897722244262695e-01
4.613000000000000000e+03 2.861695861816406250e+01 -3.330335235595703125e+01 4.832285642623901367e-01 -1.260998845100402832e-01 1.071386039257049561e-01 -2.380760163068771362e-01
4.614000000000000000e+03 2.569903755187988281e+01 -3.027224540710449219e+01 3.182754516601562500e-01 -2.011440396308898926e-01 3.513941913843154907e-02 -3.144901096820831299e-01
4.615000000000000000e+03 5.487199783325195312e+01 -3.103436851501464844e+01 5.759721398353576660e-01 2.878523349761962891e+00 1.036348700523376465e+00 4.428822994232177734e-01
4.616000000000000000e+03 5.164948272705078125e+01 -2.938796234130859375e+01 6.505603194236755371e-01 2.054307222366333008e+00 8.114602565765380859e-01 3.479159474372863770e-01
4.617000000000000000e+03 6.205585861206054688e+01 3.142210197448730469e+01 3.020070195198059082e-01 4.725176811218261719e+00 1.508155226707458496e+00 -2.955450117588043213e-01
4.618000000000000000e+03 5.568765258789062500e+01 2.355047416687011719e+01 4.046169221401214600e-01 3.389416694641113281e+00 1.138210177421569824e+00 -4.637981951236724854e-01
4.619000000000000000e+03 3.279779434204101562e+01 2.820595359802246094e+01 4.800546765327453613e-01 2.605726122856140137e-01 2.221881747245788574e-01 1.306403726339340210e-01
4.620000000000000000e+03 5.237757492065429688e+01 -3.774408340454101562e+01 7.618186473846435547e-01 2.444509983062744141e+00 9.618986248970031738e-01 1.394755691289901733e-01
4.621000000000000000e+03 2.636698341369628906e+01 -3.712477493286132812e+01 5.365213751792907715e-01 -1.847877502441406250e-01 1.055200845003128052e-01 -1.443906277418136597e-01
4.622000000000000000e+03 4.800985717773437500e+01 -3.752514648437500000e+01 8.458040952682495117e-01 1.610799312591552734e+00 7.369810342788696289e-01 6.548584997653961182e-02
4.623000000000000000e+03 4.728358840942382812e+01 4.077513885498046875e+01 6.561343669891357422e-01 2.159110069274902344e+00 8.445733189582824707e-01 -2.016556076705455780e-02
4.624000000000000000e+03 2.000834274291992188e+01 -2.804346466064453125e+01 1.544453501701354980e-01 -2.858703434467315674e-01 -3.942749649286270142e-02 -3.126395344734191895e-01
4.625000000000000000e+03 2.274300384521484375e+01 -3.036816596984863281e+01 2.655353248119354248e-01 -2.546918988227844238e-01 3.253030357882380486e-03 -2.997634708881378174e-01
4.626000000000000000e+03 5.353138732910156250e+01 2.679264068603515625e+01 4.795468449592590332e-01 3.035227298736572266e+00 1.054432272911071777e+00 -3.330231904983520508e-01
4.627000000000000000e+03 3.912169647216796875e+01 2.740818786621093750e+01 5.348302721977233887e-01 8.794029355049133301e-01 4.242699444293975830e-01 3.702235966920852661e-02
4.628000000000000000e+03 5.224889755249023438e+01 -3.457273483276367188e+01 7.342712283134460449e-01 2.347721099853515625e+00 9.245976805686950684e-01 2.215177416801452637e-01
4.629000000000000000e+03 1.674710083007812500e+01 -3.243482971191406250e+01 2.255524098873138428e-01 -3.532729446887969971e-01 -3.831616044044494629e-02 -2.320420593023300171e-01
4.630000000000000000e+03 3.602547836303710938e+01 2.809786796569824219e+01 5.235201716423034668e-01 5.956423282623291016e-01 3.357487320899963379e-01 9.413249790668487549e-02
4.631000000000000000e+03 3.247904586791992188e+01 3.445044708251953125e+01 6.243144869804382324e-01 2.978659868240356445e-01 2.766541540622711182e-01 6.137421727180480957e-02
4.632000000000000000e+03 4.334695053100585938e+01 2.865366935729980469e+01 6.017448306083679199e-01 1.453564882278442383e+00 6.165928840637207031e-01 -4.135613515973091125e-02
4.633000000000000000e+03 2.797789955139160156e+01 3.418658065795898438e+01 5.714735388755798340e-01 -1.064531430602073669e-01 1.395061165094375610e-01 9.468146413564682007e-02
4.634000000000000000e+03 3.246290206909179688e+01 3.768178176879882812e+01 6.640164256095886230e-01 3.022054135799407959e-01 2.898665368556976318e-01 3.481759876012802124e-02
4.635000000000000000e+03 3.260986709594726562e+01 3.127210998535156250e+01 5.632901191711425781e-01 2.823092639446258545e-01 2.536798119544982910e-01 8.965099602937698364e-02
4.636000000000000000e+03 4.660755920410156250e+01 2.999213027954101562e+01 6.089212894439697266e-01 1.914103627204895020e+00 7.569074630737304688e-01 -1.251929849386215210e-01
4.637000000000000000e+03 3.596405792236328125e+01 -2.813157844543457031e+01 4.914632737636566162e-01 1.271069198846817017e-01 1.855710595846176147e-01 -3.146478235721588135e-01
4.638000000000000000e+03 5.057002258300781250e+01 3.025213813781738281e+01 5.622267127037048340e-01 2.601895093917846680e+00 9.492365717887878418e-01 -1.987317055463790894e-01
4.639000000000000000e+03 4.726322937011718750e+01 2.673544502258300781e+01 5.748774409294128418e-01 1.951576948165893555e+00 7.579362988471984863e-01 -1.740540564060211182e-01
4.640000000000000000e+03 3.695844650268554688e+01 3.433161926269531250e+01 6.534477472305297852e-01 7.394667267799377441e-01 4.178743362426757812e-01 2.521255426108837128e-02
4.641000000000000000e+03 3.652658843994140625e+01 3.114610862731933594e+01 6.045043468475341797e-01 6.718757748603820801e-01 3.829140365123748779e-01 5.377526581287384033e-02
4.642000000000000000e+03 2.860089683532714844e+01 -3.056338882446289062e+01 3.964316546916961670e-01 -1.322890967130661011e-01 7.924276590347290039e-02 -3.142420351505279541e-01
4.643000000000000000e+03 1.765130996704101562e+01 -7.592414379119873047e+00 -3.096779063344001770e-02 -5.324440076947212219e-02 -2.526365779340267181e-02 -4.125397652387619019e-02
4.644000000000000000e+03 1.858826637268066406e+01 -3.509968996047973633e+00 -1.889983541332185268e-03 9.130173362791538239e-03 2.172057051211595535e-03 4.301539622247219086e-03
4.645000000000000000e+03 4.025324583053588867e-01 -2.191887855529785156e+00 2.242356422357261181e-04 -1.857403367466758937e-05 6.169848347781226039e-05 4.947872002958320081e-05
4.646000000000000000e+03 6.321072006225585938e+01 -4.784480571746826172e+00 1.724992752075195312e+00 2.667871952056884766e+00 1.317859411239624023e+00 -3.711714029312133789e+00
4.647000000000000000e+03 6.353211593627929688e+01 -4.447208881378173828e+00 1.909836173057556152e+00 4.674594879150390625e+00 1.975329399108886719e+00 -4.850745201110839844e+00
4.648000000000000000e+03 6.375246429443359375e+01 -4.393207073211669922e+00 1.859052419662475586e+00 5.873902320861816406e+00 2.319886445999145508e+00 -5.300602436065673828e+00
4.649000000000000000e+03 6.452973175048828125e+01 -4.318358898162841797e+00 9.545478820800781250e-01 1.128297996520996094e+01 3.671258449554443359e+00 -6.084656238555908203e+00
4.650000000000000000e+03 6.439884185791015625e+01 -4.545193195343017578e+00 1.637025117874145508e+00 1.034213447570800781e+01 3.593747854232788086e+00 -6.562017440795898438e+00
4.651000000000000000e+03 6.480154418945312500e+01 -4.765007019042968750e+00 1.176798939704895020e+00 1.435069656372070312e+01 4.658248901367187500e+00 -6.720238208770751953e+00
4.652000000000000000e+03 6.541214752197265625e+01 -4.726417541503906250e+00 2.907976806163787842e-01 1.921504402160644531e+01 5.851752281188964844e+00 -3.424697399139404297e+00
4.653000000000000000e+03 6.563043212890625000e+01 -4.775092124938964844e+00 5.909171700477600098e-01 1.996610832214355469e+01 6.167107582092285156e+00 -2.145546913146972656e+00
4.654000000000000000e+03 6.601541900634765625e+01 -4.999027729034423828e+00 2.340261936187744141e+00 2.078054428100585938e+01 6.936242103576660156e+00 6.464654207229614258e-01
4.655000000000000000e+03 6.634694671630859375e+01 -4.843014717102050781e+00 2.524974822998046875e+00 1.897400093078613281e+01 6.449693202972412109e+00 1.310145258903503418e+00
4.656000000000000000e+03 6.680021667480468750e+01 -6.230200767517089844e+00 1.011984634399414062e+01 1.633431625366210938e+01 7.936248779296875000e+00 6.401274800300598145e-01
4.657000000000000000e+03 6.501457977294921875e+01 -8.704585075378417969e+00 6.397741287946701050e-02 1.421146774291992188e+01 4.282633304595947266e+00 4.876012802124023438e+00
4.658000000000000000e+03 6.419322204589843750e+01 -8.364779472351074219e+00 1.764241337776184082e+00 8.480061531066894531e+00 3.073291063308715820e+00 6.152124881744384766e+00
4.659000000000000000e+03 6.437535858154296875e+01 -8.359345436096191406e+00 1.489545822143554688e+00 1.007877254486083984e+01 3.470495700836181641e+00 6.259224414825439453e+00
4.660000000000000000e+03 6.362067031860351562e+01 -8.002182006835937500e+00 2.331413269042968750e+00 4.092027187347412109e+00 1.927032232284545898e+00 4.780150413513183594e+00
4.661000000000000000e+03 6.350437927246093750e+01 -8.333928108215332031e+00 1.932585358619689941e+00 4.537150859832763672e+00 1.940920829772949219e+00 4.739176750183105469e+00
4.662000000000000000e+03 6.260243225097656250e+01 -8.015137672424316406e+00 7.081810235977172852e-01 1.371279597282409668e+00 6.238381862640380859e-01 2.352519273757934570e+00
4.663000000000000000e+03 6.157474136352539062e+01 -8.545385360717773438e+00 -6.952966004610061646e-02 1.077058196067810059e+00 3.022585809230804443e-01 1.748761653900146484e+00
4.664000000000000000e+03 6.579259490966796875e+01 -8.306351661682128906e+00 3.548823297023773193e-01 1.872120857238769531e+01 5.722826957702636719e+00 1.620848059654235840e+00
4.665000000000000000e+03 6.567200469970703125e+01 -7.976080894470214844e+00 8.232725262641906738e-01 2.013546562194824219e+01 6.287621498107910156e+00 1.775446295738220215e+00
4.666000000000000000e+03 6.689978027343750000e+01 -7.554313182830810547e+00 5.520393848419189453e+00 1.686373710632324219e+01 6.715239524841308594e+00 -2.448582887649536133e+00
4.667000000000000000e+03 6.678863525390625000e+01 -6.675914764404296875e+00 9.844603538513183594e+00 1.646184730529785156e+01 7.891934871673583984e+00 -1.256679892539978027e+00
4.668000000000000000e+03 6.716239166259765625e+01 -6.921288967132568359e+00 7.988980293273925781e+00 1.525711917877197266e+01 6.973829746246337891e+00 -1.580443263053894043e+00
4.669000000000000000e+03 6.719223785400390625e+01 -6.650356292724609375e+00 8.490511894226074219e+00 1.490072345733642578e+01 7.017370700836181641e+00 -8.324199914932250977e-01
4.670000000000000000e+03 6.720862579345703125e+01 -6.369409084320068359e+00 8.693875312805175781e+00 1.475950431823730469e+01 7.036013603210449219e+00 4.174195975065231323e-02
4.671000000000000000e+03 1.298413276672363281e+00 2.751180410385131836e+00 3.588137042243033648e-05 -1.261218858417123556e-04 -2.707215389818884432e-05 5.954912012384738773e-06
4.672000000000000000e+03 2.509606838226318359e+00 2.739471673965454102e+00 -4.201478732284158468e-04 -1.950144796865060925e-04 -1.845486985985189676e-04 6.181804201332852244e-05
4.673000000000000000e+03 6.636355590820312500e+01 -8.321817398071289062e+00 1.400286078453063965e+00 1.803285217285156250e+01 5.829941749572753906e+00 -5.169466137886047363e-01
4.674000000000000000e+03 6.648400878906250000e+01 -8.638599395751953125e+00 7.698546648025512695e-01 1.684633636474609375e+01 5.284857273101806641e+00 -2.977430522441864014e-01
4.675000000000000000e+03 6.675952911376953125e+01 -8.032436370849609375e+00 3.036242246627807617e+00 1.743438148498535156e+01 6.141186714172363281e+00 -1.958657503128051758e+00
4.676000000000000000e+03 6.716071319580078125e+01 -7.831158161163330078e+00 4.223287582397460938e+00 1.570783996582031250e+01 5.979338169097900391e+00 -2.143303394317626953e+00
4.677000000000000000e+03 6.756037902832031250e+01 -6.930769443511962891e+00 7.045175552368164062e+00 1.393472003936767578e+01 6.293968677520751953e+00 -1.258394598960876465e+00
4.678000000000000000e+03 6.763903808593750000e+01 -5.941139698028564453e+00 7.021076679229736328e+00 1.371904277801513672e+01 6.222035884857177734e+00 1.047382712364196777e+00
4.679000000000000000e+03 6.365856552124023438e+01 -8.597256660461425781e+00 1.647579908370971680e+00 5.935777187347412109e+00 2.275007009506225586e+00 5.127750873565673828e+00
4.680000000000000000e+03 6.216349792480468750e+01 -3.917238712310791016e+00 5.514190793037414551e-01 1.894836544990539551e+00 7.338767051696777344e-01 -2.701228857040405273e+00
4.681000000000000000e+03 1.012883949279785156e+01 -2.134671020507812500e+01 -1.442821174860000610e-01 -3.341789841651916504e-01 -1.435383260250091553e-01 -2.840371131896972656e-01
4.682000000000000000e+03 6.250419235229492188e+01 -8.682502746582031250e+00 9.857214689254760742e-01 2.369343280792236328e+00 1.006519436836242676e+00 3.095299243927001953e+00
4.683000000000000000e+03 6.714931488037109375e+01 -5.137774467468261719e+00 5.071366310119628906e+00 1.588490295410156250e+01 6.286880493164062500e+00 2.315659284591674805e+00
4.684000000000000000e+03 6.697534942626953125e+01 -4.933279991149902344e+00 4.057774066925048828e+00 1.656180953979492188e+01 6.185875415802001953e+00 2.189109563827514648e+00
4.685000000000000000e+03 6.281788635253906250e+01 -3.918090105056762695e+00 1.100158214569091797e+00 3.335001468658447266e+00 1.330547928810119629e+00 -3.769351005554199219e+00
4.686000000000000000e+03 6.333377075195312500e+01 -4.504852771759033203e+00 1.744756460189819336e+00 3.720836639404296875e+00 1.639677882194519043e+00 -4.304167270660400391e+00
4.687000000000000000e+03 6.654586029052734375e+01 -4.977565765380859375e+00 3.638951539993286133e+00 1.822569465637207031e+01 6.559393882751464844e+00 1.948291301727294922e+00
4.688000000000000000e+03 6.554244995117187500e+01 -4.183894157409667969e+00 -1.927909106016159058e-01 1.688825035095214844e+01 5.008637905120849609e+00 -2.992828845977783203e+00
4.689000000000000000e+03 6.592896270751953125e+01 -4.091822147369384766e+00 -7.712971419095993042e-02 1.696418571472167969e+01 5.066116333007812500e+00 -1.508057475090026855e+00
4.690000000000000000e+03 6.518524932861328125e+01 -4.072391033172607422e+00 -1.988620012998580933e-01 1.508781623840332031e+01 4.466686248779296875e+00 -4.356723785400390625e+00
4.691000000000000000e+03 6.469120025634765625e+01 -4.270250797271728516e+00 6.134286522865295410e-01 1.259069252014160156e+01 3.961236476898193359e+00 -5.834084987640380859e+00
4.692000000000000000e+03 6.372388076782226562e+01 -4.028745651245117188e+00 1.383447051048278809e+00 6.377128124237060547e+00 2.328172445297241211e+00 -5.181544303894042969e+00
4.693000000000000000e+03 6.336006927490234375e+01 -4.270698070526123047e+00 1.706023216247558594e+00 4.386933803558349609e+00 1.827887058258056641e+00 -4.618550300598144531e+00
4.694000000000000000e+03 6.265018844604492188e+01 -8.231244087219238281e+00 9.682440757751464844e-01 1.834151625633239746e+00 8.407186865806579590e-01 2.723391532897949219e+00
4.695000000000000000e+03 6.630271911621093750e+01 -9.015863418579101562e+00 -8.417777717113494873e-02 1.591195583343505859e+01 4.748333454132080078e+00 6.888922452926635742e-01
4.696000000000000000e+03 6.668097686767578125e+01 -8.470667839050292969e+00 1.511490702629089355e+00 1.682821273803710938e+01 5.501911163330078125e+00 -1.048017501831054688e+00
4.697000000000000000e+03 6.751430511474609375e+01 -7.460085391998291016e+00 5.728623867034912109e+00 1.452935981750488281e+01 6.077394962310791016e+00 -2.027290344238281250e+00
4.698000000000000000e+03 1.814641380310058594e+01 -1.376443195343017578e+01 -3.857041895389556885e-01 -1.387931704521179199e-01 -1.573492139577865601e-01 -3.288601338863372803e-01
4.699000000000000000e+03 7.606265258789062500e+01 3.406263732910156250e+01 6.336466409265995026e-03 7.398577213287353516e+00 2.221474170684814453e+00 -8.870869874954223633e-02
4.700000000000000000e+03 2.422572612762451172e+00 3.694691467285156250e+01 2.401003055274486542e-02 -8.425533771514892578e-01 -2.455630004405975342e-01 6.478022038936614990e-02
4.701000000000000000e+03 4.880861282348632812e+00 -1.218390655517578125e+01 3.006434766575694084e-03 -2.592598786577582359e-03 1.241508434759452939e-04 -1.414785394445061684e-03
4.702000000000000000e+03 4.285091400146484375e+00 -1.307659435272216797e+01 5.052167456597089767e-03 -5.595111753791570663e-03 -1.628833706490695477e-04 -1.331010251305997372e-03
4.703000000000000000e+03 6.577904510498046875e+01 -9.274705886840820312e+00 -5.889334678649902344e-01 1.504322624206542969e+01 4.336287975311279297e+00 2.325257778167724609e+00
4.704000000000000000e+03 6.692582702636718750e+01 -7.935659885406494141e+00 3.579799890518188477e+00 1.661512565612792969e+01 6.058477878570556641e+00 -2.062803745269775391e+00
4.705000000000000000e+03 6.694167327880859375e+01 -8.164388656616210938e+00 2.842134475708007812e+00 1.640792846679687500e+01 5.775019168853759766e+00 -1.831362009048461914e+00
4.706000000000000000e+03 6.408604431152343750e+01 -8.727285385131835938e+00 1.236559987068176270e+00 8.481351852416992188e+00 2.915373563766479492e+00 5.688611030578613281e+00
4.707000000000000000e+03 6.488987731933593750e+01 -9.030176162719726562e+00 -8.213695883750915527e-02 1.274552917480468750e+01 3.799017429351806641e+00 4.742724418640136719e+00
4.708000000000000000e+03 6.020886898040771484e+00 -3.368132591247558594e+00 -9.288843284593895078e-05 -1.395712024532258511e-04 -6.973788549657911062e-05 -2.868460724130272865e-04
4.709000000000000000e+03 6.693090057373046875e+01 -4.664812564849853516e+00 3.016432046890258789e+00 1.661913108825683594e+01 5.890668869018554688e+00 1.864756226539611816e+00
4.710000000000000000e+03 6.588289642333984375e+01 -3.604094743728637695e+00 -5.406047701835632324e-01 1.538977813720703125e+01 4.454751968383789062e+00 -1.941174745559692383e+00
4.711000000000000000e+03 6.550799560546875000e+01 -3.694498538970947266e+00 -5.974989533424377441e-01 1.503982067108154297e+01 4.332696437835693359e+00 -3.138889789581298828e+00
4.712000000000000000e+03 6.485923767089843750e+01 -4.224156379699707031e+00 3.697783052921295166e-01 1.357316875457763672e+01 4.182884216308593750e+00 -5.428685188293457031e+00
4.713000000000000000e+03 6.453746795654296875e+01 -4.117285251617431641e+00 7.250254154205322266e-01 1.142655086517333984e+01 3.645472764968872070e+00 -5.748501300811767578e+00
4.714000000000000000e+03 6.434170532226562500e+01 -4.340869903564453125e+00 1.301789999008178711e+00 9.940927505493164062e+00 3.372815370559692383e+00 -6.168385505676269531e+00
4.715000000000000000e+03 6.698786163330078125e+01 -9.050153732299804688e+00 6.982727050781250000e-01 1.525584316253662109e+01 4.786234855651855469e+00 -7.150473594665527344e-01
4.716000000000000000e+03 6.703524017333984375e+01 -9.454303741455078125e+00 8.300593495368957520e-02 1.457074356079101562e+01 4.396124839782714844e+00 -3.356971442699432373e-01
4.717000000000000000e+03 3.343152999877929688e+00 4.627516269683837891e+00 2.088152541546151042e-04 1.143350309575907886e-04 9.694508480606600642e-05 1.274413807550445199e-04
4.718000000000000000e+03 3.281651306152343750e+01 -3.049281120300292969e+01 5.060489773750305176e-01 -8.202693425118923187e-03 1.493538916110992432e-01 -2.994395494461059570e-01
4.719000000000000000e+03 6.324520492553710938e+01 -9.242279052734375000e+00 1.142137885093688965e+00 5.073169708251953125e+00 1.864592194557189941e+00 4.432312011718750000e+00
4.720000000000000000e+03 6.811559295654296875e+01 -4.913990974426269531e+00 4.169726371765136719e+00 1.325609016418457031e+01 5.227745056152343750e+00 1.888017296791076660e+00
4.721000000000000000e+03 6.376428604125976562e+01 -3.660434246063232422e+00 9.566113352775573730e-01 7.028098106384277344e+00 2.395412921905517578e+00 -5.070781230926513672e+00
4.722000000000000000e+03 1.772536849975585938e+01 -3.001673507690429688e+01 1.836144030094146729e-01 -3.317956924438476562e-01 -4.445438832044601440e-02 -2.721516788005828857e-01
4.723000000000000000e+03 4.204463005065917969e+00 -2.268246650695800781e+01 -4.203531146049499512e-02 -1.467019617557525635e-01 -5.662118270993232727e-02 -1.372417807579040527e-01
4.724000000000000000e+03 1.490878295898437500e+01 -2.408471298217773438e+01 -2.117621339857578278e-02 -3.401965796947479248e-01 -1.084118410944938660e-01 -2.969317436218261719e-01
4.725000000000000000e+03 6.349920272827148438e+01 -9.574057579040527344e+00 7.387230992317199707e-01 6.459191322326660156e+00 2.159374237060546875e+00 4.607472419738769531e+00
4.726000000000000000e+03 6.417387390136718750e+01 -9.032779693603515625e+00 7.860264182090759277e-01 9.080539703369140625e+00 2.959969758987426758e+00 5.398599147796630859e+00
4.727000000000000000e+03 6.386289978027343750e+01 -8.758783340454101562e+00 1.412541270256042480e+00 7.064812660217285156e+00 2.543206214904785156e+00 5.390055656433105469e+00
4.728000000000000000e+03 6.300460815429687500e+01 -9.402572631835937500e+00 1.006362676620483398e+00 4.614820480346679688e+00 1.686354994773864746e+00 4.172945976257324219e+00
4.729000000000000000e+03 6.461763763427734375e+01 -3.871865510940551758e+00 3.169935941696166992e-01 1.161820220947265625e+01 3.580558776855468750e+00 -5.289413452148437500e+00
4.730000000000000000e+03 3.164137840270996094e+00 1.872659492492675781e+01 -3.278005123138427734e-02 -4.138368368148803711e-02 -2.224912121891975403e-02 1.272706780582666397e-02
4.731000000000000000e+03 6.199455261230468750e+01 -3.108271837234497070e+00 5.641328692436218262e-01 2.730322360992431641e+00 9.883365631103515625e-01 -2.980794191360473633e+00
4.732000000000000000e+03 6.246652603149414062e+01 -3.274381875991821289e+00 7.975889444351196289e-01 3.444607973098754883e+00 1.272659063339233398e+00 -3.535544872283935547e+00
4.733000000000000000e+03 2.245166778564453125e+01 -2.048550367355346680e+00 -1.325770765542984009e-01 -1.492441147565841675e-01 -8.454635739326477051e-02 2.093385905027389526e-01
4.734000000000000000e+03 6.244512557983398438e+01 -1.010871028900146484e+01 6.622831225395202637e-01 3.986543178558349609e+00 1.394647955894470215e+00 3.556083679199218750e+00
4.735000000000000000e+03 5.069987297058105469e+00 -5.032462596893310547e+00 2.404506813036277890e-04 -4.736343107651919127e-04 -6.995509465923532844e-05 -3.107740776613354683e-04
4.736000000000000000e+03 6.715084075927734375e+01 -9.833714485168457031e+00 -1.937731802463531494e-01 1.394786548614501953e+01 4.126227855682373047e+00 -1.778009980916976929e-01
4.737000000000000000e+03 6.748565673828125000e+01 -9.770795822143554688e+00 1.338007301092147827e-01 1.375230503082275391e+01 4.165831565856933594e+00 -6.596134305000305176e-01
4.738000000000000000e+03 6.781200408935546875e+01 -9.671008110046386719e+00 5.620406270027160645e-01 1.344590568542480469e+01 4.202383995056152344e+00 -1.078371286392211914e+00
4.739000000000000000e+03 6.855199432373046875e+01 -8.289044380187988281e+00 3.172863960266113281e+00 1.264476585388183594e+01 4.745288848876953125e+00 -1.806202888488769531e+00
4.740000000000000000e+03 6.537225341796875000e+01 -3.265357971191406250e+00 -7.522674202919006348e-01 1.352743339538574219e+01 3.832549810409545898e+00 -3.345760345458984375e+00
4.741000000000000000e+03 6.507658386230468750e+01 -2.918598890304565430e+00 -6.959788203239440918e-01 1.201419734954833984e+01 3.395465612411499023e+00 -3.742458343505859375e+00
4.742000000000000000e+03 4.736022472381591797e+00 -2.479428291320800781e+01 -1.982920989394187927e-02 -2.238487750291824341e-01 -7.310339808464050293e-02 -1.753988415002822876e-01
4.743000000000000000e+03 6.478203582763671875e+01 -9.297718048095703125e+00 -1.595655679702758789e-01 1.192358684539794922e+01 3.529206514358520508e+00 4.648063182830810547e+00
4.744000000000000000e+03 6.478368377685546875e+01 -9.679876327514648438e+00 -3.311432003974914551e-01 1.131847095489501953e+01 3.296198368072509766e+00 4.245174407958984375e+00
4.745000000000000000e+03 7.308872222900390625e+01 2.896159934997558594e+01 5.585830286145210266e-02 6.996137142181396484e+00 2.115598678588867188e+00 -2.400707453489303589e-01
4.746000000000000000e+03 6.415492248535156250e+01 -9.646116256713867188e+00 2.657445967197418213e-01 8.900163650512695312e+00 2.749772548675537109e+00 4.808712959289550781e+00
4.747000000000000000e+03 2.011453056335449219e+01 -1.267827796936035156e+01 -4.117456674575805664e-01 -5.438065156340599060e-02 -1.398379057645797729e-01 -3.362731933593750000e-01
4.748000000000000000e+03 6.066373825073242188e+01 -2.399623155593872070e+00 1.085123643279075623e-01 1.850707292556762695e+00 5.877659320831298828e-01 -2.136163473129272461e+00
4.749000000000000000e+03 6.026576614379882812e+01 -2.220702409744262695e+00 -2.516477368772029877e-02 1.623200297355651855e+00 4.794106483459472656e-01 -1.898499965667724609e+00
4.750000000000000000e+03 1.682152938842773438e+01 -2.733864212036132812e+01 1.034146472811698914e-01 -3.316776156425476074e-01 -6.847889721393585205e-02 -2.961814105510711670e-01
4.751000000000000000e+03 7.224642944335937500e+01 -3.010466194152832031e+01 -8.310699462890625000e-02 7.418132781982421875e+00 2.200507640838623047e+00 1.381639987230300903e-01
4.752000000000000000e+03 2.432369422912597656e+01 5.852470397949218750e+00 -3.741763234138488770e-01 -4.280764162540435791e-01 -2.406758219003677368e-01 6.910356283187866211e-01
4.753000000000000000e+03 6.602471160888671875e+01 -9.891690254211425781e+00 -8.643438220024108887e-01 1.394538116455078125e+01 3.924311161041259766e+00 1.818001747131347656e+00
4.754000000000000000e+03 6.229000473022460938e+01 -3.623454093933105469e+00 7.526971101760864258e-01 2.675991535186767578e+00 1.028606653213500977e+00 -3.175608634948730469e+00
4.755000000000000000e+03 4.324977397918701172e+00 3.004046058654785156e+01 3.758388012647628784e-02 -5.753191709518432617e-01 -1.613205820322036743e-01 2.460982501506805420e-01
4.756000000000000000e+03 6.472176361083984375e+01 -1.029967689514160156e+01 -5.716812610626220703e-01 1.042463397979736328e+01 2.955885648727416992e+00 3.864007949829101562e+00
4.757000000000000000e+03 6.468262481689453125e+01 -1.003960418701171875e+01 -4.276843667030334473e-01 1.057607746124267578e+01 3.044517993927001953e+00 3.999639749526977539e+00
4.758000000000000000e+03 6.463005065917968750e+01 -1.055298614501953125e+01 -5.777397155761718750e-01 9.950358390808105469e+00 2.811785459518432617e+00 3.795799255371093750e+00
4.759000000000000000e+03 6.381140136718750000e+01 -3.087199449539184570e+00 3.865337669849395752e-01 7.597095489501953125e+00 2.395088672637939453e+00 -4.720459461212158203e+00
4.760000000000000000e+03 6.425527191162109375e+01 -3.250949859619140625e+00 1.597493588924407959e-01 9.300354957580566406e+00 2.838031291961669922e+00 -4.858910083770751953e+00
4.761000000000000000e+03 6.309130096435546875e+01 -3.072738647460937500e+00 7.322105765342712402e-01 5.182191848754882812e+00 1.774320721626281738e+00 -4.244716644287109375e+00
4.762000000000000000e+03 6.345669174194335938e+01 -2.807340145111083984e+00 3.938904404640197754e-01 6.542892456054687500e+00 2.081034898757934570e+00 -4.366465091705322266e+00
4.763000000000000000e+03 6.289263534545898438e+01 -2.793348312377929688e+00 6.768265962600708008e-01 4.828333854675292969e+00 1.651548147201538086e+00 -4.037466049194335938e+00
4.764000000000000000e+03 6.294039154052734375e+01 -3.458971023559570312e+00 9.710492491722106934e-01 4.295354843139648438e+00 1.579921245574951172e+00 -4.080389499664306641e+00
4.765000000000000000e+03 6.463127136230468750e+01 -3.344611644744873047e+00 -1.917709857225418091e-01 1.094666290283203125e+01 3.226467370986938477e+00 -4.596520423889160156e+00
4.766000000000000000e+03 6.444002532958984375e+01 -3.492351293563842773e+00 1.957097500562667847e-01 1.016901969909667969e+01 3.109418869018554688e+00 -5.052040576934814453e+00
4.767000000000000000e+03 6.510831451416015625e+01 -3.242447137832641602e+00 -6.150427460670471191e-01 1.257592296600341797e+01 3.588264226913452148e+00 -3.908456563949584961e+00
4.768000000000000000e+03 6.599243164062500000e+01 -2.882179975509643555e+00 -9.070089459419250488e-01 1.370948123931884766e+01 3.840741634368896484e+00 -1.887419223785400391e+00
4.769000000000000000e+03 6.580799102783203125e+01 -3.123603820800781250e+00 -8.443605303764343262e-01 1.402322959899902344e+01 3.953660488128662109e+00 -2.303602218627929688e+00
4.770000000000000000e+03 5.325524806976318359e+00 2.956988716125488281e+01 4.858065769076347351e-02 -5.749518275260925293e-01 -1.579113602638244629e-01 2.984987199306488037e-01
4.771000000000000000e+03 6.532842254638671875e+01 -2.511762619018554688e+00 -9.306542277336120605e-01 1.189162540435791016e+01 3.288291454315185547e+00 -3.111498594284057617e+00
4.772000000000000000e+03 6.890333557128906250e+01 -6.908815860748291016e+00 5.009263992309570312e+00 1.145612525939941406e+01 4.939616680145263672e+00 -6.279206275939941406e-01
4.773000000000000000e+03 6.652349090576171875e+01 -1.002036285400390625e+01 -7.160400748252868652e-01 1.379702949523925781e+01 3.924296855926513672e+00 9.104431867599487305e-01
4.774000000000000000e+03 6.943946838378906250e+01 -7.520396709442138672e+00 3.948722362518310547e+00 1.105073642730712891e+01 4.499837875366210938e+00 -1.153956413269042969e+00
4.775000000000000000e+03 5.847750473022460938e+01 -2.454500389099121094e+01 2.311718612909317017e-01 3.640880823135375977e+00 1.161615729331970215e+00 9.580296277999877930e-01
4.776000000000000000e+03 2.436458015441894531e+01 1.793424248695373535e+00 -2.779415547847747803e-01 -2.896796464920043945e-01 -1.702863574028015137e-01 5.212771296501159668e-01
4.777000000000000000e+03 6.486315917968750000e+01 -3.278025627136230469e+00 -3.977315425872802734e-01 1.172917556762695312e+01 3.399433135986328125e+00 -4.327645301818847656e+00
4.778000000000000000e+03 6.444245147705078125e+01 -1.005893325805664062e+01 -2.530327141284942627e-01 9.704186439514160156e+00 2.835346221923828125e+00 4.281416416168212891e+00
4.779000000000000000e+03 6.491553497314453125e+01 -1.068138122558593750e+01 -7.961426973342895508e-01 1.057416248321533203e+01 2.933405876159667969e+00 3.446623802185058594e+00
4.780000000000000000e+03 6.436634063720703125e+01 -1.080367946624755859e+01 -4.861713945865631104e-01 9.076188087463378906e+00 2.577005147933959961e+00 3.802450180053710938e+00
4.781000000000000000e+03 6.875213623046875000e+01 -4.667572498321533203e+00 3.624732255935668945e+00 1.225543785095214844e+01 4.764050960540771484e+00 1.729417324066162109e+00
4.782000000000000000e+03 6.875439453125000000e+01 -4.432520389556884766e+00 2.984425783157348633e+00 1.231012630462646484e+01 4.588365554809570312e+00 1.734131217002868652e+00
4.783000000000000000e+03 6.580258941650390625e+01 -2.701865434646606445e+00 -9.990495443344116211e-01 1.326476001739501953e+01 3.679713249206542969e+00 -2.276271104812622070e+00
4.784000000000000000e+03 6.920197296142578125e+01 -8.077221870422363281e+00 3.441179275512695312e+00 1.152213859558105469e+01 4.488995075225830078e+00 -1.575761556625366211e+00
4.785000000000000000e+03 6.672274017333984375e+01 -1.041623592376708984e+01 -8.455128073692321777e-01 1.316286849975585938e+01 3.695206880569458008e+00 7.793177962303161621e-01
4.786000000000000000e+03 6.399188613891601562e+01 -2.596625089645385742e+00 -1.110431458801031113e-02 8.202950477600097656e+00 2.457553863525390625e+00 -4.422944545745849609e+00
4.787000000000000000e+03 6.440924835205078125e+01 -2.789863824844360352e+00 -2.540456950664520264e-01 9.660086631774902344e+00 2.821812391281127930e+00 -4.387782096862792969e+00
4.788000000000000000e+03 5.041282653808593750e+00 7.481156826019287109e+00 2.610366209410130978e-04 -7.262425497174263000e-04 -1.395617728121578693e-04 1.294746616622433066e-04
4.789000000000000000e+03 6.255393028259277344e+00 2.496519470214843750e+01 -7.274089753627777100e-02 -4.097959101200103760e-01 -1.447610408067703247e-01 3.649959266185760498e-01
4.790000000000000000e+03 7.279277801513671875e+01 -2.738623046875000000e+01 -1.839197427034378052e-01 7.609953403472900391e+00 2.227810144424438477e+00 7.756824046373367310e-02
4.791000000000000000e+03 6.873348999023437500e+01 -8.515540122985839844e+00 2.674406766891479492e+00 1.228635883331298828e+01 4.488229751586914062e+00 -1.757737040519714355e+00
4.792000000000000000e+03 6.866901397705078125e+01 -8.903075218200683594e+00 2.087342262268066406e+00 1.250328445434570312e+01 4.377188205718994141e+00 -1.722968339920043945e+00
4.793000000000000000e+03 7.486289978027343750e+01 -2.578171539306640625e+01 -1.674293428659439087e-01 8.037851333618164062e+00 2.361126422882080078e+00 -7.298045605421066284e-02
4.794000000000000000e+03 6.297988510131835938e+01 -1.884461998939514160e+00 1.501981168985366821e-01 5.695106506347656250e+00 1.753591418266296387e+00 -3.816011428833007812e+00
4.795000000000000000e+03 6.296469116210937500e+01 -1.033860683441162109e+01 4.723999202251434326e-01 5.333550930023193359e+00 1.741785287857055664e+00 3.937301397323608398e+00
4.796000000000000000e+03 6.683961486816406250e+01 -2.881048917770385742e+00 -5.108817815780639648e-01 1.391121673583984375e+01 4.020100593566894531e+00 -3.018439114093780518e-01
4.797000000000000000e+03 6.644249725341796875e+01 -3.158734798431396484e+00 -5.731779932975769043e-01 1.458003139495849609e+01 4.202055931091308594e+00 -8.788550496101379395e-01
4.798000000000000000e+03 6.613298034667968750e+01 -2.647217988967895508e+00 -9.569867253303527832e-01 1.346911716461181641e+01 3.753639221191406250e+00 -1.690564274787902832e+00
4.799000000000000000e+03 6.482429504394531250e+01 -1.155528640747070312e+01 -8.661738038063049316e-01 9.494221687316894531e+00 2.588414430618286133e+00 3.081939697265625000e+00
4.800000000000000000e+03 6.567409515380859375e+01 -1.147544002532958984e+01 -1.145459651947021484e+00 1.092215633392333984e+01 2.933009147644042969e+00 2.260731458663940430e+00
4.801000000000000000e+03 6.894081878662109375e+01 -4.523733139038085938e+00 3.262083053588867188e+00 1.191868305206298828e+01 4.554229736328125000e+00 1.710211515426635742e+00
4.802000000000000000e+03 6.588309478759765625e+01 -2.039676666259765625e+00 -1.157947063446044922e+00 1.215834426879882812e+01 3.300119161605834961e+00 -2.153506040573120117e+00
4.803000000000000000e+03 6.970565032958984375e+01 -8.004454612731933594e+00 3.222034692764282227e+00 1.085583114624023438e+01 4.223359584808349609e+00 -1.363743424415588379e+00
4.804000000000000000e+03 1.711810302734375000e+01 -1.814935874938964844e+01 -3.094806373119354248e-01 -2.208326160907745361e-01 -1.590939760208129883e-01 -3.221444189548492432e-01
4.805000000000000000e+03 1.806278228759765625e+01 -1.779805755615234375e+01 -3.293120861053466797e-01 -1.880603581666946411e-01 -1.552117317914962769e-01 -3.285012841224670410e-01
4.806000000000000000e+03 6.448220825195312500e+01 -1.034308910369873047e+01 -4.175547063350677490e-01 9.614510536193847656e+00 2.759086608886718750e+00 4.041803359985351562e+00
4.807000000000000000e+03 6.301406860351562500e+01 -1.075504970550537109e+01 2.576576471328735352e-01 5.724539279937744141e+00 1.794659018516540527e+00 3.824828624725341797e+00
4.808000000000000000e+03 1.921375274658203125e+01 2.326256561279296875e+01 2.956630289554595947e-02 -8.189098834991455078e-01 -2.368030697107315063e-01 3.360646069049835205e-01
4.809000000000000000e+03 6.064111328125000000e+01 2.952143847942352295e-01 5.814163759350776672e-02 3.338491439819335938e+00 1.018989920616149902e+00 -2.439011096954345703e+00
4.810000000000000000e+03 7.199066162109375000e+01 -2.721590232849121094e+01 -2.124588936567306519e-01 7.449828147888183594e+00 2.171210765838623047e+00 9.132871031761169434e-02
4.811000000000000000e+03 6.732398223876953125e+01 -3.252585172653198242e+00 2.737486064434051514e-01 1.410779285430908203e+01 4.314462661743164062e+00 6.681573987007141113e-01
4.812000000000000000e+03 6.911818695068359375e+01 -4.684396266937255859e+00 3.492393255233764648e+00 1.162549400329589844e+01 4.535366058349609375e+00 1.635890603065490723e+00
4.813000000000000000e+03 5.520289993286132812e+01 1.940099334716796875e+01 3.501461148262023926e-01 3.112964868545532227e+00 1.038933277130126953e+00 -5.646008849143981934e-01
4.814000000000000000e+03 2.166713142395019531e+01 2.000953292846679688e+01 -1.937981843948364258e-01 -7.165420651435852051e-01 -2.731020748615264893e-01 3.609149456024169922e-01
4.815000000000000000e+03 1.854574584960937500e+01 -1.893362236022949219e+01 -2.659454047679901123e-01 -1.945534199476242065e-01 -1.381496489048004150e-01 -3.397808670997619629e-01
4.816000000000000000e+03 6.261005783081054688e+01 -1.077656459808349609e+01 3.678192198276519775e-01 4.848935127258300781e+00 1.565026283264160156e+00 3.595797538757324219e+00
4.817000000000000000e+03 6.301037216186523438e+01 -1.120592784881591797e+01 8.639838546514511108e-02 5.959851741790771484e+00 1.813875079154968262e+00 3.664541959762573242e+00
4.818000000000000000e+03 6.258770370483398438e+01 -1.044143295288085938e+01 5.184130072593688965e-01 4.578908920288085938e+00 1.529196619987487793e+00 3.655763626098632812e+00
4.819000000000000000e+03 1.756069564819335938e+01 -2.048430633544921875e+01 -1.902816593647003174e-01 -2.403742372989654541e-01 -1.291967630386352539e-01 -3.257981538772583008e-01
4.820000000000000000e+03 6.933954620361328125e+01 -4.455600261688232422e+00 2.984715938568115234e+00 1.140776062011718750e+01 4.317742824554443359e+00 1.594744920730590820e+00
4.821000000000000000e+03 2.038409423828125000e+01 1.938690185546875000e+01 -2.613570690155029297e-01 -8.068435788154602051e-01 -3.204602003097534180e-01 3.862349987030029297e-01
4.822000000000000000e+03 6.651002502441406250e+01 -2.308782815933227539e+00 -9.706761837005615234e-01 1.302104473114013672e+01 3.615110635757446289e+00 -1.132749319076538086e+00
4.823000000000000000e+03 1.750550460815429688e+01 -1.919434928894042969e+01 -2.635391354560852051e-01 -2.165692448616027832e-01 -1.440325081348419189e-01 -3.266801834106445312e-01
4.824000000000000000e+03 6.887454223632812500e+01 -4.163860321044921875e+00 2.535434961318969727e+00 1.214060592651367188e+01 4.402812004089355469e+00 1.728932142257690430e+00
4.825000000000000000e+03 6.473697662353515625e+01 -1.190930652618408203e+01 -8.783743977546691895e-01 9.090065002441406250e+00 2.463507175445556641e+00 3.026842594146728516e+00
4.826000000000000000e+03 6.419322967529296875e+01 -1.920649170875549316e+00 -4.537818133831024170e-01 8.583533287048339844e+00 2.438925504684448242e+00 -3.902496337890625000e+00
4.827000000000000000e+03 6.391683197021484375e+01 -2.240688085556030273e+00 -1.365064382553100586e-01 7.915378570556640625e+00 2.333661556243896484e+00 -4.152353286743164062e+00
4.828000000000000000e+03 6.361330795288085938e+01 -2.223990201950073242e+00 4.174375161528587341e-02 7.209716796875000000e+00 2.175438165664672852e+00 -4.145542621612548828e+00
4.829000000000000000e+03 7.006425476074218750e+01 -8.296843528747558594e+00 2.760052680969238281e+00 1.054405021667480469e+01 3.991230726242065430e+00 -1.394724249839782715e+00
4.830000000000000000e+03 7.061623382568359375e+01 -6.780188083648681641e+00 3.375377893447875977e+00 9.807978630065917969e+00 3.955007076263427734e+00 -3.139818310737609863e-01
4.831000000000000000e+03 6.788880920410156250e+01 -1.094755840301513672e+01 -5.763640999794006348e-01 1.225168800354003906e+01 3.502597332000732422e+00 -3.332635760307312012e-01
4.832000000000000000e+03 7.248942565917968750e+01 1.998708534240722656e+01 -5.537923052906990051e-02 7.154390335083007812e+00 2.129703283309936523e+00 -2.965865433216094971e-01
4.833000000000000000e+03 3.826121902465820312e+01 1.749579620361328125e+01 2.291333228349685669e-01 5.406095981597900391e-01 2.309228777885437012e-01 2.846227586269378662e-01
4.834000000000000000e+03 2.983978843688964844e+01 1.268684673309326172e+01 -2.774208784103393555e-01 -7.732652872800827026e-02 -1.064242199063301086e-01 6.132986545562744141e-01
4.835000000000000000e+03 2.703792381286621094e+01 1.306012392044067383e+00 -4.149507582187652588e-01 -1.670441925525665283e-01 -1.745984852313995361e-01 5.898912549018859863e-01
4.836000000000000000e+03 6.460883331298828125e+01 -1.838185071945190430e+00 -7.368270754814147949e-01 9.583577156066894531e+00 2.654024839401245117e+00 -3.566186904907226562e+00
4.837000000000000000e+03 6.934104919433593750e+01 -8.700723648071289062e+00 2.463278532028198242e+00 1.150600433349609375e+01 4.190784931182861328e+00 -1.698369860649108887e+00
4.838000000000000000e+03 6.974103546142578125e+01 -8.558584213256835938e+00 2.584837198257446289e+00 1.097960758209228516e+01 4.069333553314208984e+00 -1.581212878227233887e+00
4.839000000000000000e+03 6.406634521484375000e+01 -1.142854118347167969e+01 -4.790047407150268555e-01 8.147960662841796875e+00 2.300686836242675781e+00 3.560109853744506836e+00
4.840000000000000000e+03 7.076432037353515625e+01 -7.313519477844238281e+00 3.048531293869018555e+00 9.730706214904785156e+00 3.833771228790283203e+00 -7.268708348274230957e-01
4.841000000000000000e+03 6.943489837646484375e+01 -9.098993301391601562e+00 1.902847290039062500e+00 1.143376159667968750e+01 4.000982761383056641e+00 -1.677574396133422852e+00
4.842000000000000000e+03 6.939121246337890625e+01 -9.494465827941894531e+00 1.426249504089355469e+00 1.148211956024169922e+01 3.872510671615600586e+00 -1.619225502014160156e+00
4.843000000000000000e+03 6.608782958984375000e+01 -1.835068583488464355e+00 -1.194809198379516602e+00 1.205526828765869141e+01 3.258137702941894531e+00 -1.861803412437438965e+00
4.844000000000000000e+03 6.394120407104492188e+01 -1.546576976776123047e+00 -4.300715029239654541e-01 7.953848361968994141e+00 2.257133007049560547e+00 -3.689575433731079102e+00
4.845000000000000000e+03 6.359506225585937500e+01 -1.551052689552307129e+00 -2.244431674480438232e-01 7.045630455017089844e+00 2.046356201171875000e+00 -3.777656793594360352e+00
4.846000000000000000e+03 6.510379791259765625e+01 -1.229542851448059082e+00 -1.056540250778198242e+00 1.003649902343750000e+01 2.693987607955932617e+00 -2.898756742477416992e+00
4.847000000000000000e+03 6.625713348388671875e+01 -1.193166923522949219e+01 -1.238458037376403809e+00 1.102150821685791016e+01 2.934915065765380859e+00 1.560009121894836426e+00
4.848000000000000000e+03 3.204510879516601562e+01 1.337864303588867188e+01 -1.711238622665405273e-01 4.943485185503959656e-02 -3.650670498609542847e-02 5.718181729316711426e-01
4.849000000000000000e+03 6.774715423583984375e+01 -1.180878734588623047e+01 -1.019661307334899902e+00 1.156994247436523438e+01 3.165084123611450195e+00 1.727389097213745117e-01
4.850000000000000000e+03 6.799438476562500000e+01 -1.137042236328125000e+01 -7.249379158020019531e-01 1.184691715240478516e+01 3.336593866348266602e+00 -2.423456311225891113e-01
4.851000000000000000e+03 6.501433563232421875e+01 -1.251687622070312500e+01 -1.029543995857238770e+00 9.087239265441894531e+00 2.417308568954467773e+00 2.569417715072631836e+00
4.852000000000000000e+03 7.047817993164062500e+01 -9.696637153625488281e+00 1.357587695121765137e+00 1.043940448760986328e+01 3.539097785949707031e+00 -1.569494724273681641e+00
4.853000000000000000e+03 5.269794845581054688e+01 1.797836685180664062e+01 4.144257605075836182e-01 2.570594310760498047e+00 8.955060243606567383e-01 -5.004149675369262695e-01
4.854000000000000000e+03 6.271006011962890625e+01 -1.196429729461669922e+01 -3.460993990302085876e-02 5.532032012939453125e+00 1.649226546287536621e+00 3.279491424560546875e+00
4.855000000000000000e+03 6.301906585693359375e+01 -1.223465251922607422e+01 -1.758834123611450195e-01 6.022816181182861328e+00 1.754079818725585938e+00 3.260190963745117188e+00
4.856000000000000000e+03 6.912952423095703125e+01 1.492306232452392578e+01 -2.702019214630126953e-01 6.751268386840820312e+00 1.944319963455200195e+00 -4.535859525203704834e-01
4.857000000000000000e+03 7.024504852294921875e+01 -2.324098014831542969e+01 -5.266761779785156250e-01 7.531593799591064453e+00 2.101475238800048828e+00 1.512629538774490356e-01
4.858000000000000000e+03 6.703012084960937500e+01 -1.738781809806823730e+00 -9.960310459136962891e-01 1.234894275665283203e+01 3.405873537063598633e+00 -5.931862592697143555e-01
4.859000000000000000e+03 6.667680358886718750e+01 -2.030255794525146484e+00 -1.036672830581665039e+00 1.269197940826416016e+01 3.496592044830322266e+00 -9.842082262039184570e-01
4.860000000000000000e+03 3.006307792663574219e+01 -1.712159156799316406e+01 -3.833621442317962646e-01 -6.336686760187149048e-02 -1.340187042951583862e-01 -5.117694735527038574e-01
4.861000000000000000e+03 6.457334899902343750e+01 -1.242843627929687500e+01 -8.559718132019042969e-01 8.565526008605957031e+00 2.312866210937500000e+00 2.876909017562866211e+00
4.862000000000000000e+03 6.488520812988281250e+01 -1.311692047119140625e+01 -9.972749948501586914e-01 8.598326683044433594e+00 2.280315637588500977e+00 2.449115514755249023e+00
4.863000000000000000e+03 7.135818481445312500e+01 6.717001914978027344e+00 -7.838339209556579590e-01 8.181506156921386719e+00 2.219301700592041016e+00 1.616029143333435059e-01
4.864000000000000000e+03 7.269925689697265625e+01 7.369033694267272949e-01 -3.382727801799774170e-01 8.910773277282714844e+00 2.571750164031982422e+00 1.216982960700988770e+00
4.865000000000000000e+03 6.510868835449218750e+01 -5.850188732147216797e-01 -1.113917589187622070e+00 9.493209838867187500e+00 2.513787508010864258e+00 -2.658360719680786133e+00
4.866000000000000000e+03 7.099147033691406250e+01 -1.035155105590820312e+01 7.784610390663146973e-01 1.003360176086425781e+01 3.243618726730346680e+00 -1.516608715057373047e+00
4.867000000000000000e+03 6.356187820434570312e+01 -1.217083168029785156e+01 -4.017276763916015625e-01 7.050022125244140625e+00 1.994488358497619629e+00 3.303958415985107422e+00
4.868000000000000000e+03 7.228040313720703125e+01 -4.636982917785644531e+00 1.874593853950500488e+00 8.866104125976562500e+00 3.222209453582763672e+00 9.293922185897827148e-01
4.869000000000000000e+03 3.771236801147460938e+01 1.398851490020751953e+01 6.254915893077850342e-02 3.833015263080596924e-01 1.337552070617675781e-01 4.258489906787872314e-01
4.870000000000000000e+03 3.184822654724121094e+01 1.476869106292724609e+01 -1.253372132778167725e-01 5.584382638335227966e-02 -2.084801532328128815e-02 5.177699327468872070e-01
4.871000000000000000e+03 2.951565551757812500e+01 2.052280664443969727e+00 -5.113170146942138672e-01 -9.983363002538681030e-02 -1.833451837301254272e-01 6.661828160285949707e-01
4.872000000000000000e+03 6.649430084228515625e+01 -1.664558172225952148e+00 -1.179140329360961914e+00 1.208425426483154297e+01 3.271534204483032227e+00 -1.299967288970947266e+00
4.873000000000000000e+03 6.670532226562500000e+01 -1.356695055961608887e+00 -1.191224694252014160e+00 1.184108924865722656e+01 3.194959402084350586e+00 -1.109762907028198242e+00
4.874000000000000000e+03 6.644876861572265625e+01 -1.398186922073364258e+00 -1.232364892959594727e+00 1.184792900085449219e+01 3.184669256210327148e+00 -1.373058915138244629e+00
4.875000000000000000e+03 6.644505310058593750e+01 -1.254648780822753906e+01 -1.286459565162658691e+00 1.050876426696777344e+01 2.766691207885742188e+00 1.408330202102661133e+00
4.876000000000000000e+03 6.629413604736328125e+01 -1.289981269836425781e+01 -1.289747476577758789e+00 1.015250301361083984e+01 2.658826589584350586e+00 1.524956822395324707e+00
4.877000000000000000e+03 7.253402709960937500e+01 -8.034166336059570312e+00 1.868132472038269043e+00 8.747710227966308594e+00 3.184752702713012695e+00 -8.799360394477844238e-01
4.878000000000000000e+03 5.945790481567382812e+01 3.992974162101745605e-01 3.886184096336364746e-02 2.417678356170654297e+00 7.369620203971862793e-01 -1.967733144760131836e+00
4.879000000000000000e+03 3.382182693481445312e+01 -1.427838134765625000e+01 -6.854879856109619141e-01 -3.750431165099143982e-02 -2.168976962566375732e-01 -4.910895228385925293e-01
4.880000000000000000e+03 6.331004333496093750e+01 8.570082783699035645e-01 -5.959658622741699219e-01 6.493569850921630859e+00 1.769281268119812012e+00 -2.821534633636474609e+00
4.881000000000000000e+03 6.393534469604492188e+01 1.049441218376159668e+00 -7.936120033264160156e-01 7.177177906036376953e+00 1.915069818496704102e+00 -2.600570201873779297e+00
4.882000000000000000e+03 7.248606109619140625e+01 -2.200006484985351562e+01 -4.994587302207946777e-01 7.980590343475341797e+00 2.244339466094970703e+00 -1.875398606061935425e-01
4.883000000000000000e+03 7.336628723144531250e+01 -6.766892910003662109e+00 1.685986399650573730e+00 8.105510711669921875e+00 2.937449216842651367e+00 -1.541022658348083496e-01
4.884000000000000000e+03 3.058624076843261719e+01 1.025945305824279785e+00 -5.859172344207763672e-01 -5.672109499573707581e-02 -1.927915066480636597e-01 6.357440948486328125e-01
4.885000000000000000e+03 6.384967041015625000e+01 -1.240818405151367188e+01 -5.756930112838745117e-01 7.504393577575683594e+00 2.078610181808471680e+00 3.125277996063232422e+00
4.886000000000000000e+03 6.515400695800781250e+01 5.882740765810012817e-02 -1.152832865715026855e+00 9.118093490600585938e+00 2.389578104019165039e+00 -2.419430494308471680e+00
4.887000000000000000e+03 6.633306884765625000e+01 -5.178545713424682617e-01 -1.330363512039184570e+00 1.072046756744384766e+01 2.817031145095825195e+00 -1.554875731468200684e+00
4.888000000000000000e+03 7.221769714355468750e+01 2.083892971277236938e-01 -2.782128453254699707e-01 9.159337043762207031e+00 2.664337396621704102e+00 1.254471182823181152e+00
4.889000000000000000e+03 7.135667419433593750e+01 7.934157252311706543e-01 -5.856320261955261230e-01 9.479811668395996094e+00 2.668253898620605469e+00 1.038324952125549316e+00
4.890000000000000000e+03 7.290209197998046875e+01 -9.060812950134277344e+00 1.323089957237243652e+00 8.668751716613769531e+00 2.997552394866943359e+00 -1.170121669769287109e+00
4.891000000000000000e+03 3.558183670043945312e+01 8.623671531677246094e+00 -2.713330984115600586e-01 1.244344487786293030e-01 -4.406959936022758484e-02 6.585652232170104980e-01
4.892000000000000000e+03 6.310371017456054688e+01 -1.646223449707031250e+01 -5.515570640563964844e-01 6.004948139190673828e+00 1.636017322540283203e+00 2.011420726776123047e+00
4.893000000000000000e+03 7.233232116699218750e+01 -9.603610038757324219e+00 1.205330610275268555e+00 9.056764602661132812e+00 3.078628540039062500e+00 -1.331284761428833008e+00
4.894000000000000000e+03 6.599513244628906250e+01 -1.262971115112304688e+01 -1.273240804672241211e+00 1.014844703674316406e+01 2.662561893463134766e+00 1.799397110939025879e+00
4.895000000000000000e+03 2.908570480346679688e+01 -3.009017407894134521e-01 -5.374686717987060547e-01 -7.397883385419845581e-02 -1.834342628717422485e-01 5.465540885925292969e-01
4.896000000000000000e+03 5.816801452636718750e+01 4.949371516704559326e-01 -5.578575655817985535e-02 1.706438660621643066e+00 4.951958656311035156e-01 -1.495467543601989746e+00
4.897000000000000000e+03 7.211894989013671875e+01 -8.569177627563476562e+00 1.781481742858886719e+00 9.017374992370605469e+00 3.239657163619995117e+00 -1.122541189193725586e+00
4.898000000000000000e+03 7.262046051025390625e+01 -8.557418823242187500e+00 1.698250651359558105e+00 8.793741226196289062e+00 3.147597551345825195e+00 -1.039077877998352051e+00
4.899000000000000000e+03 3.942592620849609375e+01 -1.538749599456787109e+01 -6.427651047706604004e-01 2.744969911873340607e-03 -1.920060515403747559e-01 -4.733722209930419922e-01
4.900000000000000000e+03 7.162339782714843750e+01 -1.260105705261230469e+01 -2.226084321737289429e-01 9.521552085876464844e+00 2.789683103561401367e+00 -1.277358770370483398e+00
4.901000000000000000e+03 6.685900878906250000e+01 -4.411530792713165283e-01 -1.317768692970275879e+00 1.091890811920166016e+01 2.880342006683349609e+00 -1.077261567115783691e+00
4.902000000000000000e+03 6.839311218261718750e+01 -1.402159976959228516e+01 -1.174321532249450684e+00 9.983534812927246094e+00 2.642763853073120117e+00 9.522915631532669067e-02
4.903000000000000000e+03 3.402756500244140625e+01 5.175684928894042969e+00 -4.748748540878295898e-01 2.936774305999279022e-02 -1.336521357297897339e-01 7.256950139999389648e-01
4.904000000000000000e+03 7.184723663330078125e+01 -1.956413078308105469e+01 -6.847842335700988770e-01 8.249253273010253906e+00 2.269340753555297852e+00 -3.414869010448455811e-01
4.905000000000000000e+03 5.408175277709960938e+01 -1.532474231719970703e+01 -5.539201200008392334e-02 9.734378457069396973e-01 2.754137516021728516e-01 5.981828570365905762e-01
4.906000000000000000e+03 3.795655059814453125e+01 -1.443762874603271484e+01 -7.541499733924865723e-01 -1.765118725597858429e-02 -2.315403521060943604e-01 -4.833855926990509033e-01
4.907000000000000000e+03 6.610980987548828125e+01 -1.491891765594482422e+01 -1.194372415542602539e+00 8.690110206604003906e+00 2.248721361160278320e+00 1.423581361770629883e+00
4.908000000000000000e+03 6.643437957763671875e+01 -1.464612960815429688e+01 -1.257084250450134277e+00 9.092036247253417969e+00 2.350485563278198242e+00 1.257326364517211914e+00
4.909000000000000000e+03 6.973867034912109375e+01 2.220056533813476562e+00 -1.092264175415039062e+00 9.460752487182617188e+00 2.510546445846557617e+00 2.781225442886352539e-01
4.910000000000000000e+03 5.306099319458007812e+01 -1.533748149871826172e+01 -1.704744994640350342e-01 7.432718873023986816e-01 1.718392223119735718e-01 4.064073860645294189e-01
4.911000000000000000e+03 6.571796417236328125e+01 -1.495587730407714844e+01 -1.141922354698181152e+00 8.446825027465820312e+00 2.191470861434936523e+00 1.611199140548706055e+00
4.912000000000000000e+03 6.293326568603515625e+01 5.372395992279052734e+00 -5.698750019073486328e-01 5.680007457733154297e+00 1.533039689064025879e+00 -1.778305172920227051e+00
4.913000000000000000e+03 6.740669250488281250e+01 -1.107492223381996155e-01 -1.280910849571228027e+00 1.075142288208007812e+01 2.841153621673583984e+00 -6.472781300544738770e-01
4.914000000000000000e+03 6.264515304565429688e+01 4.652147769927978516e+00 -5.360211730003356934e-01 5.575662612915039062e+00 1.511892437934875488e+00 -1.974294185638427734e+00
4.915000000000000000e+03 5.992536163330078125e+01 6.582019805908203125e+00 -1.226669475436210632e-01 3.999834537506103516e+00 1.163150310516357422e+00 -1.576481103897094727e+00
4.916000000000000000e+03 6.549160766601562500e+01 1.666387319564819336e+00 -1.211514830589294434e+00 8.571247100830078125e+00 2.207919597625732422e+00 -1.835371494293212891e+00
4.917000000000000000e+03 4.020073699951171875e+01 6.026950836181640625e+00 -3.387394845485687256e-01 2.259493172168731689e-01 -3.383704647421836853e-02 5.760360956192016602e-01
4.918000000000000000e+03 4.135807037353515625e+01 7.513456821441650391e+00 -1.967586576938629150e-01 3.301466405391693115e-01 4.001639410853385925e-02 4.821217656135559082e-01
4.919000000000000000e+03 6.780313873291015625e+01 -4.332650601863861084e-01 -1.148429393768310547e+00 1.103008842468261719e+01 2.964497804641723633e+00 -2.638589739799499512e-01
4.920000000000000000e+03 6.943737030029296875e+01 -1.640753936767578125e+01 -1.083475232124328613e+00 8.949546813964843750e+00 2.359821319580078125e+00 -3.394736722111701965e-02
4.921000000000000000e+03 6.667945861816406250e+01 -1.490608978271484375e+01 -1.253893852233886719e+00 9.080921173095703125e+00 2.348108291625976562e+00 1.113035917282104492e+00
4.922000000000000000e+03 6.708713531494140625e+01 -1.508278560638427734e+01 -1.244841217994689941e+00 9.145607948303222656e+00 2.370230197906494141e+00 8.787111639976501465e-01
4.923000000000000000e+03 4.258523941040039062e+01 3.644050836563110352e+00 -5.703399181365966797e-01 1.936152577400207520e-01 -1.130174025893211365e-01 5.136212110519409180e-01
4.924000000000000000e+03 3.742529296875000000e+01 5.129773139953613281e+00 -4.660216867923736572e-01 1.126543655991554260e-01 -1.060101985931396484e-01 6.741557717323303223e-01
4.925000000000000000e+03 6.632762145996093750e+01 5.393570423126220703e+00 -1.031936407089233398e+00 7.585929393768310547e+00 1.966197848320007324e+00 -1.101378321647644043e+00
4.926000000000000000e+03 6.678207397460937500e+01 9.823935627937316895e-01 -1.369975209236145020e+00 9.791050910949707031e+00 2.526322841644287109e+00 -1.165451884269714355e+00
4.927000000000000000e+03 3.563156509399414062e+01 3.503115653991699219e+00 -5.879979133605957031e-01 4.281815141439437866e-02 -1.635539382696151733e-01 7.008991241455078125e-01
4.928000000000000000e+03 3.771310424804687500e+01 3.763451576232910156e+00 -5.801566839218139648e-01 8.714599162340164185e-02 -1.479032039642333984e-01 6.691750288009643555e-01
4.929000000000000000e+03 4.818907928466796875e+01 4.087380886077880859e+00 -3.385582864284515381e-01 4.644642174243927002e-01 3.777177631855010986e-02 1.233202591538429260e-01
4.930000000000000000e+03 5.268628692626953125e+01 3.027199268341064453e+00 -2.156288921833038330e-01 8.150722980499267578e-01 1.798330247402191162e-01 -3.899518251419067383e-01
4.931000000000000000e+03 5.443719482421875000e+01 4.766201972961425781e+00 4.718782007694244385e-02 1.497745037078857422e+00 4.634798467159271240e-01 -7.976223230361938477e-01
4.932000000000000000e+03 6.715206146240234375e+01 3.945078134536743164e+00 -1.215908527374267578e+00 8.426098823547363281e+00 2.163057327270507812e+00 -9.148132801055908203e-01
4.933000000000000000e+03 4.938430404663085938e+01 7.309986591339111328e+00 7.530198991298675537e-02 9.607602953910827637e-01 3.108186721801757812e-01 -1.549094319343566895e-01
4.934000000000000000e+03 6.820140838623046875e+01 3.341535806655883789e+00 -1.233735442161560059e+00 8.925993919372558594e+00 2.307677507400512695e+00 -4.529927074909210205e-01
4.935000000000000000e+03 3.708995819091796875e+01 2.478007316589355469e+00 -6.962330937385559082e-01 5.305400490760803223e-02 -1.929537355899810791e-01 6.683415770530700684e-01
4.936000000000000000e+03 6.654591369628906250e+01 1.911292433738708496e+00 -1.316060304641723633e+00 9.054112434387207031e+00 2.321415424346923828e+00 -1.309921383857727051e+00
4.937000000000000000e+03 3.631772232055664062e+01 2.913703203201293945e+00 -6.433718800544738770e-01 5.196015536785125732e-02 -1.774235218763351440e-01 6.875568032264709473e-01
4.938000000000000000e+03 4.601384353637695312e+01 6.681662559509277344e+00 -1.044619977474212646e-01 5.588797330856323242e-01 1.363253146409988403e-01 2.034906148910522461e-01
4.939000000000000000e+03 4.701363372802734375e+01 5.845909118652343750e+00 -1.465892046689987183e-01 5.613143444061279297e-01 1.244175434112548828e-01 1.518576443195343018e-01
4.940000000000000000e+03 5.034490585327148438e+01 3.783392429351806641e+00 -2.555702626705169678e-01 6.391162276268005371e-01 1.150637790560722351e-01 -1.052354276180267334e-01
4.941000000000000000e+03 4.642582702636718750e+01 4.147643089294433594e+00 -3.980736136436462402e-01 3.599558770656585693e-01 -1.143532246351242065e-02 2.757979929447174072e-01
4.942000000000000000e+03 4.570174026489257812e+01 5.441270351409912109e+00 -2.594523429870605469e-01 4.221803247928619385e-01 4.881839454174041748e-02 2.844807803630828857e-01
4.943000000000000000e+03 1.488040065765380859e+01 1.046121835708618164e+00 2.540630812291055918e-04 5.721335764974355698e-04 2.478589885868132114e-04 4.368016016087494791e-05
4.944000000000000000e+03 1.433596038818359375e+01 8.109902739524841309e-01 2.097138931276276708e-04 -1.436322345398366451e-04 1.982449430215638131e-05 3.970515681430697441e-04
4.945000000000000000e+03 1.339948463439941406e+01 9.943951964378356934e-01 2.903096610680222511e-04 2.984833145092125051e-06 8.798834460321813822e-05 -2.787105950119439512e-05
4.946000000000000000e+03 1.399857616424560547e+01 1.078236818313598633e+00 -3.668357967399060726e-04 -2.858797961380332708e-04 -1.958146749529987574e-04 -6.333908822853118181e-05
4.947000000000000000e+03 1.342517852783203125e+01 2.516243755817413330e-01 -5.580350625677965581e-05 1.922836236190050840e-05 -1.097254425985738635e-05 1.216343025589594617e-05
4.948000000000000000e+03 1.503903388977050781e+01 3.840551078319549561e-01 -5.247007720754481852e-05 -8.499615796608850360e-05 -4.123986946069635451e-05 -6.554554420290514827e-05
4.949000000000000000e+03 1.424006271362304688e+01 2.423980534076690674e-01 -5.875767783436458558e-06 6.186660903040319681e-05 1.679725392023101449e-05 1.913309824885800481e-05
4.950000000000000000e+03 1.447602939605712891e+01 1.142013788223266602e+00 3.432004014030098915e-04 -2.915372169809415936e-05 9.421400318387895823e-05 4.826267104363068938e-05
4.951000000000000000e+03 1.113503360748291016e+01 3.384475409984588623e-01 -5.993962258799001575e-05 -1.361180620733648539e-04 -5.881730612600222230e-05 3.701042805914767087e-05
4.952000000000000000e+03 1.115649890899658203e+01 1.078244447708129883e+00 -3.203199012205004692e-04 2.132014196831732988e-05 -8.969992632046341896e-05 -2.503530413378030062e-04
4.953000000000000000e+03 1.038435840606689453e+01 3.729175329208374023e-01 -2.367119159316644073e-04 8.855858322931453586e-05 -4.444599835551343858e-05 -1.057189292623661458e-04
4.954000000000000000e+03 1.188578510284423828e+01 3.038018345832824707e-01 -1.158671511802822351e-04 1.516282936790958047e-04 1.072834220394724980e-05 -6.562640191987156868e-05
4.955000000000000000e+03 1.263660717010498047e+01 2.689834535121917725e-01 4.648567119147628546e-05 -1.265582686755806208e-04 -2.402178142801858485e-05 -1.127422706304059830e-06
4.956000000000000000e+03 1.266393947601318359e+01 1.008509635925292969e+00 -2.125407190760597587e-04 -4.753236498800106347e-05 -7.802192703820765018e-05 -1.511902955826371908e-04
4.957000000000000000e+03 1.040289020538330078e+01 1.112849831581115723e+00 1.018146285787224770e-04 6.390840280801057816e-05 4.971690941601991653e-05 2.331264695385470986e-04
4.958000000000000000e+03 1.191018390655517578e+01 1.043463349342346191e+00 9.816608508117496967e-05 7.111689228622708470e-06 3.158333129249513149e-05 5.126207906869240105e-05
4.959000000000000000e+03 9.630480766296386719e+00 3.871794641017913818e-01 -1.402632187819108367e-04 4.076051482115872204e-05 -2.985080936923623085e-05 1.170598334283567965e-04
4.960000000000000000e+03 8.873666763305664062e+00 3.829238712787628174e-01 -2.981739817187190056e-04 -2.054178621619939804e-04 -1.510775473434478045e-04 -1.687733310973271728e-04
4.961000000000000000e+03 9.660673141479492188e+00 1.127179503440856934e+00 -3.417884581722319126e-04 -1.664906012592837214e-04 -1.524837280157953501e-04 -4.025375819765031338e-04
4.962000000000000000e+03 8.116720199584960938e+00 3.805542886257171631e-01 -1.804948406061157584e-04 3.800551639869809151e-04 5.986809992464259267e-05 1.695620449027046561e-04
4.963000000000000000e+03 7.360193252563476562e+00 3.795430362224578857e-01 -3.371626080479472876e-04 -5.224967026151716709e-04 -2.578978019300848246e-04 -1.948978315340355039e-04
4.964000000000000000e+03 5.847065925598144531e+00 3.768712580204010010e-01 -3.257811767980456352e-04 -6.574918515980243683e-04 -2.949819026980549097e-04 -1.855199370766058564e-04
4.965000000000000000e+03 5.091114044189453125e+00 3.758820295333862305e-01 -1.508431596448644996e-04 6.366053130477666855e-04 1.457286416552960873e-04 1.920367503771558404e-04
4.966000000000000000e+03 3.579006433486938477e+00 3.681437373161315918e-01 -7.151719182729721069e-05 4.409734392538666725e-04 1.108368742279708385e-04 1.505825057392939925e-04
4.967000000000000000e+03 2.823871612548828125e+00 3.614119887351989746e-01 -1.744431501720100641e-04 -3.258296928834170103e-04 -1.500818616477772593e-04 -9.160973422694951296e-05
4.968000000000000000e+03 2.070111274719238281e+00 3.578882515430450439e-01 2.037330523307900876e-05 2.223342453362420201e-04 7.281226135091856122e-05 1.135792772402055562e-04
4.969000000000000000e+03 2.362852334976196289e+00 1.097888231277465820e+00 -1.847790990723297000e-04 -2.086839522235095501e-04 -1.180389153887517750e-04 -2.452275657560676336e-05
4.970000000000000000e+03 1.328713655471801758e+00 3.659794926643371582e-01 -5.794818207505159080e-05 -1.318126305704936385e-04 -5.692824197467416525e-05 -4.320806328905746341e-05
4.971000000000000000e+03 1.647709608078002930e+00 1.105979442596435547e+00 4.458184776012785733e-05 1.457205071346834302e-04 5.709070683224126697e-05 1.224955340148881078e-04
4.972000000000000000e+03 6.516475677490234375e-01 3.939257264137268066e-01 -7.757386629236862063e-05 -1.652877290325704962e-05 -2.823079194058664143e-05 -4.884378358838148415e-05
4.973000000000000000e+03 3.489431142807006836e-01 9.570703506469726562e-01 1.165119319921359420e-04 8.654632256366312504e-05 6.091747491154819727e-05 4.964739855495281518e-05
4.974000000000000000e+03 3.090358018875122070e+00 1.101411938667297363e+00 3.214233584003522992e-05 2.890152100007981062e-04 9.634726302465423942e-05 1.344438933301717043e-04
4.975000000000000000e+03 3.819237709045410156e+00 1.108143687248229980e+00 -2.215483837062492967e-04 -3.775629447773098946e-04 -1.797333970898762345e-04 -3.113802813459187746e-05
4.976000000000000000e+03 4.335169315338134766e+00 3.733847737312316895e-01 -2.577872073743492365e-04 -5.507942405529320240e-04 -2.425744460197165608e-04 -1.354181149508804083e-04
4.977000000000000000e+03 6.008533000946044922e+00 1.116871237754821777e+00 -5.328209590516053140e-05 5.344717646948993206e-04 1.443568908143788576e-04 2.737085742410272360e-04
4.978000000000000000e+03 6.603851795196533203e+00 3.786112964153289795e-01 -1.852168352343142033e-04 6.256239139474928379e-04 1.321221352554857731e-04 2.004744164878502488e-04
4.979000000000000000e+03 8.930113792419433594e+00 1.122923851013183594e+00 2.439706076984293759e-05 2.822753740474581718e-04 9.200173371937125921e-05 3.623973752837628126e-04
4.980000000000000000e+03 8.199422836303710938e+00 1.120554327964782715e+00 -3.542069753166288137e-04 -3.638525377027690411e-04 -2.154178509954363108e-04 -4.158774681854993105e-04
4.981000000000000000e+03 7.469150543212890625e+00 1.119543075561523438e+00 -2.054372453130781651e-05 4.657351819332689047e-04 1.335574343102052808e-04 3.575686423573642969e-04
4.982000000000000000e+03 6.739063739776611328e+00 1.118611335754394531e+00 -3.306033031549304724e-04 -4.916000762023031712e-04 -2.466610167175531387e-04 -3.108418022748082876e-04
4.983000000000000000e+03 5.278835773468017578e+00 1.115882039070129395e+00 -2.728178806137293577e-04 -4.928748821839690208e-04 -2.297078317496925592e-04 -1.539809309178963304e-04
4.984000000000000000e+03 4.549146175384521484e+00 1.113384723663330078e+00 -5.222414620220661163e-05 4.707992484327405691e-04 1.255725219380110502e-04 1.789987873053178191e-04
4.985000000000000000e+03 9.968983530998229980e-01 1.133925795555114746e+00 2.289199983351863921e-05 -2.231198304798454046e-04 -6.006834883010014892e-05 -1.040929601003881544e-05
4.986000000000000000e+03 7.947246074676513672e+00 -3.790149092674255371e-01 -5.887038059881888330e-05 2.082916325889527798e-04 4.482637814362533391e-05 2.796458466036710888e-05
4.987000000000000000e+03 8.798082351684570312e+00 -1.121163964271545410e+00 -6.662867235718294978e-06 1.944825053215026855e-04 5.634589251712895930e-05 1.017987015075050294e-04
4.988000000000000000e+03 9.582462310791015625e+00 -3.862577378749847412e-01 -3.196487159584648907e-05 2.372335438849404454e-04 6.158059841254726052e-05 2.516001950425561517e-05
4.989000000000000000e+03 7.128131389617919922e+00 -3.778152763843536377e-01 -1.011736749205738306e-04 -1.715406106086447835e-04 -8.181428711395710707e-05 -2.000750464503653347e-05
4.990000000000000000e+03 6.302709579467773438e+00 -3.771458566188812256e-01 -8.782866643741726875e-05 1.271560759050771594e-04 1.179822356789372861e-05 3.600999480113387108e-05
4.991000000000000000e+03 5.439445972442626953e+00 -3.834656774997711182e-01 -8.918975800042971969e-05 -6.354341167025268078e-05 -4.581995017360895872e-05 -6.009490607539191842e-05
4.992000000000000000e+03 4.549984931945800781e+00 -3.402172923088073730e-01 -2.014682104345411062e-05 1.984233313123695552e-05 -9.134669909371950780e-08 3.837879557977430522e-05
4.993000000000000000e+03 4.365737915039062500e+00 -8.721476197242736816e-01 -3.007055784109979868e-04 3.475152334431186318e-05 -7.978621579241007566e-05 -1.018028124235570431e-04
4.994000000000000000e+03 2.784216165542602539e+00 -7.810403704643249512e-01 -1.515680341981351376e-04 4.958097633789293468e-05 -3.059611844946630299e-05 -1.667905016802251339e-04
4.995000000000000000e+03 1.180924773216247559e+00 -3.613742887973785400e-01 7.704181916778907180e-05 -2.038478487520478666e-05 1.699710992397740483e-05 2.582262277428526431e-05
4.996000000000000000e+03 4.100910127162933350e-01 -5.529776215553283691e-01 -1.277945193578489125e-05 -2.188957523685530759e-06 -4.490522769629023969e-06 -8.749727385293226689e-06
4.997000000000000000e+03 7.475960254669189453e-01 -1.101374268531799316e+00 -2.521773276384919882e-04 4.971749513060785830e-05 -6.073795157135464251e-05 -2.566521652624942362e-05
4.998000000000000000e+03 9.582078933715820312e+00 -1.126257777214050293e+00 -6.533209671033546329e-05 -2.081554994219914079e-04 -8.204628102248534560e-05 -4.265941242920234799e-05
4.999000000000000000e+03 8.013586997985839844e+00 -1.119014978408813477e+00 -9.601243073120713234e-05 -1.678957632975652814e-04 -7.917245966382324696e-05 -7.919088238850235939e-05
5.000000000000000000e+03 7.227835178375244141e+00 -1.117815256118774414e+00 -2.875898462662007660e-05 1.478885678807273507e-04 3.573887443053536117e-05 1.123835754697211087e-04
5.001000000000000000e+03 6.435775756835937500e+00 -1.117145895957946777e+00 -7.061038922984153032e-05 -1.077735141734592617e-04 -5.351517029339447618e-05 -1.075255713658407331e-04
5.002000000000000000e+03 5.605874538421630859e+00 -1.123465657234191895e+00 -1.082249218598008156e-04 8.594429527875036001e-05 -6.684187610517255962e-06 1.199560501845553517e-04
5.003000000000000000e+03 4.870606899261474609e+00 -1.221678614616394043e+00 8.950843039201572537e-05 -5.934302680543623865e-05 9.049621439771726727e-06 -1.302628515986725688e-04
5.004000000000000000e+03 4.215381145477294922e+00 -1.291930317878723145e+00 8.709402027307078242e-05 -1.446105488867033273e-05 2.178988870582543314e-05 1.700812426861375570e-04
5.005000000000000000e+03 3.483533143997192383e+00 -1.264367222785949707e+00 -2.562898444011807442e-04 2.590947951830457896e-05 -6.911411037435755134e-05 -2.755163586698472500e-04
5.006000000000000000e+03 2.720056772232055664e+00 -1.259521603584289551e+00 1.784218620741739869e-04 -2.876621465475182049e-06 5.266357038635760546e-05 2.213983098044991493e-04
5.007000000000000000e+03 1.356012225151062012e+00 -1.203287243843078613e+00 3.520926984492689371e-04 -4.647157402359880507e-05 9.168633550871163607e-05 2.266328374389559031e-05
5.008000000000000000e+03 1.973117947578430176e+00 -8.476541042327880859e-01 -6.341739208437502384e-05 -3.342415584484115243e-05 -2.905246583395637572e-05 1.519495999673381448e-04
5.009000000000000000e+03 8.765102386474609375e+00 -3.811639845371246338e-01 -7.813238335074856877e-05 -2.314792218385264277e-04 -9.288347791880369186e-05 -1.526206142443697900e-05
5.010000000000000000e+03 3.694828748703002930e+00 -2.827752828598022461e-01 -1.003102806862443686e-04 -2.170069456042256206e-05 -3.660329093690961599e-05 -4.222493225825019181e-05
5.011000000000000000e+03 2.863922595977783203e+00 -2.815187871456146240e-01 1.226724975822435226e-06 2.816163578245323151e-05 8.816508852760307491e-06 3.418023334234021604e-05
5.012000000000000000e+03 1.994147539138793945e+00 -3.323310017585754395e-01 -4.567189898807555437e-05 -2.020428291871212423e-05 -1.976285420823842287e-05 -6.557564483955502510e-05
5.013000000000000000e+03 1.978801369667053223e+00 -1.275323033332824707e+00 -2.534030354581773281e-04 -3.574212678358890116e-05 -8.674354467075318098e-05 -2.234638523077592254e-04
5.014000000000000000e+03 3.578665971755981445e+00 -7.871425151824951172e-01 8.352897566510364413e-05 -1.384550341754220426e-05 2.090504131047055125e-05 1.171877956949174404e-04
5.015000000000000000e+03 1.511178874969482422e+01 -1.151870131492614746e+00 -6.900866719661280513e-05 -5.726944800699129701e-05 -3.788343383348546922e-05 -1.283287383557762951e-05
5.016000000000000000e+03 1.328532791137695312e+01 -1.267471551895141602e+00 4.654579242924228311e-05 1.045738608809188008e-04 4.533589526545256376e-05 4.722356607089750469e-05
5.017000000000000000e+03 1.480503654479980469e+01 -5.744030475616455078e-01 3.966460644733160734e-05 -2.124601633113343269e-05 5.525577307707862929e-06 2.969624983961693943e-05
5.018000000000000000e+03 1.453040313720703125e+01 -1.313965797424316406e+00 -2.603514076326973736e-05 1.311698579229414463e-04 3.154041405650787055e-05 -2.618327562231570482e-05
5.019000000000000000e+03 1.393833351135253906e+01 -1.278923630714416504e+00 -1.260579847439657897e-05 -1.000094634946435690e-04 -3.378457768121734262e-05 -1.559198972245212644e-05
5.020000000000000000e+03 1.336329460144042969e+01 -5.279909372329711914e-01 -1.739381150400731713e-05 -1.440316409571096301e-04 -4.842763519263826311e-05 -2.755608693405520171e-05
5.021000000000000000e+03 1.411463356018066406e+01 -5.394020080566406250e-01 1.309069648414151743e-05 1.086301199393346906e-04 3.651624501799233258e-05 1.734360921545885503e-05
5.022000000000000000e+03 1.111242771148681641e+01 -4.403275847434997559e-01 -1.749251396176987328e-06 2.071655180770903826e-04 6.162487989058718085e-05 1.543496910016983747e-05
5.023000000000000000e+03 1.260764503479003906e+01 -5.095726251602172852e-01 2.275202314194757491e-05 1.545763516332954168e-04 5.319850970408879220e-05 2.360789039812516421e-05
5.024000000000000000e+03 1.185993289947509766e+01 -4.741277396678924561e-01 -2.940487684099934995e-05 -1.771398819983005524e-04 -6.196342292241752148e-05 -6.810260856582317501e-06
5.025000000000000000e+03 1.109096240997314453e+01 -1.180124521255493164e+00 -5.962253999314270914e-05 -2.064498403342440724e-04 -7.982171518960967660e-05 1.912050265673315153e-06
5.026000000000000000e+03 1.036482620239257812e+01 -4.067706167697906494e-01 -4.538302528089843690e-05 -2.409094740869477391e-04 -8.588775381213054061e-05 -4.677068773162318394e-06
5.027000000000000000e+03 1.034629440307617188e+01 -1.146702885627746582e+00 6.998660410317825153e-06 2.199402806581929326e-04 6.808168109273537993e-05 5.477835657075047493e-05
5.028000000000000000e+03 1.258031177520751953e+01 -1.249099493026733398e+00 -7.571028254460543394e-05 -1.314171968260779977e-04 -6.213824235601350665e-05 -2.805548865580931306e-05
5.029000000000000000e+03 1.183553314208984375e+01 -1.213789224624633789e+00 6.045200643711723387e-05 1.608464081073179841e-04 6.638952618231996894e-05 2.984395177918486297e-05
5.030000000000000000e+03 6.501588439941406250e+01 -6.403046607971191406e+00 3.288285827636718750e+01 6.349044799804687500e+00 1.176957130432128906e+01 1.222238349914550781e+01
5.031000000000000000e+03 6.501978302001953125e+01 -6.422121047973632812e+00 3.007213783264160156e+01 1.874440956115722656e+01 1.464496421813964844e+01 2.349357414245605469e+01
5.032000000000000000e+03 6.502732086181640625e+01 -6.440071582794189453e+00 2.761481475830078125e+01 3.077072143554687500e+01 1.751566123962402344e+01 2.740669059753417969e+01
5.033000000000000000e+03 6.503820037841796875e+01 -6.456212520599365234e+00 2.368666648864746094e+01 4.327405929565429688e+01 2.008821868896484375e+01 2.851049804687500000e+01
5.034000000000000000e+03 6.505201721191406250e+01 -6.469925403594970703e+00 2.021889495849609375e+01 5.461745834350585938e+01 2.245090675354003906e+01 2.659697532653808594e+01
5.035000000000000000e+03 6.506824493408203125e+01 -6.480685234069824219e+00 1.695422935485839844e+01 6.435421752929687500e+01 2.439253425598144531e+01 2.217183113098144531e+01
5.036000000000000000e+03 6.508625793457031250e+01 -6.488080501556396484e+00 1.532419013977050781e+01 7.141794586181640625e+01 2.602264022827148438e+01 1.593266010284423828e+01
5.037000000000000000e+03 6.510536193847656250e+01 -6.491828441619873047e+00 1.530733680725097656e+01 7.532286071777343750e+01 2.718905830383300781e+01 8.633172035217285156e+00
5.038000000000000000e+03 6.512483215332031250e+01 -6.491786003112792969e+00 1.754275703430175781e+01 7.606379699707031250e+01 2.808196640014648438e+01 1.461628913879394531e+00
5.039000000000000000e+03 6.514391326904296875e+01 -6.487953662872314453e+00 2.139996147155761719e+01 7.383594512939453125e+01 2.857077217102050781e+01 -4.751646041870117188e+00
5.040000000000000000e+03 6.516188812255859375e+01 -6.480478763580322266e+00 2.655098533630371094e+01 6.959201049804687500e+01 2.884289932250976562e+01 -9.096611976623535156e+00
5.041000000000000000e+03 6.517807006835937500e+01 -6.469647407531738281e+00 3.218099212646484375e+01 6.414563751220703125e+01 2.889798736572265625e+01 -1.130883121490478516e+01
5.042000000000000000e+03 6.519182586669921875e+01 -6.455873966217041016e+00 3.752120208740234375e+01 5.861395645141601562e+01 2.884054756164550781e+01 -1.132946109771728516e+01
5.043000000000000000e+03 6.520263671875000000e+01 -6.439685821533203125e+00 4.195746612548828125e+01 5.372461318969726562e+01 2.870462417602539062e+01 -9.491300582885742188e+00
5.044000000000000000e+03 6.521009826660156250e+01 -6.421701908111572266e+00 4.513040542602539062e+01 5.024265670776367188e+01 2.861191749572753906e+01 -6.255937576293945312e+00
5.045000000000000000e+03 6.521390533447265625e+01 -6.402610301971435547e+00 4.673734664916992188e+01 4.833440017700195312e+01 2.852152442932128906e+01 -2.190757036209106445e+00
5.046000000000000000e+03 6.521392822265625000e+01 -6.383141994476318359e+00 4.675442123413085938e+01 4.833754730224609375e+01 2.852759170532226562e+01 2.130886793136596680e+00
5.047000000000000000e+03 6.521015930175781250e+01 -6.364042282104492188e+00 4.516153335571289062e+01 5.021437835693359375e+01 2.861277389526367188e+01 6.209160804748535156e+00
5.048000000000000000e+03 6.520274353027343750e+01 -6.346041202545166016e+00 4.200656509399414062e+01 5.367358779907226562e+01 2.870404624938964844e+01 9.458802223205566406e+00
5.049000000000000000e+03 6.519197082519531250e+01 -6.329828262329101562e+00 3.759320449829101562e+01 5.856808471679687500e+01 2.884838676452636719e+01 1.131480121612548828e+01
5.050000000000000000e+03 6.517824554443359375e+01 -6.316023826599121094e+00 3.224870300292968750e+01 6.409045410156250000e+01 2.890174674987792969e+01 1.132447910308837891e+01
5.051000000000000000e+03 6.516209411621093750e+01 -6.305155754089355469e+00 2.661465644836425781e+01 6.954797363281250000e+01 2.884878921508789062e+01 9.140110015869140625e+00
5.052000000000000000e+03 6.514413452148437500e+01 -6.297640323638916016e+00 2.147245025634765625e+01 7.382585906982421875e+01 2.858949470520019531e+01 4.816218376159667969e+00
5.053000000000000000e+03 6.512505340576171875e+01 -6.293765068054199219e+00 1.755969429016113281e+01 7.607572174072265625e+01 2.809062576293945312e+01 -1.382153511047363281e+00
5.054000000000000000e+03 6.510558319091796875e+01 -6.293678283691406250e+00 1.532622814178466797e+01 7.538682556152343750e+01 2.721391677856445312e+01 -8.545247077941894531e+00
5.055000000000000000e+03 6.508647155761718750e+01 -6.297383308410644531e+00 1.530784988403320312e+01 7.152028656005859375e+01 2.604844093322753906e+01 -1.585239028930664062e+01
5.056000000000000000e+03 6.506844329833984375e+01 -6.304738044738769531e+00 1.694552993774414062e+01 6.448946380615234375e+01 2.443049812316894531e+01 -2.212115669250488281e+01
5.057000000000000000e+03 6.505220031738281250e+01 -6.315461158752441406e+00 2.019703102111816406e+01 5.477905273437500000e+01 2.249282646179199219e+01 -2.657763481140136719e+01
5.058000000000000000e+03 6.503834533691406250e+01 -6.329142570495605469e+00 2.364825439453125000e+01 4.342947006225585938e+01 2.012331771850585938e+01 -2.853325843811035156e+01
5.059000000000000000e+03 6.502742004394531250e+01 -6.345258712768554688e+00 2.767744636535644531e+01 3.097721862792968750e+01 1.759639930725097656e+01 -2.743192100524902344e+01
5.060000000000000000e+03 6.501985168457031250e+01 -6.363192558288574219e+00 3.013117790222167969e+01 1.883328247070312500e+01 1.468933773040771484e+01 -2.355494308471679688e+01
5.061000000000000000e+03 6.501590728759765625e+01 -6.382257938385009766e+00 3.299084854125976562e+01 6.363604068756103516e+00 1.180633544921875000e+01 -1.232519149780273438e+01
