# el_label, x, y, sXX, sYY, sZZ, sXY
1.000000000000000000e+00 2.882171630859375000e+01 -6.832624912261962891e+00 -4.970252990722656250e+00 -2.405447244644165039e+00 -2.212710142135620117e+00 -2.688832998275756836e+00
2.000000000000000000e+00 2.862333679199218750e+01 -6.848840713500976562e+00 -3.125340342521667480e-01 9.284037351608276367e-01 1.847608983516693115e-01 6.941070556640625000e-01
3.000000000000000000e+00 2.842495918273925781e+01 -6.865056037902832031e+00 -1.363212823867797852e+00 -4.230867922306060791e-01 -5.358899235725402832e-01 -3.089356794953346252e-02
4.000000000000000000e+00 2.822657966613769531e+01 -6.881271362304687500e+00 -1.532197475433349609e+00 2.257207781076431274e-01 -3.919430375099182129e-01 1.558827459812164307e-01
5.000000000000000000e+00 2.883214569091796875e+01 -6.890090942382812500e+00 1.028040695190429688e+01 -2.511400461196899414e+00 2.330702066421508789e+00 1.397336840629577637e+00
6.000000000000000000e+00 2.864071846008300781e+01 -6.944617271423339844e+00 3.626740694046020508e+00 2.707734704017639160e-01 1.169254302978515625e+00 1.116728425025939941e+00
7.000000000000000000e+00 2.844929313659667969e+01 -6.999143600463867188e+00 3.626230001449584961e+00 6.992374062538146973e-01 1.297640204429626465e+00 1.843498706817626953e+00
8.000000000000000000e+00 2.825786590576171875e+01 -7.053669452667236328e+00 2.473095178604125977e+00 1.119297593832015991e-01 7.755075097084045410e-01 1.193610310554504395e+00
9.000000000000000000e+00 2.885356140136718750e+01 -6.944427490234375000e+00 1.566933631896972656e+01 2.104066133499145508e+00 5.332020759582519531e+00 8.164898872375488281e+00
1.000000000000000000e+01 2.867641448974609375e+01 -7.035177707672119141e+00 9.600689888000488281e+00 1.215542912483215332e+00 3.244869709014892578e+00 4.737143039703369141e+00
1.100000000000000000e+01 2.849926567077636719e+01 -7.125927925109863281e+00 6.541365623474121094e+00 1.872874498367309570e+00 2.524272203445434570e+00 3.760443449020385742e+00
1.200000000000000000e+01 2.832211685180664062e+01 -7.216678142547607422e+00 5.745725154876708984e+00 1.606841444969177246e+00 2.205770015716552734e+00 3.564772367477416992e+00
1.300000000000000000e+01 2.888514900207519531e+01 -6.993554592132568359e+00 1.756077003479003906e+01 8.606505393981933594e+00 7.850183010101318359e+00 1.348491001129150391e+01
1.400000000000000000e+01 2.872905540466308594e+01 -7.117055892944335938e+00 1.145234870910644531e+01 5.277506351470947266e+00 5.018956661224365234e+00 8.776898384094238281e+00
1.500000000000000000e+01 2.857296562194824219e+01 -7.240557670593261719e+00 9.104808807373046875e+00 4.384560108184814453e+00 4.046810626983642578e+00 6.946073055267333984e+00
1.600000000000000000e+01 2.841687393188476562e+01 -7.364059448242187500e+00 7.295820713043212891e+00 4.009094238281250000e+00 3.391474485397338867e+00 5.818068981170654297e+00
1.700000000000000000e+01 2.892569351196289062e+01 -7.035592079162597656e+00 1.593868541717529297e+01 1.683911705017089844e+01 9.833340644836425781e+00 1.689966011047363281e+01
1.800000000000000000e+01 2.879663085937500000e+01 -7.187119483947753906e+00 1.168051624298095703e+01 1.090066719055175781e+01 6.774354934692382812e+00 1.180642414093017578e+01
1.900000000000000000e+01 2.866757011413574219e+01 -7.338646411895751953e+00 9.190443038940429688e+00 8.576147079467773438e+00 5.329977035522460938e+00 9.455169677734375000e+00
2.000000000000000000e+01 2.853850936889648438e+01 -7.490173816680908203e+00 7.957074642181396484e+00 7.581793785095214844e+00 4.661660671234130859e+00 8.237811088562011719e+00
2.100000000000000000e+01 2.897364807128906250e+01 -7.068932533264160156e+00 1.332423305511474609e+01 2.552640724182128906e+01 1.165519237518310547e+01 1.775222015380859375e+01
2.200000000000000000e+01 2.887655448913574219e+01 -7.242686271667480469e+00 1.001016235351562500e+01 1.733341598510742188e+01 8.203073501586914062e+00 1.309737300872802734e+01
2.300000000000000000e+01 2.877946090698242188e+01 -7.416440486907958984e+00 8.407923698425292969e+00 1.383859825134277344e+01 6.673956394195556641e+00 1.087643337249755859e+01
2.400000000000000000e+01 2.868236923217773438e+01 -7.590194225311279297e+00 6.997719764709472656e+00 1.174671459197998047e+01 5.623330116271972656e+00 9.380775451660156250e+00
2.500000000000000000e+01 2.902717399597167969e+01 -7.092298984527587891e+00 1.018783378601074219e+01 3.353833770751953125e+01 1.311785125732421875e+01 1.601869201660156250e+01
2.600000000000000000e+01 2.896576499938964844e+01 -7.281630516052246094e+00 8.228852272033691406e+00 2.372091674804687500e+01 9.584931373596191406e+00 1.259821224212646484e+01
2.700000000000000000e+01 2.890435791015625000e+01 -7.470962047576904297e+00 6.709825515747070312e+00 1.918507957458496094e+01 7.768471717834472656e+00 1.064808368682861328e+01
2.800000000000000000e+01 2.884295082092285156e+01 -7.660293579101562500e+00 5.672133445739746094e+00 1.659528923034667969e+01 6.680226802825927734e+00 9.403083801269531250e+00
2.900000000000000000e+01 2.908422660827636719e+01 -7.104797840118408203e+00 8.273787498474121094e+00 3.992574310302734375e+01 1.445985984802246094e+01 1.230553150177001953e+01
3.000000000000000000e+01 2.906085205078125000e+01 -7.302461624145507812e+00 6.575726509094238281e+00 2.916695976257324219e+01 1.072280597686767578e+01 1.037896919250488281e+01
3.100000000000000000e+01 2.903747940063476562e+01 -7.500125408172607422e+00 5.338140487670898438e+00 2.409966087341308594e+01 8.831339836120605469e+00 9.058638572692871094e+00
3.200000000000000000e+01 2.901410484313964844e+01 -7.697789669036865234e+00 4.447872161865234375e+00 2.094299697875976562e+01 7.617260932922363281e+00 8.130852699279785156e+00
3.300000000000000000e+01 2.914262008666992188e+01 -7.105950355529785156e+00 7.931909084320068359e+00 4.397903823852539062e+01 1.557328414916992188e+01 7.356899261474609375e+00
3.400000000000000000e+01 2.915817451477050781e+01 -7.304382324218750000e+00 5.985659599304199219e+00 3.320552825927734375e+01 1.175735664367675781e+01 7.077019691467285156e+00
3.500000000000000000e+01 2.917372894287109375e+01 -7.502814769744873047e+00 4.670657157897949219e+00 2.779745292663574219e+01 9.740433692932128906e+00 6.361479282379150391e+00
3.600000000000000000e+01 2.918928527832031250e+01 -7.701247215270996094e+00 3.898077011108398438e+00 2.439535522460937500e+01 8.488029479980468750e+00 5.825479984283447266e+00
3.700000000000000000e+01 2.920011901855468750e+01 -7.095712661743164062e+00 9.505520820617675781e+00 4.561946868896484375e+01 1.653749656677246094e+01 2.328811407089233398e+00
3.800000000000000000e+01 2.925400924682617188e+01 -7.287319660186767578e+00 6.675771713256835938e+00 3.543284606933593750e+01 1.263258552551269531e+01 3.240739583969116211e+00
3.900000000000000000e+01 2.930789756774902344e+01 -7.478926658630371094e+00 5.140196800231933594e+00 3.002218818664550781e+01 1.054871559143066406e+01 3.178672790527343750e+00
4.000000000000000000e+01 2.936178779602050781e+01 -7.670534133911132812e+00 4.219812870025634766e+00 2.654710960388183594e+01 9.230076789855957031e+00 2.984841346740722656e+00
4.100000000000000000e+01 2.925452613830566406e+01 -7.074476242065429688e+00 1.267847919464111328e+01 4.509869384765625000e+01 1.733315277099609375e+01 -1.950337767601013184e+00
4.200000000000000000e+01 2.934468650817871094e+01 -7.251925945281982422e+00 8.683777809143066406e+00 3.593078994750976562e+01 1.338437080383300781e+01 -3.416195511817932129e-01
4.300000000000000000e+01 2.943484687805175781e+01 -7.429376125335693359e+00 6.782490253448486328e+00 3.066489219665527344e+01 1.123421478271484375e+01 4.008654132485389709e-02
4.400000000000000000e+01 2.952500915527343750e+01 -7.606825828552246094e+00 5.572637557983398438e+00 2.724941062927246094e+01 9.846614837646484375e+00 2.444362938404083252e-01
4.500000000000000000e+01 2.930375862121582031e+01 -7.043054580688476562e+00 1.683117103576660156e+01 4.314922714233398438e+01 1.799411964416503906e+01 -4.792255878448486328e+00
4.600000000000000000e+01 2.942674064636230469e+01 -7.199556350708007812e+00 1.173850345611572266e+01 3.491433715820312500e+01 1.399585247039794922e+01 -3.128910541534423828e+00
4.700000000000000000e+01 2.954972076416015625e+01 -7.356058120727539062e+00 9.356703758239746094e+00 3.001559448242187500e+01 1.181168937683105469e+01 -2.418476819992065430e+00
4.800000000000000000e+01 2.967270469665527344e+01 -7.512559890747070312e+00 7.861605167388916016e+00 2.669466400146484375e+01 1.036688041687011719e+01 -2.034311056137084961e+00
4.900000000000000000e+01 2.934593200683593750e+01 -7.002649307250976562e+00 2.123306083679199219e+01 4.043593978881835938e+01 1.850069999694824219e+01 -6.009327888488769531e+00
5.000000000000000000e+01 2.949702835083007812e+01 -7.132214069366455078e+00 1.531403160095214844e+01 3.301068115234375000e+01 1.449741363525390625e+01 -4.644494533538818359e+00
5.100000000000000000e+01 2.964812469482421875e+01 -7.261779308319091797e+00 1.246278095245361328e+01 2.839863967895507812e+01 1.225842571258544922e+01 -3.869717121124267578e+00
5.200000000000000000e+01 2.979922103881835938e+01 -7.391344070434570312e+00 1.062915611267089844e+01 2.543536186218261719e+01 1.081935596466064453e+01 -3.366882562637329102e+00
5.300000000000000000e+01 2.937943077087402344e+01 -6.954806804656982422e+00 2.514674377441406250e+01 3.780843353271484375e+01 1.888655471801757812e+01 -5.677253723144531250e+00
5.400000000000000000e+01 2.955286026000976562e+01 -7.052476882934570312e+00 1.884958839416503906e+01 3.071067810058593750e+01 1.486808013916015625e+01 -4.772496223449707031e+00
5.500000000000000000e+01 2.972628974914550781e+01 -7.150146961212158203e+00 1.550190353393554688e+01 2.652303123474121094e+01 1.260748004913330078e+01 -4.095742225646972656e+00
5.600000000000000000e+01 2.989972114562988281e+01 -7.247816562652587891e+00 1.340964603424072266e+01 2.369806098937988281e+01 1.113231182098388672e+01 -3.585268497467041016e+00
5.700000000000000000e+01 2.940297508239746094e+01 -6.901358127593994141e+00 2.813554573059082031e+01 3.570978546142578125e+01 1.915359878540039062e+01 -4.100175857543945312e+00
5.800000000000000000e+01 2.959210205078125000e+01 -6.963395595550537109e+00 2.165760612487792969e+01 2.873180961608886719e+01 1.511682510375976562e+01 -3.667634725570678711e+00
5.900000000000000000e+01 2.978122711181640625e+01 -7.025432586669921875e+00 1.802241897583007812e+01 2.481352043151855469e+01 1.285078144073486328e+01 -3.135835409164428711e+00
6.000000000000000000e+01 2.997035408020019531e+01 -7.087470054626464844e+00 1.562558937072753906e+01 2.213357353210449219e+01 1.132774829864501953e+01 -2.822938919067382812e+00
6.100000000000000000e+01 2.941566276550292969e+01 -6.844348430633544922e+00 2.978419685363769531e+01 3.448596572875976562e+01 1.928104782104492188e+01 -1.797871828079223633e+00
6.200000000000000000e+01 2.961324882507324219e+01 -6.868379116058349609e+00 2.334109497070312500e+01 2.755500030517578125e+01 1.526882839202880859e+01 -1.608842492103576660e+00
6.300000000000000000e+01 2.981083297729492188e+01 -6.892409801483154297e+00 1.950256729125976562e+01 2.372461509704589844e+01 1.296815490722656250e+01 -1.410611152648925781e+00
6.400000000000000000e+01 3.000841903686523438e+01 -6.916440486907958984e+00 1.697493743896484375e+01 2.120710754394531250e+01 1.145461368560791016e+01 -1.239834308624267578e+00
6.500000000000000000e+01 2.941700935363769531e+01 -6.785959243774414062e+00 3.002723312377929688e+01 3.439479446411132812e+01 1.932660865783691406e+01 8.409738540649414062e-01
6.600000000000000000e+01 2.961549186706542969e+01 -6.771063804626464844e+00 2.356410980224609375e+01 2.735797882080078125e+01 1.527662658691406250e+01 7.854470610618591309e-01
6.700000000000000000e+01 2.981397628784179688e+01 -6.756168365478515625e+00 1.970565414428710938e+01 2.364116287231445312e+01 1.300404548645019531e+01 7.056929469108581543e-01
6.800000000000000000e+01 3.001245880126953125e+01 -6.741272926330566406e+00 1.718432617187500000e+01 2.106587791442871094e+01 1.147506141662597656e+01 5.949690341949462891e-01
6.900000000000000000e+01 2.940696334838867188e+01 -6.728425025939941406e+00 2.878663825988769531e+01 3.528726577758789062e+01 1.922216987609863281e+01 3.293043851852416992e+00
7.000000000000000000e+01 2.959874916076660156e+01 -6.675173759460449219e+00 2.232145118713378906e+01 2.835095405578613281e+01 1.520172214508056641e+01 2.977906703948974609e+00
7.100000000000000000e+01 2.979053497314453125e+01 -6.621922016143798828e+00 1.859925842285156250e+01 2.440880775451660156e+01 1.290242004394531250e+01 2.602769851684570312e+00
7.200000000000000000e+01 2.998232078552246094e+01 -6.568670749664306641e+00 1.614317893981933594e+01 2.193037986755371094e+01 1.142206764221191406e+01 2.281402587890625000e+00
7.300000000000000000e+01 2.938590812683105469e+01 -6.673947334289550781e+00 2.622826576232910156e+01 3.721094894409179688e+01 1.903176498413085938e+01 5.095357418060302734e+00
7.400000000000000000e+01 2.956365776062011719e+01 -6.584377765655517578e+00 1.980052947998046875e+01 3.014199066162109375e+01 1.498275566101074219e+01 4.409806251525878906e+00
7.500000000000000000e+01 2.974140548706054688e+01 -6.494808197021484375e+00 1.637616539001464844e+01 2.601809310913085938e+01 1.271827793121337891e+01 3.770353317260742188e+00
7.600000000000000000e+01 2.991915512084960938e+01 -6.405238628387451172e+00 1.408990287780761719e+01 2.330947875976562500e+01 1.121981430053710938e+01 3.384155988693237305e+00
7.700000000000000000e+01 2.935465049743652344e+01 -6.624611377716064453e+00 2.257100486755371094e+01 3.975125885009765625e+01 1.869668006896972656e+01 5.805422782897949219e+00
7.800000000000000000e+01 2.951156044006347656e+01 -6.502151012420654297e+00 1.647385025024414062e+01 3.241827392578125000e+01 1.466763687133789062e+01 4.649835586547851562e+00
7.900000000000000000e+01 2.966847038269042969e+01 -6.379690647125244141e+00 1.340958595275878906e+01 2.794452667236328125e+01 1.240623378753662109e+01 3.884251117706298828e+00
8.000000000000000000e+01 2.982538032531738281e+01 -6.257230281829833984e+00 1.145384597778320312e+01 2.494261169433593750e+01 1.091893768310546875e+01 3.455179929733276367e+00
8.100000000000000000e+01 2.931438636779785156e+01 -6.582304477691650391e+00 1.831140136718750000e+01 4.252702331542968750e+01 1.825152778625488281e+01 5.041712284088134766e+00
8.200000000000000000e+01 2.944445228576660156e+01 -6.431639671325683594e+00 1.288412380218505859e+01 3.449388885498046875e+01 1.421340370178222656e+01 3.499936103820800781e+00
8.300000000000000000e+01 2.957452011108398438e+01 -6.280974864959716797e+00 1.028765296936035156e+01 2.970783042907714844e+01 1.199864482879638672e+01 2.806249618530273438e+00
8.400000000000000000e+01 2.970458793640136719e+01 -6.130310058593750000e+00 8.664371490478515625e+00 2.642487144470214844e+01 1.052677345275878906e+01 2.373703241348266602e+00
8.500000000000000000e+01 2.926665496826171875e+01 -6.548646450042724609e+00 1.408262825012207031e+01 4.474874877929687500e+01 1.764941215515136719e+01 2.647422313690185547e+00
8.600000000000000000e+01 2.936490249633789062e+01 -6.375542640686035156e+00 9.666306495666503906e+00 3.585145187377929688e+01 1.365532779693603516e+01 1.029695868492126465e+00
8.700000000000000000e+01 2.946315002441406250e+01 -6.202438831329345703e+00 7.568235397338867188e+00 3.062138938903808594e+01 1.145688724517822266e+01 5.999963879585266113e-01
8.800000000000000000e+01 2.956139564514160156e+01 -6.029334545135498047e+00 6.258358478546142578e+00 2.730281448364257812e+01 1.006835174560546875e+01 3.748983442783355713e-01
8.900000000000000000e+01 2.921328544616699219e+01 -6.524924278259277344e+00 1.063513946533203125e+01 4.577106475830078125e+01 1.692186164855957031e+01 -1.286593198776245117e+00
9.000000000000000000e+01 2.927595138549804688e+01 -6.336005687713623047e+00 7.369249343872070312e+00 3.578408432006835938e+01 1.294600009918212891e+01 -2.381167411804199219e+00
9.100000000000000000e+01 2.933861923217773438e+01 -6.147087097167968750e+00 5.701307296752929688e+00 3.038671302795410156e+01 1.082640647888183594e+01 -2.414101600646972656e+00
9.200000000000000000e+01 2.940128517150878906e+01 -5.958168029785156250e+00 4.689240932464599609e+00 2.684584808349609375e+01 9.460526466369628906e+00 -2.276836633682250977e+00
9.300000000000000000e+01 2.915631866455078125e+01 -6.512045860290527344e+00 8.624491691589355469e+00 4.474869155883789062e+01 1.601195526123046875e+01 -6.157946109771728516e+00
9.400000000000000000e+01 2.918100738525390625e+01 -6.314541816711425781e+00 6.350185394287109375e+00 3.407111358642578125e+01 1.212638950347900391e+01 -6.240712642669677734e+00
9.500000000000000000e+01 2.920569419860839844e+01 -6.117038249969482422e+00 4.977115154266357422e+00 2.855241584777832031e+01 1.005885982513427734e+01 -5.641954898834228516e+00
9.600000000000000000e+01 2.923038482666015625e+01 -5.919534206390380859e+00 4.088385581970214844e+00 2.508651924133300781e+01 8.752470970153808594e+00 -5.199707508087158203e+00
9.700000000000000000e+01 2.909793472290039062e+01 -6.510504722595214844e+00 8.517591476440429688e+00 4.136369323730468750e+01 1.496438598632812500e+01 -1.124813652038574219e+01
9.800000000000000000e+01 2.908370018005371094e+01 -6.311973571777343750e+00 6.632774353027343750e+00 3.047842597961425781e+01 1.113335990905761719e+01 -9.717160224914550781e+00
9.900000000000000000e+01 2.906946563720703125e+01 -6.113441944122314453e+00 5.409243106842041016e+00 2.525586891174316406e+01 9.199533462524414062e+00 -8.593080520629882812e+00
1.000000000000000000e+02 2.905523109436035156e+01 -5.914910793304443359e+00 4.498327255249023438e+00 2.198197937011718750e+01 7.944091796875000000e+00 -7.652791023254394531e+00
1.010000000000000000e+02 2.904036712646484375e+01 -6.520359516143798828e+00 1.010580158233642578e+01 3.552934646606445312e+01 1.369054508209228516e+01 -1.537319660186767578e+01
1.020000000000000000e+02 2.898775482177734375e+01 -6.328398227691650391e+00 8.116424560546875000e+00 2.531816482543945312e+01 1.003037643432617188e+01 -1.227750587463378906e+01
1.030000000000000000e+02 2.893514251708984375e+01 -6.136436462402343750e+00 6.597081661224365234e+00 2.064849853515625000e+01 8.173673629760742188e+00 -1.047608470916748047e+01
1.040000000000000000e+02 2.888252830505371094e+01 -5.944474697113037109e+00 5.744518756866455078e+00 1.791717147827148438e+01 7.098506927490234375e+00 -9.277535438537597656e+00
1.050000000000000000e+02 2.898582077026367188e+01 -6.541233062744140625e+00 1.309116458892822266e+01 2.778547859191894531e+01 1.226299285888671875e+01 -1.773357772827148438e+01
1.060000000000000000e+02 2.889684295654296875e+01 -6.363187313079833984e+00 1.000034618377685547e+01 1.904106330871582031e+01 8.712423324584960938e+00 -1.318977928161621094e+01
1.070000000000000000e+02 2.880786514282226562e+01 -6.185141563415527344e+00 8.251990318298339844e+00 1.532672786712646484e+01 7.073615550994873047e+00 -1.100303745269775391e+01
1.080000000000000000e+02 2.871888732910156250e+01 -6.007095336914062500e+00 7.042553901672363281e+00 1.321832942962646484e+01 6.078264713287353516e+00 -9.549296379089355469e+00
1.090000000000000000e+02 2.893638038635253906e+01 -6.572326660156250000e+00 1.599441814422607422e+01 1.905680274963378906e+01 1.051536560058593750e+01 -1.752043342590332031e+01
1.100000000000000000e+02 2.881444168090820312e+01 -6.415009498596191406e+00 1.188789653778076172e+01 1.245353031158447266e+01 7.302427768707275391e+00 -1.233496952056884766e+01
1.110000000000000000e+02 2.869250488281250000e+01 -6.257692813873291016e+00 9.374293327331542969e+00 9.903079986572265625e+00 5.783212184906005859e+00 -9.841237068176269531e+00
1.120000000000000000e+02 2.857056808471679688e+01 -6.100376129150390625e+00 7.974457263946533203e+00 8.574742317199707031e+00 4.964759826660156250e+00 -8.521433830261230469e+00
1.130000000000000000e+02 2.889393997192382812e+01 -6.612450122833251953e+00 1.822617721557617188e+01 1.041032218933105469e+01 8.590950012207031250e+00 -1.464831066131591797e+01
1.140000000000000000e+02 2.874370765686035156e+01 -6.481882095336914062e+00 1.212658214569091797e+01 6.474539756774902344e+00 5.580336570739746094e+00 -9.590320587158203125e+00
1.150000000000000000e+02 2.859347724914550781e+01 -6.351314544677734375e+00 9.741541862487792969e+00 5.352100372314453125e+00 4.528092384338378906e+00 -7.513124942779541016e+00
1.160000000000000000e+02 2.844324493408203125e+01 -6.220746994018554688e+00 7.804376125335693359e+00 4.452817440032958984e+00 3.677158117294311523e+00 -6.351425170898437500e+00
1.170000000000000000e+02 2.886012268066406250e+01 -6.660068511962890625e+00 1.716011619567871094e+01 3.162131547927856445e+00 6.096673965454101562e+00 -9.558367729187011719e+00
1.180000000000000000e+02 2.868734550476074219e+01 -6.561245918273925781e+00 1.089775943756103516e+01 2.012123346328735352e+00 3.872964859008789062e+00 -5.601449966430664062e+00
1.190000000000000000e+02 2.851457023620605469e+01 -6.462423801422119141e+00 7.697779178619384766e+00 2.282929658889770508e+00 2.994212627410888672e+00 -4.383634567260742188e+00
1.200000000000000000e+02 2.834179496765136719e+01 -6.363601684570312500e+00 6.765790939331054688e+00 2.095688819885253906e+00 2.658443927764892578e+00 -4.254308700561523438e+00
1.210000000000000000e+02 2.883622360229492188e+01 -6.713359355926513672e+00 1.279440593719482422e+01 -2.193294525146484375e+00 3.180333375930786133e+00 -2.617604017257690430e+00
1.220000000000000000e+02 2.864751243591308594e+01 -6.650064468383789062e+00 5.508492469787597656e+00 5.215308070182800293e-01 1.809007048606872559e+00 -1.671014308929443359e+00
1.230000000000000000e+02 2.845880508422851562e+01 -6.586769104003906250e+00 5.169719219207763672e+00 9.210460186004638672e-01 1.827229619026184082e+00 -2.375246763229370117e+00
1.240000000000000000e+02 2.827009582519531250e+01 -6.523474216461181641e+00 3.796648263931274414e+00 3.950685262680053711e-01 1.257515072822570801e+00 -1.643327474594116211e+00
1.250000000000000000e+02 2.882315444946289062e+01 -6.770283222198486328e+00 -1.674757003784179688e+00 -2.631812095642089844e+00 -1.291970729827880859e+00 2.463182926177978516e+00
1.260000000000000000e+02 2.862573432922363281e+01 -6.744937419891357422e+00 1.864112973213195801e+00 1.024832844734191895e+00 8.666837215423583984e-01 -8.832273483276367188e-01
1.270000000000000000e+02 2.842831230163574219e+01 -6.719591617584228516e+00 4.242416620254516602e-01 -4.136473536491394043e-01 3.178298240527510643e-03 -1.292300969362258911e-01
1.280000000000000000e+02 2.823089408874511719e+01 -6.694245815277099609e+00 -1.521669141948223114e-02 2.801182270050048828e-01 7.947045564651489258e-02 -2.177969962358474731e-01
1.290000000000000000e+02 2.031038475036621094e+01 -7.300367355346679688e+00 -5.723109245300292969e-01 1.124712750315666199e-01 -1.379518955945968628e-01 -2.982691228389739990e-01
1.300000000000000000e+02 2.259598350524902344e+01 -7.678093910217285156e+00 -7.155001163482666016e-01 7.899441570043563843e-02 -1.909517049789428711e-01 -1.502970606088638306e-01
1.310000000000000000e+02 2.198038864135742188e+01 -6.577556133270263672e+00 -1.407396435737609863e+00 1.049605477601289749e-02 -4.190700948238372803e-01 1.253008693456649780e-01
1.320000000000000000e+02 2.183436012268066406e+01 -7.552633762359619141e+00 -7.501520514488220215e-01 1.037833541631698608e-01 -1.939105987548828125e-01 -2.300723642110824585e-01
1.330000000000000000e+02 2.272505950927734375e+01 -6.699801921844482422e+00 -1.784905076026916504e+00 -3.951572626829147339e-02 -5.473262071609497070e-01 1.392224431037902832e-01
1.340000000000000000e+02 2.266068840026855469e+01 -7.189372539520263672e+00 -1.204658865928649902e+00 2.289487235248088837e-02 -3.545291721820831299e-01 -8.245465159416198730e-02
1.350000000000000000e+02 2.115385627746582031e+01 -6.942288398742675781e+00 -8.915600180625915527e-01 7.000496238470077515e-02 -2.464665174484252930e-01 -1.289443075656890869e-01
1.360000000000000000e+02 2.107221031188964844e+01 -7.427119731903076172e+00 -6.976172924041748047e-01 1.041011810302734375e-01 -1.780548393726348877e-01 -2.720886468887329102e-01
1.370000000000000000e+02 2.049124908447265625e+01 -6.330034255981445312e+00 -7.873175740242004395e-01 1.632604189217090607e-02 -2.312974631786346436e-01 2.999700792133808136e-02
1.380000000000000000e+02 2.040071487426757812e+01 -6.815936088562011719e+00 -6.828488111495971680e-01 5.923701077699661255e-02 -1.870835423469543457e-01 -1.702407598495483398e-01
1.390000000000000000e+02 2.123571014404296875e+01 -6.454319477081298828e+00 -1.095734596252441406e+00 -4.917631857097148895e-03 -3.301956951618194580e-01 6.743350625038146973e-02
1.400000000000000000e+02 2.190753936767578125e+01 -7.066352844238281250e+00 -1.103484511375427246e+00 5.543282255530357361e-02 -3.144154846668243408e-01 -1.103331744670867920e-01
1.410000000000000000e+02 2.404464530944824219e+01 -7.347836494445800781e+00 -1.413488030433654785e+00 4.183080978691577911e-03 -4.227914810180664062e-01 -1.122918445616960526e-03
1.420000000000000000e+02 2.418437576293945312e+01 -6.859050750732421875e+00 -2.110706567764282227e+00 -2.172364108264446259e-02 -6.397290229797363281e-01 1.363485604524612427e-01
1.430000000000000000e+02 2.592481231689453125e+01 -7.706582546234130859e+00 3.936018943786621094e-01 8.416378498077392578e-02 1.433296948671340942e-01 5.478012561798095703e-01
1.440000000000000000e+02 2.334447479248046875e+01 -7.773294448852539062e+00 -6.142433881759643555e-01 6.953851133584976196e-02 -1.634114533662796021e-01 -9.000092744827270508e-02
1.450000000000000000e+02 2.545378684997558594e+01 -7.442607879638671875e+00 -1.074135661125183105e+00 -7.815004885196685791e-02 -3.456857204437255859e-01 2.711341977119445801e-01
1.460000000000000000e+02 2.588655853271484375e+01 -7.903322696685791016e+00 8.142472505569458008e-01 4.287762939929962158e-02 2.571374475955963135e-01 6.376484036445617676e-01
1.470000000000000000e+02 2.588609313964843750e+01 -7.320866107940673828e+00 -1.277912855148315430e+00 1.175241097807884216e-01 -3.481166064739227295e-01 1.472203880548477173e-01
1.480000000000000000e+02 2.587563514709472656e+01 -7.095434188842773438e+00 -1.679822087287902832e+00 1.313132047653198242e-01 -4.645526707172393799e-01 1.241923216730356216e-02
1.490000000000000000e+02 2.505398368835449219e+01 -7.836971759796142578e+00 -8.083902299404144287e-02 9.649990499019622803e-02 4.698264412581920624e-03 2.315289229154586792e-01
1.500000000000000000e+02 2.542901802062988281e+01 -7.073823928833007812e+00 -2.042542934417724609e+00 -1.022207289934158325e-01 -6.434290409088134766e-01 6.004206836223602295e-02
1.510000000000000000e+02 2.455770301818847656e+01 -7.561556339263916016e+00 -7.811692357063293457e-01 6.079409271478652954e-02 -2.161125540733337402e-01 9.154493361711502075e-02
1.520000000000000000e+02 2.346368980407714844e+01 -6.789967536926269531e+00 -2.040412902832031250e+00 2.186655998229980469e-03 -6.114678978919982910e-01 1.381104737520217896e-01
1.530000000000000000e+02 2.567355728149414062e+01 -7.641846179962158203e+00 -1.291138678789138794e-01 1.264660656452178955e-01 -7.943413802422583103e-04 4.493862092494964600e-01
1.540000000000000000e+02 2.592843055725097656e+01 -7.519900798797607422e+00 -5.270749330520629883e-01 4.606875032186508179e-02 -1.443018466234207153e-01 4.171322882175445557e-01
1.550000000000000000e+02 2.581547737121582031e+01 -6.853636741638183594e+00 -2.749350547790527344e+00 3.257799893617630005e-02 -8.150317668914794922e-01 1.490875184535980225e-01
1.560000000000000000e+02 2.576427841186523438e+01 -8.105031013488769531e+00 9.949774146080017090e-01 2.437736690044403076e-01 3.716253340244293213e-01 7.704283595085144043e-01
1.570000000000000000e+02 2.487398719787597656e+01 -6.965841770172119141e+00 -2.176043748855590820e+00 8.672766271047294140e-04 -6.525529026985168457e-01 1.438587456941604614e-01
1.580000000000000000e+02 2.552593040466308594e+01 -7.910122871398925781e+00 5.190382003784179688e-01 2.707349359989166260e-01 2.369319349527359009e-01 5.565533638000488281e-01
1.590000000000000000e+02 2.403853034973144531e+01 -7.832481384277343750e+00 -3.644711673259735107e-01 9.002526104450225830e-02 -8.233377337455749512e-02 4.048702120780944824e-02
1.600000000000000000e+02 2.339079284667968750e+01 -7.281452655792236328e+00 -1.288258075714111328e+00 2.443238720297813416e-02 -3.791477084159851074e-01 -1.896390132606029510e-02
1.610000000000000000e+02 2.755631446838378906e+01 -8.182134628295898438e+00 4.081745624542236328e+00 3.175629615783691406e+00 2.177212476730346680e+00 4.052576065063476562e+00
1.620000000000000000e+02 2.742131805419921875e+01 -6.931762695312500000e+00 -2.175442695617675781e+00 2.624236606061458588e-02 -6.447600722312927246e-01 1.068077757954597473e-01
1.630000000000000000e+02 3.037323379516601562e+01 -7.422477245330810547e+00 1.091063976287841797e+01 1.917920112609863281e+01 9.026952743530273438e+00 -2.856608629226684570e+00
1.640000000000000000e+02 3.051225662231445312e+01 -6.948056697845458984e+00 1.342137813568115234e+01 1.735482215881347656e+01 9.232859611511230469e+00 -7.975935339927673340e-01
1.650000000000000000e+02 2.998748397827148438e+01 -6.112451553344726562e+00 9.862255096435546875e+00 2.289488029479980469e+01 9.827140808105468750e+00 3.058213710784912109e+00
1.660000000000000000e+02 2.884396553039550781e+01 -5.449015617370605469e+00 3.841629266738891602e+00 1.539384937286376953e+01 5.770643711090087891e+00 -7.156116485595703125e+00
1.670000000000000000e+02 2.925792312622070312e+01 -5.415723323822021484e+00 2.808734893798828125e+00 2.000348854064941406e+01 6.843667030334472656e+00 -4.774675369262695312e+00
1.680000000000000000e+02 2.899463653564453125e+01 -7.913347721099853516e+00 3.898896455764770508e+00 1.889623069763183594e+01 6.838538169860839844e+00 7.382299900054931641e+00
1.690000000000000000e+02 2.802943038940429688e+01 -6.896886825561523438e+00 -1.751126527786254883e+00 -1.204405128955841064e-01 -5.614700913429260254e-01 8.132247626781463623e-02
1.700000000000000000e+02 2.614573287963867188e+01 -8.138047218322753906e+00 1.464493870735168457e+00 7.681454420089721680e-01 6.697917580604553223e-01 1.230666756629943848e+00
1.710000000000000000e+02 2.653796577453613281e+01 -8.140823364257812500e+00 2.114159822463989258e+00 7.474911808967590332e-01 8.584952950477600098e-01 1.656638622283935547e+00
1.720000000000000000e+02 2.741482543945312500e+01 -7.797042369842529297e+00 3.394207000732421875e+00 1.325203657150268555e+00 1.415823101997375488e+00 2.565690755844116211e+00
1.730000000000000000e+02 2.877918052673339844e+01 -8.153746604919433594e+00 4.036274909973144531e+00 1.443848228454589844e+01 5.542427062988281250e+00 7.412261962890625000e+00
1.740000000000000000e+02 2.825458717346191406e+01 -7.492885589599609375e+00 6.308927536010742188e+00 3.374102592468261719e+00 2.904909133911132812e+00 5.253304481506347656e+00
1.750000000000000000e+02 2.795145988464355469e+01 -7.392664909362792969e+00 4.004273891448974609e+00 1.217589974403381348e+00 1.566559195518493652e+00 2.743469476699829102e+00
1.760000000000000000e+02 2.634221267700195312e+01 -8.146715164184570312e+00 1.725622892379760742e+00 6.803422570228576660e-01 7.217895388603210449e-01 1.387971162796020508e+00
1.770000000000000000e+02 2.959467124938964844e+01 -5.468983650207519531e+00 3.275958776473999023e+00 2.114345169067382812e+01 7.325822830200195312e+00 -1.958984494209289551e+00
1.780000000000000000e+02 3.021220970153808594e+01 -6.555447101593017578e+00 1.442570400238037109e+01 1.963972663879394531e+01 1.021962928771972656e+01 1.899867177009582520e+00
1.790000000000000000e+02 3.044909095764160156e+01 -6.382162570953369141e+00 1.240571117401123047e+01 1.800680160522460938e+01 9.123753547668457031e+00 2.071550130844116211e+00
1.800000000000000000e+02 3.015634918212890625e+01 -7.177446842193603516e+00 1.360835075378417969e+01 2.038193511962890625e+01 1.019708633422851562e+01 -2.711148977279663086e+00
1.810000000000000000e+02 3.007500076293945312e+01 -7.378409385681152344e+00 1.154735565185546875e+01 2.162461853027343750e+01 9.951592445373535156e+00 -3.219793558120727539e+00
1.820000000000000000e+02 2.629586601257324219e+01 -5.350079059600830078e+00 2.057220220565795898e+00 9.503017067909240723e-01 9.022565484046936035e-01 -1.518925786018371582e+00
1.830000000000000000e+02 2.670069313049316406e+01 -5.349801540374755859e+00 2.717194080352783203e+00 1.325425028800964355e+00 1.212785720825195312e+00 -2.125961303710937500e+00
1.840000000000000000e+02 2.650051498413085938e+01 -5.354033946990966797e+00 2.270147323608398438e+00 9.742239117622375488e-01 9.733113646507263184e-01 -1.658125519752502441e+00
1.850000000000000000e+02 2.825644874572753906e+01 -5.397302627563476562e+00 4.975309371948242188e+00 7.942776679992675781e+00 3.875425815582275391e+00 -6.465544700622558594e+00
1.860000000000000000e+02 2.884292030334472656e+01 -5.722321033477783203e+00 4.816036224365234375e+00 1.597751808166503906e+01 6.238066196441650391e+00 -8.168888092041015625e+00
1.870000000000000000e+02 2.906163978576660156e+01 -5.439045429229736328e+00 3.217403173446655273e+00 1.812367439270019531e+01 6.402323246002197266e+00 -6.073142051696777344e+00
1.880000000000000000e+02 2.622728729248046875e+01 -6.617360591888427734e+00 -1.779763936996459961e+00 -4.527355544269084930e-03 -5.352873802185058594e-01 8.451881259679794312e-02
1.890000000000000000e+02 2.701126861572265625e+01 -6.632081508636474609e+00 -1.550579190254211426e+00 4.759154468774795532e-02 -4.508962929248809814e-01 -5.423142760992050171e-02
1.900000000000000000e+02 2.629471969604492188e+01 -5.563933849334716797e+00 1.555863142013549805e+00 6.583965420722961426e-01 6.642779111862182617e-01 -1.008790373802185059e+00
1.910000000000000000e+02 2.693866729736328125e+01 -5.487761974334716797e+00 2.991196632385253906e+00 1.379655718803405762e+00 1.311255693435668945e+00 -2.276101589202880859e+00
1.920000000000000000e+02 2.741686820983886719e+01 -6.610671520233154297e+00 -1.098292231559753418e+00 -3.244036110118031502e-03 -3.304608762264251709e-01 -1.114540621638298035e-01
1.930000000000000000e+02 2.783085632324218750e+01 -6.637474060058593750e+00 -6.483422517776489258e-01 5.068982392549514771e-02 -1.792957335710525513e-01 -1.695802807807922363e-01
1.940000000000000000e+02 2.787187385559082031e+01 -6.374549388885498047e+00 2.733966350555419922e+00 3.716340959072113037e-01 9.316801428794860840e-01 -1.372904300689697266e+00
1.950000000000000000e+02 2.803209114074707031e+01 -6.665929317474365234e+00 -3.695249259471893311e-01 -1.185860410332679749e-01 -1.464332938194274902e-01 -1.244525089859962463e-01
1.960000000000000000e+02 3.023497772216796875e+01 -6.751523017883300781e+00 1.520464611053466797e+01 1.915209388732910156e+01 1.030702209472656250e+01 3.541989922523498535e-01
1.970000000000000000e+02 2.968871688842773438e+01 -5.852963447570800781e+00 5.575546264648437500e+00 2.461259460449218750e+01 9.056442260742187500e+00 4.185364544391632080e-01
1.980000000000000000e+02 2.840932655334472656e+01 -5.775064945220947266e+00 6.400572299957275391e+00 8.252927780151367188e+00 4.396049976348876953e+00 -7.562951087951660156e+00
1.990000000000000000e+02 2.766209793090820312e+01 -7.208313465118408203e+00 1.131114363670349121e+00 2.480746805667877197e-01 4.137566983699798584e-01 9.146088361740112305e-01
2.000000000000000000e+02 2.840533256530761719e+01 -7.678740978240966797e+00 6.563519001007080078e+00 6.886964321136474609e+00 4.035145282745361328e+00 7.309611320495605469e+00
2.010000000000000000e+02 2.879509353637695312e+01 -7.880784034729003906e+00 4.862295627593994141e+00 1.516442584991455078e+01 6.008016586303710938e+00 8.350195884704589844e+00
2.020000000000000000e+02 2.939532089233398438e+01 -7.885045528411865234e+00 3.526780128479003906e+00 2.374085617065429688e+01 8.180291175842285156e+00 3.067732572555541992e+00
2.030000000000000000e+02 2.694535064697265625e+01 -8.109345436096191406e+00 2.862420320510864258e+00 1.307293891906738281e+00 1.250914335250854492e+00 2.320289373397827148e+00
2.040000000000000000e+02 2.675237274169921875e+01 -7.153046131134033203e+00 -1.167232632637023926e+00 2.386481687426567078e-02 -3.430103361606597900e-01 2.245993763208389282e-01
2.050000000000000000e+02 2.696814918518066406e+01 -7.203818798065185547e+00 -6.951717734336853027e-01 4.955423995852470398e-02 -1.936852633953094482e-01 3.222095966339111328e-01
2.060000000000000000e+02 2.623134994506835938e+01 -7.295324802398681641e+00 -8.599475026130676270e-01 -1.290802378207445145e-02 -2.618566751480102539e-01 1.466826796531677246e-01
2.070000000000000000e+02 2.621467590332031250e+01 -6.865130424499511719e+00 -2.857510089874267578e+00 -1.673943996429443359e-01 -9.074713587760925293e-01 1.365495920181274414e-01
2.080000000000000000e+02 2.745799636840820312e+01 -5.396913528442382812e+00 4.233784198760986328e+00 2.755626201629638672e+00 2.096822977066040039e+00 -3.745223760604858398e+00
2.090000000000000000e+02 2.864632415771484375e+01 -5.811000823974609375e+00 5.989463806152343750e+00 1.225621604919433594e+01 5.473703861236572266e+00 -8.590698242187500000e+00
2.100000000000000000e+02 2.863871002197265625e+01 -5.432834148406982422e+00 4.407567977905273438e+00 1.244156742095947266e+01 5.054740428924560547e+00 -7.423270225524902344e+00
2.110000000000000000e+02 2.762585830688476562e+01 -6.616270542144775391e+00 -8.939239978790283203e-01 3.025347739458084106e-02 -2.591011524200439453e-01 -1.235208511352539062e-01
2.120000000000000000e+02 2.816294479370117188e+01 -6.231922149658203125e+00 5.854271411895751953e+00 1.896895885467529297e+00 2.325350284576416016e+00 -3.783621072769165039e+00
2.130000000000000000e+02 2.927306747436523438e+01 -5.716572761535644531e+00 3.469520330429077148e+00 2.270502090454101562e+01 7.852362155914306641e+00 -4.726247787475585938e+00
2.140000000000000000e+02 2.955191612243652344e+01 -5.607975959777832031e+00 3.725604295730590820e+00 2.283365058898925781e+01 7.967776298522949219e+00 -1.822029829025268555e+00
2.150000000000000000e+02 2.949003791809082031e+01 -5.772056579589843750e+00 4.147456169128417969e+00 2.446899795532226562e+01 8.584936141967773438e+00 -1.811964392662048340e+00
2.160000000000000000e+02 3.016910934448242188e+01 -5.938257694244384766e+00 8.460512161254882812e+00 2.098461532592773438e+01 8.833538055419921875e+00 2.604071378707885742e+00
2.170000000000000000e+02 3.024938201904296875e+01 -6.371760845184326172e+00 1.276014900207519531e+01 1.977263641357421875e+01 9.759835243225097656e+00 2.438121557235717773e+00
2.180000000000000000e+02 2.987312507629394531e+01 -5.673209667205810547e+00 5.265024662017822266e+00 2.232992935180664062e+01 8.278486251831054688e+00 7.759752869606018066e-01
2.190000000000000000e+02 2.806565284729003906e+01 -5.402194976806640625e+00 5.112301349639892578e+00 6.269414424896240234e+00 3.414514780044555664e+00 -5.958955287933349609e+00
2.200000000000000000e+02 2.859277725219726562e+01 -7.815756797790527344e+00 5.909370422363281250e+00 1.095227432250976562e+01 5.058493137359619141e+00 8.319066047668457031e+00
2.210000000000000000e+02 2.898506355285644531e+01 -8.167819023132324219e+00 3.336713790893554688e+00 1.712034416198730469e+01 6.137117385864257812e+00 6.527149200439453125e+00
2.220000000000000000e+02 2.919442939758300781e+01 -7.915072917938232422e+00 3.361358642578125000e+00 2.170795249938964844e+01 7.520793437957763672e+00 5.497482776641845703e+00
2.230000000000000000e+02 2.749096488952636719e+01 -8.009112358093261719e+00 3.836609601974487305e+00 2.149994134902954102e+00 1.795981168746948242e+00 3.358061313629150391e+00
2.240000000000000000e+02 2.783133697509765625e+01 -6.911911487579345703e+00 -1.907252669334411621e+00 5.429381877183914185e-02 -5.558876395225524902e-01 1.160065904259681702e-01
2.250000000000000000e+02 2.994946479797363281e+01 -7.550518035888671875e+00 8.911276817321777344e+00 2.316564559936523438e+01 9.623076438903808594e+00 -2.838104248046875000e+00
2.260000000000000000e+02 2.957224273681640625e+01 -8.128235816955566406e+00 3.132164239883422852e+00 2.187849235534667969e+01 7.503197193145751953e+00 1.998130440711975098e+00
2.270000000000000000e+02 2.856464958190917969e+01 -8.125324249267578125e+00 4.744853496551513672e+00 1.117488002777099609e+01 4.775919914245605469e+00 7.500760078430175781e+00
2.280000000000000000e+02 3.021177864074707031e+01 -6.961252689361572266e+00 1.509642124176025391e+01 1.929420852661132812e+01 1.031718826293945312e+01 -1.207028269767761230e+00
2.290000000000000000e+02 2.973053932189941406e+01 -8.090786933898925781e+00 3.876817464828491211e+00 2.162678146362304688e+01 7.651079654693603516e+00 4.848029315471649170e-01
2.300000000000000000e+02 3.012286758422851562e+01 -7.732900142669677734e+00 7.683855533599853516e+00 2.123752403259277344e+01 8.676413536071777344e+00 -2.502934217453002930e+00
2.310000000000000000e+02 3.025394058227539062e+01 -7.564258575439453125e+00 9.577297210693359375e+00 2.022188377380371094e+01 8.939754486083984375e+00 -2.910495281219482422e+00
2.320000000000000000e+02 3.028618621826171875e+01 -6.085385799407958984e+00 9.797758102416992188e+00 1.962973594665527344e+01 8.828248023986816406e+00 2.734752655029296875e+00
2.330000000000000000e+02 3.045889282226562500e+01 -7.283752918243408203e+00 1.168080139160156250e+01 1.798169517517089844e+01 8.898748397827148438e+00 -2.169640064239501953e+00
2.340000000000000000e+02 3.003182792663574219e+01 -5.799014091491699219e+00 6.904421329498291016e+00 2.202195930480957031e+01 8.677913665771484375e+00 2.000302076339721680e+00
2.350000000000000000e+02 3.048649024963378906e+01 -6.757047653198242188e+00 1.346481990814208984e+01 1.738963317871093750e+01 9.256336212158203125e+00 2.395409196615219116e-01
2.360000000000000000e+02 2.966340065002441406e+01 -7.961338996887207031e+00 4.107696533203125000e+00 2.304309463500976562e+01 8.145236968994140625e+00 7.293094992637634277e-01
2.370000000000000000e+02 2.959299087524414062e+01 -7.801146507263183594e+00 4.510281562805175781e+00 2.464573287963867188e+01 8.746804237365722656e+00 6.797956228256225586e-01
2.380000000000000000e+02 3.032019805908203125e+01 -7.240963459014892578e+00 1.250490283966064453e+01 1.919660758972167969e+01 9.510453224182128906e+00 -2.474664449691772461e+00
2.390000000000000000e+02 2.973339462280273438e+01 -5.554499149322509766e+00 3.980296373367309570e+00 2.226553344726562500e+01 7.873749256134033203e+00 -4.106276929378509521e-01
2.400000000000000000e+02 3.046993255615234375e+01 -6.559535503387451172e+00 1.303507423400878906e+01 1.752743911743164062e+01 9.168753623962402344e+00 1.299146056175231934e+00
2.410000000000000000e+02 3.000555610656738281e+01 -7.890473365783691406e+00 6.037379264831542969e+00 2.181435394287109375e+01 8.355519294738769531e+00 -1.737066864967346191e+00
2.420000000000000000e+02 2.978462791442871094e+01 -7.686639308929443359e+00 6.658441066741943359e+00 2.434757804870605469e+01 9.301805496215820312e+00 -1.699594855308532715e+00
2.430000000000000000e+02 2.786669921875000000e+01 -5.423492431640625000e+00 4.928421020507812500e+00 4.607313156127929688e+00 2.860720396041870117e+00 -5.109946727752685547e+00
2.440000000000000000e+02 2.725248718261718750e+01 -5.384920597076416016e+00 3.712755918502807617e+00 2.223929643630981445e+00 1.781005620956420898e+00 -3.109748125076293945e+00
2.450000000000000000e+02 2.844609069824218750e+01 -5.403188228607177734e+00 4.736134052276611328e+00 9.774548530578613281e+00 4.353204727172851562e+00 -7.004470825195312500e+00
2.460000000000000000e+02 2.642678260803222656e+01 -6.626493930816650391e+00 -1.799623489379882812e+00 1.659332029521465302e-02 -5.349090695381164551e-01 6.762497872114181519e-02
2.470000000000000000e+02 2.722419738769531250e+01 -5.604163646697998047e+00 3.388712167739868164e+00 1.727740168571472168e+00 1.534935712814331055e+00 -2.625429868698120117e+00
2.480000000000000000e+02 2.697933197021484375e+01 -6.409817218780517578e+00 -3.551945984363555908e-01 7.899685204029083252e-02 -8.285932242870330811e-02 -2.164370715618133545e-01
2.490000000000000000e+02 2.795438766479492188e+01 -6.103204250335693359e+00 5.032001018524169922e+00 1.912931919097900391e+00 2.083479881286621094e+00 -3.500358819961547852e+00
2.500000000000000000e+02 2.717205429077148438e+01 -6.371892452239990234e+00 3.792476058006286621e-01 1.980977505445480347e-01 1.732036024332046509e-01 -4.733054041862487793e-01
2.510000000000000000e+02 2.706175994873046875e+01 -5.356261730194091797e+00 3.296116590499877930e+00 1.961338996887207031e+00 1.577236652374267578e+00 -2.729759931564331055e+00
2.520000000000000000e+02 2.721255874633789062e+01 -6.928043842315673828e+00 -2.286324262619018555e+00 -1.543861534446477890e-02 -6.905288696289062500e-01 9.894276410341262817e-02
2.530000000000000000e+02 2.633513641357421875e+01 -7.960286617279052734e+00 1.356456637382507324e+00 5.426501631736755371e-01 5.697320699691772461e-01 1.171290874481201172e+00
2.540000000000000000e+02 2.615439033508300781e+01 -7.934039115905761719e+00 9.992792010307312012e-01 4.839077889919281006e-01 4.449560940265655518e-01 8.777288794517517090e-01
2.550000000000000000e+02 2.641384506225585938e+01 -6.866023540496826172e+00 -2.750999927520751953e+00 5.028545856475830078e-02 -8.102143406867980957e-01 3.134243935346603394e-02
2.560000000000000000e+02 2.645792579650878906e+01 -7.243039131164550781e+00 -1.019605875015258789e+00 3.001067042350769043e-02 -2.968785762786865234e-01 3.061577081680297852e-01
2.570000000000000000e+02 2.640640830993652344e+01 -7.062815189361572266e+00 -1.939547419548034668e+00 1.706686429679393768e-02 -5.767441987991333008e-01 1.505150496959686279e-01
2.580000000000000000e+02 2.938963890075683594e+01 -8.143213272094726562e+00 2.898347377777099609e+00 2.101051521301269531e+01 7.172658443450927734e+00 3.498686790466308594e+00
2.590000000000000000e+02 2.814391517639160156e+01 -8.156628608703613281e+00 4.988307952880859375e+00 6.351134300231933594e+00 3.401832580566406250e+00 6.196779727935791016e+00
2.600000000000000000e+02 2.834858322143554688e+01 -8.126168251037597656e+00 5.034546375274658203e+00 8.530650138854980469e+00 4.069559097290039062e+00 6.977219104766845703e+00
2.610000000000000000e+02 2.776360893249511719e+01 -7.648351192474365234e+00 4.426205158233642578e+00 1.707858920097351074e+00 1.840219140052795410e+00 3.279291152954101562e+00
2.620000000000000000e+02 2.794419860839843750e+01 -8.168029785156250000e+00 4.807268619537353516e+00 4.826878547668457031e+00 2.890244245529174805e+00 5.422754287719726562e+00
2.630000000000000000e+02 2.716918182373046875e+01 -8.114034652709960938e+00 3.302469015121459961e+00 1.603641033172607422e+00 1.471832990646362305e+00 2.764817953109741211e+00
2.640000000000000000e+02 2.717041778564453125e+01 -7.813625812530517578e+00 2.702798604965209961e+00 9.667972326278686523e-01 1.100878715515136719e+00 2.069291114807128906e+00
2.650000000000000000e+02 2.628083419799804688e+01 -5.988498687744140625e+00 5.687080621719360352e-01 2.474743127822875977e-01 2.448547035455703735e-01 -4.845890402793884277e-01
2.660000000000000000e+02 2.644438171386718750e+01 -6.423086166381835938e+00 -9.766899347305297852e-01 8.707359433174133301e-02 -2.668848931789398193e-01 -5.645385477691888809e-03
2.670000000000000000e+02 2.626052284240722656e+01 -6.197599411010742188e+00 -1.236231178045272827e-01 9.394031763076782227e-02 -8.904839865863323212e-03 -1.588677316904067993e-01
2.680000000000000000e+02 2.629245376586914062e+01 -5.777126312255859375e+00 1.179259657859802246e+00 2.884080410003662109e-01 4.403002858161926270e-01 -7.074955701828002930e-01
2.690000000000000000e+02 2.637809562683105469e+01 -7.797927856445312500e+00 9.629545807838439941e-01 4.368072450160980225e-01 4.199285507202148438e-01 9.863070249557495117e-01
2.700000000000000000e+02 2.664419364929199219e+01 -7.404670715332031250e+00 -2.801558747887611389e-02 1.007141545414924622e-01 2.180956862866878510e-02 5.153115391731262207e-01
2.710000000000000000e+02 2.787347984313964844e+01 -7.156535625457763672e+00 1.486292362213134766e+00 1.698972731828689575e-01 4.968568980693817139e-01 1.021436572074890137e+00
2.720000000000000000e+02 2.662314987182617188e+01 -6.636292457580566406e+00 -1.782101035118103027e+00 2.727176528424024582e-03 -5.338121652603149414e-01 4.474026337265968323e-02
2.730000000000000000e+02 2.667419624328613281e+01 -7.850338935852050781e+00 1.630634546279907227e+00 5.383417606353759766e-01 6.506928801536560059e-01 1.322358369827270508e+00
2.740000000000000000e+02 2.680426597595214844e+01 -6.898125171661376953e+00 -2.533110141754150391e+00 3.743841778486967087e-03 -7.588098645210266113e-01 1.143623888492584229e-01
2.750000000000000000e+02 2.806769371032714844e+01 -7.106570243835449219e+00 1.943176388740539551e+00 3.982996940612792969e-01 7.024428248405456543e-01 1.233767509460449219e+00
2.760000000000000000e+02 2.717254638671875000e+01 -7.517778873443603516e+00 1.541207671165466309e+00 3.611381053924560547e-01 5.707037448883056641e-01 1.154889345169067383e+00
2.770000000000000000e+02 2.688888168334960938e+01 -5.336816787719726562e+00 3.034835338592529297e+00 1.544518947601318359e+00 1.373806238174438477e+00 -2.356045007705688477e+00
2.780000000000000000e+02 2.847238349914550781e+01 -5.937422275543212891e+00 7.001529216766357422e+00 7.880534172058105469e+00 4.464619159698486328e+00 -7.778327941894531250e+00
2.790000000000000000e+02 2.681621360778808594e+01 -6.637286663055419922e+00 -1.705244660377502441e+00 2.579563856124877930e-02 -5.038347244262695312e-01 1.163006667047739029e-02
2.800000000000000000e+02 2.804413795471191406e+01 -5.847412109375000000e+00 5.657377719879150391e+00 3.761567831039428711e+00 2.825683593750000000e+00 -5.013411521911621094e+00
2.810000000000000000e+02 2.710277366638183594e+01 -6.030038356781005859e+00 1.780874133110046387e+00 4.237126708030700684e-01 6.613760590553283691e-01 -1.141517996788024902e+00
2.820000000000000000e+02 2.741724205017089844e+01 -7.526175022125244141e+00 2.309600353240966797e+00 6.681208014488220215e-01 8.933163285255432129e-01 1.670783281326293945e+00
2.830000000000000000e+02 2.806970977783203125e+01 -7.922454357147216797e+00 5.455676078796386719e+00 4.827104091644287109e+00 3.084833860397338867e+00 5.654350280761718750e+00
2.840000000000000000e+02 2.823652648925781250e+01 -5.843739986419677734e+00 6.217385292053222656e+00 5.326733112335205078e+00 3.463235616683959961e+00 -6.223175525665283203e+00
2.850000000000000000e+02 2.739690208435058594e+01 -6.308214187622070312e+00 1.434429526329040527e+00 2.172715216875076294e-01 4.955103099346160889e-01 -8.500478863716125488e-01
2.860000000000000000e+02 2.691283035278320312e+01 -7.496110916137695312e+00 8.656991124153137207e-01 2.946382164955139160e-01 3.481011986732482910e-01 8.935768604278564453e-01
2.870000000000000000e+02 2.830373382568359375e+01 -6.059839248657226562e+00 6.905561447143554688e+00 4.649292945861816406e+00 3.466456174850463867e+00 -6.027522563934326172e+00
2.880000000000000000e+02 2.701319503784179688e+01 -5.658401489257812500e+00 2.945724248886108398e+00 1.159200549125671387e+00 1.231477379798889160e+00 -2.023975372314453125e+00
2.890000000000000000e+02 2.654574012756347656e+01 -5.789933204650878906e+00 1.460329771041870117e+00 5.177477598190307617e-01 5.934232473373413086e-01 -9.398687481880187988e-01
2.900000000000000000e+02 2.653342819213867188e+01 -6.015421867370605469e+00 8.777192234992980957e-01 2.548911273479461670e-01 3.397831022739410400e-01 -5.961154103279113770e-01
2.910000000000000000e+02 2.662902450561523438e+01 -6.449478149414062500e+00 -9.441834092140197754e-01 2.534347027540206909e-02 -2.756519615650177002e-01 -7.195784896612167358e-02
2.920000000000000000e+02 2.762589454650878906e+01 -7.757802486419677734e+00 4.197498798370361328e+00 1.658457875251770020e+00 1.756786942481994629e+00 3.181555986404418945e+00
2.930000000000000000e+02 2.668510246276855469e+01 -6.287366867065429688e+00 -2.528404258191585541e-02 1.200838983058929443e-01 2.843995764851570129e-02 -2.259034216403961182e-01
2.940000000000000000e+02 2.673622894287109375e+01 -8.121246337890625000e+00 2.410261392593383789e+00 9.004850387573242188e-01 9.932239055633544922e-01 1.845011353492736816e+00
2.950000000000000000e+02 2.649856948852539062e+01 -7.626459121704101562e+00 6.184884905815124512e-01 2.202338874340057373e-01 2.516167163848876953e-01 6.968638300895690918e-01
2.960000000000000000e+02 2.617978858947753906e+01 -7.731007099151611328e+00 6.710948944091796875e-01 1.188306659460067749e-01 2.369776666164398193e-01 6.469115614891052246e-01
2.970000000000000000e+02 2.649648094177246094e+01 -7.937850475311279297e+00 1.473410367965698242e+00 4.820442199707031250e-01 5.866363644599914551e-01 1.217920899391174316e+00
2.980000000000000000e+02 2.622489356994628906e+01 -7.519515037536621094e+00 -2.307290583848953247e-01 1.063638702034950256e-01 -3.730955719947814941e-02 4.244446456432342529e-01
2.990000000000000000e+02 2.621106147766113281e+01 -7.075571060180664062e+00 -1.937772631645202637e+00 -2.328627556562423706e-01 -6.511906385421752930e-01 1.572819203138351440e-01
3.000000000000000000e+02 2.657110977172851562e+01 -7.084181308746337891e+00 -1.608704566955566406e+00 1.065950170159339905e-01 -4.506328403949737549e-01 1.560200601816177368e-01
3.010000000000000000e+02 2.624166297912597656e+01 -6.407268524169921875e+00 -1.073030114173889160e+00 -4.920031875371932983e-02 -3.366691470146179199e-01 -3.058332391083240509e-02
3.020000000000000000e+02 2.660835266113281250e+01 -6.876525402069091797e+00 -2.672875404357910156e+00 1.688304170966148376e-02 -7.967976927757263184e-01 9.598512947559356689e-02
3.030000000000000000e+02 2.651875305175781250e+01 -5.567253112792968750e+00 2.105081558227539062e+00 7.138713002204895020e-01 8.456858396530151367e-01 -1.390581727027893066e+00
3.040000000000000000e+02 2.740557479858398438e+01 -5.635945796966552734e+00 3.850258111953735352e+00 1.931408762931823730e+00 1.734500050544738770e+00 -2.984929800033569336e+00
3.050000000000000000e+02 2.700605201721191406e+01 -6.916931152343750000e+00 -2.400752067565917969e+00 -6.305937189608812332e-03 -7.221174240112304688e-01 1.122621968388557434e-01
3.060000000000000000e+02 2.743039894104003906e+01 -7.234076499938964844e+00 6.249555945396423340e-01 1.357220858335494995e-01 2.282032966613769531e-01 7.491902112960815430e-01
3.070000000000000000e+02 2.762856101989746094e+01 -6.925528526306152344e+00 -2.053065776824951172e+00 -3.221188485622406006e-02 -6.255832910537719727e-01 1.078338101506233215e-01
3.080000000000000000e+02 2.814216804504394531e+01 -7.306251525878906250e+00 4.766665458679199219e+00 1.169753909111022949e+00 1.780925869941711426e+00 3.001592636108398438e+00
3.090000000000000000e+02 2.808082580566406250e+01 -7.612320899963378906e+00 5.544659137725830078e+00 2.815815448760986328e+00 2.508142471313476562e+00 4.605091094970703125e+00
3.100000000000000000e+02 2.737533378601074219e+01 -8.154811859130859375e+00 3.657797813415527344e+00 2.110709428787231445e+00 1.730552196502685547e+00 3.270200967788696289e+00
3.110000000000000000e+02 2.774526405334472656e+01 -8.171298980712890625e+00 4.453989505767822266e+00 3.916150808334350586e+00 2.511042118072509766e+00 4.713368892669677734e+00
3.120000000000000000e+02 2.769524383544921875e+01 -7.956045627593994141e+00 4.262206077575683594e+00 2.804734945297241211e+00 2.120082378387451172e+00 4.016593933105468750e+00
3.130000000000000000e+02 2.824241828918457031e+01 -7.838170528411865234e+00 5.991091728210449219e+00 6.179198265075683594e+00 3.651087045669555664e+00 6.548230648040771484e+00
3.140000000000000000e+02 2.918725395202636719e+01 -8.166713714599609375e+00 2.860409736633300781e+00 1.947008705139160156e+01 6.699149131774902344e+00 5.213382720947265625e+00
3.150000000000000000e+02 2.988396644592285156e+01 -8.008316993713378906e+00 4.514352321624755859e+00 2.170900154113769531e+01 7.867006301879882812e+00 -3.550885021686553955e-01
3.160000000000000000e+02 2.984052848815917969e+01 -7.863710880279541016e+00 5.482473850250244141e+00 2.298613548278808594e+01 8.540582656860351562e+00 -1.065159201622009277e+00
3.170000000000000000e+02 3.050908470153808594e+01 -7.116801738739013672e+00 1.232730484008789062e+01 1.756166648864746094e+01 8.966691017150878906e+00 -1.732715010643005371e+00
3.180000000000000000e+02 3.037716102600097656e+01 -7.046783924102783203e+00 1.365766334533691406e+01 1.831385040283203125e+01 9.591454505920410156e+00 -1.518086791038513184e+00
3.190000000000000000e+02 3.038959312438964844e+01 -6.228361129760742188e+00 1.111082267761230469e+01 1.887697410583496094e+01 8.996338844299316406e+00 2.692912340164184570e+00
3.200000000000000000e+02 3.009886932373046875e+01 -6.262787342071533203e+00 1.206973171234130859e+01 2.141068077087402344e+01 1.004412364959716797e+01 3.071085214614868164e+00
3.210000000000000000e+02 2.985070228576660156e+01 -5.973495960235595703e+00 7.647256374359130859e+00 2.400530433654785156e+01 9.495768547058105469e+00 2.221738815307617188e+00
3.220000000000000000e+02 2.942751693725585938e+01 -5.418778896331787109e+00 2.996760606765747070e+00 2.072737503051757812e+01 7.117240905761718750e+00 -3.030968427658081055e+00
3.230000000000000000e+02 2.935668563842773438e+01 -5.551261901855468750e+00 3.135503053665161133e+00 2.163149452209472656e+01 7.430099487304687500e+00 -3.821211099624633789e+00
3.240000000000000000e+02 2.905801963806152344e+01 -5.693654060363769531e+00 3.784076452255249023e+00 2.000366592407226562e+01 7.136322498321533203e+00 -6.727468490600585938e+00
3.250000000000000000e+02 2.855227279663085938e+01 -5.653895378112792969e+00 5.494341850280761719e+00 1.112755107879638672e+01 4.986567497253417969e+00 -7.828917503356933594e+00
3.260000000000000000e+02 2.840571975708007812e+01 -5.605292797088623047e+00 5.425730228424072266e+00 8.855090141296386719e+00 4.284245967864990234e+00 -7.236194610595703125e+00
3.270000000000000000e+02 2.823971366882324219e+01 -5.614810466766357422e+00 5.590858936309814453e+00 7.000313758850097656e+00 3.777351856231689453e+00 -6.601346969604492188e+00
3.280000000000000000e+02 2.807131767272949219e+01 -5.626463413238525391e+00 5.635909080505371094e+00 5.596793174743652344e+00 3.369810819625854492e+00 -5.922427654266357422e+00
3.290000000000000000e+02 2.790288925170898438e+01 -5.692919731140136719e+00 5.280399322509765625e+00 3.549633026123046875e+00 2.649009704589843750e+00 -4.658580303192138672e+00
3.300000000000000000e+02 2.766016769409179688e+01 -5.424237251281738281e+00 4.558582782745361328e+00 3.491158008575439453e+00 2.414922237396240234e+00 -4.377419948577880859e+00
3.310000000000000000e+02 2.702117729187011719e+01 -6.216474533081054688e+00 9.295235276222229004e-01 2.410899549722671509e-01 3.511840403079986572e-01 -6.212573051452636719e-01
3.320000000000000000e+02 2.679629898071289062e+01 -6.433721542358398438e+00 -6.339018344879150391e-01 1.104331612586975098e-01 -1.570406109094619751e-01 -1.683739870786666870e-01
3.330000000000000000e+02 2.721125793457031250e+01 -6.621922492980957031e+00 -1.317984461784362793e+00 2.164254337549209595e-02 -3.889025747776031494e-01 -1.068195849657058716e-01
3.340000000000000000e+02 2.807599449157714844e+01 -6.448532104492187500e+00 3.130831718444824219e+00 6.229320168495178223e-01 1.126129150390625000e+00 -1.640384793281555176e+00
3.350000000000000000e+02 2.673426818847656250e+01 -5.543996334075927734e+00 2.466187238693237305e+00 9.281635284423828125e-01 1.018305182456970215e+00 -1.669589161872863770e+00
3.360000000000000000e+02 2.690425682067871094e+01 -5.932505607604980469e+00 1.747414231300354004e+00 5.530766844749450684e-01 6.901472806930541992e-01 -1.065544962882995605e+00
3.370000000000000000e+02 2.678940582275390625e+01 -5.747980594635009766e+00 2.113497257232666016e+00 5.994535088539123535e-01 8.138852119445800781e-01 -1.320734143257141113e+00
3.380000000000000000e+02 2.648088645935058594e+01 -6.223014831542968750e+00 -2.408063411712646484e-02 1.040841713547706604e-01 2.400106005370616913e-02 -2.866186499595642090e-01
3.390000000000000000e+02 2.678263854980468750e+01 -6.107419967651367188e+00 8.881864547729492188e-01 2.851030528545379639e-01 3.519868552684783936e-01 -6.418072581291198730e-01
3.400000000000000000e+02 2.719544029235839844e+01 -7.225944042205810547e+00 -9.083771705627441406e-02 1.563995778560638428e-01 1.966855674982070923e-02 5.453255176544189453e-01
3.410000000000000000e+02 2.774673461914062500e+01 -7.451687335968017578e+00 3.316045522689819336e+00 1.009478211402893066e+00 1.297657132148742676e+00 2.292388200759887695e+00
3.420000000000000000e+02 2.761350250244140625e+01 -7.568557739257812500e+00 2.983931541442871094e+00 9.012143015861511230e-01 1.165543794631958008e+00 2.138375282287597656e+00
3.430000000000000000e+02 2.789501762390136719e+01 -7.947736263275146484e+00 4.744981765747070312e+00 3.694162368774414062e+00 2.531743288040161133e+00 4.750968456268310547e+00
3.440000000000000000e+02 2.764910888671875000e+01 -6.316860675811767578e+00 2.242224693298339844e+00 4.333228468894958496e-01 8.026642203330993652e-01 -1.175351381301879883e+00
3.450000000000000000e+02 2.793097877502441406e+01 -7.753131866455078125e+00 5.110998630523681641e+00 3.019255638122558594e+00 2.439076185226440430e+00 4.333998203277587891e+00
3.460000000000000000e+02 2.757260513305664062e+01 -5.915041923522949219e+00 3.581898450851440430e+00 1.281705260276794434e+00 1.459081053733825684e+00 -2.483099699020385742e+00
3.470000000000000000e+02 2.707937240600585938e+01 -5.843493461608886719e+00 2.751469135284423828e+00 7.407721281051635742e-01 1.047672390937805176e+00 -1.631546020507812500e+00
3.480000000000000000e+02 2.758803176879882812e+01 -5.687496185302734375e+00 4.459742069244384766e+00 2.189148902893066406e+00 1.994667172431945801e+00 -3.466642141342163086e+00
3.490000000000000000e+02 2.773679542541503906e+01 -5.808581352233886719e+00 4.818915367126464844e+00 2.421592235565185547e+00 2.172152280807495117e+00 -3.737114191055297852e+00
3.500000000000000000e+02 2.690909767150878906e+01 -7.802261829376220703e+00 1.925019145011901855e+00 6.013730764389038086e-01 7.579177021980285645e-01 1.448275446891784668e+00
3.510000000000000000e+02 2.735344696044921875e+01 -6.009739398956298828e+00 2.654145002365112305e+00 8.131560683250427246e-01 1.040190339088439941e+00 -1.734433770179748535e+00
3.520000000000000000e+02 2.727600479125976562e+01 -5.785306453704833984e+00 3.374478816986083984e+00 1.309752583503723145e+00 1.405269384384155273e+00 -2.259933710098266602e+00
3.530000000000000000e+02 2.772585678100585938e+01 -6.042853355407714844e+00 3.968950986862182617e+00 1.528270602226257324e+00 1.649166464805603027e+00 -2.742078781127929688e+00
3.540000000000000000e+02 2.507684326171875000e+01 -5.938380718231201172e+00 -3.176018893718719482e-01 1.071676909923553467e-01 -6.313025951385498047e-02 -4.859998077154159546e-02
3.550000000000000000e+02 2.553860092163085938e+01 -6.362415790557861328e+00 -1.344276666641235352e+00 -4.855260998010635376e-02 -4.178487956523895264e-01 1.287452429533004761e-01
3.560000000000000000e+02 2.515307807922363281e+01 -6.413269996643066406e+00 -1.644540786743164062e+00 2.448471821844577789e-02 -4.860168397426605225e-01 1.467575430870056152e-01
3.570000000000000000e+02 2.462289810180664062e+01 -6.392024517059326172e+00 -1.568049311637878418e+00 -2.165104821324348450e-02 -4.769100844860076904e-01 1.969254463911056519e-01
3.580000000000000000e+02 2.599573707580566406e+01 -5.558395385742187500e+00 1.277585506439208984e+00 2.177550047636032104e-01 4.486021399497985840e-01 -7.962678074836730957e-01
3.590000000000000000e+02 2.364456939697265625e+01 -5.407219409942626953e+00 -1.629710942506790161e-01 6.626839935779571533e-02 -2.901080809533596039e-02 4.424110054969787598e-02
3.600000000000000000e+02 2.450213813781738281e+01 -5.965750694274902344e+00 -7.075358629226684570e-01 4.766030237078666687e-02 -1.979626566171646118e-01 6.360010057687759399e-02
3.610000000000000000e+02 2.352313041687011719e+01 -6.139785766601562500e+00 -1.161774039268493652e+00 -2.812989242374897003e-02 -3.569711744785308838e-01 1.957975775003433228e-01
3.620000000000000000e+02 2.600976753234863281e+01 -5.774143695831298828e+00 9.117109775543212891e-01 2.763796150684356689e-01 3.564271926879882812e-01 -6.546332836151123047e-01
3.630000000000000000e+02 2.603513145446777344e+01 -6.160854816436767578e+00 -3.110702633857727051e-01 1.242657303810119629e-01 -5.604135990142822266e-02 -8.160352706909179688e-02
3.640000000000000000e+02 2.597669029235839844e+01 -6.350751399993896484e+00 -8.228088617324829102e-01 1.169806942343711853e-01 -2.117484360933303833e-01 6.652780342847108841e-03
3.650000000000000000e+02 2.588277626037597656e+01 -6.574182033538818359e+00 -1.815857291221618652e+00 7.676204200834035873e-03 -5.424543023109436035e-01 1.380409747362136841e-01
3.660000000000000000e+02 2.604412269592285156e+01 -5.978479862213134766e+00 2.494017630815505981e-01 1.945801079273223877e-01 1.331945657730102539e-01 -3.905602097511291504e-01
3.670000000000000000e+02 2.591883277893066406e+01 -5.331462860107421875e+00 1.513860940933227539e+00 5.047913193702697754e-01 6.055957078933715820e-01 -1.009642004966735840e+00
3.680000000000000000e+02 2.571596527099609375e+01 -6.197393894195556641e+00 -6.219936609268188477e-01 5.299803987145423889e-02 -1.706987023353576660e-01 -6.658646464347839355e-02
3.690000000000000000e+02 2.561928939819335938e+01 -5.505227565765380859e+00 9.915194511413574219e-01 4.246806800365447998e-01 4.248600304126739502e-01 -6.368498206138610840e-01
3.700000000000000000e+02 2.509426689147949219e+01 -5.424490451812744141e+00 6.303075551986694336e-01 2.821364700794219971e-01 2.737331986427307129e-01 -4.086366295814514160e-01
3.710000000000000000e+02 2.548172569274902344e+01 -6.026030063629150391e+00 -3.718030154705047607e-01 1.562551222741603851e-02 -1.068532541394233704e-01 -1.171883121132850647e-01
3.720000000000000000e+02 2.439028549194335938e+01 -5.419469833374023438e+00 1.495192945003509521e-01 1.551215946674346924e-01 9.139227122068405151e-02 -1.376959532499313354e-01
3.730000000000000000e+02 2.411343002319335938e+01 -6.280100822448730469e+00 -1.317343831062316895e+00 -8.980435319244861603e-03 -3.978972733020782471e-01 2.057963758707046509e-01
3.740000000000000000e+02 2.568700218200683594e+01 -5.820874214172363281e+00 3.028274178504943848e-01 2.091168016195297241e-01 1.535832583904266357e-01 -4.174215197563171387e-01
3.750000000000000000e+02 2.585097312927246094e+01 -6.039360046386718750e+00 -2.244273722171783447e-01 1.116662845015525818e-01 -3.382832556962966919e-02 -2.200034558773040771e-01
3.760000000000000000e+02 2.146717453002929688e+01 -5.077126979827880859e+00 -2.195028066635131836e-01 -3.560721501708030701e-02 -7.653300464153289795e-02 2.781736552715301514e-01
3.770000000000000000e+02 2.134441947937011719e+01 -5.806876659393310547e+00 -7.316920757293701172e-01 -5.458983033895492554e-02 -2.358845770359039307e-01 2.199310958385467529e-01
3.780000000000000000e+02 2.061148262023925781e+01 -5.684748649597167969e+00 -5.085638761520385742e-01 -3.126601874828338623e-02 -1.619489639997482300e-01 2.106699645519256592e-01
3.790000000000000000e+02 2.207760429382324219e+01 -5.928263664245605469e+00 -9.118919372558593750e-01 -4.070982709527015686e-02 -2.857805490493774414e-01 2.394941002130508423e-01
3.800000000000000000e+02 2.290797805786132812e+01 -5.314875125885009766e+00 -2.662604749202728271e-01 4.129002243280410767e-02 -6.749113649129867554e-02 1.447279453277587891e-01
3.810000000000000000e+02 2.281096076965332031e+01 -6.048885822296142578e+00 -1.041354894638061523e+00 -9.609253145754337311e-03 -3.152892291545867920e-01 2.167593687772750854e-01
3.820000000000000000e+02 2.074710655212402344e+01 -4.957129478454589844e+00 -1.681823730468750000e-01 -7.547594606876373291e-02 -7.309749722480773926e-02 2.820074558258056641e-01
3.830000000000000000e+02 2.218749046325683594e+01 -5.196383476257324219e+00 -2.615854740142822266e-01 1.130362786352634430e-02 -7.508455216884613037e-02 1.965754926204681396e-01
3.840000000000000000e+02 1.905580329895019531e+01 -4.613489627838134766e+00 -4.862927272915840149e-02 -2.432084381580352783e-01 -8.755131810903549194e-02 1.810257732868194580e-01
3.850000000000000000e+02 1.978026580810546875e+01 -5.523462295532226562e+00 -2.625006735324859619e-01 -7.331624627113342285e-02 -1.007450819015502930e-01 1.580667495727539062e-01
3.860000000000000000e+02 1.992511749267578125e+01 -4.797539234161376953e+00 -9.302530437707901001e-02 -1.017276272177696228e-01 -5.842588096857070923e-02 2.858909070491790771e-01
3.870000000000000000e+02 1.847771644592285156e+01 -4.667171001434326172e+00 -6.444281432777643204e-03 -1.483911871910095215e-01 -4.645064100623130798e-02 5.269790068268775940e-03
3.880000000000000000e+02 1.890536689758300781e+01 -5.338151454925537109e+00 -4.313331097364425659e-02 -4.142082110047340393e-02 -2.536623924970626831e-02 8.503326773643493652e-02
3.890000000000000000e+02 1.866776466369628906e+01 -5.977191448211669922e+00 -5.349546298384666443e-02 1.209073048084974289e-02 -1.242141891270875931e-02 -3.097573854029178619e-02
3.900000000000000000e+02 1.915827560424804688e+01 -6.702631473541259766e+00 -4.171619415283203125e-01 4.727654904127120972e-02 -1.109656170010566711e-01 -1.857766062021255493e-01
3.910000000000000000e+02 1.907854652404785156e+01 -6.264052391052246094e+00 -2.242985665798187256e-01 4.238933697342872620e-02 -5.457276850938796997e-02 -1.191585138440132141e-01
3.920000000000000000e+02 1.961295318603515625e+01 -7.181979179382324219e+00 -4.956812858581542969e-01 7.455506920814514160e-02 -1.263378560543060303e-01 -2.921470105648040771e-01
3.930000000000000000e+02 1.970428848266601562e+01 -6.719318389892578125e+00 -4.944812655448913574e-01 8.013819903135299683e-02 -1.243029236793518066e-01 -2.115438580513000488e-01
3.940000000000000000e+02 1.970807647705078125e+01 -6.197409629821777344e+00 -4.268696010112762451e-01 9.200680069625377655e-03 -1.253006756305694580e-01 -1.536960899829864502e-02
3.950000000000000000e+02 1.873244667053222656e+01 -6.836939334869384766e+00 -2.910975813865661621e-01 -1.650633849203586578e-02 -9.228117763996124268e-02 -2.635624110698699951e-01
3.960000000000000000e+02 1.902582359313964844e+01 -7.075485229492187500e+00 -3.614874184131622314e-01 4.374687746167182922e-02 -9.532216936349868774e-02 -2.955414056777954102e-01
3.970000000000000000e+02 1.827340888977050781e+01 -6.938152313232421875e+00 -1.690323054790496826e-01 -1.944291293621063232e-01 -1.090384274721145630e-01 -2.553448975086212158e-01
3.980000000000000000e+02 1.866379928588867188e+01 -6.453208446502685547e+00 -2.052445262670516968e-01 -7.125885784626007080e-02 -8.295101672410964966e-02 -1.558039784431457520e-01
3.990000000000000000e+02 1.795946693420410156e+01 -6.885802745819091797e+00 7.047082483768463135e-02 -2.552395164966583252e-01 -5.543060600757598877e-02 -1.010076180100440979e-01
4.000000000000000000e+02 1.828892326354980469e+01 -6.633300304412841797e+00 -1.747265309095382690e-01 -5.995199456810951233e-02 -7.040355354547500610e-02 -1.461738944053649902e-01
4.010000000000000000e+02 1.811682510375976562e+01 -6.392295837402343750e+00 -4.326249659061431885e-02 -8.304266631603240967e-02 -3.789154812693595886e-02 -4.662303254008293152e-02
4.020000000000000000e+02 1.823279571533203125e+01 -7.509944915771484375e+00 -2.820264995098114014e-01 -1.837707310914993286e-01 -1.397391706705093384e-01 -3.375141918659210205e-01
4.030000000000000000e+02 1.882519531250000000e+01 -7.609485626220703125e+00 -3.448236286640167236e-01 -3.675674321129918098e-03 -1.045497879385948181e-01 -3.461738228797912598e-01
4.040000000000000000e+02 1.716255760192871094e+01 -9.372761726379394531e+00 -3.085988759994506836e-01 -6.604840755462646484e-01 -2.907249033451080322e-01 -4.807153940200805664e-01
4.050000000000000000e+02 2.250559997558593750e+01 -8.959208488464355469e+00 2.779523432254791260e-01 2.815122008323669434e-01 1.678393632173538208e-01 -8.179427124559879303e-03
4.060000000000000000e+02 2.943642997741699219e+01 -8.472676277160644531e+00 2.230088710784912109e+00 1.869490623474121094e+01 6.277498245239257812e+00 3.352234840393066406e+00
4.070000000000000000e+02 2.407077026367187500e+01 -8.384765625000000000e+00 2.954731881618499756e-01 2.291181981563568115e-01 1.573774218559265137e-01 2.280671447515487671e-01
4.080000000000000000e+02 1.497840785980224609e+01 -1.271735858917236328e+01 -4.028176665306091309e-01 -8.535380959510803223e-01 -3.769067227840423584e-01 -5.605120658874511719e-01
4.090000000000000000e+02 1.242393493652343750e+01 -1.601193618774414062e+01 -4.807485640048980713e-01 -5.551785826683044434e-01 -3.107781410217285156e-01 -5.015120506286621094e-01
4.100000000000000000e+02 1.425783061981201172e+01 -1.567454719543457031e+01 -2.269502878189086914e-01 -3.370899856090545654e-01 -1.692120879888534546e-01 -2.166343629360198975e-01
4.110000000000000000e+02 1.449075984954833984e+01 -2.264311408996582031e+01 2.402369081974029541e-01 8.161106705665588379e-01 3.169042766094207764e-01 4.752933979034423828e-01
4.120000000000000000e+02 1.776470947265625000e+01 -4.052260208129882812e+01 -2.453679591417312622e-01 2.666307210922241211e+00 7.262817621231079102e-01 9.374870359897613525e-02
4.130000000000000000e+02 2.268502426147460938e+01 -4.081196594238281250e+01 -5.098163485527038574e-01 3.980559349060058594e+00 1.041222929954528809e+00 9.362410008907318115e-02
4.140000000000000000e+02 1.894508171081542969e+01 -3.667095184326171875e+01 -2.456685453653335571e-01 2.916160106658935547e+00 8.011474609375000000e-01 2.927874326705932617e-01
4.150000000000000000e+02 1.940279006958007812e+01 -2.894921112060546875e+01 -6.777000427246093750e-02 2.839020967483520508e+00 8.313752412796020508e-01 7.480625510215759277e-01
4.160000000000000000e+02 2.302150535583496094e+01 -2.064521217346191406e+01 1.340107023715972900e-01 3.723356008529663086e+00 1.157209992408752441e+00 1.513960361480712891e+00
4.170000000000000000e+02 1.881328773498535156e+01 -1.628370094299316406e+01 3.882049918174743652e-01 1.166105985641479492e+00 4.662933051586151123e-01 8.104892373085021973e-01
4.180000000000000000e+02 2.137367248535156250e+01 -1.497183418273925781e+01 7.295150160789489746e-01 1.860511541366577148e+00 7.770079374313354492e-01 1.236526131629943848e+00
4.190000000000000000e+02 1.331194591522216797e+01 -1.492855262756347656e+01 -4.628614783287048340e-01 -6.259111762046813965e-01 -3.266318142414093018e-01 -5.151245594024658203e-01
4.200000000000000000e+02 1.149013137817382812e+01 -1.715490913391113281e+01 -6.546326279640197754e-01 -5.062531828880310059e-01 -3.482657372951507568e-01 -4.770136475563049316e-01
4.210000000000000000e+02 1.030998325347900391e+01 -1.806985092163085938e+01 -9.398974180221557617e-01 -3.948235213756561279e-01 -4.004162847995758057e-01 -4.020490646362304688e-01
4.220000000000000000e+02 9.019882202148437500e+00 -1.838651466369628906e+01 -8.311435580253601074e-01 -1.768286228179931641e-01 -3.023916482925415039e-01 -1.845026314258575439e-01
4.230000000000000000e+02 7.206920623779296875e+00 -1.736926651000976562e+01 -2.466470897197723389e-01 1.337674353271722794e-02 -6.998110562562942505e-02 1.406190916895866394e-02
4.240000000000000000e+02 6.385713100433349609e+00 -1.639716148376464844e+01 -3.356100246310234070e-02 1.102217286825180054e-02 -6.761648226529359818e-03 1.687620021402835846e-02
4.250000000000000000e+02 7.096464157104492188e+00 -1.513441562652587891e+01 1.092494092881679535e-02 3.675657510757446289e-02 1.430445443838834763e-02 -8.148909546434879303e-03
4.260000000000000000e+02 8.848201751708984375e+00 -1.149823379516601562e+01 -3.421527333557605743e-03 -4.673628136515617371e-04 -1.166667090728878975e-03 2.749537816271185875e-03
4.270000000000000000e+02 9.637653350830078125e+00 -1.033615970611572266e+01 2.554554026573896408e-03 1.693332451395690441e-03 1.274365931749343872e-03 -1.630742335692048073e-03
4.280000000000000000e+02 1.215124988555908203e+01 -7.061234474182128906e+00 -1.693156431429088116e-03 -5.564556922763586044e-04 -6.748836021870374680e-04 8.067301241680979729e-04
4.290000000000000000e+02 1.173890304565429688e+01 -2.755286216735839844e+00 -7.961509400047361851e-04 8.995508687803521752e-05 -2.118587435688823462e-04 6.601767963729798794e-04
4.300000000000000000e+02 1.227035522460937500e+01 -4.652169227600097656e+00 1.094994251616299152e-03 4.141438112128525972e-04 4.527413984760642052e-04 -7.575139170512557030e-04
4.310000000000000000e+02 1.105349349975585938e+01 -1.914891481399536133e+00 -3.844934108201414347e-04 -1.716961269266903400e-04 -1.668568584136664867e-04 5.330970743671059608e-04
4.320000000000000000e+02 4.279318332672119141e+00 -1.942305326461791992e+00 -8.928244824346620589e-06 2.299480111105367541e-04 6.630592542933300138e-05 -1.096321866498328745e-04
4.330000000000000000e+02 1.639281392097473145e+00 -1.467516899108886719e+01 -1.238090568222105503e-03 3.641400253400206566e-03 7.209928589873015881e-04 6.855465937405824661e-03
4.340000000000000000e+02 4.453288078308105469e+00 -1.862812232971191406e+01 -1.518262624740600586e-01 5.597966257482767105e-03 -4.386848956346511841e-02 -1.168512180447578430e-01
4.350000000000000000e+02 6.738741397857666016e-01 -2.478687667846679688e+01 5.355286411941051483e-04 -4.025170803070068359e-01 -1.205944642424583435e-01 -4.979957267642021179e-02
4.360000000000000000e+02 7.704294919967651367e-01 -3.190742874145507812e+01 3.579798620194196701e-03 -7.664282917976379395e-01 -2.288545519113540649e-01 -1.745964400470256805e-02
4.370000000000000000e+02 2.795914411544799805e+00 -3.793813323974609375e+01 3.723997995257377625e-02 -4.770434498786926270e-01 -1.319410502910614014e-01 5.919095501303672791e-02
4.380000000000000000e+02 7.964351773262023926e-01 -3.729567337036132812e+01 1.248943526297807693e-02 -7.650560736656188965e-01 -2.257699817419052124e-01 3.426410630345344543e-02
4.390000000000000000e+02 8.772079467773437500e+00 -3.807680130004882812e+01 6.762362550944089890e-03 6.823415160179138184e-01 2.067311704158782959e-01 9.732758626341819763e-03
4.400000000000000000e+02 7.655909061431884766e+00 -3.326036453247070312e+01 6.822559982538223267e-02 3.948642015457153320e-01 1.389269381761550903e-01 1.015675906091928482e-02
4.410000000000000000e+02 1.271650123596191406e+01 -2.121363067626953125e+01 1.196612417697906494e-01 2.475578486919403076e-01 1.101657301187515259e-01 2.142117619514465332e-01
4.420000000000000000e+02 1.160685634613037109e+01 -2.300600051879882812e+01 1.917593330144882202e-01 2.872691154479980469e-01 1.437085270881652832e-01 1.355714499950408936e-01
4.430000000000000000e+02 6.440571546554565430e-01 -2.335891342163085938e+01 -2.592134289443492889e-03 -2.979050576686859131e-01 -9.014915674924850464e-02 -4.770703613758087158e-02
4.440000000000000000e+02 1.254801559448242188e+01 -1.999711513519287109e+00 -3.077912842854857445e-04 1.323647302342578769e-05 -8.836644701659679413e-05 6.489257793873548508e-05
4.450000000000000000e+02 2.752445030212402344e+01 -4.088707733154296875e+01 -7.826531529426574707e-01 5.186604976654052734e+00 1.321185588836669922e+00 8.168599009513854980e-02
4.460000000000000000e+02 2.396292304992675781e+01 -3.411024856567382812e+01 -5.120416283607482910e-01 4.276075839996337891e+00 1.129210233688354492e+00 5.014232397079467773e-01
4.470000000000000000e+02 3.021714401245117188e+01 -2.275714302062988281e+01 -6.591538190841674805e-01 6.943504333496093750e+00 1.885305166244506836e+00 9.668467640876770020e-01
4.480000000000000000e+02 2.586412239074707031e+01 -1.758796501159667969e+01 1.937217861413955688e-01 5.139829635620117188e+00 1.600065469741821289e+00 1.987025141716003418e+00
4.490000000000000000e+02 4.256233215332031250e+01 -4.032989501953125000e+01 -1.066609263420104980e+00 7.612974166870117188e+00 1.963909387588500977e+00 -3.848716244101524353e-02
4.500000000000000000e+02 3.738953399658203125e+01 -4.037620544433593750e+01 -1.093234777450561523e+00 7.110538482666015625e+00 1.805191040039062500e+00 1.334332954138517380e-02
4.510000000000000000e+02 3.466835403442382812e+01 -3.319860839843750000e+01 -1.021468997001647949e+00 6.910005092620849609e+00 1.766560792922973633e+00 1.913340836763381958e-01
4.520000000000000000e+02 3.384423065185546875e+01 -2.548126220703125000e+01 -8.659400343894958496e-01 7.427196502685546875e+00 1.968376874923706055e+00 3.569350838661193848e-01
4.530000000000000000e+02 3.452461242675781250e+01 -1.762825775146484375e+01 -2.588115334510803223e-01 9.029721260070800781e+00 2.631272792816162109e+00 -5.219232663512229919e-02
4.540000000000000000e+02 3.333171463012695312e+01 6.906793117523193359e+00 -3.604063987731933594e-01 8.138005256652832031e+00 2.333279609680175781e+00 -6.055782437324523926e-01
4.550000000000000000e+02 3.365823745727539062e+01 9.835410118103027344e+00 -4.368618428707122803e-01 7.588479518890380859e+00 2.145485401153564453e+00 -5.684248805046081543e-01
4.560000000000000000e+02 4.122555160522460938e+01 1.654119873046875000e+01 -5.311363339424133301e-01 7.522462844848632812e+00 2.097398042678833008e+00 2.388688027858734131e-01
4.570000000000000000e+02 3.317285537719726562e+01 3.553043365478515625e+01 -7.853828668594360352e-01 5.730785846710205078e+00 1.483620882034301758e+00 -8.777539432048797607e-02
4.580000000000000000e+02 3.855207824707031250e+01 4.004381942749023438e+01 -8.234629034996032715e-01 6.363148689270019531e+00 1.661905765533447266e+00 3.393493592739105225e-03
4.590000000000000000e+02 3.520082855224609375e+01 3.822591400146484375e+01 -8.101519346237182617e-01 5.985323905944824219e+00 1.552551627159118652e+00 -3.696252405643463135e-02
4.600000000000000000e+02 3.052260780334472656e+01 3.695313262939453125e+01 -7.445164322853088379e-01 5.375607013702392578e+00 1.389327287673950195e+00 -1.034788861870765686e-01
4.610000000000000000e+02 2.723163604736328125e+01 3.749140548706054688e+01 -6.598185896873474121e-01 4.814401626586914062e+00 1.246374845504760742e+00 -1.122622117400169373e-01
4.620000000000000000e+02 2.790955352783203125e+01 2.875256347656250000e+01 -6.119068861007690430e-01 5.076469421386718750e+00 1.339368700981140137e+00 -3.792774975299835205e-01
4.630000000000000000e+02 3.388079833984375000e+01 2.627373504638671875e+01 -7.067724466323852539e-01 6.124170303344726562e+00 1.625219345092773438e+00 -1.973736882209777832e-01
4.640000000000000000e+02 2.928199005126953125e+01 1.567700576782226562e+01 -3.034203648567199707e-01 5.868310928344726562e+00 1.669467210769653320e+00 -8.201676607131958008e-01
4.650000000000000000e+02 2.849958229064941406e+01 1.022884750366210938e+01 -1.492809802293777466e-01 6.125759124755859375e+00 1.792943477630615234e+00 -1.346799254417419434e+00
4.660000000000000000e+02 2.647732925415039062e+01 4.093028545379638672e+00 1.549553424119949341e-01 5.757119178771972656e+00 1.773622274398803711e+00 -2.246097803115844727e+00
4.670000000000000000e+02 2.651450347900390625e+01 -5.075780391693115234e+00 2.755702495574951172e+00 1.515285134315490723e+00 1.281296253204345703e+00 -2.171931982040405273e+00
4.680000000000000000e+02 3.055877494812011719e+01 -5.922501087188720703e+00 8.699833869934082031e+00 1.812351608276367188e+01 8.047004699707031250e+00 2.577630519866943359e+00
4.690000000000000000e+02 3.052324104309082031e+01 -7.783923149108886719e+00 7.872272014617919922e+00 1.833582115173339844e+01 7.862428188323974609e+00 -2.551594257354736328e+00
4.700000000000000000e+02 3.038748168945312500e+01 -7.963105201721191406e+00 6.574136734008789062e+00 1.903866767883300781e+01 7.683841228485107422e+00 -2.219924926757812500e+00
4.710000000000000000e+02 3.271614837646484375e+01 -9.107546806335449219e+00 4.363311767578125000e+00 1.237563133239746094e+01 5.021682739257812500e+00 -1.695219635963439941e+00
4.720000000000000000e+02 4.351121902465820312e+01 -3.625954437255859375e+01 -1.001094341278076172e+00 7.740382671356201172e+00 2.021786451339721680e+00 -1.338023841381072998e-01
4.730000000000000000e+02 4.622603225708007812e+01 -2.945403289794921875e+01 -6.748558282852172852e-01 8.031599044799804688e+00 2.207022905349731445e+00 -4.315948784351348877e-01
4.740000000000000000e+02 4.350845336914062500e+01 -2.240278244018554688e+01 -2.288274317979812622e-01 8.257361412048339844e+00 2.408560037612915039e+00 -6.810175776481628418e-01
4.750000000000000000e+02 3.910777282714843750e+01 -1.796130180358886719e+01 1.786137223243713379e-01 8.740748405456542969e+00 2.675808668136596680e+00 -7.590973973274230957e-01
4.760000000000000000e+02 3.906532669067382812e+01 -1.127739810943603516e+01 2.269577741622924805e+00 8.778604507446289062e+00 3.314454555511474609e+00 -1.038421869277954102e+00
4.770000000000000000e+02 4.151503372192382812e+01 1.809885621070861816e+00 1.085385799407958984e+00 8.426404953002929688e+00 2.853537082672119141e+00 9.108142852783203125e-01
4.780000000000000000e+02 3.924108123779296875e+01 3.999212503433227539e+00 4.508123397827148438e-01 8.674929618835449219e+00 2.737722635269165039e+00 6.929390430450439453e-01
4.790000000000000000e+02 4.245159912109375000e+01 1.170291996002197266e+01 -2.520484924316406250e-01 7.910001754760742188e+00 2.297385931015014648e+00 4.833860695362091064e-01
4.800000000000000000e+02 4.665368270874023438e+01 1.715796470642089844e+01 -4.069807231426239014e-01 7.691509723663330078e+00 2.185358762741088867e+00 5.167605876922607422e-01
4.810000000000000000e+02 4.320975494384765625e+01 2.665003776550292969e+01 -7.085475325584411621e-01 7.150594711303710938e+00 1.932614207267761230e+00 1.769656091928482056e-01
4.820000000000000000e+02 3.726951980590820312e+01 3.429196929931640625e+01 -8.018136620521545410e-01 6.362989425659179688e+00 1.668352723121643066e+00 -2.160438150167465210e-02
4.830000000000000000e+02 4.308644866943359375e+01 4.026238250732421875e+01 -7.953289151191711426e-01 6.873857498168945312e+00 1.823558568954467773e+00 2.865850739181041718e-02
4.840000000000000000e+02 4.761104583740234375e+01 -4.066637039184570312e+01 -9.324262142181396484e-01 7.919328689575195312e+00 2.096070766448974609e+00 -6.700534373521804810e-02
4.850000000000000000e+02 4.920112228393554688e+01 -3.011845207214355469e+01 -5.974589586257934570e-01 8.019946098327636719e+00 2.226746082305908203e+00 -4.554261863231658936e-01
4.860000000000000000e+02 4.996989059448242188e+01 -2.395781517028808594e+01 -1.439067870378494263e-01 8.030481338500976562e+00 2.365972280502319336e+00 -6.727288365364074707e-01
4.870000000000000000e+02 5.110510635375976562e+01 -1.507571983337402344e+01 7.766841053962707520e-01 7.775365829467773438e+00 2.565614938735961914e+00 -6.178094148635864258e-01
4.880000000000000000e+02 5.074726104736328125e+01 -1.124241638183593750e+01 1.151922464370727539e+00 7.659333229064941406e+00 2.643376588821411133e+00 -4.108104705810546875e-01
4.890000000000000000e+02 5.203921508789062500e+01 -2.764912128448486328e+00 1.131226420402526855e+00 7.582276821136474609e+00 2.614051103591918945e+00 3.853184282779693604e-01
4.900000000000000000e+02 4.758600234985351562e+01 3.674558401107788086e+00 7.545140385627746582e-01 7.900986194610595703e+00 2.596650123596191406e+00 8.170548677444458008e-01
4.910000000000000000e+02 4.750930023193359375e+01 9.945254325866699219e+00 6.495581567287445068e-02 7.897885799407958984e+00 2.388852596282958984e+00 7.505828738212585449e-01
4.920000000000000000e+02 4.919398117065429688e+01 1.641991615295410156e+01 -3.068513274192810059e-01 7.753039836883544922e+00 2.233856439590454102e+00 6.073649525642395020e-01
4.930000000000000000e+02 5.138369750976562500e+01 2.342956733703613281e+01 -4.843064844608306885e-01 7.647314071655273438e+00 2.148902416229248047e+00 4.704074859619140625e-01
4.940000000000000000e+02 4.967498016357421875e+01 3.431258392333984375e+01 -6.498152017593383789e-01 7.420786380767822266e+00 2.031291484832763672e+00 1.797587275505065918e-01
4.950000000000000000e+02 4.786658859252929688e+01 4.050531387329101562e+01 -7.248924970626831055e-01 7.225272178649902344e+00 1.950114011764526367e+00 3.611925616860389709e-02
4.960000000000000000e+02 4.898999404907226562e+01 3.710440444946289062e+01 -7.068637013435363770e-01 7.318510532379150391e+00 1.983493924140930176e+00 1.076891124248504639e-01
4.970000000000000000e+02 6.224029922485351562e+01 -4.084004211425781250e+01 -3.814402520656585693e-01 7.910034179687500000e+00 2.258578062057495117e+00 -5.735493823885917664e-02
4.980000000000000000e+02 5.738877487182617188e+01 -4.077801132202148438e+01 -5.555214285850524902e-01 7.973219394683837891e+00 2.225309371948242188e+00 -6.414116173982620239e-02
4.990000000000000000e+02 5.636539459228515625e+01 -3.340233612060546875e+01 -4.771631956100463867e-01 7.965090751647949219e+00 2.246378183364868164e+00 -3.421180844306945801e-01
5.000000000000000000e+02 5.851279449462890625e+01 -2.428129196166992188e+01 -5.082687735557556152e-02 7.812917709350585938e+00 2.328627347946166992e+00 -5.270293951034545898e-01
5.010000000000000000e+02 5.725379180908203125e+01 -1.721433639526367188e+01 3.812108337879180908e-01 7.680389404296875000e+00 2.418480157852172852e+00 -5.079396367073059082e-01
5.020000000000000000e+02 5.796814346313476562e+01 -1.576934242248535156e+01 4.563865065574645996e-01 7.626419544219970703e+00 2.424841880798339844e+00 -4.413841664791107178e-01
5.030000000000000000e+02 5.804406356811523438e+01 -5.366791248321533203e+00 7.646496295928955078e-01 7.483944416046142578e+00 2.474578380584716797e+00 1.295928657054901123e-01
5.040000000000000000e+02 5.606592559814453125e+01 5.416934013366699219e+00 4.248746335506439209e-01 7.673961639404296875e+00 2.429650783538818359e+00 6.852802634239196777e-01
5.050000000000000000e+02 5.843038940429687500e+01 8.213931083679199219e+00 2.284885346889495850e-01 7.699338912963867188e+00 2.378348350524902344e+00 6.929231286048889160e-01
5.060000000000000000e+02 5.708255767822265625e+01 1.608160781860351562e+01 -1.189161911606788635e-01 7.796437263488769531e+00 2.303256273269653320e+00 6.836669445037841797e-01
5.070000000000000000e+02 5.655845260620117188e+01 2.187119483947753906e+01 -3.174318075180053711e-01 7.783615112304687500e+00 2.239855051040649414e+00 5.695822238922119141e-01
5.080000000000000000e+02 5.490967559814453125e+01 3.318444824218750000e+01 -5.418547391891479492e-01 7.671730518341064453e+00 2.138962745666503906e+00 2.657238841056823730e-01
5.090000000000000000e+02 5.691530609130859375e+01 4.039658737182617188e+01 -4.890515506267547607e-01 7.747961044311523438e+00 2.177672863006591797e+00 5.325591564178466797e-02
5.100000000000000000e+02 5.254666900634765625e+01 3.724905776977539062e+01 -6.145803332328796387e-01 7.524634361267089844e+00 2.073016166687011719e+00 1.350421160459518433e-01
5.110000000000000000e+02 6.717024993896484375e+01 -2.972315216064453125e+01 -1.138661354780197144e-01 7.733396053314208984e+00 2.285858869552612305e+00 -3.214746415615081787e-01
5.120000000000000000e+02 6.385070419311523438e+01 -2.459249496459960938e+01 -1.887746341526508331e-02 7.701749324798583984e+00 2.304861545562744141e+00 -4.243452250957489014e-01
5.130000000000000000e+02 6.327268981933593750e+01 -1.726126098632812500e+01 2.374993860721588135e-01 7.568572044372558594e+00 2.341821432113647461e+00 -3.723687827587127686e-01
5.140000000000000000e+02 6.423670959472656250e+01 -1.249651241302490234e+01 3.472098410129547119e-01 7.474094867706298828e+00 2.346391439437866211e+00 -2.010693699121475220e-01
5.150000000000000000e+02 6.712435150146484375e+01 -4.613481521606445312e+00 2.924766838550567627e-01 7.408967494964599609e+00 2.310433149337768555e+00 1.311401575803756714e-01
5.160000000000000000e+02 6.482298278808593750e+01 6.963723659515380859e+00 1.806750893592834473e-01 7.624662876129150391e+00 2.341601371765136719e+00 5.434731841087341309e-01
5.170000000000000000e+02 6.744905853271484375e+01 1.264377593994140625e+01 2.569656260311603546e-02 7.753305912017822266e+00 2.333700656890869141e+00 5.346029400825500488e-01
5.180000000000000000e+02 6.501290130615234375e+01 1.983810806274414062e+01 -1.197313144803047180e-01 7.893395423889160156e+00 2.332099199295043945e+00 5.503912568092346191e-01
5.190000000000000000e+02 6.529882812500000000e+01 2.505562782287597656e+01 -1.835498958826065063e-01 7.983939647674560547e+00 2.340116977691650391e+00 4.500073790550231934e-01
5.200000000000000000e+02 6.428036499023437500e+01 3.354899978637695312e+01 -2.642897963523864746e-01 8.027297019958496094e+00 2.328902006149291992e+00 2.565614283084869385e-01
5.210000000000000000e+02 6.051235961914062500e+01 3.859994506835937500e+01 -3.860902488231658936e-01 7.890756130218505859e+00 2.251399755477905273e+00 1.064965948462486267e-01
5.220000000000000000e+02 6.355467605590820312e+01 4.068554687500000000e+01 -3.139112293720245361e-01 7.999485969543457031e+00 2.305672407150268555e+00 4.950181767344474792e-02
5.230000000000000000e+02 6.702516174316406250e+01 -4.094673538208007812e+01 -2.233612537384033203e-01 7.839982032775878906e+00 2.284986257553100586e+00 -4.512366279959678650e-02
5.240000000000000000e+02 7.016254425048828125e+01 -3.547108840942382812e+01 -1.256851255893707275e-01 7.771197319030761719e+00 2.293653726577758789e+00 -1.671115010976791382e-01
5.250000000000000000e+02 7.250985717773437500e+01 -3.049983215332031250e+01 -5.066039785742759705e-02 7.670523166656494141e+00 2.285958766937255859e+00 -2.123181223869323730e-01
5.260000000000000000e+02 7.128341674804687500e+01 -2.481182670593261719e+01 -1.207565795630216599e-02 7.570614337921142578e+00 2.267561435699462891e+00 -2.788023948669433594e-01
5.270000000000000000e+02 7.123466491699218750e+01 -1.839125061035156250e+01 6.630805879831314087e-02 7.429113388061523438e+00 2.248626470565795898e+00 -2.446557283401489258e-01
5.280000000000000000e+02 7.147375488281250000e+01 -9.806665420532226562e+00 1.345775872468948364e-01 7.308043956756591797e+00 2.232786417007446289e+00 -5.398904159665107727e-02
5.290000000000000000e+02 6.998322296142578125e+01 -4.348403453826904297e+00 1.877121329307556152e-01 7.358280658721923828e+00 2.263797998428344727e+00 1.193824782967567444e-01
5.300000000000000000e+02 7.282244873046875000e+01 4.008060932159423828e+00 7.071589678525924683e-02 7.448180198669433594e+00 2.255668878555297852e+00 2.811257243156433105e-01
5.310000000000000000e+02 7.242913818359375000e+01 1.198451900482177734e+01 1.748788170516490936e-02 7.722904682159423828e+00 2.322117805480957031e+00 3.823325932025909424e-01
5.320000000000000000e+02 7.214369201660156250e+01 1.946263885498046875e+01 -3.452736511826515198e-02 7.995936870574951172e+00 2.388422727584838867e+00 3.696602880954742432e-01
5.330000000000000000e+02 7.124270629882812500e+01 2.631722450256347656e+01 -7.838790118694305420e-02 8.164285659790039062e+00 2.425769329071044922e+00 3.204604983329772949e-01
5.340000000000000000e+02 6.897460937500000000e+01 3.062227439880371094e+01 -1.409154981374740601e-01 8.171045303344726562e+00 2.409039020538330078e+00 2.762058079242706299e-01
5.350000000000000000e+02 6.848643493652343750e+01 3.833041000366210938e+01 -1.778639107942581177e-01 8.218405723571777344e+00 2.412162542343139648e+00 1.066703945398330688e-01
5.360000000000000000e+02 7.790727996826171875e+01 -4.162977218627929688e+01 -7.599122822284698486e-03 7.866085052490234375e+00 2.357545852661132812e+00 -2.125635044649243355e-03
5.370000000000000000e+02 7.772554779052734375e+01 -3.680146408081054688e+01 -9.663491509854793549e-03 7.807195186614990234e+00 2.339259386062622070e+00 -3.998817130923271179e-02
5.380000000000000000e+02 7.792050933837890625e+01 -3.045297813415527344e+01 -6.338784005492925644e-03 7.650921821594238281e+00 2.293375015258789062e+00 -7.439754158258438110e-02
5.390000000000000000e+02 7.806721496582031250e+01 -2.358169174194335938e+01 9.375012596137821674e-04 7.395977973937988281e+00 2.219074726104736328e+00 -8.382689207792282104e-02
5.400000000000000000e+02 7.800450897216796875e+01 -1.669965744018554688e+01 5.716860760003328323e-03 7.151594638824462891e+00 2.147193431854248047e+00 -6.659813970327377319e-02
5.410000000000000000e+02 7.801812744140625000e+01 -9.724835395812988281e+00 9.787846356630325317e-03 7.012430667877197266e+00 2.106665611267089844e+00 -1.678153686225414276e-02
5.420000000000000000e+02 7.803343200683593750e+01 -2.752673149108886719e+00 9.719495661556720734e-03 7.055335521697998047e+00 2.119516611099243164e+00 4.520774260163307190e-02
5.430000000000000000e+02 7.806009674072265625e+01 4.178879261016845703e+00 6.701949518173933029e-03 7.282356739044189453e+00 2.186717510223388672e+00 9.575366973876953125e-02
5.440000000000000000e+02 7.801420593261718750e+01 1.108412456512451172e+01 1.816404168494045734e-03 7.639032363891601562e+00 2.292254686355590820e+00 1.248264387249946594e-01
5.450000000000000000e+02 7.786933898925781250e+01 1.948335647583007812e+01 -3.565542632713913918e-03 8.111793518066406250e+00 2.432468414306640625e+00 1.284753382205963135e-01
5.460000000000000000e+02 7.638022613525390625e+01 2.231250762939453125e+01 -9.873048402369022369e-03 8.205221176147460938e+00 2.458604574203491211e+00 1.905924826860427856e-01
5.470000000000000000e+02 7.939034271240234375e+01 3.203131484985351562e+01 -4.155156668275594711e-03 8.763728141784667969e+00 2.627871990203857422e+00 1.934927143156528473e-02
5.480000000000000000e+02 7.676175689697265625e+01 3.739068603515625000e+01 -2.061158046126365662e-02 8.677331924438476562e+00 2.597016096115112305e+00 3.622847050428390503e-02
5.490000000000000000e+02 7.890490722656250000e+01 3.758719635009765625e+01 -2.442104509100317955e-03 8.860936164855957031e+00 2.657548189163208008e+00 1.215865835547447205e-02
5.500000000000000000e+02 1.769547271728515625e+01 4.069821166992187500e+01 -3.750541210174560547e-01 3.010652780532836914e+00 7.906795740127563477e-01 -6.797973811626434326e-02
5.510000000000000000e+02 2.262892341613769531e+01 4.064030075073242188e+01 -5.382873415946960449e-01 3.912098407745361328e+00 1.012143373489379883e+00 -6.645507365465164185e-02
5.520000000000000000e+02 1.912532043457031250e+01 3.264662170410156250e+01 -3.649258315563201904e-01 3.223570585250854492e+00 8.575934171676635742e-01 -3.494370877742767334e-01
5.530000000000000000e+02 2.252608871459960938e+01 2.260860824584960938e+01 -2.882014811038970947e-01 4.127144813537597656e+00 1.151683092117309570e+00 -6.856191158294677734e-01
5.540000000000000000e+02 2.123938751220703125e+01 1.644573020935058594e+01 2.208759784698486328e-01 3.958969354629516602e+00 1.253953576087951660e+00 -9.619242548942565918e-01
5.550000000000000000e+02 2.050280761718750000e+01 9.821734428405761719e+00 6.458028554916381836e-01 3.635037422180175781e+00 1.284252047538757324e+00 -1.409582853317260742e+00
5.560000000000000000e+02 1.985647964477539062e+01 5.294407844543457031e+00 2.858600020408630371e-01 2.547382831573486328e+00 8.499728441238403320e-01 -1.088928222656250000e+00
5.570000000000000000e+02 2.160360908508300781e+01 -4.378867626190185547e+00 1.480622738599777222e-01 7.362180948257446289e-02 6.650522351264953613e-02 1.703478544950485229e-01
5.580000000000000000e+02 2.443957901000976562e+01 -4.272301197052001953e+00 1.328370928764343262e+00 6.957799792289733887e-01 6.072452664375305176e-01 -8.552476763725280762e-01
5.590000000000000000e+02 2.370402145385742188e+01 -4.745304584503173828e+00 5.877375602722167969e-01 2.779978215694427490e-01 2.597206234931945801e-01 -2.551525831222534180e-01
5.600000000000000000e+02 1.733834457397460938e+01 3.730954360961914062e+01 -3.521246910095214844e-01 2.936328172683715820e+00 7.752610445022583008e-01 -1.870322078466415405e-01
5.610000000000000000e+02 1.715590858459472656e+01 2.142653465270996094e+01 -3.981523215770721436e-02 2.817050933837890625e+00 8.331706523895263672e-01 -8.301934599876403809e-01
5.620000000000000000e+02 1.294548797607421875e+01 1.758917808532714844e+01 7.123267054557800293e-01 1.058656930923461914e+00 5.312951207160949707e-01 -8.416836261749267578e-01
5.630000000000000000e+02 1.508648204803466797e+01 1.557912254333496094e+01 1.070484757423400879e+00 2.350666046142578125e+00 1.026345252990722656e+00 -1.439805507659912109e+00
5.640000000000000000e+02 1.875537490844726562e+01 1.609785079956054688e+01 4.155774414539337158e-01 3.383905410766601562e+00 1.139844894409179688e+00 -9.923710227012634277e-01
5.650000000000000000e+02 1.595310783386230469e+01 1.440358066558837891e+01 1.017164349555969238e+00 3.021730184555053711e+00 1.211668372154235840e+00 -1.545141577720642090e+00
5.660000000000000000e+02 1.807585334777832031e+01 9.105272293090820312e+00 4.515363872051239014e-01 3.858128547668457031e+00 1.292899489402770996e+00 -1.135591268539428711e+00
5.670000000000000000e+02 1.857623100280761719e+01 6.371354579925537109e+00 1.819096952676773071e-01 2.800894021987915039e+00 8.948411345481872559e-01 -7.097089290618896484e-01
5.680000000000000000e+02 1.891720199584960938e+01 2.221467971801757812e+00 3.864442557096481323e-02 5.740400552749633789e-01 1.838053464889526367e-01 -3.035995066165924072e-01
5.690000000000000000e+02 1.886997985839843750e+01 -4.831494987010955811e-01 4.763669893145561218e-02 -5.226082205772399902e-01 -1.424914598464965820e-01 -1.145846694707870483e-01
5.700000000000000000e+02 1.969275856018066406e+01 -3.023175477981567383e+00 1.450105607509613037e-01 -2.140513807535171509e-01 -2.071224339306354523e-02 1.497388631105422974e-01
5.710000000000000000e+02 1.285067176818847656e+01 4.104600906372070312e+01 -2.075413912534713745e-01 2.002889394760131836e+00 5.386044383049011230e-01 -3.809864073991775513e-02
5.720000000000000000e+02 8.340317726135253906e+00 4.108840179443359375e+01 -9.717291593551635742e-02 1.134804010391235352e+00 3.112893104553222656e-01 -2.476840093731880188e-02
5.730000000000000000e+02 7.025284290313720703e+00 3.049492073059082031e+01 2.074475027620792389e-02 7.853214740753173828e-01 2.418198585510253906e-01 -1.667919605970382690e-01
5.740000000000000000e+02 5.852596282958984375e+00 2.425911331176757812e+01 1.120615825057029724e-01 2.940848171710968018e-01 1.218439191579818726e-01 -5.071742087602615356e-02
5.750000000000000000e+02 1.024611282348632812e+01 1.893309020996093750e+01 -9.181015193462371826e-03 2.349862903356552124e-01 6.774158030748367310e-02 -2.969216704368591309e-01
5.760000000000000000e+02 1.168865585327148438e+01 1.848547744750976562e+01 3.691376447677612305e-01 5.747492313385009766e-01 2.831660509109497070e-01 -5.283014774322509766e-01
5.770000000000000000e+02 2.049441576004028320e+00 4.164229583740234375e+01 -7.350362837314605713e-02 8.908292651176452637e-02 4.673790652304887772e-03 -2.084275335073471069e-02
5.780000000000000000e+02 4.988410949707031250e+00 3.749155807495117188e+01 -5.752875469624996185e-03 4.953853189945220947e-01 1.468897312879562378e-01 -1.712638884782791138e-02
5.790000000000000000e+02 2.338826656341552734e+00 3.574196624755859375e+01 9.071821346879005432e-03 6.831822544336318970e-02 2.321701310575008392e-02 -7.254229485988616943e-02
5.800000000000000000e+02 2.069345474243164062e+00 2.887149047851562500e+01 1.396927237510681152e-02 -7.663185149431228638e-02 -1.879877410829067230e-02 -2.262257970869541168e-02
5.810000000000000000e+02 1.974339962005615234e+00 2.310459136962890625e+01 1.363637764006853104e-02 -1.040174216032028198e-01 -2.711431309580802917e-02 5.440977588295936584e-02
5.820000000000000000e+02 4.278697967529296875e+00 1.581414318084716797e+01 -3.818605840206146240e-02 1.328486762940883636e-02 -7.470357697457075119e-03 8.007504977285861969e-03
5.830000000000000000e+02 5.684144496917724609e-01 6.404655933380126953e+00 5.394242471083998680e-04 9.678612696006894112e-04 4.521856608334928751e-04 -4.131694149691611528e-04
5.840000000000000000e+02 6.054239749908447266e+00 1.849529027938842773e+00 1.763501932146027684e-04 3.382949216756969690e-04 1.543935359222814441e-04 3.963459457736462355e-04
5.850000000000000000e+02 8.062792778015136719e+00 2.625643491744995117e+00 1.229169865837320685e-04 5.001007230021059513e-04 1.869053085101768374e-04 8.209929801523685455e-04
5.860000000000000000e+02 9.625558853149414062e+00 1.881276845932006836e+00 1.340076996712014079e-04 -1.714724639896303415e-04 -1.123942638514563441e-05 -4.117087810300290585e-04
5.870000000000000000e+02 1.392735385894775391e+01 1.750719308853149414e+00 -2.975949901156127453e-04 2.589878858998417854e-04 -1.158212853624718264e-05 3.749533561858697794e-06
5.880000000000000000e+02 1.445646476745605469e+01 6.264642715454101562e+00 9.304384584538638592e-04 3.321325057186186314e-04 3.787712776102125645e-04 3.429294738452881575e-04
5.890000000000000000e+02 1.182198810577392578e+01 9.607053756713867188e+00 1.175081823021173477e-03 3.798524150624871254e-03 1.492081792093813419e-03 2.201801631599664688e-03
5.900000000000000000e+02 1.132823562622070312e+01 1.235966968536376953e+01 -4.137769341468811035e-03 -2.496921224519610405e-03 -1.990407006815075874e-03 -4.943893291056156158e-03
5.910000000000000000e+02 1.217264080047607422e+01 1.125261878967285156e+01 3.644205629825592041e-03 3.448677714914083481e-03 2.127865096554160118e-03 2.176607027649879456e-03
5.920000000000000000e+02 9.420275688171386719e+00 1.448032474517822266e+01 -6.947839166969060898e-03 -5.761255044490098953e-03 -3.812728449702262878e-03 -1.284565031528472900e-02
5.930000000000000000e+02 7.867787361145019531e+00 1.688401985168457031e+01 -4.286778718233108521e-02 -7.416199147701263428e-02 -3.510893508791923523e-02 -6.219325959682464600e-02
5.940000000000000000e+02 1.804985880851745605e+00 2.171416854858398438e+01 6.873814854770898819e-03 -9.484431147575378418e-02 -2.639115042984485626e-02 6.339407712221145630e-02
5.950000000000000000e+02 1.165016293525695801e+00 3.805206537246704102e+00 -2.448013983666896820e-04 6.909888907102867961e-05 -5.271075133350677788e-05 2.552344230934977531e-04
5.960000000000000000e+02 1.326144695281982422e+01 2.484567403793334961e+00 4.010725242551416159e-04 -2.957284741569310427e-04 3.160322012263350189e-05 -1.588101295055821538e-04
5.970000000000000000e+02 2.253661537170410156e+01 -8.263752937316894531e+00 -2.178285270929336548e-01 1.610662192106246948e-01 -1.702868752181529999e-02 -1.556682586669921875e-01
5.980000000000000000e+02 4.079586410522460938e+01 -1.298928737640380859e+01 1.579033374786376953e+00 8.537287712097167969e+00 3.034896373748779297e+00 -1.001049160957336426e+00
5.990000000000000000e+02 5.238962554931640625e+01 -1.429038906097412109e+01 7.859170436859130859e-01 7.711637496948242188e+00 2.549266338348388672e+00 -5.475018024444580078e-01
6.000000000000000000e+02 5.734955978393554688e+01 -1.178831481933593750e+01 6.884908080101013184e-01 7.546648979187011719e+00 2.470541954040527344e+00 -2.762896418571472168e-01
6.010000000000000000e+02 6.692889404296875000e+01 -1.222929763793945312e+01 2.542649507522583008e-01 7.430731296539306641e+00 2.305498838424682617e+00 -1.635437756776809692e-01
6.020000000000000000e+02 7.271435546875000000e+01 -1.257023906707763672e+01 9.001675993204116821e-02 7.291187286376953125e+00 2.214361190795898438e+00 -1.150745823979377747e-01
6.030000000000000000e+02 7.933538818359375000e+01 -1.253308105468750000e+01 1.827178522944450378e-03 6.963083267211914062e+00 2.089473009109497070e+00 -1.365635637193918228e-02
6.040000000000000000e+02 7.934276580810546875e+01 -5.560881137847900391e+00 2.022350672632455826e-03 6.919104576110839844e+00 2.076338052749633789e+00 8.128117769956588745e-03
6.050000000000000000e+02 7.275700378417968750e+01 -5.596147060394287109e+00 1.065728291869163513e-01 7.271059989929199219e+00 2.213289737701416016e+00 6.077701225876808167e-02
6.060000000000000000e+02 6.588608551025390625e+01 -6.234968662261962891e+00 3.474922180175781250e-01 7.417043685913085938e+00 2.329360723495483398e+00 6.843443959951400757e-02
6.070000000000000000e+02 6.056196975708007812e+01 -5.053209304809570312e+00 6.130885481834411621e-01 7.469155311584472656e+00 2.424673080444335938e+00 1.469072848558425903e-01
6.080000000000000000e+02 5.287344741821289062e+01 -3.904236078262329102e+00 1.125033020973205566e+00 7.543480873107910156e+00 2.600554227828979492e+00 2.713575661182403564e-01
6.090000000000000000e+02 4.185678863525390625e+01 5.865293368697166443e-02 1.473779082298278809e+00 8.337545394897460938e+00 2.943397283554077148e+00 8.971613645553588867e-01
6.100000000000000000e+02 3.046678733825683594e+01 -5.709842681884765625e+00 7.139702320098876953e+00 1.861215972900390625e+01 7.725558280944824219e+00 2.324285030364990234e+00
6.110000000000000000e+02 2.220888900756835938e+01 -2.474707603454589844e+01 -8.095410466194152832e-02 3.593471050262451172e+00 1.053755044937133789e+00 1.152763366699218750e+00
6.120000000000000000e+02 1.586824512481689453e+01 -2.231525993347167969e+01 2.219982594251632690e-01 1.134581565856933594e+00 4.069739282131195068e-01 6.539836525917053223e-01
6.130000000000000000e+02 3.369750213623046875e+01 -1.682732200622558594e+01 -2.369087636470794678e-01 9.227794647216796875e+00 2.697265625000000000e+00 1.324247121810913086e-01
6.140000000000000000e+02 3.996853256225585938e+01 -2.061144065856933594e+01 -2.311236262321472168e-01 8.477975845336914062e+00 2.474055528640747070e+00 -6.013198494911193848e-01
6.150000000000000000e+02 5.178657150268554688e+01 -1.867118453979492188e+01 3.876724839210510254e-01 7.868998050689697266e+00 2.477001190185546875e+00 -6.874710917472839355e-01
6.160000000000000000e+02 6.469808197021484375e+01 -1.810923004150390625e+01 1.824367940425872803e-01 7.558578014373779297e+00 2.322304487228393555e+00 -3.627083897590637207e-01
6.170000000000000000e+02 7.266047668457031250e+01 -1.971850585937500000e+01 3.615953400731086731e-02 7.420681953430175781e+00 2.237052440643310547e+00 -2.289160937070846558e-01
6.180000000000000000e+02 7.935318756103515625e+01 -2.226518821716308594e+01 6.701942184008657932e-04 7.308366775512695312e+00 2.192711114883422852e+00 -2.925888821482658386e-02
6.190000000000000000e+02 5.407787322998046875e+00 -1.561442565917968750e+01 -2.618844434618949890e-02 -1.974119618535041809e-02 -1.377889234572649002e-02 -4.676951561123132706e-03
6.200000000000000000e+02 1.785722017288208008e+00 -1.742295455932617188e+01 -2.092662826180458069e-02 -1.211936865001916885e-02 -9.913799352943897247e-03 -1.679008081555366516e-02
6.210000000000000000e+02 5.599684715270996094e-01 -1.066091728210449219e+01 1.452900323783978820e-04 3.137184539809823036e-03 9.847423061728477478e-04 1.170419040136039257e-03
6.220000000000000000e+02 2.058069229125976562e+01 -3.322595977783203125e+01 -2.671096026897430420e-01 3.302414417266845703e+00 9.105914235115051270e-01 5.359759330749511719e-01
6.230000000000000000e+02 1.777483940124511719e+01 -3.172451591491699219e+01 -7.262478023767471313e-02 2.515084266662597656e+00 7.327378392219543457e-01 4.943453967571258545e-01
6.240000000000000000e+02 2.780183982849121094e+01 -2.272937393188476562e+01 -4.546011686325073242e-01 5.933649539947509766e+00 1.643714547157287598e+00 1.302951574325561523e+00
6.250000000000000000e+02 3.237779998779296875e+01 -2.594084739685058594e+01 -8.479242324829101562e-01 7.022316932678222656e+00 1.852317810058593750e+00 5.330373048782348633e-01
6.260000000000000000e+02 4.549207305908203125e+01 -2.315725708007812500e+01 -2.222650945186614990e-01 8.174263000488281250e+00 2.385599374771118164e+00 -6.864524483680725098e-01
6.270000000000000000e+02 4.801044082641601562e+01 -2.120590209960937500e+01 7.882291078567504883e-02 8.079276084899902344e+00 2.447429656982421875e+00 -7.543263435363769531e-01
6.280000000000000000e+02 5.875689697265625000e+01 -2.593345069885253906e+01 -1.261077970266342163e-01 7.836318016052246094e+00 2.313063144683837891e+00 -5.062857270240783691e-01
6.290000000000000000e+02 6.615675354003906250e+01 -2.315120506286621094e+01 2.126490697264671326e-02 7.630961418151855469e+00 2.295667886734008789e+00 -3.838692903518676758e-01
6.300000000000000000e+02 7.318629455566406250e+01 -2.460457992553710938e+01 -4.537346772849559784e-03 7.528214931488037109e+00 2.257103204727172852e+00 -2.359715998172760010e-01
6.310000000000000000e+02 7.934329986572265625e+01 -2.642933654785156250e+01 -4.371512331999838352e-04 7.495584487915039062e+00 2.248544216156005859e+00 -2.970288693904876709e-02
6.320000000000000000e+02 7.436809539794921875e-01 -3.047684860229492188e+01 4.459995776414871216e-03 -7.258789539337158203e-01 -2.164256870746612549e-01 -2.495530247688293457e-02
6.330000000000000000e+02 8.373931884765625000e+00 -3.553464508056640625e+01 5.252188071608543396e-02 6.140925288200378418e-01 1.999843269586563110e-01 3.021726384758949280e-02
6.340000000000000000e+02 3.124064636230468750e+01 -3.410292434692382812e+01 -9.185880422592163086e-01 6.188143730163574219e+00 1.580866694450378418e+00 3.267682194709777832e-01
6.350000000000000000e+02 4.206477737426757812e+01 -3.124500846862792969e+01 -9.045444130897521973e-01 7.860147476196289062e+00 2.086680889129638672e+00 -2.318949103355407715e-01
6.360000000000000000e+02 4.864639282226562500e+01 -3.351416015625000000e+01 -7.720019221305847168e-01 7.974626541137695312e+00 2.160787343978881836e+00 -3.230607509613037109e-01
6.370000000000000000e+02 5.715570068359375000e+01 -3.713293075561523438e+01 -5.260288715362548828e-01 7.967377185821533203e+00 2.232404470443725586e+00 -2.061056941747665405e-01
6.380000000000000000e+02 6.348122406005859375e+01 -3.122737312316894531e+01 -2.064670920372009277e-01 7.818442344665527344e+00 2.283592700958251953e+00 -3.505822420120239258e-01
6.390000000000000000e+02 7.328289794921875000e+01 -3.262515640258789062e+01 -5.111852288246154785e-02 7.705274105072021484e+00 2.296246767044067383e+00 -1.704588681459426880e-01
6.400000000000000000e+02 7.931213378906250000e+01 -3.335853958129882812e+01 -1.266637467779219151e-03 7.754467487335205078e+00 2.325960159301757812e+00 -1.979898847639560699e-02
6.410000000000000000e+02 7.935237884521484375e+01 2.791434288024902344e+00 1.571805565617978573e-03 7.154290199279785156e+00 2.146758556365966797e+00 3.211020678281784058e-02
6.420000000000000000e+02 7.276902008056640625e+01 1.318542718887329102e+00 8.570037782192230225e-02 7.378261089324951172e+00 2.239188432693481445e+00 2.300293147563934326e-01
6.430000000000000000e+02 6.533844757080078125e+01 1.439131140708923340e+00 2.969178855419158936e-01 7.506205081939697266e+00 2.340936899185180664e+00 3.829046785831451416e-01
6.440000000000000000e+02 5.864855957031250000e+01 2.139412403106689453e+00 5.113276243209838867e-01 7.577919960021972656e+00 2.426774263381958008e+00 5.311675667762756348e-01
6.450000000000000000e+02 5.215133666992187500e+01 3.155469894409179688e+00 7.028584480285644531e-01 7.708113670349121094e+00 2.523291587829589844e+00 7.122830748558044434e-01
6.460000000000000000e+02 3.995500946044921875e+01 6.950542926788330078e+00 4.536237567663192749e-02 8.335412979125976562e+00 2.514232635498046875e+00 5.175831317901611328e-01
6.470000000000000000e+02 2.579442596435546875e+01 4.434954166412353516e+00 2.092521041631698608e-01 5.317699909210205078e+00 1.658085584640502930e+00 -2.219943046569824219e+00
6.480000000000000000e+02 3.294264984130859375e+01 3.667814254760742188e+00 -1.972220689058303833e-01 9.009245872497558594e+00 2.643607139587402344e+00 -5.757587552070617676e-01
6.490000000000000000e+02 7.935240936279296875e+01 8.349744796752929688e+00 1.325922668911516666e-03 7.449986457824707031e+00 2.235393762588500977e+00 4.251599311828613281e-02
6.500000000000000000e+02 7.272106933593750000e+01 7.976756095886230469e+00 4.478726908564567566e-02 7.578793525695800781e+00 2.287074089050292969e+00 3.417073190212249756e-01
6.510000000000000000e+02 6.794486999511718750e+01 9.985551834106445312e+00 6.956300139427185059e-02 7.682356357574462891e+00 2.325575828552246094e+00 5.068738460540771484e-01
6.520000000000000000e+02 5.715396499633789062e+01 7.136945247650146484e+00 3.118233978748321533e-01 7.690397262573242188e+00 2.400666236877441406e+00 7.050033807754516602e-01
6.530000000000000000e+02 4.729440307617187500e+01 8.008413314819335938e+00 2.481534928083419800e-01 7.932045936584472656e+00 2.454059839248657227e+00 7.964087724685668945e-01
6.540000000000000000e+02 4.017992019653320312e+01 8.562108993530273438e+00 -1.089585870504379272e-01 8.171417236328125000e+00 2.418737649917602539e+00 4.421390891075134277e-01
6.550000000000000000e+02 2.717502784729003906e+01 9.507780075073242188e+00 -5.599398165941238403e-03 5.707077503204345703e+00 1.710443377494812012e+00 -1.567288160324096680e+00
6.560000000000000000e+02 3.416936492919921875e+01 8.510358810424804688e+00 -3.971209228038787842e-01 7.908281803131103516e+00 2.253348350524902344e+00 -4.582729637622833252e-01
6.570000000000000000e+02 2.004460716247558594e+01 3.866203308105468750e+00 2.129668593406677246e-01 2.040264368057250977e+00 6.759693622589111328e-01 -1.037209153175354004e+00
6.580000000000000000e+02 1.889072418212890625e+01 3.607575416564941406e+00 7.163605839014053345e-02 1.345419526100158691e+00 4.251166582107543945e-01 -4.093737900257110596e-01
6.590000000000000000e+02 7.930220794677734375e+01 1.670560073852539062e+01 6.728665321134030819e-04 7.979246139526367188e+00 2.393975734710693359e+00 4.842239245772361755e-02
6.600000000000000000e+02 7.211109924316406250e+01 1.798873519897460938e+01 -2.714763209223747253e-02 7.942251682281494141e+00 2.374531269073486328e+00 3.856768012046813965e-01
6.610000000000000000e+02 6.405680084228515625e+01 1.688200950622558594e+01 -6.053216755390167236e-02 7.834628105163574219e+00 2.332228660583496094e+00 5.972414016723632812e-01
6.620000000000000000e+02 5.590155792236328125e+01 1.389166164398193359e+01 -5.303180962800979614e-02 7.784597873687744141e+00 2.319469690322875977e+00 7.177267670631408691e-01
6.630000000000000000e+02 4.972207260131835938e+01 1.893798828125000000e+01 -4.016477465629577637e-01 7.694649696350097656e+00 2.187900543212890625e+00 5.550558567047119141e-01
6.640000000000000000e+02 4.290811157226562500e+01 1.371583843231201172e+01 -3.518560528755187988e-01 7.778948307037353516e+00 2.228127717971801758e+00 4.360220730304718018e-01
6.650000000000000000e+02 2.737808609008789062e+01 1.645025253295898438e+01 -2.099027782678604126e-01 5.358975410461425781e+00 1.544721841812133789e+00 -8.878720402717590332e-01
6.660000000000000000e+02 3.665734863281250000e+01 1.497754669189453125e+01 -5.356152057647705078e-01 7.272782325744628906e+00 2.021150112152099609e+00 -1.427227854728698730e-01
6.670000000000000000e+02 2.029062461853027344e+01 1.131573104858398438e+01 6.571971178054809570e-01 3.711549758911132812e+00 1.310624122619628906e+00 -1.329429030418395996e+00
6.680000000000000000e+02 7.926773834228515625e+01 2.370494461059570312e+01 -2.253992017358541489e-03 8.394070625305175781e+00 2.517544984817504883e+00 4.319368302822113037e-02
6.690000000000000000e+02 7.192378234863281250e+01 2.205277252197265625e+01 -4.956708475947380066e-02 8.069517135620117188e+00 2.405985116958618164e+00 3.557363748550415039e-01
6.700000000000000000e+02 6.212327575683593750e+01 2.307300567626953125e+01 -2.224835157394409180e-01 7.891924858093261719e+00 2.300832509994506836e+00 5.258914828300476074e-01
6.710000000000000000e+02 5.663821029663085938e+01 2.465566253662109375e+01 -3.797289431095123291e-01 7.780100345611572266e+00 2.220111370086669922e+00 5.036690831184387207e-01
6.720000000000000000e+02 4.797222137451171875e+01 2.229644012451171875e+01 -5.391572117805480957e-01 7.564596176147460938e+00 2.107631683349609375e+00 4.285708963871002197e-01
6.730000000000000000e+02 4.209728622436523438e+01 2.135119056701660156e+01 -6.376717090606689453e-01 7.295121669769287109e+00 1.997234940528869629e+00 2.114932984113693237e-01
6.740000000000000000e+02 2.613986778259277344e+01 2.704674148559570312e+01 -5.315598845481872559e-01 4.840185165405273438e+00 1.292587637901306152e+00 -4.571687877178192139e-01
6.750000000000000000e+02 2.014300155639648438e+01 1.785469627380371094e+01 1.637796461582183838e-01 3.682503700256347656e+00 1.153885006904602051e+00 -8.866496682167053223e-01
6.760000000000000000e+02 2.731462478637695312e+00 2.094044494628906250e+01 -2.536285435780882835e-03 -2.436529844999313354e-02 -8.070474490523338318e-03 7.988081872463226318e-02
6.770000000000000000e+02 7.929110717773437500e+01 2.932032012939453125e+01 -4.423334728926420212e-03 8.664222717285156250e+00 2.597939729690551758e+00 3.166139498353004456e-02
6.780000000000000000e+02 7.068801116943359375e+01 3.155650520324707031e+01 -1.073902696371078491e-01 8.250664710998535156e+00 2.442982435226440430e+00 2.353941947221755981e-01
6.790000000000000000e+02 5.769203948974609375e+01 3.161221694946289062e+01 -4.409388899803161621e-01 7.781100749969482422e+00 2.202048540115356445e+00 3.189381659030914307e-01
6.800000000000000000e+02 4.367404937744140625e+01 2.942966270446777344e+01 -7.430482506752014160e-01 7.080493450164794922e+00 1.901233553886413574e+00 1.555585265159606934e-01
6.810000000000000000e+02 2.906284904479980469e+01 3.127243041992187500e+01 -6.823322176933288574e-01 5.198535919189453125e+00 1.354861140251159668e+00 -2.694650590419769287e-01
6.820000000000000000e+02 3.469376754760742188e+01 3.295507049560546875e+01 -7.870846986770629883e-01 6.017019271850585938e+00 1.568980336189270020e+00 -6.591966748237609863e-02
6.830000000000000000e+02 2.116283416748046875e+01 2.340739631652832031e+01 -2.670750617980957031e-01 3.841770648956298828e+00 1.072408676147460938e+00 -6.560671329498291016e-01
6.840000000000000000e+02 1.783806037902832031e+01 2.233648490905761719e+01 -9.055321663618087769e-02 3.002789258956909180e+00 8.736708164215087891e-01 -7.693498730659484863e-01
6.850000000000000000e+02 7.621265888214111328e+00 2.285579109191894531e+01 1.578436344861984253e-01 3.847436606884002686e-01 1.627761870622634888e-01 -1.447918564081192017e-01
6.860000000000000000e+02 1.272800159454345703e+01 3.288228607177734375e+01 -1.436202973127365112e-01 1.935594320297241211e+00 5.375921726226806641e-01 -3.015378713607788086e-01
6.870000000000000000e+02 7.663463592529296875e+00 3.195122909545898438e+01 -1.258924603462219238e-02 9.232884049415588379e-01 2.732097506523132324e-01 -1.621425002813339233e-01
6.880000000000000000e+02 2.252930879592895508e+00 3.164310836791992188e+01 6.505907513201236725e-03 -2.234246814623475075e-03 1.281498232856392860e-03 -4.246232286095619202e-02
6.890000000000000000e+02 1.781092762947082520e+00 9.112827301025390625e+00 -2.055295626632869244e-04 1.294972607865929604e-03 3.268329019192606211e-04 -1.031399704515933990e-03
6.900000000000000000e+02 1.946616554260253906e+01 -7.839465618133544922e+00 -3.760210275650024414e-01 8.104962855577468872e-02 -8.849142491817474365e-02 -3.815745413303375244e-01
6.910000000000000000e+02 1.417397212982177734e+01 -1.384261512756347656e+01 -4.485863745212554932e-01 -7.513779401779174805e-01 -3.599892854690551758e-01 -5.536596775054931641e-01
6.920000000000000000e+02 7.566772937774658203e+00 -1.388915824890136719e+01 -6.058021448552608490e-03 1.150223985314369202e-02 1.633265404962003231e-03 6.960588041692972183e-03
6.930000000000000000e+02 1.133517360687255859e+01 -8.136366844177246094e+00 1.842850586399435997e-03 6.503871991299092770e-04 7.479713531211018562e-04 -1.122880494222044945e-03
6.940000000000000000e+02 1.016828823089599609e+01 -3.155587911605834961e+00 -5.775905083282850683e-05 1.118108513765037060e-03 3.181048377882689238e-04 -9.363722056150436401e-04
6.950000000000000000e+02 1.321066093444824219e+01 -1.961026906967163086e+00 7.956688932608813047e-05 1.115401901188306510e-04 5.733212310587987304e-05 -5.886717917746864259e-05
6.960000000000000000e+02 1.491145324707031250e+01 -2.293596744537353516e+00 -2.227696531917899847e-04 -1.508476125309243798e-04 -1.120851738960482180e-04 1.572579349158331752e-04
6.970000000000000000e+02 1.430582237243652344e+01 -2.140483856201171875e+00 1.383361523039638996e-04 2.689249522518366575e-04 1.221783313667401671e-04 -2.202916075475513935e-04
6.980000000000000000e+02 1.375236034393310547e+01 -1.995873212814331055e+00 -4.843499118578620255e-05 -3.376666572876274586e-04 -1.158304876298643649e-04 2.087259636027738452e-04
6.990000000000000000e+02 1.179997539520263672e+01 -1.971790194511413574e+00 4.744420875795185566e-04 -5.147675619809888303e-05 1.268896012334153056e-04 -2.682887134142220020e-04
7.000000000000000000e+02 1.031625747680664062e+01 -1.859590172767639160e+00 2.208115765824913979e-04 3.599121409934014082e-04 1.742171152727678418e-04 -5.137535044923424721e-04
7.010000000000000000e+02 9.574617385864257812e+00 -1.835700392723083496e+00 -1.888989791041240096e-04 -4.021002096123993397e-04 -1.772997638909146190e-04 4.857104504480957985e-04
7.020000000000000000e+02 8.826243400573730469e+00 -1.843019366264343262e+00 1.887875259853899479e-04 4.277136176824569702e-04 1.849503460107371211e-04 -3.759882238227874041e-04
7.030000000000000000e+02 7.320638179779052734e+00 -1.862683176994323730e+00 2.095636882586404681e-04 3.981283225584775209e-04 1.823076017899438739e-04 -3.258497454226016998e-04
7.040000000000000000e+02 5.798398494720458984e+00 -1.882896304130554199e+00 8.351001270057167858e-06 4.297889536246657372e-04 1.314419932896271348e-04 -1.946911943377926946e-04
7.050000000000000000e+02 3.514530658721923828e+00 -1.987264752388000488e+00 -7.135517080314457417e-05 -1.049487400450743735e-04 -5.289117325446568429e-05 -1.215165593748679385e-05
7.060000000000000000e+02 5.038364410400390625e+00 -1.907305836677551270e+00 6.689955625915899873e-05 -3.805696615017950535e-04 -9.410103666596114635e-05 1.324782933807000518e-04
7.070000000000000000e+02 4.437345981597900391e+00 -2.811645507812500000e+00 3.640010618255473673e-05 -2.942873688880354166e-04 -7.736617408227175474e-05 3.348991958773694932e-05
7.080000000000000000e+02 2.743402719497680664e+00 -2.037722349166870117e+00 1.835181319620460272e-04 7.193278725026175380e-05 7.663527503609657288e-05 -6.785138339182594791e-06
7.090000000000000000e+02 1.966605067253112793e+00 -2.077726602554321289e+00 -2.457931987009942532e-04 -5.270243127597495914e-05 -8.954868826549500227e-05 1.261376310139894485e-04
7.100000000000000000e+02 1.186070680618286133e+00 -2.133264303207397461e+00 1.913762826006859541e-04 1.259763957932591438e-04 9.520580351818352938e-05 -1.261047291336581111e-04
7.110000000000000000e+02 2.029510021209716797e+00 -4.163421630859375000e+01 -7.865334302186965942e-02 -6.066256165504455566e-01 -2.055836915969848633e-01 2.227850817143917084e-02
7.120000000000000000e+02 6.134475231170654297e+00 -3.812854385375976562e+01 3.885991871356964111e-02 2.099553793668746948e-01 7.464458793401718140e-02 -2.283981256186962128e-02
7.130000000000000000e+02 1.007784008979797363e+00 -3.866245269775390625e+01 -4.238415043801069260e-03 -7.102478146553039551e-01 -2.143458724021911621e-01 3.523774072527885437e-02
7.140000000000000000e+02 6.517555713653564453e-01 -3.477179718017578125e+01 4.337626975029706955e-03 -8.179199695587158203e-01 -2.440747022628784180e-01 -1.051868870854377747e-02
7.150000000000000000e+02 8.012409210205078125e-01 -3.338042831420898438e+01 2.745111705735325813e-04 -7.954455614089965820e-01 -2.385513186454772949e-01 -1.391767803579568863e-02
7.160000000000000000e+02 7.187509536743164062e-01 -2.905235862731933594e+01 4.957713186740875244e-03 -6.680577993392944336e-01 -1.989300251007080078e-01 -3.400969132781028748e-02
7.170000000000000000e+02 7.007119655609130859e-01 -2.763114738464355469e+01 2.176739042624831200e-03 -5.921269655227661133e-01 -1.769850701093673706e-01 -4.118359088897705078e-02
7.180000000000000000e+02 6.888599991798400879e-01 -2.621062660217285156e+01 2.882007509469985962e-03 -5.024324059486389160e-01 -1.498651206493377686e-01 -4.620935395359992981e-02
7.190000000000000000e+02 6.079005599021911621e-01 -2.193115043640136719e+01 7.874938892200589180e-04 -1.918827146291732788e-01 -5.732856690883636475e-02 -4.523515701293945312e-02
7.200000000000000000e+02 1.728018403053283691e+00 -2.035965538024902344e+01 -1.494164951145648956e-02 -9.726049005985260010e-02 -3.366063907742500305e-02 -9.624632447957992554e-02
7.210000000000000000e+02 5.568638443946838379e-01 -1.624362182617187500e+01 1.057127490639686584e-03 2.540778368711471558e-02 7.939473725855350494e-03 2.301619388163089752e-03
7.220000000000000000e+02 5.452873706817626953e-01 -1.484526348114013672e+01 -1.346653210930526257e-03 1.962173543870449066e-02 5.482524633407592773e-03 2.180628012865781784e-03
7.230000000000000000e+02 5.538980960845947266e-01 -1.345040702819824219e+01 8.963443688116967678e-04 1.271889731287956238e-02 4.084572661668062210e-03 3.152299905195832253e-03
7.240000000000000000e+02 4.493186473846435547e+00 -1.480299377441406250e+01 -5.696862004697322845e-03 -1.466855127364397049e-02 -6.109624169766902924e-03 -1.582302618771791458e-03
7.250000000000000000e+02 5.394371151924133301e-01 -9.267736434936523438e+00 4.859734326601028442e-04 1.292929984629154205e-03 5.336710019037127495e-04 2.972130314446985722e-04
7.260000000000000000e+02 5.156942009925842285e-01 -7.876744270324707031e+00 -4.525493714027106762e-04 3.733198973350226879e-04 -2.376883639954030514e-05 3.341842675581574440e-04
7.270000000000000000e+02 5.033103227615356445e-01 -6.484048366546630859e+00 6.162640056572854519e-04 4.132477624807506800e-05 1.972766331164166331e-04 -3.318802191643044353e-05
7.280000000000000000e+02 7.462677764892578125e+01 -4.022756576538085938e+01 -3.774998709559440613e-02 7.799726486206054688e+00 2.328592777252197266e+00 -4.177916795015335083e-02
7.290000000000000000e+02 5.250960922241210938e+01 -4.077265930175781250e+01 -7.434999346733093262e-01 7.990024566650390625e+00 2.173957347869873047e+00 -6.512393802404403687e-02
7.300000000000000000e+02 3.237419509887695312e+01 -4.077444839477539062e+01 -9.990848302841186523e-01 6.253397941589355469e+00 1.576293945312500000e+00 5.938133224844932556e-02
7.310000000000000000e+02 1.279220104217529297e+01 -4.061176681518554688e+01 -7.673368602991104126e-02 1.579134583473205566e+00 4.507202804088592529e-01 5.775934457778930664e-02
7.320000000000000000e+02 7.599069213867187500e+01 4.070218276977539062e+01 -1.796425692737102509e-02 8.719048500061035156e+00 2.610325336456298828e+00 4.754376783967018127e-02
7.330000000000000000e+02 7.809262847900390625e+01 4.177265930175781250e+01 3.599870577454566956e-02 8.822686195373535156e+00 2.657605409622192383e+00 -1.008969172835350037e-02
7.340000000000000000e+02 7.875870513916015625e+01 3.900719070434570312e+01 -2.907547727227210999e-02 8.862187385559082031e+00 2.649933576583862305e+00 -7.610796485096216202e-03
7.350000000000000000e+02 7.713890075683593750e+01 3.593340301513671875e+01 -1.413011550903320312e-02 8.695339202880859375e+00 2.604362726211547852e+00 5.039904639124870300e-02
7.360000000000000000e+02 7.920860290527343750e+01 3.477944564819335938e+01 -5.068710539489984512e-03 8.827075958251953125e+00 2.646602153778076172e+00 1.479446329176425934e-02
7.370000000000000000e+02 7.801277160644531250e+01 3.321903991699218750e+01 -7.852147333323955536e-03 8.705738067626953125e+00 2.609365701675415039e+00 4.906773194670677185e-02
7.380000000000000000e+02 7.932655334472656250e+01 3.339516067504882812e+01 2.527946839109063148e-03 8.799691200256347656e+00 2.640665769577026367e+00 1.781923882663249969e-02
7.390000000000000000e+02 7.936062622070312500e+01 3.068410110473632812e+01 -1.185417291708290577e-03 8.716942787170410156e+00 2.614727020263671875e+00 2.559952810406684875e-02
7.400000000000000000e+02 7.630469512939453125e+01 2.808885574340820312e+01 -1.724299043416976929e-02 8.428851127624511719e+00 2.523482322692871094e+00 1.507718116044998169e-01
7.410000000000000000e+02 7.925990295410156250e+01 2.650992965698242188e+01 -2.525876509025692940e-03 8.538208007812500000e+00 2.560704708099365234e+00 4.033325240015983582e-02
7.420000000000000000e+02 7.627549743652343750e+01 2.519319152832031250e+01 -1.322406157851219177e-02 8.322629928588867188e+00 2.492821931838989258e+00 1.762035042047500610e-01
7.430000000000000000e+02 7.926235198974609375e+01 2.510676956176757812e+01 8.914410718716681004e-04 8.467434883117675781e+00 2.540497779846191406e+00 4.174146428704261780e-02
7.440000000000000000e+02 7.928353118896484375e+01 2.090216255187988281e+01 -1.412774203345179558e-03 8.236241340637207031e+00 2.470448493957519531e+00 4.628560319542884827e-02
7.450000000000000000e+02 7.928949737548828125e+01 1.950167655944824219e+01 3.168255498167127371e-04 8.152647972106933594e+00 2.445889472961425781e+00 4.739562422037124634e-02
7.460000000000000000e+02 7.929545593261718750e+01 1.810278320312500000e+01 -9.527920628897845745e-04 8.066853523254394531e+00 2.419770240783691406e+00 4.807367175817489624e-02
7.470000000000000000e+02 7.932077789306640625e+01 1.391600799560546875e+01 1.007695449516177177e-03 7.800945281982421875e+00 2.340585947036743164e+00 4.793033376336097717e-02
7.480000000000000000e+02 7.933041381835937500e+01 1.252237987518310547e+01 -8.898338273866102099e-05 7.711395263671875000e+00 2.313391923904418945e+00 4.700863733887672424e-02
7.490000000000000000e+02 7.933975219726562500e+01 1.113039875030517578e+01 1.196844386868178844e-03 7.622389316558837891e+00 2.287075757980346680e+00 4.592564702033996582e-02
7.500000000000000000e+02 7.935502624511718750e+01 6.960403919219970703e+00 7.896359311416745186e-04 7.368616104125976562e+00 2.210821628570556641e+00 4.026477038860321045e-02
7.510000000000000000e+02 7.935540008544921875e+01 5.570941448211669922e+00 1.394618069753050804e-03 7.291627407073974609e+00 2.187906742095947266e+00 3.794137388467788696e-02
7.520000000000000000e+02 7.935426330566406250e+01 4.181575775146484375e+00 1.241849968209862709e-03 7.219950199127197266e+00 2.166357517242431641e+00 3.511988371610641479e-02
7.530000000000000000e+02 7.934728240966796875e+01 1.139236986637115479e-02 1.780057791620492935e-03 7.043678760528564453e+00 2.113637685775756836e+00 2.509585209190845490e-02
7.540000000000000000e+02 7.934537506103515625e+01 -1.380759239196777344e+00 1.930141123011708260e-03 6.999845027923583984e+00 2.100532531738281250e+00 2.114264480769634247e-02
7.550000000000000000e+02 7.803135681152343750e+01 -4.144773960113525391e+00 9.951711632311344147e-03 7.030883312225341797e+00 2.112250566482543945e+00 3.314865380525588989e-02
7.560000000000000000e+02 7.934345245361328125e+01 -4.166857719421386719e+00 2.181200776249170303e-03 6.937190532684326172e+00 2.081811428070068359e+00 1.259063836187124252e-02
7.570000000000000000e+02 7.934046936035156250e+01 -8.348348617553710938e+00 2.040691440925002098e-03 6.910248756408691406e+00 2.073686838150024414e+00 -9.828478796407580376e-04
7.580000000000000000e+02 7.801218414306640625e+01 -1.112289905548095703e+01 9.348453022539615631e-03 7.027419567108154297e+00 2.111030340194702148e+00 -2.854115515947341919e-02
7.590000000000000000e+02 7.933679199218750000e+01 -1.113804340362548828e+01 1.931676175445318222e-03 6.937151908874511719e+00 2.081725120544433594e+00 -9.698084555566310883e-03
7.600000000000000000e+02 7.933438110351562500e+01 -1.531957149505615234e+01 1.368739642202854156e-03 7.036730766296386719e+00 2.111429929733276367e+00 -2.055547386407852173e-02
7.610000000000000000e+02 7.801311492919921875e+01 -1.808622932434082031e+01 4.881097003817558289e-03 7.194976806640625000e+00 2.159957408905029297e+00 -7.298672944307327271e-02
7.620000000000000000e+02 7.933872985839843750e+01 -1.810257339477539062e+01 7.321514422073960304e-04 7.133932113647460938e+00 2.140399217605590820e+00 -2.547490037977695465e-02
7.630000000000000000e+02 7.935390472412109375e+01 -2.365200614929199219e+01 -1.960049266926944256e-04 7.370734214782714844e+00 2.211161375045776367e+00 -2.972565591335296631e-02
7.640000000000000000e+02 7.805828857421875000e+01 -2.495505332946777344e+01 -8.127325563691556454e-04 7.450299739837646484e+00 2.234846115112304688e+00 -8.412576466798782349e-02
7.650000000000000000e+02 7.935077667236328125e+01 -2.504024887084960938e+01 3.203454543836414814e-04 7.433482170104980469e+00 2.230140686035156250e+00 -2.987929061055183411e-02
7.660000000000000000e+02 7.932018280029296875e+01 -2.920406913757324219e+01 -8.285332005470991135e-04 7.613085746765136719e+00 2.283677101135253906e+00 -2.797537110745906830e-02
7.670000000000000000e+02 7.789922332763671875e+01 -3.183350753784179688e+01 -7.343865931034088135e-03 7.694206237792968750e+00 2.306058645248413086e+00 -6.723266094923019409e-02
7.680000000000000000e+02 7.930700683593750000e+01 -3.197660446166992188e+01 -1.787010580301284790e-03 7.713329315185546875e+00 2.313462734222412109e+00 -2.283565513789653778e-02
7.690000000000000000e+02 7.930499267578125000e+01 -3.607740402221679688e+01 7.723325397819280624e-04 7.818375587463378906e+00 2.345744371414184570e+00 -1.433704141527414322e-02
7.700000000000000000e+02 7.917909240722656250e+01 -3.739224624633789062e+01 -3.918750677257776260e-03 7.840267658233642578e+00 2.350904703140258789e+00 -1.011020131409168243e-02
7.710000000000000000e+02 7.891907501220703125e+01 -3.868817520141601562e+01 1.446524052880704403e-03 7.854573726654052734e+00 2.356806039810180664e+00 -9.863405488431453705e-03
7.720000000000000000e+02 7.853926086425781250e+01 -4.004935073852539062e+01 -3.170846495777368546e-03 7.863396167755126953e+00 2.358067750930786133e+00 -7.528245449066162109e-03
7.730000000000000000e+02 9.612874984741210938e+00 3.836635589599609375e+01 -1.106423735618591309e-01 1.365038752555847168e+00 3.763189017772674561e-01 -9.588111937046051025e-02
7.740000000000000000e+02 2.735571479797363281e+01 4.079774475097656250e+01 -6.882877349853515625e-01 4.829159259796142578e+00 1.242261409759521484e+00 -3.271660953760147095e-02
7.750000000000000000e+02 6.782598876953125000e+01 4.109519958496093750e+01 -1.799522191286087036e-01 8.187767982482910156e+00 2.402344942092895508e+00 2.725105732679367065e-02
7.760000000000000000e+02 1.123538374900817871e+00 1.936578750610351562e+00 9.996622247854247689e-05 9.536874858895316720e-05 5.860049350303597748e-05 -2.388334687566384673e-04
7.770000000000000000e+02 3.180739402770996094e+00 2.655356884002685547e+00 3.962749033235013485e-04 -2.263167989440262318e-04 5.098742985865101218e-05 -5.425733397714793682e-04
7.780000000000000000e+02 5.279645442962646484e+00 2.542352199554443359e+00 1.024329176289029419e-04 3.561519552022218704e-04 1.375754654873162508e-04 3.488334768917411566e-04
7.790000000000000000e+02 1.767066717147827148e+00 6.251954555511474609e+00 -2.050599432550370693e-04 5.048678140155971050e-04 8.994235395221039653e-05 -1.356716384179890156e-04
7.800000000000000000e+02 5.958755612373352051e-01 9.214110374450683594e+00 9.750043973326683044e-04 2.605165122076869011e-03 1.074050902388989925e-03 -6.555866566486656666e-04
7.810000000000000000e+02 6.055033802986145020e-01 1.203317260742187500e+01 9.346434380859136581e-04 5.732302088290452957e-03 2.000083681195974350e-03 -7.938247872516512871e-04
7.820000000000000000e+02 1.826539635658264160e+00 1.187755966186523438e+01 -8.939763065427541733e-04 1.391130499541759491e-03 1.491462462581694126e-04 -1.269553089514374733e-03
7.830000000000000000e+02 6.341438293457031250e-01 1.766830825805664062e+01 -3.412741702049970627e-03 -3.841808065772056580e-02 -1.254924666136503220e-02 1.547062303870916367e-02
7.840000000000000000e+02 7.684417724609375000e+00 1.838004112243652344e+01 -2.191755771636962891e-01 -1.792173646390438080e-02 -7.112919539213180542e-02 -4.562139511108398438e-02
7.850000000000000000e+02 6.061062216758728027e-01 2.191696739196777344e+01 4.132677335292100906e-03 -1.944407373666763306e-01 -5.709241703152656555e-02 2.510274015367031097e-02
7.860000000000000000e+02 6.480441093444824219e-01 2.332501029968261719e+01 4.260101995896548033e-04 -2.450426369905471802e-01 -7.338498532772064209e-02 2.067036367952823639e-02
7.870000000000000000e+02 6.586954593658447266e-01 2.475454330444335938e+01 5.747963208705186844e-03 -2.811028957366943359e-01 -8.260647952556610107e-02 1.341077312827110291e-02
7.880000000000000000e+02 6.895984411239624023e-01 2.900985527038574219e+01 -4.412413400132209063e-04 -2.985083758831024170e-01 -8.968488126993179321e-02 -6.736628245562314987e-03
7.890000000000000000e+02 7.157251238822937012e-01 3.041744995117187500e+01 5.824971944093704224e-03 -2.786515653133392334e-01 -8.184798061847686768e-02 -1.268230471760034561e-02
7.900000000000000000e+02 2.159224033355712891e+00 3.026221466064453125e+01 7.471415679901838303e-03 -4.058404266834259033e-02 -9.933788329362869263e-03 -3.390131890773773193e-02
7.910000000000000000e+02 7.422532439231872559e-01 3.181957626342773438e+01 -2.690117806196212769e-03 -2.520553767681121826e-01 -7.642364501953125000e-02 -1.496489532291889191e-02
7.920000000000000000e+02 7.802811861038208008e-01 3.599921417236328125e+01 -6.108251400291919708e-03 -1.336570978164672852e-01 -4.192960262298583984e-02 -2.188974060118198395e-02
7.930000000000000000e+02 3.605411767959594727e+00 3.701171112060546875e+01 1.794628612697124481e-02 2.382597923278808594e-01 7.686182111501693726e-02 -8.298097550868988037e-02
7.940000000000000000e+02 9.923259615898132324e-01 3.872589111328125000e+01 -5.687931086868047714e-03 -9.644350968301296234e-03 -4.599684849381446838e-03 -4.252663999795913696e-02
7.950000000000000000e+02 1.363168478012084961e+00 4.008701705932617188e+01 2.357520908117294312e-02 5.948897078633308411e-02 2.491925470530986786e-02 -6.109415367245674133e-02
7.960000000000000000e+02 1.036853218078613281e+01 1.868391156196594238e+00 2.761314099188894033e-04 4.311047086957842112e-05 9.577256423654034734e-05 5.568217602558434010e-04
7.970000000000000000e+02 8.902205467224121094e+00 1.878822326660156250e+00 2.177273418055847287e-04 2.351287548663094640e-04 1.358568260911852121e-04 6.734888884238898754e-04
7.980000000000000000e+02 8.185665130615234375e+00 1.872739791870117188e+00 3.277737414464354515e-04 -3.870685177389532328e-04 -1.778843579813838005e-05 -4.926588153466582298e-04
7.990000000000000000e+02 7.473432540893554688e+00 1.864523172378540039e+00 1.874067384051159024e-04 3.380399430170655251e-04 1.576340000610798597e-04 5.948194302618503571e-04
8.000000000000000000e+02 5.343563079833984375e+00 1.847774028778076172e+00 4.084157990291714668e-04 -4.353091062512248755e-04 -8.067994713201187551e-06 -4.687937034759670496e-04
8.010000000000000000e+02 4.630928516387939453e+00 1.853030085563659668e+00 1.414172584190964699e-04 2.845060371328145266e-04 1.277769915759563446e-04 1.937111665029078722e-04
8.020000000000000000e+02 3.918100595474243164e+00 1.864985942840576172e+00 3.414528910070657730e-04 -3.072871186304837465e-04 1.024973425955977291e-05 -4.325564368627965450e-04
8.030000000000000000e+02 3.208915233612060547e+00 1.877376794815063477e+00 2.148665043932851404e-05 2.780596259981393814e-04 8.986388274934142828e-05 6.853353261249139905e-05
8.040000000000000000e+02 2.509807348251342773e+00 1.881178855895996094e+00 2.349052520003169775e-04 -1.636866654735058546e-04 2.136557486664969474e-05 -3.087483637500554323e-04
8.050000000000000000e+02 1.817505002021789551e+00 1.884275436401367188e+00 -1.474602322559803724e-05 1.661077258177101612e-04 4.540850932244211435e-05 4.716734474641270936e-05
8.060000000000000000e+02 1.263547039031982422e+01 1.769409298896789551e+00 1.140869571827352047e-04 -1.318661234108731151e-04 -5.333749868441373110e-06 1.979005537577904761e-05
8.070000000000000000e+02 1.331714630126953125e+01 1.743297696113586426e+00 2.032328920904546976e-04 1.526874693809077144e-04 1.067761113517917693e-04 3.695397172123193741e-04
8.080000000000000000e+02 1.513122272491455078e+01 1.859038472175598145e+00 4.442306089913472533e-05 -5.599081050604581833e-04 -1.546455168863758445e-04 -5.465607973746955395e-04
8.090000000000000000e+02 1.341440105438232422e+01 3.127610445022583008e+00 -2.019490057136863470e-04 -1.124347443692386150e-03 -3.978889435529708862e-04 -1.867768150987103581e-04
8.100000000000000000e+02 1.476423168182373047e+01 3.613657236099243164e+00 4.750863081426359713e-05 -1.859180047176778316e-04 -4.152280962443910539e-05 2.991486690007150173e-04
8.110000000000000000e+02 1.406292915344238281e+01 7.568808555603027344e+00 -1.438719802536070347e-03 4.213508873363025486e-05 -4.189754254184663296e-04 -6.971484981477260590e-04
8.120000000000000000e+02 1.352308845520019531e+01 8.832821846008300781e+00 2.004631096497178078e-03 1.228920533321797848e-03 9.700654773041605949e-04 9.303884580731391907e-04
8.130000000000000000e+02 1.288919067382812500e+01 1.006426811218261719e+01 -2.583940746262669563e-03 -4.634530050680041313e-04 -9.142181370407342911e-04 -1.996725099161267281e-03
8.140000000000000000e+02 1.029551315307617188e+01 1.173818778991699219e+01 1.864607183961197734e-04 9.093582630157470703e-03 2.784013049677014351e-03 2.998210024088621140e-03
8.150000000000000000e+02 9.403487205505371094e+00 1.278559875488281250e+01 -1.840765326051041484e-04 -7.180741522461175919e-03 -2.209445461630821228e-03 -3.437550272792577744e-03
8.160000000000000000e+02 8.456155776977539062e+00 1.558608055114746094e+01 1.747353747487068176e-02 2.610533684492111206e-02 1.307366229593753815e-02 9.599374607205390930e-03
8.170000000000000000e+02 1.624755477905273438e+01 1.675058174133300781e+01 5.161709189414978027e-01 2.751489877700805664e+00 9.802982211112976074e-01 -1.056893587112426758e+00
8.180000000000000000e+02 1.663639068603515625e+01 1.310845947265625000e+01 8.055374026298522949e-01 3.338786363601684570e+00 1.243297219276428223e+00 -1.527714014053344727e+00
8.190000000000000000e+02 1.770351028442382812e+01 1.046117401123046875e+01 6.447048783302307129e-01 3.917066097259521484e+00 1.368531346321105957e+00 -1.401385664939880371e+00
8.200000000000000000e+02 1.834612464904785156e+01 7.738716125488281250e+00 2.474569976329803467e-01 3.344268083572387695e+00 1.077517509460449219e+00 -8.704760074615478516e-01
8.210000000000000000e+02 1.876630592346191406e+01 4.994666099548339844e+00 1.343322694301605225e-01 2.152554273605346680e+00 6.860659718513488770e-01 -5.542174577713012695e-01
8.220000000000000000e+02 1.924142074584960938e+01 -3.787665367126464844e+00 4.980810731649398804e-02 -2.785170674324035645e-01 -6.861268728971481323e-02 1.956598907709121704e-01
8.230000000000000000e+02 2.010495185852050781e+01 -4.043816566467285156e+00 7.787591964006423950e-02 -1.220992952585220337e-01 -1.326701231300830841e-02 2.508800327777862549e-01
8.240000000000000000e+02 2.089528846740722656e+01 -4.235351085662841797e+00 1.119851469993591309e-01 -3.068892471492290497e-02 2.438886649906635284e-02 2.740449309349060059e-01
8.250000000000000000e+02 2.300307846069335938e+01 -4.640793800354003906e+00 3.612813949584960938e-01 1.727237403392791748e-01 1.602015346288681030e-01 -5.844181403517723083e-02
8.260000000000000000e+02 2.510424423217773438e+01 -4.892239570617675781e+00 1.287532329559326172e+00 5.523579716682434082e-01 5.519670844078063965e-01 -8.404011726379394531e-01
8.270000000000000000e+02 2.626794624328613281e+01 -4.993488788604736328e+00 2.493822574615478516e+00 1.209925413131713867e+00 1.111124396324157715e+00 -1.945029735565185547e+00
8.280000000000000000e+02 2.670004272460937500e+01 -5.142034530639648438e+00 2.997435569763183594e+00 1.489175200462341309e+00 1.345983147621154785e+00 -2.368093729019165039e+00
8.290000000000000000e+02 2.742551803588867188e+01 -5.101286888122558594e+00 4.030968189239501953e+00 3.470585823059082031e+00 2.250466346740722656e+00 -4.105505943298339844e+00
8.300000000000000000e+02 2.828087615966796875e+01 -5.058802604675292969e+00 4.131937026977539062e+00 8.859088897705078125e+00 3.897307872772216797e+00 -6.301505088806152344e+00
8.310000000000000000e+02 2.908855819702148438e+01 -5.158296585083007812e+00 2.649828672409057617e+00 1.674750518798828125e+01 5.819200038909912109e+00 -5.402318477630615234e+00
8.320000000000000000e+02 2.948263549804687500e+01 -5.210837841033935547e+00 2.523823738098144531e+00 1.938675880432128906e+01 6.573174953460693359e+00 -2.935838222503662109e+00
8.330000000000000000e+02 3.096895790100097656e+01 -6.274804592132568359e+00 1.022009372711181641e+01 1.563386917114257812e+01 7.756188869476318359e+00 1.664617538452148438e+00
8.340000000000000000e+02 3.063410949707031250e+01 -7.587936401367187500e+00 9.394975662231445312e+00 1.755815887451171875e+01 8.085940361022949219e+00 -2.581059932708740234e+00
8.350000000000000000e+02 3.005327033996582031e+01 -8.250669479370117188e+00 4.089253902435302734e+00 2.002446556091308594e+01 7.234115600585937500e+00 -5.489743351936340332e-01
8.360000000000000000e+02 2.965021896362304688e+01 -8.427522659301757812e+00 2.505822658538818359e+00 1.969156837463378906e+01 6.659217357635498047e+00 1.962738633155822754e+00
8.370000000000000000e+02 2.717798614501953125e+01 -8.456692695617675781e+00 3.534814834594726562e+00 2.527037620544433594e+00 1.818555712699890137e+00 3.401584863662719727e+00
8.380000000000000000e+02 2.675558280944824219e+01 -8.429931640625000000e+00 2.893809556961059570e+00 1.566170930862426758e+00 1.337994098663330078e+00 2.471582174301147461e+00
8.390000000000000000e+02 2.630552482604980469e+01 -8.432173728942871094e+00 2.319221496582031250e+00 1.043264389038085938e+00 1.008745789527893066e+00 1.769673585891723633e+00
8.400000000000000000e+02 2.653100013732910156e+01 -8.458522796630859375e+00 2.582934856414794922e+00 1.182024002075195312e+00 1.129487633705139160e+00 2.068362712860107422e+00
8.410000000000000000e+02 2.606544876098632812e+01 -8.470032691955566406e+00 1.992202043533325195e+00 8.357141017913818359e-01 8.483748435974121094e-01 1.548488974571228027e+00
8.420000000000000000e+02 2.330493164062500000e+01 -8.332279205322265625e+00 -8.629146963357925415e-03 1.586708128452301025e-01 4.501250013709068298e-02 1.117108669131994247e-02
8.430000000000000000e+02 2.482941627502441406e+01 -8.441498756408691406e+00 7.372301220893859863e-01 3.012512624263763428e-01 3.115444183349609375e-01 5.608960986137390137e-01
8.440000000000000000e+02 2.098533058166503906e+01 -8.098117828369140625e+00 -4.121617674827575684e-01 1.742565333843231201e-01 -7.137156277894973755e-02 -3.349362909793853760e-01
8.450000000000000000e+02 2.020143318176269531e+01 -8.002721786499023438e+00 -4.257871210575103760e-01 1.256351917982101440e-01 -9.004557877779006958e-02 -3.771764039993286133e-01
8.460000000000000000e+02 1.851899337768554688e+01 -8.207750320434570312e+00 -3.172830641269683838e-01 -1.040888279676437378e-01 -1.264115720987319946e-01 -3.956260979175567627e-01
8.470000000000000000e+02 3.010014343261718750e+01 -5.399834156036376953e+00 4.539572238922119141e+00 1.988758277893066406e+01 7.328146934509277344e+00 8.816853761672973633e-01
8.480000000000000000e+02 3.071469116210937500e+01 -7.381618022918701172e+00 1.059649944305419922e+01 1.689194488525390625e+01 8.246533393859863281e+00 -2.150945663452148438e+00
8.490000000000000000e+02 3.075909042358398438e+01 -6.739589691162109375e+00 1.206236553192138672e+01 1.600041389465332031e+01 8.418833732604980469e+00 2.590793967247009277e-01
8.500000000000000000e+02 2.985770225524902344e+01 -8.353556632995605469e+00 3.237188577651977539e+00 2.004601097106933594e+01 6.984960079193115234e+00 5.857403874397277832e-01
8.510000000000000000e+02 3.075789451599121094e+01 -7.168609142303466797e+00 1.137269306182861328e+01 1.643484687805175781e+01 8.342262268066406250e+00 -1.579763054847717285e+00
8.520000000000000000e+02 3.068918418884277344e+01 -6.327411174774169922e+00 1.123214340209960938e+01 1.679363441467285156e+01 8.407733917236328125e+00 1.920858502388000488e+00
8.530000000000000000e+02 3.104571533203125000e+01 -6.717092990875244141e+00 1.106434822082519531e+01 1.510942459106445312e+01 7.852131843566894531e+00 2.354662716388702393e-01
8.540000000000000000e+02 3.073177146911621094e+01 -6.532209873199462891e+00 1.186637783050537109e+01 1.631161880493164062e+01 8.453398704528808594e+00 1.072529554367065430e+00
8.550000000000000000e+02 3.031044197082519531e+01 -5.004220962524414062e+00 3.556685686111450195e+00 1.808151054382324219e+01 6.491458892822265625e+00 5.506586432456970215e-01
8.560000000000000000e+02 2.989516639709472656e+01 -5.309367656707763672e+00 3.615648746490478516e+00 2.034252929687500000e+01 7.187453269958496094e+00 -2.433828264474868774e-01
8.570000000000000000e+02 3.023057937622070312e+01 -8.120061874389648438e+00 5.246729850769042969e+00 1.974967765808105469e+01 7.498922348022460938e+00 -1.608597636222839355e+00
8.580000000000000000e+02 2.688341522216796875e+01 -5.162747859954833984e+00 3.080258369445800781e+00 1.736237287521362305e+00 1.444948673248291016e+00 -2.494980573654174805e+00
8.590000000000000000e+02 2.672564888000488281e+01 -4.562787532806396484e+00 3.126125812530517578e+00 2.711093187332153320e+00 1.751165628433227539e+00 -3.165634632110595703e+00
8.600000000000000000e+02 2.798517036437988281e+01 -4.759943962097167969e+00 3.822525978088378906e+00 7.408498764038085938e+00 3.369307518005371094e+00 -5.537731647491455078e+00
8.610000000000000000e+02 2.889284896850585938e+01 -5.137772560119628906e+00 2.984085559844970703e+00 1.490857410430908203e+01 5.367797851562500000e+00 -6.087842464447021484e+00
8.620000000000000000e+02 2.758318901062011719e+01 -4.787032604217529297e+00 3.825036525726318359e+00 5.061888217926025391e+00 2.666077375411987305e+00 -4.731919765472412109e+00
8.630000000000000000e+02 2.858367729187011719e+01 -4.687055587768554688e+00 2.807786941528320312e+00 1.143120384216308594e+01 4.271697044372558594e+00 -5.723892688751220703e+00
8.640000000000000000e+02 2.878563308715820312e+01 -4.760917186737060547e+00 2.629074096679687500e+00 1.325686931610107422e+01 4.765782833099365234e+00 -5.536556243896484375e+00
8.650000000000000000e+02 2.878818511962890625e+01 -8.861140251159667969e+00 2.475157260894775391e+00 1.294350433349609375e+01 4.625598430633544922e+00 5.572678565979003906e+00
8.660000000000000000e+02 2.556694221496582031e+01 -8.498816490173339844e+00 1.394913673400878906e+00 5.910305976867675781e-01 5.957832932472229004e-01 1.089350104331970215e+00
8.670000000000000000e+02 2.795853805541992188e+01 -8.395452499389648438e+00 4.535108566284179688e+00 5.677135944366455078e+00 3.063673257827758789e+00 5.660553932189941406e+00
8.680000000000000000e+02 2.857179450988769531e+01 -8.469962120056152344e+00 3.550234794616699219e+00 1.157326793670654297e+01 4.537050724029541016e+00 6.657777309417724609e+00
8.690000000000000000e+02 2.695574951171875000e+01 -8.413386344909667969e+00 3.224554300308227539e+00 1.935211658477783203e+00 1.547929763793945312e+00 2.875157594680786133e+00
8.700000000000000000e+02 2.740507316589355469e+01 -8.442689895629882812e+00 3.859354496002197266e+00 3.109858036041259766e+00 2.090763807296752930e+00 3.918717145919799805e+00
8.710000000000000000e+02 2.758856582641601562e+01 -8.732147216796875000e+00 3.858262538909912109e+00 4.695785045623779297e+00 2.566214323043823242e+00 4.776243209838867188e+00
8.720000000000000000e+02 2.831557655334472656e+01 -8.731296539306640625e+00 3.468488454818725586e+00 9.329227447509765625e+00 3.839314699172973633e+00 6.108603000640869141e+00
8.730000000000000000e+02 2.776691246032714844e+01 -8.371119499206542969e+00 4.480903625488281250e+00 4.613832473754882812e+00 2.728420734405517578e+00 5.039136886596679688e+00
8.740000000000000000e+02 2.812788009643554688e+01 -8.654561996459960938e+00 3.839936017990112305e+00 7.697121620178222656e+00 3.461117267608642578e+00 6.028365612030029297e+00
8.750000000000000000e+02 1.452423286437988281e+01 1.739743947982788086e+00 -3.593352448660880327e-04 1.415342267137020826e-04 -6.534030399052426219e-05 3.544468781910836697e-04
8.760000000000000000e+02 1.463714313507080078e+01 2.565304279327392578e+00 6.682088132947683334e-04 8.127768523991107941e-04 4.442956997081637383e-04 -1.337895810138434172e-04
8.770000000000000000e+02 1.188697242736816406e+01 1.805869936943054199e+00 2.119427954312413931e-04 -1.396390416630310938e-05 5.939366383245214820e-05 2.306209353264421225e-04
8.780000000000000000e+02 1.446751976013183594e+01 -3.373207569122314453e+00 2.823249087668955326e-04 6.156312883831560612e-04 2.693868591450154781e-04 -2.376155898673459888e-04
8.790000000000000000e+02 1.385079574584960938e+01 -2.962201118469238281e+00 -4.090946167707443237e-04 -2.068148751277476549e-04 -1.847728417487815022e-04 7.208668830571696162e-05
8.800000000000000000e+02 1.920052528381347656e+01 -8.747687339782714844e+00 -2.785117626190185547e-01 3.555024787783622742e-02 -7.288845628499984741e-02 -3.877900838851928711e-01
8.810000000000000000e+02 3.890258312225341797e+00 3.329392194747924805e+00 4.307214403524994850e-04 -2.539117413107305765e-04 5.304290971253067255e-05 -7.717932458035647869e-04
8.820000000000000000e+02 9.516976356506347656e+00 2.651593923568725586e+00 2.222003822680562735e-04 3.408527118153870106e-04 1.689159253146499395e-04 8.997184340842068195e-04
8.830000000000000000e+02 7.358505725860595703e+00 2.601487398147583008e+00 4.704456077888607979e-04 -7.324963225983083248e-04 -7.861521589802578092e-05 -5.961957504041492939e-04
8.840000000000000000e+02 6.763595104217529297e+00 1.856071829795837402e+00 4.221058334223926067e-04 -4.841207119170576334e-04 -1.860446354839950800e-05 -4.973605973646044731e-04
8.850000000000000000e+02 6.663172721862792969e+00 2.574964284896850586e+00 9.011435031425207853e-05 4.940388607792556286e-04 1.752459647832438350e-04 5.953961517661809921e-04
8.860000000000000000e+02 7.919586181640625000e+00 3.399773836135864258e+00 5.030014435760676861e-04 -9.987117955461144447e-04 -1.487130939494818449e-04 -6.441788282245397568e-04
8.870000000000000000e+02 5.731315135955810547e+00 3.958510160446166992e+00 8.156734402291476727e-04 -1.202227664180099964e-03 -1.159662569989450276e-04 -5.441388348117470741e-04
8.880000000000000000e+02 1.872080087661743164e+00 7.681911945343017578e+00 7.965976838022470474e-04 4.228948964737355709e-04 3.658477799035608768e-04 -1.062730792909860611e-03
8.890000000000000000e+02 1.865789055824279785e+00 2.626081228256225586e+00 1.462126674596220255e-04 -3.192083568137604743e-06 4.290617653168737888e-05 -3.145815280731767416e-04
8.900000000000000000e+02 6.976993680000305176e-01 3.029612779617309570e+00 2.729483239818364382e-04 3.119922475889325142e-04 1.754821569193154573e-04 -2.989381027873605490e-04
8.910000000000000000e+02 1.112817382812500000e+01 1.839779496192932129e+00 -3.786802335525862873e-05 3.466642738203518093e-05 -9.604788147044018842e-07 -1.986416900763288140e-04
8.920000000000000000e+02 8.644528388977050781e+00 3.425338745117187500e+00 5.826282358611933887e-05 6.887700292281806469e-04 2.241098700324073434e-04 1.058447873219847679e-03
8.930000000000000000e+02 2.440617561340332031e+01 -4.823496818542480469e+00 8.463917374610900879e-01 4.007319509983062744e-01 3.741371035575866699e-01 -5.117737650871276855e-01
8.940000000000000000e+02 2.578240585327148438e+01 -4.948713302612304688e+00 1.913949131965637207e+00 9.756031036376953125e-01 8.668656945228576660e-01 -1.404942989349365234e+00
8.950000000000000000e+02 2.310950660705566406e+01 -4.029541969299316406e+00 7.840217351913452148e-01 4.234569966793060303e-01 3.622436225414276123e-01 -3.363969922065734863e-01
8.960000000000000000e+02 2.324643516540527344e+01 -3.431423664093017578e+00 1.065654993057250977e+00 7.406468987464904785e-01 5.418905615806579590e-01 -6.602379083633422852e-01
8.970000000000000000e+02 2.377721595764160156e+01 -4.164474010467529297e+00 9.975500702857971191e-01 5.465876460075378418e-01 4.632413089275360107e-01 -5.741325616836547852e-01
8.980000000000000000e+02 2.260537338256835938e+01 -3.205035924911499023e+00 8.635648488998413086e-01 5.992483496665954590e-01 4.388439655303955078e-01 -4.469083249568939209e-01
8.990000000000000000e+02 2.230417633056640625e+01 -4.512056350708007812e+00 2.442035377025604248e-01 1.215794011950492859e-01 1.097348779439926147e-01 8.107443898916244507e-02
9.000000000000000000e+02 1.913116455078125000e+01 -2.617460250854492188e+00 2.637298963963985443e-02 -4.876672327518463135e-01 -1.383882761001586914e-01 5.474479123950004578e-02
9.010000000000000000e+02 2.244155502319335938e+01 -3.872253179550170898e+00 5.866583585739135742e-01 3.070079088211059570e-01 2.680998742580413818e-01 -1.468144506216049194e-01
9.020000000000000000e+02 1.347066497802734375e+01 -4.840758800506591797e+00 -1.199783640913665295e-03 -1.615164655959233642e-04 -4.083900130353868008e-04 3.556631272658705711e-04
9.030000000000000000e+02 1.288419151306152344e+01 -5.964422225952148438e+00 1.497625606134533882e-03 2.862320397980511189e-04 5.351572763174772263e-04 -5.872063920833170414e-04
9.040000000000000000e+02 8.142683029174804688e+00 -2.588483572006225586e+00 3.682211390696465969e-04 3.625440294854342937e-04 2.192295505665242672e-04 -4.004273505415767431e-04
9.050000000000000000e+02 8.780705451965332031e+00 2.643245458602905273e+00 2.764921227935701609e-04 -5.494625074788928032e-04 -8.189112122636288404e-05 -6.032733945176005363e-04
9.060000000000000000e+02 1.361927795410156250e+01 3.937033653259277344e+00 -5.352397565729916096e-04 7.661360432393848896e-04 6.926888454472646117e-05 -5.571322399191558361e-04
9.070000000000000000e+02 1.257937431335449219e+01 2.552362918853759766e+00 1.848676474764943123e-04 -1.368313387501984835e-04 1.441089261788874865e-05 1.231813803315162659e-04
9.080000000000000000e+02 1.104906940460205078e+01 2.627351760864257812e+00 3.847443731501698494e-04 3.667785495053976774e-05 1.264266757061704993e-04 7.057906477712094784e-04
9.090000000000000000e+02 8.075998306274414062e+00 -1.855162858963012695e+00 -2.601289306767284870e-04 -3.809209738392382860e-04 -1.923149829963222146e-04 3.589986881706863642e-04
9.100000000000000000e+02 1.255093288421630859e+01 -3.697396278381347656e+00 -1.039826893247663975e-03 1.378302986267954111e-04 -2.705989754758775234e-04 5.574415554292500019e-04
9.110000000000000000e+02 7.402172088623046875e+00 -2.600688695907592773e+00 -2.816075575537979603e-04 -3.618979535531252623e-04 -1.930516446009278297e-04 4.448158142622560263e-04
9.120000000000000000e+02 1.177919006347656250e+01 -5.630951881408691406e+00 -1.085143187083303928e-03 -7.500144420191645622e-04 -5.505472654476761818e-04 7.708208286203444004e-04
9.130000000000000000e+02 7.239605426788330078e+00 -4.918426036834716797e+00 1.941008813446387649e-04 1.149930641986429691e-03 4.032094439025968313e-04 -1.547731953905895352e-04
9.140000000000000000e+02 6.560509681701660156e+00 -1.869316458702087402e+00 -1.276108087040483952e-04 -4.040156200062483549e-04 -1.594879286130890250e-04 2.663325285539031029e-04
9.150000000000000000e+02 6.654561519622802734e+00 -2.607020139694213867e+00 1.735178666422143579e-04 4.429828841239213943e-04 1.849502295954152942e-04 -4.185958823654800653e-04
9.160000000000000000e+02 5.172096729278564453e+00 -2.713806629180908203e+00 -1.750640331010799855e-05 4.226874443702399731e-04 1.215543088619597256e-04 -1.641465059947222471e-04
9.170000000000000000e+02 1.561629652976989746e+00 -7.892702102661132812e+00 9.739829110912978649e-04 3.081424511037766933e-04 3.846375911962240934e-04 1.681919238762930036e-04
9.180000000000000000e+02 3.923935413360595703e+00 -3.807502508163452148e+00 -8.676348807057365775e-05 -1.100419976864941418e-04 -5.904164572712033987e-05 -1.094363542506471276e-04
9.190000000000000000e+02 1.514729142189025879e+00 -6.573019504547119141e+00 -5.982379079796373844e-04 1.143984700320288539e-04 -1.451518328394740820e-04 4.260280693415552378e-04
9.200000000000000000e+02 4.843277037143707275e-01 -3.600581645965576172e+00 5.375769105739891529e-04 -8.148537017405033112e-05 1.368274679407477379e-04 6.462318197009153664e-06
9.210000000000000000e+02 3.979242444038391113e-01 -2.190601348876953125e+00 -5.050507606938481331e-04 -1.296196860494092107e-04 -1.904011296574026346e-04 -2.748271617747377604e-05
9.220000000000000000e+02 5.289939045906066895e-01 -5.053104400634765625e+00 -5.432932521216571331e-04 -6.212966400198638439e-05 -1.816268631955608726e-04 5.122750371810980141e-05
9.230000000000000000e+02 2.176576995849609375e+01 -8.179912567138671875e+00 -3.394224643707275391e-01 1.662110984325408936e-01 -5.196341499686241150e-02 -2.480899989604949951e-01
9.240000000000000000e+02 2.325960540771484375e+01 -8.978588104248046875e+00 5.281587243080139160e-01 3.400425314903259277e-01 2.604603767395019531e-01 1.937661319971084595e-01
9.250000000000000000e+02 2.006485366821289062e+01 -8.982069969177246094e+00 -1.650254875421524048e-01 1.792039275169372559e-01 4.253531806170940399e-03 -3.440560996532440186e-01
9.260000000000000000e+02 2.093600273132324219e+01 -8.957726478576660156e+00 -3.335566818714141846e-02 2.532058954238891602e-01 6.595506519079208374e-02 -2.556746304035186768e-01
9.270000000000000000e+02 2.472136497497558594e+01 -9.063510894775390625e+00 1.348021626472473145e+00 6.532852053642272949e-01 6.003920435905456543e-01 9.135077595710754395e-01
9.280000000000000000e+02 2.400039672851562500e+01 -9.008362770080566406e+00 8.622410893440246582e-01 4.391653835773468018e-01 3.904219567775726318e-01 4.866762757301330566e-01
9.290000000000000000e+02 2.613929176330566406e+01 -8.768113136291503906e+00 2.224206209182739258e+00 1.154425740242004395e+00 1.013589501380920410e+00 1.910595655441284180e+00
9.300000000000000000e+02 2.177233314514160156e+01 -3.718117713928222656e+00 4.661192297935485840e-01 2.264859825372695923e-01 2.077815532684326172e-01 -7.634473033249378204e-03
9.310000000000000000e+02 2.039945602416992188e+01 -3.283656835556030273e+00 1.970792561769485474e-01 -6.959725171327590942e-02 3.824460133910179138e-02 1.692226231098175049e-01
9.320000000000000000e+02 1.247347450256347656e+01 -1.956325912475585938e+01 -1.185933351516723633e-01 -1.618314418010413647e-03 -3.606349602341651917e-02 1.074696704745292664e-01
9.330000000000000000e+02 3.643446445465087891e+00 -1.964528465270996094e+01 -7.961954176425933838e-02 -5.529148131608963013e-02 -4.047330468893051147e-02 -1.387057304382324219e-01
9.340000000000000000e+02 1.252180767059326172e+01 1.994660377502441406e+01 2.169956564903259277e-01 1.196763277053833008e+00 4.241276681423187256e-01 -7.574313879013061523e-01
9.350000000000000000e+02 8.664643287658691406e+00 2.013394355773925781e+01 1.189918369054794312e-01 1.013310998678207397e-01 6.609687954187393188e-02 -1.115990132093429565e-01
9.360000000000000000e+02 1.947784042358398438e+01 8.077884674072265625e+00 4.875311553478240967e-01 3.376409292221069336e+00 1.159182190895080566e+00 -1.269684195518493652e+00
9.370000000000000000e+02 1.924746322631835938e+01 9.486679077148437500e+00 6.546079516410827637e-01 3.544152736663818359e+00 1.259628295898437500e+00 -1.310730695724487305e+00
9.380000000000000000e+02 1.377556705474853516e+01 1.886432838439941406e+01 3.254941701889038086e-01 1.640286803245544434e+00 5.897343158721923828e-01 -8.920522928237915039e-01
9.390000000000000000e+02 1.406007766723632812e+01 1.662010765075683594e+01 9.289029836654663086e-01 1.602100968360900879e+00 7.593011856079101562e-01 -1.165623068809509277e+00
9.400000000000000000e+02 1.721469306945800781e+01 1.179268074035644531e+01 7.171733975410461426e-01 3.616840362548828125e+00 1.300204157829284668e+00 -1.507180809974670410e+00
9.410000000000000000e+02 1.727789688110351562e+01 1.539486598968505859e+01 6.672142744064331055e-01 3.075808286666870117e+00 1.122906684875488281e+00 -1.130898594856262207e+00
9.420000000000000000e+02 2.004577255249023438e+01 2.408365011215209961e+00 1.568731665611267090e-01 1.456071734428405762e+00 4.838834702968597412e-01 -8.835723996162414551e-01
9.430000000000000000e+02 6.323497891426086426e-01 1.624292564392089844e+01 -3.268382279202342033e-03 -1.096199546009302139e-02 -4.269113298505544662e-03 7.900386117398738861e-03
9.440000000000000000e+02 1.967419624328613281e+01 6.688221454620361328e+00 3.466849327087402344e-01 3.002174854278564453e+00 1.004657983779907227e+00 -1.148416280746459961e+00
9.450000000000000000e+02 1.854337310791015625e+01 1.238361358642578125e+01 6.853380203247070312e-01 3.604130268096923828e+00 1.286840438842773438e+00 -1.301463603973388672e+00
9.460000000000000000e+02 1.499430274963378906e+01 1.781784629821777344e+01 4.462483227252960205e-01 2.190614938735961914e+00 7.910589575767517090e-01 -1.024987459182739258e+00
9.470000000000000000e+02 1.888268280029296875e+01 8.520674705505371094e-01 2.509791962802410126e-02 -9.038641303777694702e-02 -1.958654820919036865e-02 -2.202552706003189087e-01
9.480000000000000000e+02 1.990415382385253906e+01 1.026853322982788086e+00 1.335481554269790649e-01 7.792088985443115234e-01 2.738271057605743408e-01 -6.097323894500732422e-01
9.490000000000000000e+02 1.798834228515625000e+01 1.384960269927978516e+01 7.474448084831237793e-01 3.401050090789794922e+00 1.244548439979553223e+00 -1.296830654144287109e+00
9.500000000000000000e+02 2.290735626220703125e+01 -2.629867553710937500e+00 1.013293862342834473e+00 9.688332676887512207e-01 5.946381688117980957e-01 -7.643893361091613770e-01
9.510000000000000000e+02 1.889602088928222656e+01 -1.738806247711181641e+00 3.457914665341377258e-02 -6.447858214378356934e-01 -1.830619871616363525e-01 -7.154071703553199768e-03
9.520000000000000000e+02 3.745419025421142578e+00 -1.597296047210693359e+01 -2.981282398104667664e-02 -2.154959924519062042e-02 -1.540872640907764435e-02 -6.919057574123144150e-03
9.530000000000000000e+02 5.883086919784545898e-01 -1.765418434143066406e+01 -8.856940083205699921e-03 1.447162311524152756e-02 1.684404793195426464e-03 -9.374101646244525909e-03
9.540000000000000000e+02 1.274998569488525391e+01 -1.806892013549804688e+01 -3.420422375202178955e-01 -1.151302680373191833e-01 -1.371517479419708252e-01 -7.122740149497985840e-02
9.550000000000000000e+02 1.026312065124511719e+01 -2.530591487884521484e+00 -1.867930550361052155e-04 -6.017843261361122131e-04 -2.365732216276228428e-04 8.387229754589498043e-04
9.560000000000000000e+02 1.644632339477539062e+01 -1.044041252136230469e+01 -3.167152106761932373e-01 -8.121172189712524414e-01 -3.386497199535369873e-01 -5.204775929450988770e-01
9.570000000000000000e+02 1.720745086669921875e+01 -1.127345657348632812e+01 -1.720368713140487671e-01 -3.622207343578338623e-01 -1.602772772312164307e-01 -2.859124541282653809e-01
9.580000000000000000e+02 1.572636795043945312e+01 -1.157155990600585938e+01 -3.477545678615570068e-01 -8.805356621742248535e-01 -3.684870600700378418e-01 -5.422467589378356934e-01
9.590000000000000000e+02 2.017855453491210938e+01 -9.978480339050292969e+00 1.170372515916824341e-01 2.853420078754425049e-01 1.207137778401374817e-01 -1.630508899688720703e-01
9.600000000000000000e+02 1.349562835693359375e+01 -1.682508087158203125e+01 -3.279573619365692139e-01 -2.413600981235504150e-01 -1.707952320575714111e-01 -1.969787329435348511e-01
9.610000000000000000e+02 1.648776817321777344e+01 -1.229993534088134766e+01 -1.888431608676910400e-01 -4.302130341529846191e-01 -1.857168525457382202e-01 -2.702765166759490967e-01
9.620000000000000000e+02 1.364413642883300781e+01 -3.802137374877929688e+00 8.964804583229124546e-04 -5.626871716231107712e-04 1.001379860099405050e-04 -7.310735963983461261e-05
9.630000000000000000e+02 1.575901985168457031e+01 -1.339723205566406250e+01 -2.075484693050384521e-01 -4.359959959983825684e-01 -1.930633336305618286e-01 -2.409806847572326660e-01
9.640000000000000000e+02 1.789612388610839844e+01 -8.655710220336914062e+00 -3.348694443702697754e-01 -4.001837670803070068e-01 -2.205159664154052734e-01 -4.045243263244628906e-01
9.650000000000000000e+02 1.501435089111328125e+01 -1.453253078460693359e+01 -2.169223427772521973e-01 -3.877057731151580811e-01 -1.813884377479553223e-01 -2.240681946277618408e-01
9.660000000000000000e+02 1.048336601257324219e+01 -9.220044136047363281e+00 -2.167737111449241638e-03 -7.791619282215833664e-04 -8.840696536935865879e-04 1.303320052102208138e-03
9.670000000000000000e+02 1.333360481262207031e+01 -2.560214281082153320e+00 3.508822555886581540e-05 3.774538054130971432e-04 1.237626129295676947e-04 -2.317787293577566743e-04
9.680000000000000000e+02 9.521232604980468750e+00 -8.725772857666015625e+00 1.269898377358913422e-03 1.846488681621849537e-03 9.349161409772932529e-04 -1.529274159111082554e-03
9.690000000000000000e+02 1.112430191040039062e+01 -6.635438442230224609e+00 1.209630630910396576e-03 9.556296281516551971e-04 6.495781126432120800e-04 -9.546563378535211086e-04
9.700000000000000000e+02 1.036315155029296875e+01 -7.662117004394531250e+00 -1.230655936524271965e-03 -1.148011418990790844e-03 -7.136001950129866600e-04 1.159456325694918633e-03
9.710000000000000000e+02 1.714809775352478027e+00 -1.058828449249267578e+01 1.673843595199286938e-03 1.065610209479928017e-03 8.218361181207001209e-04 1.836812007240951061e-03
9.720000000000000000e+02 8.166436195373535156e+00 -1.268210601806640625e+01 5.274256225675344467e-03 7.290411740541458130e-03 3.769400296732783318e-03 -2.971267327666282654e-03
9.730000000000000000e+02 1.044034862518310547e+01 -4.073564529418945312e+00 8.760316995903849602e-05 1.306524383835494518e-03 4.182382544968277216e-04 -8.375727338716387749e-04
9.740000000000000000e+02 7.822127532958984375e+01 3.198290443420410156e+01 -5.349451676011085510e-03 8.690294265747070312e+00 2.605483293533325195e+00 5.345859006047248840e-02
9.750000000000000000e+02 7.904823303222656250e+01 3.617854690551757812e+01 1.952136983163654804e-03 8.846231460571289062e+00 2.654455184936523438e+00 1.261272933334112167e-02
9.760000000000000000e+02 7.933219146728515625e+01 -2.781767082214355469e+01 -1.719435967970639467e-04 7.555803298950195312e+00 2.266689538955688477e+00 -2.906398661434650421e-02
9.770000000000000000e+02 7.701593017578125000e+01 -3.775753402709960938e+01 -1.582292839884757996e-02 7.812620639801025391e+00 2.339039325714111328e+00 -4.087003320455551147e-02
9.780000000000000000e+02 7.932158660888671875e+01 -3.472745895385742188e+01 -2.623409498482942581e-03 7.788849830627441406e+00 2.335867881774902344e+00 -1.563805900514125824e-02
9.790000000000000000e+02 7.934972381591796875e+01 -2.087920570373535156e+01 1.820043980842456222e-04 7.247534275054931641e+00 2.174314737319946289e+00 -2.832822315394878387e-02
9.800000000000000000e+02 7.799630737304687500e+01 -2.770725631713867188e+01 -2.990271430462598801e-03 7.555860519409179688e+00 2.265861034393310547e+00 -8.207668364048004150e-02
9.810000000000000000e+02 7.803372192382812500e+01 -2.633141899108886719e+01 -1.139753498136997223e-03 7.503865718841552734e+00 2.250817775726318359e+00 -8.347549289464950562e-02
9.820000000000000000e+02 7.931076812744140625e+01 -3.059020423889160156e+01 -1.177014317363500595e-03 7.666079044342041016e+00 2.299470663070678711e+00 -2.588395029306411743e-02
9.830000000000000000e+02 7.794366455078125000e+01 -3.453730392456054688e+01 -6.836747284978628159e-03 7.764865398406982422e+00 2.327408552169799805e+00 -4.918322712182998657e-02
9.840000000000000000e+02 7.790364074707031250e+01 -3.320561218261718750e+01 -8.720482699573040009e-03 7.731780052185058594e+00 2.316917896270751953e+00 -5.716213583946228027e-02
9.850000000000000000e+02 7.437622070312500000e+01 -3.719818115234375000e+01 -4.616463929414749146e-02 7.773472785949707031e+00 2.318192481994628906e+00 -8.651706576347351074e-02
9.860000000000000000e+02 7.606968688964843750e+01 -3.889035797119140625e+01 -1.871206983923912048e-02 7.814714431762695312e+00 2.338800668716430664e+00 -4.484032839536666870e-02
9.870000000000000000e+02 7.795668792724609375e+01 1.386713218688964844e+01 -1.784853229764848948e-04 7.798271179199218750e+00 2.339427947998046875e+00 1.305205672979354858e-01
9.880000000000000000e+02 7.931092071533203125e+01 1.531027221679687500e+01 -5.404038238339126110e-04 7.890574932098388672e+00 2.367010354995727539e+00 4.832403361797332764e-02
9.890000000000000000e+02 7.785188293457031250e+01 2.089809417724609375e+01 -2.641263417899608612e-03 8.186568260192871094e+00 2.455178022384643555e+00 1.257400959730148315e-01
9.900000000000000000e+02 7.927587127685546875e+01 2.230340957641601562e+01 2.558226988185197115e-04 8.316956520080566406e+00 2.495163679122924805e+00 4.508363083004951477e-02
9.910000000000000000e+02 7.806855773925781250e+01 3.083930969238281250e+01 -1.397827453911304474e-02 8.629893302917480469e+00 2.584774494171142578e+00 7.104475796222686768e-02
9.920000000000000000e+02 7.778629302978515625e+01 2.801976203918457031e+01 -1.129629835486412048e-02 8.509825706481933594e+00 2.549558639526367188e+00 9.886244684457778931e-02
9.930000000000000000e+02 7.926389312744140625e+01 2.791809082031250000e+01 -1.153262797743082047e-03 8.604546546936035156e+00 2.581017971038818359e+00 3.671313449740409851e-02
9.940000000000000000e+02 7.778186798095703125e+01 2.515379714965820312e+01 -6.357507780194282532e-03 8.392385482788085938e+00 2.515808343887329102e+00 1.119582951068878174e-01
9.950000000000000000e+02 7.780226898193359375e+01 2.373237800598144531e+01 -4.013128578662872314e-03 8.327250480651855469e+00 2.496971130371093750e+00 1.181030794978141785e-01
9.960000000000000000e+02 7.788490295410156250e+01 1.807272911071777344e+01 -1.320247189141809940e-03 8.035176277160644531e+00 2.410156726837158203e+00 1.307370215654373169e-01
9.970000000000000000e+02 7.792755889892578125e+01 1.526482200622558594e+01 2.356351760681718588e-04 7.877827167510986328e+00 2.363418817520141602e+00 1.319522261619567871e-01
9.980000000000000000e+02 7.790325164794921875e+01 1.666636657714843750e+01 -1.973610371351242065e-03 7.957103252410888672e+00 2.386538743972778320e+00 1.319355070590972900e-01
9.990000000000000000e+02 7.798567962646484375e+01 1.247253608703613281e+01 1.833251793868839741e-03 7.718107223510742188e+00 2.315982103347778320e+00 1.284974366426467896e-01
1.000000000000000000e+03 7.667546081542968750e+01 1.101132106781005859e+01 5.780053790658712387e-03 7.652041435241699219e+00 2.297346353530883789e+00 1.962890774011611938e-01
1.001000000000000000e+03 7.805297851562500000e+01 8.319435119628906250e+00 3.753863275051116943e-03 7.486028671264648438e+00 2.246934652328491211e+00 1.155295893549919128e-01
1.002000000000000000e+03 7.934730529785156250e+01 9.739540100097656250e+00 3.769821487367153168e-04 7.534943580627441406e+00 2.260596275329589844e+00 4.428314417600631714e-02
1.003000000000000000e+03 7.933453369140625000e+01 -1.392687702178955078e+01 1.686764182522892952e-03 6.996501445770263672e+00 2.099456548690795898e+00 -1.734955981373786926e-02
1.004000000000000000e+03 7.934190368652343750e+01 -6.954646587371826172e+00 2.258426742628216743e-03 6.910115242004394531e+00 2.073712110519409180e+00 3.574061207473278046e-03
1.005000000000000000e+03 7.934407043457031250e+01 -1.949185371398925781e+01 8.936779922805726528e-04 7.189062118530273438e+00 2.156986713409423828e+00 -2.719831280410289764e-02
1.006000000000000000e+03 7.804108428955078125e+01 2.916119992733001709e-02 8.659426122903823853e-03 7.126482009887695312e+00 2.140542507171630859e+00 6.782388687133789062e-02
1.007000000000000000e+03 7.934992218017578125e+01 1.401560068130493164e+00 1.608008285984396935e-03 7.095347881317138672e+00 2.129086732864379883e+00 2.870904654264450073e-02
1.008000000000000000e+03 7.675881195068359375e+01 6.902084350585937500e+00 1.210579276084899902e-02 7.452169895172119141e+00 2.239282608032226562e+00 1.718183606863021851e-01
1.009000000000000000e+03 7.781133270263671875e+01 2.951644706726074219e+01 -8.072298020124435425e-03 8.571012496948242188e+00 2.568881988525390625e+00 8.629297465085983276e-02
1.010000000000000000e+03 7.867607116699218750e+01 4.038143157958984375e+01 -7.866257801651954651e-03 8.843273162841796875e+00 2.650622129440307617e+00 -2.706320770084857941e-02
1.011000000000000000e+03 7.471996307373046875e+01 3.781240844726562500e+01 -4.735843837261199951e-02 8.569520950317382812e+00 2.556648731231689453e+00 7.683714479207992554e-02
1.012000000000000000e+03 7.803762817382812500e+01 9.700522422790527344e+00 3.558942349627614021e-03 7.561230659484863281e+00 2.269436836242675781e+00 1.207997873425483704e-01
1.013000000000000000e+03 7.673293304443359375e+01 3.403648734092712402e-02 2.167312428355216980e-02 7.196607112884521484e+00 2.165484189987182617e+00 1.063449978828430176e-01
1.014000000000000000e+03 7.805496978759765625e+01 2.795931100845336914e+00 7.269785739481449127e-03 7.224269866943359375e+00 2.169461965560913086e+00 8.718329668045043945e-02
1.015000000000000000e+03 7.803621673583984375e+01 -1.360490798950195312e+00 9.192685596644878387e-03 7.087291240692138672e+00 2.128945112228393555e+00 5.695616826415061951e-02
1.016000000000000000e+03 7.934425354003906250e+01 -2.773702621459960938e+00 1.963869901373982430e-03 6.964179992675781250e+00 2.089843273162841797e+00 1.700351387262344360e-02
1.017000000000000000e+03 7.802368164062500000e+01 -8.328063011169433594e+00 1.014452893286943436e-02 7.005093574523925781e+00 2.104571342468261719e+00 -4.416275769472122192e-03
1.018000000000000000e+03 7.802978515625000000e+01 -5.539659500122070312e+00 1.019648928195238113e-02 7.014272689819335938e+00 2.107340812683105469e+00 2.065398357808589935e-02
1.019000000000000000e+03 7.933863067626953125e+01 -9.743074417114257812e+00 2.135492861270904541e-03 6.919391155242919922e+00 2.076457977294921875e+00 -5.407144315540790558e-03
1.020000000000000000e+03 7.800338745117187500e+01 -1.391685485839843750e+01 7.830718532204627991e-03 7.078048706054687500e+00 2.125763893127441406e+00 -4.987092316150665283e-02
1.021000000000000000e+03 7.800708007812500000e+01 -1.252136802673339844e+01 8.716337382793426514e-03 7.049468040466308594e+00 2.117455244064331055e+00 -3.978623822331428528e-02
1.022000000000000000e+03 7.933557128906250000e+01 -1.671181106567382812e+01 1.292979344725608826e-03 7.082835674285888672e+00 2.125238656997680664e+00 -2.335012145340442657e-02
1.023000000000000000e+03 7.804756164550781250e+01 -2.084243011474609375e+01 2.835445571690797806e-03 7.291100025177001953e+00 2.188180685043334961e+00 -8.070243895053863525e-02
1.024000000000000000e+03 7.802905273437500000e+01 -1.946788787841796875e+01 3.328477265313267708e-03 7.241760253906250000e+00 2.173526525497436523e+00 -7.737348228693008423e-02
1.025000000000000000e+03 7.508704662322998047e+00 1.983202552795410156e+01 -4.791223630309104919e-02 9.415462613105773926e-02 1.387271750718355179e-02 2.693881094455718994e-02
1.026000000000000000e+03 8.837642669677734375e+00 1.870250701904296875e+01 -2.959043979644775391e-01 -7.410091906785964966e-02 -1.110015884041786194e-01 -1.300150305032730103e-01
1.027000000000000000e+03 1.335500359535217285e+00 -4.006399154663085938e+01 3.435211628675460815e-02 -6.386054754257202148e-01 -1.812760084867477417e-01 6.528158485889434814e-02
1.028000000000000000e+03 8.209258913993835449e-01 3.737701797485351562e+01 1.825080253183841705e-02 -7.741762697696685791e-02 -1.775004714727401733e-02 -3.768062219023704529e-02
1.029000000000000000e+03 7.734392881393432617e-01 3.461076736450195312e+01 2.567935036495327950e-03 -1.773175746202468872e-01 -5.242489278316497803e-02 -2.658967860043048859e-02
1.030000000000000000e+03 7.628405094146728516e-01 3.321702957153320312e+01 6.057959981262683868e-03 -2.197645306587219238e-01 -6.411197036504745483e-02 -1.904235221445560455e-02
1.031000000000000000e+03 6.705983877182006836e-01 2.759701538085937500e+01 5.892710760235786438e-03 -3.070977926254272461e-01 -9.036152809858322144e-02 -1.557691604830324650e-03
1.032000000000000000e+03 6.609761714935302734e-01 2.617955207824707031e+01 1.204045605845749378e-03 -3.022529184818267822e-01 -9.031466394662857056e-02 6.405593361705541611e-03
1.033000000000000000e+03 5.868672728538513184e-01 -3.601686859130859375e+01 9.907178580760955811e-03 -8.176689147949218750e-01 -2.423285245895385742e-01 1.042836625128984451e-02
1.034000000000000000e+03 2.391542911529541016e+00 -3.334423828125000000e+01 2.225508354604244232e-02 -5.040997862815856934e-01 -1.445534080266952515e-01 -2.771326526999473572e-02
1.035000000000000000e+03 3.261548995971679688e+00 2.592943572998046875e+01 3.823804855346679688e-02 4.262322932481765747e-02 2.425838261842727661e-02 3.874504705891013145e-03
1.036000000000000000e+03 3.237323999404907227e+00 2.452410697937011719e+01 3.407032042741775513e-02 2.167268469929695129e-02 1.672290265560150146e-02 2.461633272469043732e-02
1.037000000000000000e+03 2.356294870376586914e+00 3.438799285888671875e+01 1.064469013363122940e-02 4.317508637905120850e-02 1.614593341946601868e-02 -4.908553883433341980e-02
1.038000000000000000e+03 2.325933456420898438e+00 3.301715850830078125e+01 5.779659841209650040e-03 3.125961869955062866e-02 1.111178379505872726e-02 -4.883101209998130798e-02
1.039000000000000000e+03 2.677165508270263672e+00 3.807582855224609375e+01 2.470763400197029114e-02 1.646571010351181030e-01 5.680941790342330933e-02 -8.107626438140869141e-02
1.040000000000000000e+03 3.616545200347900391e+00 3.908479690551757812e+01 -5.644576624035835266e-03 2.166789323091506958e-01 6.331030279397964478e-02 -4.384865239262580872e-02
1.041000000000000000e+03 2.224877834320068359e+00 -3.044908905029296875e+01 2.500204741954803467e-02 -4.871739447116851807e-01 -1.386515647172927856e-01 -7.189439237117767334e-02
1.042000000000000000e+03 2.095167875289916992e+00 -2.758046722412109375e+01 1.691022142767906189e-02 -4.195769429206848145e-01 -1.208000183105468750e-01 -1.080671101808547974e-01
1.043000000000000000e+03 2.307210922241210938e+00 -3.663460540771484375e+01 2.427203767001628876e-02 -5.544255375862121582e-01 -1.590460389852523804e-01 1.670942641794681549e-02
1.044000000000000000e+03 5.375336647033691406e+00 -1.757874870300292969e+01 -1.770851165056228638e-01 4.180581774562597275e-03 -5.187136307358741760e-02 -1.035362109541893005e-02
1.045000000000000000e+03 6.031667590141296387e-01 2.052088737487792969e+01 -4.052926786243915558e-03 -1.312528401613235474e-01 -4.059173166751861572e-02 2.616549842059612274e-02
1.046000000000000000e+03 6.338016390800476074e-01 1.910128402709960938e+01 -1.025129342451691628e-03 -7.859429717063903809e-02 -2.388582751154899597e-02 2.009428665041923523e-02
1.047000000000000000e+03 6.328956484794616699e-01 1.483288478851318359e+01 -7.608616724610328674e-04 1.965273171663284302e-03 3.613234730437397957e-04 3.003956517204642296e-03
1.048000000000000000e+03 6.243645548820495605e-01 1.343430137634277344e+01 -1.691012643277645111e-03 6.186591461300849915e-03 1.348673598840832710e-03 3.652455052360892296e-04
1.049000000000000000e+03 6.058747172355651855e-01 7.803616046905517578e+00 -6.792533677071332932e-04 1.693796948529779911e-03 3.043630858883261681e-04 -1.544479455333203077e-04
1.050000000000000000e+03 5.982862114906311035e-01 -1.907895278930664062e+01 -2.021498745307326317e-03 -2.257772162556648254e-02 -7.379766087979078293e-03 -2.086505293846130371e-02
1.051000000000000000e+03 1.641881942749023438e+00 -9.231748580932617188e+00 -5.978565241093747318e-05 5.521285929717123508e-04 1.477028708904981613e-04 1.469162409193813801e-03
1.052000000000000000e+03 4.964756488800048828e+00 -4.032479095458984375e+01 -1.787339337170124054e-02 -1.123882532119750977e-01 -3.907849267125129700e-02 -4.647083580493927002e-02
1.053000000000000000e+03 3.442033290863037109e+00 -3.914084625244140625e+01 1.429765019565820694e-02 -4.831376075744628906e-01 -1.406519860029220581e-01 6.890232325531542301e-04
1.054000000000000000e+03 4.698487758636474609e+00 -3.626785278320312500e+01 3.588922694325447083e-02 -1.274244785308837891e-01 -2.746057696640491486e-02 -3.768764436244964600e-02
1.055000000000000000e+03 1.620121002197265625e+00 -3.542131042480468750e+01 2.411973662674427032e-02 -6.348552107810974121e-01 -1.832206547260284424e-01 2.141820266842842102e-02
1.056000000000000000e+03 2.310783863067626953e+00 -3.188970184326171875e+01 1.305097248405218124e-02 -5.079193711280822754e-01 -1.484605222940444946e-01 -5.408133938908576965e-02
1.057000000000000000e+03 3.477679252624511719e+00 -2.753747749328613281e+01 3.407716751098632812e-02 -2.685614526271820068e-01 -7.034528255462646484e-02 -1.449095755815505981e-01
1.058000000000000000e+03 2.025434494018554688e+00 -2.469389533996582031e+01 4.571301396936178207e-03 -3.045164942741394043e-01 -8.998356014490127563e-02 -1.309622675180435181e-01
1.059000000000000000e+03 2.066581726074218750e+00 -2.614854049682617188e+01 1.139693241566419601e-02 -3.658742904663085938e-01 -1.063432022929191589e-01 -1.246644556522369385e-01
1.060000000000000000e+03 5.893595218658447266e-01 -2.050599861145019531e+01 -9.540993720293045044e-03 -9.333542734384536743e-02 -3.086292557418346405e-02 -3.597842156887054443e-02
1.061000000000000000e+03 2.954149007797241211e+00 -2.154225730895996094e+01 -2.497467212378978729e-02 -1.248273178935050964e-01 -4.494059458374977112e-02 -1.684951782226562500e-01
1.062000000000000000e+03 1.664755940437316895e+00 -1.602026748657226562e+01 -4.071475472301244736e-03 -1.167751848697662354e-03 -1.571768196299672127e-03 1.383801136398687959e-04
1.063000000000000000e+03 1.736778616905212402e+00 -1.196128368377685547e+01 1.180849620141088963e-03 1.721156062558293343e-03 8.706016815267503262e-04 4.350553732365369797e-03
1.064000000000000000e+03 5.657367706298828125e-01 -1.205574035644531250e+01 2.375059120822697878e-04 6.674335338175296783e-03 2.073552459478378296e-03 1.583914156071841717e-03
1.065000000000000000e+03 8.625060081481933594e+00 -9.850356101989746094e+00 -1.486524590291082859e-03 -1.254273578524589539e-03 -8.222394972108304501e-04 1.429533702321350574e-03
1.066000000000000000e+03 5.352855682373046875e+00 -3.503489971160888672e+00 2.168023638660088181e-04 -4.889236879535019398e-04 -8.163639722624793649e-05 1.771440292941406369e-04
1.067000000000000000e+03 3.684677600860595703e+00 -2.933355093002319336e+00 1.522348466096445918e-04 1.449352421332150698e-04 8.915102807804942131e-05 -1.066467302734963596e-05
1.068000000000000000e+03 2.893978118896484375e+00 -3.111653089523315430e+00 -2.423439145786687732e-04 2.719748408708255738e-05 -6.454392860177904367e-05 -5.695552317774854600e-05
1.069000000000000000e+03 2.094445943832397461e+00 -3.193457126617431641e+00 5.753454170189797878e-04 -5.329278428689576685e-05 1.566157880006358027e-04 -2.497379900887608528e-04
1.070000000000000000e+03 1.335789561271667480e+00 -3.372524023056030273e+00 -8.406348933931440115e-05 1.647965545998886228e-04 2.421992030576802790e-05 1.384403149131685495e-04
1.071000000000000000e+03 4.803673326969146729e-01 5.036167144775390625e+00 -2.403504331596195698e-04 5.139307468198239803e-04 8.207408973248675466e-05 2.073704490612726659e-05
1.072000000000000000e+03 2.405068159103393555e+00 3.567518949508666992e+00 5.306611419655382633e-04 -2.171844098484143615e-04 9.404302545590326190e-05 -5.506577435880899429e-04
1.073000000000000000e+03 1.768527984619140625e+00 1.049896907806396484e+01 7.941741496324539185e-04 1.207269262522459030e-03 6.004330352880060673e-04 -1.578213647007942200e-03
1.074000000000000000e+03 5.919809937477111816e-01 1.062564754486083984e+01 -9.003793238662183285e-04 4.174820613116025925e-03 9.823323925957083702e-04 -5.700757028535008430e-04
1.075000000000000000e+03 1.906097888946533203e+00 1.325182914733886719e+01 -2.321613719686865807e-03 -1.022766173264244571e-05 -6.995524163357913494e-04 8.634251425974071026e-04
1.076000000000000000e+03 1.924172520637512207e+00 1.463343811035156250e+01 -6.974622607231140137e-03 -7.796962745487689972e-04 -2.326295711100101471e-03 5.972325336188077927e-03
1.077000000000000000e+03 1.891890406608581543e+00 1.604654693603515625e+01 -1.197638921439647675e-02 -6.276226136833429337e-03 -5.475784651935100555e-03 1.880082860589027405e-02
1.078000000000000000e+03 1.962159156799316406e+00 2.461634063720703125e+01 1.905945874750614166e-02 -1.176565513014793396e-01 -2.957912907004356384e-02 3.208009153604507446e-02
1.079000000000000000e+03 9.330230712890625000e+00 1.112834453582763672e+01 1.071879407390952110e-03 -5.882758647203445435e-03 -1.443263725377619267e-03 6.711346213705837727e-04
1.080000000000000000e+03 1.245193672180175781e+01 8.492653846740722656e+00 -1.472066156566143036e-03 -1.179997459985315800e-03 -7.956190966069698334e-04 -1.667572185397148132e-03
1.081000000000000000e+03 1.468544483184814453e+01 4.932652473449707031e+00 -5.210685194469988346e-04 1.588156010257080197e-04 -1.086758711608126760e-04 -1.830894470913335681e-04
1.082000000000000000e+03 1.182416725158691406e+01 2.597132205963134766e+00 -2.662461774889379740e-04 1.905905810417607427e-04 -2.269667675136588514e-05 -2.179306466132402420e-04
1.083000000000000000e+03 1.038992023468017578e+01 1.341791343688964844e+01 6.956352386623620987e-03 9.893367998301982880e-03 5.054916255176067352e-03 4.566488321870565414e-03
1.084000000000000000e+03 8.428091049194335938e+00 1.050827789306640625e+01 -2.530960366129875183e-03 4.734972026199102402e-03 6.612034630961716175e-04 -9.458599379286170006e-04
1.085000000000000000e+03 8.451023101806640625e+00 1.388267040252685547e+01 -5.618173629045486450e-03 1.713784970343112946e-02 3.455903148278594017e-03 3.547543892636895180e-03
1.086000000000000000e+03 1.178209972381591797e+01 3.392189741134643555e+00 6.294032791629433632e-04 -1.338547444902360439e-04 1.486645487602800131e-04 9.216964826919138432e-04
1.087000000000000000e+03 7.735714912414550781e+00 -1.110724544525146484e+01 8.608867065049707890e-04 5.065047647804021835e-03 1.777780242264270782e-03 -2.861723536625504494e-03
1.088000000000000000e+03 3.094427680969238281e+01 -6.045930862426757812e+00 9.287936210632324219e+00 1.603477287292480469e+01 7.596812725067138672e+00 2.100464582443237305e+00
1.089000000000000000e+03 2.692017364501953125e+01 -4.990857601165771484e+00 3.197018146514892578e+00 2.385829210281372070e+00 1.674854278564453125e+00 -2.964170217514038086e+00
1.090000000000000000e+03 2.509124374389648438e+01 -4.355970859527587891e+00 1.727517843246459961e+00 9.904028773307800293e-01 8.153762221336364746e-01 -1.301779627799987793e+00
1.091000000000000000e+03 2.835632324218750000e+01 -4.606053829193115234e+00 3.070608615875244141e+00 9.852448463439941406e+00 3.876917123794555664e+00 -5.736000061035156250e+00
1.092000000000000000e+03 2.928425025939941406e+01 -5.180282592773437500e+00 2.426514625549316406e+00 1.840291976928710938e+01 6.248830318450927734e+00 -4.405797958374023438e+00
1.093000000000000000e+03 2.784981918334960938e+01 -5.108057022094726562e+00 4.231508255004882812e+00 5.587368965148925781e+00 2.945663213729858398e+00 -5.248129844665527344e+00
1.094000000000000000e+03 2.705140113830566406e+01 -5.159330844879150391e+00 3.429332256317138672e+00 2.420396089553833008e+00 1.754918456077575684e+00 -3.024264335632324219e+00
1.095000000000000000e+03 2.705994415283203125e+01 -4.817291736602783203e+00 3.554873943328857422e+00 3.190578699111938477e+00 2.023635864257812500e+00 -3.605297565460205078e+00
1.096000000000000000e+03 2.792083549499511719e+01 -8.623969078063964844e+00 4.090979099273681641e+00 6.204320907592773438e+00 3.088590145111083984e+00 5.551134109497070312e+00
1.097000000000000000e+03 2.644621086120605469e+01 -8.855668067932128906e+00 2.705117464065551758e+00 1.844096541404724121e+00 1.364764213562011719e+00 2.542342901229858398e+00
1.098000000000000000e+03 2.853472518920898438e+01 -8.826169013977050781e+00 3.022558212280273438e+00 1.100453948974609375e+01 4.208129405975341797e+00 5.979939937591552734e+00
1.099000000000000000e+03 2.903282737731933594e+01 -8.866066932678222656e+00 2.089305639266967773e+00 1.451047420501708984e+01 4.979933738708496094e+00 4.972770214080810547e+00
1.100000000000000000e+03 2.900110054016113281e+01 -8.494348526000976562e+00 2.629683256149291992e+00 1.569644451141357422e+01 5.497838020324707031e+00 5.657361030578613281e+00
1.101000000000000000e+03 2.771671676635742188e+01 -8.544893264770507812e+00 4.176254749298095703e+00 4.826866626739501953e+00 2.700936317443847656e+00 4.998874664306640625e+00
1.102000000000000000e+03 2.921904373168945312e+01 -8.492126464843750000e+00 2.321440458297729492e+00 1.741745376586914062e+01 5.921668052673339844e+00 4.581572055816650391e+00
1.103000000000000000e+03 2.968748474121093750e+01 -5.250594615936279297e+00 2.909974336624145508e+00 2.003090286254882812e+01 6.882262706756591797e+00 -1.675116539001464844e+00
1.104000000000000000e+03 3.088752746582031250e+01 -5.537839412689208984e+00 6.676179409027099609e+00 1.666295242309570312e+01 7.001739978790283203e+00 2.231647014617919922e+00
1.105000000000000000e+03 2.879232788085937500e+01 -4.443111419677734375e+00 2.214930772781372070e+00 1.249998188018798828e+01 4.414474010467529297e+00 -5.114704132080078125e+00
1.106000000000000000e+03 2.878489112854003906e+01 -8.487202644348144531e+00 3.098224878311157227e+00 1.354066276550292969e+01 4.991666316986083984e+00 6.379368782043457031e+00
1.107000000000000000e+03 2.665977478027343750e+01 -9.261631965637207031e+00 3.017749071121215820e+00 2.829858064651489258e+00 1.754282116889953613e+00 3.256389141082763672e+00
1.108000000000000000e+03 2.625223922729492188e+01 -4.446288585662841797e+00 2.664351940155029297e+00 2.077445507049560547e+00 1.422539234161376953e+00 -2.517574787139892578e+00
1.109000000000000000e+03 2.135411453247070312e+01 -1.840642571449279785e+00 5.386705994606018066e-01 6.296911835670471191e-01 3.505085408687591553e-01 -4.355826973915100098e-01
1.110000000000000000e+03 3.882350206375122070e+00 2.600122928619384766e+00 5.895139474887400866e-05 2.429664309602230787e-04 9.057534771272912621e-05 1.811694382922723889e-04
1.111000000000000000e+03 4.583158016204833984e+00 2.556803464889526367e+00 4.457910254132002592e-04 -4.433803842402994633e-04 7.231959671116783284e-07 -5.874953931197524071e-04
1.112000000000000000e+03 5.971652984619140625e+00 2.551841974258422852e+00 5.248155212029814720e-04 -6.825181189924478531e-04 -4.731078661279752851e-05 -5.747263785451650620e-04
1.113000000000000000e+03 5.210728645324707031e+00 3.229949235916137695e+00 5.884245620109140873e-04 -7.338455179706215858e-04 -4.362628533272072673e-05 -6.355445948429405689e-04
1.114000000000000000e+03 5.869749546051025391e+00 3.258332967758178711e+00 1.537744537927210331e-05 5.288315005600452423e-04 1.632626808714121580e-04 4.614933568518608809e-04
1.115000000000000000e+03 1.027508831024169922e+01 2.646452665328979492e+00 -2.591444535937625915e-05 -1.906541001517325640e-04 -6.497056165244430304e-05 -5.193533143028616905e-04
1.116000000000000000e+03 7.218695640563964844e+00 3.358310461044311523e+00 1.085110579879255965e-05 6.942047621123492718e-04 2.115167590091004968e-04 7.807122310623526573e-04
1.117000000000000000e+03 6.538017272949218750e+00 3.307557106018066406e+00 6.544549833051860332e-04 -1.035780296660959721e-03 -1.143976114690303802e-04 -6.014841492287814617e-04
1.118000000000000000e+03 4.554969310760498047e+00 3.242426395416259766e+00 9.858598059508949518e-05 2.414403134025633335e-04 1.020078925648704171e-04 2.935780212283134460e-04
1.119000000000000000e+03 2.496630191802978516e+00 2.674548864364624023e+00 -9.420732385478913784e-05 3.167616087011992931e-04 6.676628981949761510e-05 -6.800388746341923252e-06
1.120000000000000000e+03 1.017114353179931641e+01 3.434118032455444336e+00 2.537922118790447712e-04 4.521522205322980881e-04 2.117833355441689491e-04 1.184396096505224705e-03
1.121000000000000000e+03 2.387593460083007812e+01 -3.584134817123413086e+00 1.325684428215026855e+00 8.677002787590026855e-01 6.580154299736022949e-01 -9.087958931922912598e-01
1.122000000000000000e+03 2.076180458068847656e+01 -2.489409923553466797e+00 3.494075238704681396e-01 2.392669469118118286e-01 1.766023486852645874e-01 -8.014017343521118164e-02
1.123000000000000000e+03 2.195771408081054688e+01 -3.059674978256225586e+00 6.614201664924621582e-01 4.779323041439056396e-01 3.418057560920715332e-01 -2.782378494739532471e-01
1.124000000000000000e+03 2.109603881835937500e+01 -3.531980514526367188e+00 3.092229068279266357e-01 1.461520791053771973e-01 1.366124898195266724e-01 9.446980804204940796e-02
1.125000000000000000e+03 9.568070411682128906e+00 -2.501671791076660156e+00 1.154420097009278834e-04 5.526039749383926392e-04 2.004137932090088725e-04 -5.506273591890931129e-04
1.126000000000000000e+03 2.136557006835937500e+01 -2.881858348846435547e+00 4.824142754077911377e-01 3.378708660602569580e-01 2.460855543613433838e-01 -1.299225389957427979e-01
1.127000000000000000e+03 2.449664878845214844e+01 -3.706193447113037109e+00 1.591024398803710938e+00 1.116108059883117676e+00 8.121397495269775391e-01 -1.245487093925476074e+00
1.128000000000000000e+03 1.158825206756591797e+01 -3.564848184585571289e+00 8.002692484296858311e-04 3.426119801588356495e-04 3.428643685765564442e-04 -9.186620009131729603e-04
1.129000000000000000e+03 1.097361469268798828e+01 -2.638984203338623047e+00 4.790085658896714449e-04 3.549350949469953775e-04 2.501831040717661381e-04 -8.511060150340199471e-04
1.130000000000000000e+03 1.126470947265625000e+01 -4.399801254272460938e+00 -7.062132935971021652e-04 -8.052234188653528690e-04 -4.534310137387365103e-04 9.348612511530518532e-04
1.131000000000000000e+03 1.258335685729980469e+01 -2.800853013992309570e+00 7.082280935719609261e-04 -4.581251705531030893e-04 7.503086817450821400e-05 -5.455643986351788044e-05
1.132000000000000000e+03 1.358209037780761719e+01 5.030406951904296875e+00 6.618564366362988949e-04 2.064038999378681183e-04 2.604780893307179213e-04 8.494685753248631954e-04
1.133000000000000000e+03 9.395250320434570312e+00 3.435706615447998047e+00 2.083790168398991227e-04 -6.977223674766719341e-04 -1.468030095566064119e-04 -7.423180504702031612e-04
1.134000000000000000e+03 1.263851070404052734e+01 4.138933181762695312e+00 8.716312004253268242e-04 -2.497821114957332611e-04 1.865547237684950233e-04 1.136314473114907742e-03
1.135000000000000000e+03 1.260088157653808594e+01 3.324013948440551758e+00 -5.985458265058696270e-04 7.671085768379271030e-04 5.056883310317061841e-05 -2.503628493286669254e-04
1.136000000000000000e+03 9.266072273254394531e+00 4.237616062164306641e+00 -6.159369513625279069e-05 9.795646183192729950e-04 2.753912704065442085e-04 1.374894985929131508e-03
1.137000000000000000e+03 2.173816490173339844e+01 -8.948703765869140625e+00 9.679293632507324219e-02 2.657788991928100586e-01 1.087715476751327515e-01 -1.614668667316436768e-01
1.138000000000000000e+03 6.742041587829589844e+00 -3.329580068588256836e+00 -3.842412843368947506e-05 -5.918194074183702469e-04 -1.890730636660009623e-04 5.875635542906820774e-04
1.139000000000000000e+03 2.524967432022094727e+00 -6.645804405212402344e+00 9.063764591701328754e-04 1.595927460584789515e-04 3.197907644789665937e-04 8.108846668619662523e-05
1.140000000000000000e+03 7.467521190643310547e+00 -4.147548675537109375e+00 -1.351682149106636643e-04 -9.280828526243567467e-04 -3.189753042533993721e-04 6.820241687819361687e-04
1.141000000000000000e+03 8.864617347717285156e+00 -2.546029806137084961e+00 -2.342150255572050810e-04 -3.914626722689718008e-04 -1.877033064374700189e-04 4.144065314903855324e-04
1.142000000000000000e+03 5.611788272857666016e+00 -4.280506134033203125e+00 -9.358220995636656880e-05 4.369286180008202791e-04 1.030039202305488288e-04 -2.139926364179700613e-04
1.143000000000000000e+03 5.908722877502441406e+00 -2.641819000244140625e+00 3.718991865753196180e-05 -4.488066188059747219e-04 -1.234850060427561402e-04 2.892425109166651964e-04
1.144000000000000000e+03 6.040094375610351562e+00 -3.374198675155639648e+00 -1.470214101573219523e-05 5.577891133725643158e-04 1.629260805202648044e-04 -4.172872868366539478e-04
1.145000000000000000e+03 3.407055854797363281e+00 -4.747473239898681641e+00 1.326730625805794261e-06 -3.780950501095503569e-04 -1.130305026890709996e-04 -1.540073426440358162e-04
1.146000000000000000e+03 1.566089868545532227e+00 -5.250253677368164062e+00 7.224291912280023098e-04 2.694290305953472853e-04 2.975574752781540155e-04 -2.207231591455638409e-04
1.147000000000000000e+03 2.324090385437011719e+01 -9.653984069824218750e+00 9.281090497970581055e-01 5.835267901420593262e-01 4.534907341003417969e-01 4.603603184223175049e-01
1.148000000000000000e+03 2.101154327392578125e+01 -9.796073913574218750e+00 2.700012326240539551e-01 3.636973798274993896e-01 1.901095956563949585e-01 -8.500445634126663208e-02
1.149000000000000000e+03 2.394056320190429688e+01 -9.651723861694335938e+00 1.279067158699035645e+00 7.430159449577331543e-01 6.066249012947082520e-01 7.960499525070190430e-01
1.150000000000000000e+03 2.540723991394042969e+01 -9.153944969177246094e+00 1.931454181671142578e+00 1.109365463256835938e+00 9.122458696365356445e-01 1.557052254676818848e+00
1.151000000000000000e+03 1.727465629577636719e+01 -1.305408096313476562e+01 1.103660929948091507e-02 -2.845355495810508728e-02 -5.225083790719509125e-03 1.212791167199611664e-02
1.152000000000000000e+03 1.998460578918457031e+01 -2.281668663024902344e+00 1.807894259691238403e-01 -4.648721963167190552e-02 4.029066115617752075e-02 -2.127556130290031433e-02
1.153000000000000000e+03 2.178051185607910156e+01 -9.721059799194335938e+00 4.568693339824676514e-01 4.094171226024627686e-01 2.598859369754791260e-01 4.551822692155838013e-02
1.154000000000000000e+03 2.251759910583496094e+01 -9.681468009948730469e+00 6.713320016860961914e-01 4.690459966659545898e-01 3.421134054660797119e-01 2.099674493074417114e-01
1.155000000000000000e+03 2.109795761108398438e+01 2.300802946090698242e+00 2.994663715362548828e-01 2.016012191772460938e+00 6.946435570716857910e-01 -1.248385787010192871e+00
1.156000000000000000e+03 1.865280151367187500e+01 -9.579070091247558594e+00 -2.029375582933425903e-01 -6.405886262655258179e-02 -8.009892702102661133e-02 -3.484106957912445068e-01
1.157000000000000000e+03 2.097770500183105469e+01 5.658168792724609375e+00 3.667525649070739746e-01 2.994290351867675781e+00 1.008312821388244629e+00 -1.464878678321838379e+00
1.158000000000000000e+03 1.082190322875976562e+01 9.131856918334960938e+00 -2.491218619979918003e-04 -3.432340687140822411e-03 -1.104438793845474720e-03 -1.291327527724206448e-03
1.159000000000000000e+03 1.110325431823730469e+01 1.068887042999267578e+01 -1.547482097521424294e-03 -3.468209644779562950e-03 -1.504707499407231808e-03 -2.839353401213884354e-03
1.160000000000000000e+03 1.335747337341308594e+01 6.194467067718505859e+00 -1.038925722241401672e-03 -1.494310272391885519e-04 -3.565070219337940216e-04 -9.246635599993169308e-04
1.161000000000000000e+03 6.162522792816162109e+00 -1.450374031066894531e+01 -8.673496195115149021e-04 -5.355809815227985382e-03 -1.866947859525680542e-03 -9.192345663905143738e-03
1.162000000000000000e+03 6.826560974121093750e+00 -1.345725631713867188e+01 3.464266192167997360e-04 1.426971238106489182e-02 4.384841769933700562e-03 -9.193328209221363068e-03
1.163000000000000000e+03 1.894668960571289062e+01 1.092665100097656250e+01 7.054454088211059570e-01 3.630758762359619141e+00 1.300861239433288574e+00 -1.280099272727966309e+00
1.164000000000000000e+03 2.081460952758789062e+01 7.010595798492431641e+00 4.616509079933166504e-01 3.293713092803955078e+00 1.126609206199645996e+00 -1.489834547042846680e+00
1.165000000000000000e+03 1.080003452301025391e+01 -3.361759662628173828e+00 -3.535039722919464111e-04 -8.358865743502974510e-04 -3.568171523511409760e-04 1.074871746823191643e-03
1.166000000000000000e+03 8.650492668151855469e+00 -2.035625267028808594e+01 -2.341361492872238159e-01 -1.543668806552886963e-01 -1.165509074926376343e-01 -3.277828097343444824e-01
1.167000000000000000e+03 7.913693428039550781e+00 -1.882770919799804688e+01 -4.539342522621154785e-01 -6.334412097930908203e-02 -1.551835089921951294e-01 -1.685981452465057373e-01
1.168000000000000000e+03 1.006015872955322266e+01 4.228800296783447266e+00 1.196051962324418128e-04 -8.287421078421175480e-04 -2.127410698449239135e-04 -1.022232463583350182e-03
1.169000000000000000e+03 3.995692133903503418e-01 3.784811019897460938e+00 1.180083054350689054e-04 2.041963889496400952e-04 9.666140977060422301e-05 -1.334157277597114444e-04
1.170000000000000000e+03 1.013200759887695312e+01 -6.184267044067382812e+00 -5.418211221694946289e-04 -1.354797277599573135e-03 -5.689855315722525120e-04 8.331373101100325584e-04
1.171000000000000000e+03 1.503416347503662109e+01 -1.937066459655761719e+01 1.155897453427314758e-01 5.475413203239440918e-01 1.989393085241317749e-01 4.193371534347534180e-01
1.172000000000000000e+03 1.528991127014160156e+01 -1.636670112609863281e+01 -6.266757100820541382e-02 7.882706075906753540e-02 4.847846925258636475e-03 9.273184090852737427e-02
1.173000000000000000e+03 9.705337524414062500e+00 -1.995865821838378906e+01 -1.503158211708068848e-01 -3.119892776012420654e-01 -1.386915296316146851e-01 -2.594342529773712158e-01
1.174000000000000000e+03 1.987544441223144531e+01 -2.257016599178314209e-01 1.601892858743667603e-01 3.454261720180511475e-01 1.516846418380737305e-01 -3.925116956233978271e-01
1.175000000000000000e+03 2.057908058166503906e+01 -1.081491279602050781e+01 3.999201953411102295e-01 4.887260794639587402e-01 2.665938735008239746e-01 1.133773773908615112e-01
1.176000000000000000e+03 3.664994478225708008e+00 2.168860626220703125e+01 1.594136841595172882e-02 3.015155531466007233e-02 1.382787711918354034e-02 8.345729112625122070e-02
1.177000000000000000e+03 1.865738868713378906e+01 -1.124918174743652344e+01 4.117313399910926819e-02 9.326133131980895996e-02 4.033033922314643860e-02 -1.031418219208717346e-01
1.178000000000000000e+03 1.792721366882324219e+01 -1.035965728759765625e+01 -1.694155335426330566e-01 -2.014104574918746948e-01 -1.112477928400039673e-01 -3.038119375705718994e-01
1.179000000000000000e+03 7.288944244384765625e+01 -3.796295928955078125e+01 -7.750209420919418335e-02 7.777489185333251953e+00 2.309996128082275391e+00 -8.435966074466705322e-02
1.180000000000000000e+03 7.490625762939453125e+01 -3.459629058837890625e+01 -4.091630131006240845e-02 7.745594978332519531e+00 2.311403751373291016e+00 -1.107678860425949097e-01
1.181000000000000000e+03 7.683528900146484375e+01 -3.581276321411132812e+01 -1.650867052376270294e-02 7.775234222412109375e+00 2.327617645263671875e+00 -6.441371887922286987e-02
1.182000000000000000e+03 7.550576782226562500e+01 -2.217552375793457031e+01 6.497690454125404358e-03 7.409042358398437500e+00 2.224662065505981445e+00 -1.690732240676879883e-01
1.183000000000000000e+03 7.795498657226562500e+01 -2.907896423339843750e+01 -3.586528589949011803e-03 7.604779243469238281e+00 2.280357837677001953e+00 -7.917431741952896118e-02
1.184000000000000000e+03 7.511221313476562500e+01 1.511623954772949219e+01 -2.499294001609086990e-03 7.854225158691406250e+00 2.355517864227294922e+00 2.754555940628051758e-01
1.185000000000000000e+03 7.652987670898437500e+01 1.519904041290283203e+01 -2.067949622869491577e-03 7.865854740142822266e+00 2.359136104583740234e+00 2.068802416324615479e-01
1.186000000000000000e+03 7.770158386230468750e+01 3.454796981811523438e+01 -7.465250790119171143e-03 8.706824302673339844e+00 2.609807729721069336e+00 5.055202916264533997e-02
1.187000000000000000e+03 7.677432250976562500e+01 3.289588165283203125e+01 -2.119545452296733856e-02 8.608054161071777344e+00 2.576057434082031250e+00 9.044148772954940796e-02
1.188000000000000000e+03 7.806167602539062500e+01 -2.221151542663574219e+01 1.258547767065465450e-03 7.342812538146972656e+00 2.203221321105957031e+00 -8.263900130987167358e-02
1.189000000000000000e+03 7.679733276367187500e+01 -2.352161788940429688e+01 1.043891883455216885e-03 7.421746253967285156e+00 2.226836919784545898e+00 -1.302596777677536011e-01
1.190000000000000000e+03 7.651718139648437500e+01 -3.029703712463378906e+01 -1.287405099719762802e-02 7.643828868865966797e+00 2.289286375045776367e+00 -1.186995953321456909e-01
1.191000000000000000e+03 7.658138275146484375e+01 -2.893244743347167969e+01 -1.029352564364671707e-02 7.603100299835205078e+00 2.277842044830322266e+00 -1.243946999311447144e-01
1.192000000000000000e+03 7.555162811279296875e+01 -2.478347587585449219e+01 -2.199596958234906197e-03 7.487195014953613281e+00 2.245498657226562500e+00 -1.705641001462936401e-01
1.193000000000000000e+03 7.666319274902343750e+01 -2.757677268981933594e+01 -6.187251303344964981e-03 7.560454845428466797e+00 2.266280174255371094e+00 -1.280406862497329712e-01
1.194000000000000000e+03 7.678756713867187500e+01 -2.486871337890625000e+01 -8.293300052173435688e-04 7.468160629272460938e+00 2.240199327468872070e+00 -1.306763589382171631e-01
1.195000000000000000e+03 7.646147918701171875e+01 -3.168801307678222656e+01 -1.900219172239303589e-02 7.682976722717285156e+00 2.299192428588867188e+00 -1.093613952398300171e-01
1.196000000000000000e+03 7.650269317626953125e+01 -3.449102020263671875e+01 -2.024654299020767212e-02 7.749990463256835938e+00 2.318923234939575195e+00 -7.968097180128097534e-02
1.197000000000000000e+03 7.371963500976562500e+01 -2.856467437744140625e+01 -2.719499729573726654e-02 7.616616725921630859e+00 2.276826620101928711e+00 -2.033445537090301514e-01
1.198000000000000000e+03 7.782888793945312500e+01 2.231434822082519531e+01 -5.383505485951900482e-03 8.258288383483886719e+00 2.475871562957763672e+00 1.218040362000465393e-01
1.199000000000000000e+03 7.644886016845703125e+01 1.945721626281738281e+01 -6.684205960482358932e-03 8.075459480285644531e+00 2.420632600784301758e+00 2.006523907184600830e-01
1.200000000000000000e+03 7.492097473144531250e+01 2.229290390014648438e+01 -2.016586437821388245e-02 8.156653404235839844e+00 2.440946340560913086e+00 2.494751662015914917e-01
1.201000000000000000e+03 7.642205047607421875e+01 2.088489151000976562e+01 -9.737250395119190216e-03 8.141570091247558594e+00 2.439549922943115234e+00 1.953413784503936768e-01
1.202000000000000000e+03 7.662773132324218750e+01 1.239589118957519531e+01 2.579103922471404076e-03 7.722952365875244141e+00 2.317659378051757812e+00 2.012794166803359985e-01
1.203000000000000000e+03 7.541999816894531250e+01 8.196443557739257812e+00 1.871691644191741943e-02 7.541309833526611328e+00 2.268007993698120117e+00 2.399740219116210938e-01
1.204000000000000000e+03 7.657766723632812500e+01 1.379284095764160156e+01 1.217519398778676987e-03 7.794185161590576172e+00 2.338620901107788086e+00 2.053298056125640869e-01
1.205000000000000000e+03 7.632602691650390625e+01 2.374432754516601562e+01 -1.385706383734941483e-02 8.265151023864746094e+00 2.475388288497924805e+00 1.835916191339492798e-01
1.206000000000000000e+03 7.777588653564453125e+01 2.657787132263183594e+01 -3.297347575426101685e-03 8.451243400573730469e+00 2.534383773803710938e+00 1.060798317193984985e-01
1.207000000000000000e+03 7.677691650390625000e+01 -2.217609786987304688e+01 4.240107722580432892e-03 7.376008033752441406e+00 2.214074373245239258e+00 -1.289517581462860107e-01
1.208000000000000000e+03 7.626118469238281250e+01 2.664558982849121094e+01 -1.718950644135475159e-02 8.379079818725585938e+00 2.508567094802856445e+00 1.632157415151596069e-01
1.209000000000000000e+03 7.396626281738281250e+01 -1.677476310729980469e+01 4.318414255976676941e-02 7.317395210266113281e+00 2.208173751831054688e+00 -1.679895222187042236e-01
1.210000000000000000e+03 7.674278259277343750e+01 -2.082783126831054688e+01 6.039246451109647751e-03 7.332525730133056641e+00 2.201569557189941406e+00 -1.259536445140838623e-01
1.211000000000000000e+03 7.540132904052734375e+01 -8.319604873657226562e+00 4.599041864275932312e-02 7.154541969299316406e+00 2.160159826278686523e+00 -8.401473052799701691e-03
1.212000000000000000e+03 7.800190734863281250e+01 -1.530902576446533203e+01 7.008769549429416656e-03 7.112289428710937500e+00 2.135789394378662109e+00 -5.901667103171348572e-02
1.213000000000000000e+03 7.541277313232421875e+01 -1.362808585166931152e+00 4.265481606125831604e-02 7.224214553833007812e+00 2.180060863494873047e+00 1.180605515837669373e-01
1.214000000000000000e+03 7.671113586425781250e+01 -8.317454338073730469e+00 2.503597922623157501e-02 7.085814476013183594e+00 2.133255004882812500e+00 -6.782164797186851501e-03
1.215000000000000000e+03 7.806284332275390625e+01 5.559164047241210938e+00 5.607310682535171509e-03 7.345700263977050781e+00 2.205392360687255859e+00 1.030279621481895447e-01
1.216000000000000000e+03 7.675306701660156250e+01 2.787561893463134766e+00 1.843344606459140778e-02 7.283695697784423828e+00 2.190638780593872070e+00 1.367203444242477417e-01
1.217000000000000000e+03 7.384013366699218750e+01 3.411218261718750000e+01 -6.417074799537658691e-02 8.440914154052734375e+00 2.513023138046264648e+00 1.378519386053085327e-01
1.218000000000000000e+03 7.806107330322265625e+01 6.939284801483154297e+00 5.207535810768604279e-03 7.413772583007812500e+00 2.225693941116333008e+00 1.099716797471046448e-01
1.219000000000000000e+03 7.676343536376953125e+01 5.533634662628173828e+00 1.459984295070171356e-02 7.391654491424560547e+00 2.221876382827758789e+00 1.617850661277770996e-01
1.220000000000000000e+03 7.672327423095703125e+01 -2.743891000747680664e+00 2.411440946161746979e-02 7.132598876953125000e+00 2.147013902664184570e+00 7.085393369197845459e-02
1.221000000000000000e+03 7.670227813720703125e+01 -9.715541839599609375e+00 2.431119233369827271e-02 7.091929912567138672e+00 2.134872198104858398e+00 -2.588105201721191406e-02
1.222000000000000000e+03 7.666712951660156250e+01 -1.670398902893066406e+01 1.481032744050025940e-02 7.213045120239257812e+00 2.168356657028198242e+00 -1.043850183486938477e-01
1.223000000000000000e+03 7.411907958984375000e+01 3.590298461914062500e+01 -5.847191065549850464e-02 8.493209838867187500e+00 2.530421495437622070e+00 1.021191254258155823e-01
1.224000000000000000e+03 7.717098999023437500e+01 3.160910987854003906e+01 -1.550563611090183258e-02 8.595180511474609375e+00 2.573902606964111328e+00 9.202229231595993042e-02
1.225000000000000000e+03 7.646763610839843750e+01 1.803340530395507812e+01 -6.316375453025102615e-03 8.006633758544921875e+00 2.400095224380493164e+00 2.047071903944015503e-01
1.226000000000000000e+03 7.671585083007812500e+01 9.637818336486816406e+00 7.487726397812366486e-03 7.583106994628906250e+00 2.277178287506103516e+00 1.890451610088348389e-01
1.227000000000000000e+03 7.666534423828125000e+01 -1.531183433532714844e+01 1.719313673675060272e-02 7.178926467895507812e+00 2.158835887908935547e+00 -9.203356504440307617e-02
1.228000000000000000e+03 7.802763366699218750e+01 -6.934184074401855469e+00 1.018346473574638367e-02 7.005621433258056641e+00 2.104741573333740234e+00 8.077686652541160583e-03
1.229000000000000000e+03 7.804824066162109375e+01 1.412900090217590332e+00 8.062961511313915253e-03 7.172092914581298828e+00 2.154046773910522461e+00 7.802487909793853760e-02
1.230000000000000000e+03 7.672663879394531250e+01 -1.352915525436401367e+00 2.301552891731262207e-02 7.161608219146728516e+00 2.155387163162231445e+00 8.901792764663696289e-02
1.231000000000000000e+03 7.676042175292968750e+01 4.161932945251464844e+00 1.633465662598609924e-02 7.335365295410156250e+00 2.205509901046752930e+00 1.496696025133132935e-01
1.232000000000000000e+03 7.672090148925781250e+01 -4.135283946990966797e+00 2.485335431993007660e-02 7.110465049743652344e+00 2.140595436096191406e+00 5.180799588561058044e-02
1.233000000000000000e+03 7.671916198730468750e+01 -5.530236721038818359e+00 2.525416761636734009e-02 7.095090389251708984e+00 2.136103391647338867e+00 3.235277906060218811e-02
1.234000000000000000e+03 7.537354278564453125e+01 -1.112232685089111328e+01 4.262389987707138062e-02 7.171130180358886719e+00 2.164126157760620117e+00 -5.810972303152084351e-02
1.235000000000000000e+03 7.667072296142578125e+01 -1.391764736175537109e+01 1.969122514128684998e-02 7.148936271667480469e+00 2.150588274002075195e+00 -7.799682021141052246e-02
1.236000000000000000e+03 7.669116210937500000e+01 -1.111759090423583984e+01 2.323282137513160706e-02 7.104793071746826172e+00 2.138407707214355469e+00 -4.454459622502326965e-02
1.237000000000000000e+03 7.670764160156250000e+01 -1.946703147888183594e+01 9.309161454439163208e-03 7.290343761444091797e+00 2.189895868301391602e+00 -1.214172765612602234e-01
1.238000000000000000e+03 7.492972373962402344e+00 1.322893714904785156e+01 3.360314294695854187e-03 -5.876103881746530533e-03 -7.547368295490741730e-04 7.662709336727857590e-03
1.239000000000000000e+03 1.144529342651367188e+01 8.123317718505859375e+00 1.594801142346113920e-04 3.426110371947288513e-03 1.075677108019590378e-03 1.928005367517471313e-03
1.240000000000000000e+03 1.297246551513671875e+01 7.354474067687988281e+00 1.130422344431281090e-03 1.447542919777333736e-03 7.733895909041166306e-04 1.379875000566244125e-03
1.241000000000000000e+03 1.944566726684570312e+01 1.449582195281982422e+01 5.635307431221008301e-01 3.572876214981079102e+00 1.240922093391418457e+00 -1.107644081115722656e+00
1.242000000000000000e+03 2.005057096481323242e+00 2.746903610229492188e+01 1.309371273964643478e-02 -1.032351702451705933e-01 -2.704243734478950500e-02 -5.031499546021223068e-03
1.243000000000000000e+03 3.620408535003662109e+00 3.004488182067871094e+01 1.917878538370132446e-02 1.915727257728576660e-01 6.322545558214187622e-02 -5.974357947707176208e-02
1.244000000000000000e+03 1.970370769500732422e+00 2.605498695373535156e+01 1.492797024548053741e-02 -1.163365468382835388e-01 -3.042257390916347504e-02 9.930917993187904358e-03
1.245000000000000000e+03 3.322304725646972656e+00 2.731684684753417969e+01 3.289756923913955688e-02 8.090874552726745605e-02 3.414189442992210388e-02 -2.862256392836570740e-02
1.246000000000000000e+03 6.479809761047363281e+00 2.926862907409667969e+01 2.996917441487312317e-02 6.084523797035217285e-01 1.915264576673507690e-01 -1.407240629196166992e-01
1.247000000000000000e+03 3.817052125930786133e+00 3.140774917602539062e+01 1.362042967230081558e-02 2.496464699506759644e-01 7.898006588220596313e-02 -7.207725197076797485e-02
1.248000000000000000e+03 3.442780256271362305e+00 2.868641853332519531e+01 2.532595768570899963e-02 1.351850926876068115e-01 4.815331473946571350e-02 -4.581348225474357605e-02
1.249000000000000000e+03 6.852903842926025391e+00 3.805728530883789062e+01 -4.988661780953407288e-02 9.123350381851196289e-01 2.587345242500305176e-01 -5.040052160620689392e-02
1.250000000000000000e+03 4.036662578582763672e+00 3.419820022583007812e+01 3.552216337993741035e-03 3.322411775588989258e-01 1.007380187511444092e-01 -6.921904534101486206e-02
1.251000000000000000e+03 3.977569818496704102e+00 3.278489685058593750e+01 5.476407706737518311e-03 2.968491911888122559e-01 9.069768339395523071e-02 -7.372752577066421509e-02
1.252000000000000000e+03 3.430959224700927734e+00 -3.569335556030273438e+01 6.320738047361373901e-02 -3.360318839550018311e-01 -8.184734731912612915e-02 -1.422600820660591125e-02
1.253000000000000000e+03 3.922797918319702148e+00 -3.456740188598632812e+01 4.583320766687393188e-02 -2.175592482089996338e-01 -5.151781067252159119e-02 -3.236562013626098633e-02
1.254000000000000000e+03 3.688438177108764648e+00 -3.039280319213867188e+01 4.145102202892303467e-02 -2.613069415092468262e-01 -6.595677137374877930e-02 -9.470616281032562256e-02
1.255000000000000000e+03 2.146489143371582031e+00 -2.901062774658203125e+01 1.667716540396213531e-02 -4.583999514579772949e-01 -1.325168311595916748e-01 -9.148170799016952515e-02
1.256000000000000000e+03 4.873544216156005859e+00 -2.754417419433593750e+01 6.589204072952270508e-02 -1.328747123479843140e-01 -2.009480074048042297e-02 -1.487761735916137695e-01
1.257000000000000000e+03 3.281935214996337891e+00 2.305999755859375000e+01 4.064228385686874390e-02 6.755510810762643814e-03 1.421933807432651520e-02 5.650893598794937134e-02
1.258000000000000000e+03 1.679121851921081543e+00 -1.333012008666992188e+01 1.908069127239286900e-03 2.056587254628539085e-03 1.189396949484944344e-03 5.016928073018789291e-03
1.259000000000000000e+03 1.787105798721313477e+00 2.043401145935058594e+01 -8.123210631310939789e-03 -7.005036622285842896e-02 -2.345207333564758301e-02 6.179011985659599304e-02
1.260000000000000000e+03 1.919069766998291016e+00 1.898929595947265625e+01 -1.212939433753490448e-02 -4.028413817286491394e-02 -1.572405919432640076e-02 5.432802811264991760e-02
1.261000000000000000e+03 5.565346717834472656e+00 1.823406219482421875e+01 -9.113469719886779785e-02 6.605482101440429688e-02 -7.523963693529367447e-03 2.241396345198154449e-02
1.262000000000000000e+03 1.800353407859802246e+00 -1.890492820739746094e+01 -3.787933290004730225e-02 -3.744358569383621216e-02 -2.259687520563602448e-02 -5.892174690961837769e-02
1.263000000000000000e+03 3.611784458160400391e+00 -1.784492874145507812e+01 -9.698747843503952026e-02 -1.216726470738649368e-02 -3.274642303586006165e-02 -3.935017436742782593e-02
1.264000000000000000e+03 5.461673736572265625e+00 1.353491497039794922e+01 -8.523240685462951660e-03 -1.942710485309362411e-03 -3.139785258099436760e-03 -7.765911868773400784e-05
1.265000000000000000e+03 1.800249457359313965e+00 -2.177375030517578125e+01 -1.363747380673885345e-02 -1.617135554552078247e-01 -5.260530859231948853e-02 -1.148778274655342102e-01
1.266000000000000000e+03 6.896383285522460938e+00 -1.980947303771972656e+01 -2.198216915130615234e-01 -1.916335709393024445e-02 -7.169551402330398560e-02 -2.453795969486236572e-01
1.267000000000000000e+03 3.808929920196533203e+00 5.115938186645507812e+00 4.747660132125020027e-04 -8.287701639346778393e-04 -1.062012379406951368e-04 5.214686825638636947e-05
1.268000000000000000e+03 3.133500099182128906e+00 7.808033943176269531e+00 1.815383875509724021e-04 3.702166432049125433e-04 1.655265077715739608e-04 -9.221942746080458164e-04
1.269000000000000000e+03 4.543078899383544922e+00 1.465789222717285156e+01 -1.640226505696773529e-02 -7.652980275452136993e-04 -5.150268785655498505e-03 -1.952305086888372898e-03
1.270000000000000000e+03 1.884006023406982422e+00 1.748937797546386719e+01 -1.406353712081909180e-02 -1.585387438535690308e-02 -8.975223638117313385e-03 3.409892320632934570e-02
1.271000000000000000e+03 3.521751403808593750e+00 1.993731117248535156e+01 -2.330903895199298859e-02 2.275188080966472626e-02 -1.671474747126922011e-04 7.935297489166259766e-02
1.272000000000000000e+03 2.924447774887084961e+00 9.093598365783691406e+00 8.149780333042144775e-04 -6.360997795127332211e-04 5.366347249946556985e-05 -1.214380725286900997e-03
1.273000000000000000e+03 2.699264764785766602e+00 -4.554175853729248047e+00 5.919081741012632847e-04 4.915053141303360462e-04 3.250240406487137079e-04 -1.048585691023617983e-04
1.274000000000000000e+03 1.899866342544555664e+00 -4.156950950622558594e+00 -7.677657995373010635e-04 -3.189468116033822298e-04 -3.260137746110558510e-04 2.660048485267907381e-04
1.275000000000000000e+03 2.781469106674194336e+00 -1.574760818481445312e+01 -1.201293896883726120e-02 -1.201891247183084488e-02 -7.209555245935916901e-03 -7.828196248738095164e-05
1.276000000000000000e+03 7.662858963012695312e+00 -9.292438507080078125e+00 -2.316168684046715498e-04 3.085585776716470718e-03 8.561906870454549789e-04 -1.286599319428205490e-03
1.277000000000000000e+03 3.546540021896362305e+00 -2.895498466491699219e+01 4.476248845458030701e-02 -2.753485441207885742e-01 -6.917581707239151001e-02 -1.168947666883468628e-01
1.278000000000000000e+03 4.350820541381835938e+00 -3.775175857543945312e+01 4.783394187688827515e-02 -2.672495841979980469e-01 -6.582469493150711060e-02 -7.345900684595108032e-02
1.279000000000000000e+03 2.630371809005737305e+00 -7.859942436218261719e+00 -2.732807188294827938e-04 7.428452227031812072e-05 -5.969885751255787909e-05 6.899018771946430206e-04
1.280000000000000000e+03 2.676661491394042969e+00 -3.468684387207031250e+01 3.201123327016830444e-02 -5.098337531089782715e-01 -1.433467566967010498e-01 -2.622010745108127594e-02
1.281000000000000000e+03 5.347949028015136719e+00 -3.496770858764648438e+01 6.396564841270446777e-02 3.707013279199600220e-02 3.031073324382305145e-02 -2.470683865249156952e-02
1.282000000000000000e+03 2.776843070983886719e+00 -2.022688865661621094e+01 -5.374133214354515076e-02 -7.739760726690292358e-02 -3.934168070554733276e-02 -1.274632960557937622e-01
1.283000000000000000e+03 1.924628376960754395e+00 -2.322512435913085938e+01 4.542898095678538084e-04 -2.349690049886703491e-01 -7.035441696643829346e-02 -1.336658596992492676e-01
1.284000000000000000e+03 3.447058200836181641e+00 -2.610442352294921875e+01 3.182912990450859070e-02 -2.492267340421676636e-01 -6.521928310394287109e-02 -1.656691282987594604e-01
1.285000000000000000e+03 6.291168212890625000e+00 -2.477116584777832031e+01 8.124902844429016113e-02 -4.120145365595817566e-02 1.201427169144153595e-02 -2.024922221899032593e-01
1.286000000000000000e+03 2.748714923858642578e+00 -1.451278877258300781e+01 3.923727490473538637e-04 -1.015958189964294434e-02 -2.930162707343697548e-03 3.575394861400127411e-03
1.287000000000000000e+03 2.821627378463745117e+00 -1.328113651275634766e+01 1.372117199935019016e-03 -4.785184282809495926e-03 -1.023920136503875256e-03 5.095370579510927200e-03
1.288000000000000000e+03 5.683418273925781250e+00 -9.581385612487792969e+00 1.084900461137294769e-03 -1.323275733739137650e-03 -7.151260069804266095e-05 -1.058680587448179722e-03
1.289000000000000000e+03 2.917526245117187500e+00 1.036769008636474609e+01 1.644954027142375708e-04 -4.268649790901690722e-04 -7.871087291277945042e-05 -1.214998774230480194e-03
1.290000000000000000e+03 3.293661117553710938e+00 1.446676731109619141e+01 -1.314928196370601654e-02 -3.046864294447004795e-04 -4.036190453916788101e-03 4.869181197136640549e-03
1.291000000000000000e+03 6.853804111480712891e+00 1.667588615417480469e+01 -7.458136975765228271e-02 1.499898964539170265e-03 -2.192444168031215668e-02 -5.154504999518394470e-02
1.292000000000000000e+03 5.627273559570312500e+00 1.674765396118164062e+01 -6.465572863817214966e-02 2.893305569887161255e-02 -1.071680244058370590e-02 -4.435732960700988770e-03
1.293000000000000000e+03 4.344925880432128906e+00 1.705463600158691406e+01 -5.318196117877960205e-02 3.161821514368057251e-02 -6.469124462455511093e-03 2.545328438282012939e-02
1.294000000000000000e+03 5.365963459014892578e+00 1.544204521179199219e+01 -3.484280034899711609e-02 1.130926795303821564e-02 -7.060060277581214905e-03 -8.474510163068771362e-03
1.295000000000000000e+03 7.470541000366210938e+00 1.514882946014404297e+01 7.237473968416452408e-03 -1.921197213232517242e-02 -3.592349356040358543e-03 -3.623435972258448601e-03
1.296000000000000000e+03 3.972641468048095703e+00 -8.924276351928710938e+00 3.933798579964786768e-04 -7.941575604490935802e-04 -1.202333151013590395e-04 2.585947804618626833e-04
1.297000000000000000e+03 9.420004844665527344e+00 -7.167265892028808594e+00 4.468983970582485199e-04 1.874813227914273739e-03 6.965134525671601295e-04 -1.005254336632788181e-03
1.298000000000000000e+03 8.604576110839843750e+00 -8.198505401611328125e+00 -1.639432884985581040e-04 -1.759325619786977768e-03 -5.769806448370218277e-04 7.458934560418128967e-04
1.299000000000000000e+03 1.196158695220947266e+01 7.109869003295898438e+00 -7.462659268639981747e-04 -1.491148839704692364e-03 -6.712244357913732529e-04 -1.408295822329819202e-03
1.300000000000000000e+03 2.121750259399414062e+01 4.336919307708740234e+00 3.279959261417388916e-01 2.708333492279052734e+00 9.108988046646118164e-01 -1.468959927558898926e+00
1.301000000000000000e+03 1.584591197967529297e+01 1.905850219726562500e+01 1.893391162157058716e-01 2.501646518707275391e+00 8.072956800460815430e-01 -9.262344837188720703e-01
1.302000000000000000e+03 2.173940467834472656e+01 1.037553191184997559e+00 4.456451237201690674e-01 1.971525192260742188e+00 7.251510620117187500e-01 -1.281440258026123047e+00
1.303000000000000000e+03 2.310852432250976562e+01 2.341546058654785156e+00 5.064888000488281250e-01 3.198266744613647461e+00 1.111426711082458496e+00 -1.889258623123168945e+00
1.304000000000000000e+03 1.865349197387695312e+01 1.781547737121582031e+01 2.468517124652862549e-01 3.315110445022583008e+00 1.068588614463806152e+00 -9.153984785079956055e-01
1.305000000000000000e+03 2.001664352416992188e+01 1.291282844543457031e+01 6.302264332771301270e-01 3.686931371688842773e+00 1.295147418975830078e+00 -1.226886749267578125e+00
1.306000000000000000e+03 1.808645439147949219e+01 -1.381775569915771484e+01 1.992079764604568481e-01 3.771158754825592041e-01 1.728971600532531738e-01 2.938442528247833252e-01
1.307000000000000000e+03 1.658895301818847656e+01 -1.408609390258789062e+01 -1.171450968831777573e-02 -3.204625472426414490e-02 -1.312822941690683365e-02 4.474871605634689331e-02
1.308000000000000000e+03 1.592589473724365234e+01 -1.520074653625488281e+01 -2.079889364540576935e-02 2.364715561270713806e-03 -5.530253518372774124e-03 7.616118341684341431e-02
1.309000000000000000e+03 1.465252876281738281e+01 -1.752714347839355469e+01 -1.047370508313179016e-01 1.298647224903106689e-01 7.538303732872009277e-03 1.547442674636840820e-01
1.310000000000000000e+03 2.066842269897460938e+01 8.394368171691894531e+00 5.749399662017822266e-01 3.486255884170532227e+00 1.218358755111694336e+00 -1.467739343643188477e+00
1.311000000000000000e+03 2.163674163818359375e+01 1.314753532409667969e+01 4.895832538604736328e-01 3.969057321548461914e+00 1.337592124938964844e+00 -1.217865467071533203e+00
1.312000000000000000e+03 1.099638462066650391e+01 -1.963034057617187500e+01 -1.544992625713348389e-01 -2.302401810884475708e-01 -1.154218316078186035e-01 -4.276415333151817322e-02
1.313000000000000000e+03 1.386249351501464844e+01 -1.970445251464843750e+01 5.111476033926010132e-02 3.167051076889038086e-01 1.103459596633911133e-01 2.721029520034790039e-01
1.314000000000000000e+03 1.270060539245605469e+01 2.243940925598144531e+01 1.274983584880828857e-01 1.486606001853942871e+00 4.842313230037689209e-01 -7.068021297454833984e-01
1.315000000000000000e+03 1.145852756500244141e+01 2.129061126708984375e+01 1.951542794704437256e-01 9.368471503257751465e-01 3.396004438400268555e-01 -6.303096413612365723e-01
1.316000000000000000e+03 5.564476490020751953e+00 -1.184619617462158203e+01 1.252791727893054485e-03 -1.209196983836591244e-03 1.307843103859340772e-05 -3.603414166718721390e-03
1.317000000000000000e+03 5.187533378601074219e+00 4.033598327636718750e+01 -6.029487028717994690e-02 5.569325089454650879e-01 1.489912867546081543e-01 1.243409700691699982e-02
1.318000000000000000e+03 2.811997032165527344e+01 -4.536456108093261719e+00 3.274731159210205078e+00 8.360207557678222656e+00 3.490481615066528320e+00 -5.516173362731933594e+00
1.319000000000000000e+03 2.763909721374511719e+01 -5.106139183044433594e+00 4.254159450531005859e+00 4.449378490447998047e+00 2.611061334609985352e+00 -4.709649085998535156e+00
1.320000000000000000e+03 2.814732551574707031e+01 -8.881845474243164062e+00 3.473084688186645508e+00 8.409060478210449219e+00 3.564643621444702148e+00 5.817814826965332031e+00
1.321000000000000000e+03 3.123052597045898438e+01 -6.248213291168212891e+00 9.602550506591796875e+00 1.478515148162841797e+01 7.316310405731201172e+00 1.453455448150634766e+00
1.322000000000000000e+03 3.125430679321289062e+01 -6.021259784698486328e+00 8.812901496887207031e+00 1.489283561706542969e+01 7.111721038818359375e+00 1.802920937538146973e+00
1.323000000000000000e+03 3.153323364257812500e+01 -7.620289802551269531e+00 8.236667633056640625e+00 1.408820819854736328e+01 6.697462558746337891e+00 -1.715756893157958984e+00
1.324000000000000000e+03 3.139870643615722656e+01 -7.925730705261230469e+00 7.371505737304687500e+00 1.469740962982177734e+01 6.620674610137939453e+00 -2.099623680114746094e+00
1.325000000000000000e+03 3.054471206665039062e+01 -4.633895397186279297e+00 2.972758293151855469e+00 1.663275909423828125e+01 5.881655216217041016e+00 4.699349701404571533e-01
1.326000000000000000e+03 3.003074645996093750e+01 -4.933728218078613281e+00 2.821988105773925781e+00 1.817882156372070312e+01 6.300242900848388672e+00 -5.005388259887695312e-01
1.327000000000000000e+03 2.935713005065917969e+01 -4.431317806243896484e+00 1.649963855743408203e+00 1.517244625091552734e+01 5.046722888946533203e+00 -3.486635446548461914e+00
1.328000000000000000e+03 2.954405784606933594e+01 -8.860386848449707031e+00 1.822530627250671387e+00 1.718788337707519531e+01 5.703124523162841797e+00 2.862847805023193359e+00
1.329000000000000000e+03 3.007023811340332031e+01 -8.744136810302734375e+00 2.584722518920898438e+00 1.796114349365234375e+01 6.163759708404541016e+00 5.104756355285644531e-01
1.330000000000000000e+03 2.570979499816894531e+01 -4.408842086791992188e+00 2.161750316619873047e+00 1.488582849502563477e+00 1.095099925994873047e+00 -1.830891132354736328e+00
1.331000000000000000e+03 2.701303863525390625e+01 -9.102738380432128906e+00 3.333806276321411133e+00 3.532871246337890625e+00 2.060003280639648438e+00 3.785929441452026367e+00
1.332000000000000000e+03 2.636624336242675781e+01 -9.249405860900878906e+00 2.907460689544677734e+00 2.302159786224365234e+00 1.562886118888854980e+00 2.836487770080566406e+00
1.333000000000000000e+03 2.726812934875488281e+01 -9.295554161071777344e+00 3.203880548477172852e+00 4.581097126007080078e+00 2.335493326187133789e+00 4.182239055633544922e+00
1.334000000000000000e+03 2.596828460693359375e+01 -9.230162620544433594e+00 2.463949441909790039e+00 1.614768385887145996e+00 1.223615288734436035e+00 2.189460039138793945e+00
1.335000000000000000e+03 2.341177749633789062e+01 -2.880097866058349609e+00 1.241728782653808594e+00 1.063085556030273438e+00 6.914442777633666992e-01 -9.656551480293273926e-01
1.336000000000000000e+03 2.398838233947753906e+01 -2.995702266693115234e+00 1.437642812728881836e+00 1.281967282295227051e+00 8.158830404281616211e-01 -1.231705904006958008e+00
1.337000000000000000e+03 1.996487808227539062e+01 -1.354478001594543457e+00 2.222589999437332153e-01 1.218660548329353333e-01 1.032375171780586243e-01 -1.787834316492080688e-01
1.338000000000000000e+03 8.494801521301269531e+00 4.232563972473144531e+00 5.363043746910989285e-04 -1.264949212782084942e-03 -2.185934426961466670e-04 -6.870533106848597527e-04
1.339000000000000000e+03 9.602459907531738281e+00 -3.137548446655273438e+00 -2.913160642492584884e-05 -4.468926053959876299e-04 -1.428072573617100716e-04 6.585227674804627895e-04
1.340000000000000000e+03 8.966610908508300781e+00 -3.293969869613647461e+00 2.930640766862779856e-04 2.989888598676770926e-04 1.776158896973356605e-04 -3.238985664211213589e-04
1.341000000000000000e+03 7.750833034515380859e+00 4.202498912811279297e+00 -8.560919377487152815e-05 9.315001661889255047e-04 2.537672698963433504e-04 9.629767155274748802e-04
1.342000000000000000e+03 6.808769702911376953e+00 4.943021774291992188e+00 -1.567745930515229702e-04 9.931717067956924438e-04 2.509191399440169334e-04 5.188259528949856758e-04
1.343000000000000000e+03 5.113671302795410156e+00 3.907962083816528320e+00 -5.607848834188189358e-06 4.430590488482266665e-04 1.312353560933843255e-04 2.508494653739035130e-04
1.344000000000000000e+03 4.492731094360351562e+00 5.788821220397949219e+00 3.117570013273507357e-04 3.665607364382594824e-04 2.034953213296830654e-04 -7.840660400688648224e-04
1.345000000000000000e+03 2.478483438491821289e+00 4.632866859436035156e+00 -1.006764214253053069e-04 1.411100965924561024e-04 1.213010273204417899e-05 7.955063483677804470e-05
1.346000000000000000e+03 5.142970085144042969e+00 5.159139633178710938e+00 6.536141154356300831e-04 -1.344827702268958092e-03 -2.073640789603814483e-04 2.932454517576843500e-04
1.347000000000000000e+03 3.185420751571655273e+00 3.475780487060546875e+00 -4.044484012410975993e-05 1.894147135317325592e-04 4.469096165848895907e-05 1.857815805124118924e-04
1.348000000000000000e+03 1.475334644317626953e+00 4.898828506469726562e+00 4.151577886659651995e-04 4.224808653816580772e-04 2.512915816623717546e-04 -6.990660913288593292e-04
1.349000000000000000e+03 1.709676742553710938e+00 3.322546005249023438e+00 -8.830103615764528513e-05 6.806302699260413647e-04 1.776987628545612097e-04 -3.353989741299301386e-04
1.350000000000000000e+03 2.249322700500488281e+01 -2.101011991500854492e+00 8.711850047111511230e-01 1.004973292350769043e+00 5.628474950790405273e-01 -7.629178762435913086e-01
1.351000000000000000e+03 2.510219192504882812e+01 -3.803114175796508789e+00 1.912178039550781250e+00 1.499021530151367188e+00 1.023359894752502441e+00 -1.670094132423400879e+00
1.352000000000000000e+03 7.474331855773925781e+00 -3.363976955413818359e+00 4.501221410464495420e-04 4.510584112722426653e-04 2.703541831579059362e-04 -6.842886796221137047e-04
1.353000000000000000e+03 1.075957870483398438e+01 -5.264562606811523438e+00 6.961208418942987919e-04 1.104338094592094421e-03 5.401376984082162380e-04 -8.213370456360280514e-04
1.354000000000000000e+03 1.096956539154052734e+01 3.420045375823974609e+00 -2.784988027997314930e-04 -1.185671862913295627e-04 -1.191197952721267939e-04 -7.465226808562874794e-04
1.355000000000000000e+03 1.164342403411865234e+01 5.052001476287841797e+00 5.346657126210629940e-04 9.353064233437180519e-04 4.409916582517325878e-04 1.935768756084144115e-03
1.356000000000000000e+03 1.077966117858886719e+01 5.017334938049316406e+00 -6.604264399356907234e-06 -1.089129829779267311e-03 -3.287202271167188883e-04 -1.482519204728305340e-03
1.357000000000000000e+03 9.830030441284179688e+00 -4.794771194458007812e+00 3.199219645466655493e-05 -1.258248346857726574e-03 -3.678768407553434372e-04 5.529107875190675259e-04
1.358000000000000000e+03 4.652274608612060547e+00 -3.655734539031982422e+00 7.769230433041229844e-05 3.428605268709361553e-04 1.261658471776172519e-04 1.691309626039583236e-05
1.359000000000000000e+03 4.150871276855468750e+00 -4.660814762115478516e+00 3.084914642386138439e-04 2.652198600117117167e-04 1.721134030958637595e-04 2.043941349256783724e-04
1.360000000000000000e+03 6.566576957702636719e+00 -4.549113273620605469e+00 1.095158004318363965e-04 -7.340449374169111252e-04 -1.873587316367775202e-04 -3.148990508634597063e-04
1.361000000000000000e+03 8.234123229980468750e+00 -3.382452964782714844e+00 -5.436680512502789497e-04 -1.954988838406279683e-04 -2.217500878032296896e-04 4.431853012647479773e-04
1.362000000000000000e+03 3.695916891098022461e+00 -7.730918407440185547e+00 1.407267292961478233e-03 -2.971731883008033037e-04 3.330282052047550678e-04 4.480166826397180557e-04
1.363000000000000000e+03 3.193506956100463867e+00 -4.000190258026123047e+00 1.007888204185292125e-04 -1.049521088134497404e-04 -1.248987928192946129e-06 3.775275254156440496e-04
1.364000000000000000e+03 3.431198358535766602e+00 -5.617131710052490234e+00 5.435939528979361057e-04 3.491429670248180628e-04 2.678210730664432049e-04 1.667093747528269887e-04
1.365000000000000000e+03 2.529099702835083008e+00 -5.524114608764648438e+00 -3.778823593165725470e-04 -2.586683840490877628e-04 -1.909652346512302756e-04 2.706198429223150015e-04
1.366000000000000000e+03 2.257023429870605469e+01 -1.043655300140380859e+01 9.411381483078002930e-01 7.557459473609924316e-01 5.090652108192443848e-01 5.141637325286865234e-01
1.367000000000000000e+03 1.174007797241210938e+01 4.200987339019775391e+00 -6.296465289779007435e-04 -3.798020770773291588e-05 -2.002880210056900978e-04 -1.126633258536458015e-03
1.368000000000000000e+03 1.937373352050781250e+01 -1.047531032562255859e+01 5.512319132685661316e-02 1.828862875699996948e-01 7.140284031629562378e-02 -1.516985893249511719e-01
1.369000000000000000e+03 1.938084411621093750e+01 -1.210760402679443359e+01 3.226826488971710205e-01 4.306907355785369873e-01 2.260120064020156860e-01 1.903680115938186646e-01
1.370000000000000000e+03 2.458014488220214844e+01 -3.130943298339843750e+00 1.697349786758422852e+00 1.645100951194763184e+00 1.002735257148742676e+00 -1.602425932884216309e+00
1.371000000000000000e+03 2.118163299560546875e+01 -1.057115745544433594e+01 5.353122353553771973e-01 5.402586460113525391e-01 3.226712644100189209e-01 1.769057810306549072e-01
1.372000000000000000e+03 2.186528205871582031e+01 -1.051820373535156250e+01 7.182022929191589355e-01 6.057345271110534668e-01 3.971810638904571533e-01 3.035195469856262207e-01
1.373000000000000000e+03 1.011450004577636719e+01 1.013039684295654297e+01 -1.405460410751402378e-03 6.830115336924791336e-03 1.627396442927420139e-03 1.668414450250566006e-03
1.374000000000000000e+03 9.894162178039550781e+00 8.637067794799804688e+00 -1.357880304567515850e-03 4.793697968125343323e-03 1.030745333991944790e-03 9.672596352174878120e-04
1.375000000000000000e+03 3.054997920989990234e+00 1.166719436645507812e+01 -3.859501157421618700e-04 -2.153931185603141785e-03 -7.619643583893775940e-04 -9.743350092321634293e-04
1.376000000000000000e+03 6.648829936981201172e+00 1.825268936157226562e+01 -1.309923082590103149e-01 7.481033354997634888e-02 -1.685459166765213013e-02 -3.707393479999154806e-04
1.377000000000000000e+03 3.106331586837768555e+00 1.728952217102050781e+01 -3.179284557700157166e-02 6.581484805792570114e-03 -7.563408464193344116e-03 3.985038772225379944e-02
1.378000000000000000e+03 9.951651573181152344e+00 5.033708095550537109e+00 -2.688635431695729494e-04 1.353971543721854687e-03 3.255324263591319323e-04 1.855990383774042130e-03
1.379000000000000000e+03 4.248105525970458984e+00 1.131960391998291016e+01 -8.978085243143141270e-04 -2.101514488458633423e-03 -8.997968980111181736e-04 -3.308026934973895550e-04
1.380000000000000000e+03 7.689325809478759766e+00 -2.462059593200683594e+01 1.344029605388641357e-01 2.265950851142406464e-02 4.711873829364776611e-02 -1.546022295951843262e-01
1.381000000000000000e+03 7.899962902069091797e+00 -2.281903266906738281e+01 3.196413069963455200e-02 -7.159282267093658447e-02 -1.188860833644866943e-02 -2.339694052934646606e-01
1.382000000000000000e+03 2.874874353408813477e+00 -1.901258850097656250e+01 -5.447873845696449280e-02 -3.752259165048599243e-02 -2.760039828717708588e-02 -9.320930391550064087e-02
1.383000000000000000e+03 6.144693851470947266e+00 -1.854328918457031250e+01 -2.893097698688507080e-01 3.542000427842140198e-02 -7.616692781448364258e-02 -1.258378624916076660e-01
1.384000000000000000e+03 9.857449531555175781e+00 -3.666110754013061523e+00 5.136593827046453953e-04 -1.195930875837802887e-03 -2.046814479399472475e-04 2.498477260814979672e-05
1.385000000000000000e+03 7.722551345825195312e+00 -2.106083297729492188e+01 -1.431791335344314575e-01 -8.653378486633300781e-02 -6.891387701034545898e-02 -2.850640118122100830e-01
1.386000000000000000e+03 2.200881004333496094e+01 7.313921451568603516e+00 4.797906279563903809e-01 3.661434888839721680e+00 1.242367625236511230e+00 -1.687312126159667969e+00
1.387000000000000000e+03 2.083204269409179688e+01 -2.700542658567428589e-02 3.438414335250854492e-01 1.004802465438842773e+00 4.045931696891784668e-01 -7.183902859687805176e-01
1.388000000000000000e+03 9.191917419433593750e+00 9.563053131103515625e+00 1.015093410387635231e-03 -4.426047671586275101e-03 -1.023286255076527596e-03 1.605990924872457981e-03
1.389000000000000000e+03 1.256826496124267578e+01 5.071486949920654297e+00 -8.298389147967100143e-04 -8.995197276817634702e-05 -2.759372582659125328e-04 -1.176959252916276455e-03
1.390000000000000000e+03 2.173099899291992188e+01 3.338065862655639648e+00 3.299784362316131592e-01 2.662551641464233398e+00 8.977590203285217285e-01 -1.553891897201538086e+00
1.391000000000000000e+03 2.086355781555175781e+01 1.085178732872009277e+00 2.743904590606689453e-01 1.408145308494567871e+00 5.047607421875000000e-01 -9.507359266281127930e-01
1.392000000000000000e+03 7.627224445343017578e+00 -6.157663345336914062e+00 2.109589986503124237e-04 1.289947307668626308e-03 4.502719093579798937e-04 -1.316197740379720926e-04
1.393000000000000000e+03 8.459023475646972656e+00 1.214789962768554688e+01 -4.931048024445772171e-03 8.866266347467899323e-03 1.180565450340509415e-03 -6.067474023438990116e-04
1.394000000000000000e+03 5.859153747558593750e+00 1.166819190979003906e+01 -1.786850625649094582e-03 -2.905891509726643562e-03 -1.407822710461914539e-03 1.461144536733627319e-03
1.395000000000000000e+03 1.360975170135498047e+01 2.117423820495605469e+01 1.293442547321319580e-01 1.713602900505065918e+00 5.528841614723205566e-01 -7.986235618591308594e-01
1.396000000000000000e+03 7.517679595947265625e+01 1.369269657135009766e+01 1.018197159282863140e-03 7.789683341979980469e+00 2.337210416793823242e+00 2.727057039737701416e-01
1.397000000000000000e+03 7.542005920410156250e+01 2.156373858451843262e-02 4.016459733247756958e-02 7.256034851074218750e+00 2.188859939575195312e+00 1.406724154949188232e-01
1.398000000000000000e+03 7.409179687500000000e+01 -8.335680007934570312e+00 7.239971309900283813e-02 7.212979316711425781e+00 2.185613632202148438e+00 -1.011477690190076828e-02
1.399000000000000000e+03 7.532335662841796875e+01 -1.533123302459716797e+01 3.208234533667564392e-02 7.237603187561035156e+00 2.180905580520629883e+00 -1.215288266539573669e-01
1.400000000000000000e+03 7.403029632568359375e+01 -1.254657745361328125e+01 6.255157291889190674e-02 7.243852615356445312e+00 2.191921234130859375e+00 -9.862341731786727905e-02
1.401000000000000000e+03 7.668000793457031250e+01 -1.251970386505126953e+01 2.154675498604774475e-02 7.124075889587402344e+00 2.143686771392822266e+00 -6.185849010944366455e-02
1.402000000000000000e+03 7.539044952392578125e+01 -9.717709541320800781e+00 4.478465020656585693e-02 7.159607410430908203e+00 2.161317586898803711e+00 -3.377145901322364807e-02
1.403000000000000000e+03 7.671652221679687500e+01 -6.924365520477294922e+00 2.531269192695617676e-02 7.086870670318603516e+00 2.133655071258544922e+00 1.273134537041187286e-02
1.404000000000000000e+03 7.540607452392578125e+01 -6.927657127380371094e+00 4.663031920790672302e-02 7.155930995941162109e+00 2.160768270492553711e+00 1.716356724500656128e-02
1.405000000000000000e+03 7.408612060546875000e+01 -4.162676334381103516e+00 7.293315976858139038e-02 7.234943389892578125e+00 2.192363023757934570e+00 8.401840925216674805e-02
1.406000000000000000e+03 7.674296569824218750e+01 1.412540316581726074e+00 2.002703398466110229e-02 7.237423896789550781e+00 2.177235126495361328e+00 1.219943165779113770e-01
1.407000000000000000e+03 7.543204498291015625e+01 1.396658658981323242e+00 3.723531961441040039e-02 7.292604923248291016e+00 2.198951959609985352e+00 1.618546992540359497e-01
1.408000000000000000e+03 7.544451141357421875e+01 6.843739986419677734e+00 2.308163046836853027e-02 7.484159469604492188e+00 2.252172470092773438e+00 2.282383739948272705e-01
1.409000000000000000e+03 7.540957641601562500e+01 -2.750452995300292969e+00 4.461139440536499023e-02 7.198142528533935547e+00 2.172826290130615234e+00 9.384603798389434814e-02
1.410000000000000000e+03 7.540821075439453125e+01 -4.141065120697021484e+00 4.594015330076217651e-02 7.177810668945312500e+00 2.167125225067138672e+00 6.879542022943496704e-02
1.411000000000000000e+03 7.195221710205078125e+01 3.401241683959960938e+01 -8.621866255998611450e-02 8.342205047607421875e+00 2.476795911788940430e+00 1.687753051519393921e-01
1.412000000000000000e+03 7.645848083496093750e+01 3.413747406005859375e+01 -2.126256562769412994e-02 8.629024505615234375e+00 2.582328557968139648e+00 8.295151591300964355e-02
1.413000000000000000e+03 7.446648406982421875e+01 3.086699676513671875e+01 -4.568693786859512329e-02 8.410705566406250000e+00 2.509505748748779297e+00 1.724581420421600342e-01
1.414000000000000000e+03 7.594467163085937500e+01 3.113731384277343750e+01 -2.724497206509113312e-02 8.509660720825195312e+00 2.544724941253662109e+00 1.325385123491287231e-01
1.415000000000000000e+03 7.533726501464843750e+01 -1.812202453613281250e+01 2.222405001521110535e-02 7.301146984100341797e+00 2.197011232376098633e+00 -1.507627218961715698e-01
1.416000000000000000e+03 7.674365997314453125e+01 8.269438743591308594e+00 1.034153439104557037e-02 7.515950202941894531e+00 2.257887363433837891e+00 1.814044564962387085e-01
1.417000000000000000e+03 7.545473480224609375e+01 4.127274513244628906e+00 3.066685795783996582e-02 7.379887104034423828e+00 2.223166227340698242e+00 1.984609961509704590e-01
1.418000000000000000e+03 7.545568084716796875e+01 5.488693237304687500e+00 2.683864533901214600e-02 7.430294990539550781e+00 2.237140178680419922e+00 2.138449251651763916e-01
1.419000000000000000e+03 7.412882232666015625e+01 2.722462177276611328e+00 5.419009178876876831e-02 7.376051902770996094e+00 2.229072570800781250e+00 2.207916676998138428e-01
1.420000000000000000e+03 7.537812042236328125e+01 9.548314094543457031e+00 1.491463091224431992e-02 7.600453376770019531e+00 2.284610509872436523e+00 2.512706816196441650e-01
1.421000000000000000e+03 7.532133483886718750e+01 -1.672849464416503906e+01 2.700433880090713501e-02 7.268034458160400391e+00 2.188511610031127930e+00 -1.374198049306869507e-01
1.422000000000000000e+03 7.537709045410156250e+01 -1.950098228454589844e+01 1.642186939716339111e-02 7.336009025573730469e+00 2.205729246139526367e+00 -1.598109006881713867e-01
1.423000000000000000e+03 7.668051910400390625e+01 -1.809064292907714844e+01 1.166859362274408340e-02 7.250471591949462891e+00 2.178642034530639648e+00 -1.138787493109703064e-01
1.424000000000000000e+03 7.531906127929687500e+01 1.090842533111572266e+01 1.005872152745723724e-02 7.662096023559570312e+00 2.301646471023559570e+00 2.599514722824096680e-01
1.425000000000000000e+03 7.401837158203125000e+01 9.431780815124511719e+00 2.382984012365341187e-02 7.614699840545654297e+00 2.291558980941772461e+00 3.062897622585296631e-01
1.426000000000000000e+03 7.519179534912109375e+01 -2.875879859924316406e+01 -1.670552976429462433e-02 7.607257843017578125e+00 2.277165651321411133e+00 -1.648450940847396851e-01
1.427000000000000000e+03 7.435667419433593750e+01 -2.348576164245605469e+01 3.360446775332093239e-03 7.473489284515380859e+00 2.243054866790771484e+00 -2.053571045398712158e-01
1.428000000000000000e+03 7.649250793457031250e+01 1.661329460144042969e+01 -2.704403595998883247e-03 7.936399459838867188e+00 2.380108356475830078e+00 2.069613039493560791e-01
1.429000000000000000e+03 7.503949737548828125e+01 1.799340057373046875e+01 -9.142776019871234894e-03 7.980501651763916016e+00 2.391407728195190430e+00 2.706866562366485596e-01
1.430000000000000000e+03 7.498947143554687500e+01 2.086583137512207031e+01 -1.683190278708934784e-02 8.102497100830078125e+00 2.425699472427368164e+00 2.577025592327117920e-01
1.431000000000000000e+03 7.502349090576171875e+01 1.943033218383789062e+01 -1.481503061950206757e-02 8.042440414428710938e+00 2.408287525177001953e+00 2.652216553688049316e-01
1.432000000000000000e+03 7.359396362304687500e+01 1.796899604797363281e+01 -1.806574314832687378e-02 7.960885047912597656e+00 2.382845878601074219e+00 3.286828398704528809e-01
1.433000000000000000e+03 7.426251220703125000e+01 -2.591621208190917969e+01 -9.354782290756702423e-03 7.539515972137451172e+00 2.259048461914062500e+00 -2.042282968759536743e-01
1.434000000000000000e+03 7.674053955078125000e+01 -2.622008895874023438e+01 -4.355792887508869171e-03 7.515334606170654297e+00 2.253293752670288086e+00 -1.300301700830459595e-01
1.435000000000000000e+03 7.555575561523437500e+01 -2.348338127136230469e+01 2.996630035340785980e-03 7.446881294250488281e+00 2.234963417053222656e+00 -1.701387315988540649e-01
1.436000000000000000e+03 7.327113342285156250e+01 2.364386940002441406e+01 -3.517410159111022949e-02 8.154161453247070312e+00 2.435696125030517578e+00 2.935107946395874023e-01
1.437000000000000000e+03 7.462976837158203125e+01 2.676385498046875000e+01 -2.964885719120502472e-02 8.304229736328125000e+00 2.482374429702758789e+00 2.199035733938217163e-01
1.438000000000000000e+03 7.480998229980468750e+01 2.818986892700195312e+01 -3.824950382113456726e-02 8.356560707092285156e+00 2.495493412017822266e+00 2.015287280082702637e-01
1.439000000000000000e+03 7.628343200683593750e+01 2.959502792358398438e+01 -2.479119040071964264e-02 8.481045722961425781e+00 2.536876201629638672e+00 1.378796249628067017e-01
1.440000000000000000e+03 7.486668395996093750e+01 2.946940994262695312e+01 -3.544444590806961060e-02 8.400815010070800781e+00 2.509611129760742188e+00 1.808078736066818237e-01
1.441000000000000000e+03 7.489962005615234375e+01 -3.297477722167968750e+01 -4.041111096739768982e-02 7.712943077087402344e+00 2.301759719848632812e+00 -1.342053860425949097e-01
1.442000000000000000e+03 7.261383056640625000e+01 -3.610356521606445312e+01 -7.796788960695266724e-02 7.764510154724121094e+00 2.305962800979614258e+00 -1.186988577246665955e-01
1.443000000000000000e+03 7.558205413818359375e+01 -3.630855560302734375e+01 -3.112084604799747467e-02 7.773762226104736328e+00 2.322792530059814453e+00 -8.013740181922912598e-02
1.444000000000000000e+03 7.531886291503906250e+01 3.398647689819335938e+01 -4.035049304366111755e-02 8.528707504272460938e+00 2.546506881713867188e+00 1.179126724600791931e-01
1.445000000000000000e+03 7.643023681640625000e+01 -3.309437179565429688e+01 -2.097962424159049988e-02 7.720314025878906250e+00 2.309800386428833008e+00 -9.666931629180908203e-02
1.446000000000000000e+03 7.503011322021484375e+01 -3.150989341735839844e+01 -2.885884791612625122e-02 7.678545475006103516e+00 2.294905900955200195e+00 -1.488555818796157837e-01
1.447000000000000000e+03 3.125763177871704102e+00 1.589326858520507812e+01 -2.561041340231895447e-02 6.621482782065868378e-03 -5.696679465472698212e-03 1.618197746574878693e-02
1.448000000000000000e+03 2.923496484756469727e+00 -1.693579483032226562e+01 -3.048283979296684265e-02 -1.766061969101428986e-02 -1.444303803145885468e-02 -1.940538361668586731e-02
1.449000000000000000e+03 3.715221405029296875e+00 -1.383709907531738281e+01 -3.795073134824633598e-04 -1.474700588732957840e-02 -4.537953995168209076e-03 5.765445530414581299e-04
1.450000000000000000e+03 5.455892086029052734e+00 1.959325408935546875e+01 -5.824014544486999512e-02 9.020712971687316895e-02 9.590093977749347687e-03 6.633199751377105713e-02
1.451000000000000000e+03 3.182272911071777344e+00 1.872250175476074219e+01 -2.913877740502357483e-02 9.636968374252319336e-03 -5.850542802363634109e-03 6.335613131523132324e-02
1.452000000000000000e+03 4.558339595794677734e+00 -1.674708366394042969e+01 -4.736632108688354492e-02 -1.208162959665060043e-02 -1.783438585698604584e-02 -4.548264201730489731e-03
1.453000000000000000e+03 4.250361919403076172e+00 2.058730316162109375e+01 -1.500725839287042618e-02 5.690979957580566406e-02 1.257076207548379898e-02 8.036487549543380737e-02
1.454000000000000000e+03 4.399385452270507812e+00 1.838173866271972656e+01 -5.621166527271270752e-02 5.031924694776535034e-02 -1.767725567333400249e-03 5.127748101949691772e-02
1.455000000000000000e+03 4.522618293762207031e+00 2.444189262390136719e+01 6.623235344886779785e-02 1.425290256738662720e-01 6.262841820716857910e-02 6.645849905908107758e-03
1.456000000000000000e+03 4.789133071899414062e+00 2.844038581848144531e+01 3.637649863958358765e-02 3.277461826801300049e-01 1.092368066310882568e-01 -8.331811428070068359e-02
1.457000000000000000e+03 7.165503501892089844e+00 -2.330503082275390625e+01 3.801312670111656189e-02 -5.492896214127540588e-02 -5.074750632047653198e-03 -2.334511280059814453e-01
1.458000000000000000e+03 3.291919469833374023e+00 1.303303146362304688e+01 -4.795185290277004242e-03 -1.096811960451304913e-03 -1.767599140293896198e-03 8.746088133193552494e-05
1.459000000000000000e+03 4.644892692565917969e+00 -1.286045265197753906e+01 4.980887286365032196e-03 -8.855019696056842804e-03 -1.162239699624478817e-03 -2.246327465400099754e-03
1.460000000000000000e+03 2.791134357452392578e+00 -9.137089729309082031e+00 2.185897435992956161e-03 -4.701988946180790663e-04 5.147095653228461742e-04 6.742728292010724545e-04
1.461000000000000000e+03 2.947294235229492188e+00 -1.046534919738769531e+01 1.028606318868696690e-03 -1.777738681994378567e-03 -2.247397060273215175e-04 2.077318727970123291e-03
1.462000000000000000e+03 5.192709922790527344e+00 -1.951142883300781250e+01 -1.482069194316864014e-01 -2.453512884676456451e-02 -5.182261392474174500e-02 -1.772769838571548462e-01
1.463000000000000000e+03 3.194638729095458984e+00 -2.303038215637207031e+01 -8.141876198351383209e-03 -1.739535778760910034e-01 -5.462863668799400330e-02 -1.849407255649566650e-01
1.464000000000000000e+03 4.868092060089111328e+00 -2.115326499938964844e+01 -7.904665917158126831e-02 -6.298836320638656616e-02 -4.261050745844841003e-02 -2.284407466650009155e-01
1.465000000000000000e+03 5.585881710052490234e+00 2.288069915771484375e+01 9.622565656900405884e-02 1.983520388603210449e-01 8.837331086397171021e-02 4.218037065584212542e-04
1.466000000000000000e+03 4.553972244262695312e+00 2.580193519592285156e+01 6.478989869356155396e-02 1.964847445487976074e-01 7.838239520788192749e-02 -3.631287813186645508e-02
1.467000000000000000e+03 3.407314777374267578e+00 -2.457984352111816406e+01 1.661280728876590729e-02 -2.111942321062088013e-01 -5.837442725896835327e-02 -1.904924064874649048e-01
1.468000000000000000e+03 5.029125213623046875e+00 -2.331783866882324219e+01 3.946610260754823685e-03 -1.080722585320472717e-01 -3.123769350349903107e-02 -2.385500669479370117e-01
1.469000000000000000e+03 5.127213478088378906e+00 -2.221444892883300781e+01 -4.099008813500404358e-02 -8.071041107177734375e-02 -3.651015087962150574e-02 -2.344630807638168335e-01
1.470000000000000000e+03 6.162477970123291016e+00 -2.339590072631835938e+01 4.117485880851745605e-02 -7.886444777250289917e-02 -1.130687631666660309e-02 -2.359571605920791626e-01
1.471000000000000000e+03 3.868227958679199219e+00 -3.184339523315429688e+01 4.723225906491279602e-02 -2.341913133859634399e-01 -5.608771741390228271e-02 -6.751648336648941040e-02
1.472000000000000000e+03 4.896573066711425781e+00 -2.890268898010253906e+01 6.904556602239608765e-02 -1.149348467588424683e-01 -1.376678515225648880e-02 -1.191773936152458191e-01
1.473000000000000000e+03 5.100543975830078125e+00 9.923042297363281250e+00 -1.124704504036344588e-04 -1.257627853192389011e-03 -4.110294976271688938e-04 -2.175462141167372465e-04
1.474000000000000000e+03 5.423066616058349609e+00 3.106533432006835938e+01 1.753085851669311523e-02 5.163645744323730469e-01 1.601686328649520874e-01 -1.062600463628768921e-01
1.475000000000000000e+03 5.659430027008056641e+00 3.573208236694335938e+01 -1.569343730807304382e-02 6.502907872200012207e-01 1.903792023658752441e-01 -7.350724935531616211e-02
1.476000000000000000e+03 3.937264204025268555e+00 3.563749694824218750e+01 1.679259724915027618e-02 2.969383895397186279e-01 9.411929547786712646e-02 -4.939872398972511292e-02
1.477000000000000000e+03 3.015568494796752930e+00 -1.188962650299072266e+01 4.340328741818666458e-03 -3.597215749323368073e-03 2.229339006589725614e-04 2.689693588763475418e-03
1.478000000000000000e+03 6.010248661041259766e+00 1.010067462921142578e+01 2.429192245472222567e-04 -3.544221865013241768e-03 -9.903907775878906250e-04 1.979889813810586929e-03
1.479000000000000000e+03 3.514447212219238281e+00 -6.622978210449218750e+00 -7.594929775223135948e-05 -2.612000098451972008e-04 -1.011447893688455224e-04 1.604244025656953454e-04
1.480000000000000000e+03 6.977465152740478516e+00 -3.141355895996093750e+01 8.581607043743133545e-02 2.362964600324630737e-01 9.663376212120056152e-02 -1.525094453245401382e-02
1.481000000000000000e+03 5.092449665069580078e+00 -3.028725242614746094e+01 7.291316986083984375e-02 -5.555543303489685059e-02 5.207320209592580795e-03 -7.750328630208969116e-02
1.482000000000000000e+03 5.441797733306884766e+00 -3.176187515258789062e+01 6.138157472014427185e-02 2.832603082060813904e-02 2.691228128969669342e-02 -5.613139644265174866e-02
1.483000000000000000e+03 3.981563091278076172e+00 -3.327446746826171875e+01 3.746836632490158081e-02 -2.348228842020034790e-01 -5.920635536313056946e-02 -5.257676914334297180e-02
1.484000000000000000e+03 5.855417251586914062e+00 3.403613662719726562e+01 -1.154702808707952499e-02 6.329448819160461426e-01 1.864193528890609741e-01 -9.738380461931228638e-02
1.485000000000000000e+03 5.074551582336425781e+00 2.973208045959472656e+01 2.850364707410335541e-02 4.187883734703063965e-01 1.341876089572906494e-01 -9.808167070150375366e-02
1.486000000000000000e+03 4.251151561737060547e+00 8.194627761840820312e+00 8.015733328647911549e-04 -1.733459532260894775e-03 -2.795658656395971775e-04 -2.094577212119475007e-04
1.487000000000000000e+03 2.905813455581665039e+00 5.790775299072265625e+00 4.463960649445652962e-04 4.268273187335580587e-04 2.619670121930539608e-04 -1.105643576011061668e-03
1.488000000000000000e+03 5.289914608001708984e+00 6.300841331481933594e+00 9.411183418706059456e-04 -1.824658596888184547e-03 -2.650620590429753065e-04 2.462867123540490866e-04
1.489000000000000000e+03 6.267787456512451172e+00 -3.615515899658203125e+01 3.438372910022735596e-02 1.770391911268234253e-01 6.342687457799911499e-02 -3.072247840464115143e-02
1.490000000000000000e+03 7.761098384857177734e+00 -7.628046512603759766e+00 -1.822959748096764088e-04 1.931654172949492931e-03 5.248074885457754135e-04 -3.438224957790225744e-04
1.491000000000000000e+03 1.796439552307128906e+01 -1.210900783538818359e+01 3.208672255277633667e-02 3.297981619834899902e-02 1.951996050775051117e-02 -4.163993895053863525e-02
1.492000000000000000e+03 1.687755393981933594e+01 -1.580096721649169922e+01 1.391786932945251465e-01 4.065898656845092773e-01 1.637305617332458496e-01 3.547665178775787354e-01
1.493000000000000000e+03 5.127354145050048828e+00 -8.493973731994628906e+00 1.492898678407073021e-03 -8.860139059834182262e-04 1.820654288167133927e-04 4.786044519278220832e-05
1.494000000000000000e+03 6.470555782318115234e+00 1.967382621765136719e+01 -8.421283960342407227e-02 9.925018996000289917e-02 4.511206410825252533e-03 5.690027028322219849e-02
1.495000000000000000e+03 4.464653015136718750e+00 1.957164001464843750e+01 -4.067554697394371033e-02 5.874522775411605835e-02 5.420903675258159637e-03 6.866116076707839966e-02
1.496000000000000000e+03 2.325846099853515625e+01 1.170610523223876953e+01 3.992418050765991211e-01 4.336625099182128906e+00 1.420760154724121094e+00 -1.395475268363952637e+00
1.497000000000000000e+03 1.137216472625732422e+01 -2.130866050720214844e+01 9.215943515300750732e-02 5.749245733022689819e-02 4.489556699991226196e-02 4.067165032029151917e-02
1.498000000000000000e+03 1.404015636444091797e+01 -1.859177017211914062e+01 -3.085785545408725739e-02 1.772006303071975708e-01 4.390283301472663879e-02 2.023859620094299316e-01
1.499000000000000000e+03 1.586438655853271484e+01 -1.831769752502441406e+01 1.247336938977241516e-01 5.932857394218444824e-01 2.154058367013931274e-01 4.553637206554412842e-01
1.500000000000000000e+03 7.229187965393066406e+00 -1.236623191833496094e+01 -3.730058204382658005e-03 1.967668998986482620e-03 -5.287167732603847980e-04 2.264983719214797020e-03
1.501000000000000000e+03 6.558783054351806641e+00 -1.053564929962158203e+01 8.559911511838436127e-04 -1.576917828060686588e-03 -2.162780001526698470e-04 -2.115327632054686546e-03
1.502000000000000000e+03 8.255846977233886719e+00 2.152933502197265625e+01 1.757940053939819336e-01 2.837670147418975830e-01 1.378683149814605713e-01 -1.789020299911499023e-01
1.503000000000000000e+03 2.211942672729492188e+01 6.037760734558105469e+00 4.102963805198669434e-01 3.521150827407836914e+00 1.179434180259704590e+00 -1.750705003738403320e+00
1.504000000000000000e+03 4.311371803283691406e+00 -1.022529792785644531e+01 3.521426348015666008e-03 -2.142466604709625244e-03 4.136879288125783205e-04 -7.628180901519954205e-05
1.505000000000000000e+03 1.639342117309570312e+01 -1.699271774291992188e+01 1.031224951148033142e-01 5.184158086776733398e-01 1.864614933729171753e-01 4.212625920772552490e-01
1.506000000000000000e+03 2.184554100036621094e+01 1.008212757110595703e+01 5.684213042259216309e-01 3.891423225402832031e+00 1.337953329086303711e+00 -1.497184514999389648e+00
1.507000000000000000e+03 1.773412322998046875e+01 1.973397254943847656e+01 5.737068131566047668e-02 3.057912588119506836e+00 9.345849752426147461e-01 -8.611668348312377930e-01
1.508000000000000000e+03 1.716652870178222656e+01 1.819439125061035156e+01 2.597797513008117676e-01 2.920496225357055664e+00 9.540827870368957520e-01 -9.232641458511352539e-01
1.509000000000000000e+03 2.011767578125000000e+01 1.645134544372558594e+01 3.081504106521606445e-01 3.673404693603515625e+00 1.194466590881347656e+00 -9.607503414154052734e-01
1.510000000000000000e+03 2.263847541809082031e+01 3.984674453735351562e+00 3.756273388862609863e-01 3.359133243560791016e+00 1.120428204536437988e+00 -1.839604377746582031e+00
1.511000000000000000e+03 1.466271209716796875e+01 2.005835342407226562e+01 1.343140304088592529e-01 2.076466321945190430e+00 6.632340550422668457e-01 -8.936613202095031738e-01
1.512000000000000000e+03 2.193484497070312500e+01 8.667886734008789062e+00 5.336233973503112793e-01 3.807914018630981445e+00 1.302461266517639160e+00 -1.612221717834472656e+00
1.513000000000000000e+03 2.614612007141113281e+01 8.510670661926269531e+00 1.103150546550750732e-01 5.379446029663085938e+00 1.646928310394287109e+00 -1.723979473114013672e+00
1.514000000000000000e+03 2.818908691406250000e+01 -9.187083244323730469e+00 2.922850608825683594e+00 8.710154533386230469e+00 3.489901542663574219e+00 5.487980842590332031e+00
1.515000000000000000e+03 2.772996139526367188e+01 -3.968703269958496094e+00 2.779180049896240234e+00 6.836577415466308594e+00 2.884727239608764648e+00 -4.774413108825683594e+00
1.516000000000000000e+03 2.916445922851562500e+01 -4.863096237182617188e+00 2.199569463729858398e+00 1.604291152954101562e+01 5.472744464874267578e+00 -4.703022480010986328e+00
1.517000000000000000e+03 2.694885635375976562e+01 -4.152022838592529297e+00 3.009493589401245117e+00 3.907738924026489258e+00 2.075169801712036133e+00 -3.719524860382080078e+00
1.518000000000000000e+03 2.782123565673828125e+01 -4.600286483764648438e+00 3.491566896438598633e+00 6.557495117187500000e+00 3.014718532562255859e+00 -5.179652690887451172e+00
1.519000000000000000e+03 2.792708778381347656e+01 -4.379636764526367188e+00 3.174543380737304688e+00 7.195675373077392578e+00 3.111065626144409180e+00 -5.066278457641601562e+00
1.520000000000000000e+03 2.907171440124511719e+01 -9.231024742126464844e+00 1.771775007247924805e+00 1.373721885681152344e+01 4.652698040008544922e+00 4.418661594390869141e+00
1.521000000000000000e+03 2.954069519042968750e+01 -4.941039085388183594e+00 2.153813600540161133e+00 1.825995254516601562e+01 6.124129772186279297e+00 -2.763207912445068359e+00
1.522000000000000000e+03 3.101542472839355469e+01 -7.756974697113037109e+00 8.149884223937988281e+00 1.586967563629150391e+01 7.205867767333984375e+00 -2.276687622070312500e+00
1.523000000000000000e+03 3.173473358154296875e+01 -7.075642585754394531e+00 8.904301643371582031e+00 1.324901390075683594e+01 6.645994663238525391e+00 -6.250984668731689453e-01
1.524000000000000000e+03 3.072693252563476562e+01 -8.247949600219726562e+00 5.622313976287841797e+00 1.715912628173828125e+01 6.834432125091552734e+00 -2.007315397262573242e+00
1.525000000000000000e+03 3.125358772277832031e+01 -8.225845336914062500e+00 6.227001190185546875e+00 1.527183914184570312e+01 6.449652194976806641e+00 -2.153150558471679688e+00
1.526000000000000000e+03 3.002476310729980469e+01 -4.556667327880859375e+00 2.101918220520019531e+00 1.698920440673828125e+01 5.727336883544921875e+00 -1.088725686073303223e+00
1.527000000000000000e+03 3.032317543029785156e+01 -8.623480796813964844e+00 3.461109876632690430e+00 1.796558570861816406e+01 6.428009033203125000e+00 -6.420681476593017578e-01
1.528000000000000000e+03 3.108919715881347656e+01 -8.523991584777832031e+00 5.024121761322021484e+00 1.572789001464843750e+01 6.225603580474853516e+00 -1.907265186309814453e+00
1.529000000000000000e+03 3.134105110168457031e+01 -5.185653209686279297e+00 5.713883876800537109e+00 1.504976272583007812e+01 6.229094028472900391e+00 2.001922607421875000e+00
1.530000000000000000e+03 3.058190727233886719e+01 -5.152948856353759766e+00 4.687309265136718750e+00 1.750473785400390625e+01 6.657614231109619141e+00 1.511276602745056152e+00
1.531000000000000000e+03 2.950743675231933594e+01 -4.687012195587158203e+00 1.878935217857360840e+00 1.676350784301757812e+01 5.592732906341552734e+00 -2.973539590835571289e+00
1.532000000000000000e+03 2.522167968750000000e+01 -9.821763992309570312e+00 2.095516204833984375e+00 1.583550691604614258e+00 1.103720068931579590e+00 1.839198231697082520e+00
1.533000000000000000e+03 2.674308586120605469e+01 -8.947406768798828125e+00 3.143305063247680664e+00 2.426628828048706055e+00 1.670980215072631836e+00 3.105227708816528320e+00
1.534000000000000000e+03 2.567611503601074219e+01 -3.858790159225463867e+00 2.270349979400634766e+00 1.984862208366394043e+00 1.276563644409179688e+00 -2.192909955978393555e+00
1.535000000000000000e+03 2.460439491271972656e+01 -9.698561668395996094e+00 1.671968817710876465e+00 1.029253602027893066e+00 8.103667497634887695e-01 1.241368412971496582e+00
1.536000000000000000e+03 2.451278686523437500e+01 -1.030329036712646484e+01 1.799619913101196289e+00 1.439777255058288574e+00 9.718191623687744141e-01 1.527302861213684082e+00
1.537000000000000000e+03 2.514800262451171875e+01 -3.253121376037597656e+00 1.974902033805847168e+00 2.016394853591918945e+00 1.197389125823974609e+00 -2.028181314468383789e+00
1.538000000000000000e+03 2.169933700561523438e+01 1.153723374009132385e-01 5.235332250595092773e-01 1.560313940048217773e+00 6.251541376113891602e-01 -1.070134043693542480e+00
1.539000000000000000e+03 2.183839988708496094e+01 -2.444724559783935547e+00 6.987088322639465332e-01 6.192985773086547852e-01 3.954022228717803955e-01 -4.160495698451995850e-01
1.540000000000000000e+03 2.408120727539062500e+01 -2.373173713684082031e+00 1.449176192283630371e+00 1.806492686271667480e+00 9.767006635665893555e-01 -1.566057085990905762e+00
1.541000000000000000e+03 2.469727325439453125e+01 -2.561804294586181641e+00 1.696961522102355957e+00 2.197320461273193359e+00 1.168284654617309570e+00 -1.938387036323547363e+00
1.542000000000000000e+03 3.348534345626831055e+00 4.327699184417724609e+00 3.498668083921074867e-04 1.720336586004123092e-04 1.565701531944796443e-04 -9.287366410717368126e-04
1.543000000000000000e+03 4.368497848510742188e+00 4.487794399261474609e+00 -7.402518349408637732e-06 6.460646982304751873e-04 1.915986504172906280e-04 -3.398058470338582993e-04
1.544000000000000000e+03 6.516091346740722656e+00 5.757278919219970703e+00 1.113799400627613068e-03 -2.194998553022742271e-03 -3.243597457185387611e-04 2.767338628473225981e-06
1.545000000000000000e+03 6.370325565338134766e+00 4.050934791564941406e+00 -8.211386011680588126e-05 7.855799049139022827e-04 2.110398054355755448e-04 5.441663088276982307e-04
1.546000000000000000e+03 4.962825298309326172e+00 4.590723514556884766e+00 8.850501617416739464e-04 -9.843341540545225143e-04 -2.978519842145033181e-05 -7.003822247497737408e-04
1.547000000000000000e+03 8.335849761962890625e+00 5.071835041046142578e+00 -2.544868330005556345e-04 1.244629733264446259e-03 2.970428613480180502e-04 1.288125640712678432e-03
1.548000000000000000e+03 7.040690898895263672e+00 4.139887809753417969e+00 7.565672858618199825e-04 -1.412515528500080109e-03 -1.967844873433932662e-04 -5.367642734199762344e-04
1.549000000000000000e+03 9.042666435241699219e+00 8.119864463806152344e+00 9.682281524874269962e-04 -3.520066849887371063e-03 -7.655516383238136768e-04 1.434164470992982388e-03
1.550000000000000000e+03 3.999575853347778320e+00 4.004801750183105469e+00 3.468442300800234079e-04 -3.645491960924118757e-04 -5.311490895110182464e-06 2.965226885862648487e-04
1.551000000000000000e+03 2.391411590576171875e+01 -1.030204200744628906e+01 1.500175118446350098e+00 1.111486554145812988e+00 7.834985256195068359e-01 1.115502238273620605e+00
1.552000000000000000e+03 8.337650299072265625e+00 -4.278092861175537109e+00 7.511361618526279926e-04 5.279744509607553482e-04 3.837331896647810936e-04 -8.000791422091424465e-04
1.553000000000000000e+03 5.614661216735839844e+00 -7.072049617767333984e+00 6.554230349138379097e-04 -3.621510404627770185e-04 8.798159251455217600e-05 3.528012894093990326e-05
1.554000000000000000e+03 6.736760616302490234e+00 -5.664149761199951172e+00 -7.575908966828137636e-05 -6.437512929551303387e-04 -2.158531133318319917e-04 -3.932414692826569080e-04
1.555000000000000000e+03 4.912769317626953125e+00 -4.505942821502685547e+00 1.629564067116007209e-04 -3.761730040423572063e-04 -6.396498065441846848e-05 -3.725818532984703779e-05
1.556000000000000000e+03 6.776221275329589844e+00 -3.997546911239624023e+00 7.883278158260509372e-05 9.697378845885396004e-04 3.145711962133646011e-04 -6.434531533159315586e-04
1.557000000000000000e+03 6.203565597534179688e+00 -4.040293693542480469e+00 3.469840448815375566e-04 -5.148648051545023918e-04 -5.036422226112335920e-05 5.281476769596338272e-04
1.558000000000000000e+03 1.088445091247558594e+01 4.216904163360595703e+00 3.343732969369739294e-04 6.334138452075421810e-04 2.903361455537378788e-04 1.579755800776183605e-03
1.559000000000000000e+03 1.143106746673583984e+01 5.943214416503906250e+00 -3.915746638085693121e-04 -1.324039185419678688e-03 -5.146841285750269890e-04 -1.500560319982469082e-03
1.560000000000000000e+03 2.192446327209472656e+01 -1.139117431640625000e+01 8.992139697074890137e-01 9.331717491149902344e-01 5.497156977653503418e-01 6.337673068046569824e-01
1.561000000000000000e+03 2.000538825988769531e+01 -1.137280559539794922e+01 3.552215099334716797e-01 4.637565612792968750e-01 2.456934154033660889e-01 1.321905404329299927e-01
1.562000000000000000e+03 2.326168441772460938e+01 -1.035398101806640625e+01 1.224338531494140625e+00 9.044576287269592285e-01 6.386388540267944336e-01 7.892122268676757812e-01
1.563000000000000000e+03 2.146963119506835938e+01 -1.280364990234375000e+01 8.632351160049438477e-01 1.225216031074523926e+00 6.265353560447692871e-01 8.702407479286193848e-01
1.564000000000000000e+03 2.096969795227050781e+01 -1.040699243545532227e+00 4.348617196083068848e-01 7.216140031814575195e-01 3.469427227973937988e-01 -5.207978487014770508e-01
1.565000000000000000e+03 7.583769321441650391e+00 1.147817707061767578e+01 4.378547018859535456e-04 -2.902874490246176720e-03 -7.395059219561517239e-04 5.912305321544408798e-03
1.566000000000000000e+03 6.606167316436767578e+00 1.248281383514404297e+01 -1.080963760614395142e-03 -5.801149178296327591e-03 -2.064633881673216820e-03 -2.426508581265807152e-03
1.567000000000000000e+03 8.324070930480957031e+00 8.972510337829589844e+00 -1.133620156906545162e-03 2.704722108319401741e-03 4.713306261692196131e-04 -5.548990448005497456e-04
1.568000000000000000e+03 8.290376663208007812e+00 7.572525501251220703e+00 -3.364102449268102646e-04 1.506433356553316116e-03 3.510069218464195728e-04 -6.886680494062602520e-04
1.569000000000000000e+03 4.384651184082031250e+00 -1.165803813934326172e+01 1.928017358295619488e-03 -6.447048392146825790e-03 -1.355709275230765343e-03 -1.065309275873005390e-03
1.570000000000000000e+03 9.141902923583984375e+00 5.070498943328857422e+00 5.618175491690635681e-04 -1.512656803242862225e-03 -2.852517645806074142e-04 -8.368928101845085621e-04
1.571000000000000000e+03 1.052041435241699219e+01 7.718384265899658203e+00 3.634496824815869331e-04 -3.144525922834873199e-03 -8.343228255398571491e-04 -5.454455385915935040e-04
1.572000000000000000e+03 6.251628398895263672e+00 -1.273149681091308594e+01 2.340520033612847328e-03 1.151697942987084389e-03 1.047665369696915150e-03 -9.679686278104782104e-03
1.573000000000000000e+03 1.234305572509765625e+01 6.086727619171142578e+00 6.790465558879077435e-04 1.269290922209620476e-03 5.845012492500245571e-04 1.656432519666850567e-03
1.574000000000000000e+03 6.690763950347900391e+00 9.207377433776855469e+00 4.381319449748843908e-04 -9.608221007511019707e-04 -1.568070583743974566e-04 -5.653788102790713310e-04
1.575000000000000000e+03 3.716172695159912109e+00 6.676041126251220703e+00 7.014536531642079353e-04 -1.074831350706517696e-03 -1.120133019867353141e-04 -1.691537909209728241e-04
1.576000000000000000e+03 9.158616065979003906e+00 -5.668090343475341797e+00 1.306246704189106822e-04 1.646351185627281666e-03 5.330927670001983643e-04 -5.989071214571595192e-04
1.577000000000000000e+03 9.214206695556640625e+00 -4.102284908294677734e+00 -5.177180864848196507e-04 4.950253642164170742e-04 -6.807816134823951870e-06 4.158497031312435865e-04
1.578000000000000000e+03 2.283210182189941406e+01 -1.137254595756530762e+00 9.428545832633972168e-01 1.691492915153503418e+00 7.903042435646057129e-01 -1.269387245178222656e+00
1.579000000000000000e+03 2.246238517761230469e+01 2.009047716856002808e-01 6.786565780639648438e-01 2.084982872009277344e+00 8.290918469429016113e-01 -1.412002086639404297e+00
1.580000000000000000e+03 6.446232795715332031e+00 1.444039726257324219e+01 -1.107115764170885086e-02 -1.060268189758062363e-02 -6.502151954919099808e-03 -1.221571583300828934e-02
1.581000000000000000e+03 5.295290470123291016e+00 1.083408069610595703e+01 -8.182552846847102046e-06 -4.020314663648605347e-03 -1.208549132570624352e-03 -1.849194086389616132e-04
1.582000000000000000e+03 7.550228118896484375e+01 3.260790634155273438e+01 -3.807687014341354370e-02 8.517765045166015625e+00 2.543906450271606445e+00 1.296731233596801758e-01
1.583000000000000000e+03 7.369668579101562500e+01 2.897270393371582031e+01 -4.970533028244972229e-02 8.321235656738281250e+00 2.481459140777587891e+00 2.181531041860580444e-01
1.584000000000000000e+03 7.511465454101562500e+01 -3.011594581604003906e+01 -2.341613546013832092e-02 7.641351222991943359e+00 2.285380601882934570e+00 -1.574138551950454712e-01
1.585000000000000000e+03 7.365560150146484375e+01 -3.123852920532226562e+01 -4.385076090693473816e-02 7.679780960083007812e+00 2.290779113769531250e+00 -1.770504862070083618e-01
1.586000000000000000e+03 7.534151458740234375e+01 -2.741456222534179688e+01 -1.263142284005880356e-02 7.569255352020263672e+00 2.266987085342407227e+00 -1.687570512294769287e-01
1.587000000000000000e+03 7.344150543212890625e+01 2.223708343505859375e+01 -3.295198082923889160e-02 8.116678237915039062e+00 2.425117731094360352e+00 3.035305440425872803e-01
1.588000000000000000e+03 7.482347869873046875e+01 2.372412300109863281e+01 -2.225345186889171600e-02 8.207526206970214844e+00 2.455581903457641602e+00 2.438402175903320312e-01
1.589000000000000000e+03 7.543765258789062500e+01 -2.085270690917968750e+01 1.200375612825155258e-02 7.371518611907958984e+00 2.215056896209716797e+00 -1.662608534097671509e-01
1.590000000000000000e+03 7.424732971191406250e+01 -2.223538208007812500e+01 1.099519710987806320e-02 7.439922809600830078e+00 2.235275268554687500e+00 -2.048044204711914062e-01
1.591000000000000000e+03 7.524900054931640625e+01 1.228862762451171875e+01 6.333831232041120529e-03 7.725025653839111328e+00 2.319407939910888672e+00 2.679022252559661865e-01
1.592000000000000000e+03 7.367182159423828125e+01 1.502084636688232422e+01 -4.788166843354701996e-03 7.843348026275634766e+00 2.351567983627319336e+00 3.370862603187561035e-01
1.593000000000000000e+03 7.506413269042968750e+01 1.655279350280761719e+01 -7.531903684139251709e-03 7.918656826019287109e+00 2.373337507247924805e+00 2.738996446132659912e-01
1.594000000000000000e+03 7.407903289794921875e+01 8.100529670715332031e+00 3.048740513622760773e-02 7.561977863311767578e+00 2.277739524841308594e+00 2.939492166042327881e-01
1.595000000000000000e+03 7.313691711425781250e+01 2.512597084045410156e+01 -4.423609003424644470e-02 8.194256782531738281e+00 2.445006132125854492e+00 2.864443659782409668e-01
1.596000000000000000e+03 7.292066192626953125e+01 2.668620681762695312e+01 -5.349316447973251343e-02 8.236610412597656250e+00 2.454935312271118164e+00 2.678833007812500000e-01
1.597000000000000000e+03 7.472041320800781250e+01 2.520593261718750000e+01 -2.975280582904815674e-02 8.256508827209472656e+00 2.468026638031005859e+00 2.323825210332870483e-01
1.598000000000000000e+03 7.533562469482421875e+01 -1.393237018585205078e+01 3.607092052698135376e-02 7.210929393768310547e+00 2.174100160598754883e+00 -1.024622842669487000e-01
1.599000000000000000e+03 7.397606658935546875e+01 -1.536545944213867188e+01 5.010151118040084839e-02 7.289525985717773438e+00 2.201888322830200195e+00 -1.478146016597747803e-01
1.600000000000000000e+03 7.409576416015625000e+01 -6.027981638908386230e-03 6.378550082445144653e-02 7.306007862091064453e+00 2.210937976837158203e+00 1.720139980316162109e-01
1.601000000000000000e+03 7.411067962646484375e+01 1.363699436187744141e+00 5.906840413808822632e-02 7.339106082916259766e+00 2.219452381134033203e+00 1.972587555646896362e-01
1.602000000000000000e+03 7.544526672363281250e+01 2.762725830078125000e+00 3.403126075863838196e-02 7.333901882171630859e+00 2.210380077362060547e+00 1.806975305080413818e-01
1.603000000000000000e+03 7.540740966796875000e+01 -5.535331726074218750e+00 4.664550721645355225e-02 7.163703918457031250e+00 2.163104772567749023e+00 4.302956163883209229e-02
1.604000000000000000e+03 7.409216308593750000e+01 -6.946209430694580078e+00 7.359230518341064453e-02 7.214447021484375000e+00 2.186411857604980469e+00 2.117531560361385345e-02
1.605000000000000000e+03 7.394036865234375000e+01 1.077476596832275391e+01 1.763717830181121826e-02 7.668730735778808594e+00 2.305910348892211914e+00 3.185705244541168213e-01
1.606000000000000000e+03 7.408153533935546875e+01 -9.731945037841796875e+00 7.031267881393432617e-02 7.217407703399658203e+00 2.186316251754760742e+00 -4.053653776645660400e-02
1.607000000000000000e+03 7.406007385253906250e+01 -1.113569736480712891e+01 6.729130446910858154e-02 7.227740764617919922e+00 2.188509702682495117e+00 -7.057708501815795898e-02
1.608000000000000000e+03 7.399962615966796875e+01 -1.395707035064697266e+01 5.725371092557907104e-02 7.264602184295654297e+00 2.196556806564331055e+00 -1.249970570206642151e-01
1.609000000000000000e+03 7.535371398925781250e+01 -1.252890014648437500e+01 3.993264213204383850e-02 7.188418865203857422e+00 2.168505430221557617e+00 -8.146128803491592407e-02
1.610000000000000000e+03 7.408379364013671875e+01 -2.773505210876464844e+00 7.081904262304306030e-02 7.253573894500732422e+00 2.197317838668823242e+00 1.148349046707153320e-01
1.611000000000000000e+03 7.408913421630859375e+01 -5.555945873260498047e+00 7.371605932712554932e-02 7.221890449523925781e+00 2.188682079315185547e+00 5.255532264709472656e-02
1.612000000000000000e+03 7.414176940917968750e+01 4.074527263641357422e+00 4.870556667447090149e-02 7.417222023010253906e+00 2.239778280258178711e+00 2.416322827339172363e-01
1.613000000000000000e+03 7.398015594482421875e+01 -1.818412780761718750e+01 3.438870236277580261e-02 7.347733497619628906e+00 2.214636564254760742e+00 -1.837193965911865234e-01
1.614000000000000000e+03 7.403034973144531250e+01 -1.958215522766113281e+01 2.637108601629734039e-02 7.379029273986816406e+00 2.221620082855224609e+00 -1.956637203693389893e-01
1.615000000000000000e+03 7.361260986328125000e+01 1.649571990966796875e+01 -1.124064158648252487e-02 7.902264595031738281e+00 2.367307186126708984e+00 3.364083170890808105e-01
1.616000000000000000e+03 7.435742187500000000e+01 -2.469998931884765625e+01 -2.871566917747259140e-03 7.507291793823242188e+00 2.251326084136962891e+00 -2.041607201099395752e-01
1.617000000000000000e+03 7.405656433105468750e+01 -2.718514633178710938e+01 -1.692485250532627106e-02 7.577632904052734375e+00 2.268212318420410156e+00 -2.061925828456878662e-01
1.618000000000000000e+03 7.547844696044921875e+01 -2.608672142028808594e+01 -6.589696276932954788e-03 7.527770042419433594e+00 2.256354093551635742e+00 -1.704616099596023560e-01
1.619000000000000000e+03 7.411953735351562500e+01 6.763552188873291016e+00 3.680510446429252625e-02 7.510905742645263672e+00 2.264313220977783203e+00 2.782411873340606689e-01
1.620000000000000000e+03 7.412232971191406250e+01 -2.093826484680175781e+01 1.738016679883003235e-02 7.410350322723388672e+00 2.228319168090820312e+00 -2.017439156770706177e-01
1.621000000000000000e+03 7.403944396972656250e+01 3.242395019531250000e+01 -5.058744922280311584e-02 8.419737815856933594e+00 2.510745048522949219e+00 1.589845716953277588e-01
1.622000000000000000e+03 7.176496887207031250e+01 3.613106155395507812e+01 -1.064303293824195862e-01 8.363772392272949219e+00 2.477202415466308594e+00 1.305585503578186035e-01
1.623000000000000000e+03 7.375675964355468750e+01 1.356733512878417969e+01 3.364317119121551514e-03 7.783686637878417969e+00 2.336115360260009766e+00 3.345947861671447754e-01
1.624000000000000000e+03 7.384855651855468750e+01 1.214992713928222656e+01 9.974658489227294922e-03 7.725728988647460938e+00 2.320711135864257812e+00 3.275393545627593994e-01
1.625000000000000000e+03 7.357099151611328125e+01 2.083948898315429688e+01 -2.884390577673912048e-02 8.064863204956054688e+00 2.410805702209472656e+00 3.141079545021057129e-01
1.626000000000000000e+03 7.299339294433593750e+01 -3.433818435668945312e+01 -6.977248191833496094e-02 7.738594532012939453e+00 2.300646543502807617e+00 -1.482407748699188232e-01
1.627000000000000000e+03 7.301332855224609375e+01 3.045661735534667969e+01 -6.422733515501022339e-02 8.323954582214355469e+00 2.477918148040771484e+00 2.130538374185562134e-01
1.628000000000000000e+03 6.152980327606201172e+00 -2.890942001342773438e+01 1.142173111438751221e-01 2.789752557873725891e-02 4.263445362448692322e-02 -8.394532650709152222e-02
1.629000000000000000e+03 1.026026916503906250e+01 6.474175930023193359e+00 6.974059506319463253e-04 -2.886763541027903557e-03 -6.568072712980210781e-04 2.340623905183747411e-04
1.630000000000000000e+03 4.610268115997314453e+00 2.714660072326660156e+01 5.682758614420890808e-02 2.595531642436981201e-01 9.491422772407531738e-02 -5.973861739039421082e-02
1.631000000000000000e+03 6.087547302246093750e+00 2.808951568603515625e+01 5.826922878623008728e-02 5.242816209793090820e-01 1.747652441263198853e-01 -1.288582980632781982e-01
1.632000000000000000e+03 4.873009204864501953e+00 -2.613885116577148438e+01 5.364460125565528870e-02 -1.362614929676055908e-01 -2.478506788611412048e-02 -1.802004426717758179e-01
1.633000000000000000e+03 6.839987754821777344e+00 -8.606844902038574219e+00 6.260675145313143730e-04 -7.473347941413521767e-04 -3.638019552454352379e-05 -1.237153075635433197e-03
1.634000000000000000e+03 4.475752830505371094e+00 2.317431259155273438e+01 6.686685979366302490e-02 1.212180629372596741e-01 5.642547458410263062e-02 3.526645153760910034e-02
1.635000000000000000e+03 1.065938758850097656e+01 2.276128768920898438e+01 1.885721981525421143e-01 8.724716305732727051e-01 3.183131515979766846e-01 -4.830176234245300293e-01
1.636000000000000000e+03 1.315640544891357422e+01 2.774146080017089844e+01 -5.035069212317466736e-02 1.890171170234680176e+00 5.519461631774902344e-01 -4.935668110847473145e-01
1.637000000000000000e+03 5.847110271453857422e+00 -2.062927436828613281e+01 -1.365113109350204468e-01 -4.587633162736892700e-02 -5.471629649400711060e-02 -2.267071604728698730e-01
1.638000000000000000e+03 3.974864721298217773e+00 -2.139508819580078125e+01 -4.918967559933662415e-02 -1.012384295463562012e-01 -4.512843117117881775e-02 -1.896693408489227295e-01
1.639000000000000000e+03 6.137307167053222656e+00 -2.200953865051269531e+01 -6.231895089149475098e-02 -6.758520752191543579e-02 -3.897124901413917542e-02 -2.642547786235809326e-01
1.640000000000000000e+03 4.677802562713623047e+00 1.250530338287353516e+01 -3.342129057273268700e-03 -4.980610217899084091e-03 -2.496821805834770203e-03 -4.673893272411078215e-04
1.641000000000000000e+03 4.322369098663330078e+00 -2.036766052246093750e+01 -9.854877740144729614e-02 -5.043033510446548462e-02 -4.469373449683189392e-02 -1.842750161886215210e-01
1.642000000000000000e+03 5.841519355773925781e+00 2.570925712585449219e+01 9.266167879104614258e-02 3.624808788299560547e-01 1.365427672863006592e-01 -8.483587950468063354e-02
1.643000000000000000e+03 8.514777183532714844e+00 -6.655384063720703125e+00 1.211347989737987518e-04 -1.578327268362045288e-03 -4.371577524580061436e-04 3.140944463666528463e-04
1.644000000000000000e+03 6.335050582885742188e+00 -2.768591117858886719e+01 9.973843395709991455e-02 3.723090281710028648e-03 3.103845566511154175e-02 -1.265923976898193359e-01
1.645000000000000000e+03 5.241653442382812500e+00 2.091460609436035156e+01 4.468843340873718262e-03 9.033312648534774780e-02 2.844059094786643982e-02 7.209567725658416748e-02
1.646000000000000000e+03 4.772945404052734375e+00 2.208535766601562500e+01 5.805198103189468384e-02 9.838314354419708252e-02 4.693053662776947021e-02 5.953535437583923340e-02
1.647000000000000000e+03 5.741666793823242188e+00 3.247682571411132812e+01 1.429621246643364429e-03 5.948560237884521484e-01 1.788856983184814453e-01 -1.076006963849067688e-01
1.648000000000000000e+03 5.709423065185546875e+00 -3.345128631591796875e+01 6.149614229798316956e-02 9.412609785795211792e-02 4.668667167425155640e-02 -3.557149693369865417e-02
1.649000000000000000e+03 1.107966518402099609e+01 -3.091380119323730469e+01 1.253400444984436035e-01 8.512863516807556152e-01 2.929879128932952881e-01 1.692559123039245605e-01
1.650000000000000000e+03 7.233076572418212891e+00 2.111235809326171875e+01 1.195817068219184875e-01 1.697478890419006348e-01 8.679887652397155762e-02 -2.914683148264884949e-02
1.651000000000000000e+03 5.815287113189697266e+00 2.699175643920898438e+01 6.909503042697906494e-02 4.102883040904998779e-01 1.438150107860565186e-01 -1.052200645208358765e-01
1.652000000000000000e+03 4.032516479492187500e+00 1.018530368804931641e+01 7.036005845293402672e-04 -2.577269216999411583e-03 -5.621005548164248466e-04 -8.155886898748576641e-04
1.653000000000000000e+03 3.972742319107055664e+00 9.130943298339843750e+00 5.039835814386606216e-04 -9.346690494567155838e-04 -1.292056404054164886e-04 -6.015505059622228146e-04
1.654000000000000000e+03 6.711486339569091797e+00 7.744379997253417969e+00 -7.901593926362693310e-05 6.703668623231351376e-04 1.774052798282355070e-04 -4.626847221516072750e-04
1.655000000000000000e+03 4.467264652252197266e+00 -6.481230258941650391e+00 6.361187552101910114e-04 2.477469097357243299e-04 2.651597023941576481e-04 2.965785388369113207e-04
1.656000000000000000e+03 4.316932201385498047e+00 -5.550168514251708984e+00 1.878699840744957328e-04 -5.074734217487275600e-04 -9.588102693669497967e-05 -3.564992584870196879e-05
1.657000000000000000e+03 1.468207550048828125e+01 2.223559570312500000e+01 3.816290572285652161e-02 2.145864963531494141e+00 6.552083492279052734e-01 -7.850247621536254883e-01
1.658000000000000000e+03 8.807918548583984375e+00 2.334025382995605469e+01 1.706022620201110840e-01 5.945429801940917969e-01 2.295435816049575806e-01 -2.793336808681488037e-01
1.659000000000000000e+03 6.158228397369384766e+00 -7.833036899566650391e+00 6.652413867413997650e-04 -1.676305982982739806e-04 1.492832379881292582e-04 -4.967454588040709496e-04
1.660000000000000000e+03 1.756930541992187500e+01 -1.742526054382324219e+01 2.389002889394760132e-01 8.943186402320861816e-01 3.399657011032104492e-01 6.609154939651489258e-01
1.661000000000000000e+03 1.873760032653808594e+01 -1.294125080108642578e+01 2.686467170715332031e-01 3.906675875186920166e-01 1.977942883968353271e-01 2.538229525089263916e-01
1.662000000000000000e+03 1.955677032470703125e+01 -1.378062248229980469e+01 4.572007060050964355e-01 8.390070199966430664e-01 3.888623118400573730e-01 5.689716339111328125e-01
1.663000000000000000e+03 1.900327110290527344e+01 1.945091629028320312e+01 4.140919074416160583e-02 3.337038755416870117e+00 1.013534426689147949e+00 -8.256773948669433594e-01
1.664000000000000000e+03 1.657223129272460938e+01 2.029689216613769531e+01 5.630231276154518127e-02 2.703642368316650391e+00 8.279833793640136719e-01 -8.809798955917358398e-01
1.665000000000000000e+03 1.892433738708496094e+01 -1.464235401153564453e+01 3.762167692184448242e-01 7.746207118034362793e-01 3.452512323856353760e-01 5.904130935668945312e-01
1.666000000000000000e+03 1.744094467163085938e+01 -1.475156116485595703e+01 1.706375628709793091e-01 3.628983795642852783e-01 1.600607782602310181e-01 3.140040934085845947e-01
1.667000000000000000e+03 1.782867431640625000e+01 -1.625526237487792969e+01 2.576163411140441895e-01 7.995216846466064453e-01 3.171413838863372803e-01 5.990046858787536621e-01
1.668000000000000000e+03 2.232069969177246094e+01 4.895754814147949219e+00 3.885381519794464111e-01 3.419986009597778320e+00 1.142557263374328613e+00 -1.795711398124694824e+00
1.669000000000000000e+03 2.324848747253417969e+01 6.314748287200927734e+00 3.808529973030090332e-01 4.056340217590332031e+00 1.331157922744750977e+00 -1.899103164672851562e+00
1.670000000000000000e+03 2.197941780090332031e+01 1.957250595092773438e+00 4.483341276645660400e-01 2.428280830383300781e+00 8.629844784736633301e-01 -1.529590845108032227e+00
1.671000000000000000e+03 2.367256355285644531e+01 3.560220718383789062e+00 3.882937133312225342e-01 3.897180795669555664e+00 1.285642385482788086e+00 -2.067986965179443359e+00
1.672000000000000000e+03 1.825695037841796875e+01 -1.540047740936279297e+01 3.214437365531921387e-01 7.656810283660888672e-01 3.261374235153198242e-01 5.732890963554382324e-01
1.673000000000000000e+03 1.559689331054687500e+01 -2.074013519287109375e+01 1.984066963195800781e-01 8.667625784873962402e-01 3.195507824420928955e-01 5.641998648643493652e-01
1.674000000000000000e+03 1.721424102783203125e+01 -1.888279914855957031e+01 2.473107129335403442e-01 1.062150120735168457e+00 3.928382396697998047e-01 7.229210734367370605e-01
1.675000000000000000e+03 2.482047653198242188e+01 1.184689140319824219e+01 2.150452435016632080e-01 4.817106723785400391e+00 1.509645581245422363e+00 -1.382130384445190430e+00
1.676000000000000000e+03 7.234675598144531250e+01 4.113221740722656250e+01 -7.265650480985641479e-02 8.430387496948242188e+00 2.507319450378417969e+00 2.816748246550559998e-02
1.677000000000000000e+03 2.324550056457519531e+01 7.530935764312744141e+00 4.055001437664031982e-01 4.167090892791748047e+00 1.371777296066284180e+00 -1.811914920806884766e+00
1.678000000000000000e+03 2.478997993469238281e+01 8.908230781555175781e+00 2.589522600173950195e-01 4.841516971588134766e+00 1.530140757560729980e+00 -1.726248383522033691e+00
1.679000000000000000e+03 2.811438560485839844e+01 -4.222421169281005859e+00 2.783044815063476562e+00 8.553175926208496094e+00 3.400866031646728516e+00 -5.235342502593994141e+00
1.680000000000000000e+03 2.829306411743164062e+01 -3.758358716964721680e+00 2.084658145904541016e+00 9.466408729553222656e+00 3.465319871902465820e+00 -4.751095294952392578e+00
1.681000000000000000e+03 2.838709259033203125e+01 -4.170710563659667969e+00 2.378735542297363281e+00 1.009643077850341797e+01 3.742549896240234375e+00 -5.162581920623779297e+00
1.682000000000000000e+03 2.751822090148925781e+01 -9.511277198791503906e+00 3.080213785171508789e+00 5.727718830108642578e+00 2.642379760742187500e+00 4.630753993988037109e+00
1.683000000000000000e+03 2.748368072509765625e+01 -4.081584453582763672e+00 2.922102212905883789e+00 5.770121097564697266e+00 2.607666969299316406e+00 -4.504833221435546875e+00
1.684000000000000000e+03 3.131260681152343750e+01 -5.483793258666992188e+00 6.608270168304443359e+00 1.499132633209228516e+01 6.479878902435302734e+00 2.037042856216430664e+00
1.685000000000000000e+03 3.113291549682617188e+01 -7.214862346649169922e+00 1.019704341888427734e+01 1.487993144989013672e+01 7.523092269897460938e+00 -1.307578921318054199e+00
1.686000000000000000e+03 3.137465286254882812e+01 -6.910573005676269531e+00 9.984725952148437500e+00 1.413202381134033203e+01 7.235024929046630859e+00 -3.551003634929656982e-01
1.687000000000000000e+03 3.064590835571289062e+01 -4.117121696472167969e+00 2.159510850906372070e+00 1.528560638427734375e+01 5.233535289764404297e+00 4.574772343039512634e-02
1.688000000000000000e+03 3.214319992065429688e+01 -8.248718261718750000e+00 6.131617546081542969e+00 1.307201671600341797e+01 5.761090278625488281e+00 -1.804623007774353027e+00
1.689000000000000000e+03 2.994286918640136719e+01 -9.265015602111816406e+00 1.613385677337646484e+00 1.613529968261718750e+01 5.324605464935302734e+00 1.603863239288330078e+00
1.690000000000000000e+03 3.163024139404296875e+01 -8.417405128479003906e+00 5.722887992858886719e+00 1.428721618652343750e+01 6.003031253814697266e+00 -2.018290758132934570e+00
1.691000000000000000e+03 2.643685722351074219e+01 -9.644073486328125000e+00 2.737786054611206055e+00 2.923578023910522461e+00 1.698409199714660645e+00 3.124327659606933594e+00
1.692000000000000000e+03 2.572072029113769531e+01 -1.011432266235351562e+01 2.335526704788208008e+00 2.374287128448486328e+00 1.412944078445434570e+00 2.463205337524414062e+00
1.693000000000000000e+03 2.670965957641601562e+01 -9.539766311645507812e+00 2.961022377014160156e+00 3.349560022354125977e+00 1.893174767494201660e+00 3.432478904724121094e+00
1.694000000000000000e+03 2.613141059875488281e+01 -3.332335233688354492e+00 2.362108945846557617e+00 3.314006567001342773e+00 1.702834725379943848e+00 -2.985906839370727539e+00
1.695000000000000000e+03 2.747160530090332031e+01 -3.520511150360107422e+00 2.466805696487426758e+00 6.426274776458740234e+00 2.667924165725708008e+00 -4.342794895172119141e+00
1.696000000000000000e+03 2.343860626220703125e+01 -2.334918737411499023e+00 1.220146059989929199e+00 1.436214923858642578e+00 7.969082593917846680e-01 -1.209407091140747070e+00
1.697000000000000000e+03 2.318266487121582031e+01 -1.745888948440551758e+00 1.128433585166931152e+00 1.606895685195922852e+00 8.205987811088562012e-01 -1.273827910423278809e+00
1.698000000000000000e+03 2.525921058654785156e+01 -2.711453437805175781e+00 1.915753245353698730e+00 2.640110492706298828e+00 1.366759061813354492e+00 -2.346562385559082031e+00
1.699000000000000000e+03 2.183573150634765625e+01 -7.215832471847534180e-01 6.499206423759460449e-01 1.326201438903808594e+00 5.928366184234619141e-01 -9.446992278099060059e-01
1.700000000000000000e+03 2.212510871887207031e+01 -1.442145466804504395e+00 7.611126303672790527e-01 1.170472979545593262e+00 5.794757008552551270e-01 -8.505045771598815918e-01
1.701000000000000000e+03 2.487253761291503906e+01 -2.026154279708862305e+00 1.647449970245361328e+00 2.705795049667358398e+00 1.305973529815673828e+00 -2.210188388824462891e+00
1.702000000000000000e+03 5.542068004608154297e+00 4.618863105773925781e+00 -1.220013364218175411e-04 7.669568294659256935e-04 1.934866450028494000e-04 1.787941000657156110e-04
1.703000000000000000e+03 8.171581268310546875e+00 5.939357280731201172e+00 1.179297687485814095e-03 -2.445909893140196800e-03 -3.799836267717182636e-04 -4.789390659425407648e-04
1.704000000000000000e+03 9.899416923522949219e+00 5.856198787689208984e+00 3.025935147888958454e-04 -7.456521270796656609e-04 -1.329175865976139903e-04 -1.789026777260005474e-03
1.705000000000000000e+03 2.267209053039550781e+01 -1.121648502349853516e+01 1.149697780609130859e+00 1.115829706192016602e+00 6.796582937240600586e-01 8.719696402549743652e-01
1.706000000000000000e+03 2.449888229370117188e+01 -1.088150024414062500e+01 1.766008138656616211e+00 1.858695149421691895e+00 1.087411046028137207e+00 1.744893074035644531e+00
1.707000000000000000e+03 7.552618026733398438e+00 5.034842014312744141e+00 9.214226738549768925e-04 -1.885857665911316872e-03 -2.893304626923054457e-04 -4.437800671439617872e-04
1.708000000000000000e+03 6.126893043518066406e+00 4.796762943267822266e+00 9.078772854991257191e-04 -1.649532117880880833e-03 -2.224964700872078538e-04 -2.944693260360509157e-04
1.709000000000000000e+03 5.226278305053710938e+00 -5.387966156005859375e+00 3.246626001782715321e-04 3.412144433241337538e-04 1.997631188714876771e-04 -1.023328968585701659e-05
1.710000000000000000e+03 2.549127006530761719e+01 -1.059868240356445312e+01 2.114413261413574219e+00 2.554407119750976562e+00 1.400646090507507324e+00 2.398831844329833984e+00
1.711000000000000000e+03 5.390655517578125000e+00 -6.272284030914306641e+00 3.554152499418705702e-04 -9.316091309301555157e-04 -1.728581555653363466e-04 -3.239771176595240831e-04
1.712000000000000000e+03 1.064316177368164062e+01 5.790977954864501953e+00 -2.002644469030201435e-04 2.027789130806922913e-03 5.482574342750012875e-04 2.336436649784445763e-03
1.713000000000000000e+03 2.380580711364746094e+01 -1.367735385894775391e+00 1.233088135719299316e+00 2.194962501525878906e+00 1.028415203094482422e+00 -1.695122480392456055e+00
1.714000000000000000e+03 2.090861892700195312e+01 -1.360615348815917969e+01 7.288171648979187012e-01 1.274983048439025879e+00 6.011400222778320312e-01 8.995452523231506348e-01
1.715000000000000000e+03 2.116160392761230469e+01 -1.132679462432861328e+01 6.929437518119812012e-01 7.294292449951171875e-01 4.267119169235229492e-01 4.132052063941955566e-01
1.716000000000000000e+03 2.014483642578125000e+01 -1.290864658355712891e+01 5.593191981315612793e-01 8.704049587249755859e-01 4.289172589778900146e-01 5.494360327720642090e-01
1.717000000000000000e+03 1.104987621307373047e+01 6.827076911926269531e+00 -1.740082225296646357e-04 2.974718110635876656e-03 8.402129751630127430e-04 1.708044088445603848e-03
1.718000000000000000e+03 2.159526062011718750e+01 -1.413423728942871094e+01 8.108086585998535156e-01 1.652880787849426270e+00 7.391068339347839355e-01 1.150393962860107422e+00
1.719000000000000000e+03 2.287410354614257812e+01 -1.198113536834716797e+01 1.228737115859985352e+00 1.517399191856384277e+00 8.238408565521240234e-01 1.188304424285888672e+00
1.720000000000000000e+03 2.334582328796386719e+01 -1.106454086303710938e+01 1.372342824935913086e+00 1.293533086776733398e+00 7.997627854347229004e-01 1.125359892845153809e+00
1.721000000000000000e+03 7.567951679229736328e+00 9.867925643920898438e+00 2.699781325645744801e-04 -2.731861779466271400e-03 -7.385651115328073502e-04 3.844678169116377831e-03
1.722000000000000000e+03 7.098352432250976562e+00 6.818411827087402344e+00 1.375551801174879074e-03 -3.009439213201403618e-03 -4.901661886833608150e-04 3.999288310296833515e-04
1.723000000000000000e+03 2.430584144592285156e+01 -9.210692048072814941e-01 1.242380380630493164e+00 2.881797790527343750e+00 1.237253427505493164e+00 -2.082226753234863281e+00
1.724000000000000000e+03 6.783984661102294922e+00 1.078040218353271484e+01 8.510136831318959594e-05 -2.171013504266738892e-03 -6.257736240513622761e-04 -8.223216864280402660e-04
1.725000000000000000e+03 2.189343833923339844e+01 1.470041465759277344e+01 3.490872383117675781e-01 4.035772323608398438e+00 1.315457820892333984e+00 -1.085193157196044922e+00
1.726000000000000000e+03 2.184353637695312500e+01 1.927152252197265625e+01 -4.513427987694740295e-02 4.066386222839355469e+00 1.206375598907470703e+00 -8.105854988098144531e-01
1.727000000000000000e+03 2.448089408874511719e+01 7.572361946105957031e+00 2.965182363986968994e-01 4.685537815093994141e+00 1.494616746902465820e+00 -1.885285615921020508e+00
1.728000000000000000e+03 2.171781158447265625e+01 -1.604427528381347656e+01 6.490021347999572754e-01 2.256129980087280273e+00 8.715396523475646973e-01 1.392619609832763672e+00
1.729000000000000000e+03 6.280315399169921875e+00 2.099313926696777344e+01 3.853812441229820251e-02 1.285900175571441650e-01 5.013844370841979980e-02 5.605960637331008911e-02
1.730000000000000000e+03 4.785210609436035156e+00 7.240026473999023438e+00 3.598144685383886099e-04 9.644716192269697785e-05 1.368784869555383921e-04 -7.942330557852983475e-04
1.731000000000000000e+03 2.316176986694335938e+01 8.438370227813720703e-01 7.178652882575988770e-01 2.761650085449218750e+00 1.043854594230651855e+00 -1.792251706123352051e+00
1.732000000000000000e+03 9.671429634094238281e+00 7.246886730194091797e+00 -1.218978082761168480e-03 3.678499953821301460e-03 7.378565496765077114e-04 7.075207540765404701e-04
1.733000000000000000e+03 2.334769058227539062e+01 5.251656532287597656e+00 3.704402446746826172e-01 3.973691940307617188e+00 1.303239703178405762e+00 -1.959928750991821289e+00
1.734000000000000000e+03 7.205736541748046875e+01 -2.600625038146972656e+01 -1.960858888924121857e-02 7.579586505889892578e+00 2.267993450164794922e+00 -2.549292147159576416e-01
1.735000000000000000e+03 7.012229156494140625e+01 -3.069551849365234375e+01 -8.563598245382308960e-02 7.706305980682373047e+00 2.286201000213623047e+00 -2.526048719882965088e-01
1.736000000000000000e+03 7.168084716796875000e+01 -3.185345268249511719e+01 -6.856037676334381104e-02 7.702711582183837891e+00 2.290245294570922852e+00 -2.082149237394332886e-01
1.737000000000000000e+03 9.550823211669921875e+00 2.942583465576171875e+01 1.118465978652238846e-02 1.184351444244384766e+00 3.586608171463012695e-01 -2.830819189548492432e-01
1.738000000000000000e+03 9.833618164062500000e+00 3.136377334594726562e+01 -3.635198622941970825e-02 1.310775399208068848e+00 3.823270201683044434e-01 -2.557778656482696533e-01
1.739000000000000000e+03 7.323343658447265625e+01 -2.356093025207519531e+01 5.675261840224266052e-03 7.495304584503173828e+00 2.250293970108032227e+00 -2.334700822830200195e-01
1.740000000000000000e+03 7.157557678222656250e+01 2.347134399414062500e+01 -5.498078465461730957e-02 8.103049278259277344e+00 2.414420366287231445e+00 3.480531573295593262e-01
1.741000000000000000e+03 6.912060546875000000e+01 1.662274169921875000e+01 -3.350470960140228271e-02 7.865225315093994141e+00 2.349516153335571289e+00 4.873144328594207764e-01
1.742000000000000000e+03 7.212445068359375000e+01 1.645334625244140625e+01 -1.727259531617164612e-02 7.887508392333984375e+00 2.361070871353149414e+00 3.922053575515747070e-01
1.743000000000000000e+03 7.107697296142578125e+01 1.042557239532470703e+01 3.764134272933006287e-02 7.677692413330078125e+00 2.314599990844726562e+00 4.192800223827362061e-01
1.744000000000000000e+03 7.262826538085937500e+01 9.286713600158691406e+00 3.548906370997428894e-02 7.626084804534912109e+00 2.298472166061401367e+00 3.579380214214324951e-01
1.745000000000000000e+03 7.260234832763671875e+01 -1.684030151367187500e+01 6.094611436128616333e-02 7.361699581146240234e+00 2.226793766021728516e+00 -1.957405358552932739e-01
1.746000000000000000e+03 7.261009979248046875e+01 -1.827735710144042969e+01 5.001069605350494385e-02 7.390384674072265625e+00 2.232118606567382812e+00 -2.152798324823379517e-01
1.747000000000000000e+03 7.142878723144531250e+01 -7.055276393890380859e+00 1.433454304933547974e-01 7.306103706359863281e+00 2.234834671020507812e+00 2.549269050359725952e-02
1.748000000000000000e+03 7.277579498291015625e+01 -9.759577751159667969e+00 1.005285829305648804e-01 7.266484737396240234e+00 2.210103988647460938e+00 -4.755898565053939819e-02
1.749000000000000000e+03 7.144508361816406250e+01 2.622389316558837891e+00 1.064287126064300537e-01 7.441596508026123047e+00 2.264407634735107422e+00 2.901675105094909668e-01
1.750000000000000000e+03 7.275412750244140625e+01 -1.115780067443847656e+01 9.587599337100982666e-02 7.276123046875000000e+00 2.211599588394165039e+00 -8.148091286420822144e-02
1.751000000000000000e+03 7.273663330078125000e+01 -2.812338590621948242e+00 1.027469560503959656e-01 7.300605297088623047e+00 2.221005678176879883e+00 1.334845572710037231e-01
1.752000000000000000e+03 7.274523162841796875e+01 -4.202952384948730469e+00 1.054614409804344177e-01 7.283325195312500000e+00 2.216635942459106445e+00 9.769795835018157959e-02
1.753000000000000000e+03 7.413996887207031250e+01 5.421227455139160156e+00 4.309555515646934509e-02 7.462296009063720703e+00 2.251617431640625000e+00 2.613650262355804443e-01
1.754000000000000000e+03 7.149828338623046875e+01 3.943897724151611328e+00 9.580580145120620728e-02 7.474125385284423828e+00 2.270979404449462891e+00 3.162281215190887451e-01
1.755000000000000000e+03 7.408682250976562500e+01 -1.386621356010437012e+00 6.777065247297286987e-02 7.277496337890625000e+00 2.203580141067504883e+00 1.441065967082977295e-01
1.756000000000000000e+03 7.273736572265625000e+01 -1.423610448837280273e+00 9.825603663921356201e-02 7.322428226470947266e+00 2.226205348968505859e+00 1.682927906513214111e-01
1.757000000000000000e+03 7.274680328369140625e+01 -4.677546024322509766e-02 9.250071644783020020e-02 7.348599433898925781e+00 2.232330083847045898e+00 2.002327591180801392e-01
1.758000000000000000e+03 7.076261901855468750e+01 2.772097778320312500e+01 -9.050652384757995605e-02 8.176606178283691406e+00 2.425829887390136719e+00 3.051988184452056885e-01
1.759000000000000000e+03 7.238291931152343750e+01 2.827057266235351562e+01 -6.522529572248458862e-02 8.253826141357421875e+00 2.456580400466918945e+00 2.622878253459930420e-01
1.760000000000000000e+03 7.289598083496093750e+01 -2.680637931823730469e+01 -2.127186395227909088e-02 7.584993362426757812e+00 2.269116401672363281e+00 -2.320961356163024902e-01
1.761000000000000000e+03 7.359385681152343750e+01 1.941664695739746094e+01 -1.981126517057418823e-02 8.012803077697753906e+00 2.397897481918334961e+00 3.210242092609405518e-01
1.762000000000000000e+03 7.866580009460449219e+00 3.383037567138671875e+01 -2.811789326369762421e-02 1.016081571578979492e+00 2.963891029357910156e-01 -1.496838927268981934e-01
1.763000000000000000e+03 1.005492210388183594e+01 2.051916694641113281e+01 2.160611301660537720e-01 4.082139432430267334e-01 1.872825175523757935e-01 -4.255267381668090820e-01
1.764000000000000000e+03 6.410217285156250000e+00 -2.625590705871582031e+01 9.481793642044067383e-02 -1.829757541418075562e-02 2.295610867440700531e-02 -1.600936353206634521e-01
1.765000000000000000e+03 8.730522155761718750e+00 -2.383751487731933594e+01 1.411669105291366577e-01 3.754472360014915466e-02 5.361348763108253479e-02 -1.309043169021606445e-01
1.766000000000000000e+03 6.224680423736572266e+00 -6.442337512969970703e+00 5.803630338050425053e-04 6.272444152273237705e-04 3.622822405304759741e-04 -1.553780020913109183e-05
1.767000000000000000e+03 4.714546680450439453e+00 -7.464981555938720703e+00 4.679648263845592737e-04 -5.677289445884525776e-04 -2.992923691635951400e-05 -2.009912423091009259e-04
1.768000000000000000e+03 8.098649978637695312e+00 2.775638771057128906e+01 7.122454792261123657e-02 8.466480970382690430e-01 2.753617763519287109e-01 -2.163905054330825806e-01
1.769000000000000000e+03 6.929677009582519531e+00 2.719677925109863281e+01 7.224266231060028076e-02 6.132529973983764648e-01 2.056486904621124268e-01 -1.518964022397994995e-01
1.770000000000000000e+03 5.815446853637695312e+00 7.504497051239013672e+00 1.405471004545688629e-03 -2.739017130807042122e-03 -4.000638436991721392e-04 4.260631976649165154e-04
1.771000000000000000e+03 2.044826126098632812e+01 -1.458884620666503906e+01 6.252408027648925781e-01 1.408854126930236816e+00 6.102284789085388184e-01 9.435216188430786133e-01
1.772000000000000000e+03 2.560798072814941406e+01 7.362933635711669922e+00 1.757192164659500122e-01 5.183772087097167969e+00 1.607847452163696289e+00 -1.896764516830444336e+00
1.773000000000000000e+03 2.329696083068847656e+01 8.862059593200683594e+00 4.337038397789001465e-01 4.235199928283691406e+00 1.400671124458312988e+00 -1.689526319503784180e+00
1.774000000000000000e+03 9.184813499450683594e+00 -2.157349395751953125e+01 5.428099259734153748e-02 -1.315943002700805664e-01 -2.319398894906044006e-02 -1.905666887760162354e-01
1.775000000000000000e+03 1.303239250183105469e+01 -2.290421676635742188e+01 2.138609290122985840e-01 5.169119834899902344e-01 2.192318737506866455e-01 2.679523825645446777e-01
1.776000000000000000e+03 1.413482093811035156e+01 -2.107527160644531250e+01 1.132080107927322388e-01 5.002792477607727051e-01 1.840461790561676025e-01 3.806166350841522217e-01
1.777000000000000000e+03 6.743277740478515625e+01 2.924071884155273438e+01 -1.668280959129333496e-01 8.093366622924804688e+00 2.377961397171020508e+00 3.335758447647094727e-01
1.778000000000000000e+03 1.858000373840332031e+01 -1.904755973815917969e+01 3.122023642063140869e-01 1.571090817451477051e+00 5.649879574775695801e-01 9.574738144874572754e-01
1.779000000000000000e+03 1.185742950439453125e+01 2.377508926391601562e+01 1.178051456809043884e-01 1.303475379943847656e+00 4.263841807842254639e-01 -5.929504036903381348e-01
1.780000000000000000e+03 2.339577293395996094e+01 1.456443977355957031e+01 2.257761657238006592e-01 4.420199871063232422e+00 1.393792748451232910e+00 -1.113968491554260254e+00
1.781000000000000000e+03 2.745532035827636719e+01 1.886311531066894531e+01 -3.029316067695617676e-01 5.315425872802734375e+00 1.503748297691345215e+00 -7.396430969238281250e-01
1.782000000000000000e+03 8.347407341003417969e+00 -3.057972335815429688e+01 1.098605394363403320e-01 3.795280158519744873e-01 1.468165665864944458e-01 1.611795648932456970e-02
1.783000000000000000e+03 6.346174716949462891e+00 -3.004928588867187500e+01 8.473117649555206299e-02 1.046053320169448853e-01 5.680095404386520386e-02 -5.571556091308593750e-02
1.784000000000000000e+03 1.631322669982910156e+01 2.206330871582031250e+01 -2.059474773705005646e-02 2.625030040740966797e+00 7.813305854797363281e-01 -8.219951391220092773e-01
1.785000000000000000e+03 7.298314666748046875e+01 -2.241491127014160156e+01 1.206865627318620682e-02 7.475519180297851562e+00 2.246276378631591797e+00 -2.363507747650146484e-01
1.786000000000000000e+03 2.355036544799804688e+01 4.335340023040771484e+00 3.750403523445129395e-01 3.950989961624145508e+00 1.297809123992919922e+00 -2.027960062026977539e+00
1.787000000000000000e+03 2.432819366455078125e+01 6.419787883758544922e+00 3.094528317451477051e-01 4.559117317199707031e+00 1.460571050643920898e+00 -1.984652638435363770e+00
1.788000000000000000e+03 1.710307693481445312e+01 -2.058679199218750000e+01 2.446077316999435425e-01 1.304393053054809570e+00 4.647002220153808594e-01 7.775167226791381836e-01
1.789000000000000000e+03 5.371696949005126953e+00 -1.373157215118408203e+01 2.362386585446074605e-04 -1.252468768507242203e-02 -3.686534706503152847e-03 -4.226782359182834625e-03
1.790000000000000000e+03 7.262445068359375000e+01 -1.541336154937744141e+01 7.219845056533813477e-02 7.335064888000488281e+00 2.222178936004638672e+00 -1.728815138339996338e-01
1.791000000000000000e+03 6.598778724670410156e+00 2.213603019714355469e+01 1.189983040094375610e-01 2.120230048894882202e-01 9.930638968944549561e-02 -3.912757337093353271e-02
1.792000000000000000e+03 7.135197448730468750e+01 7.815333843231201172e+00 6.150198727846145630e-02 7.592113971710205078e+00 2.296084642410278320e+00 3.855785131454467773e-01
1.793000000000000000e+03 7.221627807617187500e+01 2.081114196777343750e+01 -3.476001322269439697e-02 8.034637451171875000e+00 2.399963378906250000e+00 3.562827706336975098e-01
1.794000000000000000e+03 7.220493316650390625e+01 1.491460132598876953e+01 -5.836981814354658127e-03 7.833008289337158203e+00 2.348151445388793945e+00 3.946223556995391846e-01
1.795000000000000000e+03 7.264048099517822266e+00 -2.938030624389648438e+01 1.178013682365417480e-01 2.058817446231842041e-01 9.710492938756942749e-02 -3.466947004199028015e-02
1.796000000000000000e+03 1.170393943786621094e+01 -2.483328628540039062e+01 2.271762937307357788e-01 5.282607674598693848e-01 2.266311198472976685e-01 1.678500175476074219e-01
1.797000000000000000e+03 7.155844879150390625e+01 2.986030769348144531e+01 -9.169609844684600830e-02 8.252474784851074219e+00 2.448233604431152344e+00 2.501466572284698486e-01
1.798000000000000000e+03 2.854077911376953125e+01 -9.598494529724121094e+00 2.084600210189819336e+00 1.047029113769531250e+01 3.766467571258544922e+00 4.907613277435302734e+00
1.799000000000000000e+03 2.910003852844238281e+01 -4.344419002532958984e+00 1.765010833740234375e+00 1.386388492584228516e+01 4.688668727874755859e+00 -4.192844390869140625e+00
1.800000000000000000e+03 2.909347534179687500e+01 -9.793725967407226562e+00 1.398129343986511230e+00 1.262210464477539062e+01 4.206070423126220703e+00 3.862676858901977539e+00
1.801000000000000000e+03 3.133201026916503906e+01 -6.666164398193359375e+00 1.011230659484863281e+01 1.420864772796630859e+01 7.296286106109619141e+00 3.917642533779144287e-01
1.802000000000000000e+03 2.880255889892578125e+01 -9.615815162658691406e+00 1.764777898788452148e+00 1.179806232452392578e+01 4.068851947784423828e+00 4.585269451141357422e+00
1.803000000000000000e+03 3.172381591796875000e+01 -5.469395160675048828e+00 6.572702407836914062e+00 1.388317871093750000e+01 6.136764526367187500e+00 1.870652198791503906e+00
1.804000000000000000e+03 2.955480957031250000e+01 -9.672297477722167969e+00 1.232334375381469727e+00 1.429773616790771484e+01 4.659021377563476562e+00 2.807498693466186523e+00
1.805000000000000000e+03 2.606863594055175781e+01 -9.780638694763183594e+00 2.503542661666870117e+00 2.431739091873168945e+00 1.480584502220153809e+00 2.700006246566772461e+00
1.806000000000000000e+03 2.736842536926269531e+01 -9.826557159423828125e+00 2.755046129226684570e+00 5.656389236450195312e+00 2.523430585861206055e+00 4.324944972991943359e+00
1.807000000000000000e+03 3.082409095764160156e+01 -4.354058742523193359e+00 2.734428882598876953e+00 1.546289920806884766e+01 5.459198474884033203e+00 5.914862155914306641e-01
1.808000000000000000e+03 2.931877708435058594e+01 -9.217248916625976562e+00 1.561911702156066895e+00 1.498756122589111328e+01 4.964841842651367188e+00 3.719923973083496094e+00
1.809000000000000000e+03 3.208148956298828125e+01 -7.456117630004882812e+00 7.901012897491455078e+00 1.277863502502441406e+01 6.203894615173339844e+00 -1.167984485626220703e+00
1.810000000000000000e+03 2.982615280151367188e+01 -4.351914882659912109e+00 1.665830016136169434e+00 1.609122657775878906e+01 5.327116966247558594e+00 -2.006481647491455078e+00
1.811000000000000000e+03 3.011940574645996094e+01 -9.707513809204101562e+00 1.340126156806945801e+00 1.500225830078125000e+01 4.902715206146240234e+00 1.451420903205871582e+00
1.812000000000000000e+03 3.089699745178222656e+01 -8.823829650878906250e+00 3.790702342987060547e+00 1.602373313903808594e+01 5.944330692291259766e+00 -1.339528799057006836e+00
1.813000000000000000e+03 3.145447158813476562e+01 -6.303350925445556641e+00 9.303257942199707031e+00 1.402280712127685547e+01 6.997819423675537109e+00 1.150469899177551270e+00
1.814000000000000000e+03 3.081507873535156250e+01 -9.489839553833007812e+00 2.313283443450927734e+00 1.519153022766113281e+01 5.251443862915039062e+00 -3.805644810199737549e-01
1.815000000000000000e+03 2.988299369812011719e+01 -4.055131912231445312e+00 1.391146302223205566e+00 1.513232898712158203e+01 4.957042694091796875e+00 -1.919075489044189453e+00
1.816000000000000000e+03 2.664647865295410156e+01 -1.000866508483886719e+01 2.624775886535644531e+00 3.790717363357543945e+00 1.924648046493530273e+00 3.498780727386474609e+00
1.817000000000000000e+03 2.504211235046386719e+01 -1.038789844512939453e+01 1.992129206657409668e+00 1.936407327651977539e+00 1.178560972213745117e+00 1.963273286819458008e+00
1.818000000000000000e+03 2.718084335327148438e+01 -1.015393066406250000e+01 2.499561309814453125e+00 5.339376926422119141e+00 2.351681470870971680e+00 4.038043975830078125e+00
1.819000000000000000e+03 2.430788421630859375e+01 -1.777273893356323242e+00 1.430284619331359863e+00 2.342353343963623047e+00 1.131791353225708008e+00 -1.878126859664916992e+00
1.820000000000000000e+03 2.309626388549804688e+01 2.529146671295166016e-01 8.093025684356689453e-01 2.488318681716918945e+00 9.892863631248474121e-01 -1.687221884727478027e+00
1.821000000000000000e+03 2.655371284484863281e+01 -3.242635011672973633e+00 2.379461526870727539e+00 4.138274192810058594e+00 1.955320715904235840e+00 -3.374556541442871094e+00
1.822000000000000000e+03 2.610046195983886719e+01 -2.895022153854370117e+00 2.156135559082031250e+00 3.601226091384887695e+00 1.727208495140075684e+00 -2.999273061752319336e+00
1.823000000000000000e+03 2.571957015991210938e+01 -2.856770753860473633e+00 2.055267333984375000e+00 3.100423574447631836e+00 1.546707272529602051e+00 -2.682246208190917969e+00
1.824000000000000000e+03 9.059082984924316406e+00 5.964751720428466797e+00 -5.990336067043244839e-04 1.898245303891599178e-03 3.897635033354163170e-04 1.922432333230972290e-03
1.825000000000000000e+03 6.171216011047363281e+00 6.599340438842773438e+00 -1.398255990352481604e-04 8.227494545280933380e-04 2.048771566478535533e-04 -1.926467666635289788e-04
1.826000000000000000e+03 2.495058059692382812e+01 -1.086831188201904297e+01 1.915510058403015137e+00 2.205896377563476562e+00 1.236421942710876465e+00 2.045836925506591797e+00
1.827000000000000000e+03 2.395619201660156250e+01 -1.095190048217773438e+01 1.601144075393676758e+00 1.544310331344604492e+00 9.436362981796264648e-01 1.426781892776489258e+00
1.828000000000000000e+03 6.979489803314208984e+00 -7.026770591735839844e+00 2.412776811979711056e-04 -8.117792312987148762e-04 -1.711504592094570398e-04 -6.469407817348837852e-04
1.829000000000000000e+03 2.509507560729980469e+01 -8.368292450904846191e-01 1.274250864982604980e+00 3.686494827270507812e+00 1.488223671913146973e+00 -2.472681999206542969e+00
1.830000000000000000e+03 2.257814407348632812e+01 -4.995032250881195068e-01 7.941844463348388672e-01 1.835390567779541016e+00 7.888725399971008301e-01 -1.293049931526184082e+00
1.831000000000000000e+03 2.538986396789550781e+01 -2.188580751419067383e+00 1.783544540405273438e+00 3.215048074722290039e+00 1.499577760696411133e+00 -2.551510572433471680e+00
1.832000000000000000e+03 2.511920738220214844e+01 -1.543999433517456055e+00 1.493902206420898438e+00 3.309821605682373047e+00 1.441117167472839355e+00 -2.436371564865112305e+00
1.833000000000000000e+03 2.475592803955078125e+01 2.405089139938354492e+00 4.916913807392120361e-01 4.363567352294921875e+00 1.456577658653259277e+00 -2.276467561721801758e+00
1.834000000000000000e+03 2.351415252685546875e+01 -1.176358604431152344e+01 1.421789526939392090e+00 1.743493914604187012e+00 9.495850205421447754e-01 1.440715670585632324e+00
1.835000000000000000e+03 2.460643386840820312e+01 -1.143659019470214844e+01 1.749379396438598633e+00 2.337193012237548828e+00 1.225971698760986328e+00 1.981591224670410156e+00
1.836000000000000000e+03 7.507485389709472656e+00 8.320612907409667969e+00 6.448779022321105003e-04 -2.524658106267452240e-03 -5.639340379275381565e-04 2.404836472123861313e-03
1.837000000000000000e+03 8.157265663146972656e+00 -5.238047122955322266e+00 -2.005233545787632465e-04 -1.176873804070055485e-03 -4.132191534154117107e-04 2.960276615340262651e-04
1.838000000000000000e+03 2.074536705017089844e+01 -1.209978103637695312e+01 6.576371192932128906e-01 8.210282325744628906e-01 4.435996115207672119e-01 5.127313137054443359e-01
1.839000000000000000e+03 2.215783882141113281e+01 -1.226856517791748047e+01 1.023960471153259277e+00 1.309714913368225098e+00 7.001026272773742676e-01 9.645471572875976562e-01
1.840000000000000000e+03 2.259476089477539062e+01 -1.302935123443603516e+01 1.074115753173828125e+00 1.848810195922851562e+00 8.768777847290039062e-01 1.325061559677124023e+00
1.841000000000000000e+03 2.252070617675781250e+01 9.510402083396911621e-01 6.144775152206420898e-01 2.407056093215942383e+00 9.064601063728332520e-01 -1.584066748619079590e+00
1.842000000000000000e+03 2.321026992797851562e+01 -3.098172545433044434e-01 9.077749848365783691e-01 2.323946952819824219e+00 9.695165753364562988e-01 -1.637054920196533203e+00
1.843000000000000000e+03 2.398745727539062500e+01 -5.148401260375976562e-01 1.091523170471191406e+00 2.794114589691162109e+00 1.165691375732421875e+00 -1.978424429893493652e+00
1.844000000000000000e+03 2.317867660522460938e+01 -1.270170116424560547e+01 1.230497241020202637e+00 1.990517854690551758e+00 9.663045406341552734e-01 1.498822212219238281e+00
1.845000000000000000e+03 1.978436088562011719e+01 -1.563570594787597656e+01 4.941894710063934326e-01 1.363722920417785645e+00 5.573737025260925293e-01 9.289337992668151855e-01
1.846000000000000000e+03 7.252964019775390625e+01 1.061316776275634766e+01 2.658442780375480652e-02 7.673902034759521484e+00 2.310145854949951172e+00 3.698858022689819336e-01
1.847000000000000000e+03 7.282466888427734375e+01 5.338154792785644531e+00 6.255195289850234985e-02 7.488655567169189453e+00 2.265362262725830078e+00 3.031447231769561768e-01
1.848000000000000000e+03 7.277774810791015625e+01 -8.371845245361328125e+00 1.037775874137878418e-01 7.262494564056396484e+00 2.209881782531738281e+00 -1.186136715114116669e-02
1.849000000000000000e+03 7.279838562011718750e+01 2.670310258865356445e+00 7.825592160224914551e-02 7.411605834960937500e+00 2.246958494186401367e+00 2.565264403820037842e-01
1.850000000000000000e+03 7.277747344970703125e+01 -2.111626625061035156e+01 2.408828586339950562e-02 7.449378967285156250e+00 2.242040157318115234e+00 -2.365684658288955688e-01
1.851000000000000000e+03 7.023729705810546875e+01 -2.578162765502929688e+01 -2.647805400192737579e-02 7.607505321502685547e+00 2.274308204650878906e+00 -2.945382297039031982e-01
1.852000000000000000e+03 1.882770538330078125e+01 -1.756667709350585938e+01 3.491541445255279541e-01 1.390136003494262695e+00 5.217870473861694336e-01 9.129332900047302246e-01
1.853000000000000000e+03 1.977205467224121094e+01 -1.914105224609375000e+01 3.495453298091888428e-01 1.988859057426452637e+00 7.015213370323181152e-01 1.134699702262878418e+00
1.854000000000000000e+03 5.766068935394287109e+00 5.525178909301757812e+00 -3.232028120692120865e-06 8.091377676464617252e-04 2.417717187199741602e-04 -2.468612801749259233e-04
1.855000000000000000e+03 6.881333923339843750e+01 4.016593456268310547e+00 1.508473604917526245e-01 7.519475460052490234e+00 2.301096916198730469e+00 3.835564255714416504e-01
1.856000000000000000e+03 7.140381622314453125e+01 -5.661355495452880859e+00 1.446654200553894043e-01 7.312728404998779297e+00 2.237218141555786133e+00 6.734373420476913452e-02
1.857000000000000000e+03 2.437022972106933594e+01 4.588867664337158203e+00 3.392651379108428955e-01 4.424707412719726562e+00 1.429191708564758301e+00 -2.124612808227539062e+00
1.858000000000000000e+03 7.158682823181152344e+00 2.426305389404296875e+01 1.336571723222732544e-01 4.489858150482177734e-01 1.747929006814956665e-01 -1.440679579973220825e-01
1.859000000000000000e+03 7.227435302734375000e+01 -2.400546073913574219e+01 1.473865559091791511e-04 7.531432628631591797e+00 2.259474039077758789e+00 -2.577800452709197998e-01
1.860000000000000000e+03 7.307978057861328125e+01 -2.570549583435058594e+01 -1.233608927577733994e-02 7.554814815521240234e+00 2.262743711471557617e+00 -2.347655594348907471e-01
1.861000000000000000e+03 7.122898101806640625e+01 -1.691979026794433594e+01 8.221612870693206787e-02 7.401006221771240234e+00 2.244966745376586914e+00 -2.227669656276702881e-01
1.862000000000000000e+03 7.232340240478515625e+01 1.341915321350097656e+01 5.418329965323209763e-03 7.777280807495117188e+00 2.334809780120849609e+00 3.903759419918060303e-01
1.863000000000000000e+03 7.098229217529296875e+01 1.180728054046630859e+01 2.542903646826744080e-02 7.721941947937011719e+00 2.324211359024047852e+00 4.285629391670227051e-01
1.864000000000000000e+03 7.146282196044921875e+01 -1.118841361999511719e+01 1.286025196313858032e-01 7.316876411437988281e+00 2.233643770217895508e+00 -9.292726218700408936e-02
1.865000000000000000e+03 7.066172790527343750e+01 1.965344619750976562e+01 -5.007926374673843384e-02 7.975406646728515625e+00 2.377598285675048828e+00 4.191631078720092773e-01
1.866000000000000000e+03 7.060510253906250000e+01 1.807836151123046875e+01 -4.033846408128738403e-02 7.928347587585449219e+00 2.366402864456176758e+00 4.336271882057189941e-01
1.867000000000000000e+03 7.135710906982421875e+01 -2.868062734603881836e+00 1.402338296175003052e-01 7.340321540832519531e+00 2.244166612625122070e+00 1.507850289344787598e-01
1.868000000000000000e+03 7.089996337890625000e+01 1.325010490417480469e+01 1.277537550777196884e-02 7.765963077545166016e+00 2.333621501922607422e+00 4.403523802757263184e-01
1.869000000000000000e+03 7.266605377197265625e+01 -1.399023151397705078e+01 8.139888942241668701e-02 7.311439037322998047e+00 2.217851400375366211e+00 -1.453412324190139771e-01
1.870000000000000000e+03 7.093491363525390625e+01 2.117131042480468750e+01 -5.529028549790382385e-02 8.026007652282714844e+00 2.391215324401855469e+00 3.939098119735717773e-01
1.871000000000000000e+03 7.866122245788574219e+00 2.930516242980957031e+01 2.629666589200496674e-02 8.588899374008178711e-01 2.655559778213500977e-01 -1.939370930194854736e-01
1.872000000000000000e+03 1.211034870147705078e+01 3.068124008178710938e+01 -8.341469615697860718e-02 1.755436539649963379e+00 5.016065239906311035e-01 -3.555636107921600342e-01
1.873000000000000000e+03 7.368903350830078125e+01 -2.995835304260253906e+01 -3.378421068191528320e-02 7.647728443145751953e+00 2.284183263778686523e+00 -1.955081373453140259e-01
1.874000000000000000e+03 7.229969024658203125e+01 -2.800700187683105469e+01 -3.339796885848045349e-02 7.620308399200439453e+00 2.276072978973388672e+00 -2.371784001588821411e-01
1.875000000000000000e+03 2.429886436462402344e+01 5.432333946228027344e+00 3.155763745307922363e-01 4.468142032623291016e+00 1.435115575790405273e+00 -2.064538240432739258e+00
1.876000000000000000e+03 2.325450515747070312e+01 1.314854049682617188e+01 3.220922648906707764e-01 4.370173454284667969e+00 1.407679677009582520e+00 -1.245488047599792480e+00
1.877000000000000000e+03 2.366543769836425781e+01 1.596041107177734375e+01 1.052581816911697388e-01 4.465461730957031250e+00 1.371215939521789551e+00 -9.904139637947082520e-01
1.878000000000000000e+03 7.139360046386718750e+01 1.275009155273437500e+00 1.170150116086006165e-01 7.411875724792480469e+00 2.258667230606079102e+00 2.601449787616729736e-01
1.879000000000000000e+03 9.442172050476074219e+00 2.202848815917968750e+01 1.977477520704269409e-01 5.664348006248474121e-01 2.292547672986984253e-01 -3.325415551662445068e-01
1.880000000000000000e+03 9.911361694335937500e+00 2.401762580871582031e+01 1.531914174556732178e-01 8.857582211494445801e-01 3.116848766803741455e-01 -3.922143876552581787e-01
1.881000000000000000e+03 7.276779174804687500e+01 -6.987121582031250000e+00 1.057471856474876404e-01 7.264354228973388672e+00 2.211030483245849609e+00 2.392128109931945801e-02
1.882000000000000000e+03 7.019623565673828125e+01 6.370265007019042969e+00 9.602186083793640137e-02 7.562481403350830078e+00 2.297550916671752930e+00 3.992622792720794678e-01
1.883000000000000000e+03 6.998831176757812500e+01 7.586768150329589844e+00 8.230015635490417480e-02 7.601214885711669922e+00 2.305054426193237305e+00 4.239934980869293213e-01
1.884000000000000000e+03 1.814135551452636719e+01 2.116284370422363281e+01 -6.110604852437973022e-02 3.109826803207397461e+00 9.146162271499633789e-01 -7.821301221847534180e-01
1.885000000000000000e+03 1.877268028259277344e+01 2.345867347717285156e+01 -1.855626404285430908e-01 3.261731386184692383e+00 9.228506684303283691e-01 -6.930214762687683105e-01
1.886000000000000000e+03 1.411738395690917969e+01 -2.630777549743652344e+01 2.139602005481719971e-01 1.097560763359069824e+00 3.934563100337982178e-01 4.282370209693908691e-01
1.887000000000000000e+03 7.126909637451171875e+01 -1.546894264221191406e+01 9.592367708683013916e-02 7.375468730926513672e+00 2.241417884826660156e+00 -1.961235851049423218e-01
1.888000000000000000e+03 1.145279026031494141e+01 -2.662536048889160156e+01 2.320696264505386353e-01 6.288597583770751953e-01 2.582788169384002686e-01 1.783714145421981812e-01
1.889000000000000000e+03 7.102366924285888672e+00 2.577039909362792969e+01 1.092360913753509521e-01 5.786361694335937500e-01 2.063616812229156494e-01 -1.513841003179550171e-01
1.890000000000000000e+03 8.302098274230957031e+00 2.451036262512207031e+01 1.460380852222442627e-01 6.373876929283142090e-01 2.350277453660964966e-01 -2.346373349428176880e-01
1.891000000000000000e+03 7.070955657958984375e+01 1.478430652618408203e+01 -7.472911383956670761e-03 7.822091102600097656e+00 2.344385385513305664e+00 4.485085308551788330e-01
1.892000000000000000e+03 1.853674888610839844e+01 -2.064466857910156250e+01 2.811236083507537842e-01 1.762826442718505859e+00 6.131850481033325195e-01 9.887413382530212402e-01
1.893000000000000000e+03 6.989092254638671875e+01 -2.006271553039550781e+01 5.987141281366348267e-02 7.497055053710937500e+00 2.267077922821044922e+00 -2.953035533428192139e-01
1.894000000000000000e+03 2.002157402038574219e+01 2.224802398681640625e+01 -1.833935678005218506e-01 3.572677135467529297e+00 1.016785144805908203e+00 -7.314064502716064453e-01
1.895000000000000000e+03 2.151294326782226562e+01 1.779137611389160156e+01 9.532214701175689697e-02 4.014270782470703125e+00 1.232877850532531738e+00 -8.828442096710205078e-01
1.896000000000000000e+03 2.003364944458007812e+01 -1.782610321044921875e+01 4.089907705783843994e-01 1.867682933807373047e+00 6.830021142959594727e-01 1.126743793487548828e+00
1.897000000000000000e+03 1.004213142395019531e+01 -2.453700256347656250e+01 1.798177212476730347e-01 2.172644436359405518e-01 1.191246435046195984e-01 -2.431618282571434975e-03
1.898000000000000000e+03 1.016994476318359375e+01 3.350003433227539062e+01 -7.771733403205871582e-02 1.438514471054077148e+00 4.082391262054443359e-01 -2.085733562707901001e-01
1.899000000000000000e+03 7.018262481689453125e+01 -2.808444786071777344e+01 -5.075137317180633545e-02 7.650452613830566406e+00 2.279910326004028320e+00 -2.805177271366119385e-01
1.900000000000000000e+03 1.980309867858886719e+01 -2.051612854003906250e+01 2.753516733646392822e-01 2.191048860549926758e+00 7.399201393127441406e-01 1.131332159042358398e+00
1.901000000000000000e+03 6.912757873535156250e+01 2.795349693298339844e+01 -1.167593449354171753e-01 8.129652976989746094e+00 2.403868198394775391e+00 3.339116871356964111e-01
1.902000000000000000e+03 8.273333549499511719e+00 2.567393493652343750e+01 1.163321733474731445e-01 7.377254962921142578e-01 2.562173008918762207e-01 -2.461676448583602905e-01
1.903000000000000000e+03 2.484833908081054688e+01 1.459107971191406250e+01 9.349874407052993774e-02 4.775673866271972656e+00 1.460751891136169434e+00 -1.112390518188476562e+00
1.904000000000000000e+03 9.560410499572753906e+00 -3.232331466674804688e+01 8.807576447725296021e-02 6.853384375572204590e-01 2.320242524147033691e-01 8.706998825073242188e-02
1.905000000000000000e+03 1.304187107086181641e+01 -2.763294219970703125e+01 1.902991235256195068e-01 1.030348539352416992e+00 3.661943078041076660e-01 2.899359464645385742e-01
1.906000000000000000e+03 2.862564659118652344e+01 -3.648565769195556641e+00 1.672438859939575195e+00 1.072213172912597656e+01 3.718371152877807617e+00 -4.378113269805908203e+00
1.907000000000000000e+03 2.925633430480957031e+01 -1.040223217010498047e+01 9.729954004287719727e-01 1.198552322387695312e+01 3.887555599212646484e+00 3.249781608581542969e+00
1.908000000000000000e+03 2.907650947570800781e+01 -3.937460899353027344e+00 1.473787426948547363e+00 1.290719604492187500e+01 4.314294815063476562e+00 -3.988626956939697266e+00
1.909000000000000000e+03 2.666039085388183594e+01 -3.731976270675659180e+00 2.726257801055908203e+00 3.814275741577148438e+00 1.962159991264343262e+00 -3.486824989318847656e+00
1.910000000000000000e+03 2.830611419677734375e+01 -9.740596771240234375e+00 2.188732147216796875e+00 9.348097801208496094e+00 3.461049079895019531e+00 4.865543365478515625e+00
1.911000000000000000e+03 3.264937591552734375e+01 -7.298592567443847656e+00 7.293845653533935547e+00 1.183481216430664062e+01 5.738597393035888672e+00 -7.546044588088989258e-01
1.912000000000000000e+03 3.155022430419921875e+01 -6.058183670043945312e+00 8.465934753417968750e+00 1.394448089599609375e+01 6.723124504089355469e+00 1.495209813117980957e+00
1.913000000000000000e+03 3.148624229431152344e+01 -8.756322860717773438e+00 4.686116695404052734e+00 1.464307594299316406e+01 5.798757553100585938e+00 -1.841406106948852539e+00
1.914000000000000000e+03 2.777696800231933594e+01 -3.680002450942993164e+00 2.471858739852905273e+00 7.360734462738037109e+00 2.949777841567993164e+00 -4.627821922302246094e+00
1.915000000000000000e+03 2.820963478088378906e+01 -3.367738008499145508e+00 1.829656958580017090e+00 8.963371276855468750e+00 3.237908363342285156e+00 -4.417520046234130859e+00
1.916000000000000000e+03 2.635847473144531250e+01 -1.019424057006835938e+01 2.514436006546020508e+00 3.547292232513427734e+00 1.818518519401550293e+00 3.226729154586791992e+00
1.917000000000000000e+03 2.609616661071777344e+01 -1.048213291168212891e+01 2.350449562072753906e+00 3.358419418334960938e+00 1.712660670280456543e+00 3.016290664672851562e+00
1.918000000000000000e+03 2.650066184997558594e+01 -2.780417203903198242e+00 2.092771530151367188e+00 4.393418312072753906e+00 1.945856928825378418e+00 -3.312978744506835938e+00
1.919000000000000000e+03 2.597630310058593750e+01 -2.551043748855590820e+00 1.960696816444396973e+00 3.671726226806640625e+00 1.689726948738098145e+00 -2.918018102645874023e+00
1.920000000000000000e+03 2.469413566589355469e+01 -1.272652626037597656e+00 1.371945142745971680e+00 3.031716108322143555e+00 1.321098446846008301e+00 -2.228643178939819336e+00
1.921000000000000000e+03 2.448058509826660156e+01 1.772839784622192383e+00 6.222460269927978516e-01 4.004748821258544922e+00 1.388098478317260742e+00 -2.247718334197998047e+00
1.922000000000000000e+03 2.690976524353027344e+01 -1.038518905639648438e+01 2.419975280761718750e+00 4.875583648681640625e+00 2.188667535781860352e+00 3.751501083374023438e+00
1.923000000000000000e+03 2.445402336120605469e+01 -1.518470793962478638e-01 1.057331681251525879e+00 3.369315147399902344e+00 1.327993988990783691e+00 -2.234938144683837891e+00
1.924000000000000000e+03 2.345265960693359375e+01 -8.425519466400146484e-01 1.040793418884277344e+00 2.231492519378662109e+00 9.816858172416687012e-01 -1.624868154525756836e+00
1.925000000000000000e+03 2.409232330322265625e+01 -1.158836650848388672e+01 1.581204175949096680e+00 2.022813796997070312e+00 1.081205368041992188e+00 1.703483462333679199e+00
1.926000000000000000e+03 2.439479064941406250e+01 3.386540174484252930e+00 3.913228809833526611e-01 4.293921947479248047e+00 1.405573487281799316e+00 -2.182172298431396484e+00
1.927000000000000000e+03 7.327459335327148438e+00 5.894932746887207031e+00 -4.035039164591580629e-04 1.384353265166282654e-03 2.942548017017543316e-04 6.782537675462663174e-04
1.928000000000000000e+03 8.016078948974609375e+00 6.833689212799072266e+00 -1.071923179551959038e-03 1.855836482718586922e-03 2.351740113226696849e-04 1.536900992505252361e-03
1.929000000000000000e+03 2.482388114929199219e+01 -1.197172164916992188e+01 1.613320589065551758e+00 2.866570234298706055e+00 1.343967199325561523e+00 2.180079936981201172e+00
1.930000000000000000e+03 2.205948829650878906e+01 -1.351094245910644531e+01 9.408419132232666016e-01 1.729519724845886230e+00 8.011084794998168945e-01 1.204157233238220215e+00
1.931000000000000000e+03 2.214126968383789062e+01 -1.471744060516357422e+01 8.453125357627868652e-01 2.205155134201049805e+00 9.151402711868286133e-01 1.440929055213928223e+00
1.932000000000000000e+03 2.344501113891601562e+01 1.423469066619873047e+00 6.501770019531250000e-01 3.169034719467163086e+00 1.145763516426086426e+00 -1.953598856925964355e+00
1.933000000000000000e+03 2.275612068176269531e+01 1.679876565933227539e+00 5.560783147811889648e-01 2.793186187744140625e+00 1.004779338836669922e+00 -1.741492748260498047e+00
1.934000000000000000e+03 5.940016269683837891e+00 8.424228668212890625e+00 2.047523157671093941e-04 -1.405020710080862045e-03 -3.600805357564240694e-04 1.248507993295788765e-03
1.935000000000000000e+03 7.134900665283203125e+01 -1.475287795066833496e+00 1.347105801105499268e-01 7.360740661621093750e+00 2.248635530471801758e+00 1.900458186864852905e-01
1.936000000000000000e+03 6.856328582763671875e+01 -4.460691928863525391e+00 2.383236438035964966e-01 7.385952472686767578e+00 2.287282943725585938e+00 1.271297037601470947e-01
1.937000000000000000e+03 2.259970664978027344e+01 -1.413935852050781250e+01 9.507527351379394531e-01 2.262703180313110352e+00 9.640367627143859863e-01 1.499586701393127441e+00
1.938000000000000000e+03 2.071436691284179688e+01 -1.669075202941894531e+01 5.259636044502258301e-01 1.964773535728454590e+00 7.472211718559265137e-01 1.213202834129333496e+00
1.939000000000000000e+03 6.870320129394531250e+01 -7.297739505767822266e+00 2.340359836816787720e-01 7.370874881744384766e+00 2.281473398208618164e+00 2.162364125251770020e-02
1.940000000000000000e+03 7.137718200683593750e+01 -4.264604568481445312e+00 1.441134214401245117e-01 7.324079990386962891e+00 2.240458011627197266e+00 1.094279363751411438e-01
1.941000000000000000e+03 2.507943344116210938e+01 4.655288219451904297e+00 2.788429558277130127e-01 4.905826091766357422e+00 1.555400729179382324e+00 -2.166731357574462891e+00
1.942000000000000000e+03 7.152085876464843750e+01 5.245697975158691406e+00 8.516135811805725098e-02 7.509937286376953125e+00 2.278529644012451172e+00 3.410833477973937988e-01
1.943000000000000000e+03 7.005586242675781250e+01 2.613177537918090820e+00 1.382090449333190918e-01 7.468216419219970703e+00 2.281927585601806641e+00 3.221191763877868652e-01
1.944000000000000000e+03 2.479967117309570312e+01 1.324136924743652344e+01 1.670722514390945435e-01 4.781383991241455078e+00 1.484536886215209961e+00 -1.234187364578247070e+00
1.945000000000000000e+03 2.534109497070312500e+01 6.336555480957031250e+00 2.171912193298339844e-01 5.058408737182617188e+00 1.582679986953735352e+00 -2.029100418090820312e+00
1.946000000000000000e+03 7.017072296142578125e+01 -9.886420249938964844e+00 1.722868829965591431e-01 7.343835830688476562e+00 2.254836797714233398e+00 -6.296098977327346802e-02
1.947000000000000000e+03 7.019271087646484375e+01 -1.123209667205810547e+01 1.639140397310256958e-01 7.351416587829589844e+00 2.254599094390869141e+00 -1.028810814023017883e-01
1.948000000000000000e+03 6.982781219482421875e+01 -1.701369667053222656e+01 1.036911457777023315e-01 7.436734676361083984e+00 2.262127876281738281e+00 -2.482319325208663940e-01
1.949000000000000000e+03 6.986214447021484375e+01 -1.851287460327148438e+01 8.696861565113067627e-02 7.461853981018066406e+00 2.264646768569946289e+00 -2.735096812248229980e-01
1.950000000000000000e+03 6.991828155517578125e+01 -1.354225724935531616e-01 1.669052690267562866e-01 7.415638923645019531e+00 2.274763345718383789e+00 2.520688474178314209e-01
1.951000000000000000e+03 6.951847076416015625e+01 1.309912300109863281e+01 1.619389839470386505e-02 7.765243053436279297e+00 2.334431171417236328e+00 4.815022349357604980e-01
1.952000000000000000e+03 6.946112823486328125e+01 1.167684078216552734e+01 3.506399318575859070e-02 7.722009181976318359e+00 2.327121973037719727e+00 4.785689711570739746e-01
1.953000000000000000e+03 6.903303527832031250e+01 1.991486167907714844e+01 -6.818969547748565674e-02 7.953610897064208984e+00 2.365626335144042969e+00 4.594228267669677734e-01
1.954000000000000000e+03 6.780578613281250000e+01 1.658031082153320312e+01 -3.709290549159049988e-02 7.853322029113769531e+00 2.344868659973144531e+00 5.251333713531494141e-01
1.955000000000000000e+03 6.878264617919921875e+01 -1.399415302276611328e+01 1.704526245594024658e-01 7.414329051971435547e+00 2.275434494018554688e+00 -1.970628201961517334e-01
1.956000000000000000e+03 7.141592407226562500e+01 -1.259570598602294922e+01 1.200958117842674255e-01 7.331880092620849609e+00 2.235592603683471680e+00 -1.295349150896072388e-01
1.957000000000000000e+03 7.145641326904296875e+01 -8.434966087341308594e+00 1.396440118551254272e-01 7.304937362670898438e+00 2.233374357223510742e+00 -1.548202428966760635e-02
1.958000000000000000e+03 6.885360717773437500e+01 -1.002235984802246094e+01 2.119086533784866333e-01 7.374467849731445312e+00 2.275913000106811523e+00 -7.315091043710708618e-02
1.959000000000000000e+03 7.120415496826171875e+01 9.104074478149414062e+00 5.038728192448616028e-02 7.634179592132568359e+00 2.305370092391967773e+00 4.033893942832946777e-01
1.960000000000000000e+03 9.181994438171386719e+00 2.503964424133300781e+01 1.403499096632003784e-01 8.368929624557495117e-01 2.931728661060333252e-01 -3.213106989860534668e-01
1.961000000000000000e+03 2.653715324401855469e+01 6.962321281433105469e+00 6.967049837112426758e-02 5.640789508819580078e+00 1.713137984275817871e+00 -1.868519783020019531e+00
1.962000000000000000e+03 7.058193969726562500e+01 1.643388366699218750e+01 -2.453050017356872559e-02 7.874506950378417969e+00 2.354992866516113281e+00 4.466227293014526367e-01
1.963000000000000000e+03 6.934796142578125000e+01 1.440018463134765625e+01 -5.207472015172243118e-03 7.806589603424072266e+00 2.340414762496948242e+00 4.882314801216125488e-01
1.964000000000000000e+03 6.830610656738281250e+01 -2.180026054382324219e+01 4.041710495948791504e-02 7.562116146087646484e+00 2.280760049819946289e+00 -3.356953263282775879e-01
1.965000000000000000e+03 7.127262115478515625e+01 -1.989861488342285156e+01 4.839007928967475891e-02 7.460538387298583984e+00 2.252678394317626953e+00 -2.625164389610290527e-01
1.966000000000000000e+03 7.135779571533203125e+01 -9.433007240295410156e-02 1.265758424997329712e-01 7.384645462036132812e+00 2.253366470336914062e+00 2.269924730062484741e-01
1.967000000000000000e+03 7.147150421142578125e+01 6.533436298370361328e+00 7.387130707502365112e-02 7.550024986267089844e+00 2.287168979644775391e+00 3.642970919609069824e-01
1.968000000000000000e+03 1.530228519439697266e+01 3.180231475830078125e+01 -2.128143012523651123e-01 2.440529584884643555e+00 6.683145761489868164e-01 -3.896319866180419922e-01
1.969000000000000000e+03 1.396573448181152344e+01 2.356719779968261719e+01 2.967902831733226776e-02 1.911346793174743652e+00 5.823077559471130371e-01 -7.000395059585571289e-01
1.970000000000000000e+03 1.074040412902832031e+01 2.723394012451171875e+01 4.483688995242118835e-02 1.296295404434204102e+00 4.023396968841552734e-01 -3.886743187904357910e-01
1.971000000000000000e+03 2.101905250549316406e+01 -1.835716438293457031e+01 4.496341347694396973e-01 2.434972763061523438e+00 8.653820753097534180e-01 1.345683574676513672e+00
1.972000000000000000e+03 2.080637550354003906e+01 -1.922897338867187500e+01 3.419968783855438232e-01 2.443840265274047852e+00 8.357511758804321289e-01 1.293648481369018555e+00
1.973000000000000000e+03 6.929713439941406250e+01 2.175709724426269531e+01 -7.697345316410064697e-02 8.004936218261718750e+00 2.378388881683349609e+00 4.292122125625610352e-01
1.974000000000000000e+03 7.171658325195312500e+01 -2.280816650390625000e+01 1.227709744125604630e-02 7.513915061950683594e+00 2.257857561111450195e+00 -2.685260772705078125e-01
1.975000000000000000e+03 6.989765930175781250e+01 -2.179036712646484375e+01 2.941987849771976471e-02 7.533735752105712891e+00 2.268946647644042969e+00 -3.053212761878967285e-01
1.976000000000000000e+03 9.464511871337890625e+00 -2.926229476928710938e+01 1.541309356689453125e-01 4.888288080692291260e-01 1.928879171609878540e-01 4.745982587337493896e-02
1.977000000000000000e+03 9.823124885559082031e+00 -2.634523773193359375e+01 2.020532190799713135e-01 3.288579881191253662e-01 1.592733711004257202e-01 1.368940155953168869e-02
1.978000000000000000e+03 6.967984771728515625e+01 2.363142585754394531e+01 -8.511312305927276611e-02 8.057794570922851562e+00 2.391804456710815430e+00 3.965618312358856201e-01
1.979000000000000000e+03 1.030124855041503906e+01 -2.293109703063964844e+01 1.721754372119903564e-01 1.117142811417579651e-01 8.516691625118255615e-02 -2.842133864760398865e-02
1.980000000000000000e+03 8.468267440795898438e+00 -2.203325080871582031e+01 2.546466514468193054e-02 -9.370736777782440186e-02 -2.047281153500080109e-02 -2.490018308162689209e-01
1.981000000000000000e+03 1.928816223144531250e+01 2.098068046569824219e+01 -8.316232264041900635e-02 3.393886804580688477e+00 9.932173490524291992e-01 -7.904098629951477051e-01
1.982000000000000000e+03 2.038588714599609375e+01 1.936053276062011719e+01 4.720816854387521744e-03 3.732424020767211914e+00 1.121143460273742676e+00 -8.156004548072814941e-01
1.983000000000000000e+03 7.134986114501953125e+01 -2.933820533752441406e+01 -5.106651782989501953e-02 7.658363819122314453e+00 2.282189130783081055e+00 -2.479767054319381714e-01
1.984000000000000000e+03 7.158815765380859375e+01 2.497832489013671875e+01 -6.166693195700645447e-02 8.140639305114746094e+00 2.423691749572753906e+00 3.292886316776275635e-01
1.985000000000000000e+03 6.834445190429687500e+01 2.624183082580566406e+01 -1.278498619794845581e-01 8.076708793640136719e+00 2.384657621383666992e+00 3.766902387142181396e-01
1.986000000000000000e+03 7.003988647460937500e+01 -1.403748607635498047e+01 1.402140110731124878e-01 7.386448860168457031e+00 2.257998943328857422e+00 -1.825560778379440308e-01
1.987000000000000000e+03 6.853752136230468750e+01 1.547375965118408203e+01 -1.703573390841484070e-02 7.829062461853027344e+00 2.343607902526855469e+00 5.044818520545959473e-01
1.988000000000000000e+03 6.837469482421875000e+01 -2.601428031921386719e+01 -3.656557202339172363e-02 7.646905422210693359e+00 2.283101797103881836e+00 -3.372692763805389404e-01
1.989000000000000000e+03 1.725101661682128906e+01 2.455306434631347656e+01 -1.600437164306640625e-01 2.835003852844238281e+00 8.024880290031433105e-01 -6.847139596939086914e-01
1.990000000000000000e+03 7.117974853515625000e+01 -2.697389984130859375e+01 -3.301560878753662109e-02 7.615005493164062500e+00 2.274596929550170898e+00 -2.713543474674224854e-01
1.991000000000000000e+03 8.857505798339843750e+00 2.673009681701660156e+01 8.674310147762298584e-02 8.890027403831481934e-01 2.927237451076507568e-01 -2.775436937808990479e-01
1.992000000000000000e+03 1.203514289855957031e+01 2.623610305786132812e+01 3.754537552595138550e-02 1.543125987052917480e+00 4.742014110088348389e-01 -5.075050592422485352e-01
1.993000000000000000e+03 6.919057464599609375e+01 -3.236270523071289062e+01 -1.119463071227073669e-01 7.740170001983642578e+00 2.288467168807983398e+00 -2.391816228628158569e-01
1.994000000000000000e+03 7.134347915649414062e+00 -2.212066650390625000e+01 -2.984125353395938873e-02 -7.485270500183105469e-02 -3.140818700194358826e-02 -2.677171528339385986e-01
1.995000000000000000e+03 9.233522415161132812e+00 -2.267455291748046875e+01 1.081747785210609436e-01 -1.212768163532018661e-02 2.881412953138351440e-02 -1.190473288297653198e-01
1.996000000000000000e+03 6.759194946289062500e+01 2.426257705688476562e+01 -1.248969957232475281e-01 8.018786430358886719e+00 2.368166923522949219e+00 4.304686486721038818e-01
1.997000000000000000e+03 2.814510726928710938e+01 -3.030815601348876953e+00 1.642232298851013184e+00 8.663095474243164062e+00 3.091598272323608398e+00 -4.133197784423828125e+00
1.998000000000000000e+03 2.932507896423339844e+01 -3.313653945922851562e+00 1.036493182182312012e+00 1.242614650726318359e+01 4.038792133331298828e+00 -3.180001497268676758e+00
1.999000000000000000e+03 3.160193252563476562e+01 -6.645756721496582031e+00 9.434565544128417969e+00 1.357743263244628906e+01 6.903599262237548828e+00 3.797057569026947021e-01
2.000000000000000000e+03 3.169250679016113281e+01 -6.408740997314453125e+00 9.059224128723144531e+00 1.343903064727783203e+01 6.749476432800292969e+00 8.287396430969238281e-01
2.001000000000000000e+03 3.178237915039062500e+01 -5.101039886474609375e+00 5.555982589721679688e+00 1.389644050598144531e+01 5.835726737976074219e+00 1.863500833511352539e+00
2.002000000000000000e+03 3.170018577575683594e+01 -4.754791736602783203e+00 4.670177459716796875e+00 1.409855842590332031e+01 5.630620956420898438e+00 1.752954244613647461e+00
2.003000000000000000e+03 2.940645980834960938e+01 -1.002468395233154297e+01 1.092024683952331543e+00 1.305280876159667969e+01 4.243450164794921875e+00 3.065771818161010742e+00
2.004000000000000000e+03 3.020172119140625000e+01 -3.989634990692138672e+00 1.498554229736328125e+00 1.522923278808593750e+01 5.018335819244384766e+00 -1.212999582290649414e+00
2.005000000000000000e+03 2.915211296081542969e+01 -2.898123741149902344e+00 9.606912732124328613e-01 1.137156772613525391e+01 3.699677705764770508e+00 -3.277631521224975586e+00
2.006000000000000000e+03 2.972152137756347656e+01 -1.020861911773681641e+01 9.519608616828918457e-01 1.327971553802490234e+01 4.269502639770507812e+00 2.512730121612548828e+00
2.007000000000000000e+03 2.985726928710937500e+01 -9.902311325073242188e+00 1.157180547714233398e+00 1.433611106872558594e+01 4.647987365722656250e+00 2.077742338180541992e+00
2.008000000000000000e+03 3.107686042785644531e+01 -4.127043724060058594e+00 2.632911682128906250e+00 1.478111362457275391e+01 5.224207401275634766e+00 6.727986931800842285e-01
2.009000000000000000e+03 3.204050445556640625e+01 -4.447593212127685547e+00 4.101334571838378906e+00 1.340406799316406250e+01 5.251620769500732422e+00 1.620519042015075684e+00
2.010000000000000000e+03 3.182958793640136719e+01 -6.146477222442626953e+00 8.279390335083007812e+00 1.324412441253662109e+01 6.457054138183593750e+00 1.188552856445312500e+00
2.011000000000000000e+03 3.214129638671875000e+01 -5.535052776336669922e+00 6.617396354675292969e+00 1.297754287719726562e+01 5.878481864929199219e+00 1.654948353767395020e+00
2.012000000000000000e+03 3.059299468994140625e+01 -9.942487716674804688e+00 1.473159432411193848e+00 1.452181816101074219e+01 4.798493385314941406e+00 5.002994537353515625e-01
2.013000000000000000e+03 3.200999450683593750e+01 -8.577455520629882812e+00 5.368558883666992188e+00 1.345814037322998047e+01 5.648009777069091797e+00 -1.898470520973205566e+00
2.014000000000000000e+03 3.050788688659667969e+01 -3.824552059173583984e+00 1.643461585044860840e+00 1.493842220306396484e+01 4.974565029144287109e+00 -4.844846427440643311e-01
2.015000000000000000e+03 2.959344863891601562e+01 -4.165452480316162109e+00 1.417548537254333496e+00 1.515941143035888672e+01 4.973087787628173828e+00 -2.791583776473999023e+00
2.016000000000000000e+03 2.787347412109375000e+01 -9.410676956176757812e+00 2.977887868881225586e+00 7.351546764373779297e+00 3.098830223083496094e+00 5.077747344970703125e+00
2.017000000000000000e+03 2.641226005554199219e+01 -1.074799060821533203e+01 2.231228113174438477e+00 4.117544651031494141e+00 1.904631853103637695e+00 3.279893636703491211e+00
2.018000000000000000e+03 2.692909049987792969e+01 -3.146745443344116211e+00 2.338915586471557617e+00 5.094493389129638672e+00 2.230022668838500977e+00 -3.787768840789794922e+00
2.019000000000000000e+03 2.723889541625976562e+01 -3.825728416442871094e+00 2.814265251159667969e+00 5.362505435943603516e+00 2.453031301498413086e+00 -4.172890663146972656e+00
2.020000000000000000e+03 2.699907875061035156e+01 -3.522395133972167969e+00 2.614531755447387695e+00 4.924112796783447266e+00 2.261593341827392578e+00 -3.913719654083251953e+00
2.021000000000000000e+03 2.667809295654296875e+01 -1.125725173950195312e+01 1.955117821693420410e+00 5.004960536956787109e+00 2.088023424148559570e+00 3.444066286087036133e+00
2.022000000000000000e+03 2.567774200439453125e+01 -1.135805511474609375e+01 1.940656185150146484e+00 3.412328958511352539e+00 1.605895519256591797e+00 2.713967561721801758e+00
2.023000000000000000e+03 2.628099632263183594e+01 -1.113365077972412109e+01 2.074760913848876953e+00 4.148542881011962891e+00 1.866991162300109863e+00 3.167984008789062500e+00
2.024000000000000000e+03 2.638767242431640625e+01 -2.360430479049682617e+00 1.886146545410156250e+00 4.533261775970458984e+00 1.925822496414184570e+00 -3.232248067855834961e+00
2.025000000000000000e+03 2.554827308654785156e+01 -1.720745682716369629e+00 1.601173877716064453e+00 3.789900302886962891e+00 1.617322206497192383e+00 -2.704102039337158203e+00
2.026000000000000000e+03 2.475157356262207031e+01 -5.052112936973571777e-01 1.162481546401977539e+00 3.486716032028198242e+00 1.394759297370910645e+00 -2.328623056411743164e+00
2.027000000000000000e+03 2.376245498657226562e+01 -1.244243717193603516e+01 1.377468824386596680e+00 2.245572090148925781e+00 1.086912274360656738e+00 1.703637480735778809e+00
2.028000000000000000e+03 2.434191322326660156e+01 1.232393622398376465e+00 7.114952206611633301e-01 3.747278690338134766e+00 1.337632179260253906e+00 -2.219511270523071289e+00
2.029000000000000000e+03 2.379625129699707031e+01 2.026846408843994141e+00 5.792352557182312012e-01 3.561296224594116211e+00 1.242159485816955566e+00 -2.074995517730712891e+00
2.030000000000000000e+03 2.358501052856445312e+01 3.143108785152435303e-01 8.707267642021179199e-01 2.858253240585327148e+00 1.118693947792053223e+00 -1.891321539878845215e+00
2.031000000000000000e+03 2.264859199523925781e+01 -1.562918472290039062e+01 7.634907960891723633e-01 2.680287837982177734e+00 1.033133625984191895e+00 1.615344285964965820e+00
2.032000000000000000e+03 2.604835128784179688e+01 3.404076337814331055e+00 2.597485780715942383e-01 5.466381549835205078e+00 1.717839121818542480e+00 -2.333585023880004883e+00
2.033000000000000000e+03 2.476739311218261719e+01 4.033337116241455078e+00 3.219242095947265625e-01 4.616309165954589844e+00 1.481469988822937012e+00 -2.193440437316894531e+00
2.034000000000000000e+03 8.862079620361328125e+00 6.860653877258300781e+00 1.308249658904969692e-03 -3.379991976544260979e-03 -6.215226603671908379e-04 1.267570769414305687e-04
2.035000000000000000e+03 6.876786041259765625e+01 -8.686719894409179688e+00 2.250052243471145630e-01 7.371334075927734375e+00 2.278901815414428711e+00 -2.970151789486408234e-02
2.036000000000000000e+03 6.894654846191406250e+01 -1.260802936553955078e+01 1.874579489231109619e-01 7.394534111022949219e+00 2.274597644805908203e+00 -1.577212810516357422e-01
2.037000000000000000e+03 2.374236488342285156e+01 -9.533052891492843628e-02 9.583871364593505859e-01 2.809183120727539062e+00 1.130271077156066895e+00 -1.905065059661865234e+00
2.038000000000000000e+03 6.836259460449218750e+01 1.355820274353027344e+01 1.177601050585508347e-02 7.774495124816894531e+00 2.335881233215332031e+00 5.175004601478576660e-01
2.039000000000000000e+03 6.956297302246093750e+01 1.021499633789062500e+01 5.440650507807731628e-02 7.677049160003662109e+00 2.319436550140380859e+00 4.621491134166717529e-01
2.040000000000000000e+03 2.630051612854003906e+01 6.136733055114746094e+00 1.105443760752677917e-01 5.583387851715087891e+00 1.708179593086242676e+00 -2.007138490676879883e+00
2.041000000000000000e+03 6.833474731445312500e+01 -1.715033912658691406e+01 1.310965120792388916e-01 7.473420619964599609e+00 2.281355142593383789e+00 -2.798131406307220459e-01
2.042000000000000000e+03 6.742340850830078125e+01 -1.959940147399902344e+01 9.618363529443740845e-02 7.535944938659667969e+00 2.289638519287109375e+00 -3.324559330940246582e-01
2.043000000000000000e+03 2.716703796386718750e+01 7.753382205963134766e+00 -9.837062098085880280e-03 5.891086578369140625e+00 1.764374852180480957e+00 -1.757659792900085449e+00
2.044000000000000000e+03 2.239458465576171875e+01 -1.719997787475585938e+01 5.039352178573608398e-01 2.974366664886474609e+00 1.043490529060363770e+00 1.579446911811828613e+00
2.045000000000000000e+03 2.330552673339843750e+01 1.026371479034423828e+01 4.317779242992401123e-01 4.297181129455566406e+00 1.418687701225280762e+00 -1.562127232551574707e+00
2.046000000000000000e+03 2.238962364196777344e+01 1.614969825744628906e+01 1.675268560647964478e-01 4.186612129211425781e+00 1.306241631507873535e+00 -9.759646058082580566e-01
2.047000000000000000e+03 2.632195091247558594e+01 1.344949054718017578e+01 1.346935983747243881e-02 5.194879531860351562e+00 1.562504649162292480e+00 -1.189362406730651855e+00
2.048000000000000000e+03 6.705348968505859375e+01 -2.560933685302734375e+01 -3.913560137152671814e-02 7.665127754211425781e+00 2.287797689437866211e+00 -3.630397915840148926e-01
2.049000000000000000e+03 6.774491119384765625e+01 -2.370480537414550781e+01 6.407053209841251373e-03 7.610821247100830078e+00 2.285168647766113281e+00 -3.553110659122467041e-01
2.050000000000000000e+03 7.002877807617187500e+01 -5.755233287811279297e+00 1.890124380588531494e-01 7.347231864929199219e+00 2.260873317718505859e+00 7.205646485090255737e-02
2.051000000000000000e+03 7.007276916503906250e+01 -7.156924724578857422e+00 1.859942078590393066e-01 7.341824531555175781e+00 2.258345603942871094e+00 2.436429634690284729e-02
2.052000000000000000e+03 6.714578247070312500e+01 2.002361106872558594e+01 -9.321734309196472168e-02 7.928979396820068359e+00 2.350728511810302734e+00 5.036820173263549805e-01
2.053000000000000000e+03 6.866526031494140625e+01 7.214706420898437500e+00 1.086128130555152893e-01 7.599029064178466797e+00 2.312292575836181641e+00 4.506791532039642334e-01
2.054000000000000000e+03 1.426429939270019531e+01 2.958235931396484375e+01 -1.311022341251373291e-01 2.176818847656250000e+00 6.137149333953857422e-01 -4.518719613552093506e-01
2.055000000000000000e+03 1.143881320953369141e+01 2.880251693725585938e+01 -1.589417271316051483e-02 1.545500516891479492e+00 4.588818848133087158e-01 -3.886714279651641846e-01
2.056000000000000000e+03 8.110708236694335938e+00 -2.637009239196777344e+01 1.486789137125015259e-01 1.488367170095443726e-01 8.925469219684600830e-02 -8.194468170404434204e-02
2.057000000000000000e+03 1.498838233947753906e+01 -2.421942901611328125e+01 2.570295035839080811e-01 1.195034742355346680e+00 4.356192648410797119e-01 5.475092530250549316e-01
2.058000000000000000e+03 1.554872417449951172e+01 -2.575718879699707031e+01 1.991106271743774414e-01 1.405346751213073730e+00 4.813372194766998291e-01 5.296809077262878418e-01
2.059000000000000000e+03 2.132166099548339844e+01 -2.121843338012695312e+01 1.826433092355728149e-01 3.031907558441162109e+00 9.643653035163879395e-01 1.343440294265747070e+00
2.060000000000000000e+03 1.096300315856933594e+01 2.499003219604492188e+01 1.179497465491294861e-01 1.171532869338989258e+00 3.868447840213775635e-01 -4.651909172534942627e-01
2.061000000000000000e+03 1.312895584106445312e+01 2.497568511962890625e+01 2.708100900053977966e-02 1.738101601600646973e+00 5.295547842979431152e-01 -6.203930377960205078e-01
2.062000000000000000e+03 1.466786289215087891e+01 2.629920005798339844e+01 -8.425103127956390381e-02 2.223844051361083984e+00 6.418778896331787109e-01 -6.030975580215454102e-01
2.063000000000000000e+03 1.549817371368408203e+01 2.454795646667480469e+01 -7.998328655958175659e-02 2.417935848236083984e+00 7.013857364654541016e-01 -6.925162672996520996e-01
2.064000000000000000e+03 6.889041137695312500e+01 -2.913204574584960938e+01 -8.240622282028198242e-02 7.695899963378906250e+00 2.284048080444335938e+00 -2.970440685749053955e-01
2.065000000000000000e+03 2.189410209655761719e+01 -2.018532752990722656e+01 2.369807362556457520e-01 3.174880266189575195e+00 1.023558259010314941e+00 1.453930377960205078e+00
2.066000000000000000e+03 7.011618041992187500e+01 2.533629226684570312e+01 -8.701171725988388062e-02 8.111235618591308594e+00 2.407267332077026367e+00 3.596895039081573486e-01
2.067000000000000000e+03 6.619178009033203125e+01 2.736769485473632812e+01 -1.748510897159576416e-01 8.036375999450683594e+00 2.358457565307617188e+00 3.892099261283874512e-01
2.068000000000000000e+03 9.962525367736816406e+00 2.598919296264648438e+01 1.036107465624809265e-01 1.055935382843017578e+00 3.478638231754302979e-01 -3.720970451831817627e-01
2.069000000000000000e+03 1.870170783996582031e+01 -2.249444961547851562e+01 2.101620435714721680e-01 2.029700040817260742e+00 6.719586253166198730e-01 9.736688137054443359e-01
2.070000000000000000e+03 1.650009155273437500e+01 -2.367563438415527344e+01 2.588181495666503906e-01 1.525128126144409180e+00 5.351839065551757812e-01 7.431674003601074219e-01
2.071000000000000000e+03 1.015890979766845703e+01 3.583450698852539062e+01 -9.586268663406372070e-02 1.468865752220153809e+00 4.119009077548980713e-01 -1.571792066097259521e-01
2.072000000000000000e+03 6.996849060058593750e+01 1.253817319869995117e+00 1.533051431179046631e-01 7.440774440765380859e+00 2.278223752975463867e+00 2.901120483875274658e-01
2.073000000000000000e+03 7.012615203857421875e+01 2.912994956970214844e+01 -1.119279712438583374e-01 8.189867019653320312e+00 2.423381805419921875e+00 2.937061488628387451e-01
2.074000000000000000e+03 3.228537750244140625e+01 -7.130259513854980469e+00 7.974455356597900391e+00 1.232921504974365234e+01 6.091101169586181641e+00 -5.843247771263122559e-01
2.075000000000000000e+03 3.221533966064453125e+01 -6.655566215515136719e+00 8.043296813964843750e+00 1.235771369934082031e+01 6.120303153991699219e+00 1.772200614213943481e-01
2.076000000000000000e+03 2.742294883728027344e+01 -3.028306722640991211e+00 2.071804523468017578e+00 6.476755619049072266e+00 2.564568042755126953e+00 -4.069845199584960938e+00
2.077000000000000000e+03 2.981660652160644531e+01 -3.664619922637939453e+00 1.153963088989257812e+00 1.417280960083007812e+01 4.598031520843505859e+00 -2.143298625946044922e+00
2.078000000000000000e+03 2.789822196960449219e+01 -3.365744113922119141e+00 2.054954290390014648e+00 7.844779014587402344e+00 2.969920158386230469e+00 -4.398300647735595703e+00
2.079000000000000000e+03 3.163752555847167969e+01 -5.782974243164062500e+00 7.553539752960205078e+00 1.389941406250000000e+01 6.435885906219482422e+00 1.765981197357177734e+00
2.080000000000000000e+03 2.848573493957519531e+01 -1.007250595092773438e+01 1.717369437217712402e+00 9.953095436096191406e+00 3.501139402389526367e+00 4.440679073333740234e+00
2.081000000000000000e+03 2.791690254211425781e+01 -1.057978916168212891e+01 1.790988087654113770e+00 7.902485847473144531e+00 2.908042192459106445e+00 4.146983623504638672e+00
2.082000000000000000e+03 3.229499435424804688e+01 -7.932576179504394531e+00 6.770379066467285156e+00 1.263564395904541016e+01 5.821806907653808594e+00 -1.562089562416076660e+00
2.083000000000000000e+03 3.226988983154296875e+01 -5.096161365509033203e+00 5.577930927276611328e+00 1.289288425445556641e+01 5.541244506835937500e+00 1.728723526000976562e+00
2.084000000000000000e+03 2.681983375549316406e+01 -2.125388860702514648e+00 1.695138812065124512e+00 5.564066886901855469e+00 2.177761554718017578e+00 -3.475352525711059570e+00
2.085000000000000000e+03 3.039100074768066406e+01 -3.521214962005615234e+00 1.244416713714599609e+00 1.424383640289306641e+01 4.646476268768310547e+00 -1.056136369705200195e+00
2.086000000000000000e+03 3.013156890869140625e+01 -3.648888349533081055e+00 1.241956353187561035e+00 1.439056110382080078e+01 4.689755439758300781e+00 -1.540312170982360840e+00
2.087000000000000000e+03 3.133812141418457031e+01 -9.120747566223144531e+00 3.568662881851196289e+00 1.477364540100097656e+01 5.502692222595214844e+00 -1.399223208427429199e+00
2.088000000000000000e+03 3.231230163574218750e+01 -9.043296813964843750e+00 4.388083457946777344e+00 1.296723079681396484e+01 5.206593990325927734e+00 -1.775340199470520020e+00
2.089000000000000000e+03 3.182078933715820312e+01 -9.302820205688476562e+00 3.636573314666748047e+00 1.366557312011718750e+01 5.190643787384033203e+00 -1.533583521842956543e+00
2.090000000000000000e+03 3.062589836120605469e+01 -1.044941234588623047e+01 1.091159939765930176e+00 1.356696319580078125e+01 4.397437095642089844e+00 7.736415863037109375e-01
2.091000000000000000e+03 3.033651161193847656e+01 -1.012294769287109375e+01 1.172241926193237305e+00 1.406785964965820312e+01 4.572030544281005859e+00 1.124935865402221680e+00
2.092000000000000000e+03 2.503553771972656250e+01 -1.128694152832031250e+01 1.858410239219665527e+00 2.597000360488891602e+00 1.336623191833496094e+00 2.224338531494140625e+00
2.093000000000000000e+03 2.704965591430664062e+01 -1.128657054901123047e+01 1.806556344032287598e+00 5.763229846954345703e+00 2.270935773849487305e+00 3.626990556716918945e+00
2.094000000000000000e+03 2.431644439697265625e+01 -1.220807647705078125e+01 1.512030482292175293e+00 2.529635667800903320e+00 1.212499856948852539e+00 1.947308659553527832e+00
2.095000000000000000e+03 2.299300575256347656e+01 -1.367215156555175781e+01 1.085970401763916016e+00 2.282389640808105469e+00 1.010508060455322266e+00 1.588312149047851562e+00
2.096000000000000000e+03 2.405555152893066406e+01 -1.310738945007324219e+01 1.268814682960510254e+00 2.785751104354858398e+00 1.216369748115539551e+00 1.925665378570556641e+00
2.097000000000000000e+03 2.621541404724121094e+01 -2.020138740539550781e+00 1.778431653976440430e+00 4.449433803558349609e+00 1.868359684944152832e+00 -3.133983850479125977e+00
2.098000000000000000e+03 2.665808868408203125e+01 -1.174084854125976562e+01 1.682860851287841797e+00 5.269346237182617188e+00 2.085662126541137695e+00 3.290327548980712891e+00
2.099000000000000000e+03 2.614682197570800781e+01 -1.163176536560058594e+01 1.850473761558532715e+00 4.253450393676757812e+00 1.831177234649658203e+00 3.047209262847900391e+00
2.100000000000000000e+03 2.541505432128906250e+01 -1.136806249618530273e+00 1.357824563980102539e+00 3.924426317214965820e+00 1.584675312042236328e+00 -2.615353345870971680e+00
2.101000000000000000e+03 2.568204689025878906e+01 2.754276037216186523e+00 3.736631274223327637e-01 5.154901504516601562e+00 1.658569335937500000e+00 -2.395172834396362305e+00
2.102000000000000000e+03 2.520795059204101562e+01 5.428913116455078125e+00 2.401629984378814697e-01 4.971658229827880859e+00 1.563546299934387207e+00 -2.105433464050292969e+00
2.103000000000000000e+03 2.417998313903808594e+01 1.943024545907974243e-01 9.654965400695800781e-01 3.282553911209106445e+00 1.274415135383605957e+00 -2.163987398147583008e+00
2.104000000000000000e+03 2.362530517578125000e+01 7.150475978851318359e-01 7.865192890167236328e-01 3.047577142715454102e+00 1.150228857994079590e+00 -1.944773912429809570e+00
2.105000000000000000e+03 2.542732810974121094e+01 3.719459056854248047e+00 2.921179831027984619e-01 5.033901214599609375e+00 1.597805857658386230e+00 -2.283812761306762695e+00
2.106000000000000000e+03 2.454460716247558594e+01 5.687662959098815918e-01 8.996169567108154297e-01 3.717399358749389648e+00 1.385104894638061523e+00 -2.295102357864379883e+00
2.107000000000000000e+03 2.058068275451660156e+01 2.091542243957519531e+01 -1.234120950102806091e-01 3.745118141174316406e+00 1.086511850357055664e+00 -7.487865090370178223e-01
2.108000000000000000e+03 2.653390884399414062e+01 1.071589851379394531e+01 5.106880515813827515e-02 5.424537658691406250e+00 1.642681956291198730e+00 -1.465618848800659180e+00
2.109000000000000000e+03 2.491693496704101562e+01 1.038011932373046875e+01 2.409004718065261841e-01 4.864229202270507812e+00 1.531538963317871094e+00 -1.551249623298645020e+00
2.110000000000000000e+03 6.860715484619140625e+01 2.688305854797363281e+00 1.739687174558639526e-01 7.493298530578613281e+00 2.300180196762084961e+00 3.573709428310394287e-01
2.111000000000000000e+03 6.847864532470703125e+01 1.273861765861511230e+00 1.959753185510635376e-01 7.466468334197998047e+00 2.298732995986938477e+00 3.199403882026672363e-01
2.112000000000000000e+03 2.329081916809082031e+01 -1.678632164001464844e+01 5.547497272491455078e-01 3.374580860137939453e+00 1.178799152374267578e+00 1.784151434898376465e+00
2.113000000000000000e+03 2.484578514099121094e+01 -1.695162582397460938e+01 4.369143247604370117e-01 4.415403366088867188e+00 1.455695271492004395e+00 2.040226697921752930e+00
2.114000000000000000e+03 7.025254058837890625e+01 5.164567947387695312e+00 1.094999685883522034e-01 7.527535438537597656e+00 2.291110515594482422e+00 3.742353618144989014e-01
2.115000000000000000e+03 6.742206573486328125e+01 4.381671428680419922e+00 1.784819811582565308e-01 7.547138214111328125e+00 2.317686080932617188e+00 4.295134246349334717e-01
2.116000000000000000e+03 6.973487854003906250e+01 8.859629631042480469e+00 6.677345186471939087e-02 7.640449523925781250e+00 2.312166929244995117e+00 4.450907111167907715e-01
2.117000000000000000e+03 6.548727416992187500e+01 -2.521177291870117188e+01 -3.114578127861022949e-02 7.683526039123535156e+00 2.295714139938354492e+00 -3.971485495567321777e-01
2.118000000000000000e+03 6.681370544433593750e+01 -2.761251068115234375e+01 -7.670630514621734619e-02 7.701417446136474609e+00 2.287413358688354492e+00 -3.502001762390136719e-01
2.119000000000000000e+03 7.015074920654296875e+01 -1.261068630218505859e+01 1.531643718481063843e-01 7.365415096282958984e+00 2.255573749542236328e+00 -1.443614214658737183e-01
2.120000000000000000e+03 6.863645935058593750e+01 -5.881211280822753906e+00 2.378662675619125366e-01 7.376470088958740234e+00 2.284301042556762695e+00 7.388899475336074829e-02
2.121000000000000000e+03 6.895410156250000000e+01 -1.130484199523925781e+01 2.024670690298080444e-01 7.379923820495605469e+00 2.274717330932617188e+00 -1.147154271602630615e-01
2.122000000000000000e+03 7.012252044677734375e+01 -8.535061836242675781e+00 1.797894984483718872e-01 7.340298652648925781e+00 2.256026506423950195e+00 -2.024371549487113953e-02
2.123000000000000000e+03 2.017774772644042969e+01 -2.196775627136230469e+01 1.831595152616500854e-01 2.589304685592651367e+00 8.317392468452453613e-01 1.146588802337646484e+00
2.124000000000000000e+03 2.357570457458496094e+01 -1.910025024414062500e+01 2.522822916507720947e-01 3.877389669418334961e+00 1.238901615142822266e+00 1.674232244491577148e+00
2.125000000000000000e+03 6.857711029052734375e+01 -2.009219169616699219e+01 6.842362135648727417e-02 7.523221492767333984e+00 2.277493476867675781e+00 -3.172475993633270264e-01
2.126000000000000000e+03 2.243988037109375000e+01 -1.835808372497558594e+01 3.911320269107818604e-01 3.186252117156982422e+00 1.073215246200561523e+00 1.595762848854064941e+00
2.127000000000000000e+03 2.795021247863769531e+01 6.948614120483398438e+00 -9.553500264883041382e-02 6.357480525970458984e+00 1.878583669662475586e+00 -1.767275094985961914e+00
2.128000000000000000e+03 6.826643371582031250e+01 -2.746851539611816406e+01 -6.409692764282226562e-02 7.676880359649658203e+00 2.283835172653198242e+00 -3.286405503749847412e-01
2.129000000000000000e+03 6.738676452636718750e+01 1.464245319366455078e+01 -8.890695869922637939e-03 7.801413536071777344e+00 2.337756872177124023e+00 5.411676168441772461e-01
2.130000000000000000e+03 2.715388298034667969e+01 6.323881626129150391e+00 -4.979824647307395935e-03 6.029856681823730469e+00 1.807463049888610840e+00 -1.918544650077819824e+00
2.131000000000000000e+03 2.807988929748535156e+01 8.524538993835449219e+00 -1.040188595652580261e-01 6.181396484375000000e+00 1.823213338851928711e+00 -1.591239690780639648e+00
2.132000000000000000e+03 1.056930541992187500e+01 -2.797824478149414062e+01 1.858085542917251587e-01 5.837881565093994141e-01 2.308790236711502075e-01 1.077085062861442566e-01
2.133000000000000000e+03 7.036965942382812500e+01 -2.344384002685546875e+01 7.363022770732641220e-03 7.556357383728027344e+00 2.269116163253784180e+00 -3.016492724418640137e-01
2.134000000000000000e+03 6.717794799804687500e+01 2.213699340820312500e+01 -1.126820966601371765e-01 7.974141597747802734e+00 2.358438014984130859e+00 4.720956981182098389e-01
2.135000000000000000e+03 2.214450073242187500e+01 2.092900848388671875e+01 -1.748152673244476318e-01 4.113831043243408203e+00 1.181704759597778320e+00 -7.444734573364257812e-01
2.136000000000000000e+03 1.215615272521972656e+01 -2.929682540893554688e+01 1.758829802274703979e-01 9.350695610046386719e-01 3.332857787609100342e-01 2.010779678821563721e-01
2.137000000000000000e+03 1.684659004211425781e+01 2.304332351684570312e+01 -8.256314694881439209e-02 2.761701107025146484e+00 8.037413954734802246e-01 -7.705822587013244629e-01
2.138000000000000000e+03 2.792363357543945312e+01 1.123524475097656250e+01 -1.097582057118415833e-01 5.876103401184082031e+00 1.729903459548950195e+00 -1.322774291038513184e+00
2.139000000000000000e+03 2.635611915588378906e+01 1.209658718109130859e+01 5.544422566890716553e-02 5.253113746643066406e+00 1.592567443847656250e+00 -1.306213498115539551e+00
2.140000000000000000e+03 2.852051544189453125e+01 -3.251438140869140625e+00 1.505295991897583008e+00 1.006566524505615234e+01 3.471288442611694336e+00 -4.172698020935058594e+00
2.141000000000000000e+03 2.949002647399902344e+01 -2.658450841903686523e+00 7.398043870925903320e-01 1.175711822509765625e+01 3.749076604843139648e+00 -2.721856355667114258e+00
2.142000000000000000e+03 2.771387863159179688e+01 -2.687487363815307617e+00 1.696534156799316406e+00 7.639203071594238281e+00 2.800721168518066406e+00 -4.019194602966308594e+00
2.143000000000000000e+03 3.208899688720703125e+01 -6.266846656799316406e+00 8.163905143737792969e+00 1.273124599456787109e+01 6.268545150756835938e+00 9.355998039245605469e-01
2.144000000000000000e+03 3.246223449707031250e+01 -7.618331909179687500e+00 7.127922058105468750e+00 1.219597339630126953e+01 5.797168731689453125e+00 -1.183441519737243652e+00
2.145000000000000000e+03 2.705865669250488281e+01 -1.082891464233398438e+01 2.091490268707275391e+00 5.504700183868408203e+00 2.278857231140136719e+00 3.753224611282348633e+00
2.146000000000000000e+03 2.894119834899902344e+01 -1.011784362792968750e+01 1.302491903305053711e+00 1.139260959625244141e+01 3.808530330657958984e+00 3.893418073654174805e+00
2.147000000000000000e+03 3.149131393432617188e+01 -4.501160144805908203e+00 3.729272603988647461e+00 1.449623870849609375e+01 5.467653274536132812e+00 1.458340644836425781e+00
2.148000000000000000e+03 2.964055824279785156e+01 -1.060943126678466797e+01 8.211394548416137695e-01 1.243396472930908203e+01 3.976531267166137695e+00 2.582362890243530273e+00
2.149000000000000000e+03 3.249835205078125000e+01 -8.393828392028808594e+00 5.721745967864990234e+00 1.247999572753906250e+01 5.460522651672363281e+00 -1.696639180183410645e+00
2.150000000000000000e+03 3.273024368286132812e+01 -8.797986984252929688e+00 4.842228889465332031e+00 1.225306797027587891e+01 5.128589153289794922e+00 -1.691570639610290527e+00
2.151000000000000000e+03 3.127561569213867188e+01 -4.306838512420654297e+00 3.159516811370849609e+00 1.469924449920654297e+01 5.357628345489501953e+00 1.110132813453674316e+00
2.152000000000000000e+03 2.746318817138671875e+01 -1.089799594879150391e+01 1.868752956390380859e+00 6.601255416870117188e+00 2.541002511978149414e+00 3.891680955886840820e+00
2.153000000000000000e+03 3.125644493103027344e+01 -9.982075691223144531e+00 1.987071633338928223e+00 1.397487068176269531e+01 4.788582801818847656e+00 -4.599062204360961914e-01
2.154000000000000000e+03 3.126926994323730469e+01 -9.544512748718261719e+00 2.703173160552978516e+00 1.450881862640380859e+01 5.163597583770751953e+00 -9.296649694442749023e-01
2.155000000000000000e+03 3.177413940429687500e+01 -9.713955879211425781e+00 2.861153841018676758e+00 1.358805370330810547e+01 4.934762001037597656e+00 -1.202988386154174805e+00
2.156000000000000000e+03 2.833244705200195312e+01 -1.168086147308349609e+01 9.991197586059570312e-01 8.648492813110351562e+00 2.894283533096313477e+00 3.402419090270996094e+00
2.157000000000000000e+03 2.762159729003906250e+01 -3.249907493591308594e+00 2.180170059204101562e+00 6.988927841186523438e+00 2.750729322433471680e+00 -4.291461467742919922e+00
2.158000000000000000e+03 2.693960380554199219e+01 -2.653498888015747070e+00 1.951831579208374023e+00 5.507803916931152344e+00 2.237890720367431641e+00 -3.670774698257446289e+00
2.159000000000000000e+03 2.462022209167480469e+01 -1.282392501831054688e+01 1.389895200729370117e+00 3.131282567977905273e+00 1.356353402137756348e+00 2.177491903305053711e+00
2.160000000000000000e+03 2.609209823608398438e+01 -1.222922229766845703e+01 1.562574148178100586e+00 4.463342666625976562e+00 1.807775139808654785e+00 2.911070346832275391e+00
2.161000000000000000e+03 2.575040626525878906e+01 -1.321757555007934570e+00 1.416432619094848633e+00 4.188075065612792969e+00 1.681352376937866211e+00 -2.796128749847412109e+00
2.162000000000000000e+03 2.543237304687500000e+01 -4.515282511711120605e-01 1.169652938842773438e+00 4.242455482482910156e+00 1.623632550239562988e+00 -2.629137039184570312e+00
2.163000000000000000e+03 2.712586784362792969e+01 -1.172163963317871094e+01 1.546138763427734375e+00 6.128108978271484375e+00 2.302274465560913086e+00 3.469216346740722656e+00
2.164000000000000000e+03 2.487435340881347656e+01 2.455805838108062744e-01 9.730848073959350586e-01 3.899250507354736328e+00 1.461700558662414551e+00 -2.411712884902954102e+00
2.165000000000000000e+03 2.484749031066894531e+01 1.010568261146545410e+00 7.526971101760864258e-01 4.153566360473632812e+00 1.471879005432128906e+00 -2.358781099319458008e+00
2.166000000000000000e+03 2.379076576232910156e+01 -1.408321189880371094e+01 1.047434806823730469e+00 2.996132612228393555e+00 1.213070154190063477e+00 1.895013332366943359e+00
2.167000000000000000e+03 2.350642585754394531e+01 -1.339252281188964844e+01 1.164964556694030762e+00 2.480068206787109375e+00 1.093509793281555176e+00 1.722778677940368652e+00
2.168000000000000000e+03 2.554439353942871094e+01 -1.223713970184326172e+01 1.628828048706054688e+00 3.783709287643432617e+00 1.623761177062988281e+00 2.670814752578735352e+00
2.169000000000000000e+03 2.516121482849121094e+01 -1.131928637623786926e-01 1.069247722625732422e+00 4.030095100402832031e+00 1.529802799224853516e+00 -2.516212701797485352e+00
2.170000000000000000e+03 2.660501670837402344e+01 3.054575920104980469e+00 2.280879467725753784e-01 5.882181167602539062e+00 1.833080768585205078e+00 -2.369840145111083984e+00
2.171000000000000000e+03 2.510561370849609375e+01 1.528390884399414062e+00 6.405455470085144043e-01 4.481967926025390625e+00 1.536754012107849121e+00 -2.408341884613037109e+00
2.172000000000000000e+03 2.593607902526855469e+01 1.842966198921203613e+00 5.044640302658081055e-01 5.297650337219238281e+00 1.740634322166442871e+00 -2.525384426116943359e+00
2.173000000000000000e+03 2.709088516235351562e+01 2.685718297958374023e+00 1.977076679468154907e-01 6.279032230377197266e+00 1.943021893501281738e+00 -2.392066717147827148e+00
2.174000000000000000e+03 2.698350524902343750e+01 4.844145298004150391e+00 5.341545864939689636e-02 6.045536994934082031e+00 1.829685807228088379e+00 -2.109083175659179688e+00
2.175000000000000000e+03 2.402448654174804688e+01 -1.613086509704589844e+01 6.434510946273803711e-01 3.728267431259155273e+00 1.311515569686889648e+00 1.949395179748535156e+00
2.176000000000000000e+03 2.614122390747070312e+01 5.256819725036621094e+00 1.446453332901000977e-01 5.534228801727294922e+00 1.703662276268005371e+00 -2.110560894012451172e+00
2.177000000000000000e+03 2.497058868408203125e+01 1.593942451477050781e+01 -2.879071049392223358e-03 4.833147048950195312e+00 1.449080348014831543e+00 -9.956209659576416016e-01
2.178000000000000000e+03 2.397294425964355469e+01 1.728665542602539062e+01 -1.505288109183311462e-02 4.534705638885498047e+00 1.355895876884460449e+00 -9.054149389266967773e-01
2.179000000000000000e+03 2.770184898376464844e+01 5.534389972686767578e+00 -4.504141956567764282e-02 6.388537883758544922e+00 1.903048872947692871e+00 -1.947902202606201172e+00
2.180000000000000000e+03 2.921382331848144531e+01 9.214100837707519531e+00 -2.135591804981231689e-01 6.492764472961425781e+00 1.883761644363403320e+00 -1.348155617713928223e+00
2.181000000000000000e+03 2.224289512634277344e+01 -2.211417198181152344e+01 6.834696978330612183e-02 3.484683036804199219e+00 1.065909028053283691e+00 1.361572384834289551e+00
2.182000000000000000e+03 2.422865295410156250e+01 -1.785697364807128906e+01 3.327454030513763428e-01 4.112518310546875000e+00 1.333579063415527344e+00 1.867221951484680176e+00
2.183000000000000000e+03 2.318609046936035156e+01 -1.434293556213378906e+01 9.623897075653076172e-01 2.652101993560791016e+00 1.084347486495971680e+00 1.706677198410034180e+00
2.184000000000000000e+03 6.991350555419921875e+01 -1.536032915115356445e+00 1.766683608293533325e-01 7.392924785614013672e+00 2.270877838134765625e+00 2.107493728399276733e-01
2.185000000000000000e+03 6.842143249511718750e+01 -1.678119897842407227e-01 2.127059996128082275e-01 7.441456317901611328e+00 2.296248674392700195e+00 2.773033082485198975e-01
2.186000000000000000e+03 6.848937225341796875e+01 -3.039947986602783203e+00 2.333403378725051880e-01 7.400840282440185547e+00 2.290254116058349609e+00 1.790946871042251587e-01
2.187000000000000000e+03 6.776230621337890625e+01 -1.148406696319580078e+01 2.411901503801345825e-01 7.406387805938720703e+00 2.294273376464843750e+00 -1.313225626945495605e-01
2.188000000000000000e+03 6.785717010498046875e+01 -1.257875156402587891e+01 2.135776281356811523e-01 7.416354656219482422e+00 2.288979768753051758e+00 -1.671684980392456055e-01
2.189000000000000000e+03 2.627596092224121094e+01 1.476792812347412109e+01 -4.254251345992088318e-02 5.154284477233886719e+00 1.533522605895996094e+00 -1.070393919944763184e+00
2.190000000000000000e+03 6.686093902587890625e+01 7.714545249938964844e+00 1.247060969471931458e-01 7.634879112243652344e+00 2.327875614166259766e+00 5.109950900077819824e-01
2.191000000000000000e+03 6.535000610351562500e+01 1.245285034179687500e+01 3.568485379219055176e-02 7.748819828033447266e+00 2.335351467132568359e+00 5.813713073730468750e-01
2.192000000000000000e+03 6.799948883056640625e+01 1.147676086425781250e+01 4.446770623326301575e-02 7.723867416381835938e+00 2.330500602722167969e+00 5.171207189559936523e-01
2.193000000000000000e+03 2.280030059814453125e+01 1.757099342346191406e+01 4.037216678261756897e-02 4.296865463256835938e+00 1.301171183586120605e+00 -8.914272785186767578e-01
2.194000000000000000e+03 6.682852935791015625e+01 -1.700518608093261719e+01 1.651308983564376831e-01 7.499275684356689453e+00 2.299321889877319336e+00 -3.004545569419860840e-01
2.195000000000000000e+03 6.615858459472656250e+01 -1.881675148010253906e+01 1.331383436918258667e-01 7.547184467315673828e+00 2.304096937179565430e+00 -3.494838774204254150e-01
2.196000000000000000e+03 6.386338424682617188e+01 -1.984361076354980469e+01 1.346712261438369751e-01 7.611417293548583984e+00 2.323826551437377930e+00 -4.106803834438323975e-01
2.197000000000000000e+03 2.098889923095703125e+01 -2.343437004089355469e+01 7.210635393857955933e-02 3.101620197296142578e+00 9.521179199218750000e-01 1.183250904083251953e+00
2.198000000000000000e+03 6.818621063232421875e+01 8.498655319213867188e+00 9.448154270648956299e-02 7.641135692596435547e+00 2.320685148239135742e+00 4.873354732990264893e-01
2.199000000000000000e+03 2.464769744873046875e+01 1.843647575378417969e+01 -1.273744404315948486e-01 4.719316482543945312e+00 1.377582550048828125e+00 -8.250115513801574707e-01
2.200000000000000000e+03 2.527382087707519531e+01 -2.611400604248046875e+01 -4.002282917499542236e-01 4.813899517059326172e+00 1.324101448059082031e+00 1.092498540878295898e+00
2.201000000000000000e+03 2.784044075012207031e+01 1.237058734893798828e+01 -1.228045448660850525e-01 5.764037609100341797e+00 1.692369818687438965e+00 -1.206765294075012207e+00
2.202000000000000000e+03 2.885822868347167969e+01 7.588619232177734375e+00 -1.840311586856842041e-01 6.634469509124755859e+00 1.935131549835205078e+00 -1.557448029518127441e+00
2.203000000000000000e+03 3.043108749389648438e+01 9.864045143127441406e+00 -3.146508336067199707e-01 6.822460174560546875e+00 1.952342867851257324e+00 -1.106926679611206055e+00
2.204000000000000000e+03 1.825911903381347656e+01 2.647943305969238281e+01 -2.359452098608016968e-01 3.083356857299804688e+00 8.542234897613525391e-01 -6.105013489723205566e-01
2.205000000000000000e+03 3.250037765502929688e+01 -5.754556179046630859e+00 6.721434593200683594e+00 1.221832656860351562e+01 5.681928157806396484e+00 1.273723483085632324e+00
2.206000000000000000e+03 3.279156494140625000e+01 -5.519598960876464844e+00 6.124324321746826172e+00 1.195816612243652344e+01 5.424746990203857422e+00 1.390313744544982910e+00
2.207000000000000000e+03 3.268003082275390625e+01 -6.457128047943115234e+00 7.311208724975585938e+00 1.175375843048095703e+01 5.719490051269531250e+00 4.594517946243286133e-01
2.208000000000000000e+03 3.265793228149414062e+01 -8.093957901000976562e+00 6.209559917449951172e+00 1.209740447998046875e+01 5.492089271545410156e+00 -1.505342602729797363e+00
2.209000000000000000e+03 2.830825233459472656e+01 -1.111190986633300781e+01 1.250499367713928223e+00 8.808275222778320312e+00 3.017632484436035156e+00 3.730101585388183594e+00
2.210000000000000000e+03 3.058257865905761719e+01 -2.978829860687255859e+00 9.687873125076293945e-01 1.339188861846923828e+01 4.308202743530273438e+00 -9.823600649833679199e-01
2.211000000000000000e+03 3.284127426147460938e+01 -6.974391937255859375e+00 7.241378307342529297e+00 1.151953601837158203e+01 5.628274440765380859e+00 -2.513332962989807129e-01
2.212000000000000000e+03 3.097738838195800781e+01 -3.207350730895996094e+00 1.438728213310241699e+00 1.366863822937011719e+01 4.532209873199462891e+00 -2.122656553983688354e-01
2.213000000000000000e+03 2.726759338378906250e+01 -1.817988395690917969e+00 1.398455858230590820e+00 6.509404182434082031e+00 2.372357845306396484e+00 -3.530855417251586914e+00
2.214000000000000000e+03 2.740250205993652344e+01 -1.141633796691894531e+01 1.570740818977355957e+00 6.555822372436523438e+00 2.437968969345092773e+00 3.602010726928710938e+00
2.215000000000000000e+03 2.966323852539062500e+01 -3.053311824798583984e+00 8.506032228469848633e-01 1.271420192718505859e+01 4.069441318511962891e+00 -2.510404586791992188e+00
2.216000000000000000e+03 2.960580062866210938e+01 -1.106810760498046875e+01 6.810572743415832520e-01 1.171205329895019531e+01 3.717933177947998047e+00 2.543673753738403320e+00
2.217000000000000000e+03 3.288269424438476562e+01 -4.668009281158447266e+00 4.755382537841796875e+00 1.209280872344970703e+01 5.054457664489746094e+00 1.627516627311706543e+00
2.218000000000000000e+03 2.850734329223632812e+01 -1.058900642395019531e+01 1.395922303199768066e+00 9.720003128051757812e+00 3.334777593612670898e+00 3.981194496154785156e+00
2.219000000000000000e+03 2.783292388916015625e+01 -1.160152530670166016e+01 1.301751375198364258e+00 7.510640144348144531e+00 2.643717527389526367e+00 3.595806837081909180e+00
2.220000000000000000e+03 3.006904029846191406e+01 -1.069945335388183594e+01 7.762861847877502441e-01 1.290903282165527344e+01 4.105595588684082031e+00 1.760374069213867188e+00
2.221000000000000000e+03 2.866215324401855469e+01 -2.694216728210449219e+00 1.134014248847961426e+00 9.970864295959472656e+00 3.331463575363159180e+00 -3.678626775741577148e+00
2.222000000000000000e+03 2.997531509399414062e+01 -2.938923835754394531e+00 8.111250996589660645e-01 1.281583118438720703e+01 4.088087081909179688e+00 -1.958035111427307129e+00
2.223000000000000000e+03 2.927945709228515625e+01 -2.279128789901733398e+00 6.794599890708923340e-01 1.084775924682617188e+01 3.458165645599365234e+00 -2.876882314682006836e+00
2.224000000000000000e+03 3.100183486938476562e+01 -1.070129776000976562e+01 1.133549571037292480e+00 1.306629371643066406e+01 4.259953022003173828e+00 3.928261697292327881e-01
2.225000000000000000e+03 2.816695785522460938e+01 -2.542700529098510742e+00 1.355006814002990723e+00 8.590497970581054688e+00 2.983651638031005859e+00 -3.830850839614868164e+00
2.226000000000000000e+03 3.228573608398437500e+01 -9.418340682983398438e+00 3.734853506088256836e+00 1.298276329040527344e+01 5.015285015106201172e+00 -1.636868476867675781e+00
2.227000000000000000e+03 3.159400367736816406e+01 -1.057721328735351562e+01 1.591416597366333008e+00 1.304982089996337891e+01 4.392371177673339844e+00 -3.972031176090240479e-01
2.228000000000000000e+03 2.509678077697753906e+01 -1.249348449707031250e+01 1.521998167037963867e+00 3.377437353134155273e+00 1.469830632209777832e+00 2.382690191268920898e+00
2.229000000000000000e+03 2.668249893188476562e+01 -1.233647251129150391e+01 1.381731510162353516e+00 5.486850738525390625e+00 2.060574531555175781e+00 3.153274536132812500e+00
2.230000000000000000e+03 2.657094764709472656e+01 -1.670096278190612793e+00 1.489560723304748535e+00 5.277491569519042969e+00 2.030115842819213867e+00 -3.220283508300781250e+00
2.231000000000000000e+03 2.579048919677734375e+01 -5.770220160484313965e-01 1.192957401275634766e+00 4.604235172271728516e+00 1.739157795906066895e+00 -2.782904148101806641e+00
2.232000000000000000e+03 2.434277343750000000e+01 -1.376320648193359375e+01 1.144603133201599121e+00 3.280388355255126953e+00 1.327497482299804688e+00 2.091108798980712891e+00
2.233000000000000000e+03 2.546184730529785156e+01 -1.332870388031005859e+01 1.245862126350402832e+00 4.184483528137207031e+00 1.629103660583496094e+00 2.551847934722900391e+00
2.234000000000000000e+03 2.623700141906738281e+01 2.451521396636962891e+00 3.461240231990814209e-01 5.597875118255615234e+00 1.783199787139892578e+00 -2.452517509460449219e+00
2.235000000000000000e+03 2.537293052673339844e+01 2.121682643890380859e+00 5.083478093147277832e-01 4.828825950622558594e+00 1.601152181625366211e+00 -2.425071954727172852e+00
2.236000000000000000e+03 2.950885009765625000e+01 6.666450977325439453e+00 -2.409666627645492554e-01 7.075201988220214844e+00 2.050270557403564453e+00 -1.523417234420776367e+00
2.237000000000000000e+03 2.465490341186523438e+01 -1.440216445922851562e+01 1.003625869750976562e+00 3.796241760253906250e+00 1.439960241317749023e+00 2.219737768173217773e+00
2.238000000000000000e+03 2.706459999084472656e+01 3.656606912612915039e+00 1.134952753782272339e-01 6.197195053100585938e+00 1.893207073211669922e+00 -2.253172874450683594e+00
2.239000000000000000e+03 2.763023185729980469e+01 4.243233680725097656e+00 -4.680492449551820755e-03 6.551278114318847656e+00 1.963979244232177734e+00 -2.109993934631347656e+00
2.240000000000000000e+03 2.461320304870605469e+01 -1.552912044525146484e+01 7.416020035743713379e-01 4.022517204284667969e+00 1.429235696792602539e+00 2.126064062118530273e+00
2.241000000000000000e+03 2.942757225036621094e+01 1.421456909179687500e+01 -2.879943847656250000e-01 6.045108318328857422e+00 1.727134227752685547e+00 -9.461793899536132812e-01
2.242000000000000000e+03 2.897027969360351562e+01 1.198135089874267578e+01 -2.138193547725677490e-01 6.107829570770263672e+00 1.768203139305114746e+00 -1.135653376579284668e+00
2.243000000000000000e+03 2.411344337463378906e+01 -1.480571746826171875e+01 9.291135072708129883e-01 3.469944715499877930e+00 1.319717407226562500e+00 2.036306142807006836e+00
2.244000000000000000e+03 2.343586349487304688e+01 -1.519607734680175781e+01 8.579285144805908203e-01 3.063334703445434570e+00 1.176378965377807617e+00 1.823757648468017578e+00
2.245000000000000000e+03 6.605360412597656250e+01 -1.048366641998291016e+01 3.150580525398254395e-01 7.426321029663085938e+00 2.322413682937622070e+00 -1.087209880352020264e-01
2.246000000000000000e+03 6.902567291259765625e+01 6.146065711975097656e+00 1.151408329606056213e-01 7.573161602020263672e+00 2.306490898132324219e+00 4.266271293163299561e-01
2.247000000000000000e+03 2.485540008544921875e+01 -1.989179420471191406e+01 5.084531754255294800e-02 4.706511020660400391e+00 1.427206873893737793e+00 1.729260802268981934e+00
2.248000000000000000e+03 2.858216476440429688e+01 6.115174770355224609e+00 -1.558823287487030029e-01 6.769569396972656250e+00 1.984106183052062988e+00 -1.740263104438781738e+00
2.249000000000000000e+03 2.991817092895507812e+01 8.197128295898437500e+00 -2.743864059448242188e-01 6.931383132934570312e+00 1.997099041938781738e+00 -1.322942137718200684e+00
2.250000000000000000e+03 6.699604034423828125e+01 -3.179286956787109375e+00 2.914076149463653564e-01 7.421832561492919922e+00 2.313971996307373047e+00 1.889993846416473389e-01
2.251000000000000000e+03 6.724765777587890625e+01 -6.038730621337890625e+00 2.920311093330383301e-01 7.399127960205078125e+00 2.307347774505615234e+00 7.401158660650253296e-02
2.252000000000000000e+03 2.620946311950683594e+01 1.601269912719726562e+01 -9.262772649526596069e-02 5.081555366516113281e+00 1.496678233146667480e+00 -9.768298268318176270e-01
2.253000000000000000e+03 6.693154144287109375e+01 1.339361548423767090e+00 2.428871393203735352e-01 7.488222599029541016e+00 2.319332838058471680e+00 3.517260849475860596e-01
2.254000000000000000e+03 6.748274993896484375e+01 -1.027806186676025391e+01 2.580197751522064209e-01 7.403023242950439453e+00 2.298312902450561523e+00 -9.176422655582427979e-02
2.255000000000000000e+03 6.855038452148437500e+01 -1.548819828033447266e+01 1.583410948514938354e-01 7.439379215240478516e+00 2.279316186904907227e+00 -2.381912320852279663e-01
2.256000000000000000e+03 6.906593322753906250e+01 5.160182476043701172e+00 1.351532340049743652e-01 7.541602611541748047e+00 2.303026676177978516e+00 4.046529531478881836e-01
2.257000000000000000e+03 6.724405670166015625e+01 -1.530823040008544922e+01 1.914436817169189453e-01 7.462509632110595703e+00 2.296185970306396484e+00 -2.530121207237243652e-01
2.258000000000000000e+03 6.477174377441406250e+01 2.241752052307128906e+01 -1.610631644725799561e-01 7.928959846496582031e+00 2.330368995666503906e+00 5.129305720329284668e-01
2.259000000000000000e+03 6.745612335205078125e+01 6.581337928771972656e+00 1.397723406553268433e-01 7.595003604888916016e+00 2.320432901382446289e+00 4.691562354564666748e-01
2.260000000000000000e+03 6.733803558349609375e+01 -7.468688964843750000e+00 2.858283221721649170e-01 7.395998477935791016e+00 2.304548025131225586e+00 1.463321130722761154e-02
2.261000000000000000e+03 2.627252197265625000e+01 -2.357588577270507812e+01 -3.536119163036346436e-01 5.228099346160888672e+00 1.462346196174621582e+00 1.328138232231140137e+00
2.262000000000000000e+03 2.349284362792968750e+01 -2.312415885925292969e+01 -8.574354648590087891e-02 4.111136913299560547e+00 1.207617998123168945e+00 1.355946302413940430e+00
2.263000000000000000e+03 6.627362823486328125e+01 1.368547725677490234e+01 1.114976033568382263e-02 7.775615692138671875e+00 2.336029529571533203e+00 5.661524534225463867e-01
2.264000000000000000e+03 6.670225524902343750e+01 1.164086914062500000e+01 4.788718000054359436e-02 7.726789474487304688e+00 2.332402944564819336e+00 5.514923334121704102e-01
2.265000000000000000e+03 1.463127517700195312e+01 -2.871911048889160156e+01 1.655888259410858154e-01 1.465424299240112305e+00 4.893039464950561523e-01 4.651473462581634521e-01
2.266000000000000000e+03 2.435005950927734375e+01 -2.147146224975585938e+01 -5.304703861474990845e-02 4.442739486694335938e+00 1.316907763481140137e+00 1.532271265983581543e+00
2.267000000000000000e+03 1.996402931213378906e+01 2.493400955200195312e+01 -2.634728550910949707e-01 3.499586582183837891e+00 9.708340764045715332e-01 -6.413794159889221191e-01
2.268000000000000000e+03 1.770531082153320312e+01 3.026781463623046875e+01 -2.800757288932800293e-01 2.970564365386962891e+00 8.071466088294982910e-01 -4.509308338165283203e-01
2.269000000000000000e+03 1.736808776855468750e+01 -2.547695922851562500e+01 1.332498490810394287e-01 1.979354023933410645e+00 6.337811350822448730e-01 7.410184741020202637e-01
2.270000000000000000e+03 7.139102172851562500e+01 -2.140913772583007812e+01 2.685494348406791687e-02 7.490838527679443359e+00 2.255308151245117188e+00 -2.700687944889068604e-01
2.271000000000000000e+03 2.868428802490234375e+01 -1.098733043670654297e+01 1.067180275917053223e+00 9.804605484008789062e+00 3.261535644531250000e+00 3.542202949523925781e+00
2.272000000000000000e+03 3.236566925048828125e+01 -6.334908008575439453e+00 7.663084030151367188e+00 1.219054126739501953e+01 5.956087589263916016e+00 6.748226881027221680e-01
2.273000000000000000e+03 2.752879142761230469e+01 -2.192102432250976562e+00 1.462889432907104492e+00 6.952688217163085938e+00 2.524673223495483398e+00 -3.712760686874389648e+00
2.274000000000000000e+03 2.788619613647460938e+01 -1.104467868804931641e+01 1.557416081428527832e+00 7.722609043121337891e+00 2.784007549285888672e+00 3.888667821884155273e+00
2.275000000000000000e+03 3.009896659851074219e+01 -2.558360099792480469e+00 6.774346232414245605e-01 1.244631576538085938e+01 3.937125205993652344e+00 -1.814015626907348633e+00
2.276000000000000000e+03 3.150144386291503906e+01 -4.047721385955810547e+00 2.947419881820678711e+00 1.412029933929443359e+01 5.120316028594970703e+00 1.047361254692077637e+00
2.277000000000000000e+03 3.041295051574707031e+01 -2.706395149230957031e+00 7.951296567916870117e-01 1.286369037628173828e+01 4.097646236419677734e+00 -1.338351488113403320e+00
2.278000000000000000e+03 3.270638656616210938e+01 -9.446443557739257812e+00 3.818004846572875977e+00 1.240740108489990234e+01 4.867621898651123047e+00 -1.616491317749023438e+00
2.279000000000000000e+03 2.825317955017089844e+01 -1.854616045951843262e+00 9.687070250511169434e-01 8.498352050781250000e+00 2.840117931365966797e+00 -3.444087982177734375e+00
2.280000000000000000e+03 3.232658004760742188e+01 -9.853912353515625000e+00 3.009017705917358398e+00 1.275203895568847656e+01 4.728316783905029297e+00 -1.377162456512451172e+00
2.281000000000000000e+03 2.726593971252441406e+01 -1.230316543579101562e+01 1.241323113441467285e+00 6.434675216674804688e+00 2.302799463272094727e+00 3.274532794952392578e+00
2.282000000000000000e+03 2.894470787048339844e+01 -1.134833717346191406e+01 8.275882005691528320e-01 1.011059570312500000e+01 3.281455039978027344e+00 3.222344636917114258e+00
2.283000000000000000e+03 2.880608367919921875e+01 -1.179418277740478516e+01 7.589282393455505371e-01 9.519841194152832031e+00 3.083630800247192383e+00 3.110038280487060547e+00
2.284000000000000000e+03 2.629779434204101562e+01 -9.295215606689453125e-01 1.231086492538452148e+00 5.113074302673339844e+00 1.903248190879821777e+00 -3.023976087570190430e+00
2.285000000000000000e+03 2.576541137695312500e+01 -2.016913592815399170e-01 1.041085481643676758e+00 4.773441314697265625e+00 1.744357943534851074e+00 -2.739229917526245117e+00
2.286000000000000000e+03 2.619037437438964844e+01 -1.410986185073852539e+00 1.435597538948059082e+00 4.779604911804199219e+00 1.864560723304748535e+00 -3.021073818206787109e+00
2.287000000000000000e+03 2.618246269226074219e+01 -1.292623430490493774e-01 9.453096389770507812e-01 5.214396476745605469e+00 1.847911953926086426e+00 -2.809616327285766602e+00
2.288000000000000000e+03 2.530753326416015625e+01 6.788290143013000488e-01 8.140252232551574707e-01 4.502773284912109375e+00 1.595039606094360352e+00 -2.520386695861816406e+00
2.289000000000000000e+03 2.662088394165039062e+01 -1.297493934631347656e+01 1.161693930625915527e+00 5.568823814392089844e+00 2.019155263900756836e+00 2.979047536849975586e+00
2.290000000000000000e+03 2.489229965209960938e+01 -1.346101951599121094e+01 1.231043457984924316e+00 3.667239189147949219e+00 1.469484806060791016e+00 2.320189714431762695e+00
2.291000000000000000e+03 2.606954765319824219e+01 -1.284232711791992188e+01 1.312178730964660645e+00 4.753427982330322266e+00 1.819682002067565918e+00 2.820914745330810547e+00
2.292000000000000000e+03 2.551931571960449219e+01 -1.277103805541992188e+01 1.400048017501831055e+00 4.051509380340576172e+00 1.635467171669006348e+00 2.616516828536987305e+00
2.293000000000000000e+03 2.566783905029296875e+01 1.220619201660156250e+00 6.635305285453796387e-01 4.943773746490478516e+00 1.682191252708435059e+00 -2.548872709274291992e+00
2.294000000000000000e+03 2.646531105041503906e+01 1.607956647872924805e+00 4.625357985496520996e-01 5.771108627319335938e+00 1.870093345642089844e+00 -2.583988428115844727e+00
2.295000000000000000e+03 2.673923492431640625e+01 2.162382602691650391e+00 3.263458013534545898e-01 6.016555309295654297e+00 1.902870297431945801e+00 -2.489191770553588867e+00
2.296000000000000000e+03 2.882743072509765625e+01 4.032654762268066406e+00 -1.351374238729476929e-01 7.315653800964355469e+00 2.154154777526855469e+00 -1.916857004165649414e+00
2.297000000000000000e+03 2.507838439941406250e+01 -1.499019527435302734e+01 8.206108212471008301e-01 4.311006546020507812e+00 1.539485216140747070e+00 2.264487504959106445e+00
2.298000000000000000e+03 2.541057968139648438e+01 -1.864909362792968750e+01 1.133891418576240540e-01 4.893082141876220703e+00 1.501941323280334473e+00 1.879302382469177246e+00
2.299000000000000000e+03 2.531262588500976562e+01 -1.615225410461425781e+01 5.379537940025329590e-01 4.658684730529785156e+00 1.558991551399230957e+00 2.165513753890991211e+00
2.300000000000000000e+03 6.804937744140625000e+01 5.566454887390136719e+00 1.449541896581649780e-01 7.568870544433593750e+00 2.314147472381591797e+00 4.404593408107757568e-01
2.301000000000000000e+03 6.591774749755859375e+01 4.826193332672119141e+00 2.049822509288787842e-01 7.572214603424072266e+00 2.333159208297729492e+00 4.736569821834564209e-01
2.302000000000000000e+03 2.645877838134765625e+01 1.729593467712402344e+01 -1.821610182523727417e-01 5.131464004516601562e+00 1.484790921211242676e+00 -8.643306493759155273e-01
2.303000000000000000e+03 2.788807868957519531e+01 1.372973442077636719e+01 -1.494771540164947510e-01 5.663045883178710938e+00 1.654070615768432617e+00 -1.064948797225952148e+00
2.304000000000000000e+03 3.004128265380859375e+01 3.618165254592895508e+00 -2.233159840106964111e-01 8.104126930236816406e+00 2.364243268966674805e+00 -1.609414696693420410e+00
2.305000000000000000e+03 2.914227104187011719e+01 5.285820960998535156e+00 -1.997390985488891602e-01 7.187989234924316406e+00 2.096474885940551758e+00 -1.719546079635620117e+00
2.306000000000000000e+03 2.972885322570800781e+01 1.094716167449951172e+01 -2.614634931087493896e-01 6.444642543792724609e+00 1.854953765869140625e+00 -1.121814846992492676e+00
2.307000000000000000e+03 6.622951507568359375e+01 6.412217617034912109e+00 1.646555811166763306e-01 7.603986740112304688e+00 2.330592632293701172e+00 5.011600255966186523e-01
2.308000000000000000e+03 6.210464096069335938e+01 2.029686450958251953e+00 3.935461044311523438e-01 7.545201778411865234e+00 2.381624460220336914e+00 4.602067470550537109e-01
2.309000000000000000e+03 6.994104766845703125e+01 -2.941871881484985352e+00 1.844276636838912964e-01 7.373490333557128906e+00 2.267375469207763672e+00 1.659270077943801880e-01
2.310000000000000000e+03 6.567284393310546875e+01 -4.830309391021728516e+00 3.545746505260467529e-01 7.424827575683593750e+00 2.333820819854736328e+00 1.319586932659149170e-01
2.311000000000000000e+03 6.601827239990234375e+01 -7.633637428283691406e+00 3.396922647953033447e-01 7.414885997772216797e+00 2.326373338699340820e+00 7.747857831418514252e-03
2.312000000000000000e+03 6.591822052001953125e+01 -1.175596618652343750e+01 2.853861153125762939e-01 7.443346500396728516e+00 2.318619728088378906e+00 -1.602694839239120483e-01
2.313000000000000000e+03 6.689896392822265625e+01 -1.711804509162902832e+00 2.812241315841674805e-01 7.440583229064941406e+00 2.316542148590087891e+00 2.464342564344406128e-01
2.314000000000000000e+03 6.990647888183593750e+01 -1.550879096984863281e+01 1.242290139198303223e-01 7.411067962646484375e+00 2.260589122772216797e+00 -2.192038148641586304e-01
2.315000000000000000e+03 6.843191528320312500e+01 -1.609888076782226562e+00 2.262070029973983765e-01 7.419328689575195312e+00 2.293660640716552734e+00 2.291552275419235229e-01
2.316000000000000000e+03 6.710557556152343750e+01 2.878859043121337891e+00 2.150373607873916626e-01 7.516617298126220703e+00 2.319496393203735352e+00 3.952295780181884766e-01
2.317000000000000000e+03 3.053991317749023438e+01 7.186853885650634766e+00 -3.177519142627716064e-01 7.349555969238281250e+00 2.109541177749633789e+00 -1.267893195152282715e+00
2.318000000000000000e+03 1.599935626983642578e+01 -2.998826217651367188e+01 4.884003475308418274e-02 1.934096693992614746e+00 5.948810577392578125e-01 4.469317197799682617e-01
2.319000000000000000e+03 2.079115676879882812e+01 -2.656913566589355469e+01 -7.418195903301239014e-02 3.135653018951416016e+00 9.184412956237792969e-01 9.434862732887268066e-01
2.320000000000000000e+03 2.576047515869140625e+01 -2.184691047668457031e+01 -2.120846658945083618e-01 5.068193435668945312e+00 1.456832647323608398e+00 1.492810726165771484e+00
2.321000000000000000e+03 2.669542884826660156e+01 -1.931023788452148438e+01 -1.098224967718124390e-01 5.685183048248291016e+00 1.672608137130737305e+00 1.753597259521484375e+00
2.322000000000000000e+03 2.695793914794921875e+01 -2.133209419250488281e+01 -3.057628273963928223e-01 5.685313701629638672e+00 1.613865256309509277e+00 1.486220479011535645e+00
2.323000000000000000e+03 6.600252532958984375e+01 -1.491915702819824219e+01 2.343220114707946777e-01 7.478489875793457031e+00 2.313843488693237305e+00 -2.603869140148162842e-01
2.324000000000000000e+03 6.121504211425781250e+01 2.023521232604980469e+01 -1.859208047389984131e-01 7.851070404052734375e+00 2.299544811248779297e+00 5.903287529945373535e-01
2.325000000000000000e+03 6.496532440185546875e+01 1.504644203186035156e+01 -2.470181323587894440e-02 7.804716110229492188e+00 2.334004402160644531e+00 5.919190645217895508e-01
2.326000000000000000e+03 6.546165466308593750e+01 -3.383745431900024414e+00 3.542594909667968750e-01 7.439671516418457031e+00 2.338179349899291992e+00 1.947223693132400513e-01
2.327000000000000000e+03 6.646249389648437500e+01 1.596817684173583984e+01 -3.282105922698974609e-02 7.831898212432861328e+00 2.339723110198974609e+00 5.526329278945922852e-01
2.328000000000000000e+03 6.573423767089843750e+01 1.768835639953613281e+01 -6.601088494062423706e-02 7.858471870422363281e+00 2.337738275527954102e+00 5.626243352890014648e-01
2.329000000000000000e+03 3.275839233398437500e+01 -5.124832630157470703e+00 5.509665012359619141e+00 1.208163261413574219e+01 5.277389526367187500e+00 1.527315855026245117e+00
2.330000000000000000e+03 2.877168273925781250e+01 -2.101196527481079102e+00 8.086119890213012695e-01 9.716511726379394531e+00 3.157537221908569336e+00 -3.245398759841918945e+00
2.331000000000000000e+03 3.362582397460937500e+01 -5.719304084777832031e+00 5.788094997406005859e+00 1.091905021667480469e+01 5.012143611907958984e+00 9.578719139099121094e-01
2.332000000000000000e+03 3.250051498413085938e+01 -6.806864738464355469e+00 7.768776416778564453e+00 1.196371841430664062e+01 5.919748783111572266e+00 -3.010210767388343811e-02
2.333000000000000000e+03 3.171966934204101562e+01 -1.014754390716552734e+01 2.176800251007080078e+00 1.340188407897949219e+01 4.673605442047119141e+00 -8.507996797561645508e-01
2.334000000000000000e+03 3.303155136108398438e+01 -7.468198776245117188e+00 6.690668582916259766e+00 1.138929080963134766e+01 5.423987865447998047e+00 -8.251347541809082031e-01
2.335000000000000000e+03 2.971063041687011719e+01 -1.432609796524047852e+00 3.582055866718292236e-01 1.065696144104003906e+01 3.304550170898437500e+00 -2.243283033370971680e+00
2.336000000000000000e+03 3.319263839721679688e+01 -5.465399742126464844e+00 5.821201324462890625e+00 1.142819023132324219e+01 5.174817562103271484e+00 1.268856287002563477e+00
2.337000000000000000e+03 2.924073028564453125e+01 -1.192057418823242188e+01 5.322211980819702148e-01 1.022554874420166016e+01 3.227330923080444336e+00 2.646211385726928711e+00
2.338000000000000000e+03 3.175590515136718750e+01 -4.218154907226562500e+00 3.449822425842285156e+00 1.391424942016601562e+01 5.209221363067626953e+00 1.405920624732971191e+00
2.339000000000000000e+03 2.980678749084472656e+01 -2.345358133316040039e+00 5.908819437026977539e-01 1.184496116638183594e+01 3.730752944946289062e+00 -2.221185684204101562e+00
2.340000000000000000e+03 2.844427108764648438e+01 -2.292568206787109375e+00 1.069231271743774414e+00 9.115383148193359375e+00 3.055384397506713867e+00 -3.574594497680664062e+00
2.341000000000000000e+03 2.789552497863769531e+01 2.705785512924194336e+00 6.332437694072723389e-02 6.943923950195312500e+00 2.102174520492553711e+00 -2.277968883514404297e+00
2.342000000000000000e+03 2.782043266296386719e+01 -1.224116897583007812e+01 1.051821231842041016e+00 7.451071262359619141e+00 2.550867557525634766e+00 3.293007612228393555e+00
2.343000000000000000e+03 2.787106323242187500e+01 -1.975706100463867188e+00 1.161061286926269531e+00 7.811317443847656250e+00 2.691713571548461914e+00 -3.602509975433349609e+00
2.344000000000000000e+03 3.062229156494140625e+01 -2.359336137771606445e+00 7.017110586166381836e-01 1.247704315185546875e+01 3.953626394271850586e+00 -1.150735378265380859e+00
2.345000000000000000e+03 2.678653144836425781e+01 2.636119723320007324e-01 7.325051426887512207e-01 6.021499156951904297e+00 2.026201248168945312e+00 -2.855941772460937500e+00
2.346000000000000000e+03 2.621490669250488281e+01 -5.090864896774291992e-01 1.124044656753540039e+00 5.195996284484863281e+00 1.896012306213378906e+00 -2.951175212860107422e+00
2.347000000000000000e+03 2.561997795104980469e+01 2.375115752220153809e-01 8.996738195419311523e-01 4.710708618164062500e+00 1.683114767074584961e+00 -2.639044284820556641e+00
2.348000000000000000e+03 2.618736076354980469e+01 3.734558820724487305e-01 7.968426942825317383e-01 5.284028530120849609e+00 1.824261426925659180e+00 -2.719145774841308594e+00
2.349000000000000000e+03 2.600877952575683594e+01 -1.339983463287353516e+01 1.145584106445312500e+00 4.904193878173828125e+00 1.814933419227600098e+00 2.739164829254150391e+00
2.350000000000000000e+03 3.139267539978027344e+01 -1.098566913604736328e+01 1.155295133590698242e+00 1.268862819671630859e+01 4.153176784515380859e+00 3.280746564269065857e-02
2.351000000000000000e+03 2.638642120361328125e+01 -1.411982536315917969e+01 8.515672683715820312e-01 5.401618480682373047e+00 1.875955700874328613e+00 2.658543109893798828e+00
2.352000000000000000e+03 2.847173690795898438e+01 2.976412296295166016e+00 -2.834664843976497650e-02 7.315129280090332031e+00 2.186034679412841797e+00 -2.150219917297363281e+00
2.353000000000000000e+03 2.812829208374023438e+01 3.623131275177001953e+00 -3.176041319966316223e-02 6.976611614227294922e+00 2.083455324172973633e+00 -2.116775989532470703e+00
2.354000000000000000e+03 2.512509155273437500e+01 -1.406246185302734375e+01 1.049908757209777832e+00 4.136731624603271484e+00 1.555992126464843750e+00 2.377433776855468750e+00
2.355000000000000000e+03 2.554794692993164062e+01 -1.385561466217041016e+01 1.045435070991516113e+00 4.489094734191894531e+00 1.660359025001525879e+00 2.514582395553588867e+00
2.356000000000000000e+03 2.832423591613769531e+01 4.785617828369140625e+00 -1.094397529959678650e-01 6.872144222259521484e+00 2.028811454772949219e+00 -1.941789031028747559e+00
2.357000000000000000e+03 2.545385742187500000e+01 -1.455036258697509766e+01 8.787966966629028320e-01 4.596519470214843750e+00 1.642594814300537109e+00 2.397546529769897461e+00
2.358000000000000000e+03 6.686849212646484375e+01 -2.009297609329223633e-01 2.664296030998229980e-01 7.462952613830566406e+00 2.318814754486083984e+00 3.007578849792480469e-01
2.359000000000000000e+03 3.227038192749023438e+01 1.240628337860107422e+01 -4.284633100032806396e-01 6.905817985534667969e+00 1.943206429481506348e+00 -7.058768272399902344e-01
2.360000000000000000e+03 6.525829315185546875e+01 -2.443185299634933472e-01 3.248011469841003418e-01 7.480009555816650391e+00 2.341443300247192383e+00 3.245142698287963867e-01
2.361000000000000000e+03 3.013700294494628906e+01 1.294087791442871094e+01 -3.062692880630493164e-01 6.305320262908935547e+00 1.799715280532836914e+00 -9.509304761886596680e-01
2.362000000000000000e+03 6.368210601806640625e+01 -2.084738969802856445e+00 4.190266728401184082e-01 7.468682289123535156e+00 2.366312742233276367e+00 2.664657235145568848e-01
2.363000000000000000e+03 6.377665710449218750e+01 -1.020555019378662109e+01 4.021208584308624268e-01 7.456258296966552734e+00 2.357513904571533203e+00 -1.169636845588684082e-01
2.364000000000000000e+03 2.604265785217285156e+01 -2.048450279235839844e+01 -1.272552609443664551e-01 5.230179309844970703e+00 1.530877232551574707e+00 1.638220429420471191e+00
2.365000000000000000e+03 2.897653961181640625e+01 2.091822433471679688e+01 -4.626975655555725098e-01 5.546048164367675781e+00 1.525005102157592773e+00 -5.624814033508300781e-01
2.366000000000000000e+03 6.758999633789062500e+01 -1.384263610839843750e+01 2.088906466960906982e-01 7.434225559234619141e+00 2.292934894561767578e+00 -2.064675986766815186e-01
2.367000000000000000e+03 3.005636215209960938e+01 5.759996414184570312e+00 -2.811008989810943604e-01 7.501584053039550781e+00 2.166144847869873047e+00 -1.472251176834106445e+00
2.368000000000000000e+03 6.739141845703125000e+01 -8.885622978210449219e+00 2.749350965023040771e-01 7.397115230560302734e+00 2.301614999771118164e+00 -4.062784835696220398e-02
2.369000000000000000e+03 6.484454345703125000e+01 -7.763144493103027344e+00 3.811981678009033203e-01 7.429260253906250000e+00 2.343137502670288086e+00 1.496374956332147121e-03
2.370000000000000000e+03 3.065325546264648438e+01 1.524579048156738281e+01 -3.906267583370208740e-01 6.232085227966308594e+00 1.752437591552734375e+00 -7.329803109169006348e-01
2.371000000000000000e+03 2.330371856689453125e+01 1.900086021423339844e+01 -9.315945208072662354e-02 4.412673950195312500e+00 1.295854330062866211e+00 -8.038361072540283203e-01
2.372000000000000000e+03 3.096731185913085938e+01 1.170668315887451172e+01 -3.527919352054595947e-01 6.711320877075195312e+00 1.907558679580688477e+00 -9.155812859535217285e-01
2.373000000000000000e+03 6.646913909912109375e+01 -1.350786209106445312e+01 2.487983256578445435e-01 7.451798439025878906e+00 2.310178995132446289e+00 -2.107064276933670044e-01
2.374000000000000000e+03 6.354420471191406250e+01 7.782927989959716797e+00 1.773972809314727783e-01 7.649754524230957031e+00 2.348145484924316406e+00 5.843564271926879883e-01
2.375000000000000000e+03 6.629733276367187500e+01 1.019567584991455078e+01 7.931941747665405273e-02 7.695508956909179688e+00 2.332448482513427734e+00 5.490983724594116211e-01
2.376000000000000000e+03 7.134203338623046875e+01 -1.402680778503417969e+01 1.098477840423583984e-01 7.351584911346435547e+00 2.238429784774780273e+00 -1.653350889682769775e-01
2.377000000000000000e+03 3.283904266357421875e+01 -7.788402557373046875e+00 6.530072689056396484e+00 1.175008487701416016e+01 5.484046936035156250e+00 -1.203831315040588379e+00
2.378000000000000000e+03 2.940356445312500000e+01 -1.681380510330200195e+00 4.687150120735168457e-01 1.045384025573730469e+01 3.276766538619995117e+00 -2.620359659194946289e+00
2.379000000000000000e+03 2.986806297302246094e+01 -1.773275256156921387e+00 4.036002755165100098e-01 1.118806171417236328e+01 3.477498531341552734e+00 -2.125843763351440430e+00
2.380000000000000000e+03 3.126825714111328125e+01 -2.830800533294677734e+00 1.276512861251831055e+00 1.301870346069335938e+01 4.288565158843994141e+00 -9.811024367809295654e-02
2.381000000000000000e+03 3.110546302795410156e+01 -2.202661037445068359e+00 7.815437912940979004e-01 1.236958885192871094e+01 3.945339918136596680e+00 -6.163859963417053223e-01
2.382000000000000000e+03 3.324298095703125000e+01 -5.784823894500732422e+00 6.201270103454589844e+00 1.125188922882080078e+01 5.235948085784912109e+00 9.804716706275939941e-01
2.383000000000000000e+03 3.261235427856445312e+01 -4.151655673980712891e+00 3.731615304946899414e+00 1.248944377899169922e+01 4.866317749023437500e+00 1.515327453613281250e+00
2.384000000000000000e+03 3.198314094543457031e+01 -3.847988843917846680e+00 2.977808952331542969e+00 1.330080890655517578e+01 4.883585453033447266e+00 1.221385478973388672e+00
2.385000000000000000e+03 2.832983207702636719e+01 -1.228637504577636719e+01 8.038796186447143555e-01 8.381528854370117188e+00 2.755622386932373047e+00 3.136841773986816406e+00
2.386000000000000000e+03 2.738052368164062500e+01 -1.614439010620117188e+01 1.829249262809753418e-01 6.392992973327636719e+00 1.972775340080261230e+00 2.215211629867553711e+00
2.387000000000000000e+03 2.720027351379394531e+01 1.883024692535400391e+00 2.848580181598663330e-01 6.458796024322509766e+00 2.023096084594726562e+00 -2.513109445571899414e+00
2.388000000000000000e+03 3.138125038146972656e+01 -3.683146476745605469e+00 2.220744609832763672e+00 1.390289878845214844e+01 4.837092876434326172e+00 6.001880764961242676e-01
2.389000000000000000e+03 3.254833221435546875e+01 -3.787291288375854492e+00 3.214345455169677734e+00 1.252598476409912109e+01 4.722099304199218750e+00 1.381896495819091797e+00
2.390000000000000000e+03 2.650291252136230469e+01 -1.356219482421875000e+01 9.836118221282958984e-01 5.495548248291015625e+00 1.943747997283935547e+00 2.770077466964721680e+00
2.391000000000000000e+03 2.743532752990722656e+01 1.465157032012939453e+00 3.178844749927520752e-01 6.725247859954833984e+00 2.112939596176147461e+00 -2.560635089874267578e+00
2.392000000000000000e+03 2.996936225891113281e+01 -1.156662845611572266e+01 4.758096933364868164e-01 1.144542789459228516e+01 3.576371192932128906e+00 2.002966642379760742e+00
2.393000000000000000e+03 2.626095581054687500e+01 9.932699203491210938e-01 6.514717936515808105e-01 5.470196723937988281e+00 1.836500525474548340e+00 -2.673482179641723633e+00
2.394000000000000000e+03 2.684122848510742188e+01 -7.189011573791503906e-01 1.027434945106506348e+00 5.950712203979492188e+00 2.093444108963012695e+00 -3.069930076599121094e+00
2.395000000000000000e+03 2.751862716674804688e+01 2.321219921112060547e+00 1.787357777357101440e-01 6.676280975341796875e+00 2.056504964828491211e+00 -2.412877798080444336e+00
2.396000000000000000e+03 2.934229278564453125e+01 2.396774530410766602e+00 -1.105862334370613098e-01 8.135149955749511719e+00 2.407368898391723633e+00 -1.964599132537841797e+00
2.397000000000000000e+03 3.047896003723144531e+01 2.944719552993774414e+00 -2.316386103630065918e-01 8.540477752685546875e+00 2.492651700973510742e+00 -1.515643477439880371e+00
2.398000000000000000e+03 2.962742996215820312e+01 4.454824447631835938e+00 -2.291300892829895020e-01 7.637162208557128906e+00 2.222409486770629883e+00 -1.681878209114074707e+00
2.399000000000000000e+03 2.921199989318847656e+01 3.238493204116821289e+00 -1.471489816904067993e-01 7.801184177398681641e+00 2.296210527420043945e+00 -1.904553771018981934e+00
2.400000000000000000e+03 2.617733764648437500e+01 -1.658974647521972656e+01 3.158354163169860840e-01 5.428033351898193359e+00 1.723160624504089355e+00 2.146541118621826172e+00
2.401000000000000000e+03 2.631174278259277344e+01 -1.500708866119384766e+01 6.369378566741943359e-01 5.469542503356933594e+00 1.831944108009338379e+00 2.495812416076660156e+00
2.402000000000000000e+03 2.894104194641113281e+01 -1.923677825927734375e+01 -3.800598382949829102e-01 6.923811435699462891e+00 1.963125467300415039e+00 1.476998686790466309e+00
2.403000000000000000e+03 2.931198120117187500e+01 -1.292737197875976562e+01 2.923017442226409912e-01 9.450063705444335938e+00 2.922709703445434570e+00 2.330238103866577148e+00
2.404000000000000000e+03 3.106311798095703125e+01 6.196957111358642578e+00 -3.376193642616271973e-01 7.769424915313720703e+00 2.229541778564453125e+00 -1.190308332443237305e+00
2.405000000000000000e+03 3.166875267028808594e+01 7.664627552032470703e+00 -3.713912069797515869e-01 7.596065521240234375e+00 2.167402267456054688e+00 -9.930572509765625000e-01
2.406000000000000000e+03 3.108715248107910156e+01 8.764735221862792969e+00 -3.540166020393371582e-01 7.195751667022705078e+00 2.052520513534545898e+00 -1.064289450645446777e+00
2.407000000000000000e+03 3.287994003295898438e+01 8.102533340454101562e+00 -4.036746323108673096e-01 7.778120517730712891e+00 2.212333679199218750e+00 -7.244783639907836914e-01
2.408000000000000000e+03 2.886960983276367188e+01 1.739583587646484375e+01 -3.361565470695495605e-01 5.668627262115478516e+00 1.599741220474243164e+00 -7.649169564247131348e-01
2.409000000000000000e+03 6.265486526489257812e+01 9.940292358398437500e+00 1.171247586607933044e-01 7.702638626098632812e+00 2.345928907394409180e+00 6.335954666137695312e-01
2.410000000000000000e+03 6.234997940063476562e+01 8.379781723022460938e+00 1.762066781520843506e-01 7.673270702362060547e+00 2.354843139648437500e+00 6.249546408653259277e-01
2.411000000000000000e+03 6.217272567749023438e+01 -4.134294986724853516e+00 5.207701921463012695e-01 7.463304519653320312e+00 2.395222425460815430e+00 1.876082569360733032e-01
2.412000000000000000e+03 6.531536865234375000e+01 -1.861687421798706055e+00 3.475850522518157959e-01 7.457028388977050781e+00 2.341383934020996094e+00 2.597802877426147461e-01
2.413000000000000000e+03 2.566806983947753906e+01 1.988502693176269531e+01 -2.608674168586730957e-01 4.911180973052978516e+00 1.395094037055969238e+00 -7.171168923377990723e-01
2.414000000000000000e+03 6.188871765136718750e+01 -1.620895957946777344e+01 3.126364052295684814e-01 7.571132659912109375e+00 2.365130662918090820e+00 -3.742149770259857178e-01
2.415000000000000000e+03 6.542655181884765625e+01 -1.646649360656738281e+01 2.107493281364440918e-01 7.518668174743652344e+00 2.318825244903564453e+00 -3.159096539020538330e-01
2.416000000000000000e+03 6.386667251586914062e+01 -8.201472282409667969e+00 4.253989160060882568e-01 7.445036411285400391e+00 2.361130475997924805e+00 -2.796846255660057068e-02
2.417000000000000000e+03 6.564945983886718750e+01 8.580255508422851562e+00 1.186065822839736938e-01 7.660240173339843750e+00 2.333653926849365234e+00 5.488669872283935547e-01
2.418000000000000000e+03 3.301097869873046875e+01 -6.666626930236816406e+00 6.977728366851806641e+00 1.132072925567626953e+01 5.489537239074707031e+00 1.276221573352813721e-01
2.419000000000000000e+03 3.341978073120117188e+01 -7.651247501373291016e+00 6.165175914764404297e+00 1.101104831695556641e+01 5.152867317199707031e+00 -8.946456909179687500e-01
2.420000000000000000e+03 3.182510185241699219e+01 -2.746149539947509766e+00 1.534686088562011719e+00 1.272072219848632812e+01 4.276622295379638672e+00 3.895649909973144531e-01
2.421000000000000000e+03 3.363647079467773438e+01 -9.192790985107421875e+00 4.281068801879882812e+00 1.121603965759277344e+01 4.649132251739501953e+00 -1.540462613105773926e+00
2.422000000000000000e+03 3.308760452270507812e+01 -9.521458625793457031e+00 3.756075382232666016e+00 1.181039810180664062e+01 4.669941902160644531e+00 -1.559100747108459473e+00
2.423000000000000000e+03 3.183292388916015625e+01 -1.128136730194091797e+01 1.170013546943664551e+00 1.228506946563720703e+01 4.036524772644042969e+00 -2.311965525150299072e-01
2.424000000000000000e+03 3.208515167236328125e+01 -1.081657600402832031e+01 1.660411357879638672e+00 1.248932743072509766e+01 4.244921684265136719e+00 -6.710640192031860352e-01
2.425000000000000000e+03 2.892997741699218750e+01 -1.538430094718933105e+00 5.642738938331604004e-01 9.663059234619140625e+00 3.068200111389160156e+00 -2.889869928359985352e+00
2.426000000000000000e+03 3.317078781127929688e+01 -6.429640293121337891e+00 6.729820728302001953e+00 1.123535251617431641e+01 5.389552116394042969e+00 3.686746060848236084e-01
2.427000000000000000e+03 3.032113456726074219e+01 -2.167714357376098633e+00 5.479749441146850586e-01 1.203174018859863281e+01 3.773914575576782227e+00 -1.593822240829467773e+00
2.428000000000000000e+03 2.839776229858398438e+01 -1.287956809997558594e+01 5.990852117538452148e-01 8.234665870666503906e+00 2.650125265121459961e+00 2.877107381820678711e+00
2.429000000000000000e+03 3.321175003051757812e+01 -7.979860782623291016e+00 5.980358600616455078e+00 1.133483314514160156e+01 5.194557666778564453e+00 -1.212691187858581543e+00
2.430000000000000000e+03 2.708643150329589844e+01 -1.324823951721191406e+01 9.614284038543701172e-01 6.225343704223632812e+00 2.156031608581542969e+00 2.991765737533569336e+00
2.431000000000000000e+03 2.962168693542480469e+01 -1.152596664428710938e+01 5.204726457595825195e-01 1.106921386718750000e+01 3.476906061172485352e+00 2.381455183029174805e+00
2.432000000000000000e+03 2.879964256286621094e+01 -1.234673213958740234e+01 5.927571654319763184e-01 9.114567756652832031e+00 2.912197589874267578e+00 2.872581005096435547e+00
2.433000000000000000e+03 2.703277015686035156e+01 -1.296896815299987793e+00 1.220624208450317383e+00 6.154234409332275391e+00 2.212457656860351562e+00 -3.287800550460815430e+00
2.434000000000000000e+03 3.037590026855468750e+01 -1.131440162658691406e+01 5.724803209304809570e-01 1.209783458709716797e+01 3.801094532012939453e+00 1.493496656417846680e+00
2.435000000000000000e+03 2.658537673950195312e+01 -2.661823928356170654e-01 9.140205383300781250e-01 5.713255405426025391e+00 1.988182783126831055e+00 -2.910118341445922852e+00
2.436000000000000000e+03 2.923062896728515625e+01 -1.110728740692138672e+01 7.786346077919006348e-01 1.102461814880371094e+01 3.540975809097290039e+00 3.004187822341918945e+00
2.437000000000000000e+03 2.771462059020996094e+01 -1.533856511116027832e+00 1.058509349822998047e+00 7.473284244537353516e+00 2.559537887573242188e+00 -3.402076721191406250e+00
2.438000000000000000e+03 2.595239257812500000e+01 -1.388102054595947266e+01 9.827334880828857422e-01 4.898654460906982422e+00 1.764416337013244629e+00 2.634228467941284180e+00
2.439000000000000000e+03 2.918755722045898438e+01 1.700057864189147949e+00 -1.581647247076034546e-02 8.296709060668945312e+00 2.484267711639404297e+00 -2.107093572616577148e+00
2.440000000000000000e+03 2.800117111206054688e+01 2.194686651229858398e+00 1.102092117071151733e-01 7.108807086944580078e+00 2.165704965591430664e+00 -2.354541301727294922e+00
2.441000000000000000e+03 2.695849609375000000e+01 1.440215349197387695e+00 4.168110191822052002e-01 6.209867000579833984e+00 1.988003373146057129e+00 -2.620404481887817383e+00
2.442000000000000000e+03 2.913455009460449219e+01 -1.003649353981018066e+00 3.986493647098541260e-01 9.627429008483886719e+00 3.007823467254638672e+00 -2.643299579620361328e+00
2.443000000000000000e+03 2.577095222473144531e+01 -1.422663402557373047e+01 9.276788234710693359e-01 4.823042869567871094e+00 1.725216507911682129e+00 2.523825883865356445e+00
2.444000000000000000e+03 3.011302185058593750e+01 2.312157392501831055e+00 -1.585418730974197388e-01 8.636026382446289062e+00 2.543245315551757812e+00 -1.668051481246948242e+00
2.445000000000000000e+03 3.079710769653320312e+01 2.370131969451904297e+00 -1.826163828372955322e-01 9.015513420104980469e+00 2.649868965148925781e+00 -1.360768795013427734e+00
2.446000000000000000e+03 3.089983940124511719e+01 4.050562858581542969e+00 -2.826146185398101807e-01 8.342586517333984375e+00 2.417991399765014648e+00 -1.303495883941650391e+00
2.447000000000000000e+03 2.791681671142578125e+01 -2.027282333374023438e+01 -3.334140479564666748e-01 6.245208263397216797e+00 1.773538231849670410e+00 1.520660758018493652e+00
2.448000000000000000e+03 2.708176040649414062e+01 -1.689769935607910156e+01 1.253097653388977051e-01 6.099650859832763672e+00 1.867488265037536621e+00 2.081018924713134766e+00
2.449000000000000000e+03 3.051555633544921875e+01 4.878327369689941406e+00 -2.957175672054290771e-01 7.932954311370849609e+00 2.291171073913574219e+00 -1.396836161613464355e+00
2.450000000000000000e+03 3.253667831420898438e+01 5.538886070251464844e+00 -3.325666487216949463e-01 8.344966888427734375e+00 2.403719902038574219e+00 -7.892052531242370605e-01
2.451000000000000000e+03 3.168637466430664062e+01 1.049117088317871094e+01 -3.861138522624969482e-01 7.062142372131347656e+00 2.002808570861816406e+00 -8.735198974609375000e-01
2.452000000000000000e+03 6.375347518920898438e+01 -1.369116878509521484e+01 3.349167108535766602e-01 7.496917724609375000e+00 2.349550247192382812e+00 -2.564060986042022705e-01
2.453000000000000000e+03 6.420949554443359375e+01 -5.162888526916503906e+00 4.260767400264739990e-01 7.438590049743652344e+00 2.359400033950805664e+00 1.236098781228065491e-01
2.454000000000000000e+03 6.468573760986328125e+01 -8.950801849365234375e+00 3.748922049999237061e-01 7.437795639038085938e+00 2.343806266784667969e+00 -5.764225497841835022e-02
2.455000000000000000e+03 2.766086769104003906e+01 -2.826198768615722656e+01 -6.497023701667785645e-01 5.545054435729980469e+00 1.468605637550354004e+00 8.352587223052978516e-01
2.456000000000000000e+03 3.255411529541015625e+01 -2.220346260070800781e+01 -7.159941196441650391e-01 7.656340122222900391e+00 2.082103729248046875e+00 6.097116470336914062e-01
2.457000000000000000e+03 6.358108520507812500e+01 -3.060983419418334961e-01 3.979355990886688232e-01 7.494612693786621094e+00 2.367764472961425781e+00 3.483035862445831299e-01
2.458000000000000000e+03 6.093326950073242188e+01 6.917258739471435547e+00 2.618065774440765381e-01 7.647702693939208984e+00 2.372852802276611328e+00 6.225020885467529297e-01
2.459000000000000000e+03 6.234959030151367188e+01 -1.891026687622070312e+01 1.993759274482727051e-01 7.616984367370605469e+00 2.344908237457275391e+00 -4.254660308361053467e-01
2.460000000000000000e+03 6.534505462646484375e+01 -2.062046432495117188e+01 9.254563599824905396e-02 7.599526882171630859e+00 2.307621717453002930e+00 -3.879275321960449219e-01
2.461000000000000000e+03 6.482349395751953125e+01 -1.436414337158203125e+01 2.862869799137115479e-01 7.492082118988037109e+00 2.333510637283325195e+00 -2.649969160556793213e-01
2.462000000000000000e+03 6.374151992797851562e+01 1.355994510650634766e+01 7.234293501824140549e-03 7.771596908569335938e+00 2.333649396896362305e+00 6.200597882270812988e-01
2.463000000000000000e+03 3.362887573242187500e+01 -7.301207065582275391e+00 6.220631599426269531e+00 1.077707481384277344e+01 5.099311828613281250e+00 -5.416684150695800781e-01
2.464000000000000000e+03 3.322633361816406250e+01 -7.134771823883056641e+00 6.678286552429199219e+00 1.109245872497558594e+01 5.331223487854003906e+00 -4.329041540622711182e-01
2.465000000000000000e+03 3.320793914794921875e+01 -5.117970943450927734e+00 5.315351963043212891e+00 1.154104804992675781e+01 5.056920051574707031e+00 1.395779252052307129e+00
2.466000000000000000e+03 2.860791015625000000e+01 -1.703238487243652344e+00 7.555286288261413574e-01 9.150714874267578125e+00 2.971873044967651367e+00 -3.185967683792114258e+00
2.467000000000000000e+03 3.228294754028320312e+01 -1.033545970916748047e+01 2.337075948715209961e+00 1.260997104644775391e+01 4.484114170074462891e+00 -1.093394994735717773e+00
2.468000000000000000e+03 3.283076477050781250e+01 -9.806644439697265625e+00 3.289468288421630859e+00 1.217299842834472656e+01 4.638740062713623047e+00 -1.504848361015319824e+00
2.469000000000000000e+03 2.744983673095703125e+01 -1.295188522338867188e+01 9.180336594581604004e-01 6.714309215545654297e+00 2.289702892303466797e+00 3.034947156906127930e+00
2.470000000000000000e+03 2.955274200439453125e+01 1.384825468063354492e+00 -3.907973319292068481e-02 8.661151885986328125e+00 2.586621761322021484e+00 -2.004531621932983398e+00
2.471000000000000000e+03 3.127062797546386719e+01 -2.493267059326171875e+00 1.054928541183471680e+00 1.273699378967285156e+01 4.137576580047607422e+00 -2.438229471445083618e-01
2.472000000000000000e+03 3.016912460327148438e+01 -1.642823696136474609e+00 3.837715983390808105e-01 1.130992698669433594e+01 3.508109807968139648e+00 -1.754411220550537109e+00
2.473000000000000000e+03 3.314635086059570312e+01 -9.131705284118652344e+00 4.359228610992431641e+00 1.169505977630615234e+01 4.816286563873291016e+00 -1.604076266288757324e+00
2.474000000000000000e+03 3.412021255493164062e+01 -8.763163566589355469e+00 4.635250568389892578e+00 1.069164085388183594e+01 4.598067283630371094e+00 -1.342662453651428223e+00
2.475000000000000000e+03 3.288022232055664062e+01 -3.472730159759521484e+00 2.907390832901000977e+00 1.210131645202636719e+01 4.502612113952636719e+00 1.300632476806640625e+00
2.476000000000000000e+03 2.757374572753906250e+01 -1.021231889724731445e+00 9.110625982284545898e-01 7.124037742614746094e+00 2.410530090332031250e+00 -3.223494768142700195e+00
2.477000000000000000e+03 2.947468376159667969e+01 -1.089796304702758789e+00 3.402069509029388428e-01 1.005876731872558594e+01 3.119692325592041016e+00 -2.419316530227661133e+00
2.478000000000000000e+03 2.857939529418945312e+01 -9.095236659049987793e-01 5.270129442214965820e-01 8.657126426696777344e+00 2.755241870880126953e+00 -2.912959814071655273e+00
2.479000000000000000e+03 3.333131790161132812e+01 -4.730107307434082031e+00 4.784959793090820312e+00 1.149423122406005859e+01 4.883757114410400391e+00 1.467390537261962891e+00
2.480000000000000000e+03 3.153125190734863281e+01 -2.975260019302368164e+00 1.553727746009826660e+00 1.303084754943847656e+01 4.375372409820556641e+00 2.733437418937683105e-01
2.481000000000000000e+03 3.030365371704101562e+01 -1.163377285003662109e+01 4.823583364486694336e-01 1.179866409301757812e+01 3.684306621551513672e+00 1.573029637336730957e+00
2.482000000000000000e+03 3.074001121520996094e+01 -1.147819232940673828e+01 6.009458303451538086e-01 1.209472465515136719e+01 3.808701038360595703e+00 9.632102847099304199e-01
2.483000000000000000e+03 2.814665412902832031e+01 -1.378251075744628906e+00 8.215588927268981934e-01 8.179764747619628906e+00 2.700397253036499023e+00 -3.277538299560546875e+00
2.484000000000000000e+03 2.896902084350585938e+01 -5.816233754158020020e-01 3.364487886428833008e-01 9.095623016357421875e+00 2.829621315002441406e+00 -2.646578550338745117e+00
2.485000000000000000e+03 2.963693237304687500e+01 -1.196954154968261719e+01 4.426912665367126465e-01 1.065193176269531250e+01 3.328387022018432617e+00 2.260213375091552734e+00
2.486000000000000000e+03 2.613286209106445312e+01 -1.453338909149169922e+01 7.899408936500549316e-01 5.225816726684570312e+00 1.804727196693420410e+00 2.550679206848144531e+00
2.487000000000000000e+03 2.630265426635742188e+01 -1.571411991119384766e+01 4.606864750385284424e-01 5.549334049224853516e+00 1.803006172180175781e+00 2.318056344985961914e+00
2.488000000000000000e+03 3.138069534301757812e+01 -1.940443754196166992e+00 7.656025886535644531e-01 1.208505249023437500e+01 3.855196714401245117e+00 -4.380876421928405762e-01
2.489000000000000000e+03 2.697033500671386719e+01 -1.375561332702636719e+01 8.265643119812011719e-01 6.058164596557617188e+00 2.065418720245361328e+00 2.809597015380859375e+00
2.490000000000000000e+03 2.677536582946777344e+01 -1.498906326293945312e+01 5.452621579170227051e-01 5.849744319915771484e+00 1.918501973152160645e+00 2.474941015243530273e+00
2.491000000000000000e+03 3.232651138305664062e+01 -1.157699775695800781e+01 1.195428371429443359e+00 1.183743667602539062e+01 3.909859418869018555e+00 -4.305363893508911133e-01
2.492000000000000000e+03 2.736395835876464844e+01 -1.371050834655761719e+01 6.935435533523559570e-01 6.656600952148437500e+00 2.205043315887451172e+00 2.799691677093505859e+00
2.493000000000000000e+03 2.743386077880859375e+01 8.816906213760375977e-01 4.289525449275970459e-01 6.787058353424072266e+00 2.164803266525268555e+00 -2.683775663375854492e+00
2.494000000000000000e+03 2.862550544738769531e+01 4.942829608917236328e-01 2.296826392412185669e-01 8.192455291748046875e+00 2.526641368865966797e+00 -2.540300369262695312e+00
2.495000000000000000e+03 2.860759353637695312e+01 2.315846920013427734e+00 -2.839121443685144186e-04 7.570374011993408203e+00 2.271027088165283203e+00 -2.206684112548828125e+00
2.496000000000000000e+03 2.686406326293945312e+01 8.898491859436035156e-01 5.576978325843811035e-01 6.167022705078125000e+00 2.017416238784790039e+00 -2.735454320907592773e+00
2.497000000000000000e+03 2.858962249755859375e+01 1.688008546829223633e+00 8.021938800811767578e-02 7.758325099945068359e+00 2.351563453674316406e+00 -2.285406589508056641e+00
2.498000000000000000e+03 3.010369682312011719e+01 1.539227128028869629e+00 -1.130709871649742126e-01 8.982702255249023438e+00 2.660889387130737305e+00 -1.729028105735778809e+00
2.499000000000000000e+03 2.981022071838378906e+01 4.465527534484863281e-01 3.553413972258567810e-02 9.372068405151367188e+00 2.822280883789062500e+00 -1.944546222686767578e+00
2.500000000000000000e+03 2.969420242309570312e+01 -1.243694305419921875e+01 3.258681297302246094e-01 1.031157016754150391e+01 3.191231489181518555e+00 2.117847442626953125e+00
2.501000000000000000e+03 2.823261260986328125e+01 -1.796488189697265625e+01 -1.957909017801284790e-01 6.736384868621826172e+00 1.962178230285644531e+00 1.755576610565185547e+00
2.502000000000000000e+03 2.974043083190917969e+01 -1.501312160491943359e+01 -1.006905138492584229e-01 8.688168525695800781e+00 2.576243400573730469e+00 1.711944818496704102e+00
2.503000000000000000e+03 3.148581314086914062e+01 5.246612548828125000e+00 -3.318209350109100342e-01 8.163785934448242188e+00 2.349589586257934570e+00 -1.098378300666809082e+00
2.504000000000000000e+03 3.005071258544921875e+01 -2.037305450439453125e+01 -5.546728372573852539e-01 7.271786212921142578e+00 2.015134096145629883e+00 1.145797014236450195e+00
2.505000000000000000e+03 3.150808715820312500e+01 -1.842800521850585938e+01 -4.905184805393218994e-01 8.227196693420410156e+00 2.321003437042236328e+00 9.067899584770202637e-01
2.506000000000000000e+03 6.144657516479492188e+01 -6.451611995697021484e+00 5.642508268356323242e-01 7.461088657379150391e+00 2.407601833343505859e+00 5.907025933265686035e-02
2.507000000000000000e+03 6.387424468994140625e+01 -3.687735557556152344e+00 4.268769621849060059e-01 7.452000617980957031e+00 2.363663196563720703e+00 1.966670006513595581e-01
2.508000000000000000e+03 6.596125030517578125e+01 -9.085427284240722656e+00 3.264438807964324951e-01 7.422074317932128906e+00 2.324555397033691406e+00 -5.457828566431999207e-02
2.509000000000000000e+03 6.556822204589843750e+01 3.134378194808959961e+00 2.559492588043212891e-01 7.536735534667968750e+00 2.337805271148681641e+00 4.362803697586059570e-01
2.510000000000000000e+03 6.239503860473632812e+01 -1.133973789215087891e+01 4.383881092071533203e-01 7.485687255859375000e+00 2.377222776412963867e+00 -1.826197654008865356e-01
2.511000000000000000e+03 6.287831497192382812e+01 -1.485059452056884766e+01 3.329868316650390625e-01 7.527643203735351562e+00 2.358188867568969727e+00 -3.116698563098907471e-01
2.512000000000000000e+03 3.127219200134277344e+01 -2.133069610595703125e+01 -6.567803621292114258e-01 7.509137153625488281e+00 2.055706977844238281e+00 8.683823943138122559e-01
2.513000000000000000e+03 2.894524955749511719e+01 -2.442104721069335938e+01 -6.396920680999755859e-01 6.228161334991455078e+00 1.676540732383728027e+00 1.019048690795898438e+00
2.514000000000000000e+03 6.410919189453125000e+01 -1.576336288452148438e+01 2.655912637710571289e-01 7.526453971862792969e+00 2.337613582611083984e+00 -3.190983831882476807e-01
2.515000000000000000e+03 6.537211608886718750e+01 -1.303011608123779297e+01 2.920256555080413818e-01 7.460481166839599609e+00 2.325752019882202148e+00 -2.038066238164901733e-01
2.516000000000000000e+03 6.087254333496093750e+01 -1.777523803710937500e+01 2.726519107818603516e-01 7.619225978851318359e+00 2.367563486099243164e+00 -4.310356080532073975e-01
2.517000000000000000e+03 6.110828781127929688e+01 5.421717166900634766e+00 3.114710152149200439e-01 7.618837356567382812e+00 2.379092454910278320e+00 5.905895233154296875e-01
2.518000000000000000e+03 6.431573486328125000e+01 5.219428062438964844e+00 2.356066554784774780e-01 7.592781543731689453e+00 2.348516464233398438e+00 5.207788348197937012e-01
2.519000000000000000e+03 6.471383666992187500e+01 1.092680358886718750e+01 7.345871627330780029e-02 7.715793132781982422e+00 2.336775541305541992e+00 5.952171087265014648e-01
2.520000000000000000e+03 6.098706817626953125e+01 8.543845176696777344e+00 1.821455806493759155e-01 7.685616970062255859e+00 2.360328674316406250e+00 6.522585749626159668e-01
2.521000000000000000e+03 3.225927734375000000e+01 -3.501534223556518555e+00 2.610821008682250977e+00 1.274967384338378906e+01 4.608148574829101562e+00 1.120510458946228027e+00
2.522000000000000000e+03 3.356075668334960938e+01 -5.436333656311035156e+00 5.598896026611328125e+00 1.104892635345458984e+01 4.994346618652343750e+00 1.107179045677185059e+00
2.523000000000000000e+03 3.151569747924804688e+01 -1.174318027496337891e+01 7.400210499763488770e-01 1.193353557586669922e+01 3.802067041397094727e+00 2.990022003650665283e-01
2.524000000000000000e+03 3.328958129882812500e+01 -1.017359447479248047e+01 2.985559701919555664e+00 1.163734340667724609e+01 4.386870861053466797e+00 -1.428697824478149414e+00
2.525000000000000000e+03 3.383520889282226562e+01 -6.927947998046875000e+00 6.145250797271728516e+00 1.056636714935302734e+01 5.013485431671142578e+00 -1.678334474563598633e-01
2.526000000000000000e+03 3.256470489501953125e+01 -3.219030618667602539e+00 2.453328847885131836e+00 1.235557079315185547e+01 4.442669868469238281e+00 1.106671690940856934e+00
2.527000000000000000e+03 3.237126541137695312e+01 -2.912057399749755859e+00 2.011115550994873047e+00 1.233575534820556641e+01 4.304061412811279297e+00 8.327230215072631836e-01
2.528000000000000000e+03 3.080286407470703125e+01 -1.218737506866455078e+01 3.857076764106750488e-01 1.144107437133789062e+01 3.548034667968750000e+00 1.028166770935058594e+00
2.529000000000000000e+03 3.082539749145507812e+01 -1.977858185768127441e+00 6.006193757057189941e-01 1.204239940643310547e+01 3.792905569076538086e+00 -9.864386916160583496e-01
2.530000000000000000e+03 3.162370491027832031e+01 -2.320555686950683594e+00 1.115778326988220215e+00 1.242925262451171875e+01 4.063508987426757812e+00 -4.123059567064046860e-03
2.531000000000000000e+03 2.768012619018554688e+01 -1.346878528594970703e+01 6.558033823966979980e-01 7.060669422149658203e+00 2.314941883087158203e+00 2.820772171020507812e+00
2.532000000000000000e+03 2.740037155151367188e+01 2.280914783477783203e-01 6.008302569389343262e-01 6.790179729461669922e+00 2.217303037643432617e+00 -2.871048212051391602e+00
2.533000000000000000e+03 3.334540176391601562e+01 -8.534189224243164062e+00 5.141477584838867188e+00 1.135344600677490234e+01 4.948477268218994141e+00 -1.472684383392333984e+00
2.534000000000000000e+03 3.357613372802734375e+01 -8.196928024291992188e+00 5.496171951293945312e+00 1.100129604339599609e+01 4.949240684509277344e+00 -1.226358890533447266e+00
2.535000000000000000e+03 2.744642639160156250e+01 -4.348523914813995361e-01 7.682225108146667480e-01 6.878960609436035156e+00 2.294154882431030273e+00 -3.055373668670654297e+00
2.536000000000000000e+03 2.937020492553710938e+01 -1.346424102783203125e+01 1.902768313884735107e-01 9.238172531127929688e+00 2.828534841537475586e+00 2.165177345275878906e+00
2.537000000000000000e+03 2.865211868286132812e+01 -1.636725807189941406e+01 -7.790169864892959595e-02 7.328433990478515625e+00 2.175159692764282227e+00 1.898510932922363281e+00
2.538000000000000000e+03 2.813081932067871094e+01 -8.569189906120300293e-01 6.543769240379333496e-01 8.033288002014160156e+00 2.606299400329589844e+00 -3.060959815979003906e+00
2.539000000000000000e+03 2.880103492736816406e+01 -1.185820102691650391e+00 5.181567668914794922e-01 9.222264289855957031e+00 2.922126293182373047e+00 -2.846308708190917969e+00
2.540000000000000000e+03 2.930985641479492188e+01 1.756874769926071167e-01 1.463977694511413574e-01 9.094443321228027344e+00 2.772252559661865234e+00 -2.278341054916381836e+00
2.541000000000000000e+03 3.439571380615234375e+01 -5.628165245056152344e+00 5.278911113739013672e+00 1.027991199493408203e+01 4.667646884918212891e+00 7.968251705169677734e-01
2.542000000000000000e+03 3.353592681884765625e+01 -4.300344944000244141e+00 4.178197860717773438e+00 1.136405849456787109e+01 4.662677288055419922e+00 1.469856262207031250e+00
2.543000000000000000e+03 2.979005622863769531e+01 -1.294672775268554688e+01 2.041772305965423584e-01 9.994517326354980469e+00 3.059608221054077148e+00 1.992890477180480957e+00
2.544000000000000000e+03 2.999441337585449219e+01 -1.197330474853515625e+01 3.720135688781738281e-01 1.103493595123291016e+01 3.422085046768188477e+00 1.937302589416503906e+00
2.545000000000000000e+03 3.050528717041015625e+01 -1.745424151420593262e+00 4.393337965011596680e-01 1.165905284881591797e+01 3.629515886306762695e+00 -1.420085787773132324e+00
2.546000000000000000e+03 2.885191726684570312e+01 -1.290201473236083984e+01 4.541710615158081055e-01 8.839965820312500000e+00 2.788241147994995117e+00 2.648040294647216797e+00
2.547000000000000000e+03 2.803544044494628906e+01 -1.340218162536621094e+01 5.759064555168151855e-01 7.495551109313964844e+00 2.421437263488769531e+00 2.793216943740844727e+00
2.548000000000000000e+03 3.261043930053710938e+01 -1.109941196441650391e+01 1.706609010696411133e+00 1.196595573425292969e+01 4.101769447326660156e+00 -8.504877090454101562e-01
2.549000000000000000e+03 3.101919364929199219e+01 1.817489147186279297e+00 -1.518743634223937988e-01 9.303337097167968750e+00 2.745438814163208008e+00 -1.258404254913330078e+00
2.550000000000000000e+03 2.796685028076171875e+01 -1.383267784118652344e+01 5.035307407379150391e-01 7.360807418823242188e+00 2.359301567077636719e+00 2.698897600173950195e+00
2.551000000000000000e+03 2.798416137695312500e+01 1.601099252700805664e+00 1.959783583879470825e-01 7.216590404510498047e+00 2.223770618438720703e+00 -2.465696334838867188e+00
2.552000000000000000e+03 2.721768760681152344e+01 -1.520201396942138672e+01 3.914308547973632812e-01 6.343061923980712891e+00 2.020347833633422852e+00 2.406214237213134766e+00
2.553000000000000000e+03 2.688988113403320312e+01 -1.436224174499511719e+01 6.808669567108154297e-01 5.999270439147949219e+00 2.004041194915771484e+00 2.641989707946777344e+00
2.554000000000000000e+03 2.909293937683105469e+01 1.180767297744750977e+00 3.534431383013725281e-02 8.373689651489257812e+00 2.522710084915161133e+00 -2.246296405792236328e+00
2.555000000000000000e+03 2.979071617126464844e+01 -7.634232044219970703e-01 2.201915979385375977e-01 1.013757133483886719e+01 3.107328891754150391e+00 -2.107807874679565430e+00
2.556000000000000000e+03 2.857507896423339844e+01 1.087021827697753906e+00 1.458864659070968628e-01 7.962176322937011719e+00 2.432418823242187500e+00 -2.408430099487304688e+00
2.557000000000000000e+03 3.009009552001953125e+01 -1.240480518341064453e+01 2.853158414363861084e-01 1.075139808654785156e+01 3.311014175415039062e+00 1.793981552124023438e+00
2.558000000000000000e+03 2.922158241271972656e+01 -1.735749435424804688e+01 -2.758950293064117432e-01 7.508260726928710938e+00 2.169709682464599609e+00 1.605381011962890625e+00
2.559000000000000000e+03 3.279172515869140625e+01 4.565232753753662109e+00 -2.798984646797180176e-01 8.695291519165039062e+00 2.524617910385131836e+00 -6.801331043243408203e-01
2.560000000000000000e+03 3.122729301452636719e+01 3.306741476058959961e+00 -2.601173520088195801e-01 8.724628448486328125e+00 2.539353370666503906e+00 -1.196713685989379883e+00
2.561000000000000000e+03 2.993405342102050781e+01 -1.838776969909667969e+01 -4.286116957664489746e-01 7.671097755432128906e+00 2.172745704650878906e+00 1.351435422897338867e+00
2.562000000000000000e+03 3.215885543823242188e+01 6.581783771514892578e+00 -3.672572970390319824e-01 7.977871417999267578e+00 2.283184289932250977e+00 -9.005443453788757324e-01
2.563000000000000000e+03 3.181196784973144531e+01 4.358302116394042969e+00 -2.983824908733367920e-01 8.531877517700195312e+00 2.470048427581787109e+00 -9.949154257774353027e-01
2.564000000000000000e+03 6.332547378540039062e+01 -7.040297985076904297e+00 4.621214568614959717e-01 7.446701049804687500e+00 2.372646808624267578e+00 2.707430347800254822e-02
2.565000000000000000e+03 6.304251098632812500e+01 -1.267061901092529297e+01 3.828026056289672852e-01 7.493348121643066406e+00 2.362845182418823242e+00 -2.205692827701568604e-01
2.566000000000000000e+03 3.233096694946289062e+01 9.300631523132324219e+00 -4.055089354515075684e-01 7.431361198425292969e+00 2.107755661010742188e+00 -8.074536919593811035e-01
2.567000000000000000e+03 3.298597717285156250e+01 1.109943103790283203e+01 -4.310904443264007568e-01 7.276066303253173828e+00 2.053492784500122070e+00 -6.458975076675415039e-01
2.568000000000000000e+03 5.963695526123046875e+01 8.627249717712402344e+00 1.909908354282379150e-01 7.695979595184326172e+00 2.366091251373291016e+00 6.697071194648742676e-01
2.569000000000000000e+03 5.946839904785156250e+01 7.216284275054931641e+00 2.728167176246643066e-01 7.665760517120361328e+00 2.381573200225830078e+00 6.607586741447448730e-01
2.570000000000000000e+03 6.277444076538085938e+01 -5.681431770324707031e+00 4.998188614845275879e-01 7.449062824249267578e+00 2.384664535522460938e+00 9.743876010179519653e-02
2.571000000000000000e+03 6.306864929199218750e+01 1.170179557800292969e+01 5.875903740525245667e-02 7.736658573150634766e+00 2.338625192642211914e+00 6.315357685089111328e-01
2.572000000000000000e+03 6.104901123046875000e+01 1.030706977844238281e+01 1.143960207700729370e-01 7.716607093811035156e+00 2.349300861358642578e+00 6.637545824050903320e-01
2.573000000000000000e+03 6.402591705322265625e+01 3.408694028854370117e+00 2.941498756408691406e-01 7.556954383850097656e+00 2.355331420898437500e+00 4.752157628536224365e-01
2.574000000000000000e+03 6.202397155761718750e+01 -5.784685611724853516e-01 4.641781747341156006e-01 7.504909515380859375e+00 2.390726327896118164e+00 3.667740523815155029e-01
2.575000000000000000e+03 5.943304443359375000e+01 -1.652315711975097656e+01 3.766720890998840332e-01 7.618277549743652344e+00 2.398484945297241211e+00 -4.331245720386505127e-01
2.576000000000000000e+03 3.215687561035156250e+01 -2.002248382568359375e+01 -6.086341142654418945e-01 8.061000823974609375e+00 2.235709905624389648e+00 6.925427913665771484e-01
2.577000000000000000e+03 2.720085334777832031e+01 -2.565762519836425781e+01 -5.411834120750427246e-01 5.513818264007568359e+00 1.491790413856506348e+00 1.057725071907043457e+00
2.578000000000000000e+03 3.153525733947753906e+01 -2.370549774169921875e+01 -7.503242492675781250e-01 7.161714553833007812e+00 1.923417091369628906e+00 7.472406029701232910e-01
2.579000000000000000e+03 3.058195304870605469e+01 -2.561597824096679688e+01 -7.672460675239562988e-01 6.586372852325439453e+00 1.745738029479980469e+00 7.775037288665771484e-01
2.580000000000000000e+03 6.302070999145507812e+01 -2.170536422729492188e+01 7.291787117719650269e-02 7.666130065917968750e+00 2.321714401245117188e+00 -4.416671693325042725e-01
2.581000000000000000e+03 6.134000778198242188e+01 -2.075477981567382812e+01 1.252404749393463135e-01 7.681271076202392578e+00 2.341953516006469727e+00 -4.747154712677001953e-01
2.582000000000000000e+03 6.746179199218750000e+01 -3.186513519287109375e+01 -1.568078398704528809e-01 7.769813537597656250e+00 2.283901691436767578e+00 -2.767973542213439941e-01
2.583000000000000000e+03 3.401819992065429688e+01 -5.606857299804687500e+00 5.427770614624023438e+00 1.058071517944335938e+01 4.802545547485351562e+00 8.918219804763793945e-01
2.584000000000000000e+03 2.849316024780273438e+01 -1.350215339660644531e+01 4.074599742889404297e-01 8.111773490905761719e+00 2.555769920349121094e+00 2.625800848007202148e+00
2.585000000000000000e+03 3.393243789672851562e+01 -8.428955078125000000e+00 5.084754943847656250e+00 1.076510334014892578e+01 4.754957199096679688e+00 -1.251531720161437988e+00
2.586000000000000000e+03 3.342028808593750000e+01 -1.096372890472412109e+01 2.188700675964355469e+00 1.143100929260253906e+01 4.085913181304931641e+00 -1.210564017295837402e+00
2.587000000000000000e+03 3.110712051391601562e+01 -1.135444068908691406e+01 7.659587264060974121e-01 1.230959796905517578e+01 3.922667026519775391e+00 5.387127995491027832e-01
2.588000000000000000e+03 3.356826019287109375e+01 -3.174363374710083008e+00 2.757544279098510742e+00 1.140546894073486328e+01 4.248903751373291016e+00 1.293155550956726074e+00
2.589000000000000000e+03 3.045434761047363281e+01 -9.613993167877197266e-01 2.428779006004333496e-01 1.087100982666015625e+01 3.334166288375854492e+00 -1.536192774772644043e+00
2.590000000000000000e+03 3.006399345397949219e+01 -1.207437515258789062e+00 2.860147356986999512e-01 1.087517166137695312e+01 3.348355770111083984e+00 -1.876133441925048828e+00
2.591000000000000000e+03 3.415129852294921875e+01 -9.221261024475097656e+00 4.155732631683349609e+00 1.078758144378662109e+01 4.482994556427001953e+00 -1.432258129119873047e+00
2.592000000000000000e+03 2.964557075500488281e+01 8.575794696807861328e-01 8.882386609911918640e-03 8.990886688232421875e+00 2.699930667877197266e+00 -1.989818453788757324e+00
2.593000000000000000e+03 3.106545257568359375e+01 -1.649717688560485840e+00 5.442189574241638184e-01 1.175620365142822266e+01 3.690126657485961914e+00 -8.486711382865905762e-01
2.594000000000000000e+03 2.925588226318359375e+01 -1.240910148620605469e+01 4.311760365962982178e-01 9.781291007995605469e+00 3.063740015029907227e+00 2.517693996429443359e+00
2.595000000000000000e+03 3.429862976074218750e+01 -4.030514717102050781e+00 3.826646089553833008e+00 1.071210575103759766e+01 4.361625671386718750e+00 1.353485345840454102e+00
2.596000000000000000e+03 3.380955505371093750e+01 -7.856083869934082031e+00 5.695746421813964844e+00 1.073299121856689453e+01 4.928621292114257812e+00 -9.686198830604553223e-01
2.597000000000000000e+03 3.399093246459960938e+01 -4.457757949829101562e+00 4.339715480804443359e+00 1.090432357788085938e+01 4.573211669921875000e+00 1.352846622467041016e+00
2.598000000000000000e+03 3.380322647094726562e+01 -3.834037542343139648e+00 3.582206964492797852e+00 1.116974353790283203e+01 4.425585269927978516e+00 1.402353405952453613e+00
2.599000000000000000e+03 3.203757858276367188e+01 -1.204793834686279297e+01 7.985358834266662598e-01 1.157040405273437500e+01 3.710682153701782227e+00 -4.022376611828804016e-02
2.600000000000000000e+03 2.825484275817871094e+01 -1.557539558410644531e+01 1.122478768229484558e-01 7.236418247222900391e+00 2.204599857330322266e+00 2.164926290512084961e+00
2.601000000000000000e+03 3.126558494567871094e+01 -1.228266620635986328e+01 4.517278969287872314e-01 1.148964786529541016e+01 3.582412719726562500e+00 6.814776062965393066e-01
2.602000000000000000e+03 3.065485000610351562e+01 -2.692022621631622314e-01 1.203865408897399902e-01 1.043722438812255859e+01 3.167283296585083008e+00 -1.406390309333801270e+00
2.603000000000000000e+03 2.986718559265136719e+01 -1.353089523315429688e+01 9.536872804164886475e-02 9.637074470520019531e+00 2.919732809066772461e+00 1.888873338699340820e+00
2.604000000000000000e+03 2.800645256042480469e+01 9.731379151344299316e-01 2.915011048316955566e-01 7.383516788482666016e+00 2.302505493164062500e+00 -2.595350742340087891e+00
2.605000000000000000e+03 2.803136634826660156e+01 3.443970084190368652e-01 4.007054567337036133e-01 7.596135616302490234e+00 2.399052381515502930e+00 -2.736064910888671875e+00
2.606000000000000000e+03 2.769400215148925781e+01 -1.419871425628662109e+01 4.880892336368560791e-01 6.994124889373779297e+00 2.244664192199707031e+00 2.645894050598144531e+00
2.607000000000000000e+03 2.810260009765625000e+01 -2.739877104759216309e-01 5.113323926925659180e-01 7.851082324981689453e+00 2.508724451065063477e+00 -2.888850450515747070e+00
2.608000000000000000e+03 2.916991996765136719e+01 6.690447926521301270e-01 9.914176166057586670e-02 8.650229454040527344e+00 2.624811172485351562e+00 -2.273775100708007812e+00
2.609000000000000000e+03 2.770764923095703125e+01 -1.557043647766113281e+01 2.271866798400878906e-01 6.794861316680908203e+00 2.106614351272583008e+00 2.289614915847778320e+00
2.610000000000000000e+03 2.843881416320800781e+01 -1.412372684478759766e+01 3.083631098270416260e-01 7.808656215667724609e+00 2.435105800628662109e+00 2.468602895736694336e+00
2.611000000000000000e+03 3.205475997924804688e+01 3.539628028869628906e+00 -2.464129030704498291e-01 8.891426086425781250e+00 2.593503952026367188e+00 -8.827059864997863770e-01
2.612000000000000000e+03 3.107754325866699219e+01 -1.288353252410888672e+01 2.199547886848449707e-01 1.082260513305664062e+01 3.312767982482910156e+00 9.659317135810852051e-01
2.613000000000000000e+03 3.366971206665039062e+01 5.745184898376464844e+00 -3.049425184726715088e-01 8.494110107421875000e+00 2.456750392913818359e+00 -4.814173877239227295e-01
2.614000000000000000e+03 3.163731956481933594e+01 1.987104654312133789e+00 -1.279765218496322632e-01 9.434319496154785156e+00 2.791902780532836914e+00 -9.769551753997802734e-01
2.615000000000000000e+03 3.354782867431640625e+01 -2.081646919250488281e+01 -6.394907236099243164e-01 8.157617568969726562e+00 2.255437850952148438e+00 3.972072601318359375e-01
2.616000000000000000e+03 3.495289611816406250e+01 1.305497169494628906e+01 -4.991995692253112793e-01 7.327695846557617188e+00 2.048548936843872070e+00 -3.455604314804077148e-01
2.617000000000000000e+03 3.356413269042968750e+01 1.299902725219726562e+01 -4.795811772346496582e-01 7.070059299468994141e+00 1.977143526077270508e+00 -5.271698832511901855e-01
2.618000000000000000e+03 5.865648269653320312e+01 5.888885498046875000e+00 3.552776873111724854e-01 7.647170066833496094e+00 2.400734424591064453e+00 6.431182622909545898e-01
2.619000000000000000e+03 6.251782989501953125e+01 3.721968173980712891e+00 3.284240961074829102e-01 7.573230743408203125e+00 2.370496511459350586e+00 5.097984671592712402e-01
2.620000000000000000e+03 6.194990158081054688e+01 -2.366672277450561523e+00 5.078269839286804199e-01 7.479557991027832031e+00 2.396215438842773438e+00 2.725208103656768799e-01
2.621000000000000000e+03 6.268947219848632812e+01 5.431828022003173828e+00 2.699234485626220703e-01 7.606962203979492188e+00 2.363065719604492188e+00 5.584635734558105469e-01
2.622000000000000000e+03 6.136139297485351562e+01 6.624029278755187988e-01 4.535943865776062012e-01 7.527234554290771484e+00 2.394248723983764648e+00 4.207671880722045898e-01
2.623000000000000000e+03 6.070560836791992188e+01 -5.558433532714843750e-01 5.214794278144836426e-01 7.513828754425048828e+00 2.410592555999755859e+00 3.822500705718994141e-01
2.624000000000000000e+03 5.942222595214843750e+01 1.034446144104003906e+01 1.305603086948394775e-01 7.723771095275878906e+00 2.356299400329589844e+00 6.919603347778320312e-01
2.625000000000000000e+03 3.285110092163085938e+01 -2.444387626647949219e+01 -8.157778978347778320e-01 7.315144538879394531e+00 1.949809908866882324e+00 5.155345201492309570e-01
2.626000000000000000e+03 6.054787826538085938e+01 -1.493926715850830078e+01 4.119258224964141846e-01 7.565647125244140625e+00 2.393271923065185547e+00 -3.596858680248260498e-01
2.627000000000000000e+03 6.111059188842773438e+01 4.075480937957763672e+00 3.628783822059631348e-01 7.590615749359130859e+00 2.386048316955566406e+00 5.451520085334777832e-01
2.628000000000000000e+03 6.460520935058593750e+01 -2.250938034057617188e+01 4.155816510319709778e-02 7.650757312774658203e+00 2.307694673538208008e+00 -4.139178097248077393e-01
2.629000000000000000e+03 5.975638198852539062e+01 -1.952089309692382812e+01 2.105159759521484375e-01 7.684242248535156250e+00 2.368427515029907227e+00 -4.965212941169738770e-01
2.630000000000000000e+03 3.330348205566406250e+01 -3.681737899780273438e+00 3.287199497222900391e+00 1.170251655578613281e+01 4.496914863586425781e+00 1.414597511291503906e+00
2.631000000000000000e+03 3.289329147338867188e+01 -1.061048030853271484e+01 2.298103094100952148e+00 1.192488956451416016e+01 4.266897678375244141e+00 -1.184835314750671387e+00
2.632000000000000000e+03 3.384608840942382812e+01 -1.062684440612792969e+01 2.633333683013916016e+00 1.109581947326660156e+01 4.118745803833007812e+00 -1.361089468002319336e+00
2.633000000000000000e+03 3.312469863891601562e+01 -3.028962612152099609e+00 2.480931520462036133e+00 1.173730564117431641e+01 4.265471458435058594e+00 1.174683690071105957e+00
2.634000000000000000e+03 3.273326110839843750e+01 -2.875793695449829102e+00 2.156339883804321289e+00 1.204916763305664062e+01 4.261652469635009766e+00 9.887031912803649902e-01
2.635000000000000000e+03 3.314136123657226562e+01 -1.141713809967041016e+01 1.694323062896728516e+00 1.149342060089111328e+01 3.956323146820068359e+00 -9.374579191207885742e-01
2.636000000000000000e+03 3.421005249023437500e+01 -9.748464584350585938e+00 3.592352151870727539e+00 1.083378696441650391e+01 4.327841758728027344e+00 -1.478787899017333984e+00
2.637000000000000000e+03 3.177722930908203125e+01 -1.253454780578613281e+01 4.918932914733886719e-01 1.124610614776611328e+01 3.521399736404418945e+00 3.106501996517181396e-01
2.638000000000000000e+03 3.225803756713867188e+01 -1.281899070739746094e+01 5.216222405433654785e-01 1.100849723815917969e+01 3.459035873413085938e+00 4.433093219995498657e-02
2.639000000000000000e+03 3.027029800415039062e+01 -1.289835166931152344e+01 1.916438043117523193e-01 1.043604183197021484e+01 3.188305854797363281e+00 1.618345260620117188e+00
2.640000000000000000e+03 3.065532302856445312e+01 -1.264639186859130859e+01 2.350454181432723999e-01 1.088843441009521484e+01 3.337044000625610352e+00 1.268306374549865723e+00
2.641000000000000000e+03 3.255544662475585938e+01 -2.231767654418945312e+00 1.518782734870910645e+00 1.187180233001708984e+01 4.017175674438476562e+00 6.182795763015747070e-01
2.642000000000000000e+03 3.074061584472656250e+01 -1.354337930679321289e+00 3.703182041645050049e-01 1.136776638031005859e+01 3.521425247192382812e+00 -1.243098497390747070e+00
2.643000000000000000e+03 3.403760528564453125e+01 -7.493940830230712891e+00 5.756652832031250000e+00 1.046598815917968750e+01 4.866792201995849609e+00 -6.412203907966613770e-01
2.644000000000000000e+03 3.358526229858398438e+01 -9.712420463562011719e+00 3.597843885421752930e+00 1.135035514831542969e+01 4.484459400177001953e+00 -1.542940497398376465e+00
2.645000000000000000e+03 2.951683616638183594e+01 -3.018170893192291260e-01 1.782740503549575806e-01 9.541017532348632812e+00 2.915787458419799805e+00 -2.240777492523193359e+00
2.646000000000000000e+03 3.426845169067382812e+01 -7.126932144165039062e+00 5.722564697265625000e+00 1.024195575714111328e+01 4.789356231689453125e+00 -3.121167719364166260e-01
2.647000000000000000e+03 3.420014572143554688e+01 -8.090076446533203125e+00 5.242409229278564453e+00 1.047153472900390625e+01 4.714183330535888672e+00 -1.025434017181396484e+00
2.648000000000000000e+03 3.443994140625000000e+01 -7.699110507965087891e+00 5.353200912475585938e+00 1.019443035125732422e+01 4.664289474487304688e+00 -7.116499543190002441e-01
2.649000000000000000e+03 2.935345077514648438e+01 -1.579378986358642578e+01 -1.329435259103775024e-01 8.117453575134277344e+00 2.395352840423583984e+00 1.766438484191894531e+00
2.650000000000000000e+03 3.066900825500488281e+01 1.411213397979736328e+00 -1.049153655767440796e-01 9.309496879577636719e+00 2.761374473571777344e+00 -1.418964982032775879e+00
2.651000000000000000e+03 3.116415023803710938e+01 1.321389198303222656e+00 -8.888850361108779907e-02 9.664443969726562500e+00 2.872666835784912109e+00 -1.153574109077453613e+00
2.652000000000000000e+03 3.172060585021972656e+01 1.377053856849670410e+00 -5.453114584088325500e-02 9.765404701232910156e+00 2.913262128829956055e+00 -8.809232711791992188e-01
2.653000000000000000e+03 2.819282150268554688e+01 -1.463498497009277344e+01 2.628538012504577637e-01 7.417878627777099609e+00 2.304219722747802734e+00 2.405969858169555664e+00
2.654000000000000000e+03 2.871656990051269531e+01 -1.513962364196777344e+01 8.144751191139221191e-02 7.731974124908447266e+00 2.344026565551757812e+00 2.119447946548461914e+00
2.655000000000000000e+03 3.221767807006835938e+01 2.778066396713256836e+00 -1.701986193656921387e-01 9.221961021423339844e+00 2.715528726577758789e+00 -7.752856016159057617e-01
2.656000000000000000e+03 3.005245971679687500e+01 -1.667487335205078125e+01 -2.985999882221221924e-01 8.231238365173339844e+00 2.379791498184204102e+00 1.436282396316528320e+00
2.657000000000000000e+03 3.271079254150390625e+01 -1.481288528442382812e+01 1.388652995228767395e-02 1.005592918395996094e+01 3.020944595336914062e+00 2.532091438770294189e-01
2.658000000000000000e+03 3.073975753784179688e+01 -1.763505363464355469e+01 -4.147171080112457275e-01 8.235845565795898438e+00 2.346338510513305664e+00 1.141491174697875977e+00
2.659000000000000000e+03 3.301208496093750000e+01 2.835151433944702148e+00 -9.722647070884704590e-02 9.324494361877441406e+00 2.768180370330810547e+00 -4.633528292179107666e-01
2.660000000000000000e+03 3.455771255493164062e+01 7.181635379791259766e+00 -3.344989120960235596e-01 8.235521316528320312e+00 2.370306491851806641e+00 -3.334777951240539551e-01
2.661000000000000000e+03 3.511316299438476562e+01 1.044097995758056641e+01 -4.440569877624511719e-01 7.702723503112792969e+00 2.177599906921386719e+00 -3.177743554115295410e-01
2.662000000000000000e+03 3.089918518066406250e+01 -1.930762290954589844e+01 -5.497419834136962891e-01 7.820029735565185547e+00 2.181086301803588867e+00 1.043370962142944336e+00
2.663000000000000000e+03 3.250238418579101562e+01 -1.881930732727050781e+01 -5.263715982437133789e-01 8.440583229064941406e+00 2.374263525009155273e+00 5.881929397583007812e-01
2.664000000000000000e+03 3.580762481689453125e+01 7.405503273010253906e+00 -2.928923368453979492e-01 8.316251754760742188e+00 2.407007932662963867e+00 -1.015940532088279724e-01
2.665000000000000000e+03 5.922140121459960938e+01 3.532969236373901367e+00 4.384508430957794189e-01 7.598840713500976562e+00 2.411187410354614258e+00 5.706644654273986816e-01
2.666000000000000000e+03 6.062406539916992188e+01 2.753895998001098633e+00 4.203252792358398438e-01 7.569977760314941406e+00 2.397090911865234375e+00 5.147967934608459473e-01
2.667000000000000000e+03 3.302589797973632812e+01 1.457479000091552734e+01 -4.852349162101745605e-01 6.825691699981689453e+00 1.902137041091918945e+00 -5.539827942848205566e-01
2.668000000000000000e+03 3.155468177795410156e+01 1.382228088378906250e+01 -4.180660843849182129e-01 6.583259582519531250e+00 1.849558115005493164e+00 -7.052495479583740234e-01
2.669000000000000000e+03 6.214242172241210938e+01 -7.781099796295166016e+00 5.180812478065490723e-01 7.456201553344726562e+00 2.392284870147705078e+00 -1.429551467299461365e-02
2.670000000000000000e+03 5.928570175170898438e+01 -3.817070484161376953e+00 6.718673706054687500e-01 7.483086585998535156e+00 2.446486234664916992e+00 2.208779454231262207e-01
2.671000000000000000e+03 6.369759750366210938e+01 1.573850989341735840e+00 3.525430262088775635e-01 7.524303913116455078e+00 2.363054037094116211e+00 4.189687371253967285e-01
2.672000000000000000e+03 5.723420333862304688e+01 1.200124835968017578e+01 5.176902934908866882e-02 7.764998435974121094e+00 2.345030307769775391e+00 7.242200970649719238e-01
2.673000000000000000e+03 5.618943023681640625e+01 8.967604637145996094e+00 2.148392647504806519e-01 7.733203887939453125e+00 2.384413003921508789e+00 7.363261580467224121e-01
2.674000000000000000e+03 5.952892684936523438e+01 -1.332831478118896484e+01 5.191015601158142090e-01 7.549274921417236328e+00 2.420512914657592773e+00 -3.144176900386810303e-01
2.675000000000000000e+03 5.596465301513671875e+01 -1.847146797180175781e+01 3.306263685226440430e-01 7.736197471618652344e+00 2.420047044754028320e+00 -5.621353387832641602e-01
2.676000000000000000e+03 5.775273895263671875e+01 4.428534030914306641e+00 4.407942891120910645e-01 7.629585742950439453e+00 2.421113967895507812e+00 6.251298189163208008e-01
2.677000000000000000e+03 5.782620620727539062e+01 9.872893333435058594e+00 1.590060442686080933e-01 7.727111816406250000e+00 2.365835189819335938e+00 7.086139917373657227e-01
2.678000000000000000e+03 6.221732711791992188e+01 -2.370962715148925781e+01 9.456922998651862144e-04 7.721078395843505859e+00 2.316607236862182617e+00 -4.568067789077758789e-01
2.679000000000000000e+03 5.994430923461914062e+01 4.817502021789550781e+00 3.655135333538055420e-01 7.616061687469482422e+00 2.394472599029541016e+00 5.939448475837707520e-01
2.680000000000000000e+03 3.512742233276367188e+01 -2.436043167114257812e+01 -8.146945238113403320e-01 7.764061927795410156e+00 2.084810256958007812e+00 1.703759580850601196e-01
2.681000000000000000e+03 3.385799407958984375e+01 -2.315961837768554688e+01 -7.687949538230895996e-01 7.754427433013916016e+00 2.095689773559570312e+00 3.708321154117584229e-01
2.682000000000000000e+03 1.932625770568847656e+01 -2.467203521728515625e+01 1.067842394113540649e-01 2.502240896224975586e+00 7.827075719833374023e-01 9.619424939155578613e-01
2.683000000000000000e+03 2.654153442382812500e+01 2.193199348449707031e+01 -3.876714408397674561e-01 5.020102500915527344e+00 1.389729261398315430e+00 -5.963868498802185059e-01
2.684000000000000000e+03 3.419783782958984375e+01 1.716531944274902344e+01 -5.542893409729003906e-01 6.735266685485839844e+00 1.854293227195739746e+00 -3.631051480770111084e-01
2.685000000000000000e+03 3.089721107482910156e+01 1.884532928466796875e+01 -4.811899065971374512e-01 6.011199474334716797e+00 1.659002780914306641e+00 -5.531907081604003906e-01
2.686000000000000000e+03 6.774871826171875000e+01 3.251263427734375000e+01 -1.691286116838455200e-01 8.150824546813964844e+00 2.394508600234985352e+00 2.527482509613037109e-01
2.687000000000000000e+03 7.196871948242187500e+01 3.850658798217773438e+01 -8.595585078001022339e-02 8.403508186340332031e+00 2.495265722274780273e+00 7.798807322978973389e-02
2.688000000000000000e+03 3.437879562377929688e+01 -6.180902957916259766e+00 5.553582668304443359e+00 1.023953056335449219e+01 4.737934112548828125e+00 4.487452805042266846e-01
2.689000000000000000e+03 3.451228332519531250e+01 -6.764376640319824219e+00 5.548916339874267578e+00 1.007252120971679688e+01 4.686431407928466797e+00 -3.802090883255004883e-02
2.690000000000000000e+03 3.369540405273437500e+01 -1.171629714965820312e+01 1.634988903999328613e+00 1.098980331420898438e+01 3.787437677383422852e+00 -1.001424312591552734e+00
2.691000000000000000e+03 3.371132659912109375e+01 -8.754210472106933594e+00 4.782350540161132812e+00 1.108201694488525391e+01 4.759310245513916016e+00 -1.459192395210266113e+00
2.692000000000000000e+03 3.442604064941406250e+01 -4.655987262725830078e+00 4.477272987365722656e+00 1.051496028900146484e+01 4.497670173645019531e+00 1.223692774772644043e+00
2.693000000000000000e+03 3.329047012329101562e+01 -2.560433626174926758e+00 2.106275081634521484e+00 1.149975013732910156e+01 4.081807613372802734e+00 1.036364316940307617e+00
2.694000000000000000e+03 3.196798896789550781e+01 -1.329026889801025391e+01 2.544893622398376465e-01 1.072184848785400391e+01 3.292901277542114258e+00 3.421851396560668945e-01
2.695000000000000000e+03 3.041439056396484375e+01 -1.352412986755371094e+01 5.059595406055450439e-02 1.005335712432861328e+01 3.031185865402221680e+00 1.480887293815612793e+00
2.696000000000000000e+03 3.163640785217285156e+01 -1.592104434967041016e+00 7.110192775726318359e-01 1.177102661132812500e+01 3.744613647460937500e+00 -3.244317173957824707e-01
2.697000000000000000e+03 3.114227676391601562e+01 7.628816962242126465e-01 -1.635260134935379028e-02 9.945590019226074219e+00 2.978771209716796875e+00 -1.120940804481506348e+00
2.698000000000000000e+03 2.873972702026367188e+01 -7.802700251340866089e-02 3.202416896820068359e-01 8.550842285156250000e+00 2.661325216293334961e+00 -2.619680881500244141e+00
2.699000000000000000e+03 3.154600906372070312e+01 -1.353656768798828125e+01 1.169048920273780823e-01 1.048221206665039062e+01 3.179734945297241211e+00 6.898342967033386230e-01
2.700000000000000000e+03 3.156574058532714844e+01 -1.302769565582275391e+01 2.573947012424468994e-01 1.088435554504394531e+01 3.342525243759155273e+00 6.094068884849548340e-01
2.701000000000000000e+03 2.927134895324707031e+01 -1.396405315399169922e+01 1.290653944015502930e-01 8.755225181579589844e+00 2.665287256240844727e+00 2.134267807006835938e+00
2.702000000000000000e+03 3.103843879699707031e+01 -1.061678647994995117e+00 3.428859710693359375e-01 1.116140937805175781e+01 3.451288700103759766e+00 -1.022434353828430176e+00
2.703000000000000000e+03 3.003585052490234375e+01 1.899072341620922089e-02 7.178875803947448730e-02 9.806705474853515625e+00 2.963548421859741211e+00 -1.849659562110900879e+00
2.704000000000000000e+03 2.894343376159667969e+01 -1.349375534057617188e+01 3.029755949974060059e-01 8.591484069824218750e+00 2.668337821960449219e+00 2.419435977935791016e+00
2.705000000000000000e+03 3.284566116333007812e+01 -1.188951873779296875e+01 1.195959568023681641e+00 1.142322826385498047e+01 3.785756349563598633e+00 -6.112743020057678223e-01
2.706000000000000000e+03 3.007757759094238281e+01 8.858274221420288086e-01 -4.313902556896209717e-02 9.379556655883789062e+00 2.800925254821777344e+00 -1.789294958114624023e+00
2.707000000000000000e+03 3.105930137634277344e+01 2.588515877723693848e-01 6.552837789058685303e-02 1.021523761749267578e+01 3.084229946136474609e+00 -1.140567183494567871e+00
2.708000000000000000e+03 3.472919082641601562e+01 -4.315365791320800781e+00 3.997265338897705078e+00 1.032105636596679688e+01 4.295496463775634766e+00 1.224741458892822266e+00
2.709000000000000000e+03 3.376697158813476562e+01 -4.838286876678466797e+00 4.835990905761718750e+00 1.101284885406494141e+01 4.754652023315429688e+00 1.339957118034362793e+00
2.710000000000000000e+03 3.232870101928710938e+01 1.410935878753662109e+00 1.725023984909057617e-02 9.874200820922851562e+00 2.967435359954833984e+00 -5.772716999053955078e-01
2.711000000000000000e+03 3.230492019653320312e+01 2.069954872131347656e+00 -8.042176812887191772e-02 9.544402122497558594e+00 2.839194059371948242e+00 -6.703859567642211914e-01
2.712000000000000000e+03 3.087343406677246094e+01 -1.613173294067382812e+01 -2.885355353355407715e-01 8.854520797729492188e+00 2.569795608520507812e+00 1.159538269042968750e+00
2.713000000000000000e+03 3.498927688598632812e+01 4.635934829711914062e+00 -1.068506985902786255e-01 8.864678382873535156e+00 2.627348184585571289e+00 -5.177450552582740784e-02
2.714000000000000000e+03 3.492629623413085938e+01 -2.185390663146972656e+01 -6.638280749320983887e-01 8.141521453857421875e+00 2.243308067321777344e+00 1.444731503725051880e-01
2.715000000000000000e+03 3.459694671630859375e+01 -1.954634666442871094e+01 -4.892689585685729980e-01 8.569621086120605469e+00 2.424105644226074219e+00 1.163691133260726929e-01
2.716000000000000000e+03 3.384490585327148438e+01 4.667436599731445312e+00 -2.175442427396774292e-01 8.791469573974609375e+00 2.572177410125732422e+00 -3.731975555419921875e-01
2.717000000000000000e+03 3.553808593750000000e+01 8.846897125244140625e+00 -3.706078529357910156e-01 8.025230407714843750e+00 2.296386718750000000e+00 -2.043337523937225342e-01
2.718000000000000000e+03 3.678689575195312500e+01 1.077050876617431641e+01 -4.151348173618316650e-01 7.812624454498291016e+00 2.219246864318847656e+00 -8.019802719354629517e-02
2.719000000000000000e+03 3.489733123779296875e+01 5.863933563232421875e+00 -2.301589697599411011e-01 8.573039054870605469e+00 2.502863883972167969e+00 -1.744654774665832520e-01
2.720000000000000000e+03 6.098903274536132812e+01 -1.234488391876220703e+01 4.735896885395050049e-01 7.513204574584960938e+00 2.396038293838500977e+00 -2.387676537036895752e-01
2.721000000000000000e+03 5.655179214477539062e+01 -1.601427650451660156e+01 4.920161962509155273e-01 7.659833908081054688e+00 2.445554971694946289e+00 -4.864233434200286865e-01
2.722000000000000000e+03 6.283446502685546875e+01 -9.057316780090332031e+00 4.662793278694152832e-01 7.458721637725830078e+00 2.377500295639038086e+00 -7.188024371862411499e-02
2.723000000000000000e+03 2.692812347412109375e+01 2.445972633361816406e+01 -5.017626285552978516e-01 4.999420166015625000e+00 1.349297285079956055e+00 -4.945874214172363281e-01
2.724000000000000000e+03 3.668413543701171875e+01 1.279883003234863281e+01 -4.820646941661834717e-01 7.534751892089843750e+00 2.115806102752685547e+00 -1.313737630844116211e-01
2.725000000000000000e+03 6.030699157714843750e+01 -7.393332004547119141e+00 6.304638385772705078e-01 7.467858791351318359e+00 2.429496765136718750e+00 1.444658264517784119e-02
2.726000000000000000e+03 3.470527267456054688e+01 -2.713406753540039062e+01 -9.097170233726501465e-01 7.378604412078857422e+00 1.940666317939758301e+00 2.461025565862655640e-01
2.727000000000000000e+03 3.788339614868164062e+01 -2.757468414306640625e+01 -8.861106634140014648e-01 7.744173526763916016e+00 2.057418823242187500e+00 -6.402092427015304565e-02
2.728000000000000000e+03 5.717581939697265625e+01 2.814133882522583008e+00 5.401539802551269531e-01 7.605399131774902344e+00 2.443665981292724609e+00 5.878432989120483398e-01
2.729000000000000000e+03 3.633459091186523438e+01 -2.300279617309570312e+01 -6.983870267868041992e-01 8.105154037475585938e+00 2.222030162811279297e+00 -3.830849751830101013e-02
2.730000000000000000e+03 6.023736953735351562e+01 -1.093497943878173828e+01 5.525761246681213379e-01 7.503592491149902344e+00 2.416850566864013672e+00 -1.865620613098144531e-01
2.731000000000000000e+03 6.182693862915039062e+01 -1.370067310333251953e+01 4.130889177322387695e-01 7.521475315093994141e+00 2.380369186401367188e+00 -2.822094559669494629e-01
2.732000000000000000e+03 3.025449562072753906e+01 -2.813105964660644531e+01 -7.982800602912902832e-01 6.272120952606201172e+00 1.642152190208435059e+00 6.789509654045104980e-01
2.733000000000000000e+03 3.265234756469726562e+01 -2.792480087280273438e+01 -8.990051746368408203e-01 6.918055057525634766e+00 1.805714964866638184e+00 4.578010737895965576e-01
2.734000000000000000e+03 5.568783569335937500e+01 1.095466804504394531e+01 9.199138730764389038e-02 7.764077186584472656e+00 2.356820583343505859e+00 7.439715266227722168e-01
2.735000000000000000e+03 7.240353393554687500e+01 3.212674713134765625e+01 -8.013213425874710083e-02 8.330084800720214844e+00 2.474985837936401367e+00 1.929159462451934814e-01
2.736000000000000000e+03 6.986610412597656250e+01 3.349469757080078125e+01 -1.275780349969863892e-01 8.243201255798339844e+00 2.434687137603759766e+00 2.036771625280380249e-01
2.737000000000000000e+03 3.477348709106445312e+01 -6.399996757507324219e+00 5.360236644744873047e+00 9.919942855834960938e+00 4.584053993225097656e+00 2.193391472101211548e-01
2.738000000000000000e+03 3.469659423828125000e+01 -7.340754508972167969e+00 5.339488506317138672e+00 9.984905242919921875e+00 4.597318172454833984e+00 -4.372195601463317871e-01
2.739000000000000000e+03 3.395858383178710938e+01 -1.117858219146728516e+01 2.188820600509643555e+00 1.094787883758544922e+01 3.941009759902954102e+00 -1.232890009880065918e+00
2.740000000000000000e+03 3.455404281616210938e+01 -8.695433616638183594e+00 4.566862583160400391e+00 1.037093925476074219e+01 4.481340408325195312e+00 -1.206469893455505371e+00
2.741000000000000000e+03 3.430765914916992188e+01 -2.722548723220825195e+00 2.539862632751464844e+00 1.082109832763671875e+01 4.008288383483886719e+00 1.242512822151184082e+00
2.742000000000000000e+03 3.471191787719726562e+01 -3.489705324172973633e+00 3.262058496475219727e+00 1.044128894805908203e+01 4.111004352569580078e+00 1.298971295356750488e+00
2.743000000000000000e+03 3.337952041625976562e+01 -2.069330692291259766e+00 1.691537022590637207e+00 1.130961799621582031e+01 3.900346517562866211e+00 8.765453696250915527e-01
2.744000000000000000e+03 3.420396041870117188e+01 -5.027810096740722656e+00 4.849096775054931641e+00 1.060428905487060547e+01 4.636015892028808594e+00 1.172024846076965332e+00
2.745000000000000000e+03 3.447220230102539062e+01 -1.034260654449462891e+01 3.009463548660278320e+00 1.068450450897216797e+01 4.108190536499023438e+00 -1.415788888931274414e+00
2.746000000000000000e+03 3.198839378356933594e+01 -1.738343000411987305e+00 9.086956381797790527e-01 1.183959197998046875e+01 3.824486255645751953e+00 -3.067300654947757721e-03
2.747000000000000000e+03 3.231406021118164062e+01 -1.899472355842590332e+00 1.181243062019348145e+00 1.181284236907958984e+01 3.898225545883178711e+00 3.298958241939544678e-01
2.748000000000000000e+03 3.376171493530273438e+01 -2.640709400177001953e+00 2.344405174255371094e+00 1.116568660736083984e+01 4.053027629852294922e+00 1.169099926948547363e+00
2.749000000000000000e+03 3.082027244567871094e+01 -7.030373215675354004e-01 2.135654538869857788e-01 1.082892417907714844e+01 3.312746763229370117e+00 -1.250047326087951660e+00
2.750000000000000000e+03 3.152005195617675781e+01 -1.052223086357116699e+00 4.522418677806854248e-01 1.130230998992919922e+01 3.526365518569946289e+00 -5.969161391258239746e-01
2.751000000000000000e+03 3.285144805908203125e+01 -2.478789091110229492e-01 5.618234276771545410e-01 1.069373989105224609e+01 3.376668930053710938e+00 3.809826076030731201e-02
2.752000000000000000e+03 3.098427772521972656e+01 -1.352117347717285156e+01 8.253339678049087524e-02 1.030551815032958984e+01 3.116415500640869141e+00 1.095519661903381348e+00
2.753000000000000000e+03 3.105065917968750000e+01 -1.422682666778564453e+01 -6.786343455314636230e-02 9.838148117065429688e+00 2.931085348129272461e+00 1.089827060699462891e+00
2.754000000000000000e+03 3.468693542480468750e+01 -5.851663589477539062e+00 5.171898365020751953e+00 1.009192276000976562e+01 4.579146385192871094e+00 6.375806331634521484e-01
2.755000000000000000e+03 3.240508270263671875e+01 -1.360351181030273438e+01 2.409359365701675415e-01 1.055980968475341797e+01 3.240223646163940430e+00 1.857292354106903076e-01
2.756000000000000000e+03 3.121850776672363281e+01 -1.497540473937988281e+01 -1.684665828943252563e-01 9.550913810729980469e+00 2.814734220504760742e+00 9.848132133483886719e-01
2.757000000000000000e+03 3.505377960205078125e+01 -1.001611232757568359e+01 3.344053030014038086e+00 1.021887683868408203e+01 4.068879127502441406e+00 -1.359494209289550781e+00
2.758000000000000000e+03 3.464138031005859375e+01 -9.136173248291015625e+00 4.113131999969482422e+00 1.039276313781738281e+01 4.351768493652343750e+00 -1.318195700645446777e+00
2.759000000000000000e+03 3.459955596923828125e+01 -8.266839981079101562e+00 4.899352073669433594e+00 1.023117828369140625e+01 4.539159297943115234e+00 -1.023237943649291992e+00
2.760000000000000000e+03 3.105103492736816406e+01 -1.425763964653015137e-01 1.256262362003326416e-01 1.049790096282958984e+01 3.187058210372924805e+00 -1.138086438179016113e+00
2.761000000000000000e+03 3.338629913330078125e+01 -1.222212982177734375e+01 1.180355906486511230e+00 1.103324890136718750e+01 3.664081335067749023e+00 -7.300654053688049316e-01
2.762000000000000000e+03 3.056821060180664062e+01 8.019910454750061035e-01 -3.329620137810707092e-02 9.601758003234863281e+00 2.870538473129272461e+00 -1.517070293426513672e+00
2.763000000000000000e+03 3.271859741210937500e+01 -1.312487125396728516e+01 5.261662006378173828e-01 1.080345439910888672e+01 3.398886203765869141e+00 -1.427913010120391846e-01
2.764000000000000000e+03 3.254791641235351562e+01 -1.235378742218017578e+01 8.210605978965759277e-01 1.126851177215576172e+01 3.626871824264526367e+00 -2.814508378505706787e-01
2.765000000000000000e+03 3.173835372924804688e+01 7.707201242446899414e-01 4.548849165439605713e-02 1.012834739685058594e+01 3.052150726318359375e+00 -7.929300665855407715e-01
2.766000000000000000e+03 3.052568244934082031e+01 -1.516369438171386719e+01 -1.771308779716491699e-01 9.090591430664062500e+00 2.674038171768188477e+00 1.345617532730102539e+00
2.767000000000000000e+03 2.903012466430664062e+01 -1.453561115264892578e+01 9.784965217113494873e-02 8.242785453796386719e+00 2.502190589904785156e+00 2.131954669952392578e+00
2.768000000000000000e+03 3.227325439453125000e+01 -1.651318740844726562e+01 -3.130979537963867188e-01 9.195627212524414062e+00 2.664758920669555664e+00 5.946986675262451172e-01
2.769000000000000000e+03 3.604202270507812500e+01 6.103873252868652344e+00 -1.644956171512603760e-01 8.576601028442382812e+00 2.523631572723388672e+00 3.801152482628822327e-02
2.770000000000000000e+03 3.700666046142578125e+01 8.992760658264160156e+00 -3.216891884803771973e-01 8.107534408569335938e+00 2.335753679275512695e+00 2.326066978275775909e-02
2.771000000000000000e+03 3.301335144042968750e+01 2.069170236587524414e+00 9.698938578367233276e-03 9.633168220520019531e+00 2.892860174179077148e+00 -3.646167814731597900e-01
2.772000000000000000e+03 3.359980773925781250e+01 1.245499849319458008e+00 2.746905982494354248e-01 9.957895278930664062e+00 3.069775581359863281e+00 9.238809347152709961e-03
2.773000000000000000e+03 6.151742553710937500e+01 -9.961399078369140625e+00 5.089063644409179688e-01 7.479444026947021484e+00 2.396505117416381836e+00 -1.227604821324348450e-01
2.774000000000000000e+03 5.897052383422851562e+01 -1.160952281951904297e+01 6.075616478919982910e-01 7.524460792541503906e+00 2.439606666564941406e+00 -2.406865805387496948e-01
2.775000000000000000e+03 6.915108489990234375e+01 3.575395584106445312e+01 -1.454512029886245728e-01 8.237881660461425781e+00 2.427729129791259766e+00 1.703641116619110107e-01
2.776000000000000000e+03 3.711194992065429688e+01 7.469187736511230469e+00 -2.014204561710357666e-01 8.351061820983886719e+00 2.444892406463623047e+00 1.398253738880157471e-01
2.777000000000000000e+03 3.858937835693359375e+01 1.064717578887939453e+01 -3.436462283134460449e-01 7.931436061859130859e+00 2.276336908340454102e+00 1.687630265951156616e-01
2.778000000000000000e+03 5.944785690307617188e+01 5.793401598930358887e-02 5.573315620422363281e-01 7.530781745910644531e+00 2.426434040069580078e+00 4.214299917221069336e-01
2.779000000000000000e+03 6.003136825561523438e+01 1.420150399208068848e+00 4.820246994495391846e-01 7.553204059600830078e+00 2.410568714141845703e+00 4.791688323020935059e-01
2.780000000000000000e+03 5.409342956542968750e+01 6.065748214721679688e+00 4.266851544380187988e-01 7.720096588134765625e+00 2.444034576416015625e+00 7.419745326042175293e-01
2.781000000000000000e+03 5.557395935058593750e+01 3.347744941711425781e+00 5.717839002609252930e-01 7.637779235839843750e+00 2.462868928909301758e+00 6.437205076217651367e-01
2.782000000000000000e+03 5.928094100952148438e+01 -6.412073135375976562e+00 6.907767653465270996e-01 7.475676059722900391e+00 2.449935674667358398e+00 6.625046581029891968e-02
2.783000000000000000e+03 4.068913650512695312e+01 -2.361194610595703125e+01 -5.248638391494750977e-01 8.242874145507812500e+00 2.315403223037719727e+00 -4.657199382781982422e-01
2.784000000000000000e+03 6.092195129394531250e+01 -8.558006286621093750e+00 5.743576884269714355e-01 7.469961643218994141e+00 2.413295745849609375e+00 -6.508576124906539917e-02
2.785000000000000000e+03 5.962464904785156250e+01 -8.618718147277832031e+00 6.520357131958007812e-01 7.482330799102783203e+00 2.440310001373291016e+00 -7.419381290674209595e-02
2.786000000000000000e+03 5.437414169311523438e+01 8.540616989135742188e+00 2.401250004768371582e-01 7.753165245056152344e+00 2.397987127304077148e+00 7.572911977767944336e-01
2.787000000000000000e+03 3.063501358032226562e+01 -3.103156471252441406e+01 -8.713505864143371582e-01 6.179559707641601562e+00 1.592462778091430664e+00 4.962990880012512207e-01
2.788000000000000000e+03 3.495487976074218750e+01 -6.988131046295166016e+00 5.254648685455322266e+00 9.821220397949218750e+00 4.522760868072509766e+00 -1.806619614362716675e-01
2.789000000000000000e+03 3.549056243896484375e+01 -6.167729854583740234e+00 4.865832328796386719e+00 9.566154479980468750e+00 4.329596042633056641e+00 3.348817527294158936e-01
2.790000000000000000e+03 3.252991485595703125e+01 -1.482093095779418945e+00 1.015426158905029297e+00 1.150706386566162109e+01 3.756747007369995117e+00 2.814105451107025146e-01
2.791000000000000000e+03 3.292699432373046875e+01 -2.058690547943115234e+00 1.536579012870788574e+00 1.155952644348144531e+01 3.928831577301025391e+00 7.132480144500732422e-01
2.792000000000000000e+03 3.117510795593261719e+01 -5.136089324951171875e-01 2.315764278173446655e-01 1.077013492584228516e+01 3.300513267517089844e+00 -1.008955955505371094e+00
2.793000000000000000e+03 3.182050514221191406e+01 -1.184786081314086914e+00 5.987871885299682617e-01 1.139946651458740234e+01 3.599476099014282227e+00 -3.199656903743743896e-01
2.794000000000000000e+03 3.474325561523437500e+01 -5.241047382354736328e+00 4.725855350494384766e+00 1.010173034667968750e+01 4.448275566101074219e+00 9.087659120559692383e-01
2.795000000000000000e+03 3.164122009277343750e+01 -1.413467216491699219e+01 -1.252866815775632858e-03 1.016101932525634766e+01 3.047930002212524414e+00 6.867757439613342285e-01
2.796000000000000000e+03 3.223385620117187500e+01 -1.415664768218994141e+01 6.942200660705566406e-02 1.028670597076416016e+01 3.106838226318359375e+00 3.525120317935943604e-01
2.797000000000000000e+03 3.216447448730468750e+01 -1.311493158340454102e+00 7.462775111198425293e-01 1.148837089538574219e+01 3.670394659042358398e+00 -4.459715634584426880e-02
2.798000000000000000e+03 3.478556442260742188e+01 -9.573036193847656250e+00 3.691661834716796875e+00 1.032347202301025391e+01 4.204539775848388672e+00 -1.353949666023254395e+00
2.799000000000000000e+03 3.510036087036132812e+01 -8.999817848205566406e+00 4.107910633087158203e+00 1.002066516876220703e+01 4.238572597503662109e+00 -1.192182064056396484e+00
2.800000000000000000e+03 3.305719757080078125e+01 -1.268591117858886719e+01 8.241970539093017578e-01 1.095449733734130859e+01 3.533608198165893555e+00 -4.397753775119781494e-01
2.801000000000000000e+03 3.460661315917968750e+01 -1.142678737640380859e+01 2.115728855133056641e+00 1.054123210906982422e+01 3.797088384628295898e+00 -1.233114600181579590e+00
2.802000000000000000e+03 3.174261856079101562e+01 -1.475980663299560547e+01 -1.020713150501251221e-01 9.785885810852050781e+00 2.905144214630126953e+00 7.150862216949462891e-01
2.803000000000000000e+03 3.522013473510742188e+01 -6.607335090637207031e+00 5.073763847351074219e+00 9.663677215576171875e+00 4.421232223510742188e+00 7.452543824911117554e-02
2.804000000000000000e+03 3.503497314453125000e+01 -1.088275623321533203e+01 2.577529907226562500e+00 1.034247589111328125e+01 3.876001834869384766e+00 -1.334565520286560059e+00
2.805000000000000000e+03 3.480770492553710938e+01 -7.898665904998779297e+00 5.054189205169677734e+00 1.000907611846923828e+01 4.518979549407958984e+00 -7.709681391716003418e-01
2.806000000000000000e+03 3.139724349975585938e+01 3.299050033092498779e-02 1.422729641199111938e-01 1.045048904418945312e+01 3.177828550338745117e+00 -8.913612961769104004e-01
2.807000000000000000e+03 3.290069580078125000e+01 -1.381542873382568359e+01 3.033768236637115479e-01 1.039537620544433594e+01 3.209625959396362305e+00 -3.767585009336471558e-02
2.808000000000000000e+03 3.231789779663085938e+01 8.026134371757507324e-01 1.329897344112396240e-01 1.016129302978515625e+01 3.088284969329833984e+00 -4.764088094234466553e-01
2.809000000000000000e+03 3.296136474609375000e+01 1.376816749572753906e+00 1.283113360404968262e-01 9.916172027587890625e+00 3.013345003128051758e+00 -2.744827568531036377e-01
2.810000000000000000e+03 3.221049499511718750e+01 -1.471959114074707031e+01 -4.720946401357650757e-02 1.002048397064208984e+01 2.991982460021972656e+00 4.326596856117248535e-01
2.811000000000000000e+03 3.672583389282226562e+01 5.185296535491943359e+00 -6.452731322497129440e-03 8.732374191284179688e+00 2.617776393890380859e+00 2.401186972856521606e-01
2.812000000000000000e+03 3.214317703247070312e+01 -1.786066627502441406e+01 -4.351445138454437256e-01 8.694187164306640625e+00 2.477712631225585938e+00 6.736679673194885254e-01
2.813000000000000000e+03 3.387668228149414062e+01 3.688401460647583008e+00 -1.048010364174842834e-01 9.096777915954589844e+00 2.697593212127685547e+00 -2.612890303134918213e-01
2.814000000000000000e+03 3.383526229858398438e+01 2.789721250534057617e+00 1.503633242100477219e-02 9.395545005798339844e+00 2.823174238204956055e+00 -1.629789471626281738e-01
2.815000000000000000e+03 3.615386581420898438e+01 4.260169506072998047e+00 6.066476181149482727e-02 8.914425849914550781e+00 2.692527294158935547e+00 2.342398017644882202e-01
2.816000000000000000e+03 5.830393218994140625e+01 -7.927402496337890625e+00 7.477960586547851562e-01 7.486071109771728516e+00 2.470160245895385742e+00 -3.240869194269180298e-02
2.817000000000000000e+03 3.710441207885742188e+01 6.180942535400390625e+00 -7.369385659694671631e-02 8.541608810424804688e+00 2.540374517440795898e+00 2.297759801149368286e-01
2.818000000000000000e+03 4.036798095703125000e+01 1.031640243530273438e+01 -2.438442856073379517e-01 8.009713172912597656e+00 2.329760551452636719e+00 3.722416460514068604e-01
2.819000000000000000e+03 5.911266708374023438e+01 -1.008742332458496094e+01 6.335152387619018555e-01 7.503939628601074219e+00 2.441236495971679688e+00 -1.565537005662918091e-01
2.820000000000000000e+03 3.864497375488281250e+01 1.260984897613525391e+01 -4.353246986865997314e-01 7.721035003662109375e+00 2.185713052749633789e+00 1.073985993862152100e-01
2.821000000000000000e+03 6.024626922607421875e+01 -2.157708883285522461e+00 5.892719030380249023e-01 7.494187355041503906e+00 2.425037860870361328e+00 3.091958165168762207e-01
2.822000000000000000e+03 5.495286560058593750e+01 -3.138788223266601562e+00 9.331513643264770508e-01 7.528620719909667969e+00 2.538531541824340820e+00 3.158885538578033447e-01
2.823000000000000000e+03 5.461328887939453125e+01 -1.046210384368896484e+01 9.088453054428100586e-01 7.559010982513427734e+00 2.540356874465942383e+00 -2.489355057477951050e-01
2.824000000000000000e+03 5.684074783325195312e+01 1.232081413269042969e+00 6.343798637390136719e-01 7.579597473144531250e+00 2.464193105697631836e+00 5.284858345985412598e-01
2.825000000000000000e+03 5.552147674560546875e+01 -1.169034838676452637e-01 7.557986974716186523e-01 7.569485664367675781e+00 2.497585296630859375e+00 4.861030280590057373e-01
2.826000000000000000e+03 5.512243652343750000e+01 -1.690217399597167969e+01 4.618042707443237305e-01 7.716189384460449219e+00 2.453397989273071289e+00 -5.525777935981750488e-01
2.827000000000000000e+03 5.784300231933593750e+01 -1.389250755310058594e+01 5.609182119369506836e-01 7.584941864013671875e+00 2.443758010864257812e+00 -3.807850778102874756e-01
2.828000000000000000e+03 3.596013259887695312e+01 -2.051294326782226562e+01 -5.089446902275085449e-01 8.469820022583007812e+00 2.388262748718261719e+00 -1.015043854713439941e-01
2.829000000000000000e+03 5.544858551025390625e+01 1.483571052551269531e+00 6.964811086654663086e-01 7.598190307617187500e+00 2.488401412963867188e+00 5.653752684593200684e-01
2.830000000000000000e+03 3.556770324707031250e+01 -1.839382934570312500e+01 -2.643342614173889160e-01 8.896459579467773438e+00 2.589637756347656250e+00 -2.113507390022277832e-01
2.831000000000000000e+03 3.344360733032226562e+01 -3.037422180175781250e+01 -9.658543467521667480e-01 6.860108852386474609e+00 1.768276333808898926e+00 3.330687284469604492e-01
2.832000000000000000e+03 5.077892684936523438e+01 9.375479698181152344e+00 1.913609653711318970e-01 7.833019256591796875e+00 2.407314062118530273e+00 7.839533686637878418e-01
2.833000000000000000e+03 2.364460945129394531e+01 -2.578391265869140625e+01 -2.355074435472488403e-01 4.111567497253417969e+00 1.162817955017089844e+00 1.122804641723632812e+00
2.834000000000000000e+03 2.471754074096679688e+01 -2.439504432678222656e+01 -2.564872205257415771e-01 4.604731559753417969e+00 1.304473280906677246e+00 1.252475738525390625e+00
2.835000000000000000e+03 6.742462158203125000e+01 1.812380790710449219e+01 -6.532962620258331299e-02 7.885856628417968750e+00 2.346158027648925781e+00 5.220750570297241211e-01
2.836000000000000000e+03 3.511561965942382812e+01 -7.593242168426513672e+00 5.009238719940185547e+00 9.768426895141601562e+00 4.433299541473388672e+00 -5.373164415359497070e-01
2.837000000000000000e+03 3.498096847534179688e+01 -2.794237136840820312e+00 2.688370227813720703e+00 1.032506561279296875e+01 3.904030561447143555e+00 1.243901252746582031e+00
2.838000000000000000e+03 3.269585800170898438e+01 -1.005320072174072266e+00 7.908388376235961914e-01 1.110422611236572266e+01 3.568519353866577148e+00 1.717305779457092285e-01
2.839000000000000000e+03 3.357837677001953125e+01 -1.309418773651123047e+01 7.774668335914611816e-01 1.060674858093261719e+01 3.415264844894409180e+00 -5.446708202362060547e-01
2.840000000000000000e+03 3.441746520996093750e+01 -2.089356184005737305e+00 2.051977634429931641e+00 1.066439533233642578e+01 3.814911842346191406e+00 1.091273307800292969e+00
2.841000000000000000e+03 3.314398574829101562e+01 -1.343847846984863281e+01 4.985512495040893555e-01 1.055272006988525391e+01 3.315381288528442383e+00 -2.479447275400161743e-01
2.842000000000000000e+03 3.192421340942382812e+01 -3.063020110130310059e-01 3.314834237098693848e-01 1.081386280059814453e+01 3.343603849411010742e+00 -4.834334850311279297e-01
2.843000000000000000e+03 3.159402465820312500e+01 -7.420579195022583008e-01 3.753094375133514404e-01 1.104925727844238281e+01 3.427370071411132812e+00 -6.058232784271240234e-01
2.844000000000000000e+03 3.568669891357421875e+01 -6.857834815979003906e+00 4.788181781768798828e+00 9.452389717102050781e+00 4.272171497344970703e+00 -7.379845529794692993e-02
2.845000000000000000e+03 3.610619735717773438e+01 -5.066016197204589844e+00 4.118211269378662109e+00 9.454763412475585938e+00 4.071892738342285156e+00 7.741141915321350098e-01
2.846000000000000000e+03 3.591706848144531250e+01 -7.531101703643798828e+00 4.564441680908203125e+00 9.400816917419433594e+00 4.189577579498291016e+00 -4.472066462039947510e-01
2.847000000000000000e+03 3.551645660400390625e+01 -1.041696739196777344e+01 3.012380599975585938e+00 1.002115154266357422e+01 3.910059690475463867e+00 -1.331487536430358887e+00
2.848000000000000000e+03 3.280735778808593750e+01 -1.430049419403076172e+01 1.305846869945526123e-01 1.024114131927490234e+01 3.111517667770385742e+00 1.162171587347984314e-01
2.849000000000000000e+03 3.181657791137695312e+01 2.007133066654205322e-01 1.646798849105834961e-01 1.046576023101806641e+01 3.189131975173950195e+00 -6.606423854827880859e-01
2.850000000000000000e+03 3.232439804077148438e+01 2.388867288827896118e-01 2.626942396163940430e-01 1.044744491577148438e+01 3.213041782379150391e+00 -3.659281134605407715e-01
2.851000000000000000e+03 3.304704284667968750e+01 -1.140297055244445801e+00 9.958168864250183105e-01 1.109974861145019531e+01 3.628669500350952148e+00 4.090448617935180664e-01
2.852000000000000000e+03 3.338688659667968750e+01 -1.605244040489196777e+00 1.453624606132507324e+00 1.118757534027099609e+01 3.792359828948974609e+00 7.435395121574401855e-01
2.853000000000000000e+03 3.427685546875000000e+01 -1.201560020446777344e+01 1.612482905387878418e+00 1.062446117401123047e+01 3.671083450317382812e+00 -1.054173827171325684e+00
2.854000000000000000e+03 3.549217987060546875e+01 -9.715719223022460938e+00 3.509764194488525391e+00 9.951580047607421875e+00 4.038403511047363281e+00 -1.261084914207458496e+00
2.855000000000000000e+03 3.533131408691406250e+01 -8.551682472229003906e+00 4.384321689605712891e+00 9.796739578247070312e+00 4.254318237304687500e+00 -1.003522872924804688e+00
2.856000000000000000e+03 3.577173995971679688e+01 -7.924444198608398438e+00 4.539983272552490234e+00 9.465892791748046875e+00 4.201762676239013672e+00 -6.414544582366943359e-01
2.857000000000000000e+03 3.210057067871093750e+01 -1.524414253234863281e+01 -1.449567824602127075e-01 9.671591758728027344e+00 2.857990741729736328e+00 5.739817619323730469e-01
2.858000000000000000e+03 3.303280639648437500e+01 -1.603844261169433594e+01 -1.865633279085159302e-01 9.493816375732421875e+00 2.792175769805908203e+00 2.974312901496887207e-01
2.859000000000000000e+03 3.780514907836914062e+01 2.495711803436279297e+00 6.355631351470947266e-01 9.005582809448242188e+00 2.892343759536743164e+00 7.193331718444824219e-01
2.860000000000000000e+03 3.465822219848632812e+01 2.634434461593627930e+00 1.688058823347091675e-01 9.427701950073242188e+00 2.878952503204345703e+00 1.196381449699401855e-01
2.861000000000000000e+03 3.482734680175781250e+01 3.579329252243041992e+00 2.253698743879795074e-02 9.150365829467773438e+00 2.751870870590209961e+00 2.875168621540069580e-02
2.862000000000000000e+03 3.432535171508789062e+01 -1.617665672302246094e+01 -2.016950771212577820e-02 9.446437835693359375e+00 2.827880382537841797e+00 -1.718388050794601440e-01
2.863000000000000000e+03 3.574308776855468750e+01 3.295562028884887695e+00 1.942026615142822266e-01 9.160890579223632812e+00 2.806527853012084961e+00 2.808154821395874023e-01
2.864000000000000000e+03 3.742681121826171875e+01 -2.148657608032226562e+01 -5.101708769798278809e-01 8.384909629821777344e+00 2.362421512603759766e+00 -2.681053280830383301e-01
2.865000000000000000e+03 3.856954574584960938e+01 8.881738662719726562e+00 -2.274334430694580078e-01 8.148901939392089844e+00 2.376440525054931641e+00 2.501735091209411621e-01
2.866000000000000000e+03 5.697238159179687500e+01 -7.012757301330566406e+00 8.329132199287414551e-01 7.492468357086181641e+00 2.497614383697509766e+00 2.190146222710609436e-02
2.867000000000000000e+03 5.660333633422851562e+01 -4.210414409637451172e+00 8.420131802558898926e-01 7.501098155975341797e+00 2.502933263778686523e+00 2.191641330718994141e-01
2.868000000000000000e+03 5.559051132202148438e+01 -5.906214237213134766e+00 9.416835308074951172e-01 7.502130508422851562e+00 2.533144235610961914e+00 9.564016014337539673e-02
2.869000000000000000e+03 3.472652053833007812e+01 1.495807552337646484e+01 -5.246007442474365234e-01 7.052973747253417969e+00 1.958511829376220703e+00 -3.523640036582946777e-01
2.870000000000000000e+03 5.664952087402343750e+01 -1.875187456607818604e-01 7.234876155853271484e-01 7.560070514678955078e+00 2.485067367553710938e+00 4.732602536678314209e-01
2.871000000000000000e+03 5.384202957153320312e+01 3.586392879486083984e+00 6.177561283111572266e-01 7.675709724426269531e+00 2.488039731979370117e+00 6.845198273658752441e-01
2.872000000000000000e+03 5.556599426269531250e+01 -1.234084510803222656e+01 7.580873966217041016e-01 7.583094120025634766e+00 2.502354621887207031e+00 -3.440723717212677002e-01
2.873000000000000000e+03 5.612873077392578125e+01 -1.434452724456787109e+01 6.050848960876464844e-01 7.626464366912841797e+00 2.469464778900146484e+00 -4.451469779014587402e-01
2.874000000000000000e+03 5.430701828002929688e+01 -1.996327018737792969e+01 2.290151268243789673e-01 7.826350688934326172e+00 2.416609764099121094e+00 -6.305801272392272949e-01
2.875000000000000000e+03 5.880173873901367188e+01 -1.371883749961853027e+00 6.452507972717285156e-01 7.514435291290283203e+00 2.447905778884887695e+00 3.679185211658477783e-01
2.876000000000000000e+03 5.816820144653320312e+01 7.284865975379943848e-01 5.969665646553039551e-01 7.556547641754150391e+00 2.446054220199584961e+00 4.829801619052886963e-01
2.877000000000000000e+03 3.781441116333007812e+01 -2.428312492370605469e+01 -7.246818542480468750e-01 8.064433097839355469e+00 2.201925277709960938e+00 -1.665368378162384033e-01
2.878000000000000000e+03 3.687517929077148438e+01 -1.910957336425781250e+01 -2.442531138658523560e-01 8.740006446838378906e+00 2.548725843429565430e+00 -3.716427385807037354e-01
2.879000000000000000e+03 3.192753982543945312e+01 -7.636680006980895996e-01 4.594165086746215820e-01 1.107810878753662109e+01 3.461257457733154297e+00 -3.782241940498352051e-01
2.880000000000000000e+03 3.232450866699218750e+01 -8.312744498252868652e-01 6.038014292716979980e-01 1.114211463928222656e+01 3.523774862289428711e+00 -8.579651266336441040e-02
2.881000000000000000e+03 3.524817657470703125e+01 -3.889187812805175781e+00 3.563266754150390625e+00 1.007720375061035156e+01 4.092141151428222656e+00 1.210222363471984863e+00
2.882000000000000000e+03 3.447864532470703125e+01 1.771650552749633789e+00 3.168555796146392822e-01 9.702392578125000000e+00 3.005774497985839844e+00 2.092108577489852905e-01
2.883000000000000000e+03 3.600622940063476562e+01 -6.430045604705810547e+00 4.615443229675292969e+00 9.340077400207519531e+00 4.186655998229980469e+00 1.527921408414840698e-01
2.884000000000000000e+03 3.294448471069335938e+01 -1.597205996513366699e+00 1.286818981170654297e+00 1.132096862792968750e+01 3.782336235046386719e+00 5.500956773757934570e-01
2.885000000000000000e+03 3.388693237304687500e+01 -2.037920475006103516e+00 1.875582456588745117e+00 1.095877933502197266e+01 3.850308418273925781e+00 9.974567294120788574e-01
2.886000000000000000e+03 3.337879562377929688e+01 -1.385637569427490234e+01 4.138062298297882080e-01 1.035447311401367188e+01 3.230483770370483398e+00 -2.539312243461608887e-01
2.887000000000000000e+03 3.527915954589843750e+01 -9.355154037475585938e+00 3.809027671813964844e+00 9.997875213623046875e+00 4.142070770263671875e+00 -1.255939722061157227e+00
2.888000000000000000e+03 3.551959609985351562e+01 -8.796311378479003906e+00 4.126090049743652344e+00 9.743194580078125000e+00 4.160785198211669922e+00 -1.019163966178894043e+00
2.889000000000000000e+03 3.635823059082031250e+01 -5.963862419128417969e+00 4.323676109313964844e+00 9.205313682556152344e+00 4.058696746826171875e+00 3.585629165172576904e-01
2.890000000000000000e+03 3.495007705688476562e+01 -4.759142398834228516e+00 4.339156150817871094e+00 1.006492233276367188e+01 4.321223735809326172e+00 1.053550124168395996e+00
2.891000000000000000e+03 3.237010574340820312e+01 -3.050031065940856934e-01 4.393185079097747803e-01 1.080684185028076172e+01 3.373848199844360352e+00 -2.037326991558074951e-01
2.892000000000000000e+03 3.341815567016601562e+01 6.140303015708923340e-01 4.029974043369293213e-01 1.021158218383789062e+01 3.184373855590820312e+00 7.313626259565353394e-02
2.893000000000000000e+03 3.302349472045898438e+01 -7.051657438278198242e-01 7.546669244766235352e-01 1.091270542144775391e+01 3.500211715698242188e+00 2.437202185392379761e-01
2.894000000000000000e+03 3.523902893066406250e+01 -8.289473533630371094e+00 4.502223014831542969e+00 9.818504333496093750e+00 4.296217918395996094e+00 -9.152722954750061035e-01
2.895000000000000000e+03 3.613104248046875000e+01 -7.144618988037109375e+00 4.555826187133789062e+00 9.286280632019042969e+00 4.152632236480712891e+00 -2.236679792404174805e-01
2.896000000000000000e+03 3.541485595703125000e+01 -7.256146907806396484e+00 4.919355869293212891e+00 9.591202735900878906e+00 4.353167533874511719e+00 -3.350393772125244141e-01
2.897000000000000000e+03 3.370335006713867188e+01 -1.553820514678955078e+01 2.438986115157604218e-02 9.698370933532714844e+00 2.916828155517578125e+00 -6.209768354892730713e-02
2.898000000000000000e+03 3.560583496093750000e+01 -4.511156082153320312e+00 4.009013652801513672e+00 9.741351127624511719e+00 4.125109672546386719e+00 1.012863397598266602e+00
2.899000000000000000e+03 3.474658584594726562e+01 -1.543129682540893555e+00 1.762116670608520508e+00 1.042989540100097656e+01 3.657603740692138672e+00 1.012916088104248047e+00
2.900000000000000000e+03 3.645637512207031250e+01 -1.012825393676757812e+01 3.136459827423095703e+00 9.516402244567871094e+00 3.795858621597290039e+00 -1.194343805313110352e+00
2.901000000000000000e+03 3.525642395019531250e+01 -1.185999393463134766e+01 1.937496900558471680e+00 1.016254425048828125e+01 3.630012512207031250e+00 -1.203741550445556641e+00
2.902000000000000000e+03 3.287836837768554688e+01 7.617741227149963379e-01 2.463662624359130859e-01 1.020707225799560547e+01 3.136031627655029297e+00 -2.021616846323013306e-01
2.903000000000000000e+03 3.393989562988281250e+01 3.602154552936553955e-01 6.082992553710937500e-01 1.022585201263427734e+01 3.250245571136474609e+00 3.146628141403198242e-01
2.904000000000000000e+03 3.499100112915039062e+01 -2.083934545516967773e+00 2.170733451843261719e+00 1.032204437255859375e+01 3.747833251953125000e+00 1.137014746665954590e+00
2.905000000000000000e+03 3.545083999633789062e+01 2.392030239105224609e+00 3.387480974197387695e-01 9.412086486816406250e+00 2.925250530242919922e+00 3.603989481925964355e-01
2.906000000000000000e+03 3.465049743652343750e+01 -1.352425384521484375e+01 8.550758361816406250e-01 1.014919662475585938e+01 3.301281690597534180e+00 -7.502433061599731445e-01
2.907000000000000000e+03 3.652106094360351562e+01 2.850196123123168945e+00 3.916057646274566650e-01 9.164135932922363281e+00 2.866722345352172852e+00 4.920555651187896729e-01
2.908000000000000000e+03 3.830729293823242188e+01 5.854903697967529297e+00 5.641376972198486328e-02 8.539834976196289062e+00 2.578874588012695312e+00 4.215877354145050049e-01
2.909000000000000000e+03 3.721952056884765625e+01 3.527764558792114258e+00 3.370239436626434326e-01 8.961349487304687500e+00 2.789512157440185547e+00 5.256705880165100098e-01
2.910000000000000000e+03 3.293997955322265625e+01 -1.741324424743652344e+01 -3.824303448200225830e-01 8.988653182983398438e+00 2.581866741180419922e+00 4.366455972194671631e-01
2.911000000000000000e+03 3.849934005737304688e+01 7.296544075012207031e+00 -8.677062392234802246e-02 8.345978736877441406e+00 2.477762460708618164e+00 3.362913727760314941e-01
2.912000000000000000e+03 5.417084121704101562e+01 -4.827879428863525391e+00 1.045592665672302246e+00 7.519780158996582031e+00 2.569611787796020508e+00 1.796799302101135254e-01
2.913000000000000000e+03 5.405915069580078125e+01 1.430768013000488281e+00 7.733701467514038086e-01 7.622506618499755859e+00 2.518763065338134766e+00 5.972625613212585449e-01
2.914000000000000000e+03 5.106732559204101562e+01 4.956632614135742188e+00 5.668954253196716309e-01 7.778975963592529297e+00 2.503761291503906250e+00 7.760749459266662598e-01
2.915000000000000000e+03 5.389195632934570312e+01 -1.334399032592773438e+01 7.982708811759948730e-01 7.643502712249755859e+00 2.532531976699829102e+00 -4.556317329406738281e-01
2.916000000000000000e+03 5.751284790039062500e+01 -9.720240592956542969e+00 7.553865313529968262e-01 7.512872695922851562e+00 2.480477809906005859e+00 -1.571114808320999146e-01
2.917000000000000000e+03 5.452107238769531250e+01 -1.514845943450927734e+01 6.216670870780944824e-01 7.682561874389648438e+00 2.491268634796142578e+00 -5.148751735687255859e-01
2.918000000000000000e+03 5.442332077026367188e+01 -4.060195684432983398e-01 8.492913842201232910e-01 7.578967571258544922e+00 2.528477668762207031e+00 4.779754877090454102e-01
2.919000000000000000e+03 3.875005722045898438e+01 1.476181507110595703e+01 -5.170837044715881348e-01 7.494402885437011719e+00 2.093195676803588867e+00 6.947901844978332520e-02
2.920000000000000000e+03 3.903560638427734375e+01 1.946361923217773438e+01 -6.330526471138000488e-01 7.149462223052978516e+00 1.954922914505004883e+00 4.633734002709388733e-02
2.921000000000000000e+03 4.086845397949218750e+01 1.432954692840576172e+01 -4.522974789142608643e-01 7.669703960418701172e+00 2.165221929550170898e+00 2.711491882801055908e-01
2.922000000000000000e+03 3.320777130126953125e+01 7.220908254384994507e-02 5.386033058166503906e-01 1.049020671844482422e+01 3.308642864227294922e+00 1.314537823200225830e-01
2.923000000000000000e+03 3.347608947753906250e+01 -1.173261523246765137e+00 1.179160475730895996e+00 1.093019771575927734e+01 3.632807254791259766e+00 5.909916162490844727e-01
2.924000000000000000e+03 3.382191085815429688e+01 -1.456579685211181641e+00 1.463971018791198730e+00 1.085658168792724609e+01 3.696165800094604492e+00 7.942123413085937500e-01
2.925000000000000000e+03 3.393983840942382812e+01 -1.367720413208007812e+01 6.309732794761657715e-01 1.030252075195312500e+01 3.280048370361328125e+00 -5.139861106872558594e-01
2.926000000000000000e+03 3.666938781738281250e+01 -4.607318401336669922e+00 3.747878789901733398e+00 9.294149398803710938e+00 3.912608385086059570e+00 8.565120697021484375e-01
2.927000000000000000e+03 3.571068191528320312e+01 -5.626883983612060547e+00 4.547224521636962891e+00 9.537784576416015625e+00 4.225502490997314453e+00 6.087875962257385254e-01
2.928000000000000000e+03 3.581335830688476562e+01 -2.676828145980834961e+00 2.698750019073486328e+00 9.896789550781250000e+00 3.778661966323852539e+00 1.204603195190429688e+00
2.929000000000000000e+03 3.642974472045898438e+01 -7.529681205749511719e+00 4.345098495483398438e+00 9.177752494812011719e+00 4.056855201721191406e+00 -4.149432480335235596e-01
2.930000000000000000e+03 3.352306365966796875e+01 -6.853594183921813965e-01 9.015130996704101562e-01 1.070756053924560547e+01 3.482722043991088867e+00 4.477946758270263672e-01
2.931000000000000000e+03 3.611465454101562500e+01 -8.337477684020996094e+00 4.189961433410644531e+00 9.395815849304199219e+00 4.075733184814453125e+00 -7.773243188858032227e-01
2.932000000000000000e+03 3.635107803344726562e+01 -8.901250839233398438e+00 3.791071176528930664e+00 9.378942489624023438e+00 3.951004028320312500e+00 -9.282352328300476074e-01
2.933000000000000000e+03 3.593014144897460938e+01 -9.549045562744140625e+00 3.557301282882690430e+00 9.660034179687500000e+00 3.965200662612915039e+00 -1.171970009803771973e+00
2.934000000000000000e+03 3.583868026733398438e+01 -1.240055179595947266e+01 1.666118144989013672e+00 9.851671218872070312e+00 3.455336809158325195e+00 -1.149783849716186523e+00
2.935000000000000000e+03 3.483282470703125000e+01 -1.233207893371582031e+01 1.539536118507385254e+00 1.033176136016845703e+01 3.561389207839965820e+00 -1.060849785804748535e+00
2.936000000000000000e+03 3.477515029907226562e+01 -1.555552387237548828e+01 1.733274757862091064e-01 9.592070579528808594e+00 2.929619312286376953e+00 -3.794179558753967285e-01
2.937000000000000000e+03 3.628969192504882812e+01 -4.084034442901611328e+00 3.556098937988281250e+00 9.483529090881347656e+00 3.911888360977172852e+00 1.003174901008605957e+00
2.938000000000000000e+03 3.668474960327148438e+01 -8.061134338378906250e+00 4.062972545623779297e+00 9.143367767333984375e+00 3.961902141571044922e+00 -5.967783331871032715e-01
2.939000000000000000e+03 3.597464752197265625e+01 -3.448383808135986328e+00 3.165291547775268555e+00 9.759104728698730469e+00 3.877318859100341797e+00 1.173280835151672363e+00
2.940000000000000000e+03 3.690786361694335938e+01 2.179112195968627930e+00 5.969064235687255859e-01 9.215508460998535156e+00 2.943724632263183594e+00 6.520661115646362305e-01
2.941000000000000000e+03 3.516420364379882812e+01 -1.674165725708007812e+01 -3.588632866740226746e-02 9.262666702270507812e+00 2.768034219741821289e+00 -3.089977204799652100e-01
2.942000000000000000e+03 3.585538864135742188e+01 -9.975419044494628906e+00 3.278446435928344727e+00 9.766461372375488281e+00 3.913472414016723633e+00 -1.246618628501892090e+00
2.943000000000000000e+03 3.577240753173828125e+01 -9.119377136230468750e+00 3.854171752929687500e+00 9.676794052124023438e+00 4.059289932250976562e+00 -1.090551853179931641e+00
2.944000000000000000e+03 3.433707046508789062e+01 -1.042323708534240723e+00 1.350692987442016602e+00 1.050191020965576172e+01 3.555780887603759766e+00 8.008238673210144043e-01
2.945000000000000000e+03 3.374235153198242188e+01 1.972532749176025391e+00 1.450203657150268555e-01 9.677916526794433594e+00 2.946881055831909180e+00 -6.771325320005416870e-02
2.946000000000000000e+03 3.428302001953125000e+01 -1.508179378509521484e+01 2.292174249887466431e-01 9.788273811340332031e+00 3.005247354507446289e+00 -3.213690817356109619e-01
2.947000000000000000e+03 3.320840835571289062e+01 -1.502334499359130859e+01 4.835831373929977417e-02 9.882047653198242188e+00 2.979121923446655273e+00 3.452512621879577637e-02
2.948000000000000000e+03 3.621667098999023438e+01 -1.723348617553710938e+01 1.046670950017869473e-03 9.093858718872070312e+00 2.728471755981445312e+00 -4.668650925159454346e-01
2.949000000000000000e+03 3.765537261962890625e+01 -1.148363685607910156e+01 2.273556232452392578e+00 9.212178230285644531e+00 3.445720195770263672e+00 -1.180493474006652832e+00
2.950000000000000000e+03 3.555461502075195312e+01 -1.585887908935546875e+01 2.280272841453552246e-01 9.426700592041015625e+00 2.896418333053588867e+00 -5.219519734382629395e-01
2.951000000000000000e+03 3.618489456176757812e+01 2.156365871429443359e+00 4.895497858524322510e-01 9.343054771423339844e+00 2.949781417846679688e+00 5.300776362419128418e-01
2.952000000000000000e+03 3.523184585571289062e+01 1.478769183158874512e+00 5.346022248268127441e-01 9.666215896606445312e+00 3.060245513916015625e+00 4.657218158245086670e-01
2.953000000000000000e+03 3.816952133178710938e+01 -1.214370608329772949e+00 1.991562128067016602e+00 9.076890945434570312e+00 3.320535659790039062e+00 1.059259772300720215e+00
2.954000000000000000e+03 3.898220825195312500e+01 2.591778516769409180e+00 7.207890152931213379e-01 8.808981895446777344e+00 2.858931303024291992e+00 7.937611937522888184e-01
2.955000000000000000e+03 5.351792907714843750e+01 -1.791459083557128906e+01 4.244705438613891602e-01 7.792346000671386719e+00 2.465044975280761719e+00 -6.283677816390991211e-01
2.956000000000000000e+03 5.296322631835937500e+01 -1.602322769165039062e+01 6.104832887649536133e-01 7.750280857086181641e+00 2.508229255676269531e+00 -5.912837386131286621e-01
2.957000000000000000e+03 4.382785034179687500e+01 9.239681243896484375e+00 6.554220337420701981e-03 8.028214454650878906e+00 2.410430669784545898e+00 6.612648963928222656e-01
2.958000000000000000e+03 4.211430358886718750e+01 9.828742027282714844e+00 -1.235631331801414490e-01 8.034447669982910156e+00 2.373265504837036133e+00 5.353009104728698730e-01
2.959000000000000000e+03 5.453722000122070312e+01 -7.527701377868652344e+00 1.016175866127014160e+00 7.519952774047851562e+00 2.560838460922241211e+00 -3.810857236385345459e-02
2.960000000000000000e+03 5.776700973510742188e+01 -2.726068258285522461e+00 7.484642863273620605e-01 7.505089759826660156e+00 2.476066112518310547e+00 3.060690462589263916e-01
2.961000000000000000e+03 5.543628692626953125e+01 -1.535976886749267578e+00 8.420293331146240234e-01 7.544692993164062500e+00 2.516016721725463867e+00 4.024321138858795166e-01
2.962000000000000000e+03 3.964869308471679688e+01 5.441253185272216797e+00 2.229175567626953125e-01 8.501716613769531250e+00 2.617390394210815430e+00 6.019694805145263672e-01
2.963000000000000000e+03 5.593812179565429688e+01 -8.843474388122558594e+00 8.761901259422302246e-01 7.517430782318115234e+00 2.518086194992065430e+00 -1.213666126132011414e-01
2.964000000000000000e+03 4.058285903930664062e+01 1.223834896087646484e+01 -3.522545397281646729e-01 7.830360889434814453e+00 2.243431806564331055e+00 3.129317164421081543e-01
2.965000000000000000e+03 5.712104415893554688e+01 -1.974609947204589844e+01 2.400342971086502075e-01 7.741154670715332031e+00 2.394356727600097656e+00 -5.572527647018432617e-01
2.966000000000000000e+03 3.348163986206054688e+01 1.985964202880859375e+01 -5.908960700035095215e-01 6.392926692962646484e+00 1.740609169006347656e+00 -3.459226489067077637e-01
2.967000000000000000e+03 3.571743392944335938e+01 -1.133331680297851562e+01 2.292969465255737305e+00 9.959962844848632812e+00 3.675879716873168945e+00 -1.273297309875488281e+00
2.968000000000000000e+03 3.688417053222656250e+01 -1.108090400695800781e+01 2.481433868408203125e+00 9.428541183471679688e+00 3.572992324829101562e+00 -1.215148448944091797e+00
2.969000000000000000e+03 3.614963912963867188e+01 -1.075221538543701172e+01 2.713070154190063477e+00 9.716474533081054688e+00 3.728863239288330078e+00 -1.267408370971679688e+00
2.970000000000000000e+03 3.728954696655273438e+01 -7.747705459594726562e+00 3.919700384140014648e+00 8.928118705749511719e+00 3.854345560073852539e+00 -4.341782629489898682e-01
2.971000000000000000e+03 3.650217056274414062e+01 -6.782230377197265625e+00 4.376505851745605469e+00 9.137914657592773438e+00 4.054326057434082031e+00 -3.901157528162002563e-02
2.972000000000000000e+03 3.683121109008789062e+01 3.866761922836303711e-01 1.142677783966064453e+00 9.406536102294921875e+00 3.164764165878295898e+00 8.686580061912536621e-01
2.973000000000000000e+03 3.678289031982421875e+01 -5.470136642456054688e+00 4.037363529205322266e+00 9.106842041015625000e+00 3.943261861801147461e+00 4.983679950237274170e-01
2.974000000000000000e+03 3.423735046386718750e+01 1.007446169853210449e+00 4.602165818214416504e-01 9.956727027893066406e+00 3.125082969665527344e+00 2.758929133415222168e-01
2.975000000000000000e+03 3.362751007080078125e+01 -1.748819649219512939e-01 7.160087227821350098e-01 1.047211742401123047e+01 3.356437683105468750e+00 3.347786664962768555e-01
2.976000000000000000e+03 3.340760040283203125e+01 -1.443765068054199219e+01 2.453293353319168091e-01 1.009985637664794922e+01 3.103555679321289062e+00 -1.424479931592941284e-01
2.977000000000000000e+03 3.561399459838867188e+01 -1.416641139984130859e+01 7.988595962524414062e-01 9.759761810302734375e+00 3.167586565017700195e+00 -8.312391638755798340e-01
2.978000000000000000e+03 4.087153244018554688e+01 -6.819572448730468750e-01 1.743390202522277832e+00 8.468117713928222656e+00 3.063452482223510742e+00 9.190519452095031738e-01
2.979000000000000000e+03 3.491859817504882812e+01 -1.493850326538085938e+01 4.013209640979766846e-01 9.744536399841308594e+00 3.043757200241088867e+00 -5.398169159889221191e-01
2.980000000000000000e+03 3.407992172241210938e+01 -1.439894199371337891e+01 3.846045434474945068e-01 1.000664424896240234e+01 3.117374658584594727e+00 -3.867702484130859375e-01
2.981000000000000000e+03 3.572571182250976562e+01 -1.798579335212707520e+00 2.084672927856445312e+00 9.955636978149414062e+00 3.612092971801757812e+00 1.129470109939575195e+00
2.982000000000000000e+03 3.521436691284179688e+01 -1.276385784149169922e+01 1.345698356628417969e+00 1.006145477294921875e+01 3.422145843505859375e+00 -1.028148412704467773e+00
2.983000000000000000e+03 3.730533218383789062e+01 -9.418505668640136719e+00 3.302615642547607422e+00 9.089856147766113281e+00 3.717741727828979492e+00 -9.479705095291137695e-01
2.984000000000000000e+03 3.700941085815429688e+01 -8.680138587951660156e+00 3.730478763580322266e+00 9.092846870422363281e+00 3.846997737884521484e+00 -7.738107442855834961e-01
2.985000000000000000e+03 3.400260162353515625e+01 -5.128207802772521973e-01 9.633531570434570312e-01 1.051842975616455078e+01 3.444534778594970703e+00 5.802677273750305176e-01
2.986000000000000000e+03 3.655021286010742188e+01 -1.609813499450683594e+01 3.096097111701965332e-01 9.256373405456542969e+00 2.869795083999633789e+00 -6.740231513977050781e-01
2.987000000000000000e+03 3.751884841918945312e+01 -1.764455223083496094e+01 8.078757673501968384e-02 8.934788703918457031e+00 2.704672813415527344e+00 -6.291500329971313477e-01
2.988000000000000000e+03 3.790761184692382812e+01 4.532978057861328125e+00 2.310321331024169922e-01 8.767117500305175781e+00 2.699444770812988281e+00 5.093191266059875488e-01
2.989000000000000000e+03 3.784509277343750000e+01 1.349620699882507324e+00 9.712179303169250488e-01 9.099987030029296875e+00 3.021361351013183594e+00 8.532996177673339844e-01
2.990000000000000000e+03 5.313658142089843750e+01 -8.402357697486877441e-01 9.522674083709716797e-01 7.591244220733642578e+00 2.563053607940673828e+00 4.837540090084075928e-01
2.991000000000000000e+03 4.303729629516601562e+01 5.887397289276123047e+00 3.711702525615692139e-01 8.208753585815429688e+00 2.573977231979370117e+00 7.776090502738952637e-01
2.992000000000000000e+03 5.210356903076171875e+01 6.692745685577392578e+00 3.977698981761932373e-01 7.777301788330078125e+00 2.452521562576293945e+00 7.791805267333984375e-01
2.993000000000000000e+03 5.121399688720703125e+01 6.055173873901367188e-01 9.649041891098022461e-01 7.670534133911132812e+00 2.590631484985351562e+00 6.156809329986572266e-01
2.994000000000000000e+03 5.336651611328125000e+01 -2.576021194458007812e+00 1.011077165603637695e+00 7.560357093811035156e+00 2.571430206298828125e+00 3.717164099216461182e-01
2.995000000000000000e+03 4.181086730957031250e+01 8.093923568725585938e+00 2.728369086980819702e-02 8.165228843688964844e+00 2.457753896713256836e+00 6.000030040740966797e-01
2.996000000000000000e+03 5.000655364990234375e+01 -1.899644088745117188e+01 3.602745234966278076e-01 7.946611404418945312e+00 2.492065668106079102e+00 -7.373832464218139648e-01
2.997000000000000000e+03 4.147513961791992188e+01 6.476871013641357422e+00 2.033216506242752075e-01 8.289572715759277344e+00 2.547868251800537109e+00 6.704702377319335938e-01
2.998000000000000000e+03 5.144424057006835938e+01 -1.670119667053222656e+01 5.966461896896362305e-01 7.819706916809082031e+00 2.524905920028686523e+00 -6.653139591217041016e-01
2.999000000000000000e+03 5.306620788574218750e+01 -1.166994285583496094e+01 9.551669955253601074e-01 7.613347053527832031e+00 2.570554256439208984e+00 -3.704771995544433594e-01
3.000000000000000000e+03 5.156933975219726562e+01 -1.275461387634277344e+01 9.831527471542358398e-01 7.683778762817382812e+00 2.600079536437988281e+00 -4.913271665573120117e-01
3.001000000000000000e+03 5.840990447998046875e+01 -1.822952842712402344e+01 3.069475591182708740e-01 7.681861877441406250e+00 2.396642923355102539e+00 -5.058286786079406738e-01
3.002000000000000000e+03 4.983846664428710938e+01 -7.424707412719726562e+00 1.435840487480163574e+00 7.600624561309814453e+00 2.710939407348632812e+00 -6.336676329374313354e-02
3.003000000000000000e+03 3.859008026123046875e+01 2.095970064401626587e-01 1.414211034774780273e+00 8.968057632446289062e+00 3.114680528640747070e+00 9.853663444519042969e-01
3.004000000000000000e+03 3.443341064453125000e+01 -1.037638401612639427e-03 8.752394914627075195e-01 1.024180126190185547e+01 3.335112333297729492e+00 5.825323462486267090e-01
3.005000000000000000e+03 3.543764114379882812e+01 -1.340259933471679688e+01 1.105082154273986816e+00 9.916010856628417969e+00 3.306327819824218750e+00 -9.528891444206237793e-01
3.006000000000000000e+03 3.481496810913085938e+01 -1.425195312500000000e+01 5.956015586853027344e-01 9.909391403198242188e+00 3.151497840881347656e+00 -6.358040571212768555e-01
3.007000000000000000e+03 3.695299911499023438e+01 -3.794194698333740234e+00 3.237724065780639648e+00 9.277252197265625000e+00 3.754492998123168945e+00 9.988835453987121582e-01
3.008000000000000000e+03 3.727696228027343750e+01 -1.027093124389648438e+01 2.916011333465576172e+00 9.200848579406738281e+00 3.635057926177978516e+00 -1.113387227058410645e+00
3.009000000000000000e+03 3.693139648437500000e+01 -6.356015205383300781e+00 4.157556056976318359e+00 9.004901885986328125e+00 3.948737382888793945e+00 1.643868535757064819e-01
3.010000000000000000e+03 3.692646789550781250e+01 -7.223397731781005859e+00 4.155437946319580078e+00 9.002408027648925781e+00 3.947353839874267578e+00 -2.473152726888656616e-01
3.011000000000000000e+03 3.729238510131835938e+01 -4.351326465606689453e+00 3.419356107711791992e+00 9.086822509765625000e+00 3.751853466033935547e+00 8.086997866630554199e-01
3.012000000000000000e+03 3.680723953247070312e+01 -3.204400539398193359e+00 2.920787811279296875e+00 9.382753372192382812e+00 3.691062211990356445e+00 1.079713940620422363e+00
3.013000000000000000e+03 3.605146026611328125e+01 1.293399810791015625e+00 7.234694957733154297e-01 9.523266792297363281e+00 3.074021100997924805e+00 6.444411873817443848e-01
3.014000000000000000e+03 3.488258743286132812e+01 6.531024575233459473e-01 7.233098745346069336e-01 9.923310279846191406e+00 3.193985939025878906e+00 5.390540957450866699e-01
3.015000000000000000e+03 3.747027969360351562e+01 -3.413541793823242188e+00 2.948119401931762695e+00 9.124317169189453125e+00 3.621731042861938477e+00 9.923911690711975098e-01
3.016000000000000000e+03 3.775706481933593750e+01 -1.622323799133300781e+01 4.150395095348358154e-01 9.059156417846679688e+00 2.842258930206298828e+00 -8.007287979125976562e-01
3.017000000000000000e+03 3.789751434326171875e+01 -7.352146148681640625e+00 3.747001647949218750e+00 8.749505043029785156e+00 3.748952150344848633e+00 -2.712148427963256836e-01
3.018000000000000000e+03 3.741060256958007812e+01 -5.869994640350341797e+00 3.920765638351440430e+00 8.891875267028808594e+00 3.843792438507080078e+00 3.240826725959777832e-01
3.019000000000000000e+03 3.652032089233398438e+01 -9.496428489685058594e+00 3.446958303451538086e+00 9.410785675048828125e+00 3.857323169708251953e+00 -1.080664038658142090e+00
3.020000000000000000e+03 3.692413330078125000e+01 1.302399754524230957e+00 8.578968048095703125e-01 9.282593727111816406e+00 3.042147159576416016e+00 7.570323944091796875e-01
3.021000000000000000e+03 3.590663146972656250e+01 -3.926262557506561279e-01 1.389858722686767578e+00 9.787919998168945312e+00 3.353333711624145508e+00 9.288522601127624512e-01
3.022000000000000000e+03 3.998491287231445312e+01 1.171841025352478027e+00 1.184660673141479492e+00 8.682812690734863281e+00 2.960242033004760742e+00 9.329412579536437988e-01
3.023000000000000000e+03 4.844577789306640625e+01 -1.697226142883300781e+01 6.249510049819946289e-01 7.961799144744873047e+00 2.576025009155273438e+00 -7.716269493103027344e-01
3.024000000000000000e+03 3.837280654907226562e+01 -1.982018661499023438e+01 -2.372636646032333374e-01 8.594644546508789062e+00 2.507214307785034180e+00 -5.112364292144775391e-01
3.025000000000000000e+03 4.021060562133789062e+01 2.124855071306228638e-01 1.462898492813110352e+00 8.637497901916503906e+00 3.030118942260742188e+00 9.556312561035156250e-01
3.026000000000000000e+03 4.026864624023437500e+01 2.317856788635253906e+00 8.917868733406066895e-01 8.615463256835937500e+00 2.852174997329711914e+00 8.785244822502136230e-01
3.027000000000000000e+03 4.108151245117187500e+01 4.962411403656005859e+00 4.130206108093261719e-01 8.412792205810546875e+00 2.647743701934814453e+00 7.447781562805175781e-01
3.028000000000000000e+03 3.623972320556640625e+01 -1.315660858154296875e+01 1.354900836944580078e+00 9.667957305908203125e+00 3.306857347488403320e+00 -1.069360971450805664e+00
3.029000000000000000e+03 3.568736267089843750e+01 -1.499395751953125000e+01 5.091691017150878906e-01 9.584265708923339844e+00 3.028030633926391602e+00 -6.949771642684936523e-01
3.030000000000000000e+03 3.898590469360351562e+01 -2.251436424255371094e+01 -5.144119262695312500e-01 8.305102348327636719e+00 2.337207078933715820e+00 -3.901388347148895264e-01
3.031000000000000000e+03 4.065356445312500000e+01 3.576647043228149414e+00 6.509006619453430176e-01 8.524108886718750000e+00 2.752502918243408203e+00 8.151955008506774902e-01
3.032000000000000000e+03 4.614964294433593750e+01 4.476518630981445312e+00 6.554706096649169922e-01 7.995682716369628906e+00 2.595345973968505859e+00 8.385351300239562988e-01
3.033000000000000000e+03 4.935984802246093750e+01 -1.181739807128906250e+01 1.218219518661499023e+00 7.724615097045898438e+00 2.682850360870361328e+00 -5.008435845375061035e-01
3.034000000000000000e+03 5.159810256958007812e+01 -1.170591950416564941e+00 1.077982068061828613e+00 7.613506317138671875e+00 2.607446432113647461e+00 4.918236732482910156e-01
3.035000000000000000e+03 4.998352050781250000e+01 -1.645514130592346191e+00 1.240448117256164551e+00 7.652664184570312500e+00 2.667933702468872070e+00 5.025367736816406250e-01
3.036000000000000000e+03 4.824329376220703125e+01 -1.897145843505859375e+01 3.553597033023834229e-01 8.031305313110351562e+00 2.515999317169189453e+00 -7.820549607276916504e-01
3.037000000000000000e+03 5.567612075805664062e+01 -2.150830841064453125e+01 1.106200516223907471e-01 7.828177928924560547e+00 2.381639480590820312e+00 -6.086915731430053711e-01
3.038000000000000000e+03 4.588650131225585938e+01 1.040870094299316406e+01 -2.107253298163414001e-02 7.925355434417724609e+00 2.371284961700439453e+00 6.960215568542480469e-01
3.039000000000000000e+03 4.477007293701171875e+01 1.295524024963378906e+01 -2.479907125234603882e-01 7.848474979400634766e+00 2.280145168304443359e+00 5.692579746246337891e-01
3.040000000000000000e+03 3.538209152221679688e+01 -1.058801174163818359e+00 1.586707472801208496e+00 1.003024101257324219e+01 3.485084295272827148e+00 9.758427143096923828e-01
3.041000000000000000e+03 3.660884475708007812e+01 -1.539016962051391602e+00 2.034737110137939453e+00 9.584844589233398438e+00 3.485874652862548828e+00 1.106421113014221191e+00
3.042000000000000000e+03 3.724648284912109375e+01 -4.931850910186767578e+00 3.692249536514282227e+00 9.018142700195312500e+00 3.813117742538452148e+00 6.598719358444213867e-01
3.043000000000000000e+03 3.641440963745117188e+01 -1.181528568267822266e+01 2.050279855728149414e+00 9.654306411743164062e+00 3.511375904083251953e+00 -1.225787997245788574e+00
3.044000000000000000e+03 3.647037506103515625e+01 -1.405879497528076172e+01 9.893658757209777832e-01 9.514221191406250000e+00 3.151076316833496094e+00 -9.525088667869567871e-01
3.045000000000000000e+03 3.811204910278320312e+01 -9.048297882080078125e+00 3.252660512924194336e+00 8.815260887145996094e+00 3.620376348495483398e+00 -7.834234833717346191e-01
3.046000000000000000e+03 3.665747833251953125e+01 -5.621908903121948242e-01 1.547379732131958008e+00 9.565524101257324219e+00 3.333871126174926758e+00 9.985959529876708984e-01
3.047000000000000000e+03 3.675000762939453125e+01 -2.450876951217651367e+00 2.572413206100463867e+00 9.479326248168945312e+00 3.615521669387817383e+00 1.141078352928161621e+00
3.048000000000000000e+03 3.819060516357421875e+01 -1.063046836853027344e+01 2.638494968414306641e+00 8.956846237182617188e+00 3.478602409362792969e+00 -1.056143045425415039e+00
3.049000000000000000e+03 3.660610961914062500e+01 -1.503051090240478516e+01 6.362596750259399414e-01 9.395459175109863281e+00 3.009515762329101562e+00 -8.272481560707092285e-01
3.050000000000000000e+03 3.714727020263671875e+01 -1.221280002593994141e+01 1.888455867767333984e+00 9.404657363891601562e+00 3.387933969497680664e+00 -1.181202530860900879e+00
3.051000000000000000e+03 3.799455261230468750e+01 -6.353415489196777344e+00 3.726386785507202148e+00 8.712581634521484375e+00 3.731690645217895508e+00 1.387263536453247070e-01
3.052000000000000000e+03 3.765988922119140625e+01 -8.350860595703125000e+00 3.651004314422607422e+00 8.882761001586914062e+00 3.760129690170288086e+00 -6.092051863670349121e-01
3.053000000000000000e+03 3.871853256225585938e+01 -8.388770103454589844e+00 3.241761684417724609e+00 8.589944839477539062e+00 3.549511909484863281e+00 -5.367306470870971680e-01
3.054000000000000000e+03 3.603242111206054688e+01 4.157152175903320312e-01 1.016195654869079590e+00 9.636948585510253906e+00 3.195943355560302734e+00 7.819473743438720703e-01
3.055000000000000000e+03 3.488934707641601562e+01 -4.918610155582427979e-01 1.169559121131896973e+00 1.014417934417724609e+01 3.394121646881103516e+00 7.693784236907958984e-01
3.056000000000000000e+03 3.822112274169921875e+01 -5.774052143096923828e-01 1.705349802970886230e+00 9.072998046875000000e+00 3.233504295349121094e+00 1.028278946876525879e+00
3.057000000000000000e+03 4.081459426879882812e+01 -1.855269432067871094e+01 1.926280111074447632e-01 8.552477836608886719e+00 2.623531818389892578e+00 -8.113372921943664551e-01
3.058000000000000000e+03 3.736507797241210938e+01 -1.388693523406982422e+01 1.172460794448852539e+00 9.321009635925292969e+00 3.148041009902954102e+00 -1.049435257911682129e+00
3.059000000000000000e+03 4.205327224731445312e+01 2.989215612411499023e+00 8.401294350624084473e-01 8.358691215515136719e+00 2.759646177291870117e+00 8.728750944137573242e-01
3.060000000000000000e+03 4.917216110229492188e+01 -1.344671249389648438e+01 1.053378820419311523e+00 7.790753364562988281e+00 2.653239488601684570e+00 -6.113274693489074707e-01
3.061000000000000000e+03 5.040161514282226562e+01 -1.393308734893798828e+01 9.420939683914184570e-01 7.760483741760253906e+00 2.610773324966430664e+00 -5.940120220184326172e-01
3.062000000000000000e+03 5.188317489624023438e+01 -4.993041992187500000e+00 1.238228321075439453e+00 7.552456855773925781e+00 2.637205600738525391e+00 1.748061776161193848e-01
3.063000000000000000e+03 4.256559371948242188e+01 4.356441020965576172e+00 6.039977073669433594e-01 8.287775039672851562e+00 2.667531967163085938e+00 8.284744620323181152e-01
3.064000000000000000e+03 4.512029266357421875e+01 6.864286422729492188e+00 3.119897246360778809e-01 8.048576354980468750e+00 2.508169889450073242e+00 7.923609614372253418e-01
3.065000000000000000e+03 5.839561080932617188e+01 -2.092527961730957031e+01 1.401383131742477417e-01 7.747199535369873047e+00 2.366201400756835938e+00 -5.444747209548950195e-01
3.066000000000000000e+03 3.769345092773437500e+01 -2.196895122528076172e+00 2.407766819000244141e+00 9.157934188842773438e+00 3.469710350036621094e+00 1.069476366043090820e+00
3.067000000000000000e+03 3.705641937255859375e+01 -1.298285675048828125e+01 1.525484561920166016e+00 9.441733360290527344e+00 3.290165185928344727e+00 -1.133079767227172852e+00
3.068000000000000000e+03 3.799366378784179688e+01 -4.030638217926025391e+00 3.129258394241333008e+00 8.874772071838378906e+00 3.601209163665771484e+00 8.214081525802612305e-01
3.069000000000000000e+03 3.840393829345703125e+01 -1.208070373535156250e+01 1.974222898483276367e+00 9.020605087280273438e+00 3.298448562622070312e+00 -1.132840991020202637e+00
3.070000000000000000e+03 3.776749420166015625e+01 -1.269912910461425781e+01 1.701099276542663574e+00 9.207344055175781250e+00 3.272532939910888672e+00 -1.136824488639831543e+00
3.071000000000000000e+03 3.768799209594726562e+01 3.607391715049743652e-01 1.261583924293518066e+00 9.208193778991699219e+00 3.140933275222778320e+00 9.505025148391723633e-01
3.072000000000000000e+03 3.996587753295898438e+01 -2.112805604934692383e+00 2.195447444915771484e+00 8.550158500671386719e+00 3.223681688308715820e+00 9.098701477050781250e-01
3.073000000000000000e+03 4.271495056152343750e+01 -9.920141696929931641e-01 1.719121694564819336e+00 8.179098129272460938e+00 2.969465970993041992e+00 8.287667632102966309e-01
3.074000000000000000e+03 3.893254089355468750e+01 -7.626285076141357422e+00 3.349713087081909180e+00 8.495841026306152344e+00 3.553666353225708008e+00 -2.853367626667022705e-01
3.075000000000000000e+03 4.014525604248046875e+01 -6.553314685821533203e+00 3.079046010971069336e+00 8.286238670349121094e+00 3.409585237503051758e+00 2.749856002628803253e-02
3.076000000000000000e+03 3.904362106323242188e+01 -1.461489439010620117e+00 2.007464885711669922e+00 8.798777580261230469e+00 3.241872787475585938e+00 9.864510893821716309e-01
3.077000000000000000e+03 3.867985153198242188e+01 -4.681599617004394531e+00 3.203866004943847656e+00 8.642812728881835938e+00 3.554003477096557617e+00 5.968196988105773926e-01
3.078000000000000000e+03 3.873297119140625000e+01 -8.973956108093261719e-01 1.852713108062744141e+00 8.903100967407226562e+00 3.226744174957275391e+00 1.018375992774963379e+00
3.079000000000000000e+03 4.489536666870117188e+01 -1.816316986083984375e+01 4.289793372154235840e-01 8.219044685363769531e+00 2.594407320022583008e+00 -8.591033220291137695e-01
3.080000000000000000e+03 4.096381378173828125e+01 8.383777141571044922e-01 1.291222572326660156e+00 8.491559982299804688e+00 2.934834718704223633e+00 9.312993288040161133e-01
3.081000000000000000e+03 4.738841629028320312e+01 -1.489004325866699219e+01 9.440414905548095703e-01 7.945505619049072266e+00 2.666864156723022461e+00 -7.590986490249633789e-01
3.082000000000000000e+03 4.696233367919921875e+01 -1.670281028747558594e+01 6.776902079582214355e-01 8.040596008300781250e+00 2.615485906600952148e+00 -8.188086748123168945e-01
3.083000000000000000e+03 4.807950592041015625e+01 -1.181771469116210938e+01 1.315953135490417480e+00 7.783360958099365234e+00 2.729794263839721680e+00 -5.495793223381042480e-01
3.084000000000000000e+03 4.780617141723632812e+01 -1.325238609313964844e+01 1.176566481590270996e+00 7.848085403442382812e+00 2.707395553588867188e+00 -6.572600603103637695e-01
3.085000000000000000e+03 4.994045639038085938e+01 -1.700704765319824219e+01 5.988237857818603516e-01 7.893900871276855469e+00 2.547817468643188477e+00 -7.231580615043640137e-01
3.086000000000000000e+03 5.210466003417968750e+01 -1.016787147521972656e+01 1.106283426284790039e+00 7.596571445465087891e+00 2.610856533050537109e+00 -2.792604863643646240e-01
3.087000000000000000e+03 4.817078018188476562e+01 -1.062936019897460938e+01 1.440429210662841797e+00 7.739201545715332031e+00 2.753889322280883789e+00 -4.499115645885467529e-01
3.088000000000000000e+03 4.829551315307617188e+01 1.662154793739318848e+00 1.004224658012390137e+00 7.816460609436035156e+00 2.646205663681030273e+00 7.518633008003234863e-01
3.089000000000000000e+03 4.405672836303710938e+01 3.629149436950683594e+00 7.738061547279357910e-01 8.152193069458007812e+00 2.677799701690673828e+00 8.603618741035461426e-01
3.090000000000000000e+03 4.460951232910156250e+01 5.209563255310058594e+00 5.266689658164978027e-01 8.099200248718261719e+00 2.587760686874389648e+00 8.296258449554443359e-01
3.091000000000000000e+03 4.345536422729492188e+01 7.518903732299804688e+00 1.733845323324203491e-01 8.118325233459472656e+00 2.487512826919555664e+00 7.189554572105407715e-01
3.092000000000000000e+03 4.553581237792968750e+01 8.603839874267578125e+00 1.367819458246231079e-01 7.990297794342041016e+00 2.438123941421508789e+00 7.475408315658569336e-01
3.093000000000000000e+03 3.749572372436523438e+01 -5.355554223060607910e-01 1.648244857788085938e+00 9.264890670776367188e+00 3.273940563201904297e+00 1.023712158203125000e+00
3.094000000000000000e+03 3.804880905151367188e+01 -2.926340579986572266e+00 2.668929100036621094e+00 9.015619277954101562e+00 3.505364418029785156e+00 9.844577908515930176e-01
3.095000000000000000e+03 3.972073364257812500e+01 -3.046114206314086914e+00 2.496541976928710938e+00 8.529818534851074219e+00 3.307908058166503906e+00 8.184230327606201172e-01
3.096000000000000000e+03 4.606750488281250000e+01 -1.450460624694824219e+01 1.069890379905700684e+00 8.014394760131835938e+00 2.725285530090332031e+00 -8.014241456985473633e-01
3.097000000000000000e+03 3.882108306884765625e+01 -9.717400550842285156e+00 2.884780645370483398e+00 8.699928283691406250e+00 3.475412845611572266e+00 -8.555813431739807129e-01
3.098000000000000000e+03 3.747286224365234375e+01 -1.385202884674072266e+00 2.019735813140869141e+00 9.269050598144531250e+00 3.386636018753051758e+00 1.078278183937072754e+00
3.099000000000000000e+03 3.885155868530273438e+01 -2.821797370910644531e+00 2.529526233673095703e+00 8.769607543945312500e+00 3.389740228652954102e+00 9.272434711456298828e-01
3.100000000000000000e+03 3.985383224487304688e+01 -7.712685108184814453e+00 3.081472396850585938e+00 8.340296745300292969e+00 3.426530838012695312e+00 -2.776505351066589355e-01
3.101000000000000000e+03 4.065761566162109375e+01 -3.264050245285034180e+00 2.419967174530029297e+00 8.367987632751464844e+00 3.236386537551879883e+00 7.431042790412902832e-01
3.102000000000000000e+03 4.306069183349609375e+01 -2.234393358230590820e+00 1.945313334465026855e+00 8.083854675292968750e+00 3.008750438690185547e+00 7.133324742317199707e-01
3.103000000000000000e+03 3.826007843017578125e+01 -1.353949260711669922e+01 1.401661515235900879e+00 9.096665382385253906e+00 3.149498224258422852e+00 -1.104590177536010742e+00
3.104000000000000000e+03 3.915742874145507812e+01 -6.277060031890869141e+00 3.325506210327148438e+00 8.432524681091308594e+00 3.527409315109252930e+00 1.015615835785865784e-01
3.105000000000000000e+03 3.852562332153320312e+01 -5.827859401702880859e+00 3.520830869674682617e+00 8.619874954223632812e+00 3.642211914062500000e+00 2.818101942539215088e-01
3.106000000000000000e+03 4.038103103637695312e+01 -4.282881736755371094e+00 2.720414876937866211e+00 8.329479217529296875e+00 3.314968109130859375e+00 5.507960319519042969e-01
3.107000000000000000e+03 4.132872009277343750e+01 -9.869669914245605469e+00 2.395418882369995117e+00 8.240401268005371094e+00 3.190746068954467773e+00 -6.686074137687683105e-01
3.108000000000000000e+03 3.945903778076171875e+01 -8.783423423767089844e+00 3.008687734603881836e+00 8.471592903137207031e+00 3.444084167480468750e+00 -5.912127494812011719e-01
3.109000000000000000e+03 3.764485549926757812e+01 -1.495720386505126953e+01 8.119078874588012695e-01 9.172250747680664062e+00 2.995247602462768555e+00 -9.348339438438415527e-01
3.110000000000000000e+03 4.285527038574218750e+01 -1.490353870391845703e+01 1.073538899421691895e+00 8.333918571472167969e+00 2.822237253189086914e+00 -9.513432979583740234e-01
3.111000000000000000e+03 3.920130538940429688e+01 -1.613329124450683594e+01 6.051748991012573242e-01 8.832181930541992188e+00 2.831207036972045898e+00 -9.156878590583801270e-01
3.112000000000000000e+03 4.424298095703125000e+01 -2.020773124694824219e+01 9.146603196859359741e-02 8.263600349426269531e+00 2.506519794464111328e+00 -7.945957779884338379e-01
3.113000000000000000e+03 4.153806304931640625e+01 -1.543468236923217773e+00 1.926764726638793945e+00 8.327948570251464844e+00 3.076414108276367188e+00 8.569358587265014648e-01
3.114000000000000000e+03 4.895046997070312500e+01 7.830160140991210938e+00 2.958592772483825684e-01 7.881949424743652344e+00 2.453342676162719727e+00 8.071902394294738770e-01
3.115000000000000000e+03 4.942446517944335938e+01 -4.700898170471191406e+00 1.459234714508056641e+00 7.613984584808349609e+00 2.721965789794921875e+00 2.445144057273864746e-01
3.116000000000000000e+03 5.067998886108398438e+01 -3.488482713699340820e+00 1.294791340827941895e+00 7.598337650299072266e+00 2.667938709259033203e+00 3.433395028114318848e-01
3.117000000000000000e+03 5.266209411621093750e+01 1.088017702102661133e+00 8.501247763633728027e-01 7.641191482543945312e+00 2.547394990921020508e+00 6.035184860229492188e-01
3.118000000000000000e+03 4.974160385131835938e+01 2.019162923097610474e-01 1.080361843109130859e+00 7.713676452636718750e+00 2.638211488723754883e+00 6.412485837936401367e-01
3.119000000000000000e+03 5.213699722290039062e+01 -7.552353382110595703e+00 1.209341168403625488e+00 7.552533626556396484e+00 2.628562450408935547e+00 -5.859874188899993896e-02
3.120000000000000000e+03 4.905562210083007812e+01 -1.048127651214599609e+01 1.369361281394958496e+00 7.683320522308349609e+00 2.715804576873779297e+00 -3.878107368946075439e-01
3.121000000000000000e+03 4.994897460937500000e+01 -1.534194946289062500e+01 7.992441058158874512e-01 7.837313652038574219e+00 2.590967416763305664e+00 -6.828481554985046387e-01
3.122000000000000000e+03 4.421703720092773438e+01 1.105904865264892578e+01 -1.381463855504989624e-01 7.934139728546142578e+00 2.338798046112060547e+00 6.037588715553283691e-01
3.123000000000000000e+03 5.225647354125976562e+01 -2.103072547912597656e+01 1.497336626052856445e-01 7.911398887634277344e+00 2.418339729309082031e+00 -6.803516149520874023e-01
3.124000000000000000e+03 3.972987365722656250e+01 -1.033426189422607422e+01 2.509021282196044922e+00 8.558834075927734375e+00 3.320356607437133789e+00 -8.713346123695373535e-01
3.125000000000000000e+03 3.842537307739257812e+01 -1.800466775894165039e+00 2.195448875427246094e+00 8.972502708435058594e+00 3.350385427474975586e+00 1.031681060791015625e+00
3.126000000000000000e+03 3.935466384887695312e+01 -3.948313713073730469e+00 2.844822168350219727e+00 8.552834510803222656e+00 3.419296979904174805e+00 7.002515792846679688e-01
3.127000000000000000e+03 4.435058212280273438e+01 -1.190367698669433594e+01 1.627331376075744629e+00 8.022372245788574219e+00 2.894911050796508789e+00 -7.301479578018188477e-01
3.128000000000000000e+03 3.922039031982421875e+01 -5.434227943420410156e+00 3.205365180969238281e+00 8.462387084960937500e+00 3.500325679779052734e+00 3.573326766490936279e-01
3.129000000000000000e+03 3.902389907836914062e+01 -2.106827974319458008e+00 2.259052991867065430e+00 8.778882026672363281e+00 3.311380624771118164e+00 9.684957265853881836e-01
3.130000000000000000e+03 3.875095748901367188e+01 -1.465937042236328125e+01 1.032051086425781250e+00 8.978368759155273438e+00 3.003125905990600586e+00 -1.026801347732543945e+00
3.131000000000000000e+03 4.091139221191406250e+01 -2.291644811630249023e+00 2.162363052368164062e+00 8.388170242309570312e+00 3.165160179138183594e+00 8.269094824790954590e-01
3.132000000000000000e+03 4.332826232910156250e+01 -1.125095176696777344e+01 1.847929000854492188e+00 8.078918457031250000e+00 2.978054285049438477e+00 -7.255141139030456543e-01
3.133000000000000000e+03 4.165026855468750000e+01 -3.435012102127075195e+00 2.319032907485961914e+00 8.181855201721191406e+00 3.150266408920288086e+00 6.310923099517822266e-01
3.134000000000000000e+03 4.273602676391601562e+01 1.003192067146301270e+00 1.251001596450805664e+00 8.255128860473632812e+00 2.851839065551757812e+00 8.885658979415893555e-01
3.135000000000000000e+03 4.653701019287109375e+01 -1.867043304443359375e+01 3.790385723114013672e-01 8.117499351501464844e+00 2.548961400985717773e+00 -8.227300047874450684e-01
3.136000000000000000e+03 4.550659942626953125e+01 -1.625995635986328125e+01 7.593926787376403809e-01 8.129293441772460938e+00 2.666605949401855469e+00 -8.641936182975769043e-01
3.137000000000000000e+03 5.000404357910156250e+01 -9.784355163574218750e+00 1.331834316253662109e+00 7.635740756988525391e+00 2.690272569656372070e+00 -2.945889532566070557e-01
3.138000000000000000e+03 4.742095565795898438e+01 -9.353094100952148438e+00 1.651974558830261230e+00 7.714886665344238281e+00 2.810058355331420898e+00 -3.315381407737731934e-01
3.139000000000000000e+03 4.655553436279296875e+01 -1.293297004699707031e+01 1.294907927513122559e+00 7.907901287078857422e+00 2.760842800140380859e+00 -6.943587660789489746e-01
3.140000000000000000e+03 4.412130737304687500e+01 -1.565844821929931641e+01 8.940590620040893555e-01 8.229998588562011719e+00 2.737217426300048828e+00 -9.109917283058166504e-01
3.141000000000000000e+03 4.706076812744140625e+01 -5.240775585174560547e+00 1.767864465713500977e+00 7.690951824188232422e+00 2.837644815444946289e+00 1.973820626735687256e-01
3.142000000000000000e+03 4.694675064086914062e+01 -1.155712985992431641e+01 1.449333906173706055e+00 7.821475982666015625e+00 2.781243085861206055e+00 -5.707085728645324707e-01
3.143000000000000000e+03 4.541189193725585938e+01 -1.247496318817138672e+01 1.444541215896606445e+00 7.966222763061523438e+00 2.823229074478149414e+00 -7.190187573432922363e-01
3.144000000000000000e+03 4.779756546020507812e+01 -3.538368701934814453e+00 1.570140004158020020e+00 7.690791130065917969e+00 2.778279304504394531e+00 3.856436312198638916e-01
3.145000000000000000e+03 5.319178009033203125e+01 -6.269470214843750000e+00 1.135497093200683594e+00 7.528216361999511719e+00 2.599114179611206055e+00 5.958664789795875549e-02
3.146000000000000000e+03 4.843323135375976562e+01 -6.280381202697753906e+00 1.626382589340209961e+00 7.633534908294677734e+00 2.777975320816040039e+00 6.735085695981979370e-02
3.147000000000000000e+03 4.345622634887695312e+01 2.202408075332641602e+00 1.034748077392578125e+00 8.201930046081542969e+00 2.771003246307373047e+00 8.828413486480712891e-01
3.148000000000000000e+03 4.878778076171875000e+01 2.822709321975708008e+00 8.293933272361755371e-01 7.825848102569580078e+00 2.596572399139404297e+00 7.844527959823608398e-01
3.149000000000000000e+03 4.845450592041015625e+01 5.130939960479736328e+00 5.587791800498962402e-01 7.883182525634765625e+00 2.532588481903076172e+00 8.158438801765441895e-01
3.150000000000000000e+03 4.091212081909179688e+01 -8.097642898559570312e+00 2.779445171356201172e+00 8.196305274963378906e+00 3.292725324630737305e+00 -3.411071002483367920e-01
3.151000000000000000e+03 4.947013092041015625e+01 1.722066521644592285e+00 9.449462294578552246e-01 7.759950160980224609e+00 2.611469030380249023e+00 7.194594740867614746e-01
3.152000000000000000e+03 5.105965042114257812e+01 -8.745344161987304688e+00 1.270812153816223145e+00 7.588540077209472656e+00 2.657805681228637695e+00 -1.756974458694458008e-01
3.153000000000000000e+03 4.912142181396484375e+01 9.702170372009277344e+00 1.262336224317550659e-01 7.876410007476806641e+00 2.400793075561523438e+00 7.800049781799316406e-01
3.154000000000000000e+03 5.007170486450195312e+01 -2.130995750427246094e+01 9.997039288282394409e-02 7.997626781463623047e+00 2.429279088973999023e+00 -7.210142612457275391e-01
3.155000000000000000e+03 4.036575317382812500e+01 -9.273684501647949219e+00 2.721069097518920898e+00 8.346452713012695312e+00 3.320256471633911133e+00 -6.332356929779052734e-01
3.156000000000000000e+03 4.065576171875000000e+01 -1.102901935577392578e+01 2.186978578567504883e+00 8.435166358947753906e+00 3.186643362045288086e+00 -8.825445771217346191e-01
3.157000000000000000e+03 4.028128433227539062e+01 -5.393212795257568359e+00 2.969835281372070312e+00 8.291142463684082031e+00 3.378293275833129883e+00 3.266995549201965332e-01
3.158000000000000000e+03 4.146530151367187500e+01 -4.365252971649169922e+00 2.550630331039428711e+00 8.156436920166015625e+00 3.212120056152343750e+00 4.854089319705963135e-01
3.159000000000000000e+03 3.911600494384765625e+01 -1.292611026763916016e+01 1.638188242912292480e+00 8.878703117370605469e+00 3.155067443847656250e+00 -1.090866327285766602e+00
3.160000000000000000e+03 4.399137496948242188e+01 -9.939115524291992188e+00 1.973664879798889160e+00 7.949067115783691406e+00 2.976819753646850586e+00 -5.299152135848999023e-01
3.161000000000000000e+03 4.360152435302734375e+01 -8.093351364135742188e+00 2.251210927963256836e+00 7.903435707092285156e+00 3.046393871307373047e+00 -2.499861866235733032e-01
3.162000000000000000e+03 4.420790481567382812e+01 -2.551501989364624023e+00 1.845093607902526855e+00 7.943765640258789062e+00 2.936657905578613281e+00 6.290485858917236328e-01
3.163000000000000000e+03 4.180751037597656250e+01 -1.659376716613769531e+01 6.425235867500305176e-01 8.496333122253417969e+00 2.741657257080078125e+00 -9.352107644081115723e-01
3.164000000000000000e+03 4.482033157348632812e+01 -1.398754787445068359e+01 1.213474750518798828e+00 8.089622497558593750e+00 2.790929317474365234e+00 -8.363226056098937988e-01
3.165000000000000000e+03 3.991910934448242188e+01 -1.207038402557373047e+01 1.914680719375610352e+00 8.658147811889648438e+00 3.171848535537719727e+00 -1.021859765052795410e+00
3.166000000000000000e+03 3.983210754394531250e+01 -1.399590301513671875e+01 1.288059234619140625e+00 8.769963264465332031e+00 3.017406702041625977e+00 -1.053751468658447266e+00
3.167000000000000000e+03 4.823030471801757812e+01 -1.653200149536132812e+00 1.363603711128234863e+00 7.715197086334228516e+00 2.723640203475952148e+00 5.520352125167846680e-01
3.168000000000000000e+03 4.653895950317382812e+01 -9.857838630676269531e+00 1.671151041984558105e+00 7.778563022613525391e+00 2.834914207458496094e+00 -4.067929387092590332e-01
3.169000000000000000e+03 4.257938003540039062e+01 -7.348385334014892578e+00 2.490828514099121094e+00 7.981188774108886719e+00 3.141605138778686523e+00 -1.241105422377586365e-01
3.170000000000000000e+03 4.250276565551757812e+01 -1.943483161926269531e+01 1.362359374761581421e-01 8.385475158691406250e+00 2.556513309478759766e+00 -8.067517280578613281e-01
3.171000000000000000e+03 4.332023239135742188e+01 -1.747262763977050781e+01 5.020387768745422363e-01 8.337763786315917969e+00 2.651940822601318359e+00 -8.935790061950683594e-01
3.172000000000000000e+03 4.399532699584960938e+01 -1.280282139778137207e-01 1.474208712577819824e+00 8.069463729858398438e+00 2.863101720809936523e+00 8.170672059059143066e-01
3.173000000000000000e+03 5.082845687866210938e+01 -6.161245346069335938e+00 1.345156431198120117e+00 7.567822456359863281e+00 2.673893690109252930e+00 7.143081724643707275e-02
3.174000000000000000e+03 4.767495727539062500e+01 -7.936818599700927734e+00 1.678907990455627441e+00 7.679905414581298828e+00 2.807644128799438477e+00 -1.395937800407409668e-01
3.175000000000000000e+03 4.899177169799804688e+01 -8.659438133239746094e+00 1.485795259475708008e+00 7.641232013702392578e+00 2.738108158111572266e+00 -1.950371414422988892e-01
3.176000000000000000e+03 4.166996002197265625e+01 -2.151289367675781250e+01 -2.257473021745681763e-01 8.362073898315429688e+00 2.440897941589355469e+00 -6.608592271804809570e-01
3.177000000000000000e+03 4.821847915649414062e+01 1.651619672775268555e-01 1.166911363601684570e+00 7.774290561676025391e+00 2.682360649108886719e+00 6.792318820953369141e-01
3.178000000000000000e+03 5.098188400268554688e+01 1.142620372772216797e+01 2.537853084504604340e-02 7.823866367340087891e+00 2.354773521423339844e+00 7.562817931175231934e-01
3.179000000000000000e+03 4.924354934692382812e+01 1.170038795471191406e+01 -2.095840312540531158e-02 7.855314254760742188e+00 2.350306749343872070e+00 7.330177426338195801e-01
3.180000000000000000e+03 4.958626937866210938e+01 6.290452003479003906e+00 4.346067607402801514e-01 7.853596687316894531e+00 2.486461162567138672e+00 8.115172386169433594e-01
3.181000000000000000e+03 4.683834457397460938e+01 6.147478580474853516e+00 4.378027021884918213e-01 7.961426258087158203e+00 2.519768714904785156e+00 8.226029872894287109e-01
3.182000000000000000e+03 4.569309997558593750e+01 -9.192549705505371094e+00 1.821857094764709473e+00 7.800714015960693359e+00 2.886771202087402344e+00 -3.586021363735198975e-01
3.183000000000000000e+03 4.346287155151367188e+01 -6.241554737091064453e+00 2.336480617523193359e+00 7.909008979797363281e+00 3.073646783828735352e+00 7.173581421375274658e-02
3.184000000000000000e+03 4.616827392578125000e+01 -6.194441795349121094e+00 1.883237838745117188e+00 7.720951080322265625e+00 2.881256580352783203e+00 7.266950607299804688e-02
3.185000000000000000e+03 4.579465866088867188e+01 -4.951203346252441406e+00 1.885187387466430664e+00 7.754560947418212891e+00 2.891924381256103516e+00 2.691317200660705566e-01
3.186000000000000000e+03 4.628553771972656250e+01 -7.643762588500976562e+00 1.876719355583190918e+00 7.722733497619628906e+00 2.879835844039916992e+00 -1.305364966392517090e-01
3.187000000000000000e+03 4.239671707153320312e+01 -4.010862350463867188e+00 2.329414606094360352e+00 8.053977966308593750e+00 3.115017652511596680e+00 5.061959624290466309e-01
3.188000000000000000e+03 4.509753799438476562e+01 -1.490868210792541504e+00 1.624974966049194336e+00 7.917463779449462891e+00 2.862731695175170898e+00 6.765499114990234375e-01
3.189000000000000000e+03 4.157330703735351562e+01 -5.486073017120361328e+00 2.650239467620849609e+00 8.098689079284667969e+00 3.224678754806518555e+00 2.546471655368804932e-01
3.190000000000000000e+03 4.063278579711914062e+01 -1.534685420989990234e+01 8.881309628486633301e-01 8.643932342529296875e+00 2.859619140625000000e+00 -9.891597628593444824e-01
3.191000000000000000e+03 4.367114639282226562e+01 -1.334897041320800781e+01 1.387960076332092285e+00 8.166907310485839844e+00 2.866460084915161133e+00 -8.639685511589050293e-01
3.192000000000000000e+03 4.231918716430664062e+01 -1.055190086364746094e+01 2.101740121841430664e+00 8.159172058105468750e+00 3.078273534774780273e+00 -7.097301483154296875e-01
3.193000000000000000e+03 4.553485870361328125e+01 2.850700139999389648e+00 8.980754613876342773e-01 8.013709068298339844e+00 2.673535346984863281e+00 8.435036540031433105e-01
3.194000000000000000e+03 4.697753143310546875e+01 2.151760816574096680e+00 9.717624783515930176e-01 7.905986785888671875e+00 2.663324832916259766e+00 8.040826320648193359e-01
3.195000000000000000e+03 4.649713134765625000e+01 -1.192501902580261230e+00 1.467260122299194336e+00 7.831771850585937500e+00 2.789709568023681641e+00 6.541391611099243164e-01
3.196000000000000000e+03 5.337472915649414062e+01 -8.949967384338378906e+00 1.067263841629028320e+00 7.549665451049804688e+00 2.585078716278076172e+00 -1.562024205923080444e-01
3.197000000000000000e+03 3.945573425292968750e+01 -2.566062355041503906e+01 -7.381759285926818848e-01 8.036795616149902344e+00 2.189585924148559570e+00 -2.746993899345397949e-01
3.198000000000000000e+03 4.139908599853515625e+01 -6.804398536682128906e+00 2.756981849670410156e+00 8.097502708435058594e+00 3.256345510482788086e+00 -3.448229283094406128e-02
3.199000000000000000e+03 4.194999694824218750e+01 -8.641583442687988281e+00 2.521495342254638672e+00 8.090048789978027344e+00 3.183463096618652344e+00 -4.145496189594268799e-01
3.200000000000000000e+03 4.161102676391601562e+01 -1.180623340606689453e+01 1.882055401802062988e+00 8.327907562255859375e+00 3.062988758087158203e+00 -8.883422613143920898e-01
3.201000000000000000e+03 4.593674087524414062e+01 -1.109968662261962891e+01 1.605954766273498535e+00 7.863574981689453125e+00 2.840858936309814453e+00 -5.741832852363586426e-01
3.202000000000000000e+03 4.607048416137695312e+01 -2.081356048583984375e+01 7.596890628337860107e-02 8.165489196777343750e+00 2.472437620162963867e+00 -7.776840329170227051e-01
3.203000000000000000e+03 4.978378677368164062e+01 3.824279069900512695e+00 7.134859561920166016e-01 7.801653861999511719e+00 2.554541826248168945e+00 7.784463167190551758e-01
3.204000000000000000e+03 5.044586563110351562e+01 7.560078144073486328e+00 3.260969519615173340e-01 7.829945087432861328e+00 2.446812629699707031e+00 7.986816763877868652e-01
3.205000000000000000e+03 4.175370788574218750e+01 -1.398358726501464844e+01 1.294111847877502441e+00 8.421980857849121094e+00 2.914827823638916016e+00 -9.763538241386413574e-01
3.206000000000000000e+03 4.335724639892578125e+01 -3.374474525451660156e+00 2.103829145431518555e+00 7.995939731597900391e+00 3.029930591583251953e+00 5.391018390655517578e-01
3.207000000000000000e+03 4.498139572143554688e+01 -1.054067993164062500e+01 1.777122855186462402e+00 7.900138378143310547e+00 2.903178453445434570e+00 -5.611124634742736816e-01
3.208000000000000000e+03 4.284269714355468750e+01 -5.139461040496826172e+00 2.383245468139648438e+00 7.971023082733154297e+00 3.106280565261840820e+00 2.803983390331268311e-01
3.209000000000000000e+03 4.511544799804687500e+01 -7.520480632781982422e+00 2.057173490524291992e+00 7.782469749450683594e+00 2.951893091201782227e+00 -1.420602053403854370e-01
3.210000000000000000e+03 5.069853591918945312e+01 2.332082271575927734e+00 8.336318135261535645e-01 7.736548900604248047e+00 2.571054220199584961e+00 7.200672626495361328e-01
3.211000000000000000e+03 4.297077941894531250e+01 -9.291235923767089844e+00 2.232678413391113281e+00 8.006134986877441406e+00 3.071644067764282227e+00 -4.705763459205627441e-01
3.212000000000000000e+03 4.258758163452148438e+01 -2.471359252929687500e+01 -5.171670913696289062e-01 8.182419776916503906e+00 2.299576044082641602e+00 -5.226131677627563477e-01
3.213000000000000000e+03 4.458922195434570312e+01 -5.492743015289306641e+00 2.077714204788208008e+00 7.827075958251953125e+00 2.971436977386474609e+00 2.103341668844223022e-01
3.214000000000000000e+03 4.402310943603515625e+01 -4.417355060577392578e+00 2.124518632888793945e+00 7.889947414398193359e+00 3.004339933395385742e+00 3.688190281391143799e-01
3.215000000000000000e+03 4.493278884887695312e+01 1.244918227195739746e+00 1.186255574226379395e+00 8.026626586914062500e+00 2.763864517211914062e+00 8.238790035247802734e-01
3.216000000000000000e+03 4.522205734252929688e+01 -3.678931236267089844e+00 1.863878965377807617e+00 7.809267520904541016e+00 2.901943922042846680e+00 4.367854595184326172e-01
3.217000000000000000e+03 4.506644058227539062e+01 -6.489048004150390625e+00 2.065209388732910156e+00 7.781357288360595703e+00 2.953969955444335938e+00 1.724727265536785126e-02
3.218000000000000000e+03 4.424394607543945312e+01 -7.080711364746093750e+00 2.200456380844116211e+00 7.838490962982177734e+00 3.011684179306030273e+00 -8.262924849987030029e-02
3.219000000000000000e+03 4.470491409301757812e+01 -2.569664955139160156e+01 -4.907669126987457275e-01 8.134231567382812500e+00 2.293039321899414062e+00 -5.555604100227355957e-01
3.220000000000000000e+03 3.640805053710937500e+01 -2.586080551147460938e+01 -8.521239161491394043e-01 7.764439582824707031e+00 2.073694705963134766e+00 4.075876250863075256e-02
3.221000000000000000e+03 6.515268707275390625e+01 -2.993840789794921875e+01 -1.487756371498107910e-01 7.773712635040283203e+00 2.287481069564819336e+00 -3.551719188690185547e-01
3.222000000000000000e+03 4.351618194580078125e+01 1.584191989898681641e+01 -4.451083838939666748e-01 7.664372444152832031e+00 2.165779113769531250e+00 4.060485363006591797e-01
3.223000000000000000e+03 3.932333755493164062e+01 2.203184890747070312e+01 -6.770318150520324707e-01 7.014474868774414062e+00 1.901232957839965820e+00 5.442448332905769348e-02
3.224000000000000000e+03 5.941777420043945312e+01 2.403863906860351562e+01 -3.016971349716186523e-01 7.837787151336669922e+00 2.260827064514160156e+00 5.197477340698242188e-01
3.225000000000000000e+03 4.727952575683593750e+01 1.348686790466308594e+01 -2.077347785234451294e-01 7.816141605377197266e+00 2.282521963119506836e+00 6.385893821716308594e-01
3.226000000000000000e+03 5.252288818359375000e+01 8.880883216857910156e+00 2.249240130186080933e-01 7.787617683410644531e+00 2.403762340545654297e+00 7.734202146530151367e-01
3.227000000000000000e+03 5.271694564819335938e+01 1.098566818237304688e+01 8.128112554550170898e-02 7.796287536621093750e+00 2.363270521163940430e+00 7.651144862174987793e-01
3.228000000000000000e+03 5.918503189086914062e+01 1.255647182464599609e+01 3.230652585625648499e-02 7.760094642639160156e+00 2.337720394134521484e+00 6.955257654190063477e-01
3.229000000000000000e+03 3.211755752563476562e+01 1.646222877502441406e+01 -4.764738082885742188e-01 6.463200092315673828e+00 1.796017885208129883e+00 -5.656706690788269043e-01
3.230000000000000000e+03 3.330060577392578125e+01 2.301399421691894531e+01 -6.387716531753540039e-01 6.194846630096435547e+00 1.666822433471679688e+00 -2.869883477687835693e-01
3.231000000000000000e+03 2.282538795471191406e+01 -2.775955581665039062e+01 -2.563418447971343994e-01 3.897525787353515625e+00 1.092355132102966309e+00 9.553027153015136719e-01
3.232000000000000000e+03 2.512618255615234375e+01 -2.832746505737304688e+01 -4.498097598552703857e-01 4.681315898895263672e+00 1.269451856613159180e+00 9.272115826606750488e-01
3.233000000000000000e+03 7.014965057373046875e+01 -3.796443939208984375e+01 -1.328796446323394775e-01 7.794525623321533203e+00 2.298493862152099609e+00 -1.118569225072860718e-01
3.234000000000000000e+03 7.097097015380859375e+01 -3.352171325683593750e+01 -9.286935627460479736e-02 7.736256599426269531e+00 2.293016195297241211e+00 -1.974452733993530273e-01
3.235000000000000000e+03 2.441367340087890625e+01 2.441273307800292969e+01 -4.164059460163116455e-01 4.450979709625244141e+00 1.210372090339660645e+00 -5.828043222427368164e-01
3.236000000000000000e+03 1.727256202697753906e+01 -2.786261367797851562e+01 6.967384368181228638e-02 2.162609100341796875e+00 6.696848869323730469e-01 6.415489912033081055e-01
3.237000000000000000e+03 4.572525405883789062e+01 1.490116310119628906e+01 -3.300004899501800537e-01 7.765610218048095703e+00 2.230682849884033203e+00 5.433033704757690430e-01
3.238000000000000000e+03 1.311669540405273438e+01 -3.260602188110351562e+01 5.873552337288856506e-02 1.347343564033508301e+00 4.218237102031707764e-01 2.515566647052764893e-01
3.239000000000000000e+03 1.720501327514648438e+01 -2.241413497924804688e+01 2.302444726228713989e-01 1.587280392646789551e+00 5.452574491500854492e-01 8.095121979713439941e-01
3.240000000000000000e+03 6.663472747802734375e+01 3.481233596801757812e+01 -1.974408179521560669e-01 8.123901367187500000e+00 2.377938270568847656e+00 2.104183137416839600e-01
3.241000000000000000e+03 1.997352218627929688e+01 2.839384460449218750e+01 -3.440533280372619629e-01 3.484608173370361328e+00 9.421664476394653320e-01 -5.065354108810424805e-01
3.242000000000000000e+03 2.164410781860351562e+01 2.623807525634765625e+01 -3.673518300056457520e-01 3.899856805801391602e+00 1.059751510620117188e+00 -5.573828220367431641e-01
3.243000000000000000e+03 6.123353576660156250e+01 1.229225158691406250e+01 4.398117214441299438e-02 7.748262882232666016e+00 2.337673187255859375e+00 6.656555533409118652e-01
3.244000000000000000e+03 7.654993057250976562e+00 3.587011718750000000e+01 -5.713038519024848938e-02 9.980590343475341797e-01 2.822785973548889160e-01 -1.105484440922737122e-01
3.245000000000000000e+03 4.764748001098632812e+01 -2.370410346984863281e+01 -1.923595964908599854e-01 8.100666046142578125e+00 2.372491836547851562e+00 -6.830069422721862793e-01
3.246000000000000000e+03 1.093986320495605469e+01 -3.448783493041992188e+01 5.223171785473823547e-02 1.052592992782592773e+00 3.314473927021026611e-01 1.503293961286544800e-01
3.247000000000000000e+03 6.298465347290039062e+01 -2.699979019165039062e+01 -1.038481369614601135e-01 7.765287876129150391e+00 2.298431873321533203e+00 -4.207944869995117188e-01
3.248000000000000000e+03 6.494332122802734375e+01 -2.761173057556152344e+01 -9.974782913923263550e-02 7.739080429077148438e+00 2.291799783706665039e+00 -3.820536136627197266e-01
3.249000000000000000e+03 1.545776367187500000e+01 -2.726696777343750000e+01 1.652039289474487305e-01 1.466973066329956055e+00 4.896530807018280029e-01 4.928553700447082520e-01
3.250000000000000000e+03 4.964893722534179688e+01 -2.691657638549804688e+01 -3.862919807434082031e-01 8.040179252624511719e+00 2.296166181564331055e+00 -5.764499902725219727e-01
3.251000000000000000e+03 5.242967605590820312e+01 -2.388452911376953125e+01 -8.432042598724365234e-02 7.955016613006591797e+00 2.361208915710449219e+00 -6.460412740707397461e-01
3.252000000000000000e+03 1.626675987243652344e+01 2.806681632995605469e+01 -1.840947717428207397e-01 2.625835657119750977e+00 7.325222492218017578e-01 -5.434865951538085938e-01
3.253000000000000000e+03 6.678709411621093750e+01 -2.128825950622558594e+01 6.424778699874877930e-02 7.585678100585937500e+00 2.294977903366088867e+00 -3.678860664367675781e-01
3.254000000000000000e+03 3.754545974731445312e+01 -3.158349609375000000e+01 -1.014722108840942383e+00 7.399843692779541016e+00 1.915536403656005859e+00 2.316560223698616028e-02
3.255000000000000000e+03 6.278116607666015625e+01 2.606236076354980469e+01 -2.477163970470428467e-01 7.925730228424072266e+00 2.303404092788696289e+00 4.542707502841949463e-01
3.256000000000000000e+03 3.633439254760742188e+01 1.983963584899902344e+01 -6.401111483573913574e-01 6.821364879608154297e+00 1.854376077651977539e+00 -1.344003379344940186e-01
3.257000000000000000e+03 6.053701400756835938e+01 -2.278978919982910156e+01 3.272030502557754517e-02 7.741631507873535156e+00 2.332305669784545898e+00 -4.965431094169616699e-01
3.258000000000000000e+03 5.697574996948242188e+01 -2.658425140380859375e+01 -1.801943778991699219e-01 7.885323047637939453e+00 2.311538457870483398e+00 -5.312047004699707031e-01
3.259000000000000000e+03 5.428601455688476562e+01 1.063064098358154297e+01 1.040978357195854187e-01 7.775444030761718750e+00 2.363862514495849609e+00 7.553569674491882324e-01
3.260000000000000000e+03 8.137568473815917969e+00 -4.095389175415039062e+01 -1.412991248071193695e-02 5.300351381301879883e-01 1.547715812921524048e-01 -9.437560103833675385e-03
3.261000000000000000e+03 6.313046264648437500e+01 1.880541610717773438e+01 -1.302191764116287231e-01 7.861929893493652344e+00 2.319513082504272461e+00 5.901979804039001465e-01
3.262000000000000000e+03 4.136200332641601562e+01 -2.707177352905273438e+01 -7.451645731925964355e-01 8.036502838134765625e+00 2.187401533126831055e+00 -3.438556194305419922e-01
3.263000000000000000e+03 6.557614135742187500e+01 3.109861755371093750e+01 -2.135598808526992798e-01 8.054388046264648438e+00 2.352248191833496094e+00 3.098765611648559570e-01
3.264000000000000000e+03 1.556246948242187500e+01 -3.479897308349609375e+01 -7.134902477264404297e-02 2.048791408538818359e+00 5.932326912879943848e-01 2.680391669273376465e-01
3.265000000000000000e+03 1.238022136688232422e+01 -3.719466781616210938e+01 -4.286324232816696167e-02 1.435299277305603027e+00 4.177308380603790283e-01 1.201620176434516907e-01
3.266000000000000000e+03 2.323005867004394531e+01 -3.741746520996093750e+01 -5.153191089630126953e-01 4.094289302825927734e+00 1.073691010475158691e+00 2.829375267028808594e-01
3.267000000000000000e+03 3.986922836303710938e+01 -3.427442932128906250e+01 -1.039846897125244141e+00 7.535940170288085938e+00 1.948827981948852539e+00 -7.046131044626235962e-02
3.268000000000000000e+03 3.633084487915039062e+01 -3.647620391845703125e+01 -1.070605874061584473e+00 7.043800830841064453e+00 1.791958570480346680e+00 7.052378356456756592e-02
3.269000000000000000e+03 4.016152572631835938e+01 3.569265365600585938e+01 -8.066912889480590820e-01 6.633010864257812500e+00 1.747895836830139160e+00 2.874129079282283783e-02
3.270000000000000000e+03 4.803072738647460938e+01 -3.704308319091796875e+01 -8.792482018470764160e-01 7.931683063507080078e+00 2.115730524063110352e+00 -1.922185570001602173e-01
3.271000000000000000e+03 4.368626403808593750e+01 3.603361892700195312e+01 -7.866443395614624023e-01 6.936166763305664062e+00 1.844856739044189453e+00 7.132308185100555420e-02
3.272000000000000000e+03 6.180061340332031250e+01 -3.731771087646484375e+01 -3.698362410068511963e-01 7.906324386596679688e+00 2.260946512222290039e+00 -1.837660521268844604e-01
3.273000000000000000e+03 5.239022064208984375e+01 3.420684814453125000e+01 -6.139497160911560059e-01 7.537501811981201172e+00 2.077065706253051758e+00 2.164486944675445557e-01
3.274000000000000000e+03 6.624708557128906250e+01 -3.772481536865234375e+01 -2.241729795932769775e-01 7.832437515258789062e+00 2.282479524612426758e+00 -1.412702500820159912e-01
3.275000000000000000e+03 6.297947692871093750e+01 3.598333740234375000e+01 -3.003194928169250488e-01 7.991694927215576172e+00 2.307412624359130859e+00 1.865568757057189941e-01
3.276000000000000000e+03 6.536598968505859375e+01 3.746865463256835938e+01 -2.532729208469390869e-01 8.075122833251953125e+00 2.346554994583129883e+00 1.474172025918960571e-01
3.277000000000000000e+03 7.155527496337890625e+01 -4.096264266967773438e+01 -1.012008637189865112e-01 7.799253940582275391e+00 2.309415817260742188e+00 -3.240866959095001221e-02
3.278000000000000000e+03 2.076611328125000000e+01 3.526298141479492188e+01 -4.579912126064300537e-01 3.598479986190795898e+00 9.421466588973999023e-01 -2.371320873498916626e-01
3.279000000000000000e+03 2.356132888793945312e+01 3.709439468383789062e+01 -5.443777441978454590e-01 4.092946052551269531e+00 1.064570546150207520e+00 -1.735778748989105225e-01
3.280000000000000000e+03 1.316193866729736328e+01 3.539488983154296875e+01 -1.805448085069656372e-01 2.064004182815551758e+00 5.650378465652465820e-01 -2.171365171670913696e-01
3.281000000000000000e+03 1.325876331329345703e+01 3.815867996215820312e+01 -2.133933156728744507e-01 2.081779241561889648e+00 5.605157613754272461e-01 -1.177708655595779419e-01
3.282000000000000000e+03 5.998486709594726562e+01 2.713421440124511719e+01 -3.229273855686187744e-01 7.863727092742919922e+00 2.262239933013916016e+00 4.422448575496673584e-01
3.283000000000000000e+03 4.415310668945312500e+01 1.811301994323730469e+01 -5.179030299186706543e-01 7.575904369354248047e+00 2.117400407791137695e+00 3.763729929924011230e-01
3.284000000000000000e+03 2.164290618896484375e+01 3.051558494567871094e+01 -4.417566657066345215e-01 3.843144893646240234e+00 1.020416498184204102e+00 -3.913811147212982178e-01
3.285000000000000000e+03 1.629524040222167969e+01 3.435952758789062500e+01 -2.900555729866027832e-01 2.693700551986694336e+00 7.210934758186340332e-01 -3.029414713382720947e-01
3.286000000000000000e+03 5.120672607421875000e+01 1.362010288238525391e+01 -1.157878413796424866e-01 7.802087306976318359e+00 2.305889844894409180e+00 7.126936316490173340e-01
3.287000000000000000e+03 4.768981170654296875e+01 1.174545001983642578e+01 -6.186589598655700684e-02 7.864774703979492188e+00 2.340872526168823242e+00 7.114846110343933105e-01
3.288000000000000000e+03 5.472643280029296875e+01 1.226920509338378906e+01 2.176683582365512848e-02 7.781427860260009766e+00 2.340958356857299805e+00 7.436888217926025391e-01
3.289000000000000000e+03 2.384512710571289062e+01 2.668165397644042969e+01 -4.493979811668395996e-01 4.329993247985839844e+00 1.164178609848022461e+00 -5.104080438613891602e-01
3.290000000000000000e+03 5.942506027221679688e+01 1.510292625427246094e+01 -5.966150388121604919e-02 7.788281440734863281e+00 2.318586111068725586e+00 6.802672743797302246e-01
3.291000000000000000e+03 6.223334884643554688e+01 -3.392883300781250000e+01 -3.076012730598449707e-01 7.876920700073242188e+00 2.270795822143554688e+00 -2.863240242004394531e-01
3.292000000000000000e+03 6.566662597656250000e+01 -3.459150695800781250e+01 -2.210587263107299805e-01 7.821117877960205078e+00 2.280017852783203125e+00 -2.260556817054748535e-01
3.293000000000000000e+03 5.311721801757812500e+01 1.303664779663085938e+01 -4.680734500288963318e-02 7.796574592590332031e+00 2.324930191040039062e+00 7.340164780616760254e-01
3.294000000000000000e+03 3.642284393310546875e+01 2.259750938415527344e+01 -6.803050041198730469e-01 6.675336360931396484e+00 1.798509359359741211e+00 -1.149699911475181580e-01
3.295000000000000000e+03 5.229658126831054688e+01 -2.704265975952148438e+01 -3.178980648517608643e-01 7.988564968109130859e+00 2.301199913024902344e+00 -5.697376728057861328e-01
3.296000000000000000e+03 2.999646568298339844e+01 2.385130882263183594e+01 -5.747044682502746582e-01 5.603036880493164062e+00 1.508499741554260254e+00 -4.258967041969299316e-01
3.297000000000000000e+03 3.076773834228515625e+01 2.716314506530761719e+01 -6.438145637512207031e-01 5.593061447143554688e+00 1.484774112701416016e+00 -2.968654930591583252e-01
3.298000000000000000e+03 4.706764602661132812e+01 -2.645974540710449219e+01 -4.503426849842071533e-01 8.087769508361816406e+00 2.291228055953979492e+00 -5.727962851524353027e-01
3.299000000000000000e+03 6.173586654663085938e+01 1.449897289276123047e+01 -2.127114310860633850e-02 7.784702777862548828e+00 2.329029560089111328e+00 6.507266759872436523e-01
3.300000000000000000e+03 6.380773544311523438e+01 2.890706443786621094e+01 -2.480603903532028198e-01 7.980714321136474609e+00 2.319796323776245117e+00 3.774908483028411865e-01
3.301000000000000000e+03 2.464029693603515625e+01 -3.104084205627441406e+01 -4.828228950500488281e-01 4.505061626434326172e+00 1.206671595573425293e+00 7.231094241142272949e-01
3.302000000000000000e+03 6.155115890502929688e+01 -2.948589324951171875e+01 -1.995223909616470337e-01 7.831173896789550781e+00 2.289495468139648438e+00 -4.026378393173217773e-01
3.303000000000000000e+03 5.479249572753906250e+01 -2.399342727661132812e+01 -5.340705066919326782e-02 7.893744468688964844e+00 2.352101087570190430e+00 -6.080167293548583984e-01
3.304000000000000000e+03 6.092087554931640625e+01 3.038700294494628906e+01 -3.363403975963592529e-01 7.898274421691894531e+00 2.268580198287963867e+00 3.557246327400207520e-01
3.305000000000000000e+03 2.764661216735839844e+01 -3.125609588623046875e+01 -7.022780179977416992e-01 5.395624160766601562e+00 1.408003807067871094e+00 6.193319559097290039e-01
3.306000000000000000e+03 2.760445213317871094e+01 -3.438868713378906250e+01 -7.466646432876586914e-01 5.286084175109863281e+00 1.361825823783874512e+00 4.326123297214508057e-01
3.307000000000000000e+03 5.581483840942382812e+01 1.968738174438476562e+01 -2.673099935054779053e-01 7.789367675781250000e+00 2.256617307662963867e+00 6.169664859771728516e-01
3.308000000000000000e+03 6.810714721679687500e+01 -3.398686981201171875e+01 -1.615455746650695801e-01 7.784445285797119141e+00 2.286869764328002930e+00 -2.121562212705612183e-01
3.309000000000000000e+03 5.884823989868164062e+01 -2.248642158508300781e+01 4.543020948767662048e-02 7.771617889404296875e+00 2.345114469528198242e+00 -5.318018198013305664e-01
3.310000000000000000e+03 5.682413101196289062e+01 -2.427285957336425781e+01 -5.456591024994850159e-02 7.847173213958740234e+00 2.337782144546508789e+00 -5.617909431457519531e-01
3.311000000000000000e+03 4.506695556640625000e+01 -3.268550109863281250e+01 -8.623901605606079102e-01 7.920890331268310547e+00 2.117550134658813477e+00 -2.808262407779693604e-01
3.312000000000000000e+03 5.530958557128906250e+01 -3.000359535217285156e+01 -3.892160356044769287e-01 7.957626819610595703e+00 2.270523309707641602e+00 -4.669578075408935547e-01
3.313000000000000000e+03 6.175428009033203125e+01 3.355112457275390625e+01 -3.344730734825134277e-01 7.936117649078369141e+00 2.280493259429931641e+00 2.663519084453582764e-01
3.314000000000000000e+03 1.408899974822998047e+01 -3.043874168395996094e+01 1.194187998771667480e-01 1.500015497207641602e+00 4.858302772045135498e-01 3.343732357025146484e-01
3.315000000000000000e+03 4.909861373901367188e+01 1.394074153900146484e+01 -1.870038509368896484e-01 7.808693885803222656e+00 2.286507129669189453e+00 6.734674572944641113e-01
3.316000000000000000e+03 5.384726333618164062e+01 1.511712455749511719e+01 -1.426967680454254150e-01 7.790195941925048828e+00 2.294249773025512695e+00 7.009884715080261230e-01
3.317000000000000000e+03 5.471247482299804688e+01 1.746585655212402344e+01 -2.207105010747909546e-01 7.785897254943847656e+00 2.269556045532226562e+00 6.592336893081665039e-01
3.318000000000000000e+03 5.478657150268554688e+01 -2.693183708190917969e+01 -2.523616552352905273e-01 7.940416336059570312e+00 2.306416511535644531e+00 -5.553246140480041504e-01
3.319000000000000000e+03 6.129272842407226562e+01 -2.577816200256347656e+01 -8.289275318384170532e-02 7.780944347381591797e+00 2.309415578842163086e+00 -4.627785980701446533e-01
3.320000000000000000e+03 6.018853759765625000e+01 1.766479110717773438e+01 -1.346569657325744629e-01 7.816408634185791016e+00 2.304525375366210938e+00 6.434936523437500000e-01
3.321000000000000000e+03 5.801318359375000000e+01 1.861228370666503906e+01 -1.933509260416030884e-01 7.805809974670410156e+00 2.283737659454345703e+00 6.410476565361022949e-01
3.322000000000000000e+03 6.223618698120117188e+01 1.679950141906738281e+01 -8.664438128471374512e-02 7.817105293273925781e+00 2.319138288497924805e+00 6.318928599357604980e-01
3.323000000000000000e+03 5.883249664306640625e+01 2.120059394836425781e+01 -2.576507329940795898e-01 7.823758125305175781e+00 2.269832134246826172e+00 5.827757716178894043e-01
3.324000000000000000e+03 4.163500595092773438e+01 1.887797546386718750e+01 -5.906494259834289551e-01 7.394202709197998047e+00 2.041065931320190430e+00 2.270604372024536133e-01
3.325000000000000000e+03 2.728224563598632812e+01 3.464054870605468750e+01 -6.659784317016601562e-01 4.826102256774902344e+00 1.248037099838256836e+00 -2.113965153694152832e-01
3.326000000000000000e+03 2.318059158325195312e+01 3.267567825317382812e+01 -5.223733186721801758e-01 4.157031059265136719e+00 1.090397238731384277e+00 -3.028237223625183105e-01
3.327000000000000000e+03 5.162639617919921875e+01 1.591089630126953125e+01 -2.163991034030914307e-01 7.780425071716308594e+00 2.269207715988159180e+00 6.715453863143920898e-01
3.328000000000000000e+03 5.247857666015625000e+01 -3.375886917114257812e+01 -6.348078846931457520e-01 7.998845100402832031e+00 2.209211111068725586e+00 -3.351951837539672852e-01
3.329000000000000000e+03 5.233302307128906250e+01 -3.031809234619140625e+01 -4.974239468574523926e-01 7.994629383087158203e+00 2.249161481857299805e+00 -4.661523699760437012e-01
3.330000000000000000e+03 5.985968017578125000e+01 -2.764653778076171875e+01 -1.783553510904312134e-01 7.841088771820068359e+00 2.298820018768310547e+00 -4.611629545688629150e-01
3.331000000000000000e+03 5.784169769287109375e+01 -2.910003852844238281e+01 -2.904181778430938721e-01 7.907267570495605469e+00 2.285054922103881836e+00 -4.638065695762634277e-01
3.332000000000000000e+03 2.183848190307617188e+01 -3.026259231567382812e+01 -2.563448250293731689e-01 3.629122495651245117e+00 1.011833310127258301e+00 7.547034025192260742e-01
3.333000000000000000e+03 4.360430145263671875e+01 -2.839791870117187500e+01 -7.285302281379699707e-01 8.029614448547363281e+00 2.190325260162353516e+00 -3.953572213649749756e-01
3.334000000000000000e+03 3.972343063354492188e+01 -2.941958999633789062e+01 -9.117600321769714355e-01 7.777041435241699219e+00 2.059584379196166992e+00 -1.682808399200439453e-01
3.335000000000000000e+03 3.191603660583496094e+01 -3.737027740478515625e+01 -9.696096181869506836e-01 6.213453292846679688e+00 1.573153138160705566e+00 1.777755022048950195e-01
3.336000000000000000e+03 5.254032897949218750e+01 -3.728093719482421875e+01 -7.160237431526184082e-01 8.000555038452148438e+00 2.185359239578247070e+00 -2.018845230340957642e-01
3.337000000000000000e+03 2.756670379638671875e+01 -3.763275909423828125e+01 -7.716437578201293945e-01 5.225539684295654297e+00 1.336168885231018066e+00 2.594565749168395996e-01
3.338000000000000000e+03 4.474921417236328125e+01 2.055626678466796875e+01 -5.717483758926391602e-01 7.492914199829101562e+00 2.076349735260009766e+00 3.528869450092315674e-01
3.339000000000000000e+03 5.682429504394531250e+01 2.802156066894531250e+01 -4.232901632785797119e-01 7.767535209655761719e+00 2.203273534774780273e+00 4.120833575725555420e-01
3.340000000000000000e+03 5.945441436767578125e+01 -3.186565208435058594e+01 -3.378684520721435547e-01 7.904298305511474609e+00 2.269928932189941406e+00 -3.617136776447296143e-01
3.341000000000000000e+03 5.277744674682617188e+01 3.142068290710449219e+01 -5.596415996551513672e-01 7.592795848846435547e+00 2.109946250915527344e+00 2.851200997829437256e-01
3.342000000000000000e+03 5.330454635620117188e+01 2.810577201843261719e+01 -5.228974223136901855e-01 7.654553890228271484e+00 2.139497041702270508e+00 3.806634247303009033e-01
3.343000000000000000e+03 4.727323532104492188e+01 1.969776535034179688e+01 -4.886722564697265625e-01 7.619884014129638672e+00 2.139363527297973633e+00 4.639067351818084717e-01
3.344000000000000000e+03 3.977316284179687500e+01 2.474060058593750000e+01 -7.221006751060485840e-01 6.934160709381103516e+00 1.863618016242980957e+00 6.780096888542175293e-02
3.345000000000000000e+03 2.546400642395019531e+01 3.065906524658203125e+01 -5.772547125816345215e-01 4.551002502441406250e+00 1.192124247550964355e+00 -3.613424599170684814e-01
3.346000000000000000e+03 2.673039245605468750e+01 3.247988128662109375e+01 -6.170098185539245605e-01 4.766719341278076172e+00 1.244912862777709961e+00 -3.079962730407714844e-01
3.347000000000000000e+03 4.538787841796875000e+01 2.316978073120117188e+01 -6.084325313568115234e-01 7.419114112854003906e+00 2.043204545974731445e+00 3.199996054172515869e-01
3.348000000000000000e+03 3.589312362670898438e+01 -2.920471572875976562e+01 -9.624994397163391113e-01 7.374193191528320312e+00 1.923508048057556152e+00 1.331330537796020508e-01
3.349000000000000000e+03 5.237686920166015625e+01 2.099902343750000000e+01 -3.847848176956176758e-01 7.728464603424072266e+00 2.203104019165039062e+00 5.615966916084289551e-01
3.350000000000000000e+03 2.500484085083007812e+01 3.424508285522460938e+01 -5.768686532974243164e-01 4.409753799438476562e+00 1.149865508079528809e+00 -2.609277069568634033e-01
3.351000000000000000e+03 3.685616302490234375e+01 2.554253387451171875e+01 -7.298163771629333496e-01 6.551195621490478516e+00 1.746413707733154297e+00 -7.461220771074295044e-02
3.352000000000000000e+03 4.263076400756835938e+01 2.396195602416992188e+01 -6.800463795661926270e-01 7.212825298309326172e+00 1.959833741188049316e+00 1.924023330211639404e-01
3.353000000000000000e+03 3.758859634399414062e+01 2.870019531250000000e+01 -7.733585834503173828e-01 6.517931938171386719e+00 1.723372101783752441e+00 -3.148907795548439026e-02
3.354000000000000000e+03 5.222008132934570312e+01 1.837875938415527344e+01 -3.113911151885986328e-01 7.756713867187500000e+00 2.233596801757812500e+00 6.198658347129821777e-01
3.355000000000000000e+03 3.171269416809082031e+01 3.021592140197753906e+01 -7.210282683372497559e-01 5.613113880157470703e+00 1.467625737190246582e+00 -1.971067339181900024e-01
3.356000000000000000e+03 4.975573730468750000e+01 2.815415954589843750e+01 -6.135024428367614746e-01 7.496628761291503906e+00 2.064938068389892578e+00 3.367892801761627197e-01
3.357000000000000000e+03 5.251732635498046875e+01 4.069598770141601562e+01 -6.162036061286926270e-01 7.527549266815185547e+00 2.073403596878051758e+00 4.064660891890525818e-02
3.358000000000000000e+03 5.374766159057617188e+01 2.458206748962402344e+01 -4.527376890182495117e-01 7.702734470367431641e+00 2.174998998641967773e+00 4.799469113349914551e-01
3.359000000000000000e+03 4.039713668823242188e+01 2.747547149658203125e+01 -7.471932768821716309e-01 6.890993118286132812e+00 1.843139886856079102e+00 6.949614733457565308e-02
3.360000000000000000e+03 4.970930480957031250e+01 3.139052963256835938e+01 -6.419574618339538574e-01 7.460121631622314453e+00 2.045449256896972656e+00 2.560936212539672852e-01
3.361000000000000000e+03 4.606687545776367188e+01 2.591785621643066406e+01 -6.556747555732727051e-01 7.352150440216064453e+00 2.008942604064941406e+00 2.858691811561584473e-01
3.362000000000000000e+03 4.903126907348632812e+01 2.504249954223632812e+01 -5.706424117088317871e-01 7.536302089691162109e+00 2.089697837829589844e+00 3.856754899024963379e-01
3.363000000000000000e+03 5.447257232666015625e+01 2.162496757507324219e+01 -3.542867898941040039e-01 7.761179924011230469e+00 2.222068071365356445e+00 5.644379258155822754e-01
3.364000000000000000e+03 3.465015029907226562e+01 2.961072158813476562e+01 -7.518368959426879883e-01 6.110574722290039062e+00 1.607621431350708008e+00 -1.091977432370185852e-01
3.365000000000000000e+03 4.697665786743164062e+01 3.515242385864257812e+01 -7.286674976348876953e-01 7.212858676910400391e+00 1.945257306098937988e+00 1.350496858358383179e-01
3.366000000000000000e+03 5.023728561401367188e+01 2.135892486572265625e+01 -4.650779962539672852e-01 7.648930072784423828e+00 2.155155658721923828e+00 5.024521350860595703e-01
3.367000000000000000e+03 4.669322586059570312e+01 3.193365097045898438e+01 -7.179722189903259277e-01 7.223236560821533203e+00 1.951579332351684570e+00 1.981771588325500488e-01
3.368000000000000000e+03 4.654163742065429688e+01 2.883548164367675781e+01 -6.864271163940429688e-01 7.301707744598388672e+00 1.984584212303161621e+00 2.443995177745819092e-01
3.369000000000000000e+03 4.109202957153320312e+01 3.246576690673828125e+01 -7.850967049598693848e-01 6.785512924194335938e+00 1.800124883651733398e+00 5.931288003921508789e-02
3.370000000000000000e+03 4.377267074584960938e+01 3.245436477661132812e+01 -7.613385915756225586e-01 7.009875774383544922e+00 1.874561071395874023e+00 1.122270971536636353e-01
3.371000000000000000e+03 3.223433303833007812e+01 3.307290649414062500e+01 -7.591246962547302246e-01 5.641549587249755859e+00 1.464727401733398438e+00 -1.553891152143478394e-01
3.372000000000000000e+03 3.894492721557617188e+01 3.132958793640136719e+01 -7.923081517219543457e-01 6.579773902893066406e+00 1.736239790916442871e+00 7.641335017979145050e-03
3.373000000000000000e+03 4.111027145385742188e+01 2.997768211364746094e+01 -7.778835296630859375e-01 6.869781494140625000e+00 1.827569365501403809e+00 7.463604211807250977e-02
3.374000000000000000e+03 2.979356956481933594e+01 3.398143005371093750e+01 -7.220464348793029785e-01 5.255753993988037109e+00 1.360112309455871582e+00 -1.689444035291671753e-01
3.375000000000000000e+03 1.768291664123535156e+01 -7.574627876281738281e+00 -1.871559321880340576e-01 -5.145044326782226562e-01 -2.104981094598770142e-01 -3.006486594676971436e-01
3.376000000000000000e+03 1.858953475952148438e+01 -3.511149644851684570e+00 2.741366392001509666e-03 -5.957072377204895020e-01 -1.778897643089294434e-01 3.874988108873367310e-02
3.377000000000000000e+03 3.879399001598358154e-01 2.095761537551879883e+00 -1.515233307145535946e-04 -7.576110419904580340e-06 -4.772983083967119455e-05 1.031216670526191592e-04
3.378000000000000000e+03 2.722403717041015625e+01 -5.120357036590576172e+00 3.785001277923583984e+00 2.864826679229736328e+00 1.994948387145996094e+00 -3.614125251770019531e+00
3.379000000000000000e+03 2.731041145324707031e+01 -4.743357181549072266e+00 3.736724376678466797e+00 3.975142478942871094e+00 2.313560009002685547e+00 -4.160553932189941406e+00
3.380000000000000000e+03 2.780210876464843750e+01 -4.816313266754150391e+00 4.072797775268554688e+00 6.039446353912353516e+00 3.033673286437988281e+00 -5.277300357818603516e+00
3.381000000000000000e+03 2.806228637695312500e+01 -5.076374053955078125e+00 4.181302547454833984e+00 7.209200859069824219e+00 3.417150974273681641e+00 -5.839013576507568359e+00
3.382000000000000000e+03 2.849321556091308594e+01 -5.086555004119873047e+00 3.933096885681152344e+00 1.082265186309814453e+01 4.426724433898925781e+00 -6.563596248626708984e+00
3.383000000000000000e+03 2.869554519653320312e+01 -5.113842487335205078e+00 3.427944183349609375e+00 1.308941650390625000e+01 4.955208301544189453e+00 -6.511329650878906250e+00
3.384000000000000000e+03 2.897768592834472656e+01 -4.817533493041992188e+00 2.429502248764038086e+00 1.465980625152587891e+01 5.126792430877685547e+00 -5.279167652130126953e+00
3.385000000000000000e+03 2.935335540771484375e+01 -4.901998996734619141e+00 2.166494131088256836e+00 1.690459060668945312e+01 5.721325397491455078e+00 -3.826841115951538086e+00
3.386000000000000000e+03 2.976366043090820312e+01 -4.936530113220214844e+00 2.305227994918823242e+00 1.849969291687011719e+01 6.241476058959960938e+00 -1.786293745040893555e+00
3.387000000000000000e+03 3.030846595764160156e+01 -5.527013301849365234e+00 5.756889343261718750e+00 1.923058319091796875e+01 7.496241569519042969e+00 1.780393362045288086e+00
3.388000000000000000e+03 3.092876052856445312e+01 -5.223587989807128906e+00 5.445519447326660156e+00 1.643116188049316406e+01 6.563004493713378906e+00 1.894092321395874023e+00
3.389000000000000000e+03 3.091853332519531250e+01 -5.804280281066894531e+00 8.095504760742187500e+00 1.641435813903808594e+01 7.352958679199218750e+00 2.310073375701904297e+00
3.390000000000000000e+03 3.063226127624511719e+01 -6.124614715576171875e+00 1.005729961395263672e+01 1.747693634033203125e+01 8.260271072387695312e+00 2.471451282501220703e+00
3.391000000000000000e+03 3.128278160095214844e+01 -5.763550758361816406e+00 7.713749885559082031e+00 1.498164081573486328e+01 6.808617115020751953e+00 2.009361267089843750e+00
3.392000000000000000e+03 3.076872444152832031e+01 -6.952308177947998047e+00 1.203481769561767578e+01 1.602193641662597656e+01 8.417026519775390625e+00 -6.971244812011718750e-01
3.393000000000000000e+03 3.100496101379394531e+01 -6.495517730712890625e+00 1.083743000030517578e+01 1.528612709045410156e+01 7.837067127227783203e+00 9.931965470314025879e-01
3.394000000000000000e+03 3.108343505859375000e+01 -6.953145980834960938e+00 1.082413387298583984e+01 1.495876312255859375e+01 7.734869003295898438e+00 -5.510228276252746582e-01
3.395000000000000000e+03 3.145527076721191406e+01 -7.159110069274902344e+00 9.515258789062500000e+00 1.403374099731445312e+01 7.064700126647949219e+00 -9.705308675765991211e-01
3.396000000000000000e+03 3.111816215515136719e+01 -7.490238666534423828e+00 9.283084869384765625e+00 1.520428562164306641e+01 7.346210956573486328e+00 -1.893386721611022949e+00
3.397000000000000000e+03 3.088489532470703125e+01 -8.010906219482421875e+00 6.969189643859863281e+00 1.654461479187011719e+01 7.054141044616699219e+00 -2.334414243698120117e+00
3.398000000000000000e+03 3.054245567321777344e+01 -8.457364082336425781e+00 4.439473152160644531e+00 1.762316894531250000e+01 6.618792533874511719e+00 -1.404644250869750977e+00
3.399000000000000000e+03 2.980712127685546875e+01 -8.824572563171386719e+00 2.064416646957397461e+00 1.771441078186035156e+01 5.933648109436035156e+00 1.730078220367431641e+00
3.400000000000000000e+03 2.928277397155761719e+01 -8.864100456237792969e+00 1.844975590705871582e+00 1.599460983276367188e+01 5.351875782012939453e+00 3.986110925674438477e+00
3.401000000000000000e+03 2.836477851867675781e+01 -8.440783500671386719e+00 4.047593116760253906e+00 9.601039886474609375e+00 4.094590187072753906e+00 6.620571613311767578e+00
3.402000000000000000e+03 2.816098213195800781e+01 -8.414132118225097656e+00 4.486664295196533203e+00 7.314876079559326172e+00 3.540462255477905273e+00 6.256952285766601562e+00
3.403000000000000000e+03 2.759233474731445312e+01 -8.380726814270019531e+00 4.239114284515380859e+00 3.802599668502807617e+00 2.412514209747314453e+00 4.471187114715576172e+00
3.404000000000000000e+03 2.687890243530273438e+01 -8.673520088195800781e+00 3.124402284622192383e+00 2.218824863433837891e+00 1.602968096733093262e+00 3.015082836151123047e+00
3.405000000000000000e+03 1.298602223396301270e+00 2.718642234802246094e+00 -1.539625736768357456e-05 -6.302851397776976228e-05 -2.352743285882752389e-05 1.285394828300923109e-04
3.406000000000000000e+03 3.174483489990234375e+01 4.051150512695312500e+01 -7.698355913162231445e-01 5.553612232208251953e+00 1.435133099555969238e+00 -2.526223473250865936e-02
3.407000000000000000e+03 5.592326354980468750e+01 3.651689147949218750e+01 -5.144457817077636719e-01 7.712617397308349609e+00 2.159451484680175781e+00 1.760555952787399292e-01
3.408000000000000000e+03 5.894026947021484375e+01 3.509057617187500000e+01 -4.403326809406280518e-01 7.817116260528564453e+00 2.213035106658935547e+00 2.171606868505477905e-01
3.409000000000000000e+03 1.386210918426513672e+01 2.575219154357910156e+00 7.517854101024568081e-04 5.581899895332753658e-04 3.929926024284213781e-04 9.011012734845280647e-04
3.410000000000000000e+03 2.620882987976074219e+01 -3.860938787460327148e+00 2.602740049362182617e+00 2.779984235763549805e+00 1.614817261695861816e+00 -2.848991155624389648e+00
3.411000000000000000e+03 1.017080116271972656e+01 -2.142602348327636719e+01 3.997612372040748596e-02 -6.815674901008605957e-02 -8.454187773168087006e-03 -6.355007737874984741e-02
3.412000000000000000e+03 2.667883682250976562e+01 -4.914124965667724609e+00 2.916831970214843750e+00 1.904832839965820312e+00 1.446499466896057129e+00 -2.555987834930419922e+00
3.413000000000000000e+03 2.713754081726074219e+01 -8.803975105285644531e+00 3.521068096160888672e+00 3.175220966339111328e+00 2.008886575698852539e+00 3.786904811859130859e+00
3.414000000000000000e+03 2.742634963989257812e+01 -8.993399620056152344e+00 3.534602880477905273e+00 4.634319305419921875e+00 2.450676679611206055e+00 4.473448276519775391e+00
3.415000000000000000e+03 2.787288856506347656e+01 -8.869091033935546875e+00 3.634143352508544922e+00 6.548623561859130859e+00 3.054830074310302734e+00 5.353240489959716797e+00
3.416000000000000000e+03 3.078826141357421875e+01 -4.807518959045410156e+00 3.865910053253173828e+00 1.636452102661132812e+01 6.069128990173339844e+00 1.205160140991210938e+00
3.417000000000000000e+03 7.799646759033203125e+01 -3.577246475219726562e+01 -7.868563756346702576e-03 7.789732456207275391e+00 2.334559202194213867e+00 -3.977731987833976746e-02
3.418000000000000000e+03 3.104158210754394531e+01 -4.922644615173339844e+00 4.513792514801025391e+00 1.584533023834228516e+01 6.107737064361572266e+00 1.591907858848571777e+00
3.419000000000000000e+03 3.127094841003417969e+01 -6.447364330291748047e+00 1.001546955108642578e+01 1.447954845428466797e+01 7.348505496978759766e+00 9.319710731506347656e-01
3.420000000000000000e+03 2.760178375244140625e+01 -4.501774787902832031e+00 3.546653270721435547e+00 5.758453369140625000e+00 2.791532039642333984e+00 -4.858912944793701172e+00
3.421000000000000000e+03 2.961522102355957031e+01 -9.279019355773925781e+00 1.469930887222290039e+00 1.561912155151367188e+01 5.126715660095214844e+00 2.680149555206298828e+00
3.422000000000000000e+03 3.061416816711425781e+01 -9.040557861328125000e+00 2.858716487884521484e+00 1.623056221008300781e+01 5.726783275604248047e+00 -5.719859600067138672e-01
3.423000000000000000e+03 3.027051353454589844e+01 -9.162375450134277344e+00 2.105114459991455078e+00 1.639840888977050781e+01 5.551056861877441406e+00 4.803618192672729492e-01
3.424000000000000000e+03 2.321072101593017578e+00 3.701342773437500000e+01 -2.567663555964827538e-03 9.232382476329803467e-02 2.692684903740882874e-02 -5.663780868053436279e-02
3.425000000000000000e+03 7.627552795410156250e+01 3.890289688110351562e+01 -4.881955310702323914e-02 8.671288490295410156e+00 2.586740732192993164e+00 3.851743042469024658e-02
3.426000000000000000e+03 7.573967742919921875e+01 3.519524383544921875e+01 -3.260739892721176147e-02 8.592393875122070312e+00 2.567935943603515625e+00 8.986510336399078369e-02
3.427000000000000000e+03 1.553014278411865234e+01 2.114685821533203125e+01 3.532409667968750000e-02 2.391042232513427734e+00 7.279098629951477051e-01 -8.626869320869445801e-01
3.428000000000000000e+03 2.731430816650390625e+01 -4.384722232818603516e+00 3.294482707977294922e+00 4.632786273956298828e+00 2.378180742263793945e+00 -4.240531921386718750e+00
3.429000000000000000e+03 2.410260772705078125e+01 2.881457519531250000e+01 -5.083584785461425781e-01 4.370645046234130859e+00 1.158685922622680664e+00 -4.412695765495300293e-01
3.430000000000000000e+03 2.688665008544921875e+01 -9.367798805236816406e+00 3.079675197601318359e+00 3.517797231674194336e+00 1.979241728782653809e+00 3.659843444824218750e+00
3.431000000000000000e+03 2.870972061157226562e+01 -4.074296951293945312e+00 1.948641538619995117e+00 1.150865745544433594e+01 4.037189960479736328e+00 -4.765463829040527344e+00
3.432000000000000000e+03 2.914180183410644531e+01 -4.621857643127441406e+00 2.014608860015869141e+00 1.504546546936035156e+01 5.118021965026855469e+00 -4.480178833007812500e+00
3.433000000000000000e+03 2.766524314880371094e+01 -9.242468833923339844e+00 3.306104898452758789e+00 6.067854404449462891e+00 2.812187910079956055e+00 4.921668052673339844e+00
3.434000000000000000e+03 2.710685920715332031e+01 -9.581702232360839844e+00 3.005582571029663086e+00 4.451306343078613281e+00 2.237066507339477539e+00 3.985054492950439453e+00
3.435000000000000000e+03 2.690309143066406250e+01 -9.823884010314941406e+00 2.781267166137695312e+00 4.142261505126953125e+00 2.077058553695678711e+00 3.737094402313232422e+00
3.436000000000000000e+03 2.924135971069335938e+01 -9.503254890441894531e+00 1.442224264144897461e+00 1.381656074523925781e+01 4.577635288238525391e+00 3.773164987564086914e+00
3.437000000000000000e+03 2.880639076232910156e+01 -9.251880645751953125e+00 2.027520656585693359e+00 1.241456604003906250e+01 4.332626342773437500e+00 4.954967975616455078e+00
3.438000000000000000e+03 2.850285911560058594e+01 -9.219774246215820312e+00 2.502048015594482422e+00 1.049377059936523438e+01 3.898745536804199219e+00 5.382823467254638672e+00
3.439000000000000000e+03 2.566483879089355469e+01 -3.333316564559936523e+00 2.216945409774780273e+00 2.546327352523803711e+00 1.428981781005859375e+00 -2.471476793289184570e+00
3.440000000000000000e+03 2.721821022033691406e+01 -3.259623289108276367e+00 2.335644721984863281e+00 5.805211544036865234e+00 2.442256927490234375e+00 -4.024149417877197266e+00
3.441000000000000000e+03 2.788708686828613281e+01 -9.144356727600097656e+00 3.261467218399047852e+00 6.903804779052734375e+00 3.049581766128540039e+00 5.250596046447753906e+00
3.442000000000000000e+03 2.777917289733886719e+01 -9.690714836120605469e+00 2.684773683547973633e+00 7.158427238464355469e+00 2.952960252761840820e+00 4.793926239013671875e+00
3.443000000000000000e+03 2.242976570129394531e+01 2.748114824295043945e+00 4.207173287868499756e-01 2.882212877273559570e+00 9.908791184425354004e-01 -1.713064312934875488e+00
3.444000000000000000e+03 2.300498962402343750e+01 3.326263904571533203e+00 3.884102106094360352e-01 3.375764608383178711e+00 1.129252433776855469e+00 -1.884560465812683105e+00
3.445000000000000000e+03 4.242582798004150391e+00 -2.260895156860351562e+01 -1.276777219027280807e-02 -1.232213005423545837e-01 -4.079672321677207947e-02 -2.230077832937240601e-01
3.446000000000000000e+03 1.338721942901611328e+01 -2.470038032531738281e+01 2.506923079490661621e-01 8.101872801780700684e-01 3.182638585567474365e-01 3.588325083255767822e-01
3.447000000000000000e+03 2.066219139099121094e+01 1.530335044860839844e+01 3.810507059097290039e-01 3.798127889633178711e+00 1.253753542900085449e+00 -1.035381197929382324e+00
3.448000000000000000e+03 2.173218917846679688e+01 1.156770801544189453e+01 5.618919730186462402e-01 3.936742067337036133e+00 1.349590182304382324e+00 -1.372185587882995605e+00
3.449000000000000000e+03 2.812345695495605469e+01 -9.506679534912109375e+00 2.641675233840942383e+00 8.568512916564941406e+00 3.363056421279907227e+00 5.127218723297119141e+00
3.450000000000000000e+03 2.754004478454589844e+01 -1.042774200439453125e+01 2.163614511489868164e+00 6.623637676239013672e+00 2.636175632476806641e+00 4.174443721771240234e+00
3.451000000000000000e+03 2.767184448242187500e+01 -1.003460693359375000e+01 2.414209127426147461e+00 6.844618320465087891e+00 2.777648210525512695e+00 4.486657619476318359e+00
3.452000000000000000e+03 2.348496627807617188e+01 2.934061527252197266e+00 4.453011155128479004e-01 3.596776485443115234e+00 1.212623357772827148e+00 -2.004250288009643555e+00
3.453000000000000000e+03 2.770982170104980469e+01 -4.240475654602050781e+00 3.052690029144287109e+00 6.437906265258789062e+00 2.847178936004638672e+00 -4.832020282745361328e+00
3.454000000000000000e+03 2.805686378479003906e+01 -9.805768966674804688e+00 2.336097478866577148e+00 8.277235031127929688e+00 3.184000015258789062e+00 4.750298976898193359e+00
3.455000000000000000e+03 2.799866485595703125e+01 -1.017188835144042969e+01 2.060004234313964844e+00 8.136499404907226562e+00 3.058951139450073242e+00 4.493898868560791016e+00
3.456000000000000000e+03 2.945497894287109375e+01 -3.769606590270996094e+00 1.210482597351074219e+00 1.374035263061523438e+01 4.485250473022460938e+00 -3.078766345977783203e+00
3.457000000000000000e+03 2.896765518188476562e+01 -3.503471851348876953e+00 1.335564255714416504e+00 1.178050613403320312e+01 3.934821128845214844e+00 -3.880733728408813477e+00
3.458000000000000000e+03 2.868950653076171875e+01 -9.873792648315429688e+00 1.665548682212829590e+00 1.090485477447509766e+01 3.771121263504028320e+00 4.402462005615234375e+00
3.459000000000000000e+03 4.540009975433349609e+00 3.879848241806030273e+00 5.451766774058341980e-04 -6.119693280197679996e-04 -2.003780355153139681e-05 -6.698265206068754196e-04
3.460000000000000000e+03 3.162866210937500000e+01 -6.855309009552001953e+00 9.378589630126953125e+00 1.343017482757568359e+01 6.842629432678222656e+00 -1.553968042135238647e-01
3.461000000000000000e+03 3.133501243591308594e+01 -4.910162925720214844e+00 4.858139038085937500e+00 1.513199234008789062e+01 5.997039318084716797e+00 1.834797739982604980e+00
3.462000000000000000e+03 3.122197914123535156e+01 -4.706168651580810547e+00 4.066329002380371094e+00 1.519121456146240234e+01 5.777263164520263672e+00 1.458208560943603516e+00
3.463000000000000000e+03 3.033300971984863281e+01 -4.354667663574218750e+00 2.164564371109008789e+00 1.621529769897460938e+01 5.513958930969238281e+00 -4.242350161075592041e-01
3.464000000000000000e+03 2.588800048828125000e+01 -1.089176940917968750e+01 2.157651185989379883e+00 3.358512163162231445e+00 1.654849052429199219e+00 2.861268997192382812e+00
3.465000000000000000e+03 2.531206321716308594e+01 -1.102133178710937500e+01 1.985586404800415039e+00 2.683435916900634766e+00 1.400706648826599121e+00 2.356115818023681641e+00
3.466000000000000000e+03 3.177445220947265625e+01 -8.093108177185058594e+00 6.684758663177490234e+00 1.379155635833740234e+01 6.142894268035888672e+00 -1.939083456993103027e+00
3.467000000000000000e+03 3.192233085632324219e+01 -7.777915954589843750e+00 7.393677234649658203e+00 1.326839447021484375e+01 6.198621273040771484e+00 -1.643439412117004395e+00
3.468000000000000000e+03 2.975581359863281250e+01 -4.622308254241943359e+00 1.908681154251098633e+00 1.710212326049804688e+01 5.703241348266601562e+00 -2.036766767501831055e+00
3.469000000000000000e+03 4.847984790802001953e+00 -2.463968276977539062e+01 4.454473033547401428e-02 -1.379828751087188721e-01 -2.803144603967666626e-02 -2.095213532447814941e-01
3.470000000000000000e+03 3.169674682617187500e+01 -7.331146717071533203e+00 8.728114128112792969e+00 1.351349163055419922e+01 6.672482013702392578e+00 -1.183614969253540039e+00
3.471000000000000000e+03 2.661234664916992188e+01 -1.052027702331542969e+01 2.347630977630615234e+00 4.277802944183349609e+00 1.987630128860473633e+00 3.461318492889404297e+00
3.472000000000000000e+03 3.044399261474609375e+01 -9.578865051269531250e+00 1.755758404731750488e+00 1.534318637847900391e+01 5.129683494567871094e+00 5.018792748451232910e-01
3.473000000000000000e+03 3.004114913940429688e+01 -1.025735092163085938e+01 9.838149547576904297e-01 1.372552013397216797e+01 4.412800312042236328e+00 1.695063591003417969e+00
3.474000000000000000e+03 3.087971687316894531e+01 -9.888408660888671875e+00 1.793649911880493164e+00 1.440491485595703125e+01 4.859569549560546875e+00 -5.755028501152992249e-02
3.475000000000000000e+03 3.190246963500976562e+01 -8.927188873291015625e+00 4.478078842163085938e+00 1.368867397308349609e+01 5.450025558471679688e+00 -1.809518456459045410e+00
3.476000000000000000e+03 3.197411537170410156e+01 -5.868237972259521484e+00 7.420866012573242188e+00 1.312905502319335938e+01 6.164976596832275391e+00 1.463342070579528809e+00
3.477000000000000000e+03 2.800036811828613281e+01 -3.896760463714599609e+00 2.490401506423950195e+00 8.156020164489746094e+00 3.193926572799682617e+00 -4.890933036804199219e+00
3.478000000000000000e+03 3.102507781982421875e+01 -4.539573192596435547e+00 3.380236387252807617e+00 1.542295074462890625e+01 5.640955924987792969e+00 1.096654534339904785e+00
3.479000000000000000e+03 1.576760292053222656e+01 2.300368690490722656e+01 -3.962833806872367859e-02 2.481778144836425781e+00 7.326449155807495117e-01 -7.847414016723632812e-01
3.480000000000000000e+03 2.873748207092285156e+01 -1.038185024261474609e+01 1.313171744346618652e+00 1.051822185516357422e+01 3.549417972564697266e+00 3.863495349884033203e+00
3.481000000000000000e+03 2.900950050354003906e+01 -1.072623252868652344e+01 1.003047704696655273e+00 1.099368000030517578e+01 3.599018335342407227e+00 3.383904218673706055e+00
3.482000000000000000e+03 2.829725265502929688e+01 -1.032162189483642578e+01 1.725378990173339844e+00 9.172809600830078125e+00 3.269456624984741211e+00 4.329796314239501953e+00
3.483000000000000000e+03 3.200895690917968750e+01 -6.930627346038818359e+00 8.578351974487304688e+00 1.273916912078857422e+01 6.395256519317626953e+00 -2.992782890796661377e-01
3.484000000000000000e+03 3.181776809692382812e+01 -6.737565517425537109e+00 8.933199882507324219e+00 1.304051685333251953e+01 6.592114925384521484e+00 6.517410278320312500e-02
3.485000000000000000e+03 2.671221160888671875e+01 -1.085168743133544922e+01 2.166252613067626953e+00 4.722945690155029297e+00 2.066759586334228516e+00 3.530070304870605469e+00
3.486000000000000000e+03 6.028964519500732422e+00 -5.038647651672363281e+00 4.608293529599905014e-04 -7.558034849353134632e-05 1.155747013399377465e-04 3.062846662942320108e-04
3.487000000000000000e+03 2.883133697509765625e+01 -3.092777252197265625e+00 1.196578502655029297e+00 1.081941699981689453e+01 3.604798793792724609e+00 -3.752684116363525391e+00
3.488000000000000000e+03 2.838488006591796875e+01 -2.880781888961791992e+00 1.377809882164001465e+00 9.364540100097656250e+00 3.222704887390136719e+00 -3.979660034179687500e+00
3.489000000000000000e+03 2.896515083312988281e+01 -2.498428583145141602e+00 8.767148256301879883e-01 1.048646640777587891e+01 3.408954381942749023e+00 -3.287872076034545898e+00
3.490000000000000000e+03 6.548637390136718750e+01 -3.204287338256835938e+01 -1.995664983987808228e-01 7.801442146301269531e+00 2.280562639236450195e+00 -3.046756386756896973e-01
3.491000000000000000e+03 3.081600570678710938e+01 -1.018714618682861328e+01 1.415458798408508301e+00 1.392958164215087891e+01 4.603512287139892578e+00 3.265548944473266602e-01
3.492000000000000000e+03 3.116656303405761719e+01 -1.036686897277832031e+01 1.505552291870117188e+00 1.350847816467285156e+01 4.504209041595458984e+00 -4.998546466231346130e-02
3.493000000000000000e+03 3.091309928894042969e+01 -3.914119958877563477e+00 2.131988048553466797e+00 1.470569705963134766e+01 5.051305770874023438e+00 2.409940958023071289e-01
3.494000000000000000e+03 3.078605651855468750e+01 -3.647273063659667969e+00 1.699729204177856445e+00 1.442938709259033203e+01 4.838735103607177734e+00 -1.558721363544464111e-01
3.495000000000000000e+03 3.242355728149414062e+01 -4.610559940338134766e+00 4.562300682067871094e+00 1.274232959747314453e+01 5.191389083862304688e+00 1.662045240402221680e+00
3.496000000000000000e+03 3.226980209350585938e+01 -4.064691066741943359e+00 3.503615856170654297e+00 1.294119453430175781e+01 4.933443069458007812e+00 1.472264170646667480e+00
3.497000000000000000e+03 2.584749603271484375e+01 -2.204758167266845703e+00 1.838955521583557129e+00 3.774194955825805664e+00 1.683945178985595703e+00 -2.865015506744384766e+00
3.498000000000000000e+03 2.410924530029296875e+01 2.680041074752807617e+00 4.709761440753936768e-01 3.940437555313110352e+00 1.323424100875854492e+00 -2.146934509277343750e+00
3.499000000000000000e+03 2.248969650268554688e+01 2.424359703063964844e+01 -3.392804861068725586e-01 4.127539157867431641e+00 1.136477589607238770e+00 -6.284948587417602539e-01
3.500000000000000000e+03 2.767595291137695312e+01 -2.995969772338867188e+00 1.848929524421691895e+00 7.342650890350341797e+00 2.757473945617675781e+00 -4.126879215240478516e+00
3.501000000000000000e+03 2.736451721191406250e+01 -2.621381044387817383e+00 1.836800336837768555e+00 6.528313159942626953e+00 2.509534120559692383e+00 -3.891950130462646484e+00
3.502000000000000000e+03 2.785408401489257812e+01 -2.347542762756347656e+00 1.413492321968078613e+00 7.837399482727050781e+00 2.775267362594604492e+00 -3.805493593215942383e+00
3.503000000000000000e+03 2.824230384826660156e+01 -1.065923786163330078e+01 1.560853004455566406e+00 8.789071083068847656e+00 3.104977130889892578e+00 4.101248264312744141e+00
3.504000000000000000e+03 9.389142990112304688e+00 2.784748649597167969e+01 5.577749386429786682e-02 1.079340457916259766e+00 3.405353724956512451e-01 -3.064514994621276855e-01
3.505000000000000000e+03 3.195758628845214844e+01 -6.519792556762695312e+00 8.521004676818847656e+00 1.288556957244873047e+01 6.421972274780273438e+00 5.102854967117309570e-01
3.506000000000000000e+03 3.228298568725585938e+01 -6.044351100921630859e+00 7.442107200622558594e+00 1.245727062225341797e+01 5.969813346862792969e+00 1.105073213577270508e+00
3.507000000000000000e+03 7.895156860351562500e+00 -2.812940788269042969e+01 1.577147096395492554e-01 2.156421393156051636e-01 1.120070517063140869e-01 -3.788688778877258301e-02
3.508000000000000000e+03 2.791848754882812500e+01 -3.057017087936401367e+00 1.790316462516784668e+00 8.080151557922363281e+00 2.961140394210815430e+00 -4.232504844665527344e+00
3.509000000000000000e+03 2.798497962951660156e+01 -2.806791067123413086e+00 1.590750932693481445e+00 8.204761505126953125e+00 2.938653707504272461e+00 -4.071165084838867188e+00
3.510000000000000000e+03 2.437617111206054688e+01 2.238180732727050781e+01 -3.219639658927917480e-01 4.538290500640869141e+00 1.264897942543029785e+00 -6.485144495964050293e-01
3.511000000000000000e+03 2.389408111572265625e+01 2.057291793823242188e+01 -2.186306118965148926e-01 4.492233276367187500e+00 1.282080888748168945e+00 -7.160848379135131836e-01
3.512000000000000000e+03 4.955827236175537109e+00 8.906532287597656250e+00 1.162419794127345085e-03 -2.446943428367376328e-03 -3.853570960927754641e-04 -8.933139033615589142e-04
3.513000000000000000e+03 2.531316947937011719e+01 -1.172332954406738281e+01 1.775742888450622559e+00 3.244582176208496094e+00 1.506097555160522461e+00 2.500161886215209961e+00
3.514000000000000000e+03 2.516226959228515625e+01 1.734002494812011719e+01 -1.024922728538513184e-01 4.845319747924804688e+00 1.422848224639892578e+00 -8.698503375053405762e-01
3.515000000000000000e+03 3.306151580810546875e+01 -4.185854434967041016e+00 3.948763132095336914e+00 1.194403362274169922e+01 4.767838954925537109e+00 1.526714086532592773e+00
3.516000000000000000e+03 3.128489303588867188e+01 -3.918910264968872070e+00 2.499314308166503906e+00 1.425275325775146484e+01 5.025620460510253906e+00 7.039769887924194336e-01
3.517000000000000000e+03 3.106105232238769531e+01 -3.504200458526611328e+00 1.763579607009887695e+00 1.405875396728515625e+01 4.746699810028076172e+00 1.113172397017478943e-01
3.518000000000000000e+03 3.066750144958496094e+01 -3.334486007690429688e+00 1.311675071716308594e+00 1.397456741333007812e+01 4.585872650146484375e+00 -5.958083868026733398e-01
3.519000000000000000e+03 2.988218116760253906e+01 -3.288266181945800781e+00 9.194156527519226074e-01 1.346884059906005859e+01 4.316476821899414062e+00 -2.166176080703735352e+00
3.520000000000000000e+03 3.018521308898925781e+01 -3.346089124679565430e+00 1.069630742073059082e+00 1.382049846649169922e+01 4.467038631439208984e+00 -1.502334594726562500e+00
3.521000000000000000e+03 3.284914779663085938e+01 -5.865294933319091797e+00 6.700376510620117188e+00 1.170447158813476562e+01 5.521454334259033203e+00 1.041297078132629395e+00
3.522000000000000000e+03 2.392749977111816406e+01 5.047526955604553223e-01 8.722671866416931152e-01 3.244608163833618164e+00 1.235062599182128906e+00 -2.070309877395629883e+00
3.523000000000000000e+03 2.389591407775878906e+01 1.112357139587402344e+00 7.416468858718872070e-01 3.387635946273803711e+00 1.238784790039062500e+00 -2.073362112045288086e+00
3.524000000000000000e+03 2.419724655151367188e+01 8.271229863166809082e-01 8.434330224990844727e-01 3.513075590133666992e+00 1.306952595710754395e+00 -2.205577611923217773e+00
3.525000000000000000e+03 3.238121795654296875e+01 -8.706017494201660156e+00 5.054207324981689453e+00 1.280148887634277344e+01 5.356709003448486328e+00 -1.792566776275634766e+00
3.526000000000000000e+03 3.166929244995117188e+01 -3.709507226943969727e+00 2.509854316711425781e+00 1.358743667602539062e+01 4.829187393188476562e+00 8.978365063667297363e-01
3.527000000000000000e+03 2.506892204284667969e+01 3.059411048889160156e+00 3.902684152126312256e-01 4.735032558441162109e+00 1.537590384483337402e+00 -2.306665897369384766e+00
3.528000000000000000e+03 2.771358489990234375e+01 1.515256786346435547e+01 -1.752023398876190186e-01 5.493348598480224609e+00 1.595443844795227051e+00 -9.526125788688659668e-01
3.529000000000000000e+03 2.909094047546386719e+01 -1.904637932777404785e+00 6.079408526420593262e-01 1.020179271697998047e+01 3.242920160293579102e+00 -2.943967580795288086e+00
3.530000000000000000e+03 3.649124526977539062e+01 1.729713058471679688e+01 -5.919855833053588867e-01 7.024507522583007812e+00 1.929756522178649902e+00 -1.459051817655563354e-01
3.531000000000000000e+03 3.047648048400878906e+01 -1.077954387664794922e+01 8.858540058135986328e-01 1.299366855621337891e+01 4.163856506347656250e+00 1.126300454139709473e+00
3.532000000000000000e+03 5.989639663696289062e+01 -2.469262123107910156e+01 -6.137929111719131470e-02 7.791881561279296875e+00 2.319150686264038086e+00 -4.956037998199462891e-01
3.533000000000000000e+03 2.089294242858886719e+01 -2.026836013793945312e+01 2.603924870491027832e-01 2.624268054962158203e+00 8.653981685638427734e-01 1.278063178062438965e+00
3.534000000000000000e+03 2.158313369750976562e+01 -1.762542724609375000e+01 4.611624479293823242e-01 2.527382850646972656e+00 8.965635895729064941e-01 1.411490440368652344e+00
3.535000000000000000e+03 3.294898986816406250e+01 -6.191991806030273438e+00 6.848432064056396484e+00 1.149708938598632812e+01 5.503656387329101562e+00 7.188716530799865723e-01
3.536000000000000000e+03 3.332336807250976562e+01 -6.076716423034667969e+00 6.379095554351806641e+00 1.112496948242187500e+01 5.251219749450683594e+00 7.180134654045104980e-01
3.537000000000000000e+03 3.300988388061523438e+01 -8.281658172607421875e+00 5.713953495025634766e+00 1.172031593322753906e+01 5.230280876159667969e+00 -1.475535869598388672e+00
3.538000000000000000e+03 3.339996719360351562e+01 -6.793240547180175781e+00 6.577040672302246094e+00 1.092281818389892578e+01 5.249957561492919922e+00 -3.422142937779426575e-02
3.539000000000000000e+03 3.202439498901367188e+01 -3.150570154190063477e+00 2.059851169586181641e+00 1.283985519409179688e+01 4.469912052154541016e+00 7.821658849716186523e-01
3.540000000000000000e+03 3.167839050292968750e+01 -3.324176788330078125e+00 2.036975383758544922e+00 1.325835800170898438e+01 4.588600158691406250e+00 6.526970863342285156e-01
3.541000000000000000e+03 3.135348129272460938e+01 -3.405363082885742188e+00 1.886749625205993652e+00 1.367890071868896484e+01 4.669694900512695312e+00 3.711302280426025391e-01
3.542000000000000000e+03 3.127397155761718750e+01 -3.123219728469848633e+00 1.547620177268981934e+00 1.344072818756103516e+01 4.496504783630371094e+00 1.073074191808700562e-01
3.543000000000000000e+03 3.091706466674804688e+01 -2.864328861236572266e+00 1.073735356330871582e+00 1.319114589691162109e+01 4.279464244842529297e+00 -5.467481017112731934e-01
3.544000000000000000e+03 3.114685058593750000e+01 -3.750431299209594727e+00 2.105603456497192383e+00 1.425383090972900391e+01 4.907830238342285156e+00 3.976860940456390381e-01
3.545000000000000000e+03 3.093914604187011719e+01 -2.501888751983642578e+00 8.746340870857238770e-01 1.279475402832031250e+01 4.100816726684570312e+00 -6.854979991912841797e-01
3.546000000000000000e+03 3.027990722656250000e+01 -3.024615287780761719e+00 8.762103319168090820e-01 1.331009769439697266e+01 4.255892276763916016e+00 -1.462016582489013672e+00
3.547000000000000000e+03 3.001117134094238281e+01 -1.115068626403808594e+01 6.103160977363586426e-01 1.212855720520019531e+01 3.821661949157714844e+00 1.894086837768554688e+00
3.548000000000000000e+03 2.902500915527343750e+01 -2.156139373779296875e+01 -5.254665017127990723e-01 6.638641834259033203e+00 1.833952665328979492e+00 1.219727516174316406e+00
3.549000000000000000e+03 6.906495666503906250e+01 1.819738769531250000e+01 -5.141245201230049133e-02 7.909605503082275391e+00 2.357457876205444336e+00 4.762314260005950928e-01
3.550000000000000000e+03 2.958618164062500000e+01 -2.026088953018188477e+00 5.309731364250183105e-01 1.107495784759521484e+01 3.481779336929321289e+00 -2.490448474884033203e+00
3.551000000000000000e+03 3.005455589294433594e+01 -2.008277654647827148e+00 5.027531981468200684e-01 1.169383716583251953e+01 3.658977031707763672e+00 -1.849001526832580566e+00
3.552000000000000000e+03 3.409593200683593750e+01 -3.309881448745727539e+00 3.003364324569702148e+00 1.096789455413818359e+01 4.191377639770507812e+00 1.346513032913208008e+00
3.553000000000000000e+03 3.306531906127929688e+01 -8.770388603210449219e+00 4.890480041503906250e+00 1.172947597503662109e+01 4.985986709594726562e+00 -1.599037170410156250e+00
3.554000000000000000e+03 3.282379913330078125e+01 -8.539718627929687500e+00 5.362637996673583984e+00 1.200831604003906250e+01 5.211286067962646484e+00 -1.618872642517089844e+00
3.555000000000000000e+03 2.923063468933105469e+01 -1.355680227279663086e+00 4.226699173450469971e-01 1.005150222778320312e+01 3.142251729965209961e+00 -2.691526412963867188e+00
3.556000000000000000e+03 7.279058837890625000e+01 6.662052631378173828e+00 5.383934453129768372e-02 7.532637596130371094e+00 2.275943040847778320e+00 3.240348994731903076e-01
3.557000000000000000e+03 3.081418991088867188e+01 -1.097530937194824219e+01 8.979181647300720215e-01 1.292804145812988281e+01 4.147788047790527344e+00 6.825548410415649414e-01
3.558000000000000000e+03 2.580326843261718750e+01 -9.519721865653991699e-01 1.297909498214721680e+00 4.428788185119628906e+00 1.718009352684020996e+00 -2.802538156509399414e+00
3.559000000000000000e+03 3.886888122558593750e+01 1.704723167419433594e+01 -5.832681655883789062e-01 7.306874752044677734e+00 2.017081975936889648e+00 5.648028478026390076e-02
3.560000000000000000e+03 6.932381439208984375e+01 -2.683532714843750000e+01 -4.454638436436653137e-02 7.643916130065917969e+00 2.279810905456542969e+00 -3.103539347648620605e-01
3.561000000000000000e+03 3.056758308410644531e+01 -1.111969470977783203e+01 7.189540863037109375e-01 1.256325244903564453e+01 3.984662055969238281e+00 1.122061014175415039e+00
3.562000000000000000e+03 2.594377517700195312e+01 -1.826125383377075195e+00 1.671043872833251953e+00 4.167285919189453125e+00 1.751498937606811523e+00 -2.947210073471069336e+00
3.563000000000000000e+03 3.339768600463867188e+01 -6.314466953277587891e+00 6.506530761718750000e+00 1.096213817596435547e+01 5.240600585937500000e+00 5.250314474105834961e-01
3.564000000000000000e+03 3.371743774414062500e+01 -6.031627178192138672e+00 5.964116573333740234e+00 1.073176383972167969e+01 5.008764266967773438e+00 6.515544652938842773e-01
3.565000000000000000e+03 2.171984672546386719e+01 -1.909585571289062500e+01 3.462366461753845215e-01 3.003617286682128906e+00 1.004956245422363281e+00 1.453591465950012207e+00
3.566000000000000000e+03 5.729011154174804688e+01 -2.230179595947265625e+01 5.315363034605979919e-02 7.806277275085449219e+00 2.357829332351684570e+00 -5.724653005599975586e-01
3.567000000000000000e+03 3.220320892333984375e+01 -2.520665884017944336e+00 1.560056447982788086e+00 1.229527282714843750e+01 4.156599044799804688e+00 5.483261346817016602e-01
3.568000000000000000e+03 3.407306671142578125e+01 -6.539269924163818359e+00 5.925673007965087891e+00 1.039519977569580078e+01 4.896261692047119141e+00 1.908209174871444702e-01
3.569000000000000000e+03 3.369636535644531250e+01 -6.356069564819335938e+00 6.233325004577636719e+00 1.069268989562988281e+01 5.077804565429687500e+00 4.027796089649200439e-01
3.570000000000000000e+03 3.360008239746093750e+01 -5.159029960632324219e+00 5.188906669616699219e+00 1.108703231811523438e+01 4.882781505584716797e+00 1.281849145889282227e+00
3.571000000000000000e+03 3.390206527709960938e+01 -5.317445278167724609e+00 5.210435867309570312e+00 1.073393154144287109e+01 4.783309936523437500e+00 1.083458185195922852e+00
3.572000000000000000e+03 3.032718086242675781e+01 -1.194148540496826172e+01 3.598260581493377686e-01 1.129913711547851562e+01 3.497688770294189453e+00 1.602013707160949707e+00
3.573000000000000000e+03 2.850790977478027344e+01 -1.309064269065856934e+00 6.789358854293823242e-01 8.690367698669433594e+00 2.810791254043579102e+00 -3.099500894546508789e+00
3.574000000000000000e+03 3.286046218872070312e+01 -2.473802804946899414e+00 1.842431306838989258e+00 1.182233905792236328e+01 4.099431037902832031e+00 8.749104142189025879e-01
3.575000000000000000e+03 3.063594245910644531e+01 -1.180334854125976562e+01 4.846647381782531738e-01 1.174466705322265625e+01 3.668799638748168945e+00 1.137451052665710449e+00
3.576000000000000000e+03 2.927555656433105469e+01 -1.149543380737304688e+01 6.138463020324707031e-01 1.065613269805908203e+01 3.380993604660034180e+00 2.732396841049194336e+00
3.577000000000000000e+03 2.792569541931152344e+01 -1.286719799041748047e+01 7.670534849166870117e-01 7.499131202697753906e+00 2.479855298995971680e+00 3.004706621170043945e+00
3.578000000000000000e+03 3.410593032836914062e+01 -5.914176464080810547e+00 5.655291080474853516e+00 1.043657207489013672e+01 4.827558994293212891e+00 6.887454986572265625e-01
3.579000000000000000e+03 2.754425048828125000e+01 3.180287122726440430e+00 8.027701824903488159e-02 6.620784759521484375e+00 2.010318517684936523e+00 -2.270649194717407227e+00
3.580000000000000000e+03 4.631182479858398438e+01 1.213090515136718750e+01 -1.498685181140899658e-01 7.857837677001953125e+00 2.312390804290771484e+00 6.472837328910827637e-01
3.581000000000000000e+03 3.344961166381835938e+01 -6.517768383026123047e+00 6.421479701995849609e+00 1.087941932678222656e+01 5.190269470214843750e+00 2.073338925838470459e-01
3.582000000000000000e+03 3.043866729736328125e+01 -1.229270076751708984e+01 2.957446277141571045e-01 1.106446647644042969e+01 3.408063411712646484e+00 1.537519693374633789e+00
3.583000000000000000e+03 3.199161911010742188e+01 -2.131955146789550781e+00 1.164824247360229492e+00 1.211541271209716797e+01 3.984071016311645508e+00 1.823325157165527344e-01
3.584000000000000000e+03 7.016854095458984375e+01 3.919622421264648438e+00 1.236193105578422546e-01 7.496546268463134766e+00 2.286049842834472656e+00 3.499834537506103516e-01
3.585000000000000000e+03 2.741722869873046875e+01 -1.465688037872314453e+01 4.525372385978698730e-01 6.642283439636230469e+00 2.128446340560913086e+00 2.520706176757812500e+00
3.586000000000000000e+03 2.790080642700195312e+01 -1.505426025390625000e+01 2.585795223712921143e-01 7.131217956542968750e+00 2.216939210891723633e+00 2.398192644119262695e+00
3.587000000000000000e+03 6.416945648193359375e+01 9.317323684692382812e+00 1.208250895142555237e-01 7.683670997619628906e+00 2.341348886489868164e+00 5.918878912925720215e-01
3.588000000000000000e+03 3.361566925048828125e+01 -1.846841812133789062e+01 -4.539107084274291992e-01 8.717991828918457031e+00 2.479224205017089844e+00 2.883060574531555176e-01
3.589000000000000000e+03 3.430957412719726562e+01 1.178500175476074219e+01 -4.647069871425628662e-01 7.391627311706542969e+00 2.078076124191284180e+00 -4.303947985172271729e-01
3.590000000000000000e+03 2.704728889465332031e+01 -1.805159187316894531e+01 -4.302193596959114075e-02 5.971123695373535156e+00 1.778430581092834473e+00 1.896120905876159668e+00
3.591000000000000000e+03 3.501887130737304688e+01 -6.018144130706787109e+00 5.022905349731445312e+00 9.791707992553710938e+00 4.444384098052978516e+00 4.538608193397521973e-01
3.592000000000000000e+03 2.564015769958496094e+01 -1.545795822143554688e+01 6.449626088142395020e-01 4.874310016632080078e+00 1.655781745910644531e+00 2.287597179412841797e+00
3.593000000000000000e+03 2.985397529602050781e+01 -1.420588302612304688e+01 -1.278755627572536469e-02 9.220897674560546875e+00 2.762433052062988281e+00 1.759558439254760742e+00
3.594000000000000000e+03 3.046240425109863281e+01 -1.427904224395751953e+01 -7.053885608911514282e-02 9.569594383239746094e+00 2.849716424942016602e+00 1.437203884124755859e+00
3.595000000000000000e+03 6.916145324707031250e+01 -2.456787490844726562e+01 -1.089373510330915451e-02 7.602642059326171875e+00 2.277524471282958984e+00 -3.249217271804809570e-01
3.596000000000000000e+03 3.022800636291503906e+01 -4.823639094829559326e-01 1.423373669385910034e-01 1.029279994964599609e+01 3.130541086196899414e+00 -1.733437776565551758e+00
3.597000000000000000e+03 3.396662521362304688e+01 -1.259948158264160156e+01 1.127881288528442383e+00 1.061001300811767578e+01 3.521368503570556641e+00 -7.962275147438049316e-01
3.598000000000000000e+03 2.689004516601562500e+01 -1.562278270721435547e+01 3.768046498298645020e-01 5.985439777374267578e+00 1.908673405647277832e+00 2.341077327728271484e+00
3.599000000000000000e+03 3.131343841552734375e+01 -1.347263455390930176e+00 4.998186230659484863e-01 1.152505207061767578e+01 3.607461214065551758e+00 -7.059086561203002930e-01
3.600000000000000000e+03 3.497856903076171875e+01 -8.656622886657714844e+00 4.442162513732910156e+00 1.002539730072021484e+01 4.340267658233642578e+00 -1.080852150917053223e+00
3.601000000000000000e+03 6.246136474609375000e+01 6.984641551971435547e+00 2.210869193077087402e-01 7.639504909515380859e+00 2.358177423477172852e+00 5.903154015541076660e-01
3.602000000000000000e+03 2.788977813720703125e+01 -1.682596206665039062e+01 -1.300416421145200729e-02 6.701936721801757812e+00 2.006679773330688477e+00 2.010534048080444336e+00
3.603000000000000000e+03 4.261068344116210938e+01 -1.260697937011718750e+01 1.606471180915832520e+00 8.251734733581542969e+00 2.957461595535278320e+00 -8.867300152778625488e-01
3.604000000000000000e+03 4.871660995483398438e+01 -1.516171741485595703e+01 8.540794849395751953e-01 7.884930133819580078e+00 2.621702909469604492e+00 -7.210686802864074707e-01
3.605000000000000000e+03 6.847664642333984375e+01 -1.869061088562011719e+01 1.045003607869148254e-01 7.497331619262695312e+00 2.280549764633178711e+00 -3.038596808910369873e-01
3.606000000000000000e+03 2.586493873596191406e+01 -1.490768814086914062e+01 7.277418971061706543e-01 5.024541854858398438e+00 1.725685238838195801e+00 2.405912399291992188e+00
3.607000000000000000e+03 3.150572586059570312e+01 -1.703487968444824219e+01 -3.899500668048858643e-01 8.734362602233886719e+00 2.503323554992675781e+00 8.904166817665100098e-01
3.608000000000000000e+03 3.508433151245117188e+01 -8.079705238342285156e+00 4.763313770294189453e+00 9.892300605773925781e+00 4.396684169769287109e+00 -8.156672120094299316e-01
3.609000000000000000e+03 3.055282974243164062e+01 2.273358404636383057e-01 4.630735889077186584e-02 9.959794044494628906e+00 3.001830577850341797e+00 -1.514608979225158691e+00
3.610000000000000000e+03 3.164660453796386719e+01 -1.572156524658203125e+01 -2.421898692846298218e-01 9.365024566650390625e+00 2.736850500106811523e+00 8.049354553222656250e-01
3.611000000000000000e+03 3.567248153686523438e+01 -8.481053352355957031e+00 4.244066715240478516e+00 9.622314453125000000e+00 4.159914493560791016e+00 -8.903245925903320312e-01
3.612000000000000000e+03 3.495347595214843750e+01 -8.336488723754882812e+00 4.658149719238281250e+00 1.001354312896728516e+01 4.401507854461669922e+00 -9.894623160362243652e-01
3.613000000000000000e+03 3.552357864379882812e+01 -8.159114837646484375e+00 4.428699970245361328e+00 9.618638992309570312e+00 4.214201927185058594e+00 -7.881549000740051270e-01
3.614000000000000000e+03 3.131246566772460938e+01 -8.381680250167846680e-01 3.344523906707763672e-01 1.108040618896484375e+01 3.424457550048828125e+00 -8.311913013458251953e-01
3.615000000000000000e+03 3.153441047668457031e+01 -3.768811523914337158e-01 2.701753973960876465e-01 1.076946449279785156e+01 3.311892032623291016e+00 -7.151042819023132324e-01
3.616000000000000000e+03 3.459584045410156250e+01 -1.285561180114746094e+01 1.151245355606079102e+00 1.032754230499267578e+01 3.443636178970336914e+00 -8.871306180953979492e-01
3.617000000000000000e+03 3.537082672119140625e+01 -7.881997585296630859e+00 4.721468925476074219e+00 9.679918289184570312e+00 4.320416450500488281e+00 -6.545456647872924805e-01
3.618000000000000000e+03 3.509455108642578125e+01 -5.576911449432373047e+00 4.752749919891357422e+00 9.834732055664062500e+00 4.376244544982910156e+00 7.034121751785278320e-01
3.619000000000000000e+03 3.269811630249023438e+01 -1.535788440704345703e+01 -1.207635253667831421e-01 9.717442512512207031e+00 2.879003763198852539e+00 3.420668542385101318e-01
3.620000000000000000e+03 4.463045501708984375e+01 -8.691212654113769531e+00 2.029052734375000000e+00 7.844886302947998047e+00 2.962181806564331055e+00 -3.071870207786560059e-01
3.621000000000000000e+03 3.539877319335937500e+01 1.160046309232711792e-01 1.026592969894409180e+00 9.897158622741699219e+00 3.277125358581542969e+00 7.412616610527038574e-01
3.622000000000000000e+03 3.825695419311523438e+01 -7.921952724456787109e+00 3.547570228576660156e+00 8.691520690917968750e+00 3.671727180480957031e+00 -4.186548590660095215e-01
3.623000000000000000e+03 3.794832611083984375e+01 -5.286443710327148438e+00 3.607794046401977539e+00 8.773191452026367188e+00 3.714295625686645508e+00 4.786572754383087158e-01
3.624000000000000000e+03 3.857281112670898438e+01 -3.479552030563354492e+00 2.868029594421386719e+00 8.788515090942382812e+00 3.496963262557983398e+00 8.540281653404235840e-01
3.625000000000000000e+03 6.482733917236328125e+01 -1.117188930511474609e+01 3.450607657432556152e-01 7.453551769256591797e+00 2.339583635330200195e+00 -1.452526897192001343e-01
3.626000000000000000e+03 3.744793701171875000e+01 -6.822398662567138672e+00 3.932384729385375977e+00 8.855869293212890625e+00 3.836476325988769531e+00 -6.241928786039352417e-02
3.627000000000000000e+03 3.859097290039062500e+01 -6.912223339080810547e+00 3.488665819168090820e+00 8.555979728698730469e+00 3.613393783569335938e+00 -8.326458185911178589e-02
3.628000000000000000e+03 4.656861114501953125e+01 5.030709505081176758e-01 1.226230859756469727e+00 7.883340835571289062e+00 2.732871532440185547e+00 7.470740079879760742e-01
3.629000000000000000e+03 3.147467803955078125e+01 2.624752521514892578e+00 -1.950321942567825317e-01 9.103590965270996094e+00 2.672567605972290039e+00 -1.072239756584167480e+00
3.630000000000000000e+03 3.936734008789062500e+01 -3.255434036254882812e-01 1.616571545600891113e+00 8.772830963134765625e+00 3.116820812225341797e+00 9.814416766166687012e-01
3.631000000000000000e+03 3.279645919799804688e+01 2.302071452140808105e-01 3.492330014705657959e-01 1.044595241546630859e+01 3.238555669784545898e+00 -1.425926089286804199e-01
3.632000000000000000e+03 5.767900466918945312e+01 -5.788788199424743652e-01 6.787376403808593750e-01 7.532757282257080078e+00 2.463448524475097656e+00 4.203036427497863770e-01
3.633000000000000000e+03 3.987781906127929688e+01 -1.179581880569458008e+00 1.908331155776977539e+00 8.626742362976074219e+00 3.160521984100341797e+00 9.472628831863403320e-01
3.634000000000000000e+03 4.840388107299804688e+01 -9.679319381713867188e+00 1.525336861610412598e+00 7.680761337280273438e+00 2.761829614639282227e+00 -3.207790255546569824e-01
3.635000000000000000e+03 4.728520202636718750e+01 -1.040905857086181641e+01 1.515673875808715820e+00 7.768317699432373047e+00 2.785197496414184570e+00 -4.529841244220733643e-01
3.636000000000000000e+03 6.456783294677734375e+01 -6.528803348541259766e+00 4.057310521602630615e-01 7.430926799774169922e+00 2.350997447967529297e+00 5.423018708825111389e-02
3.637000000000000000e+03 5.680812072753906250e+01 -1.494710206985473633e+00 7.787194848060607910e-01 7.527564048767089844e+00 2.491884946823120117e+00 3.843873441219329834e-01
3.638000000000000000e+03 4.187998962402343750e+01 -2.458488464355468750e+00 2.090018987655639648e+00 8.214797973632812500e+00 3.091445207595825195e+00 7.454715371131896973e-01
3.639000000000000000e+03 3.888682937622070312e+01 1.273820281028747559e+00 1.096847295761108398e+00 8.897999763488769531e+00 2.998454093933105469e+00 9.208635091781616211e-01
3.640000000000000000e+03 4.622265243530273438e+01 -2.664270639419555664e+00 1.677583336830139160e+00 7.792757034301757812e+00 2.841102123260498047e+00 5.070565938949584961e-01
3.641000000000000000e+03 1.488040065765380859e+01 1.046121835708618164e+00 -7.379192393273115158e-04 -9.020501165650784969e-04 -4.919908242300152779e-04 8.607265044702216983e-06
3.642000000000000000e+03 1.433596038818359375e+01 8.109902739524841309e-01 -5.262551712803542614e-04 3.195082244928926229e-04 -6.202408258104696870e-05 -5.281654885038733482e-04
3.643000000000000000e+03 1.339948463439941406e+01 9.943951964378356934e-01 -1.798090670490637422e-04 5.028243322158232331e-06 -5.243424675427377224e-05 6.292269245022907853e-05
3.644000000000000000e+03 1.399857616424560547e+01 1.078236818313598633e+00 2.126455947291105986e-04 4.389646346680819988e-04 1.954830659087747335e-04 5.919330214965157211e-05
3.645000000000000000e+03 1.342517852783203125e+01 2.516243755817413330e-01 -4.544435341813368723e-06 -5.347013939172029495e-06 -2.967434738820884377e-06 -1.513844290457200259e-05
3.646000000000000000e+03 1.503903388977050781e+01 3.840551078319549561e-01 4.277974221622571349e-05 9.596504241926595569e-05 4.162343248026445508e-05 8.026727300602942705e-05
3.647000000000000000e+03 1.424006271362304688e+01 2.423980534076690674e-01 6.985226355027407408e-05 -7.859291508793830872e-05 -2.622196006996091455e-06 -5.956425593467429280e-05
3.648000000000000000e+03 1.447602939605712891e+01 1.142013788223266602e+00 -2.344844251638278365e-04 7.825146167306229472e-05 -4.686988904722966254e-05 -1.780117236194200814e-05
3.649000000000000000e+03 1.113503360748291016e+01 3.384475409984588623e-01 1.154276033048518002e-04 2.769780694507062435e-04 1.177216981886886060e-04 -1.560578675707802176e-05
3.650000000000000000e+03 1.115649890899658203e+01 1.078244447708129883e+00 2.046849258476868272e-04 -1.866592065198346972e-04 5.407719982031267136e-06 2.288360847160220146e-04
3.651000000000000000e+03 1.038435840606689453e+01 3.729175329208374023e-01 2.146687766071408987e-04 -2.985341998282819986e-04 -2.515963205951265991e-05 9.197970939567312598e-05
3.652000000000000000e+03 1.188578510284423828e+01 3.038018345832824707e-01 6.298057269304990768e-05 -2.340471110073849559e-04 -5.131995931151323020e-05 6.358981772791594267e-05
3.653000000000000000e+03 1.263660717010498047e+01 2.689834535121917725e-01 -1.236556636285968125e-05 1.628992904443293810e-04 4.516011540545150638e-05 6.249571924854535609e-06
3.654000000000000000e+03 1.266393947601318359e+01 1.008509635925292969e+00 8.507553866365924478e-05 -9.245886758435517550e-06 2.274889629916287959e-05 1.589539169799536467e-04
3.655000000000000000e+03 1.040289020538330078e+01 1.112849831581115723e+00 7.960536458995193243e-05 1.751421805238351226e-04 7.642426498932763934e-05 -1.607670274097472429e-04
3.656000000000000000e+03 1.191018390655517578e+01 1.043463349342346191e+00 7.925153477117419243e-05 1.029097547871060669e-04 5.464838613988831639e-05 -2.097386277455370873e-05
3.657000000000000000e+03 9.630480766296386719e+00 3.871794641017913818e-01 2.294700971106067300e-04 2.464213757775723934e-04 1.427674433216452599e-04 -7.798885781085118651e-05
3.658000000000000000e+03 8.873666763305664062e+00 3.829238712787628174e-01 3.266563580837100744e-04 -1.420492480974644423e-04 5.538213736144825816e-05 1.537306234240531921e-04
3.659000000000000000e+03 9.660673141479492188e+00 1.127179503440856934e+00 3.013585519511252642e-04 -1.143638874054886401e-04 5.609840081888251007e-05 4.023265501018613577e-04
3.660000000000000000e+03 8.116720199584960938e+00 3.805542886257171631e-01 3.215622855350375175e-04 -1.884428797893633600e-06 9.590335685061290860e-05 -1.321886811638250947e-04
3.661000000000000000e+03 7.360193252563476562e+00 3.795430362224578857e-01 4.049705457873642445e-04 1.334410917479544878e-04 1.615234941709786654e-04 1.731050870148465037e-04
3.662000000000000000e+03 5.847065925598144531e+00 3.768712580204010010e-01 4.004735674243420362e-04 3.409927012398838997e-04 2.224398776888847351e-04 1.722242595860734582e-04
3.663000000000000000e+03 5.091114044189453125e+00 3.758820295333862305e-01 2.653743140399456024e-04 -4.020411579404026270e-04 -4.100005753571167588e-05 -2.191905950894579291e-04
3.664000000000000000e+03 3.579006433486938477e+00 3.681437373161315918e-01 1.245769526576623321e-04 -3.928556980099529028e-04 -8.048362360568717122e-05 -2.239820751128718257e-04
3.665000000000000000e+03 2.823871612548828125e+00 3.614119887351989746e-01 1.474885502830147743e-04 3.424789756536483765e-04 1.469902636017650366e-04 1.399458706146106124e-04
3.666000000000000000e+03 2.070111274719238281e+00 3.578882515430450439e-01 2.009003310377011076e-06 -2.567911869846284389e-04 -7.643465505680069327e-05 -1.705863687675446272e-04
3.667000000000000000e+03 2.362852334976196289e+00 1.097888231277465820e+00 8.657387661514803767e-05 1.871056738309562206e-04 8.210387022700160742e-05 7.905210804892703891e-05
3.668000000000000000e+03 1.328713655471801758e+00 3.659794926643371582e-01 4.510263170232065022e-05 1.842477358877658844e-04 6.880510773044079542e-05 1.111199962906539440e-04
3.669000000000000000e+03 1.647709608078002930e+00 1.105979442596435547e+00 6.670043512713164091e-05 -7.011347042862325907e-05 -1.023909817376988940e-06 -1.861868222476914525e-04
3.670000000000000000e+03 6.516475677490234375e-01 3.939257264137268066e-01 -1.236141542904078960e-05 -8.487173181492835283e-05 -2.916994344559498131e-05 -8.304876973852515221e-05
3.671000000000000000e+03 3.489431142807006836e-01 9.570703506469726562e-01 7.201715925475582480e-05 9.034601134771946818e-06 2.431552820780780166e-05 -3.147152892779558897e-05
3.672000000000000000e+03 3.090358018875122070e+00 1.101411938667297363e+00 1.412316923961043358e-04 -2.122650039382278919e-04 -2.130999382643494755e-05 -2.944384468719363213e-04
3.673000000000000000e+03 3.819237709045410156e+00 1.108143687248229980e+00 2.277723251609131694e-04 2.406573330517858267e-04 1.405288930982351303e-04 1.409402757417410612e-04
3.674000000000000000e+03 4.335169315338134766e+00 3.733847737312316895e-01 3.006390470545738935e-04 4.101009690202772617e-04 2.132220106432214379e-04 1.629561302252113819e-04
3.675000000000000000e+03 6.008533000946044922e+00 1.116871237754821777e+00 2.588907955214381218e-04 -2.661542675923556089e-04 -2.179036982852267101e-06 -3.806532185990363359e-04
3.676000000000000000e+03 6.603851795196533203e+00 3.786112964153289795e-01 3.424560127314180136e-04 -2.643491898197680712e-04 2.343205051147378981e-05 -1.800080790417268872e-04
3.677000000000000000e+03 8.930113792419433594e+00 1.122923851013183594e+00 1.836921728681772947e-04 2.810494515870232135e-05 6.353913340717554092e-05 -3.130292752757668495e-04
3.678000000000000000e+03 8.199422836303710938e+00 1.120554327964782715e+00 3.605527454055845737e-04 2.848042458936106414e-05 1.167099544545635581e-04 4.542680690065026283e-04
3.679000000000000000e+03 7.469150543212890625e+00 1.119543075561523438e+00 2.484110591467469931e-04 -1.490836584707722068e-04 2.979821874760091305e-05 -3.738462983164936304e-04
3.680000000000000000e+03 6.739063739776611328e+00 1.118611335754394531e+00 3.856529365293681622e-04 1.662155700614675879e-04 1.655605592532083392e-04 3.779501130338758230e-04
3.681000000000000000e+03 5.278835773468017578e+00 1.115882039070129395e+00 3.476033452898263931e-04 2.330830029677599669e-04 1.742058957461267710e-04 2.471291809342801571e-04
3.682000000000000000e+03 4.549146175384521484e+00 1.113384723663330078e+00 2.076324017252773046e-04 -2.761539944913238287e-04 -2.055648110399488360e-05 -3.646164259407669306e-04
3.683000000000000000e+03 9.968983530998229980e-01 1.133925795555114746e+00 -5.186413545743562281e-05 8.263062045443803072e-05 9.229946044797543436e-06 1.207780223921872675e-04
3.684000000000000000e+03 7.947246074676513672e+00 -3.790149092674255371e-01 -1.309516228502616286e-04 -5.013381014578044415e-04 -1.896869071060791612e-04 1.376560394419357181e-04
3.685000000000000000e+03 8.798082351684570312e+00 -1.121163964271545410e+00 -1.741752348607406020e-04 -3.421077271923422813e-04 -1.548848813399672508e-04 2.808394492603838444e-04
3.686000000000000000e+03 9.582462310791015625e+00 -3.862577378749847412e-01 -9.203749505104497075e-05 -2.961615973617881536e-04 -1.164597342722117901e-04 1.140614040195941925e-04
3.687000000000000000e+03 7.128131389617919922e+00 -3.778152763843536377e-01 3.458883838902693242e-06 5.793477175757288933e-04 1.748419745126739144e-04 -1.531698362668976188e-04
3.688000000000000000e+03 6.302709579467773438e+00 -3.771458566188812256e-01 -1.131327881012111902e-04 -6.135389558039605618e-04 -2.180015289923176169e-04 1.421613997081294656e-04
3.689000000000000000e+03 5.439445972442626953e+00 -3.834656774997711182e-01 -1.061717484844848514e-04 5.492806085385382175e-04 1.329326623817905784e-04 -4.471075226319953799e-05
3.690000000000000000e+03 4.549984931945800781e+00 -3.402172923088073730e-01 -7.757280400255694985e-05 -4.895256133750081062e-04 -1.701295113889500499e-04 -5.841151505592279136e-05
3.691000000000000000e+03 4.365737915039062500e+00 -8.721476197242736816e-01 3.065665659960359335e-04 2.463326964061707258e-04 1.658697874518111348e-04 1.995168422581627965e-04
3.692000000000000000e+03 2.784216165542602539e+00 -7.810403704643249512e-01 1.642472052481025457e-04 -2.774383574433159083e-05 4.095101030543446541e-05 2.439223899273201823e-04
3.693000000000000000e+03 1.180924773216247559e+00 -3.613742887973785400e-01 -2.490848419256508350e-04 1.804272505978588015e-05 -6.931263487786054611e-05 -2.285617665620520711e-05
3.694000000000000000e+03 4.100910127162933350e-01 -5.529776215553283691e-01 -1.471991254220483825e-05 -7.629238825757056475e-05 -2.730368942138738930e-05 -5.493294520420022309e-05
3.695000000000000000e+03 7.475960254669189453e-01 -1.101374268531799316e+00 7.723190938122570515e-04 1.767617795849218965e-04 2.847242576535791159e-04 1.582578697707504034e-04
3.696000000000000000e+03 9.582078933715820312e+00 -1.126257777214050293e+00 1.029482446028850973e-04 3.065961063839495182e-04 1.228633045684546232e-04 -2.659675083123147488e-04
3.697000000000000000e+03 8.013586997985839844e+00 -1.119014978408813477e+00 1.240221899934113026e-04 3.764282737392932177e-04 1.501351362094283104e-04 -2.503348514437675476e-04
3.698000000000000000e+03 7.227835178375244141e+00 -1.117815256118774414e+00 -1.982883841264992952e-04 -3.693619219120591879e-04 -1.702950976323336363e-04 2.394093316979706287e-04
3.699000000000000000e+03 6.435775756835937500e+00 -1.117145895957946777e+00 6.594501610379666090e-05 3.573291760403662920e-04 1.269822678295895457e-04 -2.031424810411408544e-04
3.700000000000000000e+03 5.605874538421630859e+00 -1.123465657234191895e+00 -4.443201396497897804e-05 -3.168321272823959589e-04 -1.083792449207976460e-04 1.614697248442098498e-04
3.701000000000000000e+03 4.870606899261474609e+00 -1.221678614616394043e+00 -1.894047745736315846e-04 1.720954023767262697e-04 -5.192815024201991037e-06 -3.795377851929515600e-04
3.702000000000000000e+03 4.215381145477294922e+00 -1.291930317878723145e+00 -2.101742429658770561e-04 -1.046210672939196229e-04 -9.443859744351357222e-05 1.309482322540134192e-04
3.703000000000000000e+03 3.483533143997192383e+00 -1.264367222785949707e+00 2.570687793195247650e-04 1.257444673683494329e-04 1.148439696407876909e-04 1.410901459166780114e-04
3.704000000000000000e+03 2.720056772232055664e+00 -1.259521603584289551e+00 -2.171140513382852077e-04 -1.909953571157529950e-04 -1.224328298121690750e-04 -2.645839704200625420e-04
3.705000000000000000e+03 1.356012225151062012e+00 -1.203287243843078613e+00 -6.801174022257328033e-04 -4.770113446284085512e-04 -3.471386153250932693e-04 -9.714411135064437985e-05
3.706000000000000000e+03 1.973117947578430176e+00 -8.476541042327880859e-01 2.306085807504132390e-04 1.577669754624366760e-04 1.165126668638549745e-04 -4.059609491378068924e-04
3.707000000000000000e+03 8.765102386474609375e+00 -3.811639845371246338e-01 -2.558737605795613490e-06 4.078200436197221279e-04 1.215783922816626728e-04 -1.141540342359803617e-04
3.708000000000000000e+03 3.694828748703002930e+00 -2.827752828598022461e-01 1.037201491271844134e-05 4.278370179235935211e-04 1.314627152169123292e-04 1.156476428150199354e-04
3.709000000000000000e+03 2.863922595977783203e+00 -2.815187871456146240e-01 -1.843556237872689962e-04 -3.043810429517179728e-04 -1.466210087528452277e-04 -1.146767535828985274e-04
3.710000000000000000e+03 1.994147539138793945e+00 -3.323310017585754395e-01 5.015354872739408165e-06 1.306485064560547471e-04 4.069915667059831321e-05 1.206758461194112897e-04
3.711000000000000000e+03 1.978801369667053223e+00 -1.275323033332824707e+00 1.349774538539350033e-04 4.248092009220272303e-04 1.679359847912564874e-04 1.402688649250194430e-04
3.712000000000000000e+03 3.578665971755981445e+00 -7.871425151824951172e-01 -2.871602482628077269e-04 -1.628200989216566086e-04 -1.349941012449562550e-04 -1.797509466996416450e-04
3.713000000000000000e+03 1.511178874969482422e+01 -1.151870131492614746e+00 1.077122797141782939e-04 3.372933497303165495e-05 4.243248622515238822e-05 -6.102098996052518487e-05
3.714000000000000000e+03 1.328532791137695312e+01 -1.267471551895141602e+00 -5.445634451461955905e-05 -1.393101119901984930e-04 -5.812993549625389278e-05 6.233003659872338176e-05
3.715000000000000000e+03 1.480503654479980469e+01 -5.744030475616455078e-01 2.611556010378990322e-05 4.480043935473076999e-05 2.127480001945514232e-05 -4.845168950851075351e-05
3.716000000000000000e+03 1.453040313720703125e+01 -1.313965797424316406e+00 -1.493688614573329687e-04 -1.705031318124383688e-04 -9.596160089131444693e-05 2.363855455769225955e-04
3.717000000000000000e+03 1.393833351135253906e+01 -1.278923630714416504e+00 4.851088306168094277e-05 1.852939749369397759e-04 7.014145376160740852e-05 -1.561215758556500077e-04
3.718000000000000000e+03 1.336329460144042969e+01 -5.279909372329711914e-01 3.166344686178490520e-05 1.199290127260610461e-04 4.547774005914106965e-05 -2.411714740446768701e-05
3.719000000000000000e+03 1.411463356018066406e+01 -5.394020080566406250e-01 -1.813482958823442459e-05 -1.010134292300790548e-04 -3.574447691789828241e-05 4.439691838342696428e-05
3.720000000000000000e+03 1.111242771148681641e+01 -4.403275847434997559e-01 -7.010991248534992337e-05 -1.054631065926514566e-04 -5.267190863378345966e-05 8.187768253264948726e-05
3.721000000000000000e+03 1.260764503479003906e+01 -5.095726251602172852e-01 -3.811338319792412221e-05 -9.838634287007153034e-05 -4.094991891179233789e-05 1.694150159892160445e-05
3.722000000000000000e+03 1.185993289947509766e+01 -4.741277396678924561e-01 6.152939022285863757e-05 6.933200347702950239e-05 3.925841883756220341e-05 -3.293501140433363616e-05
3.723000000000000000e+03 1.109096240997314453e+01 -1.180124521255493164e+00 1.949586585396900773e-04 1.367243821732699871e-04 9.950491221388801932e-05 -2.216740540461614728e-04
3.724000000000000000e+03 1.036482620239257812e+01 -4.067706167697906494e-01 2.286267772433348000e-05 2.013960329350084066e-04 6.727761501679196954e-05 -9.205045353155583143e-05
3.725000000000000000e+03 1.034629440307617188e+01 -1.146702885627746582e+00 -1.712524535832926631e-04 -2.454209898132830858e-04 -1.250020432053133845e-04 3.212934534531086683e-04
3.726000000000000000e+03 1.258031177520751953e+01 -1.249099493026733398e+00 1.601828844286501408e-04 5.742719076806679368e-05 6.528302037622779608e-05 -5.386416887631639838e-05
3.727000000000000000e+03 1.183553314208984375e+01 -1.213789224624633789e+00 -2.169152285205200315e-04 -7.695578824495896697e-05 -8.816130866762250662e-05 1.531729067210108042e-04
3.728000000000000000e+03 2.902009582519531250e+01 -6.816409587860107422e+00 3.198572349548339844e+01 5.591413497924804688e+00 1.127314090728759766e+01 1.115600585937500000e+01
3.729000000000000000e+03 2.902357292175292969e+01 -6.835565090179443359e+00 2.986034011840820312e+01 1.713535308837890625e+01 1.409870815277099609e+01 2.225368881225585938e+01
3.730000000000000000e+03 2.903071212768554688e+01 -6.853677272796630859e+00 2.785546684265136719e+01 2.859750366210937500e+01 1.693589019775390625e+01 2.620007514953613281e+01
3.731000000000000000e+03 2.904124069213867188e+01 -6.870052814483642578e+00 2.433970069885253906e+01 4.062701797485351562e+01 1.949001502990722656e+01 2.752610397338867188e+01
3.732000000000000000e+03 2.905475616455078125e+01 -6.884065628051757812e+00 2.118705940246582031e+01 5.178401947021484375e+01 2.189132308959960938e+01 2.591812896728515625e+01
3.733000000000000000e+03 2.907073974609375000e+01 -6.895178794860839844e+00 1.803723526000976562e+01 6.140094375610351562e+01 2.383145332336425781e+01 2.191088294982910156e+01
3.734000000000000000e+03 2.908858299255371094e+01 -6.902967929840087891e+00 1.645552825927734375e+01 6.862129211425781250e+01 2.552304649353027344e+01 1.602277183532714844e+01
3.735000000000000000e+03 2.910759925842285156e+01 -6.907134056091308594e+00 1.635535240173339844e+01 7.282473754882812500e+01 2.675402641296386719e+01 8.997444152832031250e+00
3.736000000000000000e+03 2.912706375122070312e+01 -6.907517910003662109e+00 1.832743835449218750e+01 7.389303588867187500e+01 2.766614341735839844e+01 1.973942041397094727e+00
3.737000000000000000e+03 2.914623069763183594e+01 -6.904105663299560547e+00 2.203741455078125000e+01 7.207750701904296875e+01 2.823447608947753906e+01 -4.193871021270751953e+00
3.738000000000000000e+03 2.916436576843261719e+01 -6.897027015686035156e+00 2.700564956665039062e+01 6.813707733154296875e+01 2.854281806945800781e+01 -8.646341323852539062e+00
3.739000000000000000e+03 2.918077659606933594e+01 -6.886552810668945312e+00 3.251082229614257812e+01 6.293168640136718750e+01 2.863275146484375000e+01 -1.103119277954101562e+01
3.740000000000000000e+03 2.919483375549316406e+01 -6.873084545135498047e+00 3.779981231689453125e+01 5.755161285400390625e+01 2.860542678833007812e+01 -1.126152801513671875e+01
3.741000000000000000e+03 2.920600128173828125e+01 -6.857137203216552734e+00 4.229682159423828125e+01 5.271178054809570312e+01 2.850258064270019531e+01 -9.627738952636718750e+00
3.742000000000000000e+03 2.921384811401367188e+01 -6.839320659637451172e+00 4.549938201904296875e+01 4.913362503051757812e+01 2.838990211486816406e+01 -6.624957084655761719e+00
3.743000000000000000e+03 2.921807861328125000e+01 -6.820317268371582031e+00 4.728320312500000000e+01 4.718592834472656250e+01 2.834074020385742188e+01 -2.717550277709960938e+00
3.744000000000000000e+03 2.921852684020996094e+01 -6.800854206085205078e+00 4.745869064331054688e+01 4.695005798339843750e+01 2.832262420654296875e+01 1.473244547843933105e+00
3.745000000000000000e+03 2.921517944335937500e+01 -6.781676292419433594e+00 4.610712814331054688e+01 4.860224914550781250e+01 2.841281318664550781e+01 5.466745853424072266e+00
3.746000000000000000e+03 2.920816040039062500e+01 -6.763517379760742188e+00 4.323659133911132812e+01 5.183969497680664062e+01 2.852288627624511719e+01 8.721158981323242188e+00
3.747000000000000000e+03 2.919774055480957031e+01 -6.747071743011474609e+00 3.910142517089843750e+01 5.646462249755859375e+01 2.866981315612792969e+01 1.068811130523681641e+01
3.748000000000000000e+03 2.918431854248046875e+01 -6.732969760894775391e+00 3.404044342041015625e+01 6.181690597534179688e+01 2.875720405578613281e+01 1.090083026885986328e+01
3.749000000000000000e+03 2.916840934753417969e+01 -6.721750259399414062e+00 2.863900947570800781e+01 6.721618652343750000e+01 2.875655746459960938e+01 9.004981994628906250e+00
3.750000000000000000e+03 2.915061950683593750e+01 -6.713842868804931641e+00 2.360764312744140625e+01 7.158351898193359375e+01 2.855735015869140625e+01 5.005905628204345703e+00
3.751000000000000000e+03 2.913162994384765625e+01 -6.709549903869628906e+00 1.971179389953613281e+01 7.407725524902343750e+01 2.813671493530273438e+01 -8.697032332420349121e-01
3.752000000000000000e+03 2.911216926574707031e+01 -6.709036350250244141e+00 1.746546936035156250e+01 7.379718017578125000e+01 2.737879562377929688e+01 -7.806577682495117188e+00
3.753000000000000000e+03 2.909297943115234375e+01 -6.712321281433105469e+00 1.731355667114257812e+01 7.039436340332031250e+01 2.631237602233886719e+01 -1.500921630859375000e+01
3.754000000000000000e+03 2.907479667663574219e+01 -6.719278812408447266e+00 1.886854553222656250e+01 6.386548995971679688e+01 2.482021141052246094e+01 -2.129330825805664062e+01
3.755000000000000000e+03 2.905831718444824219e+01 -6.729643344879150391e+00 2.212063407897949219e+01 5.464285659790039062e+01 2.302904701232910156e+01 -2.587777709960937500e+01
3.756000000000000000e+03 2.904417037963867188e+01 -6.743018150329589844e+00 2.563818168640136719e+01 4.360326766967773438e+01 2.077243423461914062e+01 -2.806022071838378906e+01
3.757000000000000000e+03 2.903289794921875000e+01 -6.758891105651855469e+00 2.980502319335937500e+01 3.142664718627929688e+01 1.836950111389160156e+01 -2.724842453002929688e+01
3.758000000000000000e+03 2.902493095397949219e+01 -6.776654720306396484e+00 3.253438568115234375e+01 1.940102767944335938e+01 1.558062362670898438e+01 -2.363983726501464844e+01
3.759000000000000000e+03 2.902057647705078125e+01 -6.795629024505615234e+00 3.584396362304687500e+01 6.754375457763671875e+00 1.277950191497802734e+01 -1.290299606323242188e+01
