# el_label, x, y, sXX, sYY, sZZ, sXY
1.000000000000000000e+00 1.422477436065673828e+01 2.043068706989288330e-01 -3.314681634947191924e-06 -1.454409994039451703e-05 -5.357634563551982865e-06 7.719071618339512497e-06
2.000000000000000000e+00 1.503262138366699219e+01 1.745680570602416992e-01 1.633089232200291008e-05 7.387887308141216636e-06 7.115633707144297659e-06 9.185193903249455616e-07
3.000000000000000000e+00 1.344024467468261719e+01 9.767450094223022461e-01 3.160922642564401031e-05 -4.592026471073040739e-06 8.105159395199734718e-06 7.022092177066951990e-05
4.000000000000000000e+00 1.423887538909912109e+01 9.489779472351074219e-01 7.524646935053169727e-05 4.639368853531777859e-05 3.649204882094636559e-05 3.354512227815575898e-05
5.000000000000000000e+00 1.341634368896484375e+01 2.355489134788513184e-01 6.311658944468945265e-05 3.862343146465718746e-05 3.052200554520823061e-05 2.244051756861153990e-05
6.000000000000000000e+00 1.503692245483398438e+01 9.227139353752136230e-01 -4.044575689476914704e-05 2.023430852204910479e-06 -1.152669756265822798e-05 7.920736607047729194e-06
7.000000000000000000e+00 1.113503360748291016e+01 3.384475409984588623e-01 3.055349516216665506e-04 -6.406354805221781135e-05 7.244142034323886037e-05 4.934069147566333413e-05
8.000000000000000000e+00 1.115649890899658203e+01 1.078244447708129883e+00 3.390558413229882717e-04 5.805297405458986759e-05 1.191326446132734418e-04 1.389670360367745161e-04
9.000000000000000000e+00 1.038435840606689453e+01 3.729175329208374023e-01 4.686790052801370621e-04 6.539929017890244722e-05 1.602234842721372843e-04 4.354813790996558964e-05
1.000000000000000000e+01 1.188578510284423828e+01 3.038018345832824707e-01 2.210112579632550478e-04 5.800290819024667144e-05 8.370424620807170868e-05 3.990022014477290213e-05
1.100000000000000000e+01 1.263660717010498047e+01 2.689834535121917725e-01 9.968867379939183593e-05 -4.454419831745326519e-05 1.654334300837945193e-05 3.389857374713756144e-05
1.200000000000000000e+01 1.266393947601318359e+01 1.008509635925292969e+00 1.770963863236829638e-04 6.397415563696995378e-05 7.232116331579163671e-05 9.752387268235906959e-05
1.300000000000000000e+01 1.040289020538330078e+01 1.112849831581115723e+00 3.442873421590775251e-04 -5.727005554945208132e-05 8.610518125351518393e-05 1.858518371591344476e-04
1.400000000000000000e+01 1.191018390655517578e+01 1.043463349342346191e+00 1.658603578107431531e-04 -3.736081634997390211e-05 3.854986061924137175e-05 1.425515802111476660e-04
1.500000000000000000e+01 9.624112129211425781e+00 3.901334404945373535e-01 5.658451118506491184e-04 -6.234401371330022812e-05 1.510503207100555301e-04 5.963423609500750899e-05
1.600000000000000000e+01 8.869701385498046875e+00 1.130295276641845703e+00 5.123128648847341537e-04 -7.808860391378402710e-05 1.302672753809019923e-04 1.540438097435981035e-04
1.700000000000000000e+01 9.640521049499511719e+00 1.130133390426635742e+00 5.203287000767886639e-04 3.965788346249610186e-05 1.679959823377430439e-04 1.268698688363656402e-04
1.800000000000000000e+01 6.555309772491455078e+00 1.130333185195922852e+00 7.099872455000877380e-04 -2.243759627162944525e-05 2.062649000436067581e-04 -6.861555448267608881e-05
1.900000000000000000e+01 7.314301967620849609e+00 3.903205394744873047e-01 8.208791259676218033e-04 3.386804382898844779e-05 2.564241585787385702e-04 -2.294397063451469876e-06
2.000000000000000000e+01 5.011874198913574219e+00 1.130439519882202148e+00 6.201632204465568066e-04 -2.747076541709247977e-05 1.778077421477064490e-04 -1.882039650809019804e-04
2.100000000000000000e+01 5.003341674804687500e+00 3.904395103454589844e-01 6.402004510164260864e-04 -2.324920387763995677e-05 1.850853732321411371e-04 -4.156799332122318447e-05
2.200000000000000000e+01 2.698155403137207031e+00 1.130406737327575684e+00 1.825206563808023930e-04 3.518358789733611047e-05 6.531127291964367032e-05 -1.550558517919853330e-04
2.300000000000000000e+01 3.462841272354125977e+00 3.904723227024078369e-01 3.609097620937973261e-04 8.824653377814684063e-06 1.109203294618055224e-04 -6.069203664083033800e-05
2.400000000000000000e+01 1.923750996589660645e+00 3.903100788593292236e-01 8.623647590866312385e-05 3.361045673955231905e-05 3.595407906686887145e-05 -4.224849544698372483e-05
2.500000000000000000e+01 2.693560838699340820e+00 3.904067575931549072e-01 2.578834246378391981e-04 -1.221289676323067397e-05 7.370115781668573618e-05 -8.090618939604610205e-05
2.600000000000000000e+01 1.155955553054809570e+00 1.130243778228759766e+00 -1.471742598369019106e-05 7.595032366225495934e-05 1.836986848502419889e-05 -7.011501293163746595e-05
2.700000000000000000e+01 1.153986573219299316e+00 3.902437984943389893e-01 5.973238512524403632e-05 -3.879523774230619892e-06 1.675585735938511789e-05 -2.771834442683029920e-05
2.800000000000000000e+01 3.854793012142181396e-01 1.130119919776916504e+00 9.225171379512175918e-05 2.619792212499305606e-05 3.553488932084292173e-05 -2.699799006222747266e-05
2.900000000000000000e+01 3.848229348659515381e-01 3.901198804378509521e-01 -2.012006734730675817e-05 1.137851268140366301e-05 -2.622466126922518015e-06 -3.745350568351568654e-06
3.000000000000000000e+01 3.468748569488525391e+00 1.130472302436828613e+00 4.311758675612509251e-04 -4.664930656872456893e-06 1.279532734770327806e-04 -2.423354017082601786e-04
3.100000000000000000e+01 5.773429393768310547e+00 3.904067873954772949e-01 7.711437065154314041e-04 1.522717502666637301e-05 2.359112695557996631e-04 -4.923439337289892137e-05
3.200000000000000000e+01 6.544151782989501953e+00 3.903332352638244629e-01 7.836016011424362659e-04 -4.684570012614130974e-05 2.210267703048884869e-04 -8.496855912198952865e-07
3.300000000000000000e+01 5.783274650573730469e+00 1.130406856536865234e+00 5.705995135940611362e-04 -7.153016485972329974e-05 1.497207995271310210e-04 -5.365254401112906635e-05
3.400000000000000000e+01 8.084676742553710938e+00 3.903390169143676758e-01 7.450825651176273823e-04 -6.040138032403774559e-05 2.054043434327468276e-04 3.947548611904494464e-05
3.500000000000000000e+01 8.854605674743652344e+00 3.902952671051025391e-01 6.995110306888818741e-04 5.139268978382460773e-05 2.252711274195462465e-04 3.531369293341413140e-05
3.600000000000000000e+01 8.098460197448730469e+00 1.130339026451110840e+00 6.684320396743714809e-04 4.051201813126681373e-06 2.017449733102694154e-04 5.042718112235888839e-05
3.700000000000000000e+01 1.927032828330993652e+00 1.130310058593750000e+00 2.304184890817850828e-04 3.659727008198387921e-05 8.010472811292856932e-05 -1.729141658870503306e-04
3.800000000000000000e+01 4.233315467834472656e+00 3.904743492603302002e-01 5.514251533895730972e-04 -1.950129217220819555e-06 1.648424949962645769e-04 -8.419002551818266511e-05
3.900000000000000000e+01 4.240535736083984375e+00 1.130474328994750977e+00 4.115198680665344000e-04 -2.816581036313436925e-05 1.150062162196263671e-04 -1.455035962862893939e-04
4.000000000000000000e+01 7.326772689819335938e+00 1.130320549011230469e+00 6.023620371706783772e-04 -8.693063864484429359e-05 1.546294224681332707e-04 6.528832454932853580e-05
4.100000000000000000e+01 1.327359962463378906e+01 -1.971722364425659180e+00 2.924578984675463289e-05 -1.523130231362301856e-05 4.204346168990014121e-06 -5.009579763282090425e-05
4.200000000000000000e+01 1.363681793212890625e+01 -3.379556179046630859e+00 -6.484695768449455500e-05 4.788232399732805789e-05 -5.089390924695180729e-06 4.809896563529036939e-05
4.300000000000000000e+01 1.200581741333007812e+01 -7.570612907409667969e+00 2.999480348080396652e-04 3.340233524795621634e-04 1.901914220070466399e-04 4.319726485846331343e-06
4.400000000000000000e+01 8.273228645324707031e+00 -1.273962593078613281e+01 2.975216601043939590e-03 5.704837385565042496e-03 2.604016335681080818e-03 1.181499566882848740e-03
4.500000000000000000e+01 7.128964900970458984e+00 -1.584932136535644531e+01 -9.942874312400817871e-03 -1.053233817219734192e-01 -3.457987681031227112e-02 4.356690496206283569e-02
4.600000000000000000e+01 7.503604888916015625e+00 -1.417509365081787109e+01 4.871066194027662277e-03 -1.345379278063774109e-03 1.057706191204488277e-03 9.817749960348010063e-04
4.700000000000000000e+01 1.098591423034667969e+01 -1.861728310585021973e+00 3.829642810160294175e-05 7.817006553523242474e-05 3.493994881864637136e-05 2.190907434851396829e-05
4.800000000000000000e+01 3.756292343139648438e+00 -1.797247529029846191e+00 2.094057563226670027e-04 -1.084747636923566461e-04 3.027929415111429989e-05 -1.572868313814979047e-05
4.900000000000000000e+01 3.500824868679046631e-01 -1.152701473236083984e+01 -1.269866595976054668e-03 3.495860146358609200e-03 6.677981000393629074e-04 -4.535582265816628933e-04
5.000000000000000000e+01 6.486119747161865234e+00 -1.679129981994628906e+01 -1.798154413700103760e-01 6.020167097449302673e-02 -3.588413074612617493e-02 9.146666526794433594e-02
5.100000000000000000e+01 1.177233576774597168e+00 -2.662080764770507812e+01 7.285675033926963806e-03 2.687856182456016541e-02 1.024927105754613876e-02 8.791634440422058105e-02
5.200000000000000000e+01 1.226498007774353027e+00 -3.476389312744140625e+01 -3.967172931879758835e-03 6.620510816574096680e-01 1.974251717329025269e-01 8.358236402273178101e-02
5.300000000000000000e+01 1.871892213821411133e+00 -4.095959472656250000e+01 9.331272915005683899e-03 9.345441460609436035e-01 2.831626236438751221e-01 7.569335866719484329e-03
5.400000000000000000e+01 3.900514543056488037e-01 -3.642658615112304688e+01 -4.900214727967977524e-03 6.104466915130615234e-01 1.816639453172683716e-01 2.201382629573345184e-02
5.500000000000000000e+01 5.939363479614257812e+00 -3.983370590209960938e+01 -1.557744592428207397e-01 1.882957935333251953e+00 5.181550383567810059e-01 1.504258662462234497e-01
5.600000000000000000e+01 8.486212730407714844e+00 -3.566158676147460938e+01 -2.135178893804550171e-01 2.396358728408813477e+00 6.548522710800170898e-01 2.974759042263031006e-01
5.700000000000000000e+01 7.473164081573486328e+00 -3.160784339904785156e+01 -1.286424845457077026e-01 2.006270408630371094e+00 5.632883310317993164e-01 4.747533202171325684e-01
5.800000000000000000e+01 8.571619033813476562e+00 -2.155139732360839844e+01 4.554340243339538574e-01 1.237015008926391602e+00 5.077347159385681152e-01 8.658149242401123047e-01
5.900000000000000000e+01 9.708702087402343750e+00 -1.922019767761230469e+01 6.847020387649536133e-01 1.283764362335205078e+00 5.905399322509765625e-01 1.205469250679016113e+00
6.000000000000000000e+01 8.543664932250976562e+00 -1.802989387512207031e+01 1.672561913728713989e-01 -2.865527570247650146e-02 4.158027470111846924e-02 4.054751992225646973e-01
6.100000000000000000e+01 7.915440082550048828e+00 -1.776222038269042969e+01 -2.950355410575866699e-01 -2.854719758033752441e-01 -1.741522550582885742e-01 2.623248696327209473e-01
6.200000000000000000e+01 6.470950126647949219e+00 -1.466138839721679688e+01 -1.752012595534324646e-02 -1.863850839436054230e-02 -1.084758993238210678e-02 3.069729544222354889e-02
6.300000000000000000e+01 1.775422573089599609e+00 -1.543933677673339844e+01 -1.796236820518970490e-02 -1.175691466778516769e-02 -8.915784768760204315e-03 -3.776423633098602295e-02
6.400000000000000000e+01 7.224499702453613281e+00 -1.757651519775390625e+01 -2.016219347715377808e-01 -1.064497679471969604e-01 -9.242150932550430298e-02 1.362283378839492798e-01
6.500000000000000000e+01 1.791467285156250000e+01 -4.049329376220703125e+01 -7.558617591857910156e-01 4.732045650482177734e+00 1.192855119705200195e+00 8.738248050212860107e-02
6.600000000000000000e+01 1.444194030761718750e+01 -3.329589462280273438e+01 -5.158565044403076172e-01 3.922650098800659180e+00 1.022038102149963379e+00 5.490252375602722168e-01
6.700000000000000000e+01 1.477116775512695312e+01 -2.039822578430175781e+01 1.269313842058181763e-01 4.444524765014648438e+00 1.371436834335327148e+00 1.462064981460571289e+00
6.800000000000000000e+01 1.212760066986083984e+01 -1.587600898742675781e+01 1.755655527114868164e+00 2.466017246246337891e+00 1.266501903533935547e+00 2.069907903671264648e+00
6.900000000000000000e+01 1.649361801147460938e+01 -1.007010078430175781e+01 2.108517408370971680e+00 7.107740879058837891e+00 2.764877557754516602e+00 3.905591726303100586e+00
7.000000000000000000e+01 1.428751945495605469e+01 -1.346634483337402344e+01 2.362986803054809570e+00 4.673894882202148438e+00 2.111064434051513672e+00 3.198085308074951172e+00
7.100000000000000000e+01 1.377633380889892578e+01 -1.409708690643310547e+01 2.353626728057861328e+00 3.993486642837524414e+00 1.904134035110473633e+00 2.950864791870117188e+00
7.200000000000000000e+01 1.323765087127685547e+01 -1.470305728912353516e+01 2.200729131698608398e+00 3.292866230010986328e+00 1.648078680038452148e+00 2.624620676040649414e+00
7.300000000000000000e+01 1.325633049011230469e+01 -1.582148075103759766e+01 1.569255113601684570e+00 3.458176136016845703e+00 1.508229374885559082e+00 2.306557655334472656e+00
7.400000000000000000e+01 2.275642967224121094e+01 -4.055302429199218750e+01 -9.434819221496582031e-01 5.784969806671142578e+00 1.452446341514587402e+00 4.901938140392303467e-02
7.500000000000000000e+01 1.908497047424316406e+01 -3.667889022827148438e+01 -7.843744158744812012e-01 5.029911041259765625e+00 1.273661017417907715e+00 2.519347667694091797e-01
7.600000000000000000e+01 2.022798919677734375e+01 -3.327167129516601562e+01 -8.048219084739685059e-01 5.454765319824218750e+00 1.394983053207397461e+00 3.635783791542053223e-01
7.700000000000000000e+01 1.926362419128417969e+01 -2.351128768920898438e+01 -5.136612653732299805e-01 5.869106769561767578e+00 1.606633663177490234e+00 8.649098873138427734e-01
7.800000000000000000e+01 1.894833374023437500e+01 -1.573862838745117188e+01 3.885606527328491211e-01 6.998748302459716797e+00 2.216192722320556641e+00 1.472892522811889648e+00
7.900000000000000000e+01 1.988863945007324219e+01 -8.796206474304199219e+00 1.429600119590759277e+00 1.046783828735351562e+01 3.569231510162353516e+00 1.869085550308227539e+00
8.000000000000000000e+01 2.050280380249023438e+01 -1.520922183990478516e+00 4.321843385696411133e-01 1.253647518157958984e+01 3.890597820281982422e+00 5.295131802558898926e-01
8.100000000000000000e+01 1.951843452453613281e+01 3.392114639282226562e+00 5.861813426017761230e-01 1.287915134429931641e+01 4.039599895477294922e+00 -7.769699692726135254e-01
8.200000000000000000e+01 1.849359321594238281e+01 1.158069229125976562e+01 1.433879494667053223e+00 1.004392719268798828e+01 3.443341970443725586e+00 -2.589108705520629883e+00
8.300000000000000000e+01 2.011178588867187500e+01 1.526463031768798828e+01 8.137981891632080078e-01 8.128256797790527344e+00 2.682616472244262695e+00 -1.202472090721130371e+00
8.400000000000000000e+01 2.293383216857910156e+01 2.412362480163574219e+01 -5.728151798248291016e-01 6.894770145416259766e+00 1.896586418151855469e+00 -3.792089819908142090e-01
8.500000000000000000e+01 2.232983207702636719e+01 3.221828460693359375e+01 -9.036707878112792969e-01 6.146047592163085938e+00 1.572713136672973633e+00 -2.736913263797760010e-01
8.600000000000000000e+01 1.790875816345214844e+01 4.042180252075195312e+01 -7.949262261390686035e-01 4.856665134429931641e+00 1.218521714210510254e+00 -9.744406491518020630e-02
8.700000000000000000e+01 2.280308341979980469e+01 4.031594848632812500e+01 -9.778550267219543457e-01 5.867168426513671875e+00 1.466794013977050781e+00 -6.581971794366836548e-02
8.800000000000000000e+01 1.333656692504882812e+01 4.056596374511718750e+01 -5.212402939796447754e-01 3.563715219497680664e+00 9.127424955368041992e-01 -1.063025146722793579e-01
8.900000000000000000e+01 1.789946174621582031e+01 3.665284729003906250e+01 -7.729148864746093750e-01 4.889926433563232422e+00 1.235103487968444824e+00 -3.072443902492523193e-01
9.000000000000000000e+01 1.634078025817871094e+01 2.889985466003417969e+01 -5.198290944099426270e-01 4.683185100555419922e+00 1.249006748199462891e+00 -8.218910098075866699e-01
9.100000000000000000e+01 1.415301609039306641e+01 2.251084327697753906e+01 6.503280997276306152e-02 4.038640499114990234e+00 1.231101989746093750e+00 -1.501238107681274414e+00
9.200000000000000000e+01 1.157488346099853516e+01 1.803624343872070312e+01 1.707672357559204102e+00 1.075336456298828125e+00 8.349026441574096680e-01 -1.287272930145263672e+00
9.300000000000000000e+01 1.357381534576416016e+01 1.655126190185546875e+01 2.656291007995605469e+00 3.166926622390747070e+00 1.746965289115905762e+00 -2.785195112228393555e+00
9.400000000000000000e+01 1.630655097961425781e+01 1.436389350891113281e+01 2.270531177520751953e+00 7.380186080932617188e+00 2.895215272903442383e+00 -3.352631092071533203e+00
9.500000000000000000e+01 1.471381950378417969e+01 1.537264060974121094e+01 3.091691970825195312e+00 5.053741455078125000e+00 2.443629980087280273e+00 -3.749033451080322266e+00
9.600000000000000000e+01 2.146267700195312500e+01 1.600844383239746094e+01 5.797540545463562012e-01 8.079389572143554688e+00 2.597743272781372070e+00 -8.112735152244567871e-01
9.700000000000000000e+01 2.779500579833984375e+01 -4.019374847412109375e+01 -1.020458936691284180e+00 6.611021995544433594e+00 1.677168846130371094e+00 1.032548770308494568e-02
9.800000000000000000e+01 2.743358230590820312e+01 -3.609728240966796875e+01 -9.957685470581054688e-01 6.628060817718505859e+00 1.689687609672546387e+00 4.907787218689918518e-02
9.900000000000000000e+01 2.630151557922363281e+01 -3.283587646484375000e+01 -9.521148800849914551e-01 6.569256782531738281e+00 1.685142517089843750e+00 1.065372750163078308e-01
1.000000000000000000e+02 2.904255485534667969e+01 -2.190794181823730469e+01 -4.415440559387207031e-01 7.524505138397216797e+00 2.124888181686401367e+00 -1.630914658308029175e-01
1.010000000000000000e+02 2.691955184936523438e+01 -1.435968112945556641e+01 3.818064928054809570e-01 8.177746772766113281e+00 2.567866086959838867e+00 -1.230239644646644592e-01
1.020000000000000000e+02 2.667889976501464844e+01 -1.259978389739990234e+01 6.312208771705627441e-01 8.361403465270996094e+00 2.697787284851074219e+00 -9.311968088150024414e-02
1.030000000000000000e+02 2.655839920043945312e+01 -4.135339260101318359e+00 1.623500347137451172e+00 9.305476188659667969e+00 3.278692960739135742e+00 2.071158736944198608e-01
1.040000000000000000e+02 2.640807342529296875e+01 3.724597454071044922e+00 1.388844013214111328e+00 9.550476074218750000e+00 3.281796216964721680e+00 -9.285058826208114624e-02
1.050000000000000000e+02 2.740170669555664062e+01 1.009994983673095703e+01 1.139151692390441895e+00 8.712000846862792969e+00 2.955345869064331055e+00 2.048655040562152863e-02
1.060000000000000000e+02 2.978889274597167969e+01 1.388893795013427734e+01 6.667788028717041016e-01 8.187764167785644531e+00 2.656363010406494141e+00 3.032067418098449707e-01
1.070000000000000000e+02 2.884102630615234375e+01 2.501939582824707031e+01 -5.790972709655761719e-01 7.476419925689697266e+00 2.069196701049804688e+00 1.413431763648986816e-01
1.080000000000000000e+02 2.766903877258300781e+01 3.625093460083007812e+01 -1.015026688575744629e+00 6.806548595428466797e+00 1.737456560134887695e+00 -1.328957546502351761e-02
1.090000000000000000e+02 3.282302856445312500e+01 3.997464370727539062e+01 -1.026008844375610352e+00 7.288156509399414062e+00 1.878644347190856934e+00 3.945116698741912842e-02
1.100000000000000000e+02 2.779429244995117188e+01 4.013842391967773438e+01 -1.061662673950195312e+00 6.774684906005859375e+00 1.713906645774841309e+00 2.992588095366954803e-03
1.110000000000000000e+02 3.790316009521484375e+01 -4.047174453735351562e+01 -9.167438745498657227e-01 7.532592773437500000e+00 1.984754681587219238e+00 -5.476104468107223511e-02
1.120000000000000000e+02 3.495740127563476562e+01 -2.405798339843750000e+01 -4.753761887550354004e-01 7.652935028076171875e+00 2.153267621994018555e+00 -3.848044276237487793e-01
1.130000000000000000e+02 3.540700531005859375e+01 -1.403813648223876953e+01 4.365775585174560547e-01 7.885786533355712891e+00 2.496709108352661133e+00 -5.298252701759338379e-01
1.140000000000000000e+02 3.279455947875976562e+01 -7.578794002532958984e+00 1.147610783576965332e+00 8.139644622802734375e+00 2.786176443099975586e+00 -3.353281319141387939e-01
1.150000000000000000e+02 3.564500427246093750e+01 -5.549214363098144531e+00 1.166340589523315430e+00 7.959123134613037109e+00 2.737639188766479492e+00 -2.897568047046661377e-01
1.160000000000000000e+02 3.282660293579101562e+01 4.282612323760986328e+00 1.348506808280944824e+00 8.282485008239746094e+00 2.889297485351562500e+00 1.541527658700942993e-01
1.170000000000000000e+02 3.328245544433593750e+01 9.648753166198730469e+00 1.027038335800170898e+00 8.135700225830078125e+00 2.748821496963500977e+00 3.367943465709686279e-01
1.180000000000000000e+02 3.386197662353515625e+01 1.561744594573974609e+01 4.412366151809692383e-01 7.966873168945312500e+00 2.522432804107666016e+00 4.815054833889007568e-01
1.190000000000000000e+02 3.455010223388671875e+01 2.328088569641113281e+01 -3.265163302421569824e-01 7.745123386383056641e+00 2.225582122802734375e+00 4.314094483852386475e-01
1.200000000000000000e+02 3.775912475585937500e+01 4.024254608154296875e+01 -9.230043888092041016e-01 7.632962703704833984e+00 2.012987375259399414e+00 6.336361169815063477e-02
1.210000000000000000e+02 4.276356124877929688e+01 -4.069110107421875000e+01 -7.803938388824462891e-01 7.718513011932373047e+00 2.081435680389404297e+00 -4.914923757314682007e-02
1.220000000000000000e+02 3.899779129028320312e+01 -3.634784698486328125e+01 -8.459025025367736816e-01 7.585527896881103516e+00 2.021887540817260742e+00 -1.579804867506027222e-01
1.230000000000000000e+02 4.039410018920898438e+01 -3.206709671020507812e+01 -7.048985958099365234e-01 7.674874782562255859e+00 2.090992927551269531e+00 -2.873074114322662354e-01
1.240000000000000000e+02 4.029437255859375000e+01 -2.430811500549316406e+01 -3.544707298278808594e-01 7.756473064422607422e+00 2.220600843429565430e+00 -4.785173237323760986e-01
1.250000000000000000e+02 4.329158020019531250e+01 -1.503836631774902344e+01 2.882784903049468994e-01 7.733658790588378906e+00 2.406581163406372070e+00 -5.481903553009033203e-01
1.260000000000000000e+02 4.288649749755859375e+01 -9.354062080383300781e+00 6.557249426841735840e-01 7.690181255340576172e+00 2.503771781921386719e+00 -4.313863515853881836e-01
1.270000000000000000e+02 4.186495590209960938e+01 -1.718042373657226562e+00 9.872955083847045898e-01 7.684481620788574219e+00 2.601533174514770508e+00 -1.213502436876296997e-01
1.280000000000000000e+02 4.288252258300781250e+01 8.284218311309814453e-01 9.553892016410827637e-01 7.661823749542236328e+00 2.585163831710815430e+00 3.409996163100004196e-03
1.290000000000000000e+02 4.093594741821289062e+01 1.066532135009765625e+01 6.949776411056518555e-01 7.757700443267822266e+00 2.535803556442260742e+00 4.220181107521057129e-01
1.300000000000000000e+02 4.606634902954101562e+01 1.697870826721191406e+01 2.240839451551437378e-01 7.740337371826171875e+00 2.389326333999633789e+00 4.959170818328857422e-01
1.310000000000000000e+02 4.326755905151367188e+01 2.493867301940917969e+01 -2.662334442138671875e-01 7.816588401794433594e+00 2.265106439590454102e+00 4.728782474994659424e-01
1.320000000000000000e+02 4.021944808959960938e+01 3.149746704101562500e+01 -6.619777083396911621e-01 7.758399009704589844e+00 2.128926277160644531e+00 3.218980729579925537e-01
1.330000000000000000e+02 4.263964843750000000e+01 4.051642227172851562e+01 -7.731956839561462402e-01 7.809784412384033203e+00 2.110976457595825195e+00 6.310844421386718750e-02
1.340000000000000000e+02 4.761766052246093750e+01 -4.086743545532226562e+01 -6.382029652595520020e-01 7.833570480346679688e+00 2.158610105514526367e+00 -4.816296324133872986e-02
1.350000000000000000e+02 4.796324157714843750e+01 -3.753273391723632812e+01 -5.997849106788635254e-01 7.836152076721191406e+00 2.170910120010375977e+00 -1.533321291208267212e-01
1.360000000000000000e+02 5.271134185791015625e+01 -2.171806144714355469e+01 -6.694468855857849121e-02 7.772246360778808594e+00 2.311590433120727539e+00 -4.507340192794799805e-01
1.370000000000000000e+02 5.028712081909179688e+01 -1.670375251770019531e+01 1.340583115816116333e-01 7.714414596557617188e+00 2.354541778564453125e+00 -4.821294546127319336e-01
1.380000000000000000e+02 4.935470199584960938e+01 -1.053832435607910156e+01 4.198361933231353760e-01 7.641706943511962891e+00 2.418462991714477539e+00 -4.041056931018829346e-01
1.390000000000000000e+02 4.723342132568359375e+01 -4.009023666381835938e+00 7.124294638633728027e-01 7.599928855895996094e+00 2.493707656860351562e+00 -2.084332853555679321e-01
1.400000000000000000e+02 4.722308349609375000e+01 3.585092544555664062e+00 7.328317761421203613e-01 7.596887111663818359e+00 2.498915672302246094e+00 1.121126338839530945e-01
1.410000000000000000e+02 5.020251083374023438e+01 9.561985969543457031e+00 4.813162386417388916e-01 7.622820854187011719e+00 2.431241035461425781e+00 2.976625561714172363e-01
1.420000000000000000e+02 4.885448074340820312e+01 1.533131313323974609e+01 2.728137671947479248e-01 7.701126575469970703e+00 2.392182111740112305e+00 4.411778151988983154e-01
1.430000000000000000e+02 4.872030258178710938e+01 2.663055419921875000e+01 -2.602586746215820312e-01 7.829435348510742188e+00 2.270752906799316406e+00 4.233875870704650879e-01
1.440000000000000000e+02 4.834751892089843750e+01 2.990275764465332031e+01 -3.939110338687896729e-01 7.855233192443847656e+00 2.238396644592285156e+00 3.577913343906402588e-01
1.450000000000000000e+02 4.751794052124023438e+01 4.069948577880859375e+01 -6.157615780830383301e-01 7.885917186737060547e+00 2.181046724319458008e+00 5.444682762026786804e-02
1.460000000000000000e+02 5.238479614257812500e+01 4.077252197265625000e+01 -4.709210693836212158e-01 7.906739234924316406e+00 2.230745315551757812e+00 4.670980200171470642e-02
1.470000000000000000e+02 6.210142898559570312e+01 -4.095242309570312500e+01 -2.418002784252166748e-01 7.924049377441406250e+00 2.304674625396728516e+00 -3.332702070474624634e-02
1.480000000000000000e+02 5.729322052001953125e+01 -4.096075439453125000e+01 -3.562534451484680176e-01 7.907099246978759766e+00 2.265253782272338867e+00 -3.790584206581115723e-02
1.490000000000000000e+02 5.637251663208007812e+01 -3.017909049987792969e+01 -2.733132243156433105e-01 7.859478473663330078e+00 2.275849580764770508e+00 -3.010637164115905762e-01
1.500000000000000000e+02 5.716210937500000000e+01 -2.363791084289550781e+01 -9.439078718423843384e-02 7.792202472686767578e+00 2.309343576431274414e+00 -3.882257044315338135e-01
1.510000000000000000e+02 5.890145111083984375e+01 -1.662515830993652344e+01 8.368597179651260376e-02 7.707305908203125000e+00 2.337297439575195312e+00 -3.719996511936187744e-01
1.520000000000000000e+02 5.894594192504882812e+01 -1.021153831481933594e+01 2.262435406446456909e-01 7.630452632904052734e+00 2.357008934020996094e+00 -2.885186970233917236e-01
1.530000000000000000e+02 5.920096588134765625e+01 -4.977241039276123047e+00 3.039776980876922607e-01 7.586307048797607422e+00 2.367085456848144531e+00 -1.706648916006088257e-01
1.540000000000000000e+02 5.873278808593750000e+01 3.315035581588745117e+00 3.364703953266143799e-01 7.573268413543701172e+00 2.372921705245971680e+00 6.246222183108329773e-02
1.550000000000000000e+02 5.958141708374023438e+01 9.772195816040039062e+00 2.420445978641510010e-01 7.612541675567626953e+00 2.356375932693481445e+00 2.149168848991394043e-01
1.560000000000000000e+02 5.705219650268554688e+01 1.582765769958496094e+01 1.511092782020568848e-01 7.681691169738769531e+00 2.349840164184570312e+00 3.429757058620452881e-01
1.570000000000000000e+02 5.781072998046875000e+01 2.622445106506347656e+01 -1.283359378576278687e-01 7.809448242187500000e+00 2.304333686828613281e+00 3.297933042049407959e-01
1.580000000000000000e+02 5.523825836181640625e+01 2.991536140441894531e+01 -2.535502314567565918e-01 7.854011535644531250e+00 2.280138492584228516e+00 3.034936189651489258e-01
1.590000000000000000e+02 5.724039459228515625e+01 4.073516082763671875e+01 -3.396674394607543945e-01 7.903568744659423828e+00 2.269170284271240234e+00 4.401309415698051453e-02
1.600000000000000000e+02 6.387310028076171875e+01 -3.424146270751953125e+01 -1.724389046430587769e-01 7.906038284301757812e+00 2.320079803466796875e+00 -1.696052253246307373e-01
1.610000000000000000e+02 6.438437652587890625e+01 -2.435909080505371094e+01 -5.926780030131340027e-02 7.808840751647949219e+00 2.324872016906738281e+00 -2.974540889263153076e-01
1.620000000000000000e+02 6.602526092529296875e+01 -1.613763046264648438e+01 4.753566905856132507e-02 7.702367305755615234e+00 2.324970960617065430e+00 -2.778093516826629639e-01
1.630000000000000000e+02 6.772812652587890625e+01 -1.173526668548583984e+01 7.857217639684677124e-02 7.642648696899414062e+00 2.316366195678710938e+00 -2.171437293291091919e-01
1.640000000000000000e+02 6.758562469482421875e+01 -4.253923416137695312e+00 1.261218637228012085e-01 7.573259830474853516e+00 2.309814453125000000e+00 -1.057110577821731567e-01
1.650000000000000000e+02 6.676300048828125000e+01 4.667060375213623047e+00 1.427031606435775757e-01 7.568269252777099609e+00 2.313291788101196289e+00 6.539840251207351685e-02
1.660000000000000000e+02 6.574368286132812500e+01 1.221812725067138672e+01 1.081642955541610718e-01 7.624694824218750000e+00 2.319857597351074219e+00 1.993167847394943237e-01
1.670000000000000000e+02 6.633337402343750000e+01 1.987519073486328125e+01 1.677372492849826813e-02 7.712934494018554688e+00 2.318912506103515625e+00 2.497934848070144653e-01
1.680000000000000000e+02 6.699943542480468750e+01 2.285013198852539062e+01 -1.548944972455501556e-02 7.749766349792480469e+00 2.320283174514770508e+00 2.430272102355957031e-01
1.690000000000000000e+02 6.349621963500976562e+01 2.763798141479492188e+01 -9.533379971981048584e-02 7.811572074890136719e+00 2.314871549606323242e+00 2.523028254508972168e-01
1.700000000000000000e+02 6.211383438110351562e+01 4.053895187377929688e+01 -2.212613373994827271e-01 7.895267009735107422e+00 2.302201747894287109e+00 4.233526438474655151e-02
1.710000000000000000e+02 6.706863403320312500e+01 3.744604492187500000e+01 -1.255465447902679443e-01 7.889904022216796875e+00 2.329307317733764648e+00 8.701055496931076050e-02
1.720000000000000000e+02 6.687144470214843750e+01 -4.085426712036132812e+01 -1.394187361001968384e-01 7.952387809753417969e+00 2.343890666961669922e+00 -3.109539672732353210e-02
1.730000000000000000e+02 7.079767608642578125e+01 -3.825233840942382812e+01 -7.957276701927185059e-02 7.984299659729003906e+00 2.371417999267578125e+00 -6.117835640907287598e-02
1.740000000000000000e+02 7.273971557617187500e+01 -2.955345344543457031e+01 -3.004902414977550507e-02 7.928675174713134766e+00 2.369587898254394531e+00 -1.388554126024246216e-01
1.750000000000000000e+02 7.380509948730468750e+01 -2.159588623046875000e+01 -5.306751001626253128e-03 7.795772075653076172e+00 2.337139606475830078e+00 -1.596063375473022461e-01
1.760000000000000000e+02 7.276178741455078125e+01 -1.504554843902587891e+01 1.895997487008571625e-02 7.670855998992919922e+00 2.306944847106933594e+00 -1.691955626010894775e-01
1.770000000000000000e+02 7.355812835693359375e+01 -9.268534660339355469e+00 3.106708638370037079e-02 7.570957183837890625e+00 2.280607223510742188e+00 -1.165172830224037170e-01
1.780000000000000000e+02 7.358232116699218750e+01 -2.814846277236938477e+00 4.048769176006317139e-02 7.505375862121582031e+00 2.263759136199951172e+00 -4.916300624608993530e-02
1.790000000000000000e+02 7.356340789794921875e+01 2.788141489028930664e+00 4.118538275361061096e-02 7.494400978088378906e+00 2.260675907135009766e+00 1.707579568028450012e-02
1.800000000000000000e+02 7.255445861816406250e+01 1.116087818145751953e+01 3.702793270349502563e-02 7.568531036376953125e+00 2.281667709350585938e+00 1.151318922638893127e-01
1.810000000000000000e+02 7.405180358886718750e+01 1.565991115570068359e+01 1.482617296278476715e-02 7.615567207336425781e+00 2.289118051528930664e+00 1.246471926569938660e-01
1.820000000000000000e+02 7.217771148681640625e+01 2.330365753173828125e+01 -7.776841986924409866e-03 7.750761032104492188e+00 2.322895288467407227e+00 1.653791368007659912e-01
1.830000000000000000e+02 7.467890930175781250e+01 3.782361602783203125e+01 -2.471919730305671692e-02 7.955114841461181641e+00 2.379118680953979492e+00 3.992848470807075500e-02
1.840000000000000000e+02 7.304111480712890625e+01 3.822348022460937500e+01 -4.475168883800506592e-02 7.929389953613281250e+00 2.365391492843627930e+00 4.595169052481651306e-02
1.850000000000000000e+02 7.860640716552734375e+01 -3.721186065673828125e+01 -5.227100919000804424e-04 8.157081604003906250e+00 2.446967601776123047e+00 -1.327685452997684479e-02
1.860000000000000000e+02 7.865229797363281250e+01 -3.799459075927734375e+01 4.137661380809731781e-05 8.161810874938964844e+00 2.448555707931518555e+00 -1.160210929811000824e-02
1.870000000000000000e+02 7.886624145507812500e+01 -3.092588996887207031e+01 -1.146967173554003239e-03 8.061844825744628906e+00 2.418209552764892578e+00 -2.680193074047565460e-02
1.880000000000000000e+02 7.887242126464843750e+01 -2.375750923156738281e+01 -5.021024262532591820e-04 7.877481937408447266e+00 2.363093852996826172e+00 -3.519333526492118835e-02
1.890000000000000000e+02 7.890557861328125000e+01 -1.654069519042968750e+01 3.330711624585092068e-04 7.662716388702392578e+00 2.298914909362792969e+00 -3.477543592453002930e-02
1.900000000000000000e+02 7.891112518310546875e+01 -9.323051452636718750e+00 1.213319832459092140e-03 7.475894451141357422e+00 2.243132352828979492e+00 -2.513865754008293152e-02
1.910000000000000000e+02 7.890959930419921875e+01 -2.906769752502441406e+00 1.562848570756614208e-03 7.377038955688476562e+00 2.213580608367919922e+00 -1.081831101328134537e-02
1.920000000000000000e+02 7.890116882324218750e+01 4.309227466583251953e+00 1.583224628120660782e-03 7.368052959442138672e+00 2.210890769958496094e+00 7.503656670451164246e-03
1.930000000000000000e+02 7.888838195800781250e+01 1.152499961853027344e+01 1.064844080246984959e-03 7.464735031127929688e+00 2.239740133285522461e+00 2.328900992870330811e-02
1.940000000000000000e+02 7.886426544189453125e+01 1.874047470092773438e+01 3.974699939135462046e-04 7.634029865264892578e+00 2.290328264236450195e+00 3.201324865221977234e-02
1.950000000000000000e+02 7.881301116943359375e+01 2.675803184509277344e+01 -2.391770831309258938e-04 7.843107223510742188e+00 2.352860450744628906e+00 3.168332949280738831e-02
1.960000000000000000e+02 7.867709350585937500e+01 3.322908782958984375e+01 -1.754189492203295231e-03 7.977306842803955078e+00 2.392665863037109375e+00 2.261796593666076660e-02
1.970000000000000000e+02 7.903184509277343750e+01 3.797390365600585938e+01 1.021286705508828163e-03 8.044602394104003906e+00 2.413687229156494141e+00 8.832537569105625153e-03
1.980000000000000000e+02 7.959983825683593750e+01 3.649962615966796875e+01 -1.082402304746210575e-03 8.044084548950195312e+00 2.412900686264038086e+00 4.940288607031106949e-03
1.990000000000000000e+02 1.020370292663574219e+01 3.952788925170898438e+01 -3.503626286983489990e-01 2.731623411178588867e+00 7.143782377243041992e-01 -1.455652564764022827e-01
2.000000000000000000e+02 8.467260360717773438e+00 3.782688522338867188e+01 -2.282671779394149780e-01 2.184086799621582031e+00 5.867458581924438477e-01 -2.691788971424102783e-01
2.010000000000000000e+02 7.654943466186523438e+00 3.165545654296875000e+01 -6.541141122579574585e-02 1.864312887191772461e+00 5.396704077720642090e-01 -4.787794351577758789e-01
2.020000000000000000e+02 9.249212265014648438e+00 2.134505081176757812e+01 5.743284821510314941e-01 9.284332394599914551e-01 4.508285224437713623e-01 -8.257655501365661621e-01
2.030000000000000000e+02 9.163371086120605469e+00 1.863826370239257812e+01 -2.308829128742218018e-01 -1.148004308342933655e-01 -1.037050038576126099e-01 -3.205296397209167480e-01
2.040000000000000000e+02 9.975935935974121094e+00 1.859549331665039062e+01 4.302130341529846191e-01 2.456089705228805542e-01 2.027465999126434326e-01 -4.359137713909149170e-01
2.050000000000000000e+02 1.080032253265380859e+01 1.838438415527343750e+01 1.172549009323120117e+00 6.205621361732482910e-01 5.379333496093750000e-01 -8.471531867980957031e-01
2.060000000000000000e+02 1.394100904464721680e+00 3.726364517211914062e+01 -1.615788601338863373e-02 5.461064577102661133e-01 1.589845567941665649e-01 -3.941323608160018921e-02
2.070000000000000000e+02 1.208863973617553711e+00 3.881002426147460938e+01 -7.410669699311256409e-03 5.534744858741760254e-01 1.638191342353820801e-01 -4.175135493278503418e-02
2.080000000000000000e+02 2.216607809066772461e+00 3.552136230468750000e+01 -1.994175091385841370e-02 6.757701635360717773e-01 1.967485249042510986e-01 -1.238320916891098022e-01
2.090000000000000000e+02 1.124165058135986328e+00 2.919972038269042969e+01 4.413031507283449173e-03 -1.552565395832061768e-02 -3.333786735311150551e-03 -8.079742640256881714e-02
2.100000000000000000e+02 3.596802949905395508e-01 2.041055870056152344e+01 -6.988075328990817070e-04 -2.736316621303558350e-01 -8.229914307594299316e-02 2.275447733700275421e-02
2.110000000000000000e+02 1.103316903114318848e+00 1.730063629150390625e+01 -8.165732957422733307e-03 -5.926964804530143738e-02 -2.023061364889144897e-02 4.456727206707000732e-02
2.120000000000000000e+02 3.723958134651184082e-01 6.755627155303955078e+00 -6.292582256719470024e-04 2.106770873069763184e-03 4.432538116816431284e-04 -2.668923116289079189e-04
2.130000000000000000e+02 6.556293010711669922e+00 1.852468729019165039e+00 4.780608869623392820e-04 -1.597862428752705455e-04 9.548239177092909813e-05 2.515361666155513376e-05
2.140000000000000000e+02 8.875294685363769531e+00 1.844951987266540527e+00 5.519474507309496403e-04 -1.419142881786683574e-05 1.613268104847520590e-04 1.357471483061090112e-04
2.150000000000000000e+02 1.041685390472412109e+01 1.826576232910156250e+00 3.952599072363227606e-04 5.058814349467866123e-05 1.337544090347364545e-04 2.054321084870025516e-04
2.160000000000000000e+02 1.424170398712158203e+01 3.242545127868652344e+00 -1.232645008713006973e-04 1.601452095201238990e-04 1.106421314034378156e-05 1.096884152502752841e-04
2.170000000000000000e+02 1.441187763214111328e+01 7.159228801727294922e+00 -2.584756293799728155e-04 6.443542079068720341e-04 1.157635779236443341e-04 -2.205188211519271135e-04
2.180000000000000000e+02 1.136710834503173828e+01 1.160965442657470703e+01 -3.657056658994406462e-04 2.687210915610194206e-03 6.964515778236091137e-04 -9.903310565277934074e-04
2.190000000000000000e+02 1.239245700836181641e+01 1.141000556945800781e+01 2.622903557494282722e-04 1.979456050321459770e-03 6.725239218212664127e-04 -1.237087533809244633e-03
2.200000000000000000e+02 1.193949222564697266e+01 1.204534149169921875e+01 1.051421975716948509e-03 2.404479077085852623e-03 1.036770292557775974e-03 -1.462789019569754601e-03
2.210000000000000000e+02 8.732236862182617188e+00 1.535730648040771484e+01 6.432797294110059738e-03 -1.785105210728943348e-03 1.394307706505060196e-03 -6.618712563067674637e-03
2.220000000000000000e+02 7.378952503204345703e+00 1.748278999328613281e+01 -1.987000852823257446e-01 -1.213007122278213501e-01 -9.600023925304412842e-02 -1.526022255420684814e-01
2.230000000000000000e+02 1.078191995620727539e+00 1.809989738464355469e+01 -7.902480661869049072e-03 -8.758999407291412354e-02 -2.864774316549301147e-02 5.479691177606582642e-02
2.240000000000000000e+02 4.228137493133544922e+00 2.603307962417602539e+00 2.808265562634915113e-04 -1.289061328861862421e-04 4.557612919597886503e-05 -2.659441379364579916e-04
2.250000000000000000e+02 1.643831062316894531e+01 1.259743309020996094e+01 1.926461935043334961e+00 8.648213386535644531e+00 3.172402620315551758e+00 -3.955940246582031250e+00
2.260000000000000000e+02 1.878314971923828125e+01 8.195964813232421875e+00 9.277957677841186523e-01 1.218145847320556641e+01 3.932776451110839844e+00 -2.472475767135620117e+00
2.270000000000000000e+02 1.886376571655273438e+01 1.264906501770019531e+01 1.354470610618591309e+00 9.271877288818359375e+00 3.187904357910156250e+00 -2.222083806991577148e+00
2.280000000000000000e+02 1.789994049072265625e+01 8.829522132873535156e+00 1.011829018592834473e+00 1.317031002044677734e+01 4.254641532897949219e+00 -2.951026439666748047e+00
2.290000000000000000e+02 1.860367965698242188e+01 4.881585121154785156e+00 2.919803559780120850e-01 1.367189693450927734e+01 4.189163208007812500e+00 -1.452820539474487305e+00
2.300000000000000000e+02 2.002042961120605469e+01 5.982219696044921875e+00 8.321912884712219238e-01 1.214892005920410156e+01 3.894333600997924805e+00 -1.307417988777160645e+00
2.310000000000000000e+02 1.878526878356933594e+01 -1.566826343536376953e+00 4.186995700001716614e-02 1.303487777709960938e+01 3.923024415969848633e+00 1.410505473613739014e-01
2.320000000000000000e+02 1.854549217224121094e+01 -5.638074874877929688e+00 1.477442741394042969e+00 1.667977142333984375e+01 5.447164058685302734e+00 3.368423700332641602e+00
2.330000000000000000e+02 1.790684318542480469e+01 -1.085996055603027344e+01 1.392071366310119629e+00 8.373398780822753906e+00 2.929641008377075195e+00 2.963664054870605469e+00
2.340000000000000000e+02 1.156601238250732422e+01 -1.646028518676757812e+01 1.835157275199890137e+00 2.272827148437500000e+00 1.232395410537719727e+00 1.939157724380493164e+00
2.350000000000000000e+02 9.147480010986328125e+00 -1.139864349365234375e+01 1.611288404092192650e-03 3.305254504084587097e-03 1.474962919019162655e-03 7.339341682381927967e-04
2.360000000000000000e+02 1.223038482666015625e+01 -6.038662910461425781e+00 -2.155735419364646077e-04 1.574818888911977410e-04 -1.742749918776098639e-05 1.459929626435041428e-04
2.370000000000000000e+02 3.502472639083862305e-01 -9.130875587463378906e+00 5.941836279816925526e-04 2.891483251005411148e-03 1.045700046233832836e-03 3.475965349934995174e-04
2.380000000000000000e+02 2.051037406921386719e+01 -1.834287261962890625e+01 -1.230218634009361267e-01 6.939536094665527344e+00 2.044954299926757812e+00 9.461092948913574219e-01
2.390000000000000000e+02 2.858026695251464844e+01 -1.756292152404785156e+01 -1.950271055102348328e-02 7.864076137542724609e+00 2.353372097015380859e+00 -2.208938598632812500e-01
2.400000000000000000e+02 3.707859802246093750e+01 -1.614939308166503906e+01 2.234097868204116821e-01 7.820392608642578125e+00 2.413140773773193359e+00 -5.560927391052246094e-01
2.410000000000000000e+02 4.311576843261718750e+01 -1.783370018005371094e+01 8.271766453981399536e-02 7.753007888793945312e+00 2.350717544555664062e+00 -5.515345335006713867e-01
2.420000000000000000e+02 5.309123611450195312e+01 -1.611274719238281250e+01 1.414232254028320312e-01 7.702353954315185547e+00 2.353133201599121094e+00 -4.417432248592376709e-01
2.430000000000000000e+02 5.654010391235351562e+01 -1.809336280822753906e+01 5.689900740981101990e-02 7.725883007049560547e+00 2.334834575653076172e+00 -4.081414043903350830e-01
2.440000000000000000e+02 6.688855743408203125e+01 -1.804891204833984375e+01 2.231981791555881500e-02 7.728178024291992188e+00 2.325149297714233398e+00 -2.729696035385131836e-01
2.450000000000000000e+02 7.377819824218750000e+01 -1.791371345520019531e+01 5.482128355652093887e-03 7.721457004547119141e+00 2.318081855773925781e+00 -1.598537564277648926e-01
2.460000000000000000e+02 7.963124847412109375e+01 -2.048060035705566406e+01 -6.630610005231574178e-05 7.782073974609375000e+00 2.334602117538452148e+00 -1.328978408128023148e-02
2.470000000000000000e+02 7.963661956787109375e+01 -1.326367092132568359e+01 2.307868271600455046e-04 7.558040142059326172e+00 2.267481327056884766e+00 -1.156067568808794022e-02
2.480000000000000000e+02 7.439899444580078125e+01 -1.157157993316650391e+01 1.982500590384006500e-02 7.597015380859375000e+00 2.285052061080932617e+00 -1.211079061031341553e-01
2.490000000000000000e+02 6.018334197998046875e+01 -1.053046417236328125e+01 2.007195651531219482e-01 7.633962631225585938e+00 2.350404739379882812e+00 -2.821971476078033447e-01
2.500000000000000000e+02 5.333146286010742188e+01 -1.129408359527587891e+01 3.086232841014862061e-01 7.641345024108886719e+00 2.384990453720092773e+00 -3.728086054325103760e-01
2.510000000000000000e+02 3.509285354614257812e+01 -8.469847679138183594e+00 9.721890091896057129e-01 7.963563919067382812e+00 2.680725812911987305e+00 -4.067210257053375244e-01
2.520000000000000000e+02 2.834525871276855469e+01 -8.834509849548339844e+00 1.197327733039855957e+00 8.535774230957031250e+00 2.919930696487426758e+00 -1.805938631296157837e-01
2.530000000000000000e+02 3.724209070205688477e-01 -2.273334312438964844e+01 3.391551785171031952e-03 -3.622832000255584717e-01 -1.076674982905387878e-01 1.790781156159937382e-03
2.540000000000000000e+02 1.192285728454589844e+01 -2.209726715087890625e+01 1.839618980884552002e-01 3.027203559875488281e+00 9.633496403694152832e-01 1.319548010826110840e+00
2.550000000000000000e+02 1.538846206665039062e+01 -2.271878623962402344e+01 -1.774321496486663818e-01 4.560628414154052734e+00 1.314958930015563965e+00 1.198260307312011719e+00
2.560000000000000000e+02 2.107828712463378906e+01 -2.473897552490234375e+01 -6.485157608985900879e-01 6.139648437500000000e+00 1.647339820861816406e+00 6.295140385627746582e-01
2.570000000000000000e+02 2.718571472167968750e+01 -2.145887565612792969e+01 -4.436199367046356201e-01 7.460651397705078125e+00 2.105109453201293945e+00 -7.369140163064002991e-03
2.580000000000000000e+02 3.450141525268554688e+01 -2.709336090087890625e+01 -6.558359861373901367e-01 7.554348468780517578e+00 2.069553852081298828e+00 -3.050875067710876465e-01
2.590000000000000000e+02 5.128034210205078125e+01 -2.420260238647460938e+01 -1.747317612171173096e-01 7.795677185058593750e+00 2.286283731460571289e+00 -4.401129484176635742e-01
2.600000000000000000e+02 6.091634750366210938e+01 -2.821801948547363281e+01 -1.642743647098541260e-01 7.851054191589355469e+00 2.306034088134765625e+00 -2.961996495723724365e-01
2.610000000000000000e+02 6.559035491943359375e+01 -2.687329673767089844e+01 -8.452864736318588257e-02 7.845764636993408203e+00 2.328370809555053711e+00 -2.593828439712524414e-01
2.620000000000000000e+02 7.366583251953125000e+01 -2.229914093017578125e+01 -7.692882325500249863e-03 7.808315753936767578e+00 2.340186834335327148e+00 -1.610164493322372437e-01
2.630000000000000000e+02 7.962127685546875000e+01 -2.689513206481933594e+01 -4.501381226873490959e-06 7.977961540222167969e+00 2.393387079238891602e+00 -1.190190017223358154e-02
2.640000000000000000e+02 4.124571382999420166e-01 -2.997888755798339844e+01 8.581246947869658470e-04 1.103730872273445129e-01 3.336936235427856445e-02 3.769299760460853577e-02
2.650000000000000000e+02 6.735308647155761719e+00 -3.433427047729492188e+01 -1.220749914646148682e-01 1.881029367446899414e+00 5.276862978935241699e-01 3.348000049591064453e-01
2.660000000000000000e+02 1.561167621612548828e+01 -2.826094436645507812e+01 -4.767185449600219727e-01 4.387953758239746094e+00 1.173370480537414551e+00 7.712193131446838379e-01
2.670000000000000000e+02 2.316861724853515625e+01 -3.340605163574218750e+01 -8.928226828575134277e-01 5.988139152526855469e+00 1.528594851493835449e+00 2.285919487476348877e-01
2.680000000000000000e+02 3.332426452636718750e+01 -3.028967475891113281e+01 -8.099641203880310059e-01 7.413391113281250000e+00 1.981028199195861816e+00 -2.048198580741882324e-01
2.690000000000000000e+02 3.453050231933593750e+01 -3.556809997558593750e+01 -9.275507926940917969e-01 7.329994201660156250e+00 1.920732975006103516e+00 -1.173676848411560059e-01
2.700000000000000000e+02 5.625970840454101562e+01 -3.401525497436523438e+01 -3.331715166568756104e-01 7.882068634033203125e+00 2.264669179916381836e+00 -2.161270081996917725e-01
2.710000000000000000e+02 6.530584716796875000e+01 -3.749047088623046875e+01 -1.601185202598571777e-01 7.934576034545898438e+00 2.332337379455566406e+00 -9.851370006799697876e-02
2.720000000000000000e+02 7.319556427001953125e+01 -3.151889419555664062e+01 -3.071779944002628326e-02 7.958730697631835938e+00 2.378403902053833008e+00 -1.184573397040367126e-01
2.730000000000000000e+02 7.960991668701171875e+01 -3.407366561889648438e+01 -6.152268033474683762e-04 8.146257400512695312e+00 2.443692684173583984e+00 -7.504853885620832443e-03
2.740000000000000000e+02 7.963763427734375000e+01 -6.046732902526855469e+00 2.723727666307240725e-04 7.392441749572753906e+00 2.217814207077026367e+00 -6.748961750417947769e-03
2.750000000000000000e+02 7.359091949462890625e+01 -3.632392644882202148e+00 3.967025503516197205e-02 7.510529994964599609e+00 2.265060186386108398e+00 -5.837609246373176575e-02
2.760000000000000000e+02 6.713036346435546875e+01 -3.211253881454467773e+00 1.374658793210983276e-01 7.569634914398193359e+00 2.312130212783813477e+00 -8.899665623903274536e-02
2.770000000000000000e+02 5.854230499267578125e+01 -1.770537734031677246e+00 3.496116101741790771e-01 7.570112228393554688e+00 2.375917196273803711e+00 -8.692147582769393921e-02
2.780000000000000000e+02 5.294449996948242188e+01 -1.620464205741882324e+00 5.239526033401489258e-01 7.567587375640869141e+00 2.427462100982666016e+00 -9.246091544628143311e-02
2.790000000000000000e+02 4.402896881103515625e+01 -2.558363914489746094e+00 8.751417994499206543e-01 7.639515399932861328e+00 2.554397106170654297e+00 -1.561671793460845947e-01
2.800000000000000000e+02 3.419509124755859375e+01 -6.732924461364746094e+00 1.156279563903808594e+00 8.028514862060546875e+00 2.755438327789306641e+00 -3.280229866504669189e-01
2.810000000000000000e+02 2.735531044006347656e+01 -3.101767301559448242e+00 1.577918767929077148e+00 9.194344520568847656e+00 3.231678962707519531e+00 1.453870087862014771e-01
2.820000000000000000e+02 1.876316833496093750e+01 -3.190342426300048828e+00 9.719955176115036011e-02 1.401549148559570312e+01 4.233807086944580078e+00 3.830885589122772217e-01
2.830000000000000000e+02 2.029360198974609375e+01 -4.152531147003173828e+00 1.382863163948059082e+00 1.274089527130126953e+01 4.237127304077148438e+00 1.526669859886169434e+00
2.840000000000000000e+02 7.963578796386718750e+01 1.170330524444580078e+00 3.235719923395663500e-04 7.331335544586181641e+00 2.199497699737548828e+00 -2.654053678270429373e-04
2.850000000000000000e+02 7.357273101806640625e+01 1.993859529495239258e+00 4.155557602643966675e-02 7.493218898773193359e+00 2.260432243347167969e+00 7.683263160288333893e-03
2.860000000000000000e+02 6.790950775146484375e+01 4.497817516326904297e+00 1.213966086506843567e-01 7.561705112457275391e+00 2.304930448532104492e+00 5.964243039488792419e-02
2.870000000000000000e+02 6.049177932739257812e+01 3.203285455703735352e+00 2.889409065246582031e-01 7.573586463928222656e+00 2.358758211135864258e+00 5.208279192447662354e-02
2.880000000000000000e+02 5.105594253540039062e+01 5.948814868927001953e+00 5.506646633148193359e-01 7.588893890380859375e+00 2.441867589950561523e+00 1.826855838298797607e-01
2.890000000000000000e+02 4.029931640625000000e+01 1.965529203414916992e+00 1.067137479782104492e+00 7.742176055908203125e+00 2.642794132232666016e+00 6.448117643594741821e-02
2.900000000000000000e+02 7.963251495361328125e+01 8.386735916137695312e+00 3.245201660320162773e-04 7.388212203979492188e+00 2.216561079025268555e+00 6.107741966843605042e-03
2.910000000000000000e+02 7.272074890136718750e+01 9.661605834960937500e+00 4.017777368426322937e-02 7.550294399261474609e+00 2.277141571044921875e+00 9.907399117946624756e-02
2.920000000000000000e+02 6.576744079589843750e+01 1.383950042724609375e+01 8.966037631034851074e-02 7.642313003540039062e+00 2.319591999053955078e+00 2.189000695943832397e-01
2.930000000000000000e+02 5.813465499877929688e+01 1.059455204010009766e+01 2.592006027698516846e-01 7.620190620422363281e+00 2.363817214965820312e+00 2.451181262731552124e-01
2.940000000000000000e+02 4.160614776611328125e+01 6.441201686859130859e+00 8.975174427032470703e-01 7.715932369232177734e+00 2.584034919738769531e+00 2.632184326648712158e-01
2.950000000000000000e+02 2.854117965698242188e+01 1.178444766998291016e+01 9.393224716186523438e-01 8.426880836486816406e+00 2.809860944747924805e+00 1.671325862407684326e-01
2.960000000000000000e+02 7.962650299072265625e+01 1.560407924652099609e+01 1.088922945200465620e-04 7.542110443115234375e+00 2.262665748596191406e+00 1.053374446928501129e-02
2.970000000000000000e+02 7.313584899902343750e+01 1.551045894622802734e+01 1.970092207193374634e-02 7.621937751770019531e+00 2.292491674423217773e+00 1.386717110872268677e-01
2.980000000000000000e+02 6.587653350830078125e+01 1.701276779174804688e+01 5.087829753756523132e-02 7.679451465606689453e+00 2.319098949432373047e+00 2.441236525774002075e-01
2.990000000000000000e+02 5.863792419433593750e+01 1.452844715118408203e+01 1.641396731138229370e-01 7.662382602691650391e+00 2.347956657409667969e+00 3.029323220252990723e-01
3.000000000000000000e+02 5.040728378295898438e+01 1.619948196411132812e+01 2.143048197031021118e-01 7.704415321350097656e+00 2.375616073608398438e+00 4.295938014984130859e-01
3.010000000000000000e+02 4.234037017822265625e+01 1.555284023284912109e+01 3.498030900955200195e-01 7.763503551483154297e+00 2.433991909027099609e+00 5.106085538864135742e-01
3.020000000000000000e+02 3.825767135620117188e+01 1.572484207153320312e+01 3.757132589817047119e-01 7.838232994079589844e+00 2.464183807373046875e+00 5.346889495849609375e-01
3.030000000000000000e+02 2.703549385070800781e+01 1.975311470031738281e+01 -8.200450241565704346e-02 7.763851165771484375e+00 2.304553985595703125e+00 1.014858111739158630e-01
3.040000000000000000e+02 7.961706542968750000e+01 2.201838684082031250e+01 -1.037271940731443465e-04 7.720277786254882812e+00 2.316052198410034180e+00 1.193013042211532593e-02
3.050000000000000000e+02 7.393480682373046875e+01 2.535160064697265625e+01 -9.355336427688598633e-03 7.783836364746093750e+00 2.332344293594360352e+00 1.331660598516464233e-01
3.060000000000000000e+02 6.574269866943359375e+01 2.701164054870605469e+01 -6.611357629299163818e-02 7.802255153656005859e+00 2.320842504501342773e+00 2.328760474920272827e-01
3.070000000000000000e+02 5.698612594604492188e+01 2.078232574462890625e+01 6.932379677891731262e-03 7.746772766113281250e+00 2.326111555099487305e+00 3.696184456348419189e-01
3.080000000000000000e+02 5.167270660400390625e+01 2.231175994873046875e+01 -5.301946774125099182e-02 7.779586315155029297e+00 2.317970037460327148e+00 4.391799867153167725e-01
3.090000000000000000e+02 4.211036300659179688e+01 2.096682739257812500e+01 -3.246679529547691345e-02 7.804429054260253906e+00 2.331588745117187500e+00 5.315250158309936523e-01
3.100000000000000000e+02 3.026651382446289062e+01 2.216074562072753906e+01 -2.800398766994476318e-01 7.745613574981689453e+00 2.239671945571899414e+00 3.030823469161987305e-01
3.110000000000000000e+02 1.433829975128173828e+01 2.173599052429199219e+01 1.575652360916137695e-01 4.204361915588378906e+00 1.308578133583068848e+00 -1.624501466751098633e+00
3.120000000000000000e+02 2.297929763793945312e+01 2.250853729248046875e+01 -4.247266054153442383e-01 7.107871055603027344e+00 2.004943370819091797e+00 -3.742955327033996582e-01
3.130000000000000000e+02 7.956119060516357422e+00 1.806291770935058594e+01 -3.872932791709899902e-01 -2.470102608203887939e-01 -1.902910619974136353e-01 -2.131668776273727417e-01
3.140000000000000000e+02 7.960066223144531250e+01 2.923922538757324219e+01 3.050580853596329689e-04 7.914948463439941406e+00 2.374576091766357422e+00 1.065130252391099930e-02
3.150000000000000000e+02 7.035089111328125000e+01 3.158304023742675781e+01 -5.408097803592681885e-02 7.853712558746337891e+00 2.339889526367187500e+00 1.435451656579971313e-01
3.160000000000000000e+02 6.763204956054687500e+01 3.151439857482910156e+01 -8.230096101760864258e-02 7.847258090972900391e+00 2.329487085342407227e+00 1.675973683595657349e-01
3.170000000000000000e+02 5.583180999755859375e+01 3.345982360839843750e+01 -3.052422106266021729e-01 7.879457950592041016e+00 2.272264719009399414e+00 2.239901125431060791e-01
3.180000000000000000e+02 5.196044921875000000e+01 3.365135192871093750e+01 -4.035179615020751953e-01 7.883309364318847656e+00 2.243937492370605469e+00 2.425296455621719360e-01
3.190000000000000000e+02 4.501227951049804688e+01 2.921010780334472656e+01 -4.406459033489227295e-01 7.832241058349609375e+00 2.217478513717651367e+00 3.947754502296447754e-01
3.200000000000000000e+02 3.429064941406250000e+01 2.642867851257324219e+01 -5.459032058715820312e-01 7.682543754577636719e+00 2.140992164611816406e+00 3.675143420696258545e-01
3.210000000000000000e+02 2.808052825927734375e+01 3.003734207153320312e+01 -8.530718684196472168e-01 7.108999729156494141e+00 1.876778364181518555e+00 1.477066613733768463e-02
3.220000000000000000e+02 1.461516380310058594e+01 3.395491409301757812e+01 -5.453026890754699707e-01 4.071353435516357422e+00 1.057815194129943848e+00 -5.067647099494934082e-01
3.230000000000000000e+02 2.094880294799804688e+01 3.495532989501953125e+01 -8.788704276084899902e-01 5.626185417175292969e+00 1.424194455146789551e+00 -2.460238039493560791e-01
3.240000000000000000e+02 1.239760494232177734e+01 2.203791999816894531e+01 3.508121073246002197e-01 2.838992834091186523e+00 9.569414854049682617e-01 -1.506946086883544922e+00
3.250000000000000000e+02 1.058728933334350586e+00 2.362325096130371094e+01 1.632636599242687225e-02 -2.591205835342407227e-01 -7.283826172351837158e-02 9.686791338026523590e-03
3.260000000000000000e+02 6.310308933258056641e+00 3.107065200805664062e+01 -1.905207335948944092e-02 1.456790208816528320e+00 4.313214421272277832e-01 -4.157969653606414795e-01
3.270000000000000000e+02 1.129220485687255859e+00 2.999189376831054688e+01 5.742339882999658585e-03 4.320252686738967896e-02 1.468345988541841507e-02 -8.834156394004821777e-02
3.280000000000000000e+02 1.050056219100952148e+00 9.229707717895507812e+00 -1.053327461704611778e-03 2.905862173065543175e-03 5.557604599744081497e-04 -9.269113070331513882e-04
3.290000000000000000e+02 1.300982666015625000e+01 -4.741642475128173828e+00 -1.330485829384997487e-04 9.005174797493964434e-05 -1.289905139856273308e-05 8.583455928601324558e-05
3.300000000000000000e+02 1.249082660675048828e+01 -1.932388424873352051e+00 -7.401983566523995250e-06 6.981296610319986939e-05 1.872329448815435171e-05 2.881706495827529579e-05
3.310000000000000000e+02 1.173748397827148438e+01 -1.895481228828430176e+00 3.700444358401000500e-05 -1.550795786897651851e-05 6.448945441661635414e-06 -1.230374327860772610e-04
3.320000000000000000e+02 1.004324531555175781e+01 -2.440840959548950195e+00 4.309327050577849150e-05 8.269523823400959373e-05 3.773655407712794840e-05 3.223862586310133338e-05
3.330000000000000000e+02 1.247667503356933594e+01 -6.939660072326660156e+00 -1.719709543976932764e-04 1.397534506395459175e-04 -9.665251127444207668e-06 1.867996033979579806e-04
3.340000000000000000e+02 1.023394966125488281e+01 -1.831461548805236816e+00 6.252374441828578711e-05 -2.408032923995051533e-05 1.153302400780376047e-05 -1.932637678692117333e-04
3.350000000000000000e+02 7.006990432739257812e+00 -1.833918094635009766e+00 1.939063804456964135e-04 -9.170442353934049606e-05 3.066059070988558233e-05 -1.790902751963585615e-04
3.360000000000000000e+02 6.186642169952392578e+00 -1.833582878112792969e+00 2.288648538524284959e-04 -1.450507807021494955e-05 6.430793291656300426e-05 9.312724432675167918e-05
3.370000000000000000e+02 5.370005607604980469e+00 -1.822669744491577148e+00 2.400669181952252984e-04 -1.141605098382569849e-04 3.777191886911168694e-05 -9.409105405211448669e-05
3.380000000000000000e+02 4.559662818908691406e+00 -1.806381821632385254e+00 2.037208178080618382e-04 -2.209162857980118133e-06 6.045349800842814147e-05 2.082272258121520281e-04
3.390000000000000000e+02 1.072618246078491211e+00 -6.725549697875976562e+00 3.506714128889143467e-04 7.844674400985240936e-04 3.405416500754654408e-04 5.995418759994208813e-04
3.400000000000000000e+02 3.793501138687133789e+00 -2.393491268157958984e+00 1.775916025508195162e-04 -3.256186801081639715e-06 5.230062743066810071e-05 3.088458615820854902e-04
3.410000000000000000e+02 8.645090460777282715e-01 -2.339533805847167969e+00 -3.078768349951133132e-05 -1.129289921664167196e-05 -1.262417481484590098e-05 3.933516563847661018e-05
3.420000000000000000e+02 3.310556411743164062e-01 -1.897890567779541016e+00 2.484785545675549656e-05 1.061450238921679556e-04 3.929786544176749885e-05 6.056697748135775328e-05
3.430000000000000000e+02 4.545308947563171387e-01 -4.204162597656250000e+01 1.983512658625841141e-03 7.929155230522155762e-01 2.384697198867797852e-01 -2.738970797508955002e-03
3.440000000000000000e+02 5.727226138114929199e-01 -4.118161392211914062e+01 -3.905764967203140259e-02 7.874405384063720703e-01 2.245148718357086182e-01 1.604220084846019745e-02
3.450000000000000000e+02 5.685315728187561035e-01 -4.038562393188476562e+01 4.035402834415435791e-02 7.578921914100646973e-01 2.394738644361495972e-01 3.013601712882518768e-02
3.460000000000000000e+02 4.594849050045013428e-01 -3.880675888061523438e+01 3.841562196612358093e-03 7.192346453666687012e-01 2.169228643178939819e-01 1.325901690870523453e-02
3.470000000000000000e+02 5.166044831275939941e-01 -3.959693908691406250e+01 -1.433120481669902802e-02 7.302404046058654785e-01 2.147727608680725098e-01 1.454582554288208485e-03
3.480000000000000000e+02 3.981806933879852295e-01 -3.722316360473632812e+01 3.934585489332675934e-03 6.557015776634216309e-01 1.978908479213714600e-01 2.214945852756500244e-02
3.490000000000000000e+02 3.935658633708953857e-01 -3.562636566162109375e+01 3.507286775857210159e-03 5.618941783905029297e-01 1.696204245090484619e-01 2.442461811006069183e-02
3.500000000000000000e+02 4.054589569568634033e-01 -3.482423782348632812e+01 -6.400575861334800720e-03 5.109389424324035645e-01 1.513615101575851440e-01 2.626589871942996979e-02
3.510000000000000000e+02 4.186881482601165771e-01 -3.401980209350585938e+01 1.592171029187738895e-03 4.542054533958435059e-01 1.367392838001251221e-01 3.177222982048988342e-02
3.520000000000000000e+02 4.278143644332885742e-01 -3.321313858032226562e+01 -4.117033444344997406e-03 3.925529718399047852e-01 1.165307834744453430e-01 3.348935395479202271e-02
3.530000000000000000e+02 4.303793311119079590e-01 -3.240466308593750000e+01 3.436023835092782974e-04 3.261294364929199219e-01 9.794190526008605957e-02 3.754305839538574219e-02
3.540000000000000000e+02 1.298948049545288086e+00 -3.313866424560546875e+01 -4.156121052801609039e-03 5.643424987792968750e-01 1.680559217929840088e-01 1.040285751223564148e-01
3.550000000000000000e+02 4.274601936340332031e-01 -3.159542655944824219e+01 -6.130196852609515190e-04 2.558469176292419434e-01 7.657016813755035400e-02 3.753359615802764893e-02
3.560000000000000000e+02 4.042171835899353027e-01 -2.917165184020996094e+01 -3.416367690078914165e-04 3.628518432378768921e-02 1.078306417912244797e-02 3.705325350165367126e-02
3.570000000000000000e+02 3.987565934658050537e-01 -2.836598014831542969e+01 2.170078223571181297e-03 -3.654984757304191589e-02 -1.031392998993396759e-02 3.547221794724464417e-02
3.580000000000000000e+02 3.945291340351104736e-01 -2.756125068664550781e+01 -2.743004297371953726e-04 -1.065052077174186707e-01 -3.203385323286056519e-02 3.317813947796821594e-02
3.590000000000000000e+02 3.911685049533843994e-01 -2.675677680969238281e+01 2.813221886754035950e-03 -1.722198724746704102e-01 -5.082199722528457642e-02 3.095865063369274139e-02
3.600000000000000000e+02 3.881219029426574707e-01 -2.595252418518066406e+01 1.318886410444974899e-03 -2.318796813488006592e-01 -6.916823983192443848e-02 2.646196074783802032e-02
3.610000000000000000e+02 3.848132789134979248e-01 -2.514812660217285156e+01 3.001306438818573952e-03 -2.825737595558166504e-01 -8.387173712253570557e-02 2.213371731340885162e-02
3.620000000000000000e+02 3.812964260578155518e-01 -2.434322929382324219e+01 2.878804458305239677e-03 -3.229985833168029785e-01 -9.603593498468399048e-02 1.597144640982151031e-02
3.630000000000000000e+02 3.664725422859191895e-01 -2.192986679077148438e+01 3.581982804462313652e-03 -3.583437502384185791e-01 -1.064285337924957275e-01 -5.818987730890512466e-03
3.640000000000000000e+02 3.592298924922943115e-01 -2.112780952453613281e+01 2.080436330288648605e-03 -3.385244309902191162e-01 -1.009332016110420227e-01 -1.227797195315361023e-02
3.650000000000000000e+02 3.509441316127777100e-01 -2.032710075378417969e+01 2.455531619489192963e-03 -3.049416840076446533e-01 -9.074584394693374634e-02 -1.735584624111652374e-02
3.660000000000000000e+02 3.433113396167755127e-01 -1.952746391296386719e+01 7.953032763907685876e-05 -2.605599164962768555e-01 -7.814411818981170654e-02 -2.059959061443805695e-02
3.670000000000000000e+02 1.050986528396606445e+00 -2.018996047973632812e+01 7.924100384116172791e-03 -1.820663958787918091e-01 -5.224269255995750427e-02 -4.652290791273117065e-02
3.680000000000000000e+02 3.390327990055084229e-01 -1.872928810119628906e+01 8.745737140998244286e-04 -2.100638449192047119e-01 -6.275677680969238281e-02 -2.157224714756011963e-02
3.690000000000000000e+02 1.034144163131713867e+00 -1.705710220336914062e+01 -8.166391402482986450e-03 -7.366643846035003662e-02 -2.454984933137893677e-02 -4.748900979757308960e-02
3.700000000000000000e+02 3.507095277309417725e-01 -1.554129028320312500e+01 -1.952546444954350591e-04 -4.417994245886802673e-02 -1.331255957484245300e-02 -1.064384635537862778e-02
3.710000000000000000e+02 3.523935079574584961e-01 -1.474277687072753906e+01 -2.865875372663140297e-03 -2.328253351151943207e-02 -7.844522595405578613e-03 -7.260502781718969345e-03
3.720000000000000000e+02 3.539422452449798584e-01 -1.394188308715820312e+01 4.088886198587715626e-04 -9.981960989534854889e-03 -2.871921751648187637e-03 -4.286804236471652985e-03
3.730000000000000000e+02 3.537153303623199463e-01 -1.313710212707519531e+01 -2.046662615612149239e-03 -2.085300162434577942e-03 -1.239588833414018154e-03 -2.521899761632084846e-03
3.740000000000000000e+02 3.519173264503479004e-01 -1.233051204681396484e+01 7.691765786148607731e-04 1.856562215834856033e-03 7.877216557972133160e-04 -9.052302339114248753e-04
3.750000000000000000e+02 1.059207797050476074e+00 -1.309630584716796875e+01 -2.317624166607856750e-03 -4.142815712839365005e-03 -1.938131987117230892e-03 -6.196769885718822479e-03
3.760000000000000000e+02 3.492031097412109375e-01 -1.072776317596435547e+01 8.092538919299840927e-04 3.765509696677327156e-03 1.372429076582193375e-03 1.908343110699206591e-04
3.770000000000000000e+02 3.518469035625457764e-01 -8.329469680786132812e+00 -4.658104153349995613e-04 2.318960847333073616e-03 5.559451528824865818e-04 1.866506354417651892e-04
3.780000000000000000e+02 3.536112606525421143e-01 -7.527270793914794922e+00 3.895761328749358654e-04 1.734219607897102833e-03 6.371387280523777008e-04 2.791005535982549191e-04
3.790000000000000000e+02 3.542800545692443848e-01 -6.724914550781250000e+00 -2.534791710786521435e-04 1.319457427598536015e-03 3.197935002390295267e-04 1.208460307680070400e-04
3.800000000000000000e+02 3.517903387546539307e-01 -5.923974514007568359e+00 1.867359387688338757e-04 9.128725505433976650e-04 3.298825467936694622e-04 1.968634460354223847e-04
3.810000000000000000e+02 3.451534807682037354e-01 -5.126977920532226562e+00 -5.368608981370925903e-05 6.737633957527577877e-04 1.860232005128636956e-04 4.490721403271891177e-05
3.820000000000000000e+02 3.381298780441284180e-01 -4.330948352813720703e+00 -1.105866158468415961e-05 4.344455082900822163e-04 1.270160573767498136e-04 1.207488967338576913e-04
3.830000000000000000e+02 3.156282305717468262e-01 -2.686595201492309570e+00 -4.954082396579906344e-05 1.755519624566659331e-04 3.780334009206853807e-05 2.014119854720775038e-05
3.840000000000000000e+02 7.957661437988281250e+01 -4.206053543090820312e+01 2.915167133323848248e-04 8.218147277832031250e+00 2.465531587600708008e+00 3.204604145139455795e-04
3.850000000000000000e+02 7.950229644775390625e+01 -4.122048568725585938e+01 -1.700651482678949833e-03 8.218270301818847656e+00 2.464970827102661133e+00 -4.999017110094428062e-04
3.860000000000000000e+02 7.446769714355468750e+01 -4.055573654174804688e+01 -2.230648137629032135e-02 8.061457633972167969e+00 2.411745309829711914e+00 -2.002783492207527161e-02
3.870000000000000000e+02 5.246442031860351562e+01 -4.095036697387695312e+01 -4.895459413528442383e-01 7.887201309204101562e+00 2.219296693801879883e+00 -4.483576491475105286e-02
3.880000000000000000e+02 3.293540954589843750e+01 -4.012853622436523438e+01 -1.008563041687011719e+00 7.148065090179443359e+00 1.841850638389587402e+00 -2.906770259141921997e-02
3.890000000000000000e+02 1.056112766265869141e+01 -3.749807739257812500e+01 -3.470112681388854980e-01 2.995735406875610352e+00 7.946172356605529785e-01 2.172384411096572876e-01
3.900000000000000000e+02 1.776918292045593262e+00 -4.011986160278320312e+01 -2.865060931071639061e-03 9.750493168830871582e-01 2.916552722454071045e-01 3.296389477327466011e-03
3.910000000000000000e+02 1.572394013404846191e+00 -4.195404815673828125e+01 -1.701158098876476288e-02 9.099021553993225098e-01 2.678671777248382568e-01 3.030271083116531372e-02
3.920000000000000000e+02 7.956809234619140625e+01 4.204513931274414062e+01 3.245304105803370476e-04 8.079932212829589844e+00 2.424077033996582031e+00 -3.903169126715511084e-04
3.930000000000000000e+02 7.948703002929687500e+01 4.118180465698242188e+01 -1.575686153955757618e-03 8.080306053161621094e+00 2.423619031906127930e+00 2.129699714714661241e-04
3.940000000000000000e+02 7.797683715820312500e+01 3.893713760375976562e+01 -3.846257925033569336e-03 8.018674850463867188e+00 2.404448509216308594e+00 1.395916007459163666e-02
3.950000000000000000e+02 7.559099578857421875e+01 3.936104965209960938e+01 -1.342376321554183960e-02 7.975862026214599609e+00 2.388731479644775391e+00 2.189415879547595978e-02
3.960000000000000000e+02 7.957912445068359375e+01 3.959828567504882812e+01 -1.312373206019401550e-04 8.074639320373535156e+00 2.422352552413940430e+00 3.364715958014130592e-03
3.970000000000000000e+02 7.967194366455078125e+01 3.805205535888671875e+01 -4.230195772834122181e-04 8.060810089111328125e+00 2.418116092681884766e+00 3.548871958628296852e-03
3.980000000000000000e+02 7.964985656738281250e+01 3.728207015991210938e+01 1.549629814689978957e-04 8.052515029907226562e+00 2.415801048278808594e+00 3.894433146342635155e-03
3.990000000000000000e+02 7.955961608886718750e+01 3.488356018066406250e+01 -1.310443913098424673e-04 8.023439407348632812e+00 2.406992435455322266e+00 6.708514876663684845e-03
4.000000000000000000e+02 7.955867767333984375e+01 3.407370376586914062e+01 -4.716003604698926210e-04 8.011913299560546875e+00 2.403432369232177734e+00 7.236096542328596115e-03
4.010000000000000000e+02 7.956381988525390625e+01 3.326571273803710938e+01 -4.966775304637849331e-04 7.999094963073730469e+00 2.399579524993896484e+00 8.141604252159595490e-03
4.020000000000000000e+02 7.958387756347656250e+01 3.165376281738281250e+01 -6.806870223954319954e-04 7.969273090362548828e+00 2.390577793121337891e+00 9.305135346949100494e-03
4.030000000000000000e+02 7.959288787841796875e+01 3.084871482849121094e+01 2.253834973089396954e-04 7.952198505401611328e+00 2.385727167129516602e+00 9.784534573554992676e-03
4.040000000000000000e+02 7.879103088378906250e+01 2.997793960571289062e+01 -6.547733792103827000e-04 7.917465209960937500e+00 2.375043153762817383e+00 2.832663431763648987e-02
4.050000000000000000e+02 7.960395812988281250e+01 2.763397789001464844e+01 2.733115688897669315e-04 7.874674320220947266e+00 2.362484455108642578e+00 1.124346721917390823e-02
4.060000000000000000e+02 7.960504913330078125e+01 2.683105850219726562e+01 -4.494630265980958939e-04 7.853706836700439453e+00 2.355977296829223633e+00 1.137755159288644791e-02
4.070000000000000000e+02 7.960657501220703125e+01 2.602864837646484375e+01 2.231909456895664334e-04 7.832303524017333984e+00 2.349758148193359375e+00 1.165822241455316544e-02
4.080000000000000000e+02 7.960834503173828125e+01 2.522639465332031250e+01 -3.199726925231516361e-04 7.810466289520263672e+00 2.343043804168701172e+00 1.172278821468353271e-02
4.090000000000000000e+02 7.961045074462890625e+01 2.442403221130371094e+01 1.731813099468126893e-04 7.788305759429931641e+00 2.336543560028076172e+00 1.191224157810211182e-02
4.100000000000000000e+02 7.882331085205078125e+01 2.515169715881347656e+01 -1.719338906696066260e-04 7.802905082702636719e+00 2.340819835662841797e+00 3.262910619378089905e-02
4.110000000000000000e+02 7.961514282226562500e+01 2.282018280029296875e+01 1.420027401763945818e-04 7.743131160736083984e+00 2.322981834411621094e+00 1.198363490402698517e-02
4.120000000000000000e+02 7.961994171142578125e+01 2.041563606262207031e+01 -4.923700544168241322e-05 7.674510002136230469e+00 2.302338361740112305e+00 1.181646995246410370e-02
4.130000000000000000e+02 7.962100982666015625e+01 1.961350250244140625e+01 1.400720502715557814e-04 7.651736259460449219e+00 2.295562982559204102e+00 1.173563487827777863e-02
4.140000000000000000e+02 7.962213134765625000e+01 1.881166076660156250e+01 2.109870547428727150e-05 7.629119396209716797e+00 2.288742065429687500e+00 1.156047824770212173e-02
4.150000000000000000e+02 7.962322998046875000e+01 1.800988578796386719e+01 1.590557367308065295e-04 7.606775283813476562e+00 2.282080173492431641e+00 1.137978676706552505e-02
4.160000000000000000e+02 7.962542724609375000e+01 1.640616607666015625e+01 1.916223409352824092e-04 7.563185691833496094e+00 2.269013166427612305e+00 1.085906382650136948e-02
4.170000000000000000e+02 7.962802886962890625e+01 1.400101184844970703e+01 1.219299301737919450e-04 7.501820087432861328e+00 2.250582695007324219e+00 9.793695062398910522e-03
4.180000000000000000e+02 7.962854003906250000e+01 1.319846343994140625e+01 2.707342209760099649e-04 7.482759475708007812e+00 2.244909048080444336e+00 9.381555020809173584e-03
4.190000000000000000e+02 7.962934112548828125e+01 1.239667987823486328e+01 1.618569658603519201e-04 7.464518070220947266e+00 2.239403963088989258e+00 8.906436152756214142e-03
4.200000000000000000e+02 7.962999725341796875e+01 1.159520244598388672e+01 2.942317514680325985e-04 7.447168827056884766e+00 2.234238862991333008e+00 8.422229439020156860e-03
4.210000000000000000e+02 7.963040161132812500e+01 1.079344654083251953e+01 2.006607974180951715e-04 7.430801391601562500e+00 2.229300737380981445e+00 7.878348231315612793e-03
4.220000000000000000e+02 7.963085937500000000e+01 9.991372108459472656e+00 3.053098334930837154e-04 7.415479183197021484e+00 2.224735260009765625e+00 7.336240727454423904e-03
4.230000000000000000e+02 7.889184570312500000e+01 9.920837402343750000e+00 1.217181328684091568e-03 7.435328960418701172e+00 2.230963706970214844e+00 2.027858607470989227e-02
4.240000000000000000e+02 7.963334655761718750e+01 6.784129142761230469e+00 3.204466484021395445e-04 7.365916252136230469e+00 2.209871053695678711e+00 4.776873625814914703e-03
4.250000000000000000e+02 7.963353729248046875e+01 5.981725215911865234e+00 2.991861838381737471e-04 7.356751918792724609e+00 2.207115411758422852e+00 4.095882643014192581e-03
4.260000000000000000e+02 7.963387298583984375e+01 5.180004596710205078e+00 3.416808322072029114e-04 7.348942279815673828e+00 2.204785108566284180e+00 3.395332256332039833e-03
4.270000000000000000e+02 7.963398742675781250e+01 4.378422260284423828e+00 3.086933575104922056e-04 7.342538833618164062e+00 2.202854156494140625e+00 2.678004791960120201e-03
4.280000000000000000e+02 7.963413238525390625e+01 3.576323747634887695e+00 3.487164503894746304e-04 7.337557792663574219e+00 2.201371908187866211e+00 1.958482665941119194e-03
4.290000000000000000e+02 7.963515472412109375e+01 1.972315549850463867e+00 3.559298929758369923e-04 7.331934452056884766e+00 2.199687242507934570e+00 4.875135491602122784e-04
4.300000000000000000e+02 7.963606262207031250e+01 -4.323790669441223145e-01 3.204766253475099802e-04 7.334650993347167969e+00 2.200491428375244141e+00 -1.772319548763334751e-03
4.310000000000000000e+02 7.963618469238281250e+01 -1.234905719757080078e+00 3.423360467422753572e-04 7.338543891906738281e+00 2.201665878295898438e+00 -2.502879360690712929e-03
4.320000000000000000e+02 7.963657379150390625e+01 -2.036686658859252930e+00 3.297176735941320658e-04 7.343918800354003906e+00 2.203274488449096680e+00 -3.247397718951106071e-03
4.330000000000000000e+02 7.963684082031250000e+01 -2.838218688964843750e+00 3.225335967727005482e-04 7.350764751434326172e+00 2.205326318740844727e+00 -3.969985526055097580e-03
4.340000000000000000e+02 7.963697814941406250e+01 -3.640088319778442383e+00 3.327674930915236473e-04 7.359068870544433594e+00 2.207820415496826172e+00 -4.694732837378978729e-03
4.350000000000000000e+02 7.963727569580078125e+01 -5.244345664978027344e+00 3.193916054442524910e-04 7.379946708679199219e+00 2.214079856872558594e+00 -6.089258007705211639e-03
4.360000000000000000e+02 7.963767242431640625e+01 -7.649801254272460938e+00 2.406907442491501570e-04 7.421387195587158203e+00 2.226488351821899414e+00 -8.032553829252719879e-03
4.370000000000000000e+02 7.963755035400390625e+01 -8.451992034912109375e+00 3.019889409188181162e-04 7.437727451324462891e+00 2.231408834457397461e+00 -8.627267554402351379e-03
4.380000000000000000e+02 7.963748931884765625e+01 -9.253726959228515625e+00 2.073137584375217557e-04 7.455226421356201172e+00 2.236630201339721680e+00 -9.198931045830249786e-03
4.390000000000000000e+02 7.963729095458984375e+01 -1.005528163909912109e+01 2.878003870137035847e-04 7.473843574523925781e+00 2.242239475250244141e+00 -9.738223627209663391e-03
4.400000000000000000e+02 7.963697814941406250e+01 -1.085712623596191406e+01 1.765399938449263573e-04 7.493497371673583984e+00 2.248102188110351562e+00 -1.026036124676465988e-02
4.410000000000000000e+02 7.891057586669921875e+01 -1.012381553649902344e+01 1.090372796170413494e-03 7.493391990661621094e+00 2.248344659805297852e+00 -2.661766484379768372e-02
4.420000000000000000e+02 7.963669586181640625e+01 -1.246144485473632812e+01 1.333162508672103286e-04 7.535671234130859375e+00 2.260741472244262695e+00 -1.117089483886957169e-02
4.430000000000000000e+02 7.963614654541015625e+01 -1.486689472198486328e+01 2.119209239026531577e-04 7.604908943176269531e+00 2.281536340713500977e+00 -1.223570015281438828e-02
4.440000000000000000e+02 7.963587951660156250e+01 -1.566917991638183594e+01 3.087715595029294491e-05 7.629231452941894531e+00 2.288778781890869141e+00 -1.251758076250553131e-02
4.450000000000000000e+02 7.963568878173828125e+01 -1.647090721130371094e+01 1.789205707609653473e-04 7.654048442840576172e+00 2.296268224716186523e+00 -1.272974163293838501e-02
4.460000000000000000e+02 7.963526916503906250e+01 -1.727233314514160156e+01 -7.005183761066291481e-06 7.679244995117187500e+00 2.303771257400512695e+00 -1.293355878442525864e-02
4.470000000000000000e+02 7.963445281982421875e+01 -1.807389450073242188e+01 1.523624523542821407e-04 7.704755783081054688e+00 2.311472415924072266e+00 -1.307282410562038422e-02
4.480000000000000000e+02 7.890422058105468750e+01 -1.734083747863769531e+01 4.265602037776261568e-04 7.686295509338378906e+00 2.306016683578491211e+00 -3.526180982589721680e-02
4.490000000000000000e+02 7.963230895996093750e+01 -1.967825126647949219e+01 9.173406579066067934e-05 7.756272792816162109e+00 2.326909303665161133e+00 -1.324973069131374359e-02
4.500000000000000000e+02 7.962857818603515625e+01 -2.208390808105468750e+01 -5.508895992534235120e-05 7.833311080932617188e+00 2.349976778030395508e+00 -1.318834535777568817e-02
4.510000000000000000e+02 7.962677764892578125e+01 -2.288635063171386719e+01 -5.811738810734823346e-05 7.858569622039794922e+00 2.357553482055664062e+00 -1.305813156068325043e-02
4.520000000000000000e+02 7.962481689453125000e+01 -2.368849372863769531e+01 -4.564338814816437662e-05 7.883453369140625000e+00 2.365022182464599609e+00 -1.294421963393688202e-02
4.530000000000000000e+02 7.962283325195312500e+01 -2.449081611633300781e+01 -1.626676530577242374e-04 7.907906532287597656e+00 2.372323274612426758e+00 -1.272415556013584137e-02
4.540000000000000000e+02 7.962080383300781250e+01 -2.609423637390136719e+01 -2.698629978112876415e-04 7.955189228057861328e+00 2.386475801467895508e+00 -1.221799850463867188e-02
4.550000000000000000e+02 7.962271118164062500e+01 -2.849446296691894531e+01 -3.224155989300925285e-06 8.021800994873046875e+00 2.406539440155029297e+00 -1.120050251483917236e-02
4.560000000000000000e+02 7.962324523925781250e+01 -2.929433631896972656e+01 -3.973369894083589315e-04 8.042725563049316406e+00 2.412698507308959961e+00 -1.079740095883607864e-02
4.570000000000000000e+02 7.962338256835937500e+01 -3.009305000305175781e+01 -1.553114088892471045e-05 8.062814712524414062e+00 2.418839931488037109e+00 -1.032813917845487595e-02
4.580000000000000000e+02 7.962319946289062500e+01 -3.089025115966796875e+01 -6.127992528490722179e-04 8.081859588623046875e+00 2.424374103546142578e+00 -9.687899611890316010e-03
4.590000000000000000e+02 7.962274169921875000e+01 -3.168620300292968750e+01 1.351556566078215837e-04 8.099705696105957031e+00 2.429952383041381836e+00 -9.143580682575702667e-03
4.600000000000000000e+02 7.961787414550781250e+01 -3.327704620361328125e+01 1.959220826392993331e-04 8.131903648376464844e+00 2.439629793167114258e+00 -7.947067730128765106e-03
4.610000000000000000e+02 7.957648468017578125e+01 -3.566672134399414062e+01 -8.169706561602652073e-04 8.170457839965820312e+00 2.450892210006713867e+00 -6.078723352402448654e-03
4.620000000000000000e+02 7.955823516845703125e+01 -3.646417999267578125e+01 -7.139480439946055412e-04 8.179150581359863281e+00 2.453531026840209961e+00 -4.653340671211481094e-03
4.630000000000000000e+02 7.955004119873046875e+01 -3.726028442382812500e+01 7.337891729548573494e-04 8.186536788940429688e+00 2.456181049346923828e+00 -4.754804074764251709e-03
4.640000000000000000e+02 7.955332946777343750e+01 -3.805602264404296875e+01 4.525476470007561147e-05 8.194747924804687500e+00 2.458438158035278320e+00 -5.397501401603221893e-03
4.650000000000000000e+02 7.953835296630859375e+01 -3.884125137329101562e+01 -1.059656380675733089e-03 8.202792167663574219e+00 2.460519790649414062e+00 -4.392126109451055527e-03
4.660000000000000000e+02 7.951513671875000000e+01 -4.042186737060546875e+01 -1.832247478887438774e-03 8.215826034545898438e+00 2.464198112487792969e+00 -3.339936723932623863e-03
4.670000000000000000e+02 4.448061585426330566e-01 4.202511215209960938e+01 3.978118766099214554e-03 4.830370843410491943e-01 1.461045593023300171e-01 5.039690528064966202e-03
4.680000000000000000e+02 5.091100931167602539e-01 4.116602325439453125e+01 -2.794237062335014343e-02 4.861860871315002441e-01 1.374731063842773438e-01 -4.579980857670307159e-03
4.690000000000000000e+02 5.667576789855957031e+00 3.780341720581054688e+01 -1.321988552808761597e-01 1.552884340286254883e+00 4.262056350708007812e-01 -2.194797098636627197e-01
4.700000000000000000e+02 4.764828872680664062e+01 3.706094360351562500e+01 -5.810946822166442871e-01 7.878859519958496094e+00 2.189329385757446289e+00 1.634689569473266602e-01
4.710000000000000000e+02 6.701811218261718750e+01 4.067535400390625000e+01 -1.328315436840057373e-01 7.897315025329589844e+00 2.329344987869262695e+00 3.401071950793266296e-02
4.720000000000000000e+02 7.874077606201171875e+01 3.934412002563476562e+01 -4.104083054699003696e-04 8.043219566345214844e+00 2.412842750549316406e+00 9.867022745311260223e-03
4.730000000000000000e+02 7.851446533203125000e+01 4.194139099121093750e+01 -1.528341439552605152e-03 8.053812026977539062e+00 2.415684938430786133e+00 2.723251935094594955e-03
4.740000000000000000e+02 3.856236338615417480e-01 1.899888277053833008e+00 -1.094493636628612876e-04 1.152933909907005727e-04 1.753207129695510957e-06 -4.752794848172925413e-05
4.750000000000000000e+02 1.156122565269470215e+00 1.894519448280334473e+00 2.064514847006648779e-04 1.396525185555219650e-04 1.038311966112814844e-04 -1.816131989471614361e-04
4.760000000000000000e+02 3.456628084182739258e+00 2.620643615722656250e+00 5.072929779998958111e-04 -9.126553777605295181e-06 1.494499301770702004e-04 -4.703412414528429508e-04
4.770000000000000000e+02 5.069186210632324219e+00 3.996094703674316406e+00 7.424819050356745720e-04 -4.359816084615886211e-04 9.195008169626817107e-05 -4.532980965450406075e-04
4.780000000000000000e+02 3.997539579868316650e-01 4.320950508117675781e+00 3.280526725575327873e-04 7.617031224071979523e-04 3.269267326686531305e-04 -1.652035425649955869e-04
4.790000000000000000e+02 1.195653915405273438e+00 5.174082279205322266e+00 5.281581543385982513e-04 8.577345870435237885e-04 4.157678340561687946e-04 -5.683433264493942261e-04
4.800000000000000000e+02 3.850035369396209717e-01 5.944168567657470703e+00 5.220914608798921108e-04 1.551718334667384624e-03 6.221429212018847466e-04 -2.430912281852215528e-04
4.810000000000000000e+02 3.566432297229766846e-01 8.365472793579101562e+00 -9.638974443078041077e-04 3.510179463773965836e-03 7.638846291229128838e-04 -3.828465996775776148e-04
4.820000000000000000e+02 3.532528877258300781e-01 9.167148590087890625e+00 1.156454673036932945e-03 4.350769799202680588e-03 1.652167295105755329e-03 -3.522702318150550127e-04
4.830000000000000000e+02 3.520158231258392334e-01 9.968581199645996094e+00 -1.306565827690064907e-03 5.283451173454523087e-03 1.193065661936998367e-03 -4.496577603276818991e-04
4.840000000000000000e+02 3.531382977962493896e-01 1.076947402954101562e+01 1.329138758592307568e-03 6.065160501748323441e-03 2.218289766460657120e-03 -2.084642619593068957e-04
4.850000000000000000e+02 3.553538620471954346e-01 1.156965351104736328e+01 -1.601401367224752903e-03 6.514117587357759476e-03 1.473814947530627251e-03 -1.615534274606034160e-04
4.860000000000000000e+02 1.063592195510864258e+00 1.160551452636718750e+01 5.520975100807845592e-04 3.015549853444099426e-03 1.070294179953634739e-03 2.980174904223531485e-04
4.870000000000000000e+02 3.593715131282806396e-01 1.317290496826171875e+01 -1.764434389770030975e-03 4.195849876850843430e-03 7.294245879165828228e-04 1.107266056351363659e-03
4.880000000000000000e+02 3.840541243553161621e-01 1.559614753723144531e+01 -1.759974053129553795e-03 -2.482905238866806030e-02 -7.976708002388477325e-03 9.205562062561511993e-03
4.890000000000000000e+02 1.949007511138916016e+00 1.567465686798095703e+01 -1.918221265077590942e-02 -7.178487256169319153e-03 -7.908210158348083496e-03 3.427665308117866516e-02
4.900000000000000000e+02 7.782711029052734375e+00 1.690221214294433594e+01 -4.606930539011955261e-02 -1.861114203929901123e-01 -6.965421885251998901e-02 -7.835966348648071289e-02
4.910000000000000000e+02 3.565718829631805420e-01 1.881581115722656250e+01 -1.882837968878448009e-03 -1.675922721624374390e-01 -5.084253475069999695e-02 2.295544743537902832e-02
4.920000000000000000e+02 3.593333065509796143e-01 2.200996017456054688e+01 1.267318380996584892e-03 -3.676378726959228516e-01 -1.099111661314964294e-01 1.739039272069931030e-02
4.930000000000000000e+02 3.552288413047790527e-01 2.281279373168945312e+01 3.169478150084614754e-03 -4.025031924247741699e-01 -1.198001131415367126e-01 1.241913437843322754e-02
4.940000000000000000e+02 3.551858663558959961e-01 2.361471366882324219e+01 3.846353385597467422e-03 -4.232012629508972168e-01 -1.258064806461334229e-01 4.547559656202793121e-03
4.950000000000000000e+02 3.614972829818725586e-01 2.441466140747070312e+01 2.273775404319167137e-03 -4.269020855426788330e-01 -1.273884922266006470e-01 -2.424959326162934303e-03
4.960000000000000000e+02 3.693951666355133057e-01 2.521577262878417969e+01 3.259061602875590324e-03 -4.160350561141967773e-01 -1.238327994942665100e-01 -8.444977924227714539e-03
4.970000000000000000e+02 1.084202527999877930e+00 2.441103744506835938e+01 1.225222926586866379e-02 -2.474972158670425415e-01 -7.057349383831024170e-02 -8.425753563642501831e-03
4.980000000000000000e+02 3.772822320461273193e-01 2.682144927978515625e+01 3.107031807303428650e-03 -3.596210777759552002e-01 -1.069542095065116882e-01 -1.855378784239292145e-02
4.990000000000000000e+02 3.767159283161163330e-01 2.922537422180175781e+01 1.506064436398446560e-03 -2.085260152816772461e-01 -6.210598349571228027e-02 -2.837154455482959747e-02
5.000000000000000000e+02 3.797233700752258301e-01 3.002663421630859375e+01 6.757598021067678928e-04 -1.457052826881408691e-01 -4.350885748863220215e-02 -3.063817508518695831e-02
5.010000000000000000e+02 3.869758546352386475e-01 3.082989120483398438e+01 2.077281009405851364e-03 -7.830844819545745850e-02 -2.286935038864612579e-02 -3.370908275246620178e-02
5.020000000000000000e+02 3.965025246143341064e-01 3.163289642333984375e+01 -1.467838301323354244e-03 -8.468152955174446106e-03 -2.980797551572322845e-03 -3.418396785855293274e-02
5.030000000000000000e+02 1.151455760002136230e+00 3.079045677185058594e+01 2.521377056837081909e-03 1.088761687278747559e-01 3.341926261782646179e-02 -9.321334213018417358e-02
5.040000000000000000e+02 4.125497639179229736e-01 3.323576354980468750e+01 -2.481773495674133301e-03 1.240146011114120483e-01 3.645984828472137451e-02 -3.193491324782371521e-02
5.050000000000000000e+02 4.443342089653015137e-01 3.565328598022460938e+01 2.608120666991453618e-05 2.802878618240356445e-01 8.409418165683746338e-02 -2.302268333733081818e-02
5.060000000000000000e+02 4.559362828731536865e-01 3.646150207519531250e+01 -5.934601183980703354e-03 3.167584240436553955e-01 9.324714541435241699e-02 -1.760598085820674896e-02
5.070000000000000000e+02 4.519771933555603027e-01 3.726378250122070312e+01 7.640584837645292282e-03 3.489255011081695557e-01 1.069698259234428406e-01 -1.936041377484798431e-02
5.080000000000000000e+02 4.290930628776550293e-01 3.805781173706054688e+01 -1.555818412452936172e-02 3.771904110908508301e-01 1.084896624088287354e-01 -1.148473564535379410e-02
5.090000000000000000e+02 4.023824036121368408e-01 3.884713363647460938e+01 2.007794380187988281e-02 4.060304760932922363e-01 1.278325319290161133e-01 -1.819531805813312531e-02
5.100000000000000000e+02 4.385835230350494385e-01 4.040114974975585938e+01 2.346957847476005554e-02 4.686927795410156250e-01 1.476487070322036743e-01 -1.986858248710632324e-02
5.110000000000000000e+02 9.649011611938476562e+00 1.841571092605590820e+00 3.232297603972256184e-04 -9.171025158138945699e-05 6.945585482753813267e-05 2.755945315584540367e-04
5.120000000000000000e+02 8.102080345153808594e+00 1.847444057464599609e+00 4.410198016557842493e-04 -1.434005534974858165e-04 8.928577153710648417e-05 1.875270536402240396e-04
5.130000000000000000e+02 5.782876968383789062e+00 1.857221961021423340e+00 6.538205780088901520e-04 -9.176255844067782164e-05 1.686174073256552219e-04 -1.951950398506596684e-04
5.140000000000000000e+02 7.329155445098876953e+00 1.849281907081604004e+00 6.548172677867114544e-04 -7.465722592314705253e-05 1.740480074658989906e-04 -1.224135485244914889e-05
5.150000000000000000e+02 5.009355068206787109e+00 1.862400531768798828e+00 4.100794321857392788e-04 -1.216694217873737216e-04 8.652300311950966716e-05 -1.476804027333855629e-04
5.160000000000000000e+02 4.236870288848876953e+00 1.867606759071350098e+00 5.476233200170099735e-04 -4.261323192622512579e-05 1.515030307928100228e-04 -3.380798152647912502e-04
5.170000000000000000e+02 3.464800834655761719e+00 1.872940659523010254e+00 2.394650800852105021e-04 -1.923936724779196084e-05 6.606771057704463601e-05 -2.425023267278447747e-04
5.180000000000000000e+02 1.924854397773742676e+00 1.887170672416687012e+00 2.119580858561675996e-05 1.153354605776257813e-04 4.095938129466958344e-05 -1.979033550014719367e-04
5.190000000000000000e+02 1.193559741973876953e+01 1.771039009094238281e+00 2.507447206880897284e-04 8.948497270466759801e-05 1.020689087454229593e-04 1.853443536674603820e-04
5.200000000000000000e+02 1.270236396789550781e+01 3.199124097824096680e+00 -6.515956920338794589e-05 1.110130542656406760e-04 1.375604551867581904e-05 2.778826456051319838e-04
5.210000000000000000e+02 1.346815013885498047e+01 3.215997457504272461e+00 1.326312631135806441e-04 2.275184233440086246e-04 1.080449073924683034e-04 1.723628811305388808e-04
5.220000000000000000e+02 1.425381851196289062e+01 1.706549763679504395e+00 -4.155136412009596825e-05 4.452676148503087461e-05 8.926190275815315545e-07 6.466898776125162840e-05
5.230000000000000000e+02 1.504233360290527344e+01 1.694083333015441895e+00 8.135705138556659222e-05 4.292781886761076748e-05 3.728545925696380436e-05 2.042421874648425728e-05
5.240000000000000000e+02 1.504552173614501953e+01 2.487204790115356445e+00 -1.011001440929248929e-04 7.893272413639351726e-05 -6.650224804616300389e-06 2.824780312948860228e-05
5.250000000000000000e+02 1.346603393554687500e+01 1.721908092498779297e+00 1.362933689961209893e-04 9.779902029549703002e-05 7.022771751508116722e-05 1.088058561435900629e-04
5.260000000000000000e+02 1.269351100921630859e+01 1.743875861167907715e+00 5.084522490506060421e-05 1.523653645563172176e-05 1.982452886295504868e-05 1.740350562613457441e-04
5.270000000000000000e+02 1.477471733093261719e+01 5.639624595642089844e+00 -2.241570182377472520e-04 4.213149077259004116e-04 5.914736902923323214e-05 -5.311924542183987796e-05
5.280000000000000000e+02 1.462569427490234375e+01 6.407682418823242188e+00 2.228224038844928145e-04 5.727675743401050568e-04 2.386769920121878386e-04 -1.641930066398344934e-05
5.290000000000000000e+02 1.385838985443115234e+01 8.626429557800292969e+00 -2.273641875945031643e-04 9.870037902146577835e-04 2.278918836964294314e-04 -4.628064925782382488e-04
5.300000000000000000e+02 1.352166175842285156e+01 9.337292671203613281e+00 4.706349864136427641e-04 1.408553915098309517e-03 5.637566791847348213e-04 -3.720189270097762346e-04
5.310000000000000000e+02 1.279382610321044922e+01 1.073681926727294922e+01 5.996876279823482037e-04 1.961820060387253761e-03 7.684523006901144981e-04 -7.418157765641808510e-04
5.320000000000000000e+02 1.143721294403076172e+01 1.264581108093261719e+01 1.308279694058001041e-03 3.030229127034544945e-03 1.301552634686231613e-03 -2.226063748821616173e-03
5.330000000000000000e+02 1.090963172912597656e+01 1.323244667053222656e+01 2.268423093482851982e-03 3.966609947383403778e-03 1.870509935542941093e-03 -2.992086810991168022e-03
5.340000000000000000e+02 1.044398975372314453e+01 1.277708721160888672e+01 -1.418767351424321532e-04 4.155536647886037827e-03 1.204097992740571499e-03 -1.525116735137999058e-03
5.350000000000000000e+02 8.484077453613281250e+00 1.468467044830322266e+01 -1.354929525405168533e-03 -2.427156316116452217e-03 -1.134625752456486225e-03 -3.838113276287913322e-03
5.360000000000000000e+02 9.840458869934082031e+00 1.437997436523437500e+01 3.843399230390787125e-03 5.138467531651258469e-03 2.694559982046484947e-03 -5.295763723552227020e-03
5.370000000000000000e+02 9.291722297668457031e+00 1.490526866912841797e+01 5.452394951134920120e-03 8.454827591776847839e-03 4.172166809439659119e-03 -5.778348073363304138e-03
5.380000000000000000e+02 8.047134399414062500e+00 1.545511436462402344e+01 2.905969275161623955e-03 -1.173869799822568893e-02 -2.649818779900670052e-03 -1.024920865893363953e-02
5.390000000000000000e+02 7.968155384063720703e+00 1.621532630920410156e+01 1.050977688282728195e-02 -3.448470681905746460e-02 -7.192479446530342102e-03 -5.416581872850656509e-03
5.400000000000000000e+02 1.228884983062744141e+01 1.759394073486328125e+01 2.160749197006225586e+00 1.676631689071655273e+00 1.151214241981506348e+00 -1.809562206268310547e+00
5.410000000000000000e+02 1.415643882751464844e+01 1.597298908233642578e+01 2.803455591201782227e+00 3.881139039993286133e+00 2.005378246307373047e+00 -3.205861330032348633e+00
5.420000000000000000e+02 1.522823810577392578e+01 1.473299121856689453e+01 3.088654279708862305e+00 6.647969245910644531e+00 2.920987129211425781e+00 -4.144732952117919922e+00
5.430000000000000000e+02 1.537380599975585938e+01 1.689934158325195312e+01 1.491732478141784668e+00 5.471084117889404297e+00 2.088845014572143555e+00 -2.497751235961914062e+00
5.440000000000000000e+02 1.567659759521484375e+01 1.404375076293945312e+01 2.542195081710815430e+00 7.700573444366455078e+00 3.072830677032470703e+00 -4.118037700653076172e+00
5.450000000000000000e+02 1.678840065002441406e+01 1.186565399169921875e+01 1.880017995834350586e+00 9.428881645202636719e+00 3.392669677734375000e+00 -4.024008750915527344e+00
5.460000000000000000e+02 1.711717796325683594e+01 1.112494564056396484e+01 1.780947923660278320e+00 1.039161586761474609e+01 3.651769161224365234e+00 -4.037075519561767578e+00
5.470000000000000000e+02 1.768580627441406250e+01 9.610470771789550781e+00 1.425407171249389648e+00 1.266279125213623047e+01 4.226459503173828125e+00 -3.622056961059570312e+00
5.480000000000000000e+02 1.806540679931640625e+01 8.041298866271972656e+00 5.478816032409667969e-01 1.269504642486572266e+01 3.972878456115722656e+00 -2.420653343200683594e+00
5.490000000000000000e+02 1.821813964843750000e+01 7.256285190582275391e+00 4.449770450592041016e-01 1.255360984802246094e+01 3.899575948715209961e+00 -2.275717020034790039e+00
5.500000000000000000e+02 1.868753814697265625e+01 4.080497264862060547e+00 2.882814109325408936e-01 1.393190574645996094e+01 4.266056060791015625e+00 -1.104153752326965332e+00
5.510000000000000000e+02 1.874425697326660156e+01 3.275737285614013672e+00 2.917023003101348877e-01 1.400011348724365234e+01 4.287544727325439453e+00 -6.121297478675842285e-01
5.520000000000000000e+02 1.956781768798828125e+01 2.573124408721923828e+00 3.910373747348785400e-01 1.291337966918945312e+01 3.991325139999389648e+00 -6.204034686088562012e-01
5.530000000000000000e+02 1.876703453063964844e+01 2.469563961029052734e+00 1.035451591014862061e-01 1.337284755706787109e+01 4.042917728424072266e+00 -2.402475774288177490e-01
5.540000000000000000e+02 1.877772521972656250e+01 1.662867665290832520e+00 2.654700912535190582e-02 1.291087818145751953e+01 3.881227493286132812e+00 -1.179663315415382385e-01
5.550000000000000000e+02 1.878611183166503906e+01 8.551867008209228516e-01 3.913922607898712158e-02 1.278897380828857422e+01 3.848433971405029297e+00 -5.371557548642158508e-02
5.560000000000000000e+02 1.878976631164550781e+01 4.809822142124176025e-02 3.018497489392757416e-02 1.275138950347900391e+01 3.834472179412841797e+00 1.160776149481534958e-02
5.570000000000000000e+02 1.873853111267089844e+01 -4.006045818328857422e+00 2.958439290523529053e-01 1.521189880371093750e+01 4.652322769165039062e+00 7.817114591598510742e-01
5.580000000000000000e+02 1.956245613098144531e+01 -3.221924066543579102e+00 4.598713517189025879e-01 1.358925533294677734e+01 4.214737892150878906e+00 1.007439494132995605e+00
5.590000000000000000e+02 1.867955207824707031e+01 -4.824637889862060547e+00 7.925034165382385254e-01 1.663382530212402344e+01 5.227898597717285156e+00 1.810765385627746582e+00
5.600000000000000000e+02 1.831715774536132812e+01 -6.430711269378662109e+00 1.918653726577758789e+00 1.471478843688964844e+01 4.990032672882080078e+00 4.443671226501464844e+00
5.610000000000000000e+02 1.802013778686523438e+01 -7.197024345397949219e+00 2.113158226013183594e+00 1.251100349426269531e+01 4.387248516082763672e+00 4.712553501129150391e+00
5.620000000000000000e+02 1.731614494323730469e+01 -8.670307159423828125e+00 2.505323886871337891e+00 9.623237609863281250e+00 3.638568401336669922e+00 4.600050926208496094e+00
5.630000000000000000e+02 1.691305541992187500e+01 -9.376849174499511719e+00 2.422448396682739258e+00 8.172779083251953125e+00 3.178568124771118164e+00 4.309829711914062500e+00
5.640000000000000000e+02 1.566884994506835938e+01 -1.146148586273193359e+01 2.185074567794799805e+00 6.473084449768066406e+00 2.597447872161865234e+00 3.619898796081542969e+00
5.650000000000000000e+02 1.587155246734619141e+01 -1.258440399169921875e+01 1.887305378913879395e+00 6.180328845977783203e+00 2.420290231704711914e+00 3.099237203598022461e+00
5.660000000000000000e+02 1.208322334289550781e+01 -1.699385261535644531e+01 1.484129667282104492e+00 2.582031726837158203e+00 1.219848394393920898e+00 1.796847224235534668e+00
5.670000000000000000e+02 1.096596717834472656e+01 -1.700896453857421875e+01 1.826261997222900391e+00 1.783417820930480957e+00 1.082903981208801270e+00 1.699791073799133301e+00
5.680000000000000000e+02 9.677351951599121094e+00 -1.797092819213867188e+01 1.147386670112609863e+00 8.095140457153320312e-01 5.870702266693115234e-01 9.592147469520568848e-01
5.690000000000000000e+02 9.108465194702148438e+00 -1.850236320495605469e+01 6.472692489624023438e-01 5.811781287193298340e-01 3.685342073440551758e-01 8.289270401000976562e-01
5.700000000000000000e+02 7.863375663757324219e+00 -1.343600845336914062e+01 -9.242079104296863079e-04 2.950269961729645729e-03 6.078185979276895523e-04 4.899912513792514801e-03
5.710000000000000000e+02 7.277856826782226562e+00 -1.314836215972900391e+01 6.338130333460867405e-04 3.513730189297348261e-04 2.955558011308312416e-04 -2.607696224004030228e-04
5.720000000000000000e+02 9.600247383117675781e+00 -1.073940753936767578e+01 -1.587805454619228840e-04 1.693561556749045849e-03 4.604342975653707981e-04 1.515067298896610737e-03
5.730000000000000000e+02 1.054414176940917969e+01 -9.448640823364257812e+00 -1.471981086069718003e-04 7.822253392077982426e-04 1.905081735458225012e-04 7.791117532178759575e-04
5.740000000000000000e+02 1.152105426788330078e+01 -8.194086074829101562e+00 -1.687443436821922660e-04 3.255254705436527729e-04 4.703433660324662924e-05 3.863677848130464554e-04
5.750000000000000000e+02 1.334383678436279297e+01 -5.630487918853759766e+00 -1.408661046298220754e-04 6.309612945187836885e-05 -2.333099473617039621e-05 8.758820331422612071e-05
5.760000000000000000e+02 1.371997642517089844e+01 -4.941277503967285156e+00 1.117251813411712646e-04 5.255127325654029846e-05 4.928293492412194610e-05 -3.980879773735068738e-05
5.770000000000000000e+02 1.231105136871337891e+01 -4.547995090484619141e+00 9.581384802004322410e-05 1.085182666429318488e-04 6.129963003331795335e-05 -1.599564420757815242e-04
5.780000000000000000e+02 1.408661174774169922e+01 -2.016650438308715820e+00 -1.673619226494338363e-05 3.201374420314095914e-05 4.583266218105563894e-06 1.588257509865798056e-05
5.790000000000000000e+02 1.491011142730712891e+01 -2.073974847793579102e+00 9.488671821600291878e-06 -9.847490218817256391e-06 -1.076456044302176451e-07 -6.270468020375119522e-06
5.800000000000000000e+02 9.453529357910156250e+00 -1.815551519393920898e+00 1.080898218788206577e-04 6.065165871405042708e-05 5.062244235887192190e-05 8.439036719209980220e-06
5.810000000000000000e+02 1.292648983001708984e+01 -6.295322895050048828e+00 1.874416630016639829e-04 1.427031820639967918e-04 9.904345643008127809e-05 -3.511656177579425275e-05
5.820000000000000000e+02 1.468504142761230469e+01 -2.803415060043334961e+00 -2.415309245407115668e-05 8.175336915883235633e-06 -4.793326297658495605e-06 1.220476769958622754e-05
5.830000000000000000e+02 8.642416000366210938e+00 -1.817704796791076660e+00 1.241261925315484405e-04 -5.744699228671379387e-05 2.000375934585463256e-05 -2.215449785580858588e-04
5.840000000000000000e+02 1.117721462249755859e+01 1.799188137054443359e+00 1.813986309571191669e-04 -3.426497642067261040e-05 4.414009890751913190e-05 2.634629490785300732e-04
5.850000000000000000e+02 1.190784645080566406e+01 3.890941619873046875e+00 -9.147590026259422302e-05 1.022404831019230187e-04 3.229374442526022904e-06 4.118990909773856401e-04
5.860000000000000000e+02 1.271172809600830078e+01 2.473388671875000000e+00 1.804457424441352487e-04 1.517575583420693874e-04 9.966098878066986799e-05 1.939378707902505994e-04
5.870000000000000000e+02 1.117963600158691406e+01 3.188849925994873047e+00 3.484916669549420476e-05 -2.272696747240843251e-06 9.772940757102333009e-06 4.145472194068133831e-04
5.880000000000000000e+02 1.195102500915527344e+01 2.483830690383911133e+00 4.814863495994359255e-05 2.411493187537416816e-05 2.167907041439320892e-05 2.932936768047511578e-04
5.890000000000000000e+02 5.777685642242431641e+00 2.565654516220092773e+00 3.827055334113538265e-04 -2.348636189708486199e-04 4.435257505974732339e-05 -6.640442734351381660e-05
5.900000000000000000e+02 5.001656055450439453e+00 2.584024906158447266e+00 6.337232771329581738e-04 -1.630572805879637599e-04 1.411997945979237556e-04 -3.463229804765433073e-04
5.910000000000000000e+02 1.108711242675781250e+00 6.831443309783935547e+00 7.963912212289869785e-04 1.501449267379939556e-03 6.893521058373153210e-04 -7.821158505976200104e-04
5.920000000000000000e+02 1.956503510475158691e+00 3.480939865112304688e+00 -8.872212492860853672e-05 2.786090481095016003e-04 5.696607331628911197e-05 -3.483703767415136099e-04
5.930000000000000000e+02 2.693642139434814453e+00 1.879371643066406250e+00 3.754740464501082897e-04 6.104454223532229662e-05 1.309555809712037444e-04 -3.473045653663575649e-04
5.940000000000000000e+02 2.688421249389648438e+00 2.643134593963623047e+00 8.469516615150496364e-05 7.758952415315434337e-05 4.868540781899355352e-05 -3.161377389915287495e-04
5.950000000000000000e+02 1.926568865776062012e+00 2.670691251754760742e+00 3.448805946391075850e-04 1.888130063889548182e-04 1.601080875843763351e-04 -4.033431760035455227e-04
5.960000000000000000e+02 3.879864513874053955e-01 2.702292919158935547e+00 1.997322979150339961e-04 2.567162446212023497e-04 1.369345554849132895e-04 -9.875927207758650184e-05
5.970000000000000000e+02 7.324398517608642578e+00 2.541700839996337891e+00 3.802081919275224209e-04 -2.392420283285900950e-04 4.228985562804155052e-05 1.629598118597641587e-04
5.980000000000000000e+02 6.551809310913085938e+00 2.551120996475219727e+00 6.667817942798137665e-04 -1.911924337036907673e-04 1.426767994416877627e-04 -1.259830605704337358e-04
5.990000000000000000e+02 1.042014980316162109e+01 2.511715888977050781e+00 1.746265770634636283e-04 -6.809414480812847614e-05 3.195973113179206848e-05 3.653508902061730623e-04
6.000000000000000000e+02 9.647139549255371094e+00 2.521675586700439453e+00 4.452759167179465294e-04 -6.101203780417563394e-06 1.317524147452786565e-04 2.296063903486356139e-04
6.010000000000000000e+02 9.299817085266113281e+00 -1.999061012268066406e+01 6.140637397766113281e-01 1.156334877014160156e+00 5.311195850372314453e-01 1.058950662612915039e+00
6.020000000000000000e+02 1.155953168869018555e+00 1.564460372924804688e+01 -8.442351594567298889e-03 -2.145617082715034485e-02 -8.969556540250778198e-03 2.332011610269546509e-02
6.030000000000000000e+02 7.197857379913330078e+00 1.593383026123046875e+01 -1.474149990826845169e-02 -7.451609522104263306e-02 -2.677727863192558289e-02 -6.249248608946800232e-02
6.040000000000000000e+02 7.247782707214355469e+00 -1.668445777893066406e+01 -1.605651825666427612e-01 -2.330863624811172485e-01 -1.180954575538635254e-01 1.574243456125259399e-01
6.050000000000000000e+02 1.502375030517578125e+01 3.278943538665771484e+00 1.266656909137964249e-04 1.658121473155915737e-04 8.774335583439096808e-05 3.530238609528169036e-05
6.060000000000000000e+02 7.212456703186035156e+00 -1.498343563079833984e+01 -1.320031564682722092e-02 -4.167197272181510925e-02 -1.646168716251850128e-02 2.110322378575801849e-02
6.070000000000000000e+02 1.112997341156005859e+01 1.909313392639160156e+01 9.336787462234497070e-01 1.334303021430969238e+00 6.803945302963256836e-01 -1.285408020019531250e+00
6.080000000000000000e+02 1.018774700164794922e+01 1.928874588012695312e+01 5.932398438453674316e-01 6.217916011810302734e-01 3.645094335079193115e-01 -9.640061855316162109e-01
6.090000000000000000e+02 1.032952404022216797e+01 -1.751172065734863281e+01 1.577473759651184082e+00 1.233136534690856934e+00 8.431831002235412598e-01 1.344204068183898926e+00
6.100000000000000000e+02 8.005131721496582031e+00 1.475238800048828125e+01 -3.533858573064208031e-03 -1.046374160796403885e-02 -4.199280403554439545e-03 -5.188695620745420456e-03
6.110000000000000000e+02 1.050548553466796875e+00 -1.627345085144042969e+01 -7.049381732940673828e-03 -4.998800158500671387e-02 -1.711121574044227600e-02 -3.846611082553863525e-02
6.120000000000000000e+02 1.650039863586425781e+01 1.547170066833496094e+01 1.748692393302917480e+00 6.875309467315673828e+00 2.587200403213500977e+00 -2.628884553909301758e+00
6.130000000000000000e+02 3.395877480506896973e-01 -1.793207931518554688e+01 -1.773292198777198792e-03 -1.588993519544601440e-01 -4.820179194211959839e-02 -2.077391743659973145e-02
6.140000000000000000e+02 1.146091079711914062e+01 -1.755270385742187500e+01 1.307379961013793945e+00 2.269453287124633789e+00 1.073050022125244141e+00 1.587968230247497559e+00
6.150000000000000000e+02 2.127382850646972656e+01 -3.315001249313354492e+00 1.212638735771179199e+00 1.195219612121582031e+01 3.949450492858886719e+00 1.114715814590454102e+00
6.160000000000000000e+02 1.859137344360351562e+01 8.990905761718750000e+00 1.343327045440673828e+00 1.179947185516357422e+01 3.942839622497558594e+00 -2.639100551605224609e+00
6.170000000000000000e+02 8.705676078796386719e+00 -1.206491374969482422e+01 -2.749650739133358002e-04 3.038861323148012161e-03 8.291688864119350910e-04 2.862232038751244545e-03
6.180000000000000000e+02 3.190560340881347656e+00 -1.142580318450927734e+01 -5.497303791344165802e-03 -2.700102340895682573e-04 -1.730194198898971081e-03 -1.428261632099747658e-03
6.190000000000000000e+02 1.202662754058837891e+01 1.871269989013671875e+01 1.229204893112182617e+00 1.960671305656433105e+00 9.569628238677978516e-01 -1.628086924552917480e+00
6.200000000000000000e+02 1.899385833740234375e+01 -6.630077362060546875e+00 1.875875830650329590e+00 1.334986114501953125e+01 4.567720890045166016e+00 2.768398046493530273e+00
6.210000000000000000e+02 1.741846847534179688e+01 1.037426471710205078e+01 1.605420351028442383e+00 1.143863296508789062e+01 3.913215875625610352e+00 -3.949030160903930664e+00
6.220000000000000000e+02 1.295509147644042969e+01 1.709650802612304688e+01 2.510292530059814453e+00 2.444589138031005859e+00 1.486464500427246094e+00 -2.342564105987548828e+00
6.230000000000000000e+02 1.348631763458251953e+01 1.761830520629882812e+01 1.801248192787170410e+00 3.257967710494995117e+00 1.517764806747436523e+00 -2.266251325607299805e+00
6.240000000000000000e+02 1.607111167907714844e+01 1.332477951049804688e+01 2.088541507720947266e+00 8.151604652404785156e+00 3.072043657302856445e+00 -3.962605714797973633e+00
6.250000000000000000e+02 1.156495571136474609e+01 -2.501759290695190430e+00 -1.656915628700517118e-05 8.819156937533989549e-05 2.148672501789405942e-05 4.823186827707104385e-05
6.260000000000000000e+02 1.768482208251953125e+01 -7.942600250244140625e+00 2.293120384216308594e+00 1.095351314544677734e+01 3.973989963531494141e+00 4.693351268768310547e+00
6.270000000000000000e+02 1.608260154724121094e+01 -1.076606941223144531e+01 2.040639638900756836e+00 6.752464294433593750e+00 2.637931346893310547e+00 3.677716732025146484e+00
6.280000000000000000e+02 1.718772888183593750e+01 -1.046693134307861328e+01 1.693970680236816406e+00 8.047988891601562500e+00 2.922587871551513672e+00 3.581981182098388672e+00
6.290000000000000000e+02 1.474840354919433594e+01 1.642873191833496094e+01 2.091406106948852539e+00 4.865368366241455078e+00 2.087032318115234375e+00 -2.951845407485961914e+00
6.300000000000000000e+02 1.477113723754882812e+01 -1.281415653228759766e+01 2.313002109527587891e+00 5.288784503936767578e+00 2.280535936355590820e+00 3.378792047500610352e+00
6.310000000000000000e+02 1.632970619201660156e+01 -1.188626861572265625e+01 1.877011299133300781e+00 6.645103454589843750e+00 2.556634426116943359e+00 3.234899282455444336e+00
6.320000000000000000e+02 1.047410964965820312e+01 -3.571591615676879883e+00 7.943761738715693355e-05 4.225684824632480741e-05 3.650833969004452229e-05 -3.655038890428841114e-04
6.330000000000000000e+02 1.325110435485839844e+01 -1.696164703369140625e+01 1.196988344192504883e+00 3.494766712188720703e+00 1.407526493072509766e+00 1.971502900123596191e+00
6.340000000000000000e+02 1.382053279876708984e+01 -1.521568584442138672e+01 1.644771218299865723e+00 3.979145765304565430e+00 1.687175154685974121e+00 2.453220605850219727e+00
6.350000000000000000e+02 1.406115722656250000e+01 -4.232823371887207031e+00 -8.056718797888606787e-05 2.664057319634594023e-05 -1.617798443476203829e-05 3.933371772291138768e-05
6.360000000000000000e+02 1.436888027191162109e+01 -1.458843803405761719e+01 1.781049370765686035e+00 4.515068531036376953e+00 1.888835430145263672e+00 2.620066404342651367e+00
6.370000000000000000e+02 1.267939853668212891e+01 -1.641277694702148438e+01 1.572152495384216309e+00 2.965311765670776367e+00 1.361239314079284668e+00 2.090008735656738281e+00
6.380000000000000000e+02 1.447911071777343750e+01 -1.691676330566406250e+01 9.201884865760803223e-01 4.413928508758544922e+00 1.600235104560852051e+00 1.987127780914306641e+00
6.390000000000000000e+02 1.746209335327148438e+01 1.210334682464599609e+01 1.609857797622680664e+00 9.545761108398437500e+00 3.346685886383056641e+00 -3.347264528274536133e+00
6.400000000000000000e+02 1.870277786254882812e+01 -7.446337699890136719e+00 1.772621035575866699e+00 1.227879333496093750e+01 4.215424537658691406e+00 3.315091371536254883e+00
6.410000000000000000e+02 1.053340554237365723e+00 -1.228337955474853516e+01 -2.765213139355182648e-03 -7.354998961091041565e-04 -1.050213933922350407e-03 -3.203601343557238579e-03
6.420000000000000000e+02 1.850068092346191406e+01 5.678760528564453125e+00 4.714868664741516113e-01 1.360831165313720703e+01 4.223939418792724609e+00 -1.818807959556579590e+00
6.430000000000000000e+02 1.438490200042724609e+01 -3.518223524093627930e+00 4.651534982258453965e-05 6.911870059411739931e-06 1.602816519152838737e-05 -2.675530595297459513e-05
6.440000000000000000e+02 1.388775730133056641e+01 -2.696602582931518555e+00 3.879320502164773643e-05 -8.705483764970267657e-07 1.137679737439611927e-05 -4.441472992766648531e-05
6.450000000000000000e+02 1.939119338989257812e+01 -4.929236412048339844e+00 1.649739503860473633e+00 1.403887939453125000e+01 4.706585884094238281e+00 2.020670890808105469e+00
6.460000000000000000e+02 1.539206600189208984e+01 -1.327008914947509766e+01 1.899287104606628418e+00 5.623515129089355469e+00 2.256840705871582031e+00 2.976624250411987305e+00
6.470000000000000000e+02 1.523154735565185547e+01 -1.214507484436035156e+01 2.264068603515625000e+00 5.899457454681396484e+00 2.449057817459106445e+00 3.531826019287109375e+00
6.480000000000000000e+02 1.800362968444824219e+01 -8.998700141906738281e+00 1.847334265708923340e+00 9.844576835632324219e+00 3.507573366165161133e+00 3.549621582031250000e+00
6.490000000000000000e+02 1.837042427062988281e+01 -8.234206199645996094e+00 1.863049268722534180e+00 1.098597621917724609e+01 3.854707717895507812e+00 3.568876028060913086e+00
6.500000000000000000e+02 1.779216957092285156e+01 1.134032917022705078e+01 1.549588322639465332e+00 1.027876567840576172e+01 3.548506259918212891e+00 -3.241661548614501953e+00
6.510000000000000000e+02 1.836280059814453125e+01 9.786958694458007812e+00 1.494274377822875977e+00 1.153512763977050781e+01 3.908820629119873047e+00 -2.740746021270751953e+00
6.520000000000000000e+02 1.080470657348632812e+01 -2.464566230773925781e+00 5.036784568801522255e-05 8.263029485533479601e-06 1.758926191541831940e-05 -2.212202234659343958e-04
6.530000000000000000e+02 1.083477115631103516e+01 -1.808460617065429688e+01 1.090479969978332520e+00 1.889098167419433594e+00 8.938734531402587891e-01 1.420056223869323730e+00
6.540000000000000000e+02 1.024233245849609375e+01 -1.861497306823730469e+01 7.982672452926635742e-01 1.598530292510986328e+00 7.190392613410949707e-01 1.297236561775207520e+00
6.550000000000000000e+02 1.895343017578125000e+01 7.410257816314697266e+00 6.232349872589111328e-01 1.244773769378662109e+01 3.921291828155517578e+00 -2.079043388366699219e+00
6.560000000000000000e+02 1.836907005310058594e+01 6.470564365386962891e+00 5.021772384643554688e-01 1.310406970977783203e+01 4.081873893737792969e+00 -2.158512592315673828e+00
6.570000000000000000e+02 1.268257045745849609e+01 -1.529012012481689453e+01 1.921578764915466309e+00 2.734294891357421875e+00 1.396762132644653320e+00 2.290552854537963867e+00
6.580000000000000000e+02 1.103052520751953125e+01 -8.817599296569824219e+00 5.088108591735363007e-04 7.606602157466113567e-04 3.808413166552782059e-04 1.173337950604036450e-04
6.590000000000000000e+02 1.006658077239990234e+01 -1.008931064605712891e+01 8.968003676272928715e-04 1.653671846725046635e-03 7.651416817680001259e-04 3.514310228638350964e-04
6.600000000000000000e+02 9.446007728576660156e+00 -9.775474548339843750e+00 -5.823628162033855915e-04 9.782181587070226669e-04 1.187566158478148282e-04 7.221109699457883835e-04
6.610000000000000000e+02 9.918345451354980469e+00 -9.134325981140136719e+00 2.626237401273101568e-04 1.388792530633509159e-03 4.954249016009271145e-04 -2.172410167986527085e-04
6.620000000000000000e+02 1.910745811462402344e+01 6.621891498565673828e+00 6.425493359565734863e-01 1.256394386291503906e+01 3.961947917938232422e+00 -1.718548655509948730e+00
6.630000000000000000e+02 8.983705520629882812e+00 -1.042787647247314453e+01 3.000307769980281591e-04 2.470256527885794640e-03 8.310861885547637939e-04 -3.908094076905399561e-04
6.640000000000000000e+02 1.672492027282714844e+01 1.361358928680419922e+01 1.978109121322631836e+00 8.121369361877441406e+00 3.029843568801879883e+00 -3.481361865997314453e+00
6.650000000000000000e+02 1.134114265441894531e+01 -7.276288509368896484e+00 -2.963588631246238947e-04 2.871979668270796537e-04 -2.748266297203372233e-06 2.593589306343346834e-04
6.660000000000000000e+02 1.087258911132812500e+01 -7.887955188751220703e+00 2.227375953225418925e-04 7.107018609531223774e-04 2.800318470690399408e-04 -1.401025074301287532e-04
6.670000000000000000e+02 1.960287475585937500e+01 1.750815033912658691e+00 1.993679106235504150e-01 1.280884265899658203e+01 3.902463197708129883e+00 -3.338960111141204834e-01
6.680000000000000000e+02 1.960453987121582031e+01 -2.379126310348510742e+00 2.600142955780029297e-01 1.318683910369873047e+01 4.034055709838867188e+00 6.219146251678466797e-01
6.690000000000000000e+02 1.944760894775390625e+01 4.208625793457031250e+00 5.936598777770996094e-01 1.301045036315917969e+01 4.081233024597167969e+00 -9.395101070404052734e-01
6.700000000000000000e+02 1.935565757751464844e+01 5.019419670104980469e+00 6.158832907676696777e-01 1.298226833343505859e+01 4.079445362091064453e+00 -1.296143054962158203e+00
6.710000000000000000e+02 1.531724643707275391e+01 1.578025054931640625e+01 2.138741731643676758e+00 5.888757705688476562e+00 2.408249855041503906e+00 -3.074921131134033203e+00
6.720000000000000000e+02 1.962773132324218750e+01 9.257053136825561523e-01 1.537457257509231567e-01 1.267099094390869141e+01 3.847420930862426758e+00 -1.257255375385284424e-01
6.730000000000000000e+02 1.179548931121826172e+01 -6.662344455718994141e+00 1.801906473701819777e-04 3.337537054903805256e-04 1.541833044029772282e-04 -1.120927918236702681e-04
6.740000000000000000e+02 1.710693931579589844e+01 1.285890007019042969e+01 1.726602792739868164e+00 8.835151672363281250e+00 3.168526411056518555e+00 -3.445628166198730469e+00
6.750000000000000000e+02 8.535283088684082031e+00 -1.109052181243896484e+01 -8.834078907966613770e-04 1.267850748263299465e-03 1.153328630607575178e-04 1.197742647491395473e-03
6.760000000000000000e+02 1.963950157165527344e+01 -7.194850444793701172e-01 1.509899199008941650e-01 1.274225711822509766e+01 3.867974042892456055e+00 1.945677697658538818e-01
6.770000000000000000e+02 1.877661323547363281e+01 -2.377428293228149414e+00 5.348781868815422058e-02 1.337335968017578125e+01 4.028054237365722656e+00 2.332467585802078247e-01
6.780000000000000000e+02 1.878967285156250000e+01 -7.585430741310119629e-01 3.180353343486785889e-02 1.282635116577148438e+01 3.857446432113647461e+00 7.051098346710205078e-02
6.790000000000000000e+02 1.963927841186523438e+01 1.020873114466667175e-01 1.455303430557250977e-01 1.266942882537841797e+01 3.844487905502319336e+00 2.834492363035678864e-02
6.800000000000000000e+02 1.962977409362792969e+01 -1.544666409492492676e+00 1.897407770156860352e-01 1.289677810668945312e+01 3.925955533981323242e+00 3.790458142757415771e-01
6.810000000000000000e+02 7.963977813720703125e+01 3.882437896728515625e+01 1.936439221026375890e-04 8.068227767944335938e+00 2.420526504516601562e+00 3.339652670547366142e-03
6.820000000000000000e+02 7.957037353515625000e+01 3.569491958618164062e+01 -3.432171652093529701e-04 8.034318923950195312e+00 2.410192728042602539e+00 6.256168242543935776e-03
6.830000000000000000e+02 7.865902709960937500e+01 3.489008712768554688e+01 -1.564182923175394535e-03 8.001204490661621094e+00 2.399892091751098633e+00 1.844692602753639221e-02
6.840000000000000000e+02 7.794255065917968750e+01 3.069386672973632812e+01 -2.858660183846950531e-03 7.917347908020019531e+00 2.374346733093261719e+00 4.381051287055015564e-02
6.850000000000000000e+02 7.957279205322265625e+01 3.245902252197265625e+01 -3.371949787833727896e-05 7.984865665435791016e+00 2.395449638366699219e+00 8.633766323328018188e-03
6.860000000000000000e+02 7.888079833984375000e+01 1.473230361938476562e+01 7.471260614693164825e-04 7.533920764923095703e+00 2.260400533676147461e+00 2.816483937203884125e-02
6.870000000000000000e+02 7.962744903564453125e+01 1.480264377593994141e+01 2.298331673955544829e-04 7.521632671356201172e+00 2.256558656692504883e+00 1.017874013632535934e-02
6.880000000000000000e+02 7.885776519775390625e+01 2.034439659118652344e+01 2.276877639815211296e-04 7.676348686218261719e+00 2.302973031997680664e+00 3.274819627404212952e-02
6.890000000000000000e+02 7.961868286132812500e+01 2.121712684631347656e+01 1.355344720650464296e-04 7.697395324707031250e+00 2.309259176254272461e+00 1.191611494868993759e-02
6.900000000000000000e+02 7.880607604980468750e+01 2.836667442321777344e+01 -3.514957206789404154e-04 7.881503582000732422e+00 2.364345550537109375e+00 3.028869815170764923e-02
6.910000000000000000e+02 7.960264587402343750e+01 2.843638801574707031e+01 -5.793426535092294216e-04 7.895119190216064453e+00 2.368361949920654297e+00 1.087586954236030579e-02
6.920000000000000000e+02 7.959774780273437500e+01 3.004347801208496094e+01 -6.891971570439636707e-04 7.934046745300292969e+00 2.380007266998291016e+00 1.020631659775972366e-02
6.930000000000000000e+02 7.874555969238281250e+01 3.159695053100585938e+01 -1.165239373221993446e-03 7.949650764465332031e+00 2.384545564651489258e+00 2.591186575591564178e-02
6.940000000000000000e+02 7.880043792724609375e+01 2.917120361328125000e+01 -1.333358814008533955e-03 7.899875640869140625e+00 2.369562864303588867e+00 2.926683798432350159e-02
6.950000000000000000e+02 7.880944061279296875e+01 2.756279373168945312e+01 -9.828221518546342850e-04 7.862585067749023438e+00 2.358480691909790039e+00 3.086273930966854095e-02
6.960000000000000000e+02 7.727845001220703125e+01 2.255540657043457031e+01 -6.581437774002552032e-04 7.734806060791015625e+00 2.320244550704956055e+00 7.157357037067413330e-02
6.970000000000000000e+02 7.881774902343750000e+01 2.595454597473144531e+01 -7.438969914801418781e-04 7.823181629180908203e+00 2.346731185913085938e+00 3.203848749399185181e-02
6.980000000000000000e+02 7.883693695068359375e+01 2.354659461975097656e+01 -4.624281791620887816e-05 7.761327266693115234e+00 2.328384399414062500e+00 3.306497633457183838e-02
6.990000000000000000e+02 7.882975769042968750e+01 2.434848022460937500e+01 -4.899222403764724731e-04 7.782200813293457031e+00 2.334513187408447266e+00 3.277119994163513184e-02
7.000000000000000000e+02 7.961284637451171875e+01 2.362197303771972656e+01 -1.898854534374549985e-04 7.765815734863281250e+00 2.329687595367431641e+00 1.190716959536075592e-02
7.010000000000000000e+02 7.884951782226562500e+01 2.194529914855957031e+01 9.262401727028191090e-05 7.718953132629394531e+00 2.315713644027709961e+00 3.306812420487403870e-02
7.020000000000000000e+02 7.730521392822265625e+01 2.096903038024902344e+01 2.358597266720607877e-04 7.698056221008300781e+00 2.309487581253051758e+00 7.120412588119506836e-02
7.030000000000000000e+02 7.810061645507812500e+01 1.865789222717285156e+01 8.254252024926245213e-04 7.638489246368408203e+00 2.291794538497924805e+00 5.114020779728889465e-02
7.040000000000000000e+02 7.887111663818359375e+01 1.713720512390136719e+01 5.838182987645268440e-04 7.592695236206054688e+00 2.277983665466308594e+00 3.080194257199764252e-02
7.050000000000000000e+02 7.886769104003906250e+01 1.793882369995117188e+01 3.930142847821116447e-04 7.613197803497314453e+00 2.284077167510986328e+00 3.145189210772514343e-02
7.060000000000000000e+02 7.962432098388671875e+01 1.720808219909667969e+01 7.162602560129016638e-05 7.584763050079345703e+00 2.275450468063354492e+00 1.113136950880289078e-02
7.070000000000000000e+02 7.887786865234375000e+01 1.553318977355957031e+01 7.508719572797417641e-04 7.552949905395507812e+00 2.266110181808471680e+00 2.912807837128639221e-02
7.080000000000000000e+02 7.887452697753906250e+01 1.633532905578613281e+01 5.856694187968969345e-04 7.572585582733154297e+00 2.271951436996459961e+00 3.001341968774795532e-02
7.090000000000000000e+02 7.888404846191406250e+01 1.312712097167968750e+01 9.031632216647267342e-04 7.497746944427490234e+00 2.249594926834106445e+00 2.594084851443767548e-02
7.100000000000000000e+02 7.888276672363281250e+01 1.393093109130859375e+01 9.122659685090184212e-04 7.515506744384765625e+00 2.254925727844238281e+00 2.709291130304336548e-02
7.110000000000000000e+02 7.813797760009765625e+01 1.224151325225830078e+01 2.563824178650975227e-03 7.495755672454833984e+00 2.249495744705200195e+00 3.928213194012641907e-02
7.120000000000000000e+02 7.889427947998046875e+01 9.117530822753906250e+00 1.355471555143594742e-03 7.422120571136474609e+00 2.227042913436889648e+00 1.864589191973209381e-02
7.130000000000000000e+02 7.869187927246093750e+01 3.573237609863281250e+01 -1.742236432619392872e-03 8.011221885681152344e+00 2.402843713760375977e+00 1.589082740247249603e-02
7.140000000000000000e+02 7.813430023193359375e+01 -2.222777557373046875e+01 -7.930705905891954899e-04 7.828114032745361328e+00 2.348196268081665039e+00 -5.740786343812942505e-02
7.150000000000000000e+02 7.963010406494140625e+01 -2.128201293945312500e+01 1.903075826703570783e-05 7.807796001434326172e+00 2.342344522476196289e+00 -1.322253048419952393e-02
7.160000000000000000e+02 7.817625427246093750e+01 -1.501859951019287109e+01 1.606122707016766071e-03 7.627561092376708984e+00 2.288750171661376953e+00 -5.342444777488708496e-02
7.170000000000000000e+02 7.963645935058593750e+01 -1.406505775451660156e+01 8.642483589937910438e-05 7.581139564514160156e+00 2.274367809295654297e+00 -1.192205864936113358e-02
7.180000000000000000e+02 7.886630249023437500e+01 -2.855310058593750000e+01 -9.827672038227319717e-04 8.006371498107910156e+00 2.401616573333740234e+00 -3.048387169837951660e-02
7.190000000000000000e+02 7.962206268310546875e+01 -2.769477272033691406e+01 -3.229569992981851101e-04 8.000208854675292969e+00 2.399965763092041016e+00 -1.157467998564243317e-02
7.200000000000000000e+02 7.784343719482421875e+01 -3.548795700073242188e+01 -5.914710462093353271e-03 8.111555099487304688e+00 2.431692123413085938e+00 -3.036680817604064941e-02
7.210000000000000000e+02 7.959564208984375000e+01 -3.487030029296875000e+01 6.060020041331881657e-06 8.159255981445312500e+00 2.447778463363647461e+00 -6.889873649924993515e-03
7.220000000000000000e+02 7.818421936035156250e+01 -7.799616813659667969e+00 3.248207271099090576e-03 7.464771270751953125e+00 2.240405797958374023e+00 -3.523117676377296448e-02
7.230000000000000000e+02 7.963780212402343750e+01 -6.848081588745117188e+00 3.215367614757269621e-04 7.406273841857910156e+00 2.221978664398193359e+00 -7.402662653475999832e-03
7.240000000000000000e+02 7.890773773193359375e+01 -5.009495019912719727e-01 1.613655709661543369e-03 7.361512660980224609e+00 2.208937883377075195e+00 -4.725790582597255707e-03
7.250000000000000000e+02 7.963610839843750000e+01 3.692442774772644043e-01 3.594052977859973907e-04 7.332235813140869141e+00 2.199778556823730469e+00 -1.017283648252487183e-03
7.260000000000000000e+02 7.889871215820312500e+01 7.514948368072509766e+00 1.453805132769048214e-03 7.399131774902343750e+00 2.220175743103027344e+00 1.511660404503345490e-02
7.270000000000000000e+02 7.963316345214843750e+01 7.585537910461425781e+00 2.845145645551383495e-04 7.376410484313964844e+00 2.213008403778076172e+00 5.437869112938642502e-03
7.280000000000000000e+02 7.951496887207031250e+01 4.037981033325195312e+01 -8.734312141314148903e-04 8.079016685485839844e+00 2.423442840576171875e+00 2.282827626913785934e-03
7.290000000000000000e+02 7.893910980224609375e+01 3.733436203002929688e+01 -2.191525418311357498e-03 8.034633636474609375e+00 2.409732580184936523e+00 1.109208632260560989e-02
7.300000000000000000e+02 7.768975067138671875e+01 3.743451690673828125e+01 -4.418497905135154724e-03 8.005475044250488281e+00 2.400316715240478516e+00 2.141655795276165009e-02
7.310000000000000000e+02 7.865704345703125000e+01 3.405532073974609375e+01 -2.395721385255455971e-03 7.989616394042968750e+00 2.396166086196899414e+00 2.097103372216224670e-02
7.320000000000000000e+02 7.701793670654296875e+01 3.137530708312988281e+01 -6.761371623724699020e-03 7.914645671844482422e+00 2.372365236282348633e+00 5.794258415699005127e-02
7.330000000000000000e+02 7.963159942626953125e+01 9.189026832580566406e+00 2.491330087650567293e-04 7.401259899139404297e+00 2.220452785491943359e+00 6.728495005518198013e-03
7.340000000000000000e+02 7.889003753662109375e+01 1.072342777252197266e+01 1.225545536726713181e-03 7.449553966522216797e+00 2.235233783721923828e+00 2.186219207942485809e-02
7.350000000000000000e+02 7.889685821533203125e+01 8.314810752868652344e+00 1.357409637421369553e-03 7.410009860992431641e+00 2.223410129547119141e+00 1.688199676573276520e-02
7.360000000000000000e+02 7.889983367919921875e+01 5.911099433898925781e+00 1.516516786068677902e-03 7.381024837493896484e+00 2.214762449264526367e+00 1.138819381594657898e-02
7.370000000000000000e+02 7.889945220947265625e+01 6.714385509490966797e+00 1.437377301044762135e-03 7.389472007751464844e+00 2.217272758483886719e+00 1.327020023018121719e-02
7.380000000000000000e+02 7.816438293457031250e+01 5.027651786804199219e+00 3.862484358251094818e-03 7.396742820739746094e+00 2.220181465148925781e+00 1.485968474298715591e-02
7.390000000000000000e+02 7.890294647216796875e+01 2.704077720642089844e+00 1.618648646399378777e-03 7.360363006591796875e+00 2.208594560623168945e+00 3.490125294774770737e-03
7.400000000000000000e+02 7.890165710449218750e+01 3.506455659866333008e+00 1.547371153719723225e-03 7.363554954528808594e+00 2.209530830383300781e+00 5.505452398210763931e-03
7.410000000000000000e+02 7.963455200195312500e+01 2.774311780929565430e+00 3.159829939249902964e-04 7.334019184112548828e+00 2.200300455093383789e+00 1.224518753588199615e-03
7.420000000000000000e+02 7.890473937988281250e+01 1.901882171630859375e+00 1.588454470038414001e-03 7.358552455902099609e+00 2.208042383193969727e+00 1.433035824447870255e-03
7.430000000000000000e+02 7.817671203613281250e+01 2.193365842103958130e-01 4.064288455992937088e-03 7.383755683898925781e+00 2.216346025466918945e+00 -4.534319974482059479e-03
7.440000000000000000e+02 7.890789794921875000e+01 -1.304687380790710449e+00 1.584526384249329567e-03 7.365344047546386719e+00 2.210078477859497070e+00 -6.796731613576412201e-03
7.450000000000000000e+02 7.817788696289062500e+01 -2.187634944915771484e+00 3.959812223911285400e-03 7.394983291625976562e+00 2.219682931900024414e+00 -1.436887774616479874e-02
7.460000000000000000e+02 7.891065979003906250e+01 -4.510655879974365234e+00 1.511316862888634205e-03 7.394217967987060547e+00 2.218718767166137695e+00 -1.472029276192188263e-02
7.470000000000000000e+02 7.891011047363281250e+01 -3.708743333816528320e+00 1.522106351330876350e-03 7.384963512420654297e+00 2.215945720672607422e+00 -1.277664583176374435e-02
7.480000000000000000e+02 7.963707733154296875e+01 -4.442016601562500000e+00 3.031781525351107121e-04 7.368804454803466797e+00 2.210732460021972656e+00 -5.401396658271551132e-03
7.490000000000000000e+02 7.891137695312500000e+01 -5.313847541809082031e+00 1.430951990187168121e-03 7.404778480529785156e+00 2.221862792968750000e+00 -1.659767888486385345e-02
7.500000000000000000e+02 7.891221618652343750e+01 -6.116976261138916016e+00 1.443593646399676800e-03 7.416632175445556641e+00 2.225422620773315430e+00 -1.844910159707069397e-02
7.510000000000000000e+02 7.891217041015625000e+01 -7.719122409820556641e+00 1.330627361312508583e-03 7.443965435028076172e+00 2.233588933944702148e+00 -2.192904613912105560e-02
7.520000000000000000e+02 7.890927124023437500e+01 -1.172846603393554688e+01 9.216886246576905251e-04 7.531332015991210938e+00 2.259676218032836914e+00 -2.931217104196548462e-02
7.530000000000000000e+02 7.890978240966796875e+01 -1.092559337615966797e+01 1.083701965399086475e-03 7.511929988861083984e+00 2.253904104232788086e+00 -2.802053280174732208e-02
7.540000000000000000e+02 7.963677978515625000e+01 -1.165927600860595703e+01 2.572700323071330786e-04 7.514137744903564453e+00 2.254318475723266602e+00 -1.072999928146600723e-02
7.550000000000000000e+02 7.890907287597656250e+01 -1.253122234344482422e+01 9.398262482136487961e-04 7.551618576049804688e+00 2.265767335891723633e+00 -3.050757758319377899e-02
7.560000000000000000e+02 7.890872955322265625e+01 -1.333393669128417969e+01 7.344770710915327072e-04 7.572637081146240234e+00 2.272011518478393555e+00 -3.158190473914146423e-02
7.570000000000000000e+02 7.890738677978515625e+01 -1.493679046630859375e+01 5.343031953088939190e-04 7.616603851318359375e+00 2.285141468048095703e+00 -3.340924158692359924e-02
7.580000000000000000e+02 7.889893341064453125e+01 -1.894328117370605469e+01 2.134700916940346360e-04 7.734246730804443359e+00 2.320338010787963867e+00 -3.595994785428047180e-02
7.590000000000000000e+02 7.890194702148437500e+01 -1.814131546020507812e+01 1.464494125684723258e-04 7.710149765014648438e+00 2.313088893890380859e+00 -3.570073470473289490e-02
7.600000000000000000e+02 7.963339233398437500e+01 -1.887590980529785156e+01 -3.936928260372951627e-05 7.730454921722412109e+00 2.319124698638916016e+00 -1.321151107549667358e-02
7.610000000000000000e+02 7.889559936523437500e+01 -1.974632835388183594e+01 -5.442548717837780714e-05 7.758443832397460938e+00 2.327516794204711914e+00 -3.618274256587028503e-02
7.620000000000000000e+02 7.889206695556640625e+01 -2.054931068420410156e+01 -2.184627555834595114e-05 7.782660961151123047e+00 2.334791660308837891e+00 -3.615858405828475952e-02
7.630000000000000000e+02 7.888363647460937500e+01 -2.215219116210937500e+01 -2.589884970802813768e-04 7.830578804016113281e+00 2.349096059799194336e+00 -3.587836027145385742e-02
7.640000000000000000e+02 7.736550140380859375e+01 -2.310924148559570312e+01 -1.933215884491801262e-03 7.846577644348144531e+00 2.353393316268920898e+00 -7.698442786931991577e-02
7.650000000000000000e+02 7.886148071289062500e+01 -2.536338806152343750e+01 -7.266885950230062008e-04 7.922737598419189453e+00 2.376603364944458008e+00 -3.406409174203872681e-02
7.660000000000000000e+02 7.886610412597656250e+01 -2.456098365783691406e+01 -5.081325070932507515e-04 7.900315284729003906e+00 2.369942188262939453e+00 -3.480000048875808716e-02
7.670000000000000000e+02 7.962136840820312500e+01 -2.529270172119140625e+01 -2.253014827147126198e-05 7.931807041168212891e+00 2.379535436630249023e+00 -1.251319330185651779e-02
7.680000000000000000e+02 7.885955810546875000e+01 -2.616494560241699219e+01 -5.819132202304899693e-04 7.944511413574218750e+00 2.383178949356079102e+00 -3.335542231798171997e-02
7.690000000000000000e+02 7.810166931152343750e+01 -2.862168312072753906e+01 -1.930613419972360134e-03 7.991935729980468750e+00 2.397001504898071289e+00 -4.851038008928298950e-02
7.700000000000000000e+02 7.732826232910156250e+01 -3.024817848205566406e+01 -5.266765132546424866e-03 8.010550498962402344e+00 2.401585102081298828e+00 -6.067581474781036377e-02
7.710000000000000000e+02 7.886254882812500000e+01 -3.248966598510742188e+01 -9.859378915280103683e-04 8.093523025512695312e+00 2.427761077880859375e+00 -2.336072735488414764e-02
7.720000000000000000e+02 7.886524963378906250e+01 -3.170911788940429688e+01 -1.739714411087334156e-03 8.078458786010742188e+00 2.423015594482421875e+00 -2.486502192914485931e-02
7.730000000000000000e+02 7.962139892578125000e+01 -3.248153305053710938e+01 -7.330459775403141975e-04 8.116436004638671875e+00 2.434710741043090820e+00 -8.527848869562149048e-03
7.740000000000000000e+02 7.885443115234375000e+01 -3.326899337768554688e+01 -1.723726512864232063e-03 8.107673645019531250e+00 2.431784868240356445e+00 -2.194025926291942596e-02
7.750000000000000000e+02 7.871720123291015625e+01 -3.560943984985351562e+01 -2.546909032389521599e-03 8.139719009399414062e+00 2.441151618957519531e+00 -1.770992204546928406e-02
7.760000000000000000e+02 7.855870056152343750e+01 -3.871997451782226562e+01 -2.035098616033792496e-03 8.163012504577636719e+00 2.448293209075927734e+00 -1.202742755413055420e-02
7.770000000000000000e+02 7.679085540771484375e+01 -3.877873611450195312e+01 -7.126051466912031174e-03 8.109504699707031250e+00 2.430713653564453125e+00 -2.118252962827682495e-02
7.780000000000000000e+02 7.852325439453125000e+01 -3.947948074340820312e+01 -3.741629479918628931e-04 8.164906501770019531e+00 2.449359655380249023e+00 -1.133156009018421173e-02
7.790000000000000000e+02 7.952514648437500000e+01 -3.962585067749023438e+01 9.119751630350947380e-04 8.209690093994140625e+00 2.463180541992187500e+00 -4.527277313172817230e-03
7.800000000000000000e+02 7.853438568115234375e+01 -4.024649429321289062e+01 -2.361339284107089043e-03 8.168584823608398438e+00 2.449867010116577148e+00 -1.052858307957649231e-02
7.810000000000000000e+02 7.853551483154296875e+01 -4.198409271240234375e+01 -2.243625000119209290e-03 8.187107086181640625e+00 2.455459117889404297e+00 -3.085593925788998604e-03
7.820000000000000000e+02 9.339812278747558594e+00 1.947761726379394531e+01 5.286123752593994141e-01 2.041420340538024902e-01 2.198263257741928101e-01 -6.520974040031433105e-01
7.830000000000000000e+02 8.282740592956542969e+00 1.883658981323242188e+01 -1.582965850830078125e-01 -1.010428071022033691e-01 -7.780181616544723511e-02 -1.905819326639175415e-01
7.840000000000000000e+02 4.302684068679809570e-01 3.484473037719726562e+01 -3.200924955308437347e-03 2.355258166790008545e-01 6.969746947288513184e-02 -2.576207742094993591e-02
7.850000000000000000e+02 4.199577569961547852e-01 3.403886413574218750e+01 -3.992738493252545595e-04 1.830651015043258667e-01 5.479974672198295593e-02 -2.933512255549430847e-02
7.860000000000000000e+02 3.765786588191986084e-01 2.842472076416015625e+01 1.296973903663456440e-03 -2.652927637100219727e-01 -7.919874042272567749e-02 -2.524549700319766998e-02
7.870000000000000000e+02 3.772156536579132080e-01 2.762327957153320312e+01 9.048881474882364273e-04 -3.162293434143066406e-01 -9.459733963012695312e-02 -2.292402274906635284e-02
7.880000000000000000e+02 4.199954271316528320e-01 -3.801550674438476562e+01 -8.648102171719074249e-03 6.931437253952026367e-01 2.053486853837966919e-01 1.567082665860652924e-02
7.890000000000000000e+02 1.195405602455139160e+00 -3.711257553100585938e+01 -1.096048951148986816e-02 7.804861068725585938e-01 2.308576852083206177e-01 5.527349188923835754e-02
7.900000000000000000e+02 3.612297177314758301e-01 2.120952987670898438e+01 2.229288686066865921e-03 -3.235924541950225830e-01 -9.640895575284957886e-02 2.117264457046985626e-02
7.910000000000000000e+02 1.075627684593200684e+00 2.203238296508789062e+01 9.668767452239990234e-03 -2.363625466823577881e-01 -6.800813227891921997e-02 4.569626227021217346e-02
7.920000000000000000e+02 1.127182126045227051e+00 2.601125144958496094e+01 1.262180134654045105e-02 -1.962770968675613403e-01 -5.509658902883529663e-02 -4.119013249874114990e-02
7.930000000000000000e+02 1.110635995864868164e+00 2.520773887634277344e+01 1.262242905795574188e-02 -2.261850833892822266e-01 -6.406879425048828125e-02 -2.401813678443431854e-02
7.940000000000000000e+02 3.749122023582458496e-01 2.601856803894042969e+01 1.502230647020041943e-03 -3.932075500488281250e-01 -1.175116002559661865e-01 -1.366855576634407043e-02
7.950000000000000000e+02 1.134144663810729980e+00 2.681398963928222656e+01 1.025726832449436188e-02 -1.577169448137283325e-01 -4.423790052533149719e-02 -5.620063841342926025e-02
7.960000000000000000e+02 1.133406281471252441e+00 2.761266708374023438e+01 6.949624978005886078e-03 -1.156828179955482483e-01 -3.261995688080787659e-02 -6.558833271265029907e-02
7.970000000000000000e+02 2.535799980163574219e+00 2.990037918090820312e+01 1.930011436343193054e-02 3.848543763160705566e-01 1.212463527917861938e-01 -1.858415752649307251e-01
7.980000000000000000e+02 1.218870282173156738e+00 3.238809585571289062e+01 -5.878292955458164215e-03 2.414477765560150146e-01 7.067085057497024536e-02 -9.556286036968231201e-02
7.990000000000000000e+02 1.185661792755126953e+00 3.159024429321289062e+01 8.906209404813125730e-05 1.757190078496932983e-01 5.274242162704467773e-02 -9.778790920972824097e-02
8.000000000000000000e+02 4.055432677268981934e-01 3.243441772460937500e+01 8.263180498033761978e-04 5.933284386992454529e-02 1.804774813354015350e-02 -3.373565152287483215e-02
8.010000000000000000e+02 1.239554762840270996e+00 3.318637084960937500e+01 -3.923560492694377899e-03 3.002468645572662354e-01 8.889698982238769531e-02 -9.171742945909500122e-02
8.020000000000000000e+02 1.335969448089599609e+00 3.561130905151367188e+01 -1.508004963397979736e-02 4.773414134979248047e-01 1.386784166097640991e-01 -6.669862568378448486e-02
8.030000000000000000e+02 2.769400596618652344e+00 3.882355117797851562e+01 -2.415826544165611267e-02 9.170854091644287109e-01 2.678781449794769287e-01 -2.763089910149574280e-02
8.040000000000000000e+02 2.239917516708374023e+00 3.818754577636718750e+01 -1.762443035840988159e-02 8.110455274581909180e-01 2.380263358354568481e-01 -4.550845548510551453e-02
8.050000000000000000e+02 1.812587738037109375e+00 3.961231231689453125e+01 -1.016590557992458344e-02 6.436781883239746094e-01 1.900536864995956421e-01 -4.238303005695343018e-02
8.060000000000000000e+02 1.144342660903930664e+00 3.952415847778320312e+01 -4.026683047413825989e-03 5.590083003044128418e-01 1.664944887161254883e-01 -3.344892710447311401e-02
8.070000000000000000e+02 3.940912783145904541e-01 3.963088607788085938e+01 -2.244475483894348145e-02 4.362846314907073975e-01 1.241519674658775330e-01 -1.121266651898622513e-02
8.080000000000000000e+02 1.655569553375244141e+00 4.078623962402343750e+01 -3.260417142882943153e-03 6.508746743202209473e-01 1.942842751741409302e-01 -3.803451359272003174e-02
8.090000000000000000e+02 1.584042668342590332e+00 4.182294845581054688e+01 -1.696932874619960785e-02 6.641996502876281738e-01 1.941691040992736816e-01 -3.607559949159622192e-02
8.100000000000000000e+02 1.171774744987487793e+00 -3.634146499633789062e+01 1.816601579776033759e-04 7.446519732475280762e-01 2.234500944614410400e-01 6.414905935525894165e-02
8.110000000000000000e+02 3.478785157203674316e-01 -1.633850288391113281e+01 -2.952974522486329079e-03 -7.355986535549163818e-02 -2.295385114848613739e-02 -1.450998522341251373e-02
8.120000000000000000e+02 3.572961091995239258e-01 1.961224937438964844e+01 1.506847213022410870e-03 -2.207772135734558105e-01 -6.578110903501510620e-02 2.362665534019470215e-02
8.130000000000000000e+02 1.056341171264648438e+00 2.283108520507812500e+01 1.383328996598720551e-02 -2.553061544895172119e-01 -7.244186103343963623e-02 2.875861525535583496e-02
8.140000000000000000e+02 3.763162195682525635e-01 1.478552532196044922e+01 -1.884778961539268494e-03 -9.829058311879634857e-03 -3.514151321724057198e-03 5.247468594461679459e-03
8.150000000000000000e+02 3.657565712928771973e-01 1.397761344909667969e+01 -5.524306470761075616e-05 -6.118511082604527473e-04 -2.001282555283978581e-04 3.306306200101971626e-03
8.160000000000000000e+02 1.078920125961303711e+00 7.639008522033691406e+00 -7.390968967229127884e-04 2.011566655710339546e-03 3.817409160546958447e-04 -7.541315280832350254e-04
8.170000000000000000e+02 3.625927269458770752e-01 7.562274456024169922e+00 8.321967325173318386e-04 2.728302031755447388e-03 1.068149576894938946e-03 -3.038291179109364748e-04
8.180000000000000000e+02 3.600115776062011719e-01 1.801857948303222656e+01 -6.743289995938539505e-04 -1.190230622887611389e-01 -3.590921685099601746e-02 2.002890221774578094e-02
8.190000000000000000e+02 3.692968487739562988e-01 1.721534919738769531e+01 -2.244384260848164558e-03 -7.843575626611709595e-02 -2.420404180884361267e-02 1.665568538010120392e-02
8.200000000000000000e+02 1.771033167839050293e+00 -8.325635910034179688e+00 -2.639158337842673063e-04 4.945077816955745220e-04 6.917758582858368754e-05 5.287894746288657188e-04
8.210000000000000000e+02 1.099272966384887695e+00 -2.178203773498535156e+01 1.535927876830101013e-02 -1.957457214593887329e-01 -5.411593243479728699e-02 -1.448993012309074402e-02
8.220000000000000000e+02 1.215576767921447754e+00 -2.904027175903320312e+01 1.856719376519322395e-03 2.270519584417343140e-01 6.867260485887527466e-02 1.049695238471031189e-01
8.230000000000000000e+02 1.543932437896728516e+00 -3.935987472534179688e+01 -1.106770243495702744e-03 9.573727846145629883e-01 2.868798077106475830e-01 4.001891240477561951e-02
8.240000000000000000e+02 2.915416479110717773e+00 -3.758871459960937500e+01 -3.134590014815330505e-02 1.152960181236267090e+00 3.364842832088470459e-01 1.145495697855949402e-01
8.250000000000000000e+02 1.355317115783691406e+00 -3.861733245849609375e+01 -2.819331176578998566e-02 8.722516298294067383e-01 2.532174885272979736e-01 3.167921677231788635e-02
8.260000000000000000e+02 1.184881448745727539e+00 -3.555761337280273438e+01 -1.035419665277004242e-02 7.064494490623474121e-01 2.088285833597183228e-01 7.145405560731887817e-02
8.270000000000000000e+02 2.139869928359985352e+00 -3.053589439392089844e+01 -2.548607299104332924e-03 5.680686235427856445e-01 1.696560084819793701e-01 1.773537248373031616e-01
8.280000000000000000e+02 1.303295016288757324e+00 -3.231406784057617188e+01 -4.708710592240095139e-03 5.049313902854919434e-01 1.500667929649353027e-01 1.057214438915252686e-01
8.290000000000000000e+02 4.213190078735351562e-01 -3.078688430786132812e+01 -1.535359333502128720e-04 1.837375015020370483e-01 5.507519096136093140e-02 3.838706761598587036e-02
8.300000000000000000e+02 1.290892958641052246e+00 -3.148900985717773438e+01 -1.164896064437925816e-03 4.403333961963653564e-01 1.317505389451980591e-01 1.104050129652023315e-01
8.310000000000000000e+02 1.269618868827819824e+00 -3.066850662231445312e+01 -1.162262866273522377e-03 3.713279962539672852e-01 1.110497191548347473e-01 1.087956354022026062e-01
8.320000000000000000e+02 1.199840426445007324e+00 -2.823259162902832031e+01 2.623114036396145821e-03 1.579953134059906006e-01 4.818553104996681213e-02 1.026719883084297180e-01
8.330000000000000000e+02 1.990185618400573730e+00 -2.728881454467773438e+01 1.331152860075235367e-02 2.853009700775146484e-01 8.958374708890914917e-02 1.568226069211959839e-01
8.340000000000000000e+02 1.157009482383728027e+00 -2.500875854492187500e+01 1.245527900755405426e-02 -8.372777700424194336e-02 -2.138175070285797119e-02 6.344978511333465576e-02
8.350000000000000000e+02 1.168170213699340820e+00 -2.581482505798339844e+01 1.009589806199073792e-02 -3.084519505500793457e-02 -6.224789191037416458e-03 7.798442244529724121e-02
8.360000000000000000e+02 3.773161470890045166e-01 -2.353799438476562500e+01 3.539331955835223198e-03 -3.500332832336425781e-01 -1.039481908082962036e-01 9.189312346279621124e-03
8.370000000000000000e+02 1.144917488098144531e+00 -2.420175933837890625e+01 1.458484958857297897e-02 -1.273696124553680420e-01 -3.383542597293853760e-02 4.691774770617485046e-02
8.380000000000000000e+02 1.132043838500976562e+00 -2.339344406127929688e+01 1.652860455214977264e-02 -1.622713208198547363e-01 -4.372281208634376526e-02 2.755319513380527496e-02
8.390000000000000000e+02 4.063588142395019531e+00 -1.788807487487792969e+01 -2.649653144180774689e-02 1.201633065938949585e-01 2.810003235936164856e-02 -6.865181773900985718e-02
8.400000000000000000e+02 1.026898145675659180e+00 -1.940174674987792969e+01 4.922684747725725174e-03 -1.611630469560623169e-01 -4.687210917472839355e-02 -5.484910309314727783e-02
8.410000000000000000e+02 5.927124500274658203e+00 -1.532637882232666016e+01 -4.836388677358627319e-02 -8.047900162637233734e-03 -1.692353561520576477e-02 5.277543142437934875e-02
8.420000000000000000e+02 1.746295094490051270e+00 -2.003698158264160156e+01 2.013945765793323517e-02 -7.898115366697311401e-02 -1.765250973403453827e-02 -6.198992952704429626e-02
8.430000000000000000e+02 3.433654308319091797e-01 -1.713520050048828125e+01 -3.009540669154375792e-04 -1.122685819864273071e-01 -3.377086296677589417e-02 -1.811031810939311981e-02
8.440000000000000000e+02 1.781845211982727051e+00 -1.386864376068115234e+01 -1.046317163854837418e-02 -4.587520379573106766e-03 -4.515207838267087936e-03 -1.534804329276084900e-02
8.450000000000000000e+02 1.057610869407653809e+00 -1.548858356475830078e+01 -8.916802704334259033e-03 -3.133369237184524536e-02 -1.207514852285385132e-02 -2.819759957492351532e-02
8.460000000000000000e+02 8.102616310119628906e+00 -1.176160812377929688e+01 3.657701017800718546e-04 3.604560159146785736e-03 1.191099057905375957e-03 -7.174494676291942596e-04
8.470000000000000000e+02 3.046284675598144531e+00 -1.289596557617187500e+01 -1.354812551289796829e-02 2.728295978158712387e-03 -3.245948813855648041e-03 -6.378704681992530823e-03
8.480000000000000000e+02 1.052031397819519043e+00 -1.148136901855468750e+01 -2.178165013901889324e-04 7.232855423353612423e-04 1.516407064627856016e-04 -7.329285726882517338e-04
8.490000000000000000e+02 3.493127226829528809e-01 -9.930152893066406250e+00 -7.841339102014899254e-04 3.467899980023503304e-03 8.051298209466040134e-04 1.024034354486502707e-04
8.500000000000000000e+02 1.053404092788696289e+00 -1.069246292114257812e+01 -1.147010130807757378e-03 1.502162078395485878e-03 1.065455871867015958e-04 -2.773905871435999870e-04
8.510000000000000000e+02 1.058857560157775879e+00 -8.324568748474121094e+00 4.523431707639247179e-04 1.288975705392658710e-03 5.223956541158258915e-04 7.875951705500483513e-04
8.520000000000000000e+02 3.268731117248535156e+00 -3.020060539245605469e+00 1.519483048468828201e-04 1.390477409586310387e-04 8.729881665203720331e-05 4.036351165268570185e-04
8.530000000000000000e+02 2.961614847183227539e+00 -1.814576268196105957e+00 1.428986579412594438e-04 7.526879926444962621e-05 6.545023643411695957e-05 2.630345406942069530e-04
8.540000000000000000e+02 1.791018486022949219e+00 -7.535039901733398438e+00 4.776840214617550373e-04 2.926864544861018658e-04 2.311111456947401166e-04 8.669215021654963493e-04
8.550000000000000000e+02 2.571013212203979492e+00 -6.763123035430908203e+00 4.939006757922470570e-04 -2.776346227619796991e-04 6.487980863312259316e-05 7.820639293640851974e-04
8.560000000000000000e+02 3.598935306072235107e-01 -3.504747867584228516e+00 6.707284774165600538e-05 2.770355204120278358e-04 1.032325089909136295e-04 4.691696813097223639e-05
8.570000000000000000e+02 1.451696872711181641e+00 -1.956888556480407715e+00 1.093778992071747780e-04 1.292914093937724829e-04 7.160079258028417826e-05 1.536769268568605185e-04
8.580000000000000000e+02 3.963516950607299805e-01 5.131879329681396484e+00 -3.766678855754435062e-04 1.122152432799339294e-03 2.236453728983178735e-04 -1.828061795094981790e-04
8.590000000000000000e+02 1.150837540626525879e+00 6.007850170135498047e+00 -4.661314014811068773e-04 1.185170607641339302e-03 2.157117705792188644e-04 -5.457034567371010780e-04
8.600000000000000000e+02 1.045591592788696289e+00 1.002249526977539062e+01 1.100384863093495369e-03 3.154894569888710976e-03 1.276583876460790634e-03 -9.301993413828313351e-04
8.610000000000000000e+02 1.070321440696716309e+00 1.239981651306152344e+01 -2.632590942084789276e-03 2.284506801515817642e-03 -1.044252858264371753e-04 1.209468813613057137e-03
8.620000000000000000e+02 3.570892214775085449e-01 1.237048435211181641e+01 1.124144182540476322e-03 6.077476311475038528e-03 2.160486299544572830e-03 6.008988129906356335e-04
8.630000000000000000e+02 1.090767145156860352e+00 1.399861431121826172e+01 -5.173814482986927032e-03 -3.597640199586749077e-03 -2.631436334922909737e-03 7.335347589105367661e-03
8.640000000000000000e+02 1.074068427085876465e+00 1.319682407379150391e+01 -1.196629018522799015e-03 -1.616641238797456026e-04 -4.074879689142107964e-04 4.394420888274908066e-03
8.650000000000000000e+02 3.807389140129089355e-01 1.640686035156250000e+01 -1.505505060777068138e-03 -4.737080633640289307e-02 -1.466289348900318146e-02 1.257231645286083221e-02
8.660000000000000000e+02 1.144316792488098145e+00 1.647993469238281250e+01 -9.540712460875511169e-03 -3.621833771467208862e-02 -1.372771523892879486e-02 3.497514501214027405e-02
8.670000000000000000e+02 3.502933740615844727e+00 1.758282279968261719e+01 -5.659434199333190918e-02 5.577768385410308838e-02 -2.449976454954594374e-04 7.259165495634078979e-02
8.680000000000000000e+02 1.071898341178894043e+00 1.888012695312500000e+01 -2.940209582448005676e-03 -1.188881993293762207e-01 -3.654852136969566345e-02 6.074434891343116760e-02
8.690000000000000000e+02 1.073792934417724609e+00 1.965922546386718750e+01 -6.758075905963778496e-04 -1.516203582286834717e-01 -4.568884894251823425e-02 6.452904641628265381e-02
8.700000000000000000e+02 1.401634120941162109e+01 5.517952442169189453e+00 1.276057737413793802e-04 5.223519401624798775e-04 1.949873112607747316e-04 1.060652939486317337e-04
8.710000000000000000e+02 8.932638168334960938e+00 1.432332420349121094e+01 -3.071175888180732727e-05 -8.910504402592778206e-05 -3.594504232751205564e-05 -1.647815224714577198e-03
8.720000000000000000e+02 1.288019943237304688e+01 9.030675888061523438e+00 -4.052737203892320395e-04 1.283821999095380306e-03 2.635644923429936171e-04 -2.487732563167810440e-04
8.730000000000000000e+02 1.214624691009521484e+01 7.252891063690185547e+00 -4.812891711480915546e-04 6.358034443110227585e-04 4.635429286281578243e-05 3.242149541620165110e-04
8.740000000000000000e+02 1.217253303527832031e+01 1.035936355590820312e+01 -3.988334792666137218e-04 1.788910129107534885e-03 4.170229949522763491e-04 -5.302229546941816807e-04
8.750000000000000000e+02 1.346669483184814453e+01 7.662128925323486328e+00 -3.634207823779433966e-04 8.181105367839336395e-04 1.364069175906479359e-04 -1.117856663768179715e-04
8.760000000000000000e+02 1.496249008178710938e+01 4.069013118743896484e+00 -1.619866379769518971e-04 2.379891520831733942e-04 2.280075568705797195e-05 1.238200093212071806e-05
8.770000000000000000e+02 1.260510540008544922e+01 4.629770278930664062e+00 -1.944198884302750230e-04 2.353649615542963147e-04 1.228352266480214894e-05 3.459845029283314943e-04
8.780000000000000000e+02 1.041095066070556641e+01 1.178787040710449219e+01 -1.224326202645897865e-03 2.871135016903281212e-03 4.940425860695540905e-04 -2.564439782872796059e-04
8.790000000000000000e+02 1.387803936004638672e+01 6.246467113494873047e+00 -3.026922058779746294e-04 5.270884721539914608e-04 6.731887697242200375e-05 1.483808136981679127e-05
8.800000000000000000e+02 1.178234195709228516e+01 1.099648857116699219e+01 1.510268193669617176e-04 2.155516995117068291e-03 6.919631850905716419e-04 -7.164595881476998329e-04
8.810000000000000000e+02 8.520435333251953125e+00 1.379883480072021484e+01 -2.306894399225711823e-03 -1.380906091071665287e-03 -1.106340088881552219e-03 -1.512080198153853416e-03
8.820000000000000000e+02 1.415332984924316406e+01 7.899409294128417969e+00 3.292848414275795221e-04 9.206244139932096004e-04 3.749727620743215084e-04 -1.305077603319659829e-04
8.830000000000000000e+02 1.369538974761962891e+01 6.959562778472900391e+00 1.238046970684081316e-04 8.109448826871812344e-04 2.804248651955276728e-04 7.539124635513871908e-05
8.840000000000000000e+02 1.319307613372802734e+01 8.352120399475097656e+00 1.396096049575135112e-04 1.184060703963041306e-03 3.971011028625071049e-04 -4.474960951483808458e-05
8.850000000000000000e+02 1.037650203704833984e+01 1.381441688537597656e+01 2.830605721101164818e-03 5.587921012192964554e-03 2.525557996705174446e-03 -3.830211469903588295e-03
8.860000000000000000e+02 1.316386032104492188e+01 1.004084968566894531e+01 -5.345248428056947887e-05 1.582597265951335430e-03 4.587434523273259401e-04 -7.884568767622113228e-04
8.870000000000000000e+02 1.487772655487060547e+01 4.857566833496093750e+00 1.709610951365903020e-04 3.679383371490985155e-04 1.616698282305151224e-04 2.937704448413569480e-05
8.880000000000000000e+02 9.423778533935546875e+00 1.385153484344482422e+01 -3.848208289127796888e-04 5.213391035795211792e-03 1.448570983484387398e-03 -2.256002742797136307e-03
8.890000000000000000e+02 1.232618904113769531e+01 -2.551706552505493164e+00 4.556689964374527335e-05 1.177213016489986330e-05 1.720170985208824277e-05 -1.266557956114411354e-04
8.900000000000000000e+02 7.826575279235839844e+00 -1.826145291328430176e+00 1.874916197266429663e-04 2.107013278873637319e-05 6.256852793740108609e-05 2.525938180042430758e-05
8.910000000000000000e+02 9.564673423767089844e+00 -4.474703311920166016e+00 -2.006872091442346573e-04 2.069816546281799674e-04 1.888336555566638708e-06 1.336286950390785933e-04
8.920000000000000000e+02 5.298116683959960938e+00 -2.485472202301025391e+00 2.234041894553229213e-04 -8.718202298041433096e-05 4.086664921487681568e-05 1.706701004877686501e-04
8.930000000000000000e+02 4.529176235198974609e+00 -2.430888175964355469e+00 2.457640366628766060e-04 -1.422241475665941834e-04 3.106196891167201102e-05 -5.645544297294691205e-05
8.940000000000000000e+02 1.070757389068603516e+00 -5.926468849182128906e+00 -1.355234999209642410e-04 7.207670132629573345e-04 1.755730481818318367e-04 2.157063427148386836e-04
8.950000000000000000e+02 2.186284780502319336e+00 -1.867146968841552734e+00 7.626572187291458249e-05 -4.090365473530255258e-05 1.060861904988996685e-05 2.920055703725665808e-05
8.960000000000000000e+02 1.053273916244506836e+00 -5.140327453613281250e+00 1.940010406542569399e-04 4.417495219968259335e-04 1.907251717057079077e-04 4.384367784950882196e-04
8.970000000000000000e+02 1.020204544067382812e+00 -4.371638298034667969e+00 -9.404168849869165570e-06 3.639102797023952007e-04 1.063518284354358912e-04 8.487735613016411662e-05
8.980000000000000000e+02 7.708033084869384766e+00 -2.486069202423095703e+00 1.390957331750541925e-04 -8.499975956510752439e-05 1.622879426577128470e-05 -2.738002804107964039e-04
8.990000000000000000e+02 6.095084667205810547e+00 -2.517111063003540039e+00 2.080021804431453347e-04 -1.301985903410241008e-04 2.334107739443425089e-05 -1.675063831498846412e-04
9.000000000000000000e+02 6.904796123504638672e+00 -2.513442516326904297e+00 2.106580213876441121e-04 -5.733416764996945858e-05 4.599715612130239606e-05 6.112253322498872876e-05
9.010000000000000000e+02 3.617587327957153320e+00 -4.185152816772460938e+01 -3.774182870984077454e-02 1.273295283317565918e+00 3.706660270690917969e-01 -1.404600683599710464e-02
9.020000000000000000e+02 1.092449474334716797e+01 1.220250797271728516e+01 1.836258161347359419e-04 3.007424296811223030e-03 9.573150891810655594e-04 -1.289431005716323853e-03
9.030000000000000000e+02 1.118860626220703125e+01 1.060748863220214844e+01 -9.674416505731642246e-04 2.042412525042891502e-03 3.224912798032164574e-04 -1.089735378627665341e-04
9.040000000000000000e+02 1.040999698638916016e+01 3.190456390380859375e+00 3.358648391440510750e-04 5.655996938003227115e-05 1.177274461952038109e-04 3.024014586117118597e-04
9.050000000000000000e+02 1.263796806335449219e+01 -5.399639606475830078e+00 1.291433727601543069e-04 1.419093605363741517e-04 8.131581853376701474e-05 -9.848702757153660059e-05
9.060000000000000000e+02 1.310024738311767578e+01 -2.615456819534301758e+00 -3.979998655267991126e-05 6.091160321375355124e-05 6.333485089271562174e-06 4.293691017664968967e-05
9.070000000000000000e+02 9.275554656982421875e+00 -2.434994220733642578e+00 8.272224658867344260e-05 -3.119728717138059437e-05 1.545748818898573518e-05 -2.870080643333494663e-04
9.080000000000000000e+02 1.314585304260253906e+01 6.105726242065429688e+00 5.004144622944295406e-05 6.786923622712492943e-04 2.186201454605907202e-04 2.093068760586902499e-04
9.090000000000000000e+02 1.195291423797607422e+01 -5.177250862121582031e+00 -2.029174502240493894e-04 1.550167944515123963e-04 -1.437020000594202429e-05 1.177556332550011575e-04
9.100000000000000000e+02 1.334246730804443359e+01 -4.065125465393066406e+00 7.738106796750798821e-05 4.566350253298878670e-05 3.691337042255327106e-05 -8.135740790748968720e-05
9.110000000000000000e+02 1.138602066040039062e+01 -3.084644317626953125e+00 5.886691724299453199e-05 4.052208169014193118e-05 2.981669967994093895e-05 -2.306866081198677421e-04
9.120000000000000000e+02 1.118830204010009766e+01 2.497963428497314453e+00 2.941565180663019419e-04 9.737398795550689101e-05 1.174591525341384113e-04 2.562463923823088408e-04
9.130000000000000000e+02 8.097619056701660156e+00 2.535604000091552734e+00 5.898491945117712021e-04 -1.210353730130009353e-04 1.406441442668437958e-04 8.848837751429527998e-05
9.140000000000000000e+02 1.194262981414794922e+01 3.190606355667114258e+00 2.045338915195316076e-04 1.851585693657398224e-04 1.169077368103899062e-04 2.735692542046308517e-04
9.150000000000000000e+02 1.155562877655029297e+01 -5.792472839355468750e+00 1.199966936837881804e-04 2.801514929160475731e-04 1.200444530695676804e-04 -2.006909926421940327e-04
9.160000000000000000e+02 1.253837203979492188e+01 9.701315879821777344e+00 1.698075648164376616e-04 1.613019849173724651e-03 5.348481936380267143e-04 -2.467918384354561567e-04
9.170000000000000000e+02 9.984851837158203125e+00 1.233428096771240234e+01 -7.502337684854865074e-04 2.236086176708340645e-03 4.457556933630257845e-04 -2.377403870923444629e-04
9.180000000000000000e+02 8.987360954284667969e+00 1.332630252838134766e+01 -1.234379829838871956e-03 -3.458791179582476616e-04 -4.740777076222002506e-04 5.496774974744766951e-05
9.190000000000000000e+02 1.348056411743164062e+01 2.469825267791748047e+00 -4.723883466795086861e-05 8.608627831563353539e-05 1.165423327620374039e-05 1.612226333236321807e-04
9.200000000000000000e+02 1.419442653656005859e+01 4.008135318756103516e+00 1.260266726603731513e-04 2.995257673319429159e-04 1.276657276321202517e-04 1.183375788968987763e-04
9.210000000000000000e+02 1.156528663635253906e+01 9.994205474853515625e+00 -1.932480081450194120e-04 1.648676698096096516e-03 4.366286157164722681e-04 -4.867840470978990197e-05
9.220000000000000000e+02 1.095893669128417969e+01 8.125037193298339844e+00 -1.712990779196843505e-04 6.393690709955990314e-04 1.404209906468167901e-04 5.397060886025428772e-04
9.230000000000000000e+02 1.385120677947998047e+01 -1.635999298095703125e+01 1.246499657630920410e+00 3.959151506423950195e+00 1.561695337295532227e+00 2.146823167800903320e+00
9.240000000000000000e+02 1.910145759582519531e+01 -8.518115043640136719e+00 1.559372544288635254e+00 1.080795001983642578e+01 3.710196733474731445e+00 2.580253601074218750e+00
9.250000000000000000e+02 1.676390647888183594e+01 -1.117986583709716797e+01 1.823558688163757324e+00 7.213336944580078125e+00 2.711068630218505859e+00 3.458120346069335938e+00
9.260000000000000000e+02 1.411891460418701172e+01 4.769964218139648438e+00 -2.051978954114019871e-04 3.198265039827674627e-04 3.438858402660116553e-05 9.721589594846591353e-05
9.270000000000000000e+02 1.326744174957275391e+01 5.410358428955078125e+00 -2.666520304046571255e-04 3.800023696385324001e-04 3.400509740458801389e-05 2.079534606309607625e-04
9.280000000000000000e+02 4.274068355560302734e+00 4.108248710632324219e+00 2.080124104395508766e-04 -2.656780416145920753e-04 -1.729968607833143324e-05 -3.227909910492599010e-04
9.290000000000000000e+02 4.239761829376220703e+00 3.343232393264770508e+00 6.454694084823131561e-04 -2.003848494496196508e-04 1.335253764409571886e-04 -5.038583767600357533e-04
9.300000000000000000e+02 5.790844440460205078e+00 3.259754180908203125e+00 7.040874916128814220e-04 -3.183562366757541895e-04 1.157193837570957839e-04 -2.753366716206073761e-04
9.310000000000000000e+02 6.558700084686279297e+00 3.235459566116333008e+00 3.235116018913686275e-04 -3.509405651129782200e-04 -8.228688784583937377e-06 9.421923459740355611e-05
9.320000000000000000e+02 5.016113281250000000e+00 3.297942399978637695e+00 3.026386839337646961e-04 -2.855410566553473473e-04 5.129289547767257318e-06 -1.894271117635071278e-04
9.330000000000000000e+02 7.325150012969970703e+00 3.220907449722290039e+00 6.511416286230087280e-04 -2.726595848798751831e-04 1.135446073021739721e-04 -1.253569189429981634e-05
9.340000000000000000e+02 8.872056007385253906e+00 2.529131650924682617e+00 2.998303680215030909e-04 -1.708616182440891862e-04 3.869062493322417140e-05 3.240213263779878616e-04
9.350000000000000000e+02 8.094153404235839844e+00 3.211013555526733398e+00 2.750638232100754976e-04 -2.963789156638085842e-04 -6.394530828401912004e-06 3.344363940414041281e-04
9.360000000000000000e+02 1.262104225158691406e+01 -3.907566308975219727e+00 -1.102970782085321844e-04 1.015309317153878510e-04 -2.629843947943300009e-06 8.322151552420109510e-05
9.370000000000000000e+02 8.384201049804687500e+00 -3.083192586898803711e+00 9.889744978863745928e-05 -8.528412581654265523e-05 4.083995463588507846e-06 -3.827058826573193073e-04
9.380000000000000000e+02 1.299184322357177734e+01 6.781938076019287109e+00 -3.817665274254977703e-04 6.019411957822740078e-04 6.605240196222439408e-05 1.496984186815097928e-04
9.390000000000000000e+02 1.760570144653320312e+01 -9.742419242858886719e+00 1.693201661109924316e+00 8.923360824584960938e+00 3.184968709945678711e+00 3.530602931976318359e+00
9.400000000000000000e+02 9.934433937072753906e+00 1.332920360565185547e+01 4.168762534391134977e-04 3.393049351871013641e-03 1.142977736890316010e-03 -1.887634280137717724e-03
9.410000000000000000e+02 1.068516635894775391e+01 -6.986664772033691406e+00 1.021165880956687033e-04 5.964710144326090813e-04 2.095762756653130054e-04 -2.861054963432252407e-04
9.420000000000000000e+02 2.048169708251953125e+01 1.006963372230529785e+00 3.616258203983306885e-01 1.238339519500732422e+01 3.823506355285644531e+00 -1.773220747709274292e-01
9.430000000000000000e+02 2.038132476806640625e+01 2.692450761795043945e+00 6.179897189140319824e-01 1.232741546630859375e+01 3.883621692657470703e+00 -5.960188508033752441e-01
9.440000000000000000e+02 7.374308586120605469e+00 1.923785972595214844e+01 5.975603312253952026e-02 9.704346209764480591e-02 4.703984782099723816e-02 -1.448166836053133011e-02
9.450000000000000000e+02 1.816148877143859863e+00 1.740538406372070312e+01 -2.174753509461879730e-02 -2.831843309104442596e-02 -1.501979026943445206e-02 6.617157906293869019e-02
9.460000000000000000e+02 1.190276145935058594e+01 -3.767436265945434570e+00 7.890285633038729429e-05 6.826553726568818092e-05 4.415051807882264256e-05 -2.094342053169384599e-04
9.470000000000000000e+02 1.288319587707519531e+01 -3.261318445205688477e+00 5.912713822908699512e-05 3.172150900354608893e-05 2.725459489738568664e-05 -1.108837095671333373e-04
9.480000000000000000e+02 1.184879207611083984e+01 4.581419467926025391e+00 1.233911170857027173e-04 3.305247228126972914e-04 1.361747563350945711e-04 3.408794873394072056e-04
9.490000000000000000e+02 1.949681282043457031e+01 -4.071712970733642578e+00 9.390187263488769531e-01 1.395326423645019531e+01 4.467684745788574219e+00 1.547193050384521484e+00
9.500000000000000000e+02 6.879166603088378906e+00 -1.388483428955078125e+01 -1.271468005143105984e-03 -1.965801045298576355e-02 -6.278843618929386139e-03 1.110952068120241165e-02
9.510000000000000000e+02 1.922661399841308594e+01 -5.787239551544189453e+00 2.016746044158935547e+00 1.385859012603759766e+01 4.762600898742675781e+00 2.308046340942382812e+00
9.520000000000000000e+02 1.413811206817626953e+01 1.704138565063476562e+01 2.007607221603393555e+00 3.955152034759521484e+00 1.788827776908874512e+00 -2.605110645294189453e+00
9.530000000000000000e+02 2.051862716674804688e+01 -6.761793494224548340e-01 3.656393587589263916e-01 1.243837642669677734e+01 3.841204643249511719e+00 2.792676389217376709e-01
9.540000000000000000e+02 2.046020889282226562e+01 -2.384072780609130859e+00 5.921040773391723633e-01 1.265808296203613281e+01 3.975055932998657227e+00 8.391982316970825195e-01
9.550000000000000000e+02 1.924250984191894531e+01 5.823938369750976562e+00 6.849820017814636230e-01 1.270245170593261719e+01 4.016230106353759766e+00 -1.534435868263244629e+00
9.560000000000000000e+02 1.972260665893554688e+01 7.587849140167236328e+00 9.558721184730529785e-01 1.179821205139160156e+01 3.826225280761718750e+00 -1.821266889572143555e+00
9.570000000000000000e+02 7.835732269287109375e+01 4.092494964599609375e+01 -5.438329651951789856e-03 8.041549682617187500e+00 2.410833358764648438e+00 5.983113776892423630e-03
9.580000000000000000e+02 7.886091613769531250e+01 1.954220390319824219e+01 1.865014492068439722e-04 7.655076026916503906e+00 2.296578884124755859e+00 3.239703550934791565e-02
9.590000000000000000e+02 7.810652160644531250e+01 1.785588645935058594e+01 1.142009976319968700e-03 7.619053840637207031e+00 2.286058664321899414e+00 5.026603490114212036e-02
9.600000000000000000e+02 7.753141021728515625e+01 3.824773406982421875e+01 -4.199556540697813034e-03 8.006036758422851562e+00 2.400551080703735352e+00 1.962433382868766785e-02
9.610000000000000000e+02 7.702974700927734375e+01 3.689667510986328125e+01 -6.784490309655666351e-03 7.985758304595947266e+00 2.393692255020141602e+00 2.911957725882530212e-02
9.620000000000000000e+02 7.877443695068359375e+01 3.078712844848632812e+01 -1.787167508155107498e-03 7.934306621551513672e+00 2.379755735397338867e+00 2.717223577201366425e-02
9.630000000000000000e+02 7.797505187988281250e+01 2.988631439208984375e+01 -3.187489928677678108e-03 7.902193546295166016e+00 2.369701862335205078e+00 4.534366726875305176e-02
9.640000000000000000e+02 7.885417938232421875e+01 2.114531898498535156e+01 -3.112687045359052718e-05 7.697642326354980469e+00 2.309283256530761719e+00 3.289616480469703674e-02
9.650000000000000000e+02 7.809025573730468750e+01 2.026181411743164062e+01 3.179635968990623951e-04 7.677956104278564453e+00 2.303482294082641602e+00 5.228041484951972961e-02
9.660000000000000000e+02 7.800407409667968750e+01 2.827798652648925781e+01 -2.217109315097332001e-03 7.868888854980468750e+00 2.360001564025878906e+00 4.810247570276260376e-02
9.670000000000000000e+02 7.723801422119140625e+01 2.494870376586914062e+01 -1.788411522284150124e-03 7.789145946502685547e+00 2.336207389831542969e+00 7.064971327781677246e-02
9.680000000000000000e+02 7.807636260986328125e+01 2.185966491699218750e+01 -1.738197315717115998e-04 7.717649459838867188e+00 2.315242767333984375e+00 5.277816578745841980e-02
9.690000000000000000e+02 7.808451080322265625e+01 2.106197929382324219e+01 2.250536635983735323e-04 7.697862625122070312e+00 2.309426307678222656e+00 5.268193408846855164e-02
9.700000000000000000e+02 7.884378051757812500e+01 2.274581336975097656e+01 -2.458490780554711819e-04 7.740179538726806641e+00 2.321980237960815430e+00 3.301537409424781799e-02
9.710000000000000000e+02 7.735236358642578125e+01 1.615850830078125000e+01 2.965675434097647667e-03 7.589105129241943359e+00 2.277621269226074219e+00 6.470999866724014282e-02
9.720000000000000000e+02 7.875781250000000000e+01 3.658410263061523438e+01 -1.499566249549388885e-03 8.022372245788574219e+00 2.406261920928955078e+00 1.418202370405197144e-02
9.730000000000000000e+02 7.824299621582031250e+01 3.837199401855468750e+01 -3.056711284443736076e-04 8.024096488952636719e+00 2.407137155532836914e+00 1.483067963272333145e-02
9.740000000000000000e+02 7.782132720947265625e+01 3.232707977294921875e+01 -4.230759572237730026e-03 7.944662094116210938e+00 2.382129430770874023e+00 4.007152095437049866e-02
9.750000000000000000e+02 7.812377166748046875e+01 1.545031929016113281e+01 1.752572250552475452e-03 7.562885761260986328e+00 2.269391536712646484e+00 4.648757353425025940e-02
9.760000000000000000e+02 7.888617706298828125e+01 1.232554531097412109e+01 1.086021075025200844e-03 7.480797767639160156e+00 2.244565248489379883e+00 2.467625215649604797e-02
9.770000000000000000e+02 7.814634704589843750e+01 1.064000129699707031e+01 2.951352857053279877e-03 7.466657638549804688e+00 2.240882635116577148e+00 3.469065576791763306e-02
9.780000000000000000e+02 7.813291931152343750e+01 1.384817314147949219e+01 2.156982431188225746e-03 7.527997493743896484e+00 2.259046316146850586e+00 4.318212345242500305e-02
9.790000000000000000e+02 7.812931060791015625e+01 1.464975452423095703e+01 2.016060287132859230e-03 7.545136451721191406e+00 2.264145612716674805e+00 4.488322883844375610e-02
9.800000000000000000e+02 7.813492584228515625e+01 1.304381370544433594e+01 2.437460934743285179e-03 7.511477470397949219e+00 2.254174470901489258e+00 4.131389781832695007e-02
9.810000000000000000e+02 7.814209747314453125e+01 1.144102096557617188e+01 2.840439323335886002e-03 7.480770111083984375e+00 2.245083093643188477e+00 3.709351643919944763e-02
9.820000000000000000e+02 7.870880126953125000e+01 3.240984344482421875e+01 -2.313557779416441917e-03 7.964128971099853516e+00 2.388544559478759766e+00 2.476884238421916962e-02
9.830000000000000000e+02 7.815060424804687500e+01 9.836760520935058594e+00 3.185107372701168060e-03 7.453423976898193359e+00 2.236982822418212891e+00 3.220601007342338562e-02
9.840000000000000000e+02 7.776830291748046875e+01 -3.817489242553710938e+01 -2.121377037838101387e-03 8.135053634643554688e+00 2.439879894256591797e+00 -1.906992867588996887e-02
9.850000000000000000e+02 7.704887390136718750e+01 -4.060925292968750000e+01 -8.491360582411289215e-03 8.119367599487304688e+00 2.433262825012207031e+00 -1.003071479499340057e-02
9.860000000000000000e+02 7.864642333984375000e+01 -3.640470886230468750e+01 -3.459820291027426720e-03 8.148916244506835938e+00 2.443636894226074219e+00 -1.600029878318309784e-02
9.870000000000000000e+02 7.768901062011718750e+01 -3.628609466552734375e+01 -7.580798584967851639e-03 8.116377830505371094e+00 2.432639360427856445e+00 -2.785949781537055969e-02
9.880000000000000000e+02 7.886739349365234375e+01 -3.013879203796386719e+01 -1.318406662903726101e-03 8.044186592102050781e+00 2.412860393524169922e+00 -2.805990166962146759e-02
9.890000000000000000e+02 7.809901428222656250e+01 -3.173416137695312500e+01 -3.594259731471538544e-03 8.058583259582519531e+00 2.416496753692626953e+00 -4.051858931779861450e-02
9.900000000000000000e+02 7.887822723388671875e+01 -2.295528221130371094e+01 -3.730677999556064606e-04 7.854181289672851562e+00 2.356142520904541016e+00 -3.567633405327796936e-02
9.910000000000000000e+02 7.810330200195312500e+01 -2.463730812072753906e+01 -1.506870728917419910e-03 7.893459320068359375e+00 2.367585659027099609e+00 -5.539771914482116699e-02
9.920000000000000000e+02 7.890646362304687500e+01 -1.573950576782226562e+01 6.090163951739668846e-04 7.639479160308837891e+00 2.292026519775390625e+00 -3.414841741323471069e-02
9.930000000000000000e+02 7.742919921875000000e+01 -1.750622749328613281e+01 1.534845447167754173e-03 7.699127197265625000e+00 2.310198545455932617e+00 -7.633214443922042847e-02
9.940000000000000000e+02 7.891155242919921875e+01 -8.521645545959472656e+00 1.220257952809333801e-03 7.459388732910156250e+00 2.238182783126831055e+00 -2.357179671525955200e-02
9.950000000000000000e+02 7.818032836914062500e+01 -1.020367336273193359e+01 2.822251291945576668e-03 7.511515140533447266e+00 2.254301309585571289e+00 -4.270309954881668091e-02
9.960000000000000000e+02 7.890872955322265625e+01 -2.106163978576660156e+00 1.582189463078975677e-03 7.370493888854980469e+00 2.211622953414916992e+00 -8.795270696282386780e-03
9.970000000000000000e+02 7.744696807861328125e+01 -3.882462263107299805e+00 7.158731576055288315e-03 7.430734157562255859e+00 2.231367826461791992e+00 -2.843366004526615143e-02
9.980000000000000000e+02 7.890060424804687500e+01 5.109899520874023438e+00 1.511783688329160213e-03 7.373880863189697266e+00 2.212617874145507812e+00 9.465888142585754395e-03
9.990000000000000000e+02 7.816714477539062500e+01 3.425311565399169922e+00 3.977739252150058746e-03 7.387347221374511719e+00 2.217397451400756836e+00 8.533834479749202728e-03
1.000000000000000000e+03 7.801005554199218750e+01 2.747331809997558594e+01 -1.314935041591525078e-03 7.851305007934570312e+00 2.354997158050537109e+00 4.958955571055412292e-02
1.001000000000000000e+03 7.801618194580078125e+01 2.666645622253417969e+01 -1.694642007350921631e-03 7.833172798156738281e+00 2.349443435668945312e+00 5.039793252944946289e-02
1.002000000000000000e+03 7.770543670654296875e+01 3.402385330200195312e+01 -5.266176071017980576e-03 7.969108581542968750e+00 2.389152765274047852e+00 3.438140079379081726e-02
1.003000000000000000e+03 7.802423858642578125e+01 2.586182212829589844e+01 -1.028206315822899342e-03 7.814682960510253906e+00 2.344096422195434570e+00 5.152465775609016418e-02
1.004000000000000000e+03 7.809487915039062500e+01 1.945966720581054688e+01 6.542878691107034683e-04 7.658188343048095703e+00 2.297652721405029297e+00 5.186837166547775269e-02
1.005000000000000000e+03 7.739781951904296875e+01 1.054116630554199219e+01 5.653873085975646973e-03 7.482255458831787109e+00 2.246372699737548828e+00 4.657353460788726807e-02
1.006000000000000000e+03 7.817481231689453125e+01 1.018181085586547852e+00 4.034516867250204086e-03 7.382707118988037109e+00 2.216022491455078125e+00 -1.278154435567557812e-03
1.007000000000000000e+03 7.818478393554687500e+01 -6.198172092437744141e+00 3.511204849928617477e-03 7.438891887664794922e+00 2.232720851898193359e+00 -2.967753633856773376e-02
1.008000000000000000e+03 7.816581726074218750e+01 -1.821788215637207031e+01 6.362260901369154453e-04 7.715260982513427734e+00 2.314769268035888672e+00 -5.695878341794013977e-02
1.009000000000000000e+03 7.886067962646484375e+01 -2.696415519714355469e+01 -8.332023862749338150e-04 7.965825557708740234e+00 2.389497756958007812e+00 -3.241250663995742798e-02
1.010000000000000000e+03 7.883187103271484375e+01 -3.404990386962890625e+01 -1.072833780199289322e-03 8.120102882385253906e+00 2.435708999633789062e+00 -2.046853862702846527e-02
1.011000000000000000e+03 7.851173400878906250e+01 4.008085632324218750e+01 -3.564568469300866127e-03 8.039322853088378906e+00 2.410727500915527344e+00 8.887306787073612213e-03
1.012000000000000000e+03 7.696891021728515625e+01 4.044067001342773438e+01 -1.042877417057752609e-02 8.001498222351074219e+00 2.397320747375488281e+00 1.148302853107452393e-02
1.013000000000000000e+03 7.770545959472656250e+01 3.490373992919921875e+01 -5.784302018582820892e-03 7.980324268341064453e+00 2.392361879348754883e+00 3.062952496111392975e-02
1.014000000000000000e+03 7.799442291259765625e+01 2.908198547363281250e+01 -1.845027320086956024e-03 7.885776519775390625e+00 2.365179538726806641e+00 4.698292165994644165e-02
1.015000000000000000e+03 7.804409027099609375e+01 2.425507354736328125e+01 -6.379925762303173542e-04 7.776503562927246094e+00 2.332759618759155273e+00 5.263822898268699646e-02
1.016000000000000000e+03 7.815900421142578125e+01 8.230370521545410156e+00 3.487138543277978897e-03 7.429930210113525391e+00 2.230025291442871094e+00 2.675078622996807098e-02
1.017000000000000000e+03 7.888845825195312500e+01 -2.134987449645996094e+01 -2.307028335053473711e-04 7.806648254394531250e+00 2.341925144195556641e+00 -3.615434095263481140e-02
1.018000000000000000e+03 7.890831756591796875e+01 -1.413453197479248047e+01 7.801657193340361118e-04 7.594301223754882812e+00 2.278524398803710938e+00 -3.255735710263252258e-02
1.019000000000000000e+03 7.886367034912109375e+01 -2.775887298583984375e+01 -5.949274054728448391e-04 7.986324787139892578e+00 2.395719051361083984e+00 -3.149732574820518494e-02
1.020000000000000000e+03 7.810489654541015625e+01 -2.940703582763671875e+01 -2.526428317651152611e-03 8.009771347045898438e+00 2.402173519134521484e+00 -4.677298292517662048e-02
1.021000000000000000e+03 7.878474426269531250e+01 -3.482854843139648438e+01 -2.032093470916152000e-03 8.130751609802246094e+00 2.438615798950195312e+00 -1.946620270609855652e-02
1.022000000000000000e+03 7.891266632080078125e+01 -6.917278766632080078e+00 1.337683526799082756e-03 7.429674148559570312e+00 2.229303598403930664e+00 -2.021006494760513306e-02
1.023000000000000000e+03 7.890755462646484375e+01 3.004313409328460693e-01 1.603569253347814083e-03 7.359104633331298828e+00 2.208212614059448242e+00 -2.678072545677423477e-03
1.024000000000000000e+03 7.817735290527343750e+01 -5.818760991096496582e-01 4.015641286969184875e-03 7.386189937591552734e+00 2.217061758041381836e+00 -7.839166559278964996e-03
1.025000000000000000e+03 7.816332244873046875e+01 6.631917476654052734e+00 3.695125691592693329e-03 7.410992145538330078e+00 2.224406242370605469e+00 2.096253074705600739e-02
1.026000000000000000e+03 7.816197967529296875e+01 7.431913375854492188e+00 3.553962102159857750e-03 7.419878959655761719e+00 2.227029800415039062e+00 2.387716248631477356e-02
1.027000000000000000e+03 7.816365051269531250e+01 5.828736305236816406e+00 3.750056494027376175e-03 7.403259754180908203e+00 2.222102880477905273e+00 1.793679408729076385e-02
1.028000000000000000e+03 7.816567993164062500e+01 4.227929115295410156e+00 3.898530267179012299e-03 7.391441345214843750e+00 2.218601942062377930e+00 1.173771452158689499e-02
1.029000000000000000e+03 7.742877960205078125e+01 3.331517219543457031e+00 7.423458620905876160e-03 7.409195423126220703e+00 2.224985599517822266e+00 1.103983167558908463e-02
1.030000000000000000e+03 7.890644836425781250e+01 1.099977612495422363e+00 1.635509310290217400e-03 7.358113288879394531e+00 2.207924604415893555e+00 -6.166539387777447701e-04
1.031000000000000000e+03 7.817728424072265625e+01 -1.385893344879150391e+00 4.007287789136171341e-03 7.389931678771972656e+00 2.218181610107421875e+00 -1.109729334712028503e-02
1.032000000000000000e+03 7.818246459960937500e+01 -4.590952873229980469e+00 3.731257049366831779e-03 7.417572498321533203e+00 2.226391077041625977e+00 -2.372840978205204010e-02
1.033000000000000000e+03 7.818081665039062500e+01 -3.788842201232910156e+00 3.834185888990759850e-03 7.408782958984375000e+00 2.223785161972045898e+00 -2.068150602281093597e-02
1.034000000000000000e+03 7.745253753662109375e+01 -5.488398551940917969e+00 6.796169094741344452e-03 7.448680877685546875e+00 2.236643075942993164e+00 -3.662210702896118164e-02
1.035000000000000000e+03 7.818527221679687500e+01 -6.997882843017578125e+00 3.415196901187300682e-03 7.451230525970458984e+00 2.236393690109252930e+00 -3.248962014913558960e-02
1.036000000000000000e+03 7.744780731201171875e+01 -8.694601058959960938e+00 5.770883988589048386e-03 7.497888565063476562e+00 2.251097917556762695e+00 -5.161412432789802551e-02
1.037000000000000000e+03 7.817767333984375000e+01 -1.421621417999267578e+01 1.656186184845864773e-03 7.606532573699951172e+00 2.282456636428833008e+00 -5.204121023416519165e-02
1.038000000000000000e+03 7.817969512939453125e+01 -1.100526428222656250e+01 2.558688400313258171e-03 7.528935909271240234e+00 2.259448289871215820e+00 -4.490001127123832703e-02
1.039000000000000000e+03 7.817906951904296875e+01 -1.180941581726074219e+01 2.453351160511374474e-03 7.547323226928710938e+00 2.264932870864868164e+00 -4.697648435831069946e-02
1.040000000000000000e+03 7.817835235595703125e+01 -1.341536712646484375e+01 2.043051412329077721e-03 7.586208820343017578e+00 2.276475667953491211e+00 -5.055362731218338013e-02
1.041000000000000000e+03 7.743813323974609375e+01 -1.591206932067871094e+01 2.432554261758923531e-03 7.657928943634033203e+00 2.298108577728271484e+00 -7.394739985466003418e-02
1.042000000000000000e+03 7.816909027099609375e+01 -1.741947174072265625e+01 6.901292945258319378e-04 7.692934513092041016e+00 2.308087348937988281e+00 -5.638650059700012207e-02
1.043000000000000000e+03 7.814925384521484375e+01 -2.062477684020996094e+01 -3.282525867689400911e-04 7.783254146575927734e+00 2.334877729415893555e+00 -5.783310160040855408e-02
1.044000000000000000e+03 7.815574645996093750e+01 -1.982195281982421875e+01 8.737713505979627371e-05 7.760567665100097656e+00 2.328196525573730469e+00 -5.766220763325691223e-02
1.045000000000000000e+03 7.814258575439453125e+01 -2.142526245117187500e+01 -4.706092295236885548e-04 7.805782318115234375e+00 2.341593503952026367e+00 -5.755452811717987061e-02
1.046000000000000000e+03 7.811414337158203125e+01 -2.383326148986816406e+01 -1.214657560922205448e-03 7.871977329254150391e+00 2.361228704452514648e+00 -5.632625520229339600e-02
1.047000000000000000e+03 7.808975219726562500e+01 -2.704541778564453125e+01 -1.706431969068944454e-03 7.954470157623291016e+00 2.385828971862792969e+00 -5.178220570087432861e-02
1.048000000000000000e+03 7.809435272216796875e+01 -2.544209861755371094e+01 -1.603020937182009220e-03 7.914296150207519531e+00 2.373807907104492188e+00 -5.452784895896911621e-02
1.049000000000000000e+03 7.809531402587890625e+01 -2.783560562133789062e+01 -2.021452644839882851e-03 7.973624706268310547e+00 2.391480922698974609e+00 -5.012152343988418579e-02
1.050000000000000000e+03 7.886771392822265625e+01 -2.934745597839355469e+01 -7.910999702289700508e-04 8.025719642639160156e+00 2.407478570938110352e+00 -2.938667684793472290e-02
1.051000000000000000e+03 7.810372924804687500e+01 -3.018917846679687500e+01 -2.705461811274290085e-03 8.026989936828613281e+00 2.407285451889038086e+00 -4.495214298367500305e-02
1.052000000000000000e+03 7.806703948974609375e+01 -3.400446319580078125e+01 -3.907436504960060120e-03 8.096338272094726562e+00 2.427729129791259766e+00 -3.272777423262596130e-02
1.053000000000000000e+03 7.809875488281250000e+01 -3.249773406982421875e+01 -4.053721204400062561e-03 8.073334693908691406e+00 2.420784235000610352e+00 -3.715442493557929993e-02
1.054000000000000000e+03 7.797620391845703125e+01 -3.473995208740234375e+01 -3.853614674881100655e-03 8.104812622070312500e+00 2.430287599563598633e+00 -3.101705759763717651e-02
1.055000000000000000e+03 7.669829559326171875e+01 -3.599378204345703125e+01 -1.323854364454746246e-02 8.086789131164550781e+00 2.422065258026123047e+00 -4.072377830743789673e-02
1.056000000000000000e+03 7.765170288085937500e+01 -3.975226593017578125e+01 -1.634413027204573154e-03 8.139747619628906250e+00 2.441434144973754883e+00 -1.257130410522222519e-02
1.057000000000000000e+03 2.095423507690429688e+01 5.321300506591796875e+00 9.905067086219787598e-01 1.165945911407470703e+01 3.794989585876464844e+00 -9.863104224205017090e-01
1.058000000000000000e+03 1.022520160675048828e+01 -7.582873344421386719e+00 -4.198028764221817255e-04 3.169063420500606298e-04 -3.086896322201937437e-05 2.194780390709638596e-04
1.059000000000000000e+03 1.039570617675781250e+01 -8.505334854125976562e+00 -3.985548391938209534e-04 5.469126044772565365e-04 4.450732012628577650e-05 4.428853862918913364e-04
1.060000000000000000e+03 3.945026397705078125e-01 3.510075807571411133e+00 -2.271552220918238163e-04 4.884164663963019848e-04 7.837838347768411040e-05 -1.142051405622623861e-04
1.061000000000000000e+03 1.389860749244689941e+00 3.643954086303710938e+01 -6.684249732643365860e-03 5.269049406051635742e-01 1.560662090778350830e-01 -6.058144196867942810e-02
1.062000000000000000e+03 2.558182954788208008e+00 3.993787384033203125e+01 1.476589532103389502e-04 8.377049565315246582e-01 2.513557970523834229e-01 -1.577852480113506317e-02
1.063000000000000000e+03 1.287162899971008301e+00 3.479416275024414062e+01 -6.884631700813770294e-03 4.191067516803741455e-01 1.236666366457939148e-01 -7.908153533935546875e-02
1.064000000000000000e+03 1.128739953041076660e+00 2.840848159790039062e+01 6.556218955665826797e-03 -6.869818270206451416e-02 -1.864258758723735809e-02 -7.529725879430770874e-02
1.065000000000000000e+03 1.861314773559570312e+00 2.917060661315917969e+01 1.419472973793745041e-02 1.664893031120300293e-01 5.420520901679992676e-02 -1.320843249559402466e-01
1.066000000000000000e+03 2.555092573165893555e+00 2.428168869018554688e+01 5.822540447115898132e-02 6.026012450456619263e-02 3.554565832018852234e-02 -4.318490996956825256e-02
1.067000000000000000e+03 1.963755011558532715e+00 3.151313591003417969e+01 -1.714099082164466381e-03 3.586732745170593262e-01 1.070877462625503540e-01 -1.513938009738922119e-01
1.068000000000000000e+03 1.270972251892089844e+00 -3.395702743530273438e+01 -1.086601894348859787e-02 6.175905466079711914e-01 1.820173561573028564e-01 9.156228601932525635e-02
1.069000000000000000e+03 2.211267948150634766e+00 -3.222787475585937500e+01 -7.487548515200614929e-03 7.011842727661132812e-01 2.081090062856674194e-01 1.732964515686035156e-01
1.070000000000000000e+03 1.859511852264404297e+00 2.517992591857910156e+01 3.281480073928833008e-02 -5.270400643348693848e-02 -5.966761615127325058e-03 -4.873189702630043030e-02
1.071000000000000000e+03 2.040972948074340820e+00 3.231300735473632812e+01 -1.008975505828857422e-02 4.246031045913696289e-01 1.243540048599243164e-01 -1.529538929462432861e-01
1.072000000000000000e+03 1.088076114654541016e+00 2.123731803894042969e+01 4.406498745083808899e-03 -2.120901495218276978e-01 -6.230509281158447266e-02 5.369973182678222656e-02
1.073000000000000000e+03 1.789118170738220215e+00 2.207063293457031250e+01 2.263400517404079437e-02 -1.219807788729667664e-01 -2.980403229594230652e-02 5.320878699421882629e-02
1.074000000000000000e+03 2.327794790267944336e+00 2.290100479125976562e+01 4.767299816012382507e-02 -3.043627180159091949e-02 5.171018186956644058e-03 2.153695002198219299e-02
1.075000000000000000e+03 1.809610009193420410e+00 2.437883567810058594e+01 3.234507143497467041e-02 -8.921174705028533936e-02 -1.706000231206417084e-02 -1.962397433817386627e-02
1.076000000000000000e+03 1.883738398551940918e+00 2.839194679260253906e+01 1.321980636566877365e-02 1.214977279305458069e-01 4.041526094079017639e-02 -1.214135661721229553e-01
1.077000000000000000e+03 1.899103879928588867e+00 2.760021972656250000e+01 2.035244554281234741e-02 7.614558190107345581e-02 2.894940786063671112e-02 -1.113638207316398621e-01
1.078000000000000000e+03 1.901073694229125977e+00 2.680070304870605469e+01 2.350982464849948883e-02 3.216451406478881836e-02 1.670230180025100708e-02 -9.329205006361007690e-02
1.079000000000000000e+03 1.257974386215209961e+00 3.398768997192382812e+01 -9.995630010962486267e-03 3.593613505363464355e-01 1.048097163438796997e-01 -8.529589325189590454e-02
1.080000000000000000e+03 1.852895021438598633e+00 2.994324874877929688e+01 8.870724588632583618e-03 2.208993881940841675e-01 6.893103569746017456e-02 -1.387737989425659180e-01
1.081000000000000000e+03 2.088150501251220703e+00 3.391667938232421875e+01 -1.371835917234420776e-02 5.441222190856933594e-01 1.591211557388305664e-01 -1.426256150007247925e-01
1.082000000000000000e+03 2.068200111389160156e+00 3.311825180053710938e+01 -1.387005671858787537e-02 4.844483137130737305e-01 1.411734670400619507e-01 -1.468169242143630981e-01
1.083000000000000000e+03 2.128860950469970703e+00 3.471072006225585938e+01 -2.879576198756694794e-02 6.004317402839660645e-01 1.714908033609390259e-01 -1.275252550840377808e-01
1.084000000000000000e+03 1.274812459945678711e+00 4.014480209350585938e+01 -1.788816647604107857e-03 5.931456089019775391e-01 1.774070262908935547e-01 -2.996861748397350311e-02
1.085000000000000000e+03 2.828797578811645508e+00 -3.686273193359375000e+01 -3.814019262790679932e-02 1.091029882431030273e+00 3.158669173717498779e-01 1.140999197959899902e-01
1.086000000000000000e+03 2.000237464904785156e+00 -3.699220275878906250e+01 -1.459272950887680054e-02 9.344731569290161133e-01 2.759641408920288086e-01 8.895954489707946777e-02
1.087000000000000000e+03 1.980789542198181152e+00 -3.552531433105468750e+01 -1.303861103951931000e-02 8.600348234176635742e-01 2.540988624095916748e-01 1.166788712143898010e-01
1.088000000000000000e+03 1.832524299621582031e+00 2.126842117309570312e+01 1.744324713945388794e-02 -1.102706715464591980e-01 -2.784822694957256317e-02 7.252819091081619263e-02
1.089000000000000000e+03 1.187368869781494141e+00 -2.742674827575683594e+01 5.909132305532693863e-03 9.002379328012466431e-02 2.877987734973430634e-02 9.676812589168548584e-02
1.090000000000000000e+03 1.954029440879821777e+00 -2.566963005065917969e+01 2.570150792598724365e-02 1.572552919387817383e-01 5.488703772425651550e-02 1.270957887172698975e-01
1.091000000000000000e+03 7.058247566223144531e+00 1.851405525207519531e+01 -1.448386758565902710e-01 1.637244522571563721e-01 5.665733013302087784e-03 3.727098926901817322e-02
1.092000000000000000e+03 1.787639737129211426e+00 1.818786239624023438e+01 -1.266575604677200317e-02 -4.868878424167633057e-02 -1.840636134147644043e-02 7.623516768217086792e-02
1.093000000000000000e+03 1.060917615890502930e+00 8.436693191528320312e+00 1.043213997036218643e-03 2.373632742092013359e-03 1.025054021738469601e-03 -9.723379043862223625e-04
1.094000000000000000e+03 1.767761826515197754e+00 1.162561225891113281e+01 -3.241777885705232620e-03 1.189004862681031227e-03 -6.158318719826638699e-04 4.535667831078171730e-04
1.095000000000000000e+03 1.066384673118591309e+00 -7.526201248168945312e+00 -2.559651911724358797e-04 1.140645006671547890e-03 2.654039708431810141e-04 4.072781011927872896e-04
1.096000000000000000e+03 2.483022451400756836e+00 -8.335242271423339844e+00 4.173294582869857550e-04 -4.816695873159915209e-04 -1.930204416566994041e-05 8.450129535049200058e-04
1.097000000000000000e+03 2.501298427581787109e+00 -4.254611015319824219e+00 2.561443216109182686e-05 -7.162943074945360422e-05 -1.380449975840747356e-05 1.057930567185394466e-04
1.098000000000000000e+03 1.885024309158325195e+00 -2.323930168151855469e+01 4.055665805935859680e-02 2.337199170142412186e-03 1.286815758794546127e-02 5.053592845797538757e-02
1.099000000000000000e+03 1.076976060867309570e+00 -2.098324775695800781e+01 1.309760939329862595e-02 -1.946106106042861938e-01 -5.445389822125434875e-02 -3.341187536716461182e-02
1.100000000000000000e+03 2.407945394515991211e+00 -1.697786903381347656e+01 -3.084846399724483490e-02 1.075244881212711334e-02 -6.028804462403059006e-03 -7.015273720026016235e-02
1.101000000000000000e+03 1.018361687660217285e+00 -1.783959579467773438e+01 -3.297733142971992493e-03 -1.024627685546875000e-01 -3.172815218567848206e-02 -5.479796230792999268e-02
1.102000000000000000e+03 1.777740716934204102e+00 -1.466319179534912109e+01 -1.600961573421955109e-02 -6.234323140233755112e-03 -6.673181429505348206e-03 -2.472103200852870941e-02
1.103000000000000000e+03 1.064019918441772461e+00 -1.390468502044677734e+01 -5.901073571294546127e-03 -9.338145144283771515e-03 -4.571765661239624023e-03 -1.190215349197387695e-02
1.104000000000000000e+03 7.684593200683593750e+00 -1.244421386718750000e+01 -1.142017659731209278e-03 -5.583714810200035572e-04 -5.101167480461299419e-04 2.215627115219831467e-03
1.105000000000000000e+03 1.759124398231506348e+00 -1.143481826782226562e+01 -2.802112139761447906e-03 -3.469465882517397404e-04 -9.447176125831902027e-04 -1.915802014991641045e-03
1.106000000000000000e+03 1.780208706855773926e+00 7.740436077117919922e+00 9.961003670468926430e-04 1.070090103894472122e-03 6.198571645654737949e-04 -1.182577689178287983e-03
1.107000000000000000e+03 1.052181720733642578e+00 1.081421566009521484e+01 -1.647643279284238815e-03 3.477873746305704117e-03 5.490691401064395905e-04 -6.708768778480589390e-04
1.108000000000000000e+03 1.826581120491027832e+00 6.942864418029785156e+00 -5.088634206913411617e-04 9.511447860859334469e-04 1.326844212599098682e-04 -9.055884438566863537e-04
1.109000000000000000e+03 1.161283016204833984e+00 2.691177606582641602e+00 -1.316446432610973716e-04 2.713643480092287064e-04 4.191590778646059334e-05 -2.018761879298835993e-04
1.110000000000000000e+03 1.125533819198608398e+00 1.481274795532226562e+01 -5.654477048665285110e-03 -1.043549180030822754e-02 -4.826990887522697449e-03 1.581136323511600494e-02
1.111000000000000000e+03 1.793885827064514160e+00 -2.082019233703613281e+01 2.918866090476512909e-02 -7.302138209342956543e-02 -1.314981654286384583e-02 -4.130044952034950256e-02
1.112000000000000000e+03 2.430686950683593750e+00 -1.299247837066650391e+01 -1.103141438215970993e-02 5.804637912660837173e-04 -3.135285107418894768e-03 -7.609824649989604950e-03
1.113000000000000000e+03 1.054059863090515137e+00 -9.908713340759277344e+00 3.827799228020012379e-04 1.615155953913927078e-03 5.993807571940124035e-04 6.677936180494725704e-04
1.114000000000000000e+03 1.054638147354125977e+00 -9.119990348815917969e+00 -5.284970393404364586e-04 1.583604374900460243e-03 3.165322123095393181e-04 4.140195087529718876e-04
1.115000000000000000e+03 1.117233514785766602e+00 -2.258601570129394531e+01 1.721665076911449432e-02 -1.851179301738739014e-01 -5.037038400769233704e-02 5.821720696985721588e-03
1.116000000000000000e+03 1.831368327140808105e+00 -2.161777305603027344e+01 3.851744160056114197e-02 -5.936299264430999756e-02 -6.253665313124656677e-03 -1.483969390392303467e-02
1.117000000000000000e+03 1.240403652191162109e+00 -2.985227775573730469e+01 5.936275192652828991e-05 2.990854978561401367e-01 8.974345028400421143e-02 1.086861267685890198e-01
1.118000000000000000e+03 2.040883064270019531e+00 -2.889830970764160156e+01 3.495675744488835335e-03 4.206144511699676514e-01 1.272330433130264282e-01 1.720414906740188599e-01
1.119000000000000000e+03 2.162776231765747070e+00 -3.837868499755859375e+01 -2.251148968935012817e-02 1.012791037559509277e+00 2.970838546752929688e-01 8.785517513751983643e-02
1.120000000000000000e+03 1.252371668815612793e+00 -3.786879348754882812e+01 -5.042792763561010361e-03 8.237180113792419434e-01 2.456025630235671997e-01 5.411827936768531799e-02
1.121000000000000000e+03 3.117741823196411133e+00 -3.124839591979980469e+01 -1.144515350461006165e-02 8.519300222396850586e-01 2.521454393863677979e-01 2.417345494031906128e-01
1.122000000000000000e+03 2.011189460754394531e+00 -2.809349632263183594e+01 8.103025145828723907e-03 3.501882255077362061e-01 1.074873805046081543e-01 1.647807359695434570e-01
1.123000000000000000e+03 1.932645797729492188e+00 -2.486033248901367188e+01 3.027150221168994904e-02 1.004729345440864563e-01 3.922333195805549622e-02 1.063649430871009827e-01
1.124000000000000000e+03 2.669050931930541992e+00 -2.389114570617675781e+01 6.454192101955413818e-02 2.063687592744827271e-01 8.127320557832717896e-02 1.193871125578880310e-01
1.125000000000000000e+03 1.014212965965270996e+00 -1.861969184875488281e+01 -1.014038454741239548e-03 -1.331854164600372314e-01 -4.025983437895774841e-02 -5.718189477920532227e-02
1.126000000000000000e+03 5.736165046691894531e+00 -1.756165885925292969e+01 -8.731885254383087158e-02 1.385682821273803711e-01 1.537482813000679016e-02 4.836682695895433426e-03
1.127000000000000000e+03 4.847284793853759766e+00 -1.643075561523437500e+01 -9.131011366844177246e-02 1.016713306307792664e-01 3.108365228399634361e-03 -1.611168868839740753e-02
1.128000000000000000e+03 1.061165690422058105e+00 -1.470043277740478516e+01 -5.440890323370695114e-03 -1.848961412906646729e-02 -7.179151754826307297e-03 -1.904249563813209534e-02
1.129000000000000000e+03 7.907678604125976562e+00 -1.077571010589599609e+01 -5.424460396170616150e-04 2.218930050730705261e-03 5.029452149756252766e-04 -1.212246483191847801e-03
1.130000000000000000e+03 1.776283621788024902e+00 -9.887004852294921875e+00 -9.411534992977976799e-04 3.022354794666171074e-04 -1.916754117701202631e-04 5.294833317748270929e-05
1.131000000000000000e+03 1.775546789169311523e+00 -1.065673732757568359e+01 -6.822780123911798000e-04 -9.942556789610534906e-05 -2.345110697206109762e-04 -8.410263035329990089e-06
1.132000000000000000e+03 1.725984811782836914e+00 9.299412727355957031e+00 1.066707423888146877e-03 1.330401981249451637e-03 7.191328331828117371e-04 -1.280826400034129620e-03
1.133000000000000000e+03 1.734296083450317383e+00 1.084605789184570312e+01 3.610262065194547176e-04 1.096291118301451206e-03 4.371952090878039598e-04 -5.358255002647638321e-04
1.134000000000000000e+03 2.391573190689086914e+00 1.085041427612304688e+01 -2.831382444128394127e-03 2.487002348061650991e-04 -7.748046773485839367e-04 -2.660643367562443018e-04
1.135000000000000000e+03 1.864392161369323730e+00 1.479824066162109375e+01 -1.513630524277687073e-02 -3.986908122897148132e-03 -5.736964289098978043e-03 1.783177442848682404e-02
1.136000000000000000e+03 1.778774142265319824e+00 1.320758056640625000e+01 -6.959557998925447464e-03 -4.629549803212285042e-04 -2.226753858849406242e-03 5.133736878633499146e-03
1.137000000000000000e+03 1.787006139755249023e+00 1.241877079010009766e+01 -1.902062329463660717e-03 -2.299563784617930651e-04 -6.396056269295513630e-04 2.989343134686350822e-03
1.138000000000000000e+03 1.923251271247863770e+00 1.657059097290039062e+01 -2.307762205600738525e-02 -1.479364372789859772e-02 -1.136138010770082474e-02 4.634822160005569458e-02
1.139000000000000000e+03 1.793663501739501953e+00 1.894559860229492188e+01 -1.108094491064548492e-02 -6.499036401510238647e-02 -2.282139286398887634e-02 8.472919464111328125e-02
1.140000000000000000e+03 1.082125663757324219e+00 2.044609260559082031e+01 6.001452449709177017e-03 -1.853446811437606812e-01 -5.380297079682350159e-02 6.111302599310874939e-02
1.141000000000000000e+03 1.808524608612060547e+00 2.047373962402343750e+01 1.119140349328517914e-02 -9.476706385612487793e-02 -2.507269941270351410e-02 8.380908519029617310e-02
1.142000000000000000e+03 3.092237472534179688e+00 -2.439554691314697266e+00 1.588317827554419637e-04 -1.169725001091137528e-04 1.255778624908998609e-05 8.988860827230382711e-06
1.143000000000000000e+03 2.434998035430908203e+00 -2.579287767410278320e+00 1.611780608072876930e-04 1.364335766993463039e-04 8.928349416237324476e-05 3.333631902933120728e-04
1.144000000000000000e+03 2.167959690093994141e+00 -3.393849182128906250e+01 -1.603024639189243317e-02 7.989215850830078125e-01 2.348673939704895020e-01 1.565617918968200684e-01
1.145000000000000000e+03 2.214571952819824219e+00 -3.308847427368164062e+01 -1.376962848007678986e-02 7.559307217597961426e-01 2.226483225822448730e-01 1.631609797477722168e-01
1.146000000000000000e+03 2.076223134994506836e+00 -3.475430297851562500e+01 -2.422563731670379639e-02 8.371434807777404785e-01 2.438753545284271240e-01 1.342661529779434204e-01
1.147000000000000000e+03 1.952744126319885254e+00 -3.626626205444335938e+01 -1.915813982486724854e-02 8.951084613800048828e-01 2.627851068973541260e-01 1.002627760171890259e-01
1.148000000000000000e+03 1.739483451843261719e+01 1.391928958892822266e+01 1.720681428909301758e+00 8.129117012023925781e+00 2.954939365386962891e+00 -2.863396406173706055e+00
1.149000000000000000e+03 1.757331728935241699e+00 -1.305099582672119141e+01 -7.958063855767250061e-03 -2.039874903857707977e-03 -2.999381627887487411e-03 -8.870437741279602051e-03
1.150000000000000000e+03 1.815187454223632812e+01 1.236096000671386719e+01 1.468972802162170410e+00 9.446000099182128906e+00 3.274491786956787109e+00 -2.756756305694580078e+00
1.151000000000000000e+03 1.079807949066162109e+01 1.120641899108886719e+01 -4.237150133121758699e-04 2.140148542821407318e-03 5.149300559423863888e-04 -2.953376388177275658e-04
1.152000000000000000e+03 9.756158828735351562e+00 -8.191154479980468750e+00 1.407230956829153001e-05 1.086759264580905437e-03 3.302494587842375040e-04 -4.697010153904557228e-04
1.153000000000000000e+03 9.284106254577636719e+00 -8.815865516662597656e+00 -5.775241297669708729e-04 4.386775253806263208e-04 -4.165398422628641129e-05 2.537694817874580622e-04
1.154000000000000000e+03 8.815151214599609375e+00 -9.456227302551269531e+00 -1.661822316236793995e-04 1.735727884806692600e-03 4.708636843133717775e-04 -8.093244978226721287e-04
1.155000000000000000e+03 1.583880138397216797e+01 1.509112930297851562e+01 2.277475595474243164e+00 6.686526775360107422e+00 2.689200639724731445e+00 -3.145690679550170898e+00
1.156000000000000000e+03 1.407003116607666016e+01 1.815457916259765625e+01 1.298303842544555664e+00 3.957748889923095703e+00 1.576815843582153320e+00 -2.192443609237670898e+00
1.157000000000000000e+03 1.278824234008789062e+01 1.816631317138671875e+01 1.566903710365295410e+00 2.621688842773437500e+00 1.256577730178833008e+00 -1.956464171409606934e+00
1.158000000000000000e+03 1.263134574890136719e+01 -1.755299758911132812e+01 1.112723231315612793e+00 3.088510751724243164e+00 1.260370135307312012e+00 1.786171078681945801e+00
1.159000000000000000e+03 1.489320945739746094e+01 -1.393910884857177734e+01 1.874436736106872559e+00 5.061358451843261719e+00 2.080738544464111328e+00 2.804050683975219727e+00
1.160000000000000000e+03 1.702341461181640625e+01 -1.232377624511718750e+01 1.510591864585876465e+00 7.024233341217041016e+00 2.560447692871093750e+00 2.871815919876098633e+00
1.161000000000000000e+03 1.943327140808105469e+01 -7.687520980834960938e+00 1.718492150306701660e+00 1.158928394317626953e+01 3.992332696914672852e+00 2.292853593826293945e+00
1.162000000000000000e+03 1.809399604797363281e+01 1.056952285766601562e+01 1.496497154235839844e+00 1.106053543090820312e+01 3.767109632492065430e+00 -3.030559778213500977e+00
1.163000000000000000e+03 1.778565979003906250e+01 1.313662910461425781e+01 1.565882325172424316e+00 8.812325477600097656e+00 3.113462448120117188e+00 -2.856040954589843750e+00
1.164000000000000000e+03 2.043502235412597656e+01 1.852691054344177246e+00 4.709124267101287842e-01 1.236814975738525391e+01 3.851718664169311523e+00 -4.234293401241302490e-01
1.165000000000000000e+03 2.128242492675781250e+01 1.972267508506774902e+00 6.888262629508972168e-01 1.189902210235595703e+01 3.776354551315307617e+00 -3.746115565299987793e-01
1.166000000000000000e+03 1.880714035034179688e+01 1.079334354400634766e+01 1.477584123611450195e+00 1.049352836608886719e+01 3.591333866119384766e+00 -2.393834114074707031e+00
1.167000000000000000e+03 1.953997230529785156e+01 8.383840560913085938e+00 1.142861127853393555e+00 1.151582145690917969e+01 3.797604799270629883e+00 -2.044617176055908203e+00
1.168000000000000000e+03 1.932997894287109375e+01 9.187384605407714844e+00 1.349811434745788574e+00 1.121234416961669922e+01 3.768646717071533203e+00 -2.195132732391357422e+00
1.169000000000000000e+03 1.604658699035644531e+01 -1.374027729034423828e+01 1.501623630523681641e+00 5.962835788726806641e+00 2.239337921142578125e+00 2.613916397094726562e+00
1.170000000000000000e+03 1.654384994506835938e+01 -1.303765392303466797e+01 1.531591176986694336e+00 6.464272022247314453e+00 2.398758888244628906e+00 2.735603809356689453e+00
1.171000000000000000e+03 2.176600456237792969e+00 -3.491966247558593750e+00 2.794926986098289490e-04 1.424302899977192283e-04 1.265768951270729303e-04 4.104135732632130384e-04
1.172000000000000000e+03 1.839188933372497559e+00 -2.768486976623535156e+00 -4.615704892785288393e-05 1.821842306526377797e-05 -8.381588486372493207e-06 6.258268695091828704e-05
1.173000000000000000e+03 1.812006950378417969e+00 -5.130276203155517578e+00 -4.926562178297899663e-05 3.088851226493716240e-04 7.788585207890719175e-05 1.768676884239539504e-04
1.174000000000000000e+03 5.989935874938964844e+00 -3.231259346008300781e+00 2.531597856432199478e-04 -1.829274988267570734e-04 2.106968349835369736e-05 1.162236003438010812e-04
1.175000000000000000e+03 5.183195114135742188e+00 -3.184963703155517578e+00 2.316396858077496290e-04 -1.502116938354447484e-04 2.442839831928722560e-05 -1.144157067756168544e-04
1.176000000000000000e+03 4.441800117492675781e+00 -3.077128648757934570e+00 2.393078175373375416e-04 -1.994092308450490236e-04 1.196957600768655539e-05 2.745678648352622986e-04
1.177000000000000000e+03 6.814573764801025391e+00 -3.211267709732055664e+00 1.554948830744251609e-04 -1.405903603881597519e-04 4.471357897273264825e-06 -2.964168961625546217e-04
1.178000000000000000e+03 8.497431755065917969e+00 -2.453273534774780273e+00 1.314853434450924397e-04 2.695928378670942038e-05 4.753339089802466333e-05 2.388893153693061322e-05
1.179000000000000000e+03 1.066385746002197266e+01 -4.774511337280273438e+00 -2.153175009880214930e-04 1.552057365188375115e-04 -1.803353006835095584e-05 1.067721677827648818e-04
1.180000000000000000e+03 1.113048744201660156e+01 -6.393418788909912109e+00 -3.090744430664926767e-04 2.204224292654544115e-04 -2.659560414031147957e-05 1.636407687328755856e-04
1.181000000000000000e+03 1.873488426208496094e+01 -9.321482658386230469e+00 1.451183557510375977e+00 9.977937698364257812e+00 3.428736448287963867e+00 2.767019033432006836e+00
1.182000000000000000e+03 1.443420696258544922e+01 -1.573951244354248047e+01 1.285912156105041504e+00 4.463992595672607422e+00 1.724971413612365723e+00 2.280090808868408203e+00
1.183000000000000000e+03 1.499832439422607422e+01 -1.509489631652832031e+01 1.358255982398986816e+00 4.963480472564697266e+00 1.896520972251892090e+00 2.381273031234741211e+00
1.184000000000000000e+03 1.972428894042968750e+01 -6.828106880187988281e+00 1.946102023124694824e+00 1.212800884246826172e+01 4.222233295440673828e+00 1.986360788345336914e+00
1.185000000000000000e+03 1.833145713806152344e+01 -1.010204601287841797e+01 1.394674301147460938e+00 9.160962104797363281e+00 3.166690826416015625e+00 2.910162448883056641e+00
1.186000000000000000e+03 2.113809394836425781e+01 -4.246354579925537109e+00 1.580973148345947266e+00 1.183929538726806641e+01 4.026080608367919922e+00 1.309663772583007812e+00
1.187000000000000000e+03 2.031575393676757812e+01 3.523262262344360352e+00 7.175091505050659180e-01 1.235279941558837891e+01 3.921092748641967773e+00 -7.658418416976928711e-01
1.188000000000000000e+03 1.267336177825927734e+01 1.934161186218261719e+01 9.258447885513305664e-01 2.751852512359619141e+00 1.103309154510498047e+00 -1.792260169982910156e+00
1.189000000000000000e+03 1.218506240844726562e+01 2.007948493957519531e+01 7.139442563056945801e-01 2.457792758941650391e+00 9.515210986137390137e-01 -1.655437231063842773e+00
1.190000000000000000e+03 1.666610717773437500e+01 1.665536308288574219e+01 1.184062719345092773e+00 6.507784366607666016e+00 2.307554244995117188e+00 -2.142852783203125000e+00
1.191000000000000000e+03 1.697231864929199219e+01 1.470514678955078125e+01 1.791161775588989258e+00 7.491284370422363281e+00 2.784733772277832031e+00 -2.747454643249511719e+00
1.192000000000000000e+03 8.495510101318359375e+00 -1.876950073242187500e+01 5.708364844322204590e-01 2.832508385181427002e-01 2.562261819839477539e-01 7.492952346801757812e-01
1.193000000000000000e+03 1.199812030792236328e+01 -1.812653732299804688e+01 9.724054932594299316e-01 2.711951971054077148e+00 1.105307221412658691e+00 1.591261267662048340e+00
1.194000000000000000e+03 6.269095420837402344e+00 -1.351466178894042969e+01 -8.080943487584590912e-03 -7.597392890602350235e-03 -4.703500773757696152e-03 1.333457883447408676e-02
1.195000000000000000e+03 1.182492613792419434e+00 3.506307840347290039e+00 3.458517021499574184e-04 3.900519513990730047e-04 2.207710931543260813e-04 -3.663053212221711874e-04
1.196000000000000000e+03 1.425977516174316406e+01 2.475123882293701172e+00 1.123250622185878456e-04 1.397930027451366186e-04 7.563542021671310067e-05 8.864940900821238756e-05
1.197000000000000000e+03 2.051166725158691406e+01 1.631171852350234985e-01 3.423992395401000977e-01 1.238222885131835938e+01 3.817388534545898438e+00 5.477183312177658081e-02
1.198000000000000000e+03 1.018750905990600586e+00 -3.612259149551391602e+00 1.202332623506663367e-05 1.714669488137587905e-04 5.504708315129391849e-05 2.603445027489215136e-04
1.199000000000000000e+03 1.599238991737365723e+00 -3.657002925872802734e+00 -7.730656216153874993e-05 1.547487336210906506e-04 2.323265107406768948e-05 7.881868805270642042e-05
1.200000000000000000e+03 1.038491344451904297e+01 1.999312591552734375e+01 7.267525792121887207e-01 9.835799932479858398e-01 5.130997896194458008e-01 -1.147517561912536621e+00
1.201000000000000000e+03 1.055719184875488281e+01 2.065465354919433594e+01 6.635879874229431152e-01 1.390727758407592773e+00 6.162947416305541992e-01 -1.258526802062988281e+00
1.202000000000000000e+03 1.771202087402343750e+00 -1.621649360656738281e+01 -2.040411531925201416e-02 -1.938864775002002716e-02 -1.193782873451709747e-02 -5.104357004165649414e-02
1.203000000000000000e+03 7.068562507629394531e+00 1.391789340972900391e+01 -6.767129525542259216e-03 -8.596324361860752106e-03 -4.609036259353160858e-03 -8.911020122468471527e-03
1.204000000000000000e+03 8.508964538574218750e+00 1.974498367309570312e+01 3.921148777008056641e-01 1.733760833740234375e-01 1.696472913026809692e-01 -3.411985337734222412e-01
1.205000000000000000e+03 7.055207729339599609e+00 -1.852718162536621094e+01 1.280909627676010132e-01 1.045251935720443726e-01 6.978484988212585449e-02 6.482098251581192017e-02
1.206000000000000000e+03 6.457268714904785156e+00 -1.759264945983886719e+01 -1.138668432831764221e-01 1.093958541750907898e-01 -1.341297640465199947e-03 2.146628312766551971e-02
1.207000000000000000e+03 7.632917881011962891e+00 2.012178611755371094e+01 2.656272351741790771e-01 1.979547590017318726e-01 1.390746086835861206e-01 -1.828493028879165649e-01
1.208000000000000000e+03 6.480009555816650391e+00 1.499807548522949219e+01 -2.194830961525440216e-02 -1.445609051734209061e-02 -1.092131994664669037e-02 -3.230612352490425110e-02
1.209000000000000000e+03 7.767724990844726562e+00 -1.864031410217285156e+01 4.510159492492675781e-01 7.459650188684463501e-02 1.576837301254272461e-01 2.725635766983032227e-01
1.210000000000000000e+03 8.476679801940917969e+00 -1.961334228515625000e+01 5.769810080528259277e-01 6.355396509170532227e-01 3.637561798095703125e-01 7.481594085693359375e-01
1.211000000000000000e+03 3.875522375106811523e+00 -3.853044509887695312e+01 -8.379574865102767944e-02 1.387493610382080078e+00 3.911093771457672119e-01 1.077656820416450500e-01
1.212000000000000000e+03 1.129937267303466797e+01 9.044857025146484375e+00 -2.797928755171597004e-04 1.184841152280569077e-03 2.715144655667245388e-04 3.302359255030751228e-04
1.213000000000000000e+03 1.020216655731201172e+01 1.083316993713378906e+01 -1.580746378749608994e-03 1.859127776697278023e-03 8.351442374987527728e-05 5.019669188186526299e-04
1.214000000000000000e+03 9.882646560668945312e+00 1.142673969268798828e+01 -8.771988213993608952e-04 1.574465422891080379e-03 2.091799833578988910e-04 2.854365448001772165e-04
1.215000000000000000e+03 2.476828813552856445e+00 1.826167106628417969e+01 -2.717770077288150787e-02 1.981059322133660316e-04 -8.093878626823425293e-03 9.107692539691925049e-02
1.216000000000000000e+03 1.988142013549804688e+01 6.788650989532470703e+00 8.484387397766113281e-01 1.199417972564697266e+01 3.852785587310791016e+00 -1.560156464576721191e+00
1.217000000000000000e+03 1.063601303100585938e+01 -3.033009529113769531e+00 -3.157497121719643474e-05 1.103809699998237193e-04 2.364179817959666252e-05 7.139361696317791939e-05
1.218000000000000000e+03 9.883344650268554688e+00 -3.012143373489379883e+00 6.434978422475978732e-05 3.877358267345698550e-06 2.046814370260108262e-05 -3.397259570192545652e-04
1.219000000000000000e+03 1.254086685180664062e+01 8.092041969299316406e+00 -5.211738753132522106e-04 9.787750896066427231e-04 1.372803526464849710e-04 1.034443848766386509e-04
1.220000000000000000e+03 9.134694099426269531e+00 -3.028318166732788086e+00 5.309187326929531991e-05 7.608874875586479902e-05 3.875418406096287072e-05 5.233618139754980803e-05
1.221000000000000000e+03 1.129137325286865234e+01 -4.967849731445312500e+00 9.846777538768947124e-05 1.960090739885345101e-04 8.834305481286719441e-05 -2.692478592507541180e-04
1.222000000000000000e+03 9.619802474975585938e+00 3.860450744628906250e+00 3.912770771421492100e-04 -5.116586180520243943e-05 1.020333656924776733e-04 3.121789195574820042e-04
1.223000000000000000e+03 7.079020500183105469e+00 -1.212977886199951172e+01 -1.261568977497518063e-03 6.378383841365575790e-04 -1.871191780082881451e-04 -6.097358418628573418e-04
1.224000000000000000e+03 1.162548255920410156e+01 -4.368865966796875000e+00 -1.686503383098170161e-04 1.525811530882492661e-04 -4.820755748369265348e-06 1.112341487896628678e-04
1.225000000000000000e+03 1.224212360382080078e+01 8.730996131896972656e+00 -4.785343844559974968e-05 1.253662281669676304e-03 3.617426264099776745e-04 1.187235757242888212e-04
1.226000000000000000e+03 8.865986824035644531e+00 3.202351093292236328e+00 5.029202438890933990e-04 -1.201930645038373768e-04 1.148181472672149539e-04 2.051217015832662582e-04
1.227000000000000000e+03 1.118918228149414062e+01 -3.651584148406982422e+00 -1.122583125834353268e-04 1.394663559040054679e-04 8.162412086676340550e-06 1.090278310584835708e-04
1.228000000000000000e+03 1.061005878448486328e+01 1.023959732055664062e+01 -5.395548068918287754e-04 1.359181944280862808e-03 2.458881353959441185e-04 3.773992939386516809e-04
1.229000000000000000e+03 8.004974365234375000e+00 1.330865764617919922e+01 -2.318190643563866615e-03 -5.381460767239332199e-03 -2.309895353391766548e-03 -1.040095579810440540e-03
1.230000000000000000e+03 9.565063476562500000e+00 1.191859817504882812e+01 -1.891885767690837383e-03 2.228694502264261246e-03 1.010426276479847729e-04 1.203839856316335499e-04
1.231000000000000000e+03 1.266658687591552734e+01 3.919467926025390625e+00 1.329887454630807042e-04 2.980928984470665455e-04 1.293245004490017891e-04 2.571424411144107580e-04
1.232000000000000000e+03 1.342885112762451172e+01 3.958218812942504883e+00 -1.525108964415267110e-04 2.138058480340987444e-04 1.838848947954829782e-05 2.135761460522189736e-04
1.233000000000000000e+03 8.854673385620117188e+00 3.866315603256225586e+00 1.569389714859426022e-04 -3.053302643820643425e-04 -4.451739368960261345e-05 5.049514002166688442e-04
1.234000000000000000e+03 1.095746612548828125e+01 -4.212065219879150391e+00 1.015005109366029501e-04 9.983403288060799241e-05 6.040036532795056701e-05 -3.365648444741964340e-04
1.235000000000000000e+03 1.747401618957519531e+01 -1.159904098510742188e+01 1.438657641410827637e+00 7.671520233154296875e+00 2.733053445816040039e+00 2.957102775573730469e+00
1.236000000000000000e+03 1.867432975769042969e+01 -1.125715637207031250e+01 1.135399818420410156e+00 8.565979003906250000e+00 2.910413503646850586e+00 2.406637191772460938e+00
1.237000000000000000e+03 8.161356925964355469e+00 1.424975776672363281e+01 -1.706826034933328629e-03 -6.859933026134967804e-03 -2.570027718320488930e-03 -2.742140321061015129e-03
1.238000000000000000e+03 7.661090373992919922e+00 1.392006206512451172e+01 -4.409880843013525009e-03 -6.392061244696378708e-03 -3.240582766011357307e-03 -3.237688913941383362e-03
1.239000000000000000e+03 2.798501014709472656e+00 4.211240291595458984e+00 2.290622505825012922e-04 4.228508259984664619e-05 8.140419959090650082e-05 -4.885377129539847374e-04
1.240000000000000000e+03 2.712190628051757812e+00 3.419498443603515625e+00 4.395763680804520845e-04 1.495185279054567218e-04 1.767284702509641647e-04 -6.004590541124343872e-04
1.241000000000000000e+03 4.035104274749755859e+00 1.077239322662353516e+01 -3.355887951329350471e-03 -1.997055718675255775e-03 -1.605883124284446239e-03 -1.056713750585913658e-03
1.242000000000000000e+03 1.030506992340087891e+01 -4.089519023895263672e+00 -1.635465887375175953e-04 1.825172948883846402e-04 5.691209480573888868e-06 1.419978798367083073e-04
1.243000000000000000e+03 2.530809640884399414e+00 7.095415592193603516e+00 9.955426212400197983e-04 1.973224279936403036e-04 3.578595060389488935e-04 -1.111090183258056641e-03
1.244000000000000000e+03 7.330473899841308594e+00 3.889325380325317383e+00 2.482068666722625494e-04 -4.498671914916485548e-04 -6.049809599062427878e-05 3.090140235144644976e-04
1.245000000000000000e+03 9.638154983520507812e+00 3.194871187210083008e+00 1.626186567591503263e-04 -1.568036677781492472e-04 1.744496330502443016e-06 4.469602718017995358e-04
1.246000000000000000e+03 2.036577463150024414e+00 4.350359439849853516e+00 5.345524987205862999e-04 3.349077596794813871e-04 2.608380746096372604e-04 -6.968101952224969864e-04
1.247000000000000000e+03 2.822380542755126953e+00 5.493013858795166016e+00 8.824028191156685352e-04 5.172026067157275975e-05 2.802369417622685432e-04 -7.496364996768534184e-04
1.248000000000000000e+03 3.863098621368408203e+00 5.220836639404296875e+00 8.516539819538593292e-04 -4.042460641358047724e-04 1.342223840765655041e-04 -4.895049496553838253e-04
1.249000000000000000e+03 3.470284461975097656e+00 3.372452735900878906e+00 1.570527965668588877e-04 -7.372116670012474060e-05 2.499948641343507916e-05 -4.199196409899741411e-04
1.250000000000000000e+03 1.336161231994628906e+01 4.692674636840820312e+00 9.888483327813446522e-05 4.183079872746020555e-04 1.551578461658209562e-04 2.014026104006916285e-04
1.251000000000000000e+03 1.566556358337402344e+01 -1.561975097656250000e+01 1.022098064422607422e+00 5.341620922088623047e+00 1.909115672111511230e+00 2.149441957473754883e+00
1.252000000000000000e+03 1.191664028167724609e+01 9.366820335388183594e+00 -6.685351254418492317e-04 1.397839514538645744e-03 2.187913050875067711e-04 4.434932998265139759e-05
1.253000000000000000e+03 1.385107040405273438e+01 -1.752250862121582031e+01 8.769903779029846191e-01 3.964813470840454102e+00 1.452541232109069824e+00 1.866731524467468262e+00
1.254000000000000000e+03 9.592960357666015625e+00 4.519405364990234375e+00 1.666254320298321545e-05 -2.444571873638778925e-04 -6.833839870523661375e-05 6.430589710362255573e-04
1.255000000000000000e+03 1.251942634582519531e+01 5.322766780853271484e+00 4.950971560901962221e-05 5.135984392836689949e-04 1.689324417384341359e-04 2.950985508505254984e-04
1.256000000000000000e+03 2.121142959594726562e+01 2.825371742248535156e+00 7.826297879219055176e-01 1.186880970001220703e+01 3.795431852340698242e+00 -5.620828866958618164e-01
1.257000000000000000e+03 1.004918384552001953e+01 -6.694149971008300781e+00 -3.542344784364104271e-04 1.391994155710563064e-04 -6.451052468037232757e-05 8.870572492014616728e-05
1.258000000000000000e+03 1.823111915588378906e+01 -1.202913475036621094e+01 1.145719885826110840e+00 7.929079055786132812e+00 2.722439765930175781e+00 2.445293664932250977e+00
1.259000000000000000e+03 9.493706703186035156e+00 1.284004211425781250e+01 -1.779979094862937927e-03 3.266518935561180115e-03 4.459619231056421995e-04 -4.891518037766218185e-04
1.260000000000000000e+03 8.546760559082031250e+00 1.279501628875732422e+01 -2.752877073362469673e-03 -3.113232960458844900e-04 -9.192600846290588379e-04 -2.301013591932132840e-04
1.261000000000000000e+03 2.039213752746582031e+01 -3.263580083847045898e+00 8.967973589897155762e-01 1.275973320007324219e+01 4.096959114074707031e+00 1.201401591300964355e+00
1.262000000000000000e+03 2.144538497924804688e+01 -1.493237614631652832e+00 7.291228771209716797e-01 1.199810886383056641e+01 3.818169355392456055e+00 5.750588178634643555e-01
1.263000000000000000e+03 7.614612579345703125e+00 -3.155077457427978516e+00 1.655953237786889076e-04 -4.259214620105922222e-05 3.690095400088466704e-05 5.545448948396369815e-05
1.264000000000000000e+03 1.206753849983215332e+00 4.338238239288330078e+00 -2.622768224682658911e-04 6.247085402719676495e-04 1.087295167963020504e-04 -3.922393952962011099e-04
1.265000000000000000e+03 1.038479518890380859e+01 3.862031221389770508e+00 2.078475699818227440e-05 -8.756075112614780664e-05 -2.003279769269283861e-05 5.328089464455842972e-04
1.266000000000000000e+03 2.015570640563964844e+01 -5.048664569854736328e+00 1.854468941688537598e+00 1.262144756317138672e+01 4.342774868011474609e+00 1.706356048583984375e+00
1.267000000000000000e+03 2.238060569763183594e+01 -2.422924041748046875e+00 1.173619151115417480e+00 1.133205890655517578e+01 3.751703262329101562e+00 7.362310886383056641e-01
1.268000000000000000e+03 1.825699448585510254e+00 -5.925860881805419922e+00 3.814277588389813900e-04 1.771117240423336625e-04 1.675618404988199472e-04 6.688571302220225334e-04
1.269000000000000000e+03 7.843639373779296875e+01 3.772025299072265625e+01 -1.293480512686073780e-03 8.025245666503906250e+00 2.407185554504394531e+00 1.407240796834230423e-02
1.270000000000000000e+03 7.776088714599609375e+01 3.579399490356445312e+01 -3.992423415184020996e-03 7.992887496948242188e+00 2.396668434143066406e+00 2.620301395654678345e-02
1.271000000000000000e+03 7.718030548095703125e+01 2.896828651428222656e+01 -4.437108058482408524e-03 7.872903823852539062e+00 2.360539913177490234e+00 6.331798434257507324e-02
1.272000000000000000e+03 7.789122009277343750e+01 3.150616264343261719e+01 -4.560681525617837906e-03 7.931877136230468750e+00 2.378195047378540039e+00 4.215175285935401917e-02
1.273000000000000000e+03 7.719555664062500000e+01 2.816983795166015625e+01 -3.194999881088733673e-03 7.857203960418701172e+00 2.356202602386474609e+00 6.537351012229919434e-02
1.274000000000000000e+03 7.803379058837890625e+01 2.505882835388183594e+01 -1.209157519042491913e-03 7.795699119567871094e+00 2.338346958160400391e+00 5.196506902575492859e-02
1.275000000000000000e+03 7.737370300292968750e+01 1.375192165374755859e+01 4.194495268166065216e-03 7.539444923400878906e+00 2.263091802597045898e+00 5.817804858088493347e-02
1.276000000000000000e+03 7.534946441650390625e+01 -3.672594451904296875e+01 -2.629553712904453278e-02 8.063481330871582031e+00 2.411155700683593750e+00 -4.860362783074378967e-02
1.277000000000000000e+03 7.744488525390625000e+01 -9.497120857238769531e+00 5.556564312428236008e-03 7.512742519378662109e+00 2.255489587783813477e+00 -5.502703785896301270e-02
1.278000000000000000e+03 7.730687713623046875e+01 -2.792892837524414062e+01 -3.434056648984551430e-03 7.961523532867431641e+00 2.387426853179931641e+00 -6.778672337532043457e-02
1.279000000000000000e+03 7.744222259521484375e+01 -6.756604909896850586e-01 7.568029221147298813e-03 7.408853054046630859e+00 2.224926233291625977e+00 -1.109018269926309586e-02
1.280000000000000000e+03 7.742234039306640625e+01 6.535927295684814453e+00 6.905463989824056625e-03 7.430685997009277344e+00 2.231277465820312500e+00 2.785363979637622833e-02
1.281000000000000000e+03 7.744429016113281250e+01 -3.081110477447509766e+00 7.329579908400774002e-03 7.423544406890869141e+00 2.229262351989746094e+00 -2.424734458327293396e-02
1.282000000000000000e+03 7.787420654296875000e+01 3.665061950683593750e+01 -3.985322546213865280e-03 8.003045082092285156e+00 2.399717807769775391e+00 2.194162644445896149e-02
1.283000000000000000e+03 7.676002502441406250e+01 3.592599868774414062e+01 -1.006281841546297073e-02 7.972732543945312500e+00 2.388800859451293945e+00 3.624682873487472534e-02
1.284000000000000000e+03 7.817884063720703125e+01 -1.261277198791503906e+01 2.128481399267911911e-03 7.566382884979248047e+00 2.270553350448608398e+00 -4.882412403821945190e-02
1.285000000000000000e+03 7.744531250000000000e+01 -1.350855922698974609e+01 3.548791632056236267e-03 7.598711013793945312e+00 2.280677795410156250e+00 -6.852100789546966553e-02
1.286000000000000000e+03 7.670680999755859375e+01 -1.200670909881591797e+01 7.128422614187002182e-03 7.575757980346679688e+00 2.274865865707397461e+00 -7.993877679109573364e-02
1.287000000000000000e+03 7.744569396972656250e+01 -1.270591163635253906e+01 4.128547385334968567e-03 7.580109119415283203e+00 2.275271415710449219e+00 -6.629662215709686279e-02
1.288000000000000000e+03 7.744441223144531250e+01 -1.029697322845458984e+01 5.132967140525579453e-03 7.528298377990722656e+00 2.260029315948486328e+00 -5.812908709049224854e-02
1.289000000000000000e+03 7.744500732421875000e+01 -1.109803390502929688e+01 4.880615510046482086e-03 7.544781208038330078e+00 2.264898538589477539e+00 -6.106802076101303101e-02
1.290000000000000000e+03 7.744537353515625000e+01 -1.190237712860107422e+01 4.373210482299327850e-03 7.562064170837402344e+00 2.269931077957153320e+00 -6.376034021377563477e-02
1.291000000000000000e+03 7.818083953857421875e+01 -9.404043197631835938e+00 2.924204804003238678e-03 7.494999408721923828e+00 2.249377012252807617e+00 -4.035109281539916992e-02
1.292000000000000000e+03 7.745365905761718750e+01 -6.290802478790283203e+00 6.599868647754192352e-03 7.459375381469726562e+00 2.239792585372924805e+00 -4.058390855789184570e-02
1.293000000000000000e+03 7.817217254638671875e+01 1.819301724433898926e+00 4.064693581312894821e-03 7.382948398590087891e+00 2.216104030609130859e+00 2.025673631578683853e-03
1.294000000000000000e+03 7.743958282470703125e+01 9.241713285446166992e-01 7.619400508701801300e-03 7.405238151550292969e+00 2.223857164382934570e+00 -2.226021839305758476e-03
1.295000000000000000e+03 7.818222045898437500e+01 -8.602626800537109375e+00 3.134597558528184891e-03 7.479437351226806641e+00 2.244771480560302734e+00 -3.787956014275550842e-02
1.296000000000000000e+03 7.745142364501953125e+01 -7.891736507415771484e+00 6.112013943493366241e-03 7.483992099761962891e+00 2.247031211853027344e+00 -4.805735126137733459e-02
1.297000000000000000e+03 7.816144561767578125e+01 -1.901881790161132812e+01 1.888520491775125265e-04 7.737829208374023438e+00 2.321405410766601562e+00 -5.747043341398239136e-02
1.298000000000000000e+03 7.740394592285156250e+01 -2.070300292968750000e+01 -4.667506727855652571e-04 7.783791065216064453e+00 2.334997415542602539e+00 -7.800895720720291138e-02
1.299000000000000000e+03 7.741720581054687500e+01 8.132742881774902344e+00 6.500317715108394623e-03 7.448111057281494141e+00 2.236383438110351562e+00 3.567603230476379395e-02
1.300000000000000000e+03 7.817922973632812500e+01 -2.987721443176269531e+00 3.906149882823228836e-03 7.401234149932861328e+00 2.221542119979858398e+00 -1.751359924674034119e-02
1.301000000000000000e+03 7.745341491699218750e+01 -7.090914249420166016e+00 6.320857908576726913e-03 7.471152782440185547e+00 2.243242025375366211e+00 -4.437577351927757263e-02
1.302000000000000000e+03 7.818380737304687500e+01 -5.395034790039062500e+00 3.668401157483458519e-03 7.427648544311523438e+00 2.229395151138305664e+00 -2.677485533058643341e-02
1.303000000000000000e+03 7.743617248535156250e+01 1.724765896797180176e+00 7.565540727227926254e-03 7.405347347259521484e+00 2.223873853683471680e+00 2.197809284552931786e-03
1.304000000000000000e+03 7.742581939697265625e+01 4.133969783782958984e+00 7.370784878730773926e-03 7.412867546081542969e+00 2.226071596145629883e+00 1.536633633077144623e-02
1.305000000000000000e+03 7.744174957275390625e+01 1.251573115587234497e-01 7.564729545265436172e-03 7.406433105468750000e+00 2.224199295043945312e+00 -6.687114480882883072e-03
1.306000000000000000e+03 7.816929626464843750e+01 2.621672391891479492e+00 3.987172618508338928e-03 7.384537220001220703e+00 2.216557264328002930e+00 5.286073312163352966e-03
1.307000000000000000e+03 7.744162750244140625e+01 -1.479154586791992188e+00 7.500643376260995865e-03 7.412594795227050781e+00 2.226028680801391602e+00 -1.556466706097126007e-02
1.308000000000000000e+03 7.742244720458984375e+01 5.733772754669189453e+00 7.106356322765350342e-03 7.423635959625244141e+00 2.229222774505615234e+00 2.377787046134471893e-02
1.309000000000000000e+03 7.742494964599609375e+01 -1.830226135253906250e+01 8.490619948133826256e-04 7.720044136047363281e+00 2.316267967224121094e+00 -7.718065381050109863e-02
1.310000000000000000e+03 7.743362426757812500e+01 -1.671029090881347656e+01 1.769271213561296463e-03 7.678409099578857422e+00 2.304053544998168945e+00 -7.530252635478973389e-02
1.311000000000000000e+03 7.741319274902343750e+01 -1.990139389038085938e+01 -1.344524062005802989e-04 7.762486457824707031e+00 2.328705549240112305e+00 -7.806628942489624023e-02
1.312000000000000000e+03 7.666966247558593750e+01 -1.997895622253417969e+01 -2.576961560407653451e-05 7.764064311981201172e+00 2.329211473464965820e+00 -9.704167395830154419e-02
1.313000000000000000e+03 7.744213867187500000e+01 -2.281109094619750977e+00 7.414993830025196075e-03 7.417469024658203125e+00 2.227465152740478516e+00 -1.989717409014701843e-02
1.314000000000000000e+03 7.742335510253906250e+01 4.933075428009033203e+00 7.207700517028570175e-03 7.417695522308349609e+00 2.227471113204956055e+00 1.961301080882549286e-02
1.315000000000000000e+03 7.742088317871093750e+01 7.335254192352294922e+00 6.725308019667863846e-03 7.438866138458251953e+00 2.233677387237548828e+00 3.183513134717941284e-02
1.316000000000000000e+03 7.815497589111328125e+01 9.032435417175292969e+00 3.304086392745375633e-03 7.441132545471191406e+00 2.233330965042114258e+00 2.950233966112136841e-02
1.317000000000000000e+03 7.811825561523437500e+01 1.625266265869140625e+01 1.602818490937352180e-03 7.581181049346923828e+00 2.274835348129272461e+00 4.791730269789695740e-02
1.318000000000000000e+03 7.736041259765625000e+01 1.535552978515625000e+01 3.418477019295096397e-03 7.572012424468994141e+00 2.272629261016845703e+00 6.275125592947006226e-02
1.319000000000000000e+03 7.817169189453125000e+01 -1.662137794494628906e+01 1.133356941863894463e-03 7.670866966247558594e+00 2.301599979400634766e+00 -5.556799843907356262e-02
1.320000000000000000e+03 7.817407226562500000e+01 -1.582123184204101562e+01 1.173978205770254135e-03 7.649041175842285156e+00 2.295064687728881836e+00 -5.459946021437644958e-02
1.321000000000000000e+03 7.744185638427734375e+01 -1.511170387268066406e+01 2.662738552317023277e-03 7.637717247009277344e+00 2.292114019393920898e+00 -7.235650718212127686e-02
1.322000000000000000e+03 7.806677246093750000e+01 2.265701484680175781e+01 -1.902422809507697821e-04 7.737427234649658203e+00 2.321171045303344727e+00 5.295015871524810791e-02
1.323000000000000000e+03 7.729298400878906250e+01 2.176349830627441406e+01 -5.797979611088521779e-05 7.716566085815429688e+00 2.314952373504638672e+00 7.163004577159881592e-02
1.324000000000000000e+03 7.739023590087890625e+01 1.134302425384521484e+01 5.273418035358190536e-03 7.495455741882324219e+00 2.250218868255615234e+00 4.979633912444114685e-02
1.325000000000000000e+03 7.737735748291015625e+01 1.294737243652343750e+01 4.529783502221107483e-03 7.524115562438964844e+00 2.258593559265136719e+00 5.564742535352706909e-02
1.326000000000000000e+03 7.651361846923828125e+01 -2.881137847900390625e+01 -5.842659622430801392e-03 7.965654850006103516e+00 2.387943506240844727e+00 -8.130494505167007446e-02
1.327000000000000000e+03 7.732788848876953125e+01 1.856521606445312500e+01 1.681102905422449112e-03 7.642682075500488281e+00 2.293308973312377930e+00 6.920128315687179565e-02
1.328000000000000000e+03 7.736837005615234375e+01 1.455414676666259766e+01 3.746946109458804131e-03 7.555433750152587891e+00 2.267754316329956055e+00 6.056337058544158936e-02
1.329000000000000000e+03 7.811245727539062500e+01 1.705441093444824219e+01 1.316384645178914070e-03 7.599942684173583984e+00 2.280377864837646484e+00 4.917255043983459473e-02
1.330000000000000000e+03 7.733588409423828125e+01 1.776182365417480469e+01 2.098060911521315575e-03 7.624426841735839844e+00 2.287957429885864258e+00 6.795172393321990967e-02
1.331000000000000000e+03 7.738288116455078125e+01 1.214415359497070312e+01 4.961575847119092941e-03 7.509367465972900391e+00 2.254298686981201172e+00 5.285161733627319336e-02
1.332000000000000000e+03 7.731278228759765625e+01 2.016996574401855469e+01 7.757656276226043701e-04 7.679576396942138672e+00 2.304105520248413086e+00 7.087156921625137329e-02
1.333000000000000000e+03 7.805555725097656250e+01 2.345456504821777344e+01 -6.833394872955977917e-04 7.756976127624511719e+00 2.326887845993041992e+00 5.272557213902473450e-02
1.334000000000000000e+03 7.642228698730468750e+01 2.563391113281250000e+01 -3.646795870736241341e-03 7.799727916717529297e+00 2.338824272155761719e+00 8.695203065872192383e-02
1.335000000000000000e+03 7.587266540527343750e+01 -2.243411064147949219e+01 -3.586366306990385056e-03 7.821230888366699219e+00 2.345293283462524414e+00 -1.140682399272918701e-01
1.336000000000000000e+03 7.731719207763671875e+01 -2.552567672729492188e+01 -3.250394016504287720e-03 7.906664371490478516e+00 2.371024131774902344e+00 -7.362600415945053101e-02
1.337000000000000000e+03 7.808938598632812500e+01 -2.624620437622070312e+01 -1.859534764662384987e-03 7.934833049774169922e+00 2.379892110824584961e+00 -5.313253402709960938e-02
1.338000000000000000e+03 7.730639648437500000e+01 -2.633573722839355469e+01 -3.467233385890722275e-03 7.925732135772705078e+00 2.376679420471191406e+00 -7.204896956682205200e-02
1.339000000000000000e+03 7.731895446777343750e+01 1.936780166625976562e+01 1.167277456261217594e-03 7.660985469818115234e+00 2.298645973205566406e+00 7.013759016990661621e-02
1.340000000000000000e+03 7.812447357177734375e+01 -2.303116798400878906e+01 -9.944076882675290108e-04 7.850319385528564453e+00 2.354797363281250000e+00 -5.679938569664955139e-02
1.341000000000000000e+03 7.738079833984375000e+01 -2.230660629272460938e+01 -1.456971629522740841e-03 7.825964927673339844e+00 2.347352504730224609e+00 -7.735787332057952881e-02
1.342000000000000000e+03 7.722606658935546875e+01 2.575283050537109375e+01 -2.537973690778017044e-03 7.806709766387939453e+00 2.341251373291015625e+00 6.942939758300781250e-02
1.343000000000000000e+03 7.720497894287109375e+01 2.736614990234375000e+01 -3.340718802064657211e-03 7.840973854064941406e+00 2.351289987564086914e+00 6.667015701532363892e-02
1.344000000000000000e+03 7.721463012695312500e+01 2.655859756469726562e+01 -2.550022909417748451e-03 7.824140548706054688e+00 2.346477031707763672e+00 6.850140541791915894e-02
1.345000000000000000e+03 7.716989898681640625e+01 -3.455885314941406250e+01 -7.172207813709974289e-03 8.081480979919433594e+00 2.422292709350585938e+00 -4.222467169165611267e-02
1.346000000000000000e+03 7.667230224609375000e+01 3.492826843261718750e+01 -1.088815089315176010e-02 7.961758613586425781e+00 2.385261297225952148e+00 4.314036667346954346e-02
1.347000000000000000e+03 7.690538787841796875e+01 3.220108795166015625e+01 -9.465334936976432800e-03 7.927076339721679688e+00 2.375283241271972656e+00 5.581499636173248291e-02
1.348000000000000000e+03 7.775177764892578125e+01 3.316533660888671875e+01 -5.943245720118284225e-03 7.957280158996582031e+00 2.385401010513305664e+00 3.804495185613632202e-02
1.349000000000000000e+03 7.577405548095703125e+01 -2.967508316040039062e+01 -9.453390724956989288e-03 7.968139171600341797e+00 2.387605667114257812e+00 -9.133101999759674072e-02
1.350000000000000000e+03 7.732276916503906250e+01 -3.251666259765625000e+01 -7.656502071768045425e-03 8.053521156311035156e+00 2.413759231567382812e+00 -5.179541558027267456e-02
1.351000000000000000e+03 7.809495544433593750e+01 -3.325391769409179688e+01 -2.973310183733701706e-03 8.085350990295410156e+00 2.424713134765625000e+00 -3.449532762169837952e-02
1.352000000000000000e+03 7.733389282226562500e+01 -3.325235748291015625e+01 -7.423911709338426590e-03 8.067685127258300781e+00 2.418078184127807617e+00 -4.661686718463897705e-02
1.353000000000000000e+03 7.733013153076171875e+01 -2.947811698913574219e+01 -4.386105574667453766e-03 7.994981765747070312e+00 2.397178649902343750e+00 -6.316727399826049805e-02
1.354000000000000000e+03 7.810056304931640625e+01 -3.096481895446777344e+01 -3.358047688379883766e-03 8.043077468872070312e+00 2.411915779113769531e+00 -4.264202341437339783e-02
1.355000000000000000e+03 7.677902221679687500e+01 3.306327056884765625e+01 -9.412203915417194366e-03 7.937810897827148438e+00 2.378519535064697266e+00 5.284688994288444519e-02
1.356000000000000000e+03 7.668692016601562500e+01 3.397134017944335938e+01 -1.177807711064815521e-02 7.949121475219726562e+00 2.381203174591064453e+00 4.939413443207740784e-02
1.357000000000000000e+03 7.642704772949218750e+01 -3.689480209350585938e+01 -1.397548709064722061e-02 8.088512420654296875e+00 2.422361135482788086e+00 -3.651222214102745056e-02
1.358000000000000000e+03 7.748641204833984375e+01 3.954434967041015625e+01 -3.664168296381831169e-03 8.011394500732421875e+00 2.402319192886352539e+00 1.509285066276788712e-02
1.359000000000000000e+03 3.685868263244628906e+00 3.719665145874023438e+01 -6.886720657348632812e-02 1.079115748405456543e+00 3.030745685100555420e-01 -1.523418128490447998e-01
1.360000000000000000e+03 1.766809105873107910e+00 -9.111139297485351562e+00 2.096115640597417951e-04 3.652400628197938204e-04 1.724554895190522075e-04 9.090178064070641994e-04
1.361000000000000000e+03 4.231574535369873047e+00 -3.723336458206176758e+00 1.771579845808446407e-04 3.712276520673185587e-05 6.428422784665599465e-05 6.856431718915700912e-05
1.362000000000000000e+03 1.859850883483886719e+00 -2.242616271972656250e+01 4.201832413673400879e-02 -3.411753103137016296e-02 2.370237838476896286e-03 1.893028430640697479e-02
1.363000000000000000e+03 2.441625356674194336e+00 -1.985934066772460938e+01 3.132294490933418274e-02 1.033322233706712723e-02 1.249685045331716537e-02 -6.526067107915878296e-02
1.364000000000000000e+03 2.087663173675537109e+00 -2.971074867248535156e+01 -5.702289054170250893e-04 4.938729703426361084e-01 1.479908227920532227e-01 1.734662950038909912e-01
1.365000000000000000e+03 2.897138833999633789e+00 -2.873856544494628906e+01 5.354525055736303329e-03 6.196357011795043945e-01 1.874970644712448120e-01 2.328872531652450562e-01
1.366000000000000000e+03 2.739558696746826172e+00 -2.551543998718261719e+01 4.568104073405265808e-02 3.361859023571014404e-01 1.145600825548171997e-01 1.807087212800979614e-01
1.367000000000000000e+03 3.450203895568847656e+00 -3.593892669677734375e+01 -5.989868193864822388e-02 1.188261866569519043e+00 3.385089635848999023e-01 1.835564076900482178e-01
1.368000000000000000e+03 2.502104520797729492e+00 -1.464934730529785156e+01 -2.469972334802150726e-02 5.695462226867675781e-03 -5.701278336346149445e-03 -2.343457192182540894e-02
1.369000000000000000e+03 1.799500823020935059e+00 1.399040412902832031e+01 -7.578964345157146454e-03 -3.450158284977078438e-03 -3.308736719191074371e-03 1.212659943848848343e-02
1.370000000000000000e+03 3.084627151489257812e+00 1.627038192749023438e+01 -4.160096868872642517e-02 1.917339861392974854e-02 -6.728271488100290298e-03 4.095994681119918823e-02
1.371000000000000000e+03 1.728501319885253906e+00 -1.699592590332031250e+01 -1.583939976990222931e-02 -3.178074955940246582e-02 -1.428604498505592346e-02 -6.393379718065261841e-02
1.372000000000000000e+03 6.084164142608642578e+00 -1.246569061279296875e+01 -5.053677130490541458e-03 -2.975075272843241692e-03 -2.408625558018684387e-03 4.955194890499114990e-03
1.373000000000000000e+03 2.530113220214843750e+00 1.243881416320800781e+01 -7.424569688737392426e-03 1.186843001050874591e-04 -2.191765699535608292e-03 2.998090814799070358e-03
1.374000000000000000e+03 1.716467142105102539e+00 1.007349300384521484e+01 -1.428108895197510719e-03 1.616490189917385578e-03 5.651440005749464035e-05 -9.660535724833607674e-04
1.375000000000000000e+03 3.045674562454223633e+00 1.357163619995117188e+01 -1.470031868666410446e-02 1.300148898735642433e-03 -4.020050633698701859e-03 6.891937460750341415e-03
1.376000000000000000e+03 2.473179817199707031e+00 1.322793197631835938e+01 -7.461880333721637726e-03 -8.850487647578120232e-04 -2.504078671336174011e-03 6.923110689967870712e-03
1.377000000000000000e+03 7.482566833496093750e+00 -1.144929218292236328e+01 -1.035707537084817886e-03 -1.472925883717834949e-03 -7.525900145992636681e-04 6.418954581022262573e-04
1.378000000000000000e+03 1.746315121650695801e+00 -1.223209476470947266e+01 -3.666938748210668564e-03 -1.251464011147618294e-03 -1.475520781241357327e-03 -3.701796056702733040e-03
1.379000000000000000e+03 5.190079689025878906e+00 1.851949310302734375e+01 -7.924891263246536255e-02 1.443255096673965454e-01 1.952297985553741455e-02 5.040222033858299255e-02
1.380000000000000000e+03 5.741065025329589844e+00 1.576382064819335938e+01 -5.722304806113243103e-02 2.103657089173793793e-02 -1.085594296455383301e-02 -2.733811922371387482e-02
1.381000000000000000e+03 6.478149890899658203e+00 1.578075695037841797e+01 -5.951669439673423767e-02 1.122595928609371185e-02 -1.448722090572118759e-02 -5.060007423162460327e-02
1.382000000000000000e+03 2.644629001617431641e+00 1.682137107849121094e+01 -4.038864001631736755e-02 1.325550395995378494e-02 -8.139939978718757629e-03 5.876018851995468140e-02
1.383000000000000000e+03 1.749116897583007812e+00 8.523952484130859375e+00 -7.792914402671158314e-04 1.370697165839374065e-03 1.774216943886131048e-04 -1.051204977557063103e-03
1.384000000000000000e+03 2.466198205947875977e+00 1.160980415344238281e+01 -1.833662856370210648e-03 -7.790811359882354736e-04 -7.838231977075338364e-04 7.442028145305812359e-04
1.385000000000000000e+03 6.601972579956054688e+00 -1.010446643829345703e+01 -1.097342697903513908e-03 -3.965758151025511324e-05 -3.411000943742692471e-04 -1.014150679111480713e-03
1.386000000000000000e+03 6.437360286712646484e+00 -9.073031425476074219e+00 -5.551311187446117401e-04 -9.983169729821383953e-05 -1.964888360816985369e-04 -9.374744840897619724e-04
1.387000000000000000e+03 2.417643785476684570e+00 -1.218436527252197266e+01 -6.832820363342761993e-03 -3.474138793535530567e-04 -2.154070418328046799e-03 -4.345262888818979263e-03
1.388000000000000000e+03 2.531550645828247070e+00 -9.855137825012207031e+00 -7.520379149354994297e-04 -6.945774075575172901e-04 -4.339845909271389246e-04 5.409577279351651669e-04
1.389000000000000000e+03 6.454384326934814453e+00 -1.179756546020507812e+01 -1.496168086305260658e-03 -5.451772827655076981e-03 -2.084382344037294388e-03 1.603707205504179001e-03
1.390000000000000000e+03 3.120056390762329102e+00 1.824787902832031250e+01 -4.096366837620735168e-02 3.464613482356071472e-02 -1.895260415039956570e-03 8.443132787942886353e-02
1.391000000000000000e+03 2.386909723281860352e+00 9.383958816528320312e+00 -1.011360669508576393e-03 3.398644330445677042e-04 -2.014488563872873783e-04 -9.471265366300940514e-04
1.392000000000000000e+03 1.790535807609558105e+00 1.970244407653808594e+01 2.185823628678917885e-03 -8.121977746486663818e-02 -2.371018566191196442e-02 8.761893212795257568e-02
1.393000000000000000e+03 2.525889635086059570e+00 2.046091651916503906e+01 2.547187171876430511e-02 -1.607193239033222198e-02 2.819981891661882401e-03 9.117432683706283569e-02
1.394000000000000000e+03 2.432196140289306641e+00 8.634373664855957031e+00 9.478982537984848022e-04 2.110543427988886833e-04 3.476857673376798630e-04 -1.319259521551430225e-03
1.395000000000000000e+03 3.042517423629760742e+00 1.765496826171875000e+01 -4.244467616081237793e-02 3.065897338092327118e-02 -3.535710275173187256e-03 7.845288515090942383e-02
1.396000000000000000e+03 2.545518636703491211e+00 1.901054954528808594e+01 -8.977182209491729736e-03 -8.017228916287422180e-03 -5.098323337733745575e-03 9.712316095829010010e-02
1.397000000000000000e+03 3.320093393325805664e+00 1.891776275634765625e+01 -2.064382843673229218e-02 5.808297917246818542e-02 1.123174559324979782e-02 1.040523499250411987e-01
1.398000000000000000e+03 1.887855648994445801e+00 2.599308967590332031e+01 3.111058101058006287e-02 -8.798672817647457123e-03 6.693572271615266800e-03 -7.443842291831970215e-02
1.399000000000000000e+03 2.688662052154541016e+00 2.759292793273925781e+01 3.402721509337425232e-02 2.668947577476501465e-01 9.027659147977828979e-02 -1.559149324893951416e-01
1.400000000000000000e+03 1.690923690795898438e+00 -1.776209068298339844e+01 -1.203685626387596130e-02 -4.747790470719337463e-02 -1.785442791879177094e-02 -7.329364120960235596e-02
1.401000000000000000e+03 3.268939733505249023e+00 -1.631943130493164062e+01 -5.062458664178848267e-02 4.515735432505607605e-02 -1.640169764868915081e-03 -5.128333717584609985e-02
1.402000000000000000e+03 1.902541518211364746e+00 6.119713783264160156e+00 8.488347521051764488e-04 6.209750426933169365e-04 4.409429384395480156e-04 -9.127726661972701550e-04
1.403000000000000000e+03 3.621962547302246094e+00 -3.451944351196289062e+00 2.810151781886816025e-04 -4.146277206018567085e-04 -4.008376345154829323e-05 2.062054700218141079e-04
1.404000000000000000e+03 1.812444925308227539e+00 -6.734565734863281250e+00 -9.186917304759845138e-05 4.529030411504209042e-04 1.083101597032509744e-04 3.912588581442832947e-04
1.405000000000000000e+03 1.681461453437805176e+00 -1.851324462890625000e+01 -8.168828207999467850e-05 -6.378184258937835693e-02 -1.915905810892581940e-02 -7.793069630861282349e-02
1.406000000000000000e+03 5.320518970489501953e+00 -1.585498332977294922e+01 -1.072973534464836121e-01 6.114531308412551880e-02 -1.384561136364936829e-02 4.457224532961845398e-02
1.407000000000000000e+03 1.702185988426208496e+00 -1.926758956909179688e+01 8.489103056490421295e-03 -7.506086677312850952e-02 -1.997152902185916901e-02 -7.322801649570465088e-02
1.408000000000000000e+03 2.366533041000366211e+00 -1.912145996093750000e+01 1.674862019717693329e-02 -1.494215801358222961e-03 4.576321225613355637e-03 -8.154722303152084351e-02
1.409000000000000000e+03 3.307420015335083008e+00 2.923605537414550781e+01 2.908053435385227203e-02 5.244086384773254395e-01 1.660467535257339478e-01 -2.281703501939773560e-01
1.410000000000000000e+03 2.393368721008300781e+00 2.354283905029296875e+01 6.237151473760604858e-02 4.022649489343166351e-03 1.991824805736541748e-02 -8.473196998238563538e-03
1.411000000000000000e+03 2.689869403839111328e+00 2.678207397460937500e+01 4.582780972123146057e-02 2.207810878753662109e-01 7.998266816139221191e-02 -1.381780207157135010e-01
1.412000000000000000e+03 2.615824460983276367e+00 2.512955474853515625e+01 6.404247879981994629e-02 1.165146082639694214e-01 5.416712537407875061e-02 -8.099088072776794434e-02
1.413000000000000000e+03 2.661337375640869141e+00 2.596293067932128906e+01 5.070079490542411804e-02 1.667482554912567139e-01 6.523471325635910034e-02 -1.121913790702819824e-01
1.414000000000000000e+03 3.512548923492431641e+00 5.851395130157470703e+00 -6.433286762330681086e-05 -3.326226142235100269e-04 -1.190866460092365742e-04 -8.028854499571025372e-04
1.415000000000000000e+03 2.021579742431640625e+00 5.252719402313232422e+00 -2.983901940751820803e-04 4.862805071752518415e-04 5.636709101963788271e-05 -6.214276654645800591e-04
1.416000000000000000e+03 1.909324526786804199e+00 -2.405126190185546875e+01 3.679082915186882019e-02 4.669526591897010803e-02 2.504582889378070831e-02 8.093203604221343994e-02
1.417000000000000000e+03 2.592364788055419922e+00 -2.225630760192871094e+01 7.598819583654403687e-02 9.528365731239318848e-02 5.138155445456504822e-02 3.856240585446357727e-02
1.418000000000000000e+03 5.007855415344238281e+00 -3.917070865631103516e+00 3.663759271148592234e-04 -4.702825972344726324e-04 -3.117200321867130697e-05 2.369594731135293841e-04
1.419000000000000000e+03 2.557954549789428711e+00 -2.143854904174804688e+01 6.888221204280853271e-02 5.589731410145759583e-02 3.743385896086692810e-02 -3.364394884556531906e-03
1.420000000000000000e+03 2.511378049850463867e+00 -2.063541984558105469e+01 5.109246075153350830e-02 2.749052457511425018e-02 2.357489429414272308e-02 -4.223661869764328003e-02
1.421000000000000000e+03 2.652934074401855469e+00 -5.082284927368164062e+00 4.402525082696229219e-04 -1.717732375254854560e-04 8.054377394728362560e-05 6.037942948751151562e-04
1.422000000000000000e+03 1.741933226585388184e+00 2.361352729797363281e+01 3.320692479610443115e-02 -1.151267513632774353e-01 -2.457594871520996094e-02 3.937342669814825058e-03
1.423000000000000000e+03 3.148125648498535156e+00 -1.963461875915527344e+01 4.462500289082527161e-02 7.989005744457244873e-02 3.735451772809028625e-02 -6.593725085258483887e-02
1.424000000000000000e+03 1.727179288864135742e+00 2.285515403747558594e+01 3.497293218970298767e-02 -1.263069957494735718e-01 -2.740021795034408569e-02 3.079059347510337830e-02
1.425000000000000000e+03 2.502186536788940430e+00 2.216895675659179688e+01 5.256101489067077637e-02 -9.428786113858222961e-03 1.293966826051473618e-02 4.997178539633750916e-02
1.426000000000000000e+03 1.732391476631164551e+00 -4.366848945617675781e+00 2.335746394237503409e-04 2.228392986580729485e-04 1.369241799693554640e-04 5.022145342081785202e-04
1.427000000000000000e+03 3.420266866683959961e+00 -2.371695899963378906e+01 1.003661677241325378e-01 3.470388650894165039e-01 1.342215090990066528e-01 1.668876707553863525e-01
1.428000000000000000e+03 2.628726243972778320e+00 -2.307719230651855469e+01 7.392534613609313965e-02 1.461560130119323730e-01 6.602440774440765381e-02 8.341751247644424438e-02
1.429000000000000000e+03 1.971949100494384766e+00 -2.648021697998046875e+01 1.925051957368850708e-02 2.195364385843276978e-01 7.163608819246292114e-02 1.451769918203353882e-01
1.430000000000000000e+03 2.180896759033203125e+00 -3.137475585937500000e+01 -6.291833240538835526e-03 6.366700530052185059e-01 1.891134679317474365e-01 1.736377626657485962e-01
1.431000000000000000e+03 2.967026710510253906e+00 -2.954619979858398438e+01 3.006965853273868561e-04 6.970688104629516602e-01 2.092108428478240967e-01 2.413536310195922852e-01
1.432000000000000000e+03 2.846712350845336914e+00 -2.794333267211914062e+01 1.408636476844549179e-02 5.503929853439331055e-01 1.693438142538070679e-01 2.294277697801589966e-01
1.433000000000000000e+03 2.919164657592773438e+00 3.384018325805664062e+01 -3.486080840229988098e-02 7.293300628662109375e-01 2.083407789468765259e-01 -1.850450187921524048e-01
1.434000000000000000e+03 2.769957780838012695e+00 -2.633327674865722656e+01 3.663361817598342896e-02 4.059029519557952881e-01 1.327609717845916748e-01 2.016143500804901123e-01
1.435000000000000000e+03 4.102082729339599609e+00 -3.110735511779785156e+01 -2.268913015723228455e-02 1.084687590599060059e+00 3.185995519161224365e-01 3.054291307926177979e-01
1.436000000000000000e+03 3.046334505081176758e+00 -3.038145828247070312e+01 -7.523484062403440475e-03 7.756991982460021973e-01 2.304527163505554199e-01 2.411368489265441895e-01
1.437000000000000000e+03 3.193903446197509766e+00 -3.307258224487304688e+01 -2.338653802871704102e-02 9.794003963470458984e-01 2.868041694164276123e-01 2.244792878627777100e-01
1.438000000000000000e+03 2.982398033142089844e+00 -3.485830307006835938e+01 -3.349981456995010376e-02 1.015147447586059570e+00 2.944943010807037354e-01 1.893202364444732666e-01
1.439000000000000000e+03 2.763820171356201172e+00 -3.557678604125976562e+01 -3.590686991810798645e-02 1.035681247711181641e+00 2.999323010444641113e-01 1.638426184654235840e-01
1.440000000000000000e+03 2.571961879730224609e+00 3.062590789794921875e+01 6.287233904004096985e-03 4.459858834743499756e-01 1.356819272041320801e-01 -1.918439716100692749e-01
1.441000000000000000e+03 2.901751995086669922e+00 3.221009826660156250e+01 -1.562528684735298157e-02 6.200757622718811035e-01 1.813351511955261230e-01 -2.058317661285400391e-01
1.442000000000000000e+03 2.714855194091796875e+00 3.137747192382812500e+01 1.121787703596055508e-03 5.313612222671508789e-01 1.597449034452438354e-01 -2.015760689973831177e-01
1.443000000000000000e+03 2.903325796127319336e+00 3.305936050415039062e+01 -1.632778160274028778e-02 6.712383031845092773e-01 1.964731514453887939e-01 -2.069352418184280396e-01
1.444000000000000000e+03 2.588339567184448242e+00 2.916449928283691406e+01 1.858865469694137573e-02 3.478327691555023193e-01 1.099264249205589294e-01 -1.794902831315994263e-01
1.445000000000000000e+03 3.136496782302856445e+00 -3.399652862548828125e+01 -3.295458480715751648e-02 1.010367155075073242e+00 2.932237684726715088e-01 2.030050456523895264e-01
1.446000000000000000e+03 1.887074112892150879e+00 3.072315979003906250e+01 7.376432418823242188e-03 2.860740423202514648e-01 8.803513646125793457e-02 -1.470227092504501343e-01
1.447000000000000000e+03 2.458602190017700195e+00 -3.896553421020507812e+01 -4.415581747889518738e-02 1.080156087875366211e+00 3.108001053333282471e-01 6.581383198499679565e-02
1.448000000000000000e+03 2.910487413406372070e+00 -3.833833312988281250e+01 -4.933029040694236755e-02 1.156658530235290527e+00 3.321985006332397461e-01 8.116894960403442383e-02
1.449000000000000000e+03 2.053496742248535156e+01 7.786144733428955078e+00 1.136662721633911133e+00 1.120095539093017578e+01 3.701285362243652344e+00 -1.512552022933959961e+00
1.450000000000000000e+03 2.036064147949218750e+01 1.335694313049316406e+01 1.126926422119140625e+00 8.847699165344238281e+00 2.992387533187866211e+00 -1.377658963203430176e+00
1.451000000000000000e+03 3.181223154067993164e+00 -8.379243850708007812e+00 -2.815612242557108402e-04 -4.941023653373122215e-04 -2.326990797882899642e-04 3.754595527425408363e-04
1.452000000000000000e+03 9.590574264526367188e+00 -7.270553112030029297e+00 -4.982244718121364713e-05 8.265004726126790047e-04 2.330034039914608002e-04 -5.476628430187702179e-04
1.453000000000000000e+03 2.023490715026855469e+01 4.348247051239013672e+00 8.172912001609802246e-01 1.229181480407714844e+01 3.932731866836547852e+00 -9.536565542221069336e-01
1.454000000000000000e+03 1.809278297424316406e+01 1.423598098754882812e+01 1.428456664085388184e+00 8.178212165832519531e+00 2.882000446319580078e+00 -2.313578367233276367e+00
1.455000000000000000e+03 8.354564666748046875e+00 -1.011019802093505859e+01 -8.298041648231446743e-04 2.786324766930192709e-04 -1.653515064390376210e-04 2.673958952073007822e-04
1.456000000000000000e+03 7.713196754455566406e+00 -9.782155036926269531e+00 -6.226224359124898911e-04 1.292225788347423077e-03 2.008810115512460470e-04 -1.279563410207629204e-03
1.457000000000000000e+03 1.279403781890869141e+01 7.444009304046630859e+00 -1.385081844773594639e-07 9.593516588211059570e-04 2.877639490179717541e-04 1.997385552385821939e-04
1.458000000000000000e+03 9.122131347656250000e+00 -7.867797851562500000e+00 -4.359569866210222244e-04 6.769503670511767268e-05 -1.104785915231332183e-04 1.403587975801201537e-05
1.459000000000000000e+03 8.650016784667968750e+00 -8.488132476806640625e+00 -2.475870132911950350e-04 1.190904527902603149e-03 2.829952572938054800e-04 -8.877175860106945038e-04
1.460000000000000000e+03 1.996622276306152344e+01 -5.945315837860107422e+00 2.060766935348510742e+00 1.244715023040771484e+01 4.352375030517578125e+00 1.813001990318298340e+00
1.461000000000000000e+03 5.884875774383544922e+00 -3.970087289810180664e+00 1.875106972875073552e-04 -2.315847668796777725e-04 -1.322222124144900590e-05 -3.117101732641458511e-04
1.462000000000000000e+03 3.804194927215576172e+00 -2.962893724441528320e+00 2.222131879534572363e-04 -9.755639621289446950e-05 3.739703970495611429e-05 -7.424333944072714075e-06
1.463000000000000000e+03 4.679320335388183594e+00 -4.645296573638916016e+00 1.095975530915893614e-04 2.797664637910202146e-05 4.127225838601589203e-05 5.984253220958635211e-05
1.464000000000000000e+03 2.746276855468750000e+00 -3.261942386627197266e+00 9.364438301417976618e-05 -1.439094921806827188e-04 -1.507953402324346825e-05 2.935758857347536832e-05
1.465000000000000000e+03 3.174472332000732422e+00 -3.920608758926391602e+00 2.035336801782250404e-04 2.442616387270390987e-04 1.343385956715792418e-04 4.405870276968926191e-04
1.466000000000000000e+03 2.612280845642089844e+00 -5.936259746551513672e+00 3.075426866416819394e-05 5.681750553776510060e-05 2.627153116918634623e-05 2.928434987552464008e-04
1.467000000000000000e+03 1.473781967163085938e+01 1.754960441589355469e+01 1.402059674263000488e+00 4.679425239562988281e+00 1.824445486068725586e+00 -2.394651651382446289e+00
1.468000000000000000e+03 7.569377899169921875e+00 -3.828535556793212891e+00 1.205370790557935834e-04 -1.962124661076813936e-04 -2.270261575176846236e-05 -4.528547287918627262e-04
1.469000000000000000e+03 2.203073120117187500e+01 -4.362307071685791016e+00 1.675959348678588867e+00 1.113306808471679688e+01 3.842708110809326172e+00 1.061116576194763184e+00
1.470000000000000000e+03 1.596590614318847656e+01 1.620512771606445312e+01 1.619309186935424805e+00 6.214601039886474609e+00 2.350172996520996094e+00 -2.554682493209838867e+00
1.471000000000000000e+03 1.471430206298828125e+01 1.871634101867675781e+01 8.545335531234741211e-01 4.557303428649902344e+00 1.623551130294799805e+00 -2.053110837936401367e+00
1.472000000000000000e+03 1.049105072021484375e+01 -6.127901077270507812e+00 6.823260628152638674e-05 4.614379431586712599e-04 1.589011662872508168e-04 -3.597629256546497345e-04
1.473000000000000000e+03 1.725989532470703125e+01 -1.350824165344238281e+01 1.175428986549377441e+00 6.790459632873535156e+00 2.389766693115234375e+00 2.380010366439819336e+00
1.474000000000000000e+03 1.553563022613525391e+01 -1.442738819122314453e+01 1.442158341407775879e+00 5.458952426910400391e+00 2.070333242416381836e+00 2.496305465698242188e+00
1.475000000000000000e+03 1.908730888366699219e+01 9.995605468750000000e+00 1.482424259185791016e+00 1.085533618927001953e+01 3.701328039169311523e+00 -2.296543836593627930e+00
1.476000000000000000e+03 1.848366928100585938e+01 1.343517303466796875e+01 1.397296190261840820e+00 8.745750427246093750e+00 3.042914152145385742e+00 -2.316777229309082031e+00
1.477000000000000000e+03 6.345086574554443359e+00 -1.600815200805664062e+01 -1.031188666820526123e-01 -2.335737086832523346e-02 -3.794287145137786865e-02 1.049975007772445679e-01
1.478000000000000000e+03 5.330368041992187500e+00 -1.480383682250976562e+01 -4.822892695665359497e-02 1.860535517334938049e-02 -8.887071162462234497e-03 2.893224172294139862e-02
1.479000000000000000e+03 1.082016944885253906e+01 -1.916182327270507812e+01 6.987389922142028809e-01 2.062376022338867188e+00 8.283345103263854980e-01 1.424656391143798828e+00
1.480000000000000000e+03 2.137706184387207031e+01 -2.391844034194946289e+00 9.082846641540527344e-01 1.201081657409667969e+01 3.875730514526367188e+00 8.505335450172424316e-01
1.481000000000000000e+03 7.255225181579589844e+00 1.517973327636718750e+01 -6.445542909204959869e-03 -2.682426758110523224e-02 -9.980943053960800171e-03 -1.568136923015117645e-02
1.482000000000000000e+03 1.950503921508789062e+01 -1.166184520721435547e+01 9.356030225753784180e-01 8.626595497131347656e+00 2.868659496307373047e+00 1.865553975105285645e+00
1.483000000000000000e+03 1.955907249450683594e+01 1.105519294738769531e+01 1.413709878921508789e+00 1.007181358337402344e+01 3.445657014846801758e+00 -1.954651474952697754e+00
1.484000000000000000e+03 2.022079086303710938e+01 -7.924034595489501953e+00 1.671028137207031250e+00 1.093643474578857422e+01 3.782238960266113281e+00 1.641146540641784668e+00
1.485000000000000000e+03 1.621669769287109375e+01 -1.493199062347412109e+01 1.082496047019958496e+00 5.815353393554687500e+00 2.069354772567749023e+00 2.217422962188720703e+00
1.486000000000000000e+03 1.508489418029785156e+01 -1.628370475769042969e+01 9.685537219047546387e-01 4.869134902954101562e+00 1.751306653022766113e+00 2.077593564987182617e+00
1.487000000000000000e+03 1.514283370971679688e+01 -1.751041603088378906e+01 6.388742327690124512e-01 4.789863109588623047e+00 1.628621220588684082e+00 1.826356410980224609e+00
1.488000000000000000e+03 2.214389038085937500e+01 2.115982532501220703e+00 8.733360171318054199e-01 1.145429992675781250e+01 3.698290824890136719e+00 -3.325758874416351318e-01
1.489000000000000000e+03 1.910675430297851562e+01 -1.046130752563476562e+01 1.168677210807800293e+00 9.218061447143554688e+00 3.116021394729614258e+00 2.274324178695678711e+00
1.490000000000000000e+03 1.951809501647949219e+01 -9.640862464904785156e+00 1.263644099235534668e+00 9.878360748291015625e+00 3.342601537704467773e+00 2.095231056213378906e+00
1.491000000000000000e+03 9.593039512634277344e+00 2.023321342468261719e+01 6.089175939559936523e-01 6.610149145126342773e-01 3.809797465801239014e-01 -8.427822589874267578e-01
1.492000000000000000e+03 6.796352863311767578e+00 1.696173858642578125e+01 -1.158350929617881775e-01 2.987888455390930176e-02 -2.578686363995075226e-02 -9.161989390850067139e-02
1.493000000000000000e+03 4.193834781646728516e+00 1.798185729980468750e+01 -6.589151173830032349e-02 1.000750139355659485e-01 1.025504991412162781e-02 6.824390590190887451e-02
1.494000000000000000e+03 1.722476768493652344e+01 1.587411403656005859e+01 1.320905327796936035e+00 7.084152221679687500e+00 2.521517276763916016e+00 -2.178779602050781250e+00
1.495000000000000000e+03 1.922494125366210938e+01 1.185683345794677734e+01 1.375547170639038086e+00 9.707920074462890625e+00 3.325040340423583984e+00 -2.074132680892944336e+00
1.496000000000000000e+03 6.324450969696044922e+00 -1.845487594604492188e+01 4.157052189111709595e-02 1.452572941780090332e-01 5.604834482073783875e-02 2.289685420691967010e-02
1.497000000000000000e+03 1.960045433044433594e+01 1.297633647918701172e+01 1.253110766410827637e+00 9.056939125061035156e+00 3.093014955520629883e+00 -1.768606662750244141e+00
1.498000000000000000e+03 1.768998336791992188e+01 1.505952453613281250e+01 1.415249228477478027e+00 7.601807117462158203e+00 2.705116987228393555e+00 -2.254631996154785156e+00
1.499000000000000000e+03 7.664472961425781250e+01 4.173555755615234375e+01 -1.287304423749446869e-02 8.002591133117675781e+00 2.396915674209594727e+00 3.530180547386407852e-03
1.500000000000000000e+03 8.258399963378906250e+00 -2.042855834960937500e+01 5.470915436744689941e-01 8.391123414039611816e-01 4.158611595630645752e-01 7.815896272659301758e-01
1.501000000000000000e+03 1.337753963470458984e+01 1.873222541809082031e+01 1.121714591979980469e+00 3.323510885238647461e+00 1.333567619323730469e+00 -1.989644289016723633e+00
1.502000000000000000e+03 1.137952327728271484e+01 -1.866656303405761719e+01 7.900608777999877930e-01 2.379609346389770508e+00 9.509010910987854004e-01 1.479951858520507812e+00
1.503000000000000000e+03 1.320850563049316406e+01 -1.812505722045898438e+01 8.089330792427062988e-01 3.531963586807250977e+00 1.302268981933593750e+00 1.729916095733642578e+00
1.504000000000000000e+03 1.256490421295166016e+01 -1.872676849365234375e+01 6.867648363113403320e-01 3.175121784210205078e+00 1.158565998077392578e+00 1.617632150650024414e+00
1.505000000000000000e+03 5.827779769897460938e+00 -1.418770694732666016e+01 -2.313331328332424164e-02 -6.324569229036569595e-03 -8.837364614009857178e-03 2.443888224661350250e-02
1.506000000000000000e+03 1.127930545806884766e+01 1.988159179687500000e+01 7.551208138465881348e-01 1.723373651504516602e+00 7.435483336448669434e-01 -1.466895699501037598e+00
1.507000000000000000e+03 2.135940742492675781e+01 1.107698082923889160e+00 6.124279499053955078e-01 1.193420410156250000e+01 3.763989448547363281e+00 -1.700323820114135742e-01
1.508000000000000000e+03 8.827291488647460938e+00 2.057016754150390625e+01 5.295966863632202148e-01 5.028715729713439941e-01 3.097404837608337402e-01 -6.261996626853942871e-01
1.509000000000000000e+03 2.143050575256347656e+01 2.412903904914855957e-01 5.887669324874877930e-01 1.196142387390136719e+01 3.765057086944580078e+00 7.046052068471908569e-02
1.510000000000000000e+03 3.114527463912963867e+00 -3.956696319580078125e+01 -5.124504491686820984e-02 1.280524015426635742e+00 3.687837123870849609e-01 6.572452932596206665e-02
1.511000000000000000e+03 7.569596099853515625e+01 -3.960681533813476562e+01 -1.338596083223819733e-02 8.089825630187988281e+00 2.422931909561157227e+00 -2.009871974587440491e-02
1.512000000000000000e+03 4.011953353881835938e+00 3.847906494140625000e+01 -7.748246192932128906e-02 1.235767126083374023e+00 3.474854230880737305e-01 -1.308084130287170410e-01
1.513000000000000000e+03 2.365059137344360352e+00 3.638142013549804688e+01 -3.643668442964553833e-02 7.567318081855773926e-01 2.160885483026504517e-01 -1.054528430104255676e-01
1.514000000000000000e+03 3.363793373107910156e+00 3.615295791625976562e+01 -4.537442326545715332e-02 9.578677415847778320e-01 2.737479805946350098e-01 -1.718153804540634155e-01
1.515000000000000000e+03 1.067488861083984375e+01 8.748579978942871094e+00 -8.263129275292158127e-04 6.283080438151955605e-04 -5.940147457295097411e-05 7.841732003726065159e-04
1.516000000000000000e+03 3.233923912048339844e+00 4.789739608764648438e+00 -1.127717914641834795e-04 2.768792546703480184e-05 -2.552515979914460331e-05 -8.454332128167152405e-04
1.517000000000000000e+03 5.844435691833496094e+00 -1.687747573852539062e+01 -1.196944639086723328e-01 9.808850288391113281e-02 -6.481787189841270447e-03 1.887654513120651245e-02
1.518000000000000000e+03 3.027498006820678711e+00 -1.705065917968750000e+01 -3.677545860409736633e-02 4.030542075634002686e-02 1.058988622389733791e-03 -6.915944069623947144e-02
1.519000000000000000e+03 9.314212799072265625e+00 1.141848182678222656e+01 -1.645573764108121395e-03 1.200327387778088450e-04 -4.576623032335191965e-04 1.610573614016175270e-03
1.520000000000000000e+03 9.756273269653320312e+00 -3.544411659240722656e+00 -5.228267764323391020e-05 1.463738008169457316e-04 2.822733767970930785e-05 1.040813513100147247e-04
1.521000000000000000e+03 8.328615188598632812e+00 -3.696301221847534180e+00 6.537320587085559964e-05 7.948846905492246151e-05 4.345850175013765693e-05 7.861224730731919408e-05
1.522000000000000000e+03 5.923764705657958984e+00 1.819444084167480469e+01 -1.134496629238128662e-01 1.560414731502532959e-01 1.277754269540309906e-02 4.872367531061172485e-02
1.523000000000000000e+03 7.429856300354003906e+00 1.451144981384277344e+01 -4.921933636069297791e-03 -1.386779453605413437e-02 -5.636918358504772186e-03 -9.196218103170394897e-03
1.524000000000000000e+03 8.839198112487792969e+00 4.523301601409912109e+00 4.646584275178611279e-04 -2.349640271859243512e-04 6.890831718919798732e-05 2.775420725811272860e-04
1.525000000000000000e+03 1.160866260528564453e+01 8.436810493469238281e+00 -7.139301160350441933e-04 1.021703588776290417e-03 9.233202581526711583e-05 4.159727541264146566e-04
1.526000000000000000e+03 6.517876625061035156e+00 1.642882728576660156e+01 -7.578441500663757324e-02 -5.735103623010218143e-04 -2.290737815201282501e-02 -6.111898273229598999e-02
1.527000000000000000e+03 2.495145797729492188e+00 1.393659973144531250e+01 -1.655453816056251526e-02 2.181604038923978806e-03 -4.311880562454462051e-03 1.121654547750949860e-02
1.528000000000000000e+03 1.090822029113769531e+01 -5.556181907653808594e+00 -2.692490234039723873e-04 1.684339949861168861e-04 -3.024450961675029248e-05 1.122470130212605000e-04
1.529000000000000000e+03 1.016771697998046875e+01 -2.057175445556640625e+01 4.753383696079254150e-01 1.914148926734924316e+00 7.168461680412292480e-01 1.251104712486267090e+00
1.530000000000000000e+03 1.123857593536376953e+01 -1.979418182373046875e+01 5.128745436668395996e-01 2.451430320739746094e+00 8.892914652824401855e-01 1.410037398338317871e+00
1.531000000000000000e+03 1.241544723510742188e+01 5.992404460906982422e+00 -3.187451802659779787e-04 3.866957849822938442e-04 2.038518323388416320e-05 3.645565884653478861e-04
1.532000000000000000e+03 2.532166957855224609e+00 -1.617048454284667969e+01 -3.386597707867622375e-02 1.348931901156902313e-02 -6.112997885793447495e-03 -5.258465558290481567e-02
1.533000000000000000e+03 1.092164039611816406e+01 2.118820762634277344e+01 5.570715069770812988e-01 1.791069269180297852e+00 7.044422030448913574e-01 -1.324395895004272461e+00
1.534000000000000000e+03 8.029745101928710938e+00 2.100795745849609375e+01 4.626019597053527832e-01 4.743558466434478760e-01 2.810873389244079590e-01 -4.099003076553344727e-01
1.535000000000000000e+03 1.114838981628417969e+01 3.872142076492309570e+00 2.260139008285477757e-04 1.725626498227939010e-04 1.195729637402109802e-04 3.414607781451195478e-04
1.536000000000000000e+03 1.097061920166015625e+01 9.647528648376464844e+00 -1.004285528324544430e-03 1.387965166941285133e-03 1.151038813986815512e-04 4.235787491779774427e-04
1.537000000000000000e+03 1.004839897155761719e+01 9.878958702087402344e+00 -1.280223485082387924e-03 9.575716103427112103e-04 -9.679554932517930865e-05 9.901908924803137779e-04
1.538000000000000000e+03 1.191364383697509766e+01 7.846153736114501953e+00 -9.129719546763226390e-05 9.004194289445877075e-04 2.427366707706823945e-04 3.789224138017743826e-04
1.539000000000000000e+03 7.340535163879394531e+00 4.554964065551757812e+00 6.877605337649583817e-04 -5.266931839287281036e-04 4.832022023038007319e-05 -3.202924517609062605e-06
1.540000000000000000e+03 9.046158790588378906e+00 -3.586788892745971680e+00 9.253421012545004487e-05 -8.639204315841197968e-05 1.842648089223075658e-06 -4.795974236913025379e-04
1.541000000000000000e+03 9.685638427734375000e+00 1.040668869018554688e+01 -9.822600986808538437e-04 3.287023282609879971e-04 -1.960673253051936626e-04 1.219942467287182808e-03
1.542000000000000000e+03 9.079254150390625000e+00 1.233406257629394531e+01 -1.412523793987929821e-03 -1.848352985689416528e-04 -4.792077234014868736e-04 1.054756110534071922e-03
1.543000000000000000e+03 1.905287742614746094e+01 -1.248165512084960938e+01 8.981997370719909668e-01 8.086531639099121094e+00 2.695419311523437500e+00 1.964924335479736328e+00
1.544000000000000000e+03 1.213262176513671875e+01 -3.162330865859985352e+00 -7.028690015431493521e-05 9.726115968078374863e-05 8.092277312243822962e-06 7.369596278294920921e-05
1.545000000000000000e+03 1.442939376831054688e+01 -1.922835540771484375e+01 3.639603853225708008e-01 4.252616405487060547e+00 1.384973049163818359e+00 1.603677511215209961e+00
1.546000000000000000e+03 1.577696323394775391e+01 -1.685671997070312500e+01 6.765103936195373535e-01 5.230275630950927734e+00 1.772035717964172363e+00 1.872344017028808594e+00
1.547000000000000000e+03 2.146581077575683594e+01 -6.219636201858520508e-01 6.302202939987182617e-01 1.197342681884765625e+01 3.781094074249267578e+00 3.135139048099517822e-01
1.548000000000000000e+03 4.455627441406250000e+00 4.811467170715332031e+00 6.132674170657992363e-04 -5.048282910138368607e-04 3.253174872952513397e-05 -7.818923331797122955e-04
1.549000000000000000e+03 5.829971313476562500e+00 3.936476230621337891e+00 2.659466699697077274e-04 -4.431731940712779760e-04 -5.316796159604564309e-05 -9.800667612580582500e-06
1.550000000000000000e+03 4.721716880798339844e+00 5.358061313629150391e+00 4.338629078119993210e-04 -6.836893735453486443e-04 -7.494794408557936549e-05 -1.216888122144155204e-04
1.551000000000000000e+03 6.578891754150390625e+00 3.906237602233886719e+00 7.403620984405279160e-04 -4.588397277984768152e-04 8.445669664070010185e-05 -1.591934124007821083e-04
1.552000000000000000e+03 3.501176595687866211e+00 4.125359535217285156e+00 7.327556377276778221e-04 -1.716572296572849154e-04 1.683295267866924405e-04 -5.445946007966995239e-04
1.553000000000000000e+03 8.090054512023925781e+00 3.876705169677734375e+00 5.824644467793405056e-04 -2.964979503303766251e-04 8.578995038988068700e-05 1.283864257857203484e-04
1.554000000000000000e+03 5.179635047912597656e+00 4.657944679260253906e+00 2.408016007393598557e-04 -4.953288589604198933e-04 -7.635818474227562547e-05 -1.097681233659386635e-04
1.555000000000000000e+03 6.609521865844726562e+00 4.574449062347412109e+00 2.051312039839103818e-04 -6.029682699590921402e-04 -1.193511125165969133e-04 2.512936480343341827e-04
1.556000000000000000e+03 1.109633255004882812e+01 4.547356605529785156e+00 -1.185309665743261576e-04 3.324479257571510971e-05 -2.558585401857271791e-05 5.643091863021254539e-04
1.557000000000000000e+03 1.034582424163818359e+01 4.527098178863525391e+00 2.619292354211211205e-04 8.894307393347844481e-05 1.052616862580180168e-04 3.883428871631622314e-04
1.558000000000000000e+03 2.039992523193359375e+01 -1.206269454956054688e+01 7.842953801155090332e-01 8.654500961303710938e+00 2.831639051437377930e+00 1.407983064651489258e+00
1.559000000000000000e+03 7.731940460205078125e+01 -2.870575141906738281e+01 -4.061192274093627930e-03 7.978572368621826172e+00 2.392353296279907227e+00 -6.555941700935363770e-02
1.560000000000000000e+03 7.654515075683593750e+01 -2.956638908386230469e+01 -7.310554385185241699e-03 7.980701446533203125e+00 2.392017364501953125e+00 -7.872984558343887329e-02
1.561000000000000000e+03 2.652294874191284180e+00 2.839402770996093750e+01 2.940961532294750214e-02 3.077770173549652100e-01 1.011559888720512390e-01 -1.730399131774902344e-01
1.562000000000000000e+03 3.150308132171630859e+00 2.990214920043945312e+01 2.050513587892055511e-02 5.390805602073669434e-01 1.678757220506668091e-01 -2.246393859386444092e-01
1.563000000000000000e+03 7.500859832763671875e+01 3.175190925598144531e+01 -1.930305361747741699e-02 7.893691062927246094e+00 2.362316370010375977e+00 8.668313175439834595e-02
1.564000000000000000e+03 7.613772583007812500e+01 3.119930839538574219e+01 -1.176074240356683731e-02 7.899261951446533203e+00 2.366250276565551758e+00 7.312472164630889893e-02
1.565000000000000000e+03 7.631873321533203125e+01 2.961789894104003906e+01 -7.948881946504116058e-03 7.874434471130371094e+00 2.359945535659790039e+00 7.715795189142227173e-02
1.566000000000000000e+03 7.709670257568359375e+01 3.056482315063476562e+01 -6.550124380737543106e-03 7.901805400848388672e+00 2.368576526641845703e+00 5.984811484813690186e-02
1.567000000000000000e+03 2.221039199829101562e+01 -3.393057584762573242e+00 1.410169601440429688e+00 1.125910758972167969e+01 3.800783157348632812e+00 9.392740130424499512e-01
1.568000000000000000e+03 7.568858337402343750e+01 -3.263654327392578125e+01 -1.595580019056797028e-02 8.014668464660644531e+00 2.399613857269287109e+00 -7.894305139780044556e-02
1.569000000000000000e+03 7.732058715820312500e+01 -3.101100158691406250e+01 -5.870050285011529922e-03 8.025628089904785156e+00 2.405927419662475586e+00 -5.821361020207405090e-02
1.570000000000000000e+03 1.134890651702880859e+01 7.599264144897460938e+00 -6.403546431101858616e-04 7.462191279046237469e-04 3.175934762111864984e-05 5.060486728325486183e-04
1.571000000000000000e+03 4.995208740234375000e+00 -2.999767494201660156e+01 -2.053837664425373077e-02 1.240951895713806152e+00 3.661240637302398682e-01 3.821887075901031494e-01
1.572000000000000000e+03 7.739324951171875000e+01 -2.150446510314941406e+01 -1.097967498935759068e-03 7.804951190948486328e+00 2.341156005859375000e+00 -7.800050079822540283e-02
1.573000000000000000e+03 7.660255432128906250e+01 -2.318033599853515625e+01 -3.150416305288672447e-03 7.843158721923828125e+00 2.352002620697021484e+00 -9.551250934600830078e-02
1.574000000000000000e+03 7.643355560302734375e+01 2.482894897460937500e+01 -3.122061258181929588e-03 7.782865524291992188e+00 2.333923101425170898e+00 8.785837888717651367e-02
1.575000000000000000e+03 3.643102884292602539e+00 3.011948394775390625e+01 1.894237473607063293e-02 6.748457551002502441e-01 2.081364393234252930e-01 -2.564089000225067139e-01
1.576000000000000000e+03 7.649277496337890625e+01 2.166095542907714844e+01 -2.296621823916211724e-04 7.715665817260742188e+00 2.314630985260009766e+00 8.933474123477935791e-02
1.577000000000000000e+03 7.724953460693359375e+01 2.414506340026855469e+01 -1.583511591888964176e-03 7.770969867706298828e+00 2.330815792083740234e+00 7.108719646930694580e-02
1.578000000000000000e+03 7.655092620849609375e+01 -2.478994369506835938e+01 -4.531520418822765350e-03 7.880733966827392578e+00 2.362860679626464844e+00 -9.345705062150955200e-02
1.579000000000000000e+03 7.734841156005859375e+01 -2.391142654418945312e+01 -2.364925807341933250e-03 7.867017269134521484e+00 2.359395742416381836e+00 -7.598371058702468872e-02
1.580000000000000000e+03 2.805179834365844727e+00 -2.714427375793457031e+01 2.473118156194686890e-02 4.761894345283508301e-01 1.502761840820312500e-01 2.191743254661560059e-01
1.581000000000000000e+03 7.654977416992187500e+01 1.765729331970214844e+01 3.571909386664628983e-03 7.629494667053222656e+00 2.289919853210449219e+00 8.469048142433166504e-02
1.582000000000000000e+03 7.658188629150390625e+01 1.524856758117675781e+01 5.580059252679347992e-03 7.580408096313476562e+00 2.275796413421630859e+00 7.809909433126449585e-02
1.583000000000000000e+03 3.997102022171020508e+00 -3.020038032531738281e+01 -1.013685204088687897e-02 9.978970885276794434e-01 2.963280677795410156e-01 3.092946708202362061e-01
1.584000000000000000e+03 7.744401550292968750e+01 -1.431065559387207031e+01 3.304654499515891075e-03 7.618016242980957031e+00 2.286396265029907227e+00 -7.060484588146209717e-02
1.585000000000000000e+03 7.669823455810546875e+01 -1.600748825073242188e+01 3.511334303766489029e-03 7.666014671325683594e+00 2.300857782363891602e+00 -9.233177453279495239e-02
1.586000000000000000e+03 7.664337921142578125e+01 1.042680835723876953e+01 9.126349352300167084e-03 7.496440410614013672e+00 2.251670122146606445e+00 5.739729851484298706e-02
1.587000000000000000e+03 7.663172912597656250e+01 1.123065567016601562e+01 8.609371259808540344e-03 7.508761405944824219e+00 2.255211353302001953e+00 6.156139075756072998e-02
1.588000000000000000e+03 7.659098815917968750e+01 1.444418621063232422e+01 6.217902060598134995e-03 7.564919471740722656e+00 2.271341323852539062e+00 7.529611885547637939e-02
1.589000000000000000e+03 7.668093109130859375e+01 -1.838916587829589844e+01 1.563467318192124367e-03 7.724394321441650391e+00 2.317787408828735352e+00 -9.616562724113464355e-02
1.590000000000000000e+03 7.666904449462890625e+01 8.022456169128417969e+00 1.052192877978086472e-02 7.464769840240478516e+00 2.242587566375732422e+00 4.381497949361801147e-02
1.591000000000000000e+03 7.740494537353515625e+01 9.736666679382324219e+00 5.944157019257545471e-03 7.469886779785156250e+00 2.242749214172363281e+00 4.306508600711822510e-02
1.592000000000000000e+03 7.741165924072265625e+01 8.932915687561035156e+00 6.276988890022039413e-03 7.458477020263671875e+00 2.239426136016845703e+00 3.946900367736816406e-02
1.593000000000000000e+03 7.589331054687500000e+01 9.494212150573730469e+00 1.425916608422994614e-02 7.498620510101318359e+00 2.253863811492919922e+00 6.212570518255233765e-02
1.594000000000000000e+03 7.668430328369140625e+01 3.225942850112915039e+00 1.202172134071588516e-02 7.429155349731445312e+00 2.232352972030639648e+00 1.302208285778760910e-02
1.595000000000000000e+03 7.669828033447265625e+01 8.195069432258605957e-01 1.220719050616025925e-02 7.425963878631591797e+00 2.231451272964477539e+00 -3.553124377503991127e-03
1.596000000000000000e+03 7.670272827148437500e+01 -3.186107873916625977e+00 1.173276826739311218e-02 7.443998813629150391e+00 2.236719369888305664e+00 -3.090065345168113708e-02
1.597000000000000000e+03 7.671391296386718750e+01 -5.593686103820800781e+00 1.091347448527812958e-02 7.468078613281250000e+00 2.243697643280029297e+00 -4.637683182954788208e-02
1.598000000000000000e+03 7.671009826660156250e+01 -7.995335102081298828e+00 9.710505604743957520e-03 7.501764297485351562e+00 2.253442525863647461e+00 -6.054666265845298767e-02
1.599000000000000000e+03 7.669951629638671875e+01 2.025531977415084839e-02 1.220181863754987717e-02 7.427231311798095703e+00 2.231829881668090820e+00 -9.061444550752639771e-03
1.600000000000000000e+03 7.671401977539062500e+01 -7.194861888885498047e+00 1.016956474632024765e-02 7.489521503448486328e+00 2.249907255172729492e+00 -5.597998574376106262e-02
1.601000000000000000e+03 7.714841461181640625e+01 2.976396942138671875e+01 -4.555090330541133881e-03 7.887522220611572266e+00 2.364890098571777344e+00 6.188281252980232239e-02
1.602000000000000000e+03 7.637635040283203125e+01 2.804769897460937500e+01 -5.870922468602657318e-03 7.846811294555664062e+00 2.352282047271728516e+00 8.102615922689437866e-02
1.603000000000000000e+03 7.625477600097656250e+01 3.040344619750976562e+01 -8.877121843397617340e-03 7.887080669403076172e+00 2.363461017608642578e+00 7.545464485883712769e-02
1.604000000000000000e+03 7.670363616943359375e+01 -1.521168518066406250e+01 4.475585650652647018e-03 7.647103786468505859e+00 2.295473814010620117e+00 -9.041865170001983643e-02
1.605000000000000000e+03 7.519526672363281250e+01 -1.224487876892089844e+01 1.393432915210723877e-02 7.600122451782226562e+00 2.284217119216918945e+00 -1.108205839991569519e-01
1.606000000000000000e+03 7.670143890380859375e+01 -1.040263462066650391e+01 8.300952613353729248e-03 7.543922424316406250e+00 2.265666961669921875e+00 -7.306277006864547729e-02
1.607000000000000000e+03 7.667248535156250000e+01 7.225696563720703125e+00 1.083265151828527451e-02 7.456225395202636719e+00 2.240117549896240234e+00 3.896735236048698425e-02
1.608000000000000000e+03 7.744994354248046875e+01 -4.685205936431884766e+00 7.012318819761276245e-03 7.439121723175048828e+00 2.233840227127075195e+00 -3.261021524667739868e-02
1.609000000000000000e+03 7.519103240966796875e+01 -5.029575824737548828e+00 2.253553830087184906e-02 7.494204521179199219e+00 2.255022048950195312e+00 -5.882221460342407227e-02
1.610000000000000000e+03 7.670633697509765625e+01 -3.989374399185180664e+00 1.151415705680847168e-02 7.450990676879882812e+00 2.238751411437988281e+00 -3.622980043292045593e-02
1.611000000000000000e+03 7.743212890625000000e+01 2.526957273483276367e+00 7.540649734437465668e-03 7.406631946563720703e+00 2.224251747131347656e+00 6.638189777731895447e-03
1.612000000000000000e+03 7.594227600097656250e+01 1.507656097412109375e+00 1.785989291965961456e-02 7.444761753082275391e+00 2.238786458969116211e+00 1.394253806211054325e-03
1.613000000000000000e+03 7.667943572998046875e+01 4.028522968292236328e+00 1.180311385542154312e-02 7.432534694671630859e+00 2.233301162719726562e+00 1.843579299747943878e-02
1.614000000000000000e+03 7.742006683349609375e+01 -1.910065841674804688e+01 5.602081073448061943e-04 7.741194725036621094e+00 2.322526454925537109e+00 -7.763611525297164917e-02
1.615000000000000000e+03 7.662524414062500000e+01 -2.237984466552734375e+01 -2.553457627072930336e-03 7.823710441589355469e+00 2.346347093582153320e+00 -9.660099446773529053e-02
1.616000000000000000e+03 7.665314483642578125e+01 9.621493339538574219e+00 9.675730019807815552e-03 7.484901428222656250e+00 2.248373270034790039e+00 5.307497456669807434e-02
1.617000000000000000e+03 7.668619537353515625e+01 -1.759532928466796875e+01 2.068961504846811295e-03 7.704740047454833984e+00 2.312042713165283203e+00 -9.529558569192886353e-02
1.618000000000000000e+03 7.734368133544921875e+01 1.695993995666503906e+01 2.611797302961349487e-03 7.606593608856201172e+00 2.282761573791503906e+00 6.646201014518737793e-02
1.619000000000000000e+03 7.492733764648437500e+01 1.580198097229003906e+01 1.063588075339794159e-02 7.609728336334228516e+00 2.286109209060668945e+00 1.104552745819091797e-01
1.620000000000000000e+03 7.726300811767578125e+01 2.334734916687011719e+01 -8.974049123935401440e-04 7.753018379211425781e+00 2.325636148452758789e+00 7.163335382938385010e-02
1.621000000000000000e+03 7.645214843750000000e+01 2.323083686828613281e+01 -1.642336719669401646e-03 7.749262332916259766e+00 2.324285984039306641e+00 8.938876539468765259e-02
1.622000000000000000e+03 7.644181060791015625e+01 2.402642059326171875e+01 -2.173261716961860657e-03 7.766260147094726562e+00 2.329226016998291016e+00 8.902686089277267456e-02
1.623000000000000000e+03 7.653981018066406250e+01 1.846301269531250000e+01 2.779883565381169319e-03 7.646439075469970703e+00 2.294765710830688477e+00 8.629362285137176514e-02
1.624000000000000000e+03 7.650847625732421875e+01 -2.642575836181640625e+01 -5.934270564466714859e-03 7.917338371276855469e+00 2.373421192169189453e+00 -8.978511393070220947e-02
1.625000000000000000e+03 7.733155822753906250e+01 -2.471655273437500000e+01 -2.747829537838697433e-03 7.886830806732177734e+00 2.365224838256835938e+00 -7.513804733753204346e-02
1.626000000000000000e+03 7.730188751220703125e+01 -2.713935470581054688e+01 -3.662416711449623108e-03 7.944280147552490234e+00 2.382185459136962891e+00 -6.979852169752120972e-02
1.627000000000000000e+03 7.657620239257812500e+01 -2.398184394836425781e+01 -3.788286820054054260e-03 7.861885547637939453e+00 2.357429027557373047e+00 -9.487228840589523315e-02
1.628000000000000000e+03 7.670710754394531250e+01 -1.441333198547363281e+01 4.922533873468637466e-03 7.628508090972900391e+00 2.290029048919677734e+00 -8.816260099411010742e-02
1.629000000000000000e+03 7.670429992675781250e+01 -1.120331954956054688e+01 7.610408123582601547e-03 7.559387683868408203e+00 2.270099401473999023e+00 -7.657323777675628662e-02
1.630000000000000000e+03 7.559268951416015625e+01 3.386584091186523438e+01 -1.739239133894443512e-02 7.930053710937500000e+00 2.373798370361328125e+00 6.355647742748260498e-02
1.631000000000000000e+03 7.670508575439453125e+01 -8.797835350036621094e+00 9.327567182481288910e-03 7.514993667602539062e+00 2.257296323776245117e+00 -6.498788297176361084e-02
1.632000000000000000e+03 7.670146942138671875e+01 -9.601369857788085938e+00 8.756679482758045197e-03 7.529065132141113281e+00 2.261346578598022461e+00 -6.914601475000381470e-02
1.633000000000000000e+03 7.669877624511718750e+01 -2.385375499725341797e+00 1.194203924387693405e-02 7.438235282897949219e+00 2.235053062438964844e+00 -2.561296150088310242e-02
1.634000000000000000e+03 7.667509460449218750e+01 4.827454566955566406e+00 1.168656628578901291e-02 7.436927795410156250e+00 2.234584331512451172e+00 2.372803352773189545e-02
1.635000000000000000e+03 7.663780975341796875e+01 3.859640884399414062e+01 -7.555681746453046799e-03 7.988928794860839844e+00 2.394411802291870117e+00 2.224764786660671234e-02
1.636000000000000000e+03 7.562612152099609375e+01 3.612183761596679688e+01 -1.843572780489921570e-02 7.956283092498779297e+00 2.381354093551635742e+00 4.600916057825088501e-02
1.637000000000000000e+03 7.664375305175781250e+01 -2.157813835144042969e+01 -1.636697328649461269e-03 7.803993701934814453e+00 2.340707063674926758e+00 -9.683033078908920288e-02
1.638000000000000000e+03 7.595946502685546875e+01 -1.531345844268798828e+01 6.059993058443069458e-03 7.655586242675781250e+00 2.298493862152099609e+00 -1.075809597969055176e-01
1.639000000000000000e+03 7.583287811279296875e+01 -3.425856018066406250e+01 -1.732951588928699493e-02 8.045870780944824219e+00 2.408562421798706055e+00 -6.393831223249435425e-02
1.640000000000000000e+03 7.731739807128906250e+01 -3.176743316650390625e+01 -6.713176146149635315e-03 8.039762496948242188e+00 2.409914731979370117e+00 -5.497400462627410889e-02
1.641000000000000000e+03 7.667687225341796875e+01 -3.406354522705078125e+01 -1.150540821254253387e-02 8.064448356628417969e+00 2.415883064270019531e+00 -5.320066213607788086e-02
1.642000000000000000e+03 7.651604461669921875e+01 -3.106376075744628906e+01 -9.364527650177478790e-03 8.008325576782226562e+00 2.399688482284545898e+00 -7.261752337217330933e-02
1.643000000000000000e+03 7.669858551025390625e+01 -7.803530097007751465e-01 1.216534152626991272e-02 7.429780960083007812e+00 2.232583999633789062e+00 -1.463606115430593491e-02
1.644000000000000000e+03 7.669750213623046875e+01 -1.583235740661621094e+00 1.206517405807971954e-02 7.433448791503906250e+00 2.233654260635375977e+00 -2.010931260883808136e-02
1.645000000000000000e+03 7.667324066162109375e+01 6.427330970764160156e+00 1.119238231331110001e-02 7.448781967163085938e+00 2.237992286682128906e+00 3.402863442897796631e-02
1.646000000000000000e+03 7.667333984375000000e+01 5.626970291137695312e+00 1.142221409827470779e-02 7.442341327667236328e+00 2.236129045486450195e+00 2.894083783030509949e-02
1.647000000000000000e+03 7.669210815429687500e+01 -1.680184364318847656e+01 3.057421650737524033e-03 7.685254096984863281e+00 2.306493520736694336e+00 -9.394453465938568115e-02
1.648000000000000000e+03 7.651918029785156250e+01 2.007154846191406250e+01 1.250174827873706818e-03 7.681062221527099609e+00 2.304693698883056641e+00 8.842247724533081055e-02
1.649000000000000000e+03 7.661862182617187500e+01 1.203231525421142578e+01 8.017765358090400696e-03 7.521917343139648438e+00 2.258980512619018555e+00 6.542312353849411011e-02
1.650000000000000000e+03 2.625507354736328125e+00 2.129526519775390625e+01 3.296245634555816650e-02 6.333095370791852474e-06 9.890636429190635681e-03 7.305637001991271973e-02
1.651000000000000000e+03 2.824345827102661133e+00 2.315583038330078125e+01 7.428654283285140991e-02 6.842768192291259766e-02 4.281426593661308289e-02 -6.112504051998257637e-04
1.652000000000000000e+03 3.516828060150146484e+00 -2.534958839416503906e+01 7.540445029735565186e-02 5.003170967102050781e-01 1.727164685726165771e-01 2.375535368919372559e-01
1.653000000000000000e+03 7.659844207763671875e+01 1.363998603820800781e+01 6.824314128607511520e-03 7.550038814544677734e+00 2.267058849334716797e+00 7.233171910047531128e-02
1.654000000000000000e+03 7.660703277587890625e+01 1.283537864685058594e+01 7.473682984709739685e-03 7.535608768463134766e+00 2.262924671173095703e+00 6.902680546045303345e-02
1.655000000000000000e+03 7.573278808593750000e+01 -2.566980934143066406e+01 -7.679925765842199326e-03 7.891711235046386719e+00 2.365209341049194336e+00 -1.091718673706054688e-01
1.656000000000000000e+03 7.651021575927734375e+01 2.087045669555664062e+01 5.614781402982771397e-04 7.698513031005859375e+00 2.309722185134887695e+00 8.910321444272994995e-02
1.657000000000000000e+03 3.514909982681274414e+00 2.760114860534667969e+01 5.706068500876426697e-02 4.679682254791259766e-01 1.575086712837219238e-01 -2.131326645612716675e-01
1.658000000000000000e+03 3.351531267166137695e+00 -2.290884971618652344e+01 1.108197271823883057e-01 2.754208743572235107e-01 1.158721819519996643e-01 1.210910007357597351e-01
1.659000000000000000e+03 2.531130790710449219e+00 -7.563170909881591797e+00 -7.463315705535933375e-05 -5.135818719281814992e-05 -3.779740291065536439e-05 3.993208520114421844e-04
1.660000000000000000e+03 3.398499250411987305e+00 -5.995133399963378906e+00 5.065465229563415051e-04 -5.656044231727719307e-04 -1.771736606315243989e-05 5.665234057232737541e-04
1.661000000000000000e+03 2.480702161788940430e+00 -9.094883918762207031e+00 -5.423995899036526680e-04 -5.075950175523757935e-04 -3.149983822368085384e-04 3.504443156998604536e-04
1.662000000000000000e+03 3.303036451339721680e+00 -7.633083820343017578e+00 4.907425027340650558e-04 -9.481324814260005951e-04 -1.372170081594958901e-04 7.163031841628253460e-04
1.663000000000000000e+03 3.531073808670043945e+00 -5.153776645660400391e+00 1.020114868879318237e-04 -9.920690899889450520e-06 2.762723852356430143e-05 1.646552118472754955e-04
1.664000000000000000e+03 2.506071329116821289e+00 -1.538337802886962891e+01 -3.263569250702857971e-02 1.234598178416490555e-02 -6.086913403123617172e-03 -3.878015279769897461e-02
1.665000000000000000e+03 4.301859378814697266e+00 -1.601792526245117188e+01 -8.171112835407257080e-02 7.546688616275787354e-02 -1.873273518867790699e-03 -1.538794394582509995e-02
1.666000000000000000e+03 7.639129638671875000e+01 2.724776077270507812e+01 -4.891869612038135529e-03 7.831769466400146484e+00 2.348063230514526367e+00 8.356302231550216675e-02
1.667000000000000000e+03 2.479377985000610352e+00 1.754098129272460938e+01 -3.117482177913188934e-02 -9.443645831197500229e-04 -9.635755792260169983e-03 7.116867601871490479e-02
1.668000000000000000e+03 5.025360107421875000e+00 2.089041137695312500e+01 1.186378523707389832e-01 2.242705523967742920e-01 1.028725206851959229e-01 1.499512419104576111e-02
1.669000000000000000e+03 2.475253105163574219e+00 7.870500564575195312e+00 -4.813928680960088968e-04 2.900636172853410244e-04 -5.739877451560460031e-05 -1.072847750037908554e-03
1.670000000000000000e+03 3.050577163696289062e+00 9.510806083679199219e+00 4.355744167696684599e-04 -8.847337448969483376e-04 -1.347477955278009176e-04 -1.049217651598155499e-03
1.671000000000000000e+03 2.528136491775512695e+00 -1.383952522277832031e+01 -1.881458424031734467e-02 3.857555799186229706e-03 -4.487108439207077026e-03 -1.567365415394306183e-02
1.672000000000000000e+03 7.262723445892333984e+00 -1.044904136657714844e+01 -8.273262646980583668e-04 -1.582913449965417385e-03 -7.230719202198088169e-04 -2.050793700618669391e-04
1.673000000000000000e+03 2.474868774414062500e+00 -1.140140247344970703e+01 -3.453910816460847855e-03 -9.144212235696613789e-04 -1.310499617829918861e-03 -1.469027134589850903e-03
1.674000000000000000e+03 5.249004840850830078e+00 -1.373739433288574219e+01 -2.438663691282272339e-02 6.185702048242092133e-03 -5.460280459374189377e-03 1.544685568660497665e-02
1.675000000000000000e+03 3.108051300048828125e+00 -1.498645973205566406e+01 -3.858070075511932373e-02 2.158973924815654755e-02 -5.097288172692060471e-03 -2.632170915603637695e-02
1.676000000000000000e+03 3.680553436279296875e+00 -1.555893802642822266e+01 -5.561085790395736694e-02 4.702829569578170776e-02 -2.574768150225281715e-03 -2.620214782655239105e-02
1.677000000000000000e+03 3.504937887191772461e+00 1.306348991394042969e+01 -1.449005305767059326e-02 2.853869926184415817e-03 -3.490854986011981964e-03 4.841639660298824310e-03
1.678000000000000000e+03 4.218945026397705078e+00 1.461014270782470703e+01 -3.534673899412155151e-02 1.469680573791265488e-02 -6.194980349391698837e-03 1.904545002616941929e-03
1.679000000000000000e+03 2.357074499130249023e+00 1.012107276916503906e+01 5.802036030218005180e-04 -1.671161735430359840e-04 1.239262346643954515e-04 -1.112860627472400665e-03
1.680000000000000000e+03 2.704141139984130859e+00 1.555626010894775391e+01 -3.461903706192970276e-02 1.008317153900861740e-02 -7.360759656876325607e-03 3.057603724300861359e-02
1.681000000000000000e+03 3.594429731369018555e+00 1.681554985046386719e+01 -6.915765255689620972e-02 5.195565149188041687e-02 -5.160601809620857239e-03 4.935552924871444702e-02
1.682000000000000000e+03 2.604614019393920898e+00 1.470894813537597656e+01 -1.887466944754123688e-02 1.245949533767998219e-03 -5.288616288453340530e-03 1.939354278147220612e-02
1.683000000000000000e+03 2.536333799362182617e+00 -1.062448692321777344e+01 -2.325457287952303886e-03 -6.112256087362766266e-04 -8.810048457235097885e-04 -8.057255181483924389e-04
1.684000000000000000e+03 4.131731033325195312e+00 -9.416439056396484375e+00 -1.102395355701446533e-03 -1.019507646560668945e-03 -6.365709123201668262e-04 4.873474244959652424e-04
1.685000000000000000e+03 3.102575540542602539e+00 2.248603057861328125e+01 8.060940355062484741e-02 9.132248163223266602e-02 5.157956480979919434e-02 1.855292357504367828e-02
1.686000000000000000e+03 3.067587375640869141e+00 2.009743118286132812e+01 1.688296161592006683e-02 3.830733150243759155e-02 1.655708812177181244e-02 9.721515327692031860e-02
1.687000000000000000e+03 2.502475738525390625e+00 1.974763298034667969e+01 -2.755708992481231689e-03 -1.551573723554611206e-02 -5.481433589011430740e-03 9.867133945226669312e-02
1.688000000000000000e+03 2.630230188369750977e+00 6.306211948394775391e+00 -2.695165458135306835e-04 2.013956400332972407e-04 -2.043627318926155567e-05 -9.382129064761102200e-04
1.689000000000000000e+03 3.894154071807861328e+00 -2.935003852844238281e+01 -3.520864760503172874e-03 9.129433035850524902e-01 2.728267312049865723e-01 3.045078217983245850e-01
1.690000000000000000e+03 3.441819190979003906e+00 2.844947242736816406e+01 3.926904499530792236e-02 5.102076530456542969e-01 1.648430079221725464e-01 -2.240078300237655640e-01
1.691000000000000000e+03 2.347936630249023438e+00 -1.771209335327148438e+01 -1.623517647385597229e-02 1.502332976087927818e-03 -4.419852979481220245e-03 -8.213306963443756104e-02
1.692000000000000000e+03 3.001231431961059570e+00 -1.769191741943359375e+01 -2.841540239751338959e-02 4.943915084004402161e-02 6.307124625891447067e-03 -7.973568886518478394e-02
1.693000000000000000e+03 3.330437660217285156e+00 2.421273040771484375e+01 9.725978970527648926e-02 2.041685730218887329e-01 9.042850881814956665e-02 -7.646644115447998047e-02
1.694000000000000000e+03 2.337306022644042969e+00 -1.841463279724121094e+01 -5.640005227178335190e-03 -2.451968146488070488e-03 -2.427592175081372261e-03 -8.532491326332092285e-02
1.695000000000000000e+03 3.006588459014892578e+00 -1.895598602294921875e+01 1.844134368002414703e-02 6.252674013376235962e-02 2.429042384028434753e-02 -8.021216839551925659e-02
1.696000000000000000e+03 2.717169046401977539e+00 -3.619852828979492188e+01 -3.639131784439086914e-02 1.060044407844543457e+00 3.070959150791168213e-01 1.327947527170181274e-01
1.697000000000000000e+03 4.969614505767822266e+00 -2.325277709960937500e+01 1.940432339906692505e-01 6.195943951606750488e-01 2.440912872552871704e-01 2.941289246082305908e-01
1.698000000000000000e+03 2.706861972808837891e+00 -2.470124435424804688e+01 5.737022310495376587e-02 2.668036520481109619e-01 9.725216031074523926e-02 1.523743718862533569e-01
1.699000000000000000e+03 3.561013936996459961e+00 -2.617417335510253906e+01 5.413243547081947327e-02 5.855793952941894531e-01 1.919135600328445435e-01 2.659418880939483643e-01
1.700000000000000000e+03 2.951942443847656250e+00 1.017539691925048828e+01 -1.701038447208702564e-03 -6.781084812246263027e-04 -7.137440843507647514e-04 -4.676545795518904924e-04
1.701000000000000000e+03 3.641696453094482422e+00 1.409554386138916016e+01 -2.377139590680599213e-02 7.778917904943227768e-03 -4.797743633389472961e-03 9.330225177109241486e-03
1.702000000000000000e+03 4.730113983154296875e+00 1.356537246704101562e+01 -1.792576722800731659e-02 1.842546393163502216e-03 -4.824966192245483398e-03 -3.167605958878993988e-03
1.703000000000000000e+03 3.335385799407958984e+00 -6.814505577087402344e+00 8.644854096928611398e-05 -3.908651997335255146e-04 -9.132499690167605877e-05 1.920524955494329333e-04
1.704000000000000000e+03 7.827171802520751953e+00 1.155915355682373047e+01 -2.574986312538385391e-03 -1.800268422812223434e-03 -1.312576467171311378e-03 9.074861009139567614e-05
1.705000000000000000e+03 3.125799655914306641e+00 8.778033256530761719e+00 -6.532518891617655754e-04 -6.736450595781207085e-04 -3.980690671596676111e-04 -9.646303369663655758e-04
1.706000000000000000e+03 5.514310836791992188e+00 9.751218795776367188e+00 -2.214578707935288548e-04 -3.144197165966033936e-03 -1.009696512483060360e-03 8.156185504049062729e-04
1.707000000000000000e+03 3.175921440124511719e+00 -3.214789581298828125e+01 -1.836456544697284698e-02 9.218147993087768555e-01 2.710350751876831055e-01 2.322967201471328735e-01
1.708000000000000000e+03 4.192924022674560547e+00 -3.206848526000976562e+01 -3.291189670562744141e-02 1.168701410293579102e+00 3.407368659973144531e-01 2.986133098602294922e-01
1.709000000000000000e+03 4.662158012390136719e+00 1.984208106994628906e+01 2.773615717887878418e-02 1.602908968925476074e-01 5.640811845660209656e-02 7.859519124031066895e-02
1.710000000000000000e+03 2.034153556823730469e+01 8.600439071655273438e+00 1.252828240394592285e+00 1.096484470367431641e+01 3.665301799774169922e+00 -1.665421962738037109e+00
1.711000000000000000e+03 3.421722888946533203e+00 3.110485649108886719e+01 8.716171723790466785e-04 6.646570563316345215e-01 1.996586024761199951e-01 -2.390763461589813232e-01
1.712000000000000000e+03 3.596236944198608398e+00 3.340655899047851562e+01 -4.014803096652030945e-02 8.595190048217773438e-01 2.458112835884094238e-01 -2.342013716697692871e-01
1.713000000000000000e+03 4.263046741485595703e+00 3.412501525878906250e+01 -4.925297573208808899e-02 1.040315985679626465e+00 2.973189055919647217e-01 -2.594343423843383789e-01
1.714000000000000000e+03 2.962147474288940430e+00 3.460385894775390625e+01 -2.987718582153320312e-02 7.735313773155212402e-01 2.230962514877319336e-01 -1.835680603981018066e-01
1.715000000000000000e+03 3.865422248840332031e+00 -1.933164215087890625e+01 4.692103341221809387e-02 1.367481499910354614e-01 5.510075762867927551e-02 -5.449544265866279602e-02
1.716000000000000000e+03 3.227726221084594727e+00 7.274293422698974609e+00 -2.273747668368741870e-04 -4.160286916885524988e-04 -1.930210419232025743e-04 -9.358874522149562836e-04
1.717000000000000000e+03 3.924566030502319336e+00 2.326696395874023438e+01 1.358400732278823853e-01 2.519531846046447754e-01 1.163379698991775513e-01 -6.665344536304473877e-02
1.718000000000000000e+03 3.627935171127319336e+00 -2.698110198974609375e+01 3.770561888813972473e-02 6.724846959114074707e-01 2.130570858716964722e-01 2.812728881835937500e-01
1.719000000000000000e+03 3.297378063201904297e+00 -2.208680915832519531e+01 1.183819174766540527e-01 2.065310925245285034e-01 9.747390449047088623e-02 7.141237705945968628e-02
1.720000000000000000e+03 3.270079851150512695e+00 -2.125697517395019531e+01 1.038683131337165833e-01 1.510509699583053589e-01 7.647578418254852295e-02 1.391855441033840179e-02
1.721000000000000000e+03 3.365438938140869141e+00 2.343874168395996094e+01 1.063282191753387451e-01 1.689199060201644897e-01 8.257443457841873169e-02 -4.710259288549423218e-02
1.722000000000000000e+03 7.695949554443359375e+01 -3.524747848510742188e+01 -8.206547237932682037e-03 8.083445549011230469e+00 2.422571659088134766e+00 -4.187073558568954468e-02
1.723000000000000000e+03 7.605208587646484375e+01 -3.526529312133789062e+01 -1.595794036984443665e-02 8.064100265502929688e+00 2.414442777633666992e+00 -5.402507632970809937e-02
1.724000000000000000e+03 9.442098617553710938e+00 -6.386289596557617188e+00 -3.726206705323420465e-05 6.239207577891647816e-04 1.759976148605346680e-04 -5.276596639305353165e-04
1.725000000000000000e+03 2.316950798034667969e+01 1.442384362220764160e+00 1.019573926925659180e+00 1.102561473846435547e+01 3.613556623458862305e+00 -1.125160232186317444e-01
1.726000000000000000e+03 3.801119565963745117e+00 -2.854824447631835938e+01 9.144485928118228912e-03 8.330739736557006836e-01 2.526655495166778564e-01 3.051708042621612549e-01
1.727000000000000000e+03 3.712606430053710938e+00 -2.776695442199707031e+01 2.161800488829612732e-02 7.492205500602722168e-01 2.312515676021575928e-01 2.935294210910797119e-01
1.728000000000000000e+03 4.242352485656738281e+00 -3.308480834960937500e+01 -4.413198307156562805e-02 1.232939958572387695e+00 3.566423654556274414e-01 2.764108479022979736e-01
1.729000000000000000e+03 7.653618621826171875e+01 -3.031651496887207031e+01 -8.228355087339878082e-03 7.995767593383789062e+00 2.396261930465698242e+00 -7.566386461257934570e-02
1.730000000000000000e+03 3.041356801986694336e+00 3.534289550781250000e+01 -4.849309846758842468e-02 8.449801802635192871e-01 2.389461249113082886e-01 -1.637163460254669189e-01
1.731000000000000000e+03 7.552372741699218750e+01 3.494151306152343750e+01 -1.995545439422130585e-02 7.941019058227539062e+00 2.376319169998168945e+00 5.716560408473014832e-02
1.732000000000000000e+03 7.596313476562500000e+01 3.201819992065429688e+01 -1.284083351492881775e-02 7.909372329711914062e+00 2.368959426879882812e+00 7.154133170843124390e-02
1.733000000000000000e+03 1.023867511749267578e+01 5.857163429260253906e+00 1.390267134411260486e-04 1.681735302554443479e-04 9.216007310897111893e-05 4.850998520851135254e-04
1.734000000000000000e+03 3.179131746292114258e+00 3.047816276550292969e+01 1.205933000892400742e-02 5.850323438644409180e-01 1.791274994611740112e-01 -2.288609445095062256e-01
1.735000000000000000e+03 3.981041908264160156e+00 -3.520394134521484375e+01 -6.507018208503723145e-02 1.263276696205139160e+00 3.594619631767272949e-01 2.186781615018844604e-01
1.736000000000000000e+03 1.674226379394531250e+01 -1.422696399688720703e+01 1.143366932868957520e+00 6.284107208251953125e+00 2.228242397308349609e+00 2.298380851745605469e+00
1.737000000000000000e+03 2.013775634765625000e+01 5.168054580688476562e+00 8.489899039268493652e-01 1.221743106842041016e+01 3.919926404953002930e+00 -1.094191431999206543e+00
1.738000000000000000e+03 2.113827133178710938e+01 3.662666320800781250e+00 8.927484750747680664e-01 1.179229354858398438e+01 3.805512666702270508e+00 -7.116728425025939941e-01
1.739000000000000000e+03 4.729136943817138672e+00 -7.809004306793212891e+00 3.923337790183722973e-04 -1.971705351024866104e-03 -4.738114948850125074e-04 6.745001883246004581e-05
1.740000000000000000e+03 8.976079940795898438e+00 -6.940254688262939453e+00 -2.715286682359874249e-04 -1.690893986960873008e-04 -1.321854215348139405e-04 -9.642785880714654922e-05
1.741000000000000000e+03 6.759675502777099609e+00 -3.915387153625488281e+00 1.997652725549414754e-04 -1.529870933154597878e-04 1.403345504513708875e-05 1.022125143208540976e-04
1.742000000000000000e+03 8.873965263366699219e+00 -5.210616111755371094e+00 -3.400418790988624096e-05 -3.240186197217553854e-04 -1.074068422894924879e-04 -1.821381738409399986e-04
1.743000000000000000e+03 4.985367298126220703e+00 -5.568215370178222656e+00 2.930284836111241020e-06 -1.746253474266268313e-05 -4.359675131127005443e-06 -8.111010538414120674e-05
1.744000000000000000e+03 5.317981243133544922e+00 -4.962790489196777344e+00 5.805464461445808411e-04 -1.047172001563012600e-03 -1.399876782670617104e-04 -7.909367559477686882e-05
1.745000000000000000e+03 5.917660236358642578e+00 -4.641812324523925781e+00 2.504825824871659279e-04 -2.488368481863290071e-04 4.937200515087170061e-07 2.002113615162670612e-04
1.746000000000000000e+03 6.753241062164306641e+00 -4.644089221954345703e+00 1.855882437666878104e-04 -2.838035579770803452e-04 -2.946459426311776042e-05 -5.464996793307363987e-04
1.747000000000000000e+03 8.178908348083496094e+00 -9.127427101135253906e+00 -5.708392709493637085e-04 -2.654321433510631323e-04 -2.508814213797450066e-04 -1.568354491610080004e-04
1.748000000000000000e+03 5.277101039886474609e+00 -8.257628440856933594e+00 -2.639782615005970001e-04 -5.003333790227770805e-04 -2.292934805154800415e-04 -3.077905275858938694e-04
1.749000000000000000e+03 1.030179691314697266e+01 -5.325379848480224609e+00 7.585408457089215517e-05 3.189839480910450220e-04 1.184514112537726760e-04 -4.012924036942422390e-04
1.750000000000000000e+03 1.776340293884277344e+01 -1.277730369567871094e+01 1.165538668632507324e+00 7.342320442199707031e+00 2.552357673645019531e+00 2.429559230804443359e+00
1.751000000000000000e+03 8.502128601074218750e+00 -7.528331279754638672e+00 -2.040697290794923902e-04 8.376698824577033520e-04 1.900800561998039484e-04 -8.113134535960853100e-04
1.752000000000000000e+03 7.546128273010253906e+00 -8.785112380981445312e+00 -4.407075757626444101e-04 7.807350484654307365e-04 1.020082490867935121e-04 -1.142404857091605663e-03
1.753000000000000000e+03 1.881566429138183594e+01 1.454342555999755859e+01 1.196785569190979004e+00 8.227174758911132812e+00 2.827188014984130859e+00 -1.881590723991394043e+00
1.754000000000000000e+03 2.318765830993652344e+01 -3.528169631958007812e+00 1.537639856338500977e+00 1.066874885559082031e+01 3.661916494369506836e+00 7.438781261444091797e-01
1.755000000000000000e+03 9.342332839965820312e+00 -5.559135437011718750e+00 5.834491503264871426e-07 4.690309579018503428e-04 1.408843236276879907e-04 -4.691565700341016054e-04
1.756000000000000000e+03 9.889122009277343750e+00 -5.855561733245849609e+00 -2.710824483074247837e-04 3.404577000765129924e-05 -7.111099694157019258e-05 2.918899372161831707e-05
1.757000000000000000e+03 3.866568803787231445e+00 -1.160219669342041016e+01 -7.066725287586450577e-03 -6.200007628649473190e-04 -2.306017791852355003e-03 -5.752558936364948750e-04
1.758000000000000000e+03 6.840738296508789062e+00 -1.112298965454101562e+01 -1.531747635453939438e-03 2.840636589098721743e-04 -3.743051784113049507e-04 -8.243531337939202785e-04
1.759000000000000000e+03 6.681131839752197266e+00 -1.281960010528564453e+01 -1.191086019389331341e-03 -9.505037218332290649e-03 -3.208837006241083145e-03 4.352689720690250397e-03
1.760000000000000000e+03 2.137758064270019531e+01 -7.226929187774658203e+00 1.827049970626831055e+00 1.062278842926025391e+01 3.734951496124267578e+00 1.094900727272033691e+00
1.761000000000000000e+03 1.538872051239013672e+01 1.808781814575195312e+01 9.506068825721740723e-01 5.195328712463378906e+00 1.843780636787414551e+00 -2.110267877578735352e+00
1.762000000000000000e+03 1.920246315002441406e+01 1.375704574584960938e+01 1.223695397377014160e+00 8.660276412963867188e+00 2.965191364288330078e+00 -1.857479929924011230e+00
1.763000000000000000e+03 1.404250812530517578e+01 1.929243469238281250e+01 7.579209804534912109e-01 3.980260133743286133e+00 1.421454310417175293e+00 -1.945968627929687500e+00
1.764000000000000000e+03 2.240365600585937500e+01 3.591715693473815918e-01 8.436557054519653320e-01 1.143567657470703125e+01 3.683799743652343750e+00 8.077428489923477173e-02
1.765000000000000000e+03 1.801146697998046875e+01 -1.400071811676025391e+01 8.617687225341796875e-01 7.053168773651123047e+00 2.374481201171875000e+00 2.013281345367431641e+00
1.766000000000000000e+03 1.855600357055664062e+01 -1.325877952575683594e+01 8.823965191841125488e-01 7.576375007629394531e+00 2.537631511688232422e+00 2.004743814468383789e+00
1.767000000000000000e+03 1.447132682800292969e+01 -1.810060119628906250e+01 6.118694543838500977e-01 4.372795104980468750e+00 1.495399355888366699e+00 1.760422706604003906e+00
1.768000000000000000e+03 2.036301231384277344e+01 -9.958740234375000000e+00 1.151775360107421875e+00 9.671267509460449219e+00 3.246912956237792969e+00 1.539774656295776367e+00
1.769000000000000000e+03 1.985883140563964844e+01 1.024356842041015625e+01 1.420185923576354980e+00 1.038758468627929688e+01 3.542331218719482422e+00 -1.848060607910156250e+00
1.770000000000000000e+03 1.998873519897460938e+01 1.217745876312255859e+01 1.290292143821716309e+00 9.411265373229980469e+00 3.210467100143432617e+00 -1.656456351280212402e+00
1.771000000000000000e+03 1.229710865020751953e+01 6.635141372680664062e+00 -4.335251651355065405e-05 7.791806710883975029e-04 2.207484358223155141e-04 3.394629457034170628e-04
1.772000000000000000e+03 1.693072509765625000e+01 -1.545049858093261719e+01 7.846544384956359863e-01 6.123118877410888672e+00 2.072332143783569336e+00 1.959046721458435059e+00
1.773000000000000000e+03 1.746921539306640625e+01 -1.473011493682861328e+01 8.312947750091552734e-01 6.568031311035156250e+00 2.219797849655151367e+00 1.996746301651000977e+00
1.774000000000000000e+03 6.656364440917968750e+00 1.788167762756347656e+01 -2.632993161678314209e-01 1.144230142235755920e-01 -4.466288536787033081e-02 -6.856266409158706665e-02
1.775000000000000000e+03 6.579668521881103516e+00 1.951661300659179688e+01 3.781073167920112610e-02 2.071411609649658203e-01 7.348556816577911377e-02 -3.071621758863329887e-03
1.776000000000000000e+03 2.107842254638671875e+01 -8.158961296081542969e+00 1.605588555335998535e+00 1.040291500091552734e+01 3.602551221847534180e+00 1.189957261085510254e+00
1.777000000000000000e+03 2.191528892517089844e+01 4.633966445922851562e+00 1.076992392539978027e+00 1.123827171325683594e+01 3.694579124450683594e+00 -7.292935252189636230e-01
1.778000000000000000e+03 2.105463981628417969e+01 4.492572307586669922e+00 9.529165625572204590e-01 1.173659896850585938e+01 3.806854486465454102e+00 -8.320440053939819336e-01
1.779000000000000000e+03 1.192100811004638672e+01 -1.929862785339355469e+01 5.879709124565124512e-01 2.818269491195678711e+00 1.021872043609619141e+00 1.503413319587707520e+00
1.780000000000000000e+03 1.540884113311767578e+01 1.934093284606933594e+01 5.128491520881652832e-01 5.017168521881103516e+00 1.659005284309387207e+00 -1.850993275642395020e+00
1.781000000000000000e+03 1.604506111145019531e+01 1.739711380004882812e+01 1.051684856414794922e+00 5.865415573120117188e+00 2.075130224227905273e+00 -2.137514829635620117e+00
1.782000000000000000e+03 1.637047004699707031e+01 -1.616247940063476562e+01 7.291357517242431641e-01 5.682009696960449219e+00 1.923343539237976074e+00 1.914752364158630371e+00
1.783000000000000000e+03 1.994393348693847656e+01 -1.082069969177246094e+01 1.012998342514038086e+00 9.184012413024902344e+00 3.059103250503540039e+00 1.727674007415771484e+00
1.784000000000000000e+03 2.296022987365722656e+01 -4.510607242584228516e+00 1.709627985954284668e+00 1.056148815155029297e+01 3.681334733963012695e+00 8.233059644699096680e-01
1.785000000000000000e+03 2.051453971862792969e+01 -7.026515483856201172e+00 1.906610846519470215e+00 1.127770709991455078e+01 3.955295562744140625e+00 1.483260869979858398e+00
1.786000000000000000e+03 1.803864097595214844e+01 1.630401611328125000e+01 9.661626219749450684e-01 7.272469043731689453e+00 2.471589565277099609e+00 -1.760061979293823242e+00
1.787000000000000000e+03 6.603660106658935547e+00 2.119558334350585938e+01 2.832376062870025635e-01 3.501880168914794922e-01 1.900276839733123779e-01 -1.539791673421859741e-01
1.788000000000000000e+03 4.020468235015869141e+00 1.348772716522216797e+01 -2.124732546508312225e-02 5.328859668225049973e-03 -4.775539506226778030e-03 8.756549796089529991e-04
1.789000000000000000e+03 2.011775970458984375e+01 9.420824050903320312e+00 1.365078687667846680e+00 1.067749404907226562e+01 3.612771987915039062e+00 -1.775479793548583984e+00
1.790000000000000000e+03 1.120383930206298828e+01 2.061982727050781250e+01 6.411527395248413086e-01 1.862429499626159668e+00 7.510746717453002930e-01 -1.412796854972839355e+00
1.791000000000000000e+03 4.669651031494140625e+00 -1.240529727935791016e+01 -1.228905376046895981e-02 8.519580587744712830e-04 -3.431128803640604019e-03 2.926871180534362793e-03
1.792000000000000000e+03 2.095796966552734375e+01 9.689203262329101562e+00 1.349056601524353027e+00 1.023530387878417969e+01 3.475308179855346680e+00 -1.395471096038818359e+00
1.793000000000000000e+03 2.078378868103027344e+01 1.255146408081054688e+01 1.188516974449157715e+00 9.161329269409179688e+00 3.104954004287719727e+00 -1.275124430656433105e+00
1.794000000000000000e+03 2.250769805908203125e+01 -1.468674540519714355e+00 1.004390716552734375e+00 1.138935184478759766e+01 3.718122720718383789e+00 5.160164237022399902e-01
1.795000000000000000e+03 1.381174373626708984e+01 -1.869476890563964844e+01 5.467691421508789062e-01 3.948092222213745117e+00 1.348458409309387207e+00 1.667658925056457520e+00
1.796000000000000000e+03 1.740953445434570312e+01 1.713406372070312500e+01 8.387325406074523926e-01 6.723713874816894531e+00 2.268733978271484375e+00 -1.787806630134582520e+00
1.797000000000000000e+03 1.848850631713867188e+01 1.541137695312500000e+01 1.083352804183959961e+00 7.736856460571289062e+00 2.646062850952148438e+00 -1.800134420394897461e+00
1.798000000000000000e+03 1.318413162231445312e+01 -1.933895492553710938e+01 4.832810759544372559e-01 3.552275896072387695e+00 1.210667133331298828e+00 1.583568572998046875e+00
1.799000000000000000e+03 1.159924125671386719e+01 6.550387859344482422e+00 -3.476984857115894556e-04 3.054413245990872383e-04 -1.267714105779305100e-05 5.463153938762843609e-04
1.800000000000000000e+03 2.035132598876953125e+01 1.136194992065429688e+01 1.335916638374328613e+00 9.720741271972656250e+00 3.316997289657592773e+00 -1.543690562248229980e+00
1.801000000000000000e+03 2.083597564697265625e+01 6.147400856018066406e+00 1.011838078498840332e+00 1.154818820953369141e+01 3.768007755279541016e+00 -1.139275670051574707e+00
1.802000000000000000e+03 2.209475135803222656e+01 9.103027343750000000e+00 1.314357042312622070e+00 1.005038833618164062e+01 3.409423589706420898e+00 -1.009755492210388184e+00
1.803000000000000000e+03 1.298510074615478516e+01 2.049433898925781250e+01 5.526961088180541992e-01 3.207346439361572266e+00 1.128012776374816895e+00 -1.746686697006225586e+00
1.804000000000000000e+03 1.267846488952636719e+01 2.122462654113769531e+01 4.394360780715942383e-01 2.959593772888183594e+00 1.019708991050720215e+00 -1.624189257621765137e+00
1.805000000000000000e+03 7.477076721191406250e+01 -3.827505874633789062e+01 -2.512487210333347321e-02 8.066290855407714844e+00 2.412349700927734375e+00 -3.724185377359390259e-02
1.806000000000000000e+03 7.327276611328125000e+01 -3.858224868774414062e+01 -4.721594229340553284e-02 8.026602745056152344e+00 2.393815994262695312e+00 -4.476134851574897766e-02
1.807000000000000000e+03 7.667652893066406250e+01 -4.180731582641601562e+01 -1.515420433133840561e-02 8.119227409362792969e+00 2.431221961975097656e+00 -3.506215987727046013e-03
1.808000000000000000e+03 2.226267433166503906e+01 1.245344996452331543e+00 8.368300795555114746e-01 1.146006393432617188e+01 3.689068317413330078e+00 -1.365468204021453857e-01
1.809000000000000000e+03 3.715610027313232422e+00 4.164406585693359375e+01 -4.732698202133178711e-02 1.063219189643859863e+00 3.047676682472229004e-01 9.821123443543910980e-03
1.810000000000000000e+03 3.708688974380493164e+00 -3.666691970825195312e+01 -5.329857766628265381e-02 1.287777662277221680e+00 3.703437149524688721e-01 1.958352774381637573e-01
1.811000000000000000e+03 3.659923791885375977e+00 -4.055501556396484375e+01 -5.273630470037460327e-02 1.386898636817932129e+00 4.002487063407897949e-01 2.202131785452365875e-02
1.812000000000000000e+03 7.754834747314453125e+01 -3.719900894165039062e+01 -6.172712426632642746e-03 8.122309684753417969e+00 2.434841156005859375e+00 -2.450096420943737030e-02
1.813000000000000000e+03 7.601234436035156250e+01 3.736919784545898438e+01 -1.336123514920473099e-02 7.972188472747802734e+00 2.387648105621337891e+00 3.266772255301475525e-02
1.814000000000000000e+03 4.946265220642089844e+00 3.659103775024414062e+01 -9.500398486852645874e-02 1.366482257843017578e+00 3.814435005187988281e-01 -2.380879074335098267e-01
1.815000000000000000e+03 4.092944622039794922e+00 3.998220062255859375e+01 -6.490661203861236572e-02 1.260181784629821777e+00 3.585825562477111816e-01 -4.569069296121597290e-02
1.816000000000000000e+03 8.088241577148437500e+00 5.194607257843017578e+00 5.593277746811509132e-04 -4.939662758260965347e-04 1.960845111170783639e-05 1.887231337605044246e-04
1.817000000000000000e+03 7.619455337524414062e+00 -2.020665550231933594e+01 5.026725530624389648e-01 5.760398507118225098e-01 3.236137330532073975e-01 5.313967466354370117e-01
1.818000000000000000e+03 2.139104270935058594e+01 7.998647689819335938e+00 1.240811228752136230e+00 1.069333553314208984e+01 3.580244064331054688e+00 -1.214947581291198730e+00
1.819000000000000000e+03 7.357921600341796875e+00 5.225895404815673828e+00 1.472518342779949307e-04 -7.443440845236182213e-04 -1.791276736184954643e-04 5.358430207706987858e-04
1.820000000000000000e+03 1.156827354431152344e+01 2.167572593688964844e+01 4.665326476097106934e-01 2.298958778381347656e+00 8.296474218368530273e-01 -1.420126557350158691e+00
1.821000000000000000e+03 9.660312652587890625e+00 -4.033734798431396484e+00 1.284831232624128461e-04 -4.941130100633017719e-05 2.372154631302691996e-05 -5.077900714240968227e-04
1.822000000000000000e+03 3.771215200424194336e+00 1.505215263366699219e+01 -4.120913520455360413e-02 2.187123149633407593e-02 -5.801370833069086075e-03 1.479678135365247726e-02
1.823000000000000000e+03 8.157394409179687500e+00 1.221257781982421875e+01 -1.987638184800744057e-03 -3.035739762708544731e-03 -1.507013337686657906e-03 1.092712162062525749e-03
1.824000000000000000e+03 8.117509841918945312e+00 1.045569992065429688e+01 -1.475850353017449379e-03 -1.030265237204730511e-03 -7.518346537835896015e-04 6.081177853047847748e-04
1.825000000000000000e+03 7.546494007110595703e+00 1.269612693786621094e+01 -4.061739426106214523e-03 -3.499122103676199913e-03 -2.268258482217788696e-03 -1.793040428310632706e-03
1.826000000000000000e+03 9.795191764831542969e+00 8.143393516540527344e+00 -4.104686668142676353e-04 -2.610493684187531471e-04 -2.014554193010553718e-04 1.155128935351967812e-03
1.827000000000000000e+03 3.656035423278808594e+00 -1.435386180877685547e+01 -3.652021288871765137e-02 2.199712395668029785e-02 -4.356926307082176208e-03 -1.004958711564540863e-02
1.828000000000000000e+03 5.688555240631103516e+00 -1.311829566955566406e+01 -1.118730753660202026e-02 -5.445504095405340195e-03 -4.989843349903821945e-03 1.053611654788255692e-02
1.829000000000000000e+03 8.536317825317382812e+00 -4.782861232757568359e+00 -1.213119030580855906e-04 5.063325515948235989e-04 1.155062054749578238e-04 -1.702791341813281178e-04
1.830000000000000000e+03 2.293355178833007812e+01 3.109640836715698242e+00 1.076544046401977539e+00 1.096419334411621094e+01 3.612221240997314453e+00 -4.032827615737915039e-01
1.831000000000000000e+03 1.001926803588867188e+01 8.806954383850097656e+00 -7.559954538010060787e-04 9.209258714690804482e-04 4.947912384523078799e-05 6.759435054846107960e-04
1.832000000000000000e+03 8.526767730712890625e+00 9.396599769592285156e+00 -6.991110276430845261e-04 -5.100133712403476238e-04 -3.627373080234974623e-04 7.856244919821619987e-04
1.833000000000000000e+03 1.167978000640869141e+01 5.918090343475341797e+00 -1.878911280073225498e-05 5.591058288700878620e-04 1.620950206415727735e-04 3.909396473318338394e-04
1.834000000000000000e+03 2.096215438842773438e+01 -1.334831237792968750e+01 5.570294260978698730e-01 8.236919403076171875e+00 2.638184785842895508e+00 1.122010707855224609e+00
1.835000000000000000e+03 5.893181800842285156e+00 4.600236892700195312e+00 8.437166106887161732e-04 -6.613929872401058674e-04 5.469709867611527443e-05 -3.351877967361360788e-04
1.836000000000000000e+03 3.984191656112670898e+00 6.762292861938476562e+00 -9.291152673540636897e-05 -7.948864949867129326e-04 -2.663393970578908920e-04 -6.387454923242330551e-04
1.837000000000000000e+03 4.328663825988769531e+00 5.640590667724609375e+00 6.387115718098357320e-05 -5.448726005852222443e-04 -1.443004293832927942e-04 -5.878332885913550854e-04
1.838000000000000000e+03 5.301750183105468750e+00 5.279856681823730469e+00 8.924042922444641590e-04 -8.143924642354249954e-04 2.340355240448843688e-05 -5.555351381190121174e-04
1.839000000000000000e+03 8.086751937866210938e+00 4.536663532257080078e+00 1.576745853526517749e-04 -5.071924533694982529e-04 -1.048553604050539434e-04 5.365361575968563557e-04
1.840000000000000000e+03 6.642285346984863281e+00 5.258206367492675781e+00 8.230592939071357250e-04 -7.952799205668270588e-04 8.333805453730747104e-06 -1.706003095023334026e-04
1.841000000000000000e+03 5.954929351806640625e+00 5.268589973449707031e+00 1.386885269312188029e-04 -7.492912700399756432e-04 -1.831808185670524836e-04 1.377365988446399570e-04
1.842000000000000000e+03 6.918893337249755859e+00 1.128223037719726562e+01 -2.869691001251339912e-03 -2.726982114836573601e-03 -1.679001958109438419e-03 -5.286443047225475311e-04
1.843000000000000000e+03 8.734093666076660156e+00 1.177665615081787109e+01 -2.192499348893761635e-03 2.828790165949612856e-04 -5.728860851377248764e-04 3.355127992108464241e-04
1.844000000000000000e+03 8.822897911071777344e+00 5.175961017608642578e+00 2.684556602616794407e-05 -4.744424950331449509e-04 -1.342790783382952213e-04 7.407052326016128063e-04
1.845000000000000000e+03 7.566097259521484375e+01 -3.110252189636230469e+01 -1.370562892407178879e-02 7.989612102508544922e+00 2.392771959304809570e+00 -8.749250322580337524e-02
1.846000000000000000e+03 4.214768886566162109e+00 3.267431640625000000e+01 -2.901645377278327942e-02 9.509658813476562500e-01 2.765848338603973389e-01 -2.759533226490020752e-01
1.847000000000000000e+03 6.375962257385253906e+00 1.413383197784423828e+01 -1.477417908608913422e-02 -7.704459596425294876e-03 -6.743591744452714920e-03 -1.024660654366016388e-02
1.848000000000000000e+03 8.343097686767578125e+00 -5.645913600921630859e+00 -7.592792826471850276e-05 4.904523375444114208e-04 1.243573206011205912e-04 -4.314256657380610704e-04
1.849000000000000000e+03 7.527920532226562500e+01 3.097369956970214844e+01 -1.507632061839103699e-02 7.884493350982666016e+00 2.360825061798095703e+00 8.840456604957580566e-02
1.850000000000000000e+03 7.576314544677734375e+01 3.289562225341796875e+01 -1.706556975841522217e-02 7.920103073120117188e+00 2.370911359786987305e+00 6.866709887981414795e-02
1.851000000000000000e+03 7.469663238525390625e+01 3.262220382690429688e+01 -2.206251770257949829e-02 7.901561260223388672e+00 2.363849639892578125e+00 8.524301648139953613e-02
1.852000000000000000e+03 1.584540462493896484e+01 -1.819786834716796875e+01 3.722481727600097656e-01 5.121555805206298828e+00 1.648141145706176758e+00 1.647160530090332031e+00
1.853000000000000000e+03 4.885909080505371094e+00 -2.911619186401367188e+01 -1.044205622747540474e-03 1.141078948974609375e+00 3.420104384422302246e-01 3.832810819149017334e-01
1.854000000000000000e+03 7.548764038085937500e+01 2.947108840942382812e+01 -1.005136966705322266e-02 7.862607955932617188e+00 2.355767011642456055e+00 9.189146757125854492e-02
1.855000000000000000e+03 7.649104309082031250e+01 -2.803842544555664062e+01 -6.175563670694828033e-03 7.951179504394531250e+00 2.383501052856445312e+00 -8.398218452930450439e-02
1.856000000000000000e+03 7.567289733886718750e+01 -2.895829010009765625e+01 -9.442406706511974335e-03 7.956476211547851562e+00 2.384109973907470703e+00 -9.525475651025772095e-02
1.857000000000000000e+03 1.042329025268554688e+01 7.652667999267578125e+00 -6.219914066605269909e-04 6.299380911514163017e-04 2.384000708843814209e-06 8.579997811466455460e-04
1.858000000000000000e+03 1.939091491699218750e+01 -1.380633544921875000e+01 6.376465559005737305e-01 7.702120780944824219e+00 2.501930236816406250e+00 1.589466094970703125e+00
1.859000000000000000e+03 9.083511352539062500e+00 1.079032325744628906e+01 -1.483445055782794952e-03 6.013585370965301991e-04 -2.646259672474116087e-04 6.106049986556172371e-04
1.860000000000000000e+03 7.506936645507812500e+01 -2.324603080749511719e+01 -6.485470570623874664e-03 7.835237979888916016e+00 2.348625659942626953e+00 -1.300959587097167969e-01
1.861000000000000000e+03 4.028020858764648438e+00 2.425788879394531250e+01 1.342204660177230835e-01 3.328797817230224609e-01 1.401300728321075439e-01 -1.282620728015899658e-01
1.862000000000000000e+03 7.507159423828125000e+01 -3.001334381103515625e+01 -1.395590044558048248e-02 7.964951515197753906e+00 2.385298728942871094e+00 -1.010930538177490234e-01
1.863000000000000000e+03 7.476637268066406250e+01 2.461386489868164062e+01 -5.937571171671152115e-03 7.773751258850097656e+00 2.330344200134277344e+00 1.206012368202209473e-01
1.864000000000000000e+03 7.561209106445312500e+01 2.391037178039550781e+01 -3.250081324949860573e-03 7.761857032775878906e+00 2.327582120895385742e+00 1.057623773813247681e-01
1.865000000000000000e+03 3.949452400207519531e+00 -2.193591117858886719e+01 1.565701216459274292e-01 3.036492168903350830e-01 1.380658000707626343e-01 1.084410995244979858e-01
1.866000000000000000e+03 7.590054321289062500e+01 -2.163490295410156250e+01 -2.695209812372922897e-03 7.802685260772705078e+00 2.339997053146362305e+00 -1.149225458502769470e-01
1.867000000000000000e+03 7.563040924072265625e+01 2.232661247253417969e+01 -1.258155563846230507e-03 7.730698585510253906e+00 2.318832159042358398e+00 1.070008575916290283e-01
1.868000000000000000e+03 4.327771663665771484e+00 -2.599942588806152344e+01 7.487235218286514282e-02 7.583282589912414551e-01 2.499601840972900391e-01 3.284696936607360840e-01
1.869000000000000000e+03 4.174616336822509766e+00 -2.351283264160156250e+01 1.399202197790145874e-01 4.813518524169921875e-01 1.863816231489181519e-01 2.186051160097122192e-01
1.870000000000000000e+03 7.652755737304687500e+01 1.926820945739746094e+01 2.015071688219904900e-03 7.663846969604492188e+00 2.299758672714233398e+00 8.764031529426574707e-02
1.871000000000000000e+03 7.594844055175781250e+01 -1.689166641235351562e+01 3.977962303906679153e-03 7.691365242004394531e+00 2.308603048324584961e+00 -1.117042377591133118e-01
1.872000000000000000e+03 7.572839355468750000e+01 1.835260009765625000e+01 4.312130156904459000e-03 7.650306224822998047e+00 2.296385526657104492e+00 1.026101410388946533e-01
1.873000000000000000e+03 7.576456451416015625e+01 1.593340206146240234e+01 7.475893944501876831e-03 7.603247642517089844e+00 2.283217191696166992e+00 9.581472724676132202e-02
1.874000000000000000e+03 7.640737152099609375e+01 2.644083404541015625e+01 -4.656129982322454453e-03 7.815907001495361328e+00 2.343375205993652344e+00 8.505547791719436646e-02
1.875000000000000000e+03 7.586362457275390625e+01 1.110125541687011719e+01 1.271384488791227341e-02 7.520958900451660156e+00 2.260101795196533203e+00 7.234404981136322021e-02
1.876000000000000000e+03 7.591101074218750000e+01 7.900759220123291016e+00 1.547008194029331207e-02 7.479988574981689453e+00 2.248637676239013672e+00 5.113255605101585388e-02
1.877000000000000000e+03 7.577886962890625000e+01 1.512656974792480469e+01 8.411864750087261200e-03 7.588281154632568359e+00 2.279007911682128906e+00 9.269788861274719238e-02
1.878000000000000000e+03 7.656998443603515625e+01 1.605230903625488281e+01 4.949403926730155945e-03 7.596474647521972656e+00 2.280427217483520508e+00 8.064691722393035889e-02
1.879000000000000000e+03 7.573847198486328125e+01 1.754220581054687500e+01 5.324499215930700302e-03 7.634297370910644531e+00 2.291886568069458008e+00 1.007557213306427002e-01
1.880000000000000000e+03 7.655832672119140625e+01 1.685407066345214844e+01 4.218254704028367996e-03 7.612805843353271484e+00 2.285107374191284180e+00 8.284062147140502930e-02
1.881000000000000000e+03 7.596380615234375000e+01 -1.452004623413085938e+01 7.356155198067426682e-03 7.638110160827636719e+00 2.293639898300170898e+00 -1.050807684659957886e-01
1.882000000000000000e+03 7.667608642578125000e+01 -1.918385505676269531e+01 5.612408276647329330e-04 7.744197368621826172e+00 2.323427438735961914e+00 -9.687395393848419189e-02
1.883000000000000000e+03 7.647032928466796875e+01 2.244469261169433594e+01 -8.015656494535505772e-04 7.732651710510253906e+00 2.319555044174194336e+00 8.969085663557052612e-02
1.884000000000000000e+03 7.561304473876953125e+01 2.311136245727539062e+01 -2.190201776102185249e-03 7.746387958526611328e+00 2.323259353637695312e+00 1.068709790706634521e-01
1.885000000000000000e+03 5.122088432312011719e+00 -3.095376014709472656e+01 -3.721669316291809082e-02 1.342695355415344238e+00 3.916435837745666504e-01 3.744595348834991455e-01
1.886000000000000000e+03 7.591365814208984375e+01 7.105704307556152344e+00 1.600039377808570862e-02 7.472217559814453125e+00 2.246465444564819336e+00 4.540287330746650696e-02
1.887000000000000000e+03 7.588092803955078125e+01 1.029768657684326172e+01 1.351733040064573288e-02 7.509324073791503906e+00 2.256852388381958008e+00 6.738450378179550171e-02
1.888000000000000000e+03 7.652931976318359375e+01 -2.560573196411132812e+01 -5.194918718189001083e-03 7.899007320404052734e+00 2.368143796920776367e+00 -9.200892597436904907e-02
1.889000000000000000e+03 7.596200561523437500e+01 -7.307794570922851562e+00 1.478825137019157410e-02 7.506488800048828125e+00 2.256383180618286133e+00 -6.736659258604049683e-02
1.890000000000000000e+03 7.671539306640625000e+01 -6.394713878631591797e+00 1.051711384207010269e-02 7.478280067443847656e+00 2.246639013290405273e+00 -5.121519044041633606e-02
1.891000000000000000e+03 7.596488952636718750e+01 -6.508342742919921875e+00 1.539159286767244339e-02 7.495732307434082031e+00 2.253337144851684570e+00 -6.179420650005340576e-02
1.892000000000000000e+03 7.666198730468750000e+01 8.819954872131347656e+00 1.011035963892936707e-02 7.474314689636230469e+00 2.245327472686767578e+00 4.847838357090950012e-02
1.893000000000000000e+03 7.595065307617187500e+01 -3.301870346069335938e+00 1.716002821922302246e-02 7.462926387786865234e+00 2.244025945663452148e+00 -3.774705529212951660e-02
1.894000000000000000e+03 7.515959167480468750e+01 2.995531558990478516e+00 2.434240281581878662e-02 7.464492321014404297e+00 2.246650457382202148e+00 1.561148185282945633e-02
1.895000000000000000e+03 7.594596099853515625e+01 7.081464529037475586e-01 1.792984642088413239e-02 7.444954872131347656e+00 2.238865375518798828e+00 -5.158705171197652817e-03
1.896000000000000000e+03 7.595556640625000000e+01 -8.108802795410156250e+00 1.423098798841238022e-02 7.518216133117675781e+00 2.259734153747558594e+00 -7.284875214099884033e-02
1.897000000000000000e+03 7.566520690917968750e+01 2.155323028564453125e+01 -1.259532727999612689e-04 7.715171337127685547e+00 2.314513683319091797e+00 1.067826673388481140e-01
1.898000000000000000e+03 1.102884101867675781e+01 5.215380191802978516e+00 1.237004180438816547e-04 2.973783994093537331e-04 1.263236481463536620e-04 4.145878483541309834e-04
1.899000000000000000e+03 1.095184040069580078e+01 5.885020732879638672e+00 -2.790061407722532749e-04 7.148867007344961166e-05 -6.225524703040719032e-05 7.376535213552415371e-04
1.900000000000000000e+03 7.594702911376953125e+01 -9.715864181518554688e+00 1.283284462988376617e-02 7.544226646423339844e+00 2.267117738723754883e+00 -8.300445973873138428e-02
1.901000000000000000e+03 7.669409179687500000e+01 1.619736671447753906e+00 1.221182849258184433e-02 7.425841331481933594e+00 2.231415987014770508e+00 2.010031137615442276e-03
1.902000000000000000e+03 7.593544006347656250e+01 2.309168100357055664e+00 1.780120283365249634e-02 7.445586681365966797e+00 2.239016532897949219e+00 8.002239279448986053e-03
1.903000000000000000e+03 3.517117738723754883e+00 2.675303268432617188e+01 6.536094099283218384e-02 4.077107012271881104e-01 1.419214904308319092e-01 -1.899948567152023315e-01
1.904000000000000000e+03 4.017675399780273438e+00 2.946797180175781250e+01 3.067467734217643738e-02 7.340220808982849121e-01 2.294090241193771362e-01 -2.739416658878326416e-01
1.905000000000000000e+03 7.670845794677734375e+01 -1.361222171783447266e+01 5.833985749632120132e-03 7.610375881195068359e+00 2.284862995147705078e+00 -8.573613315820693970e-02
1.906000000000000000e+03 4.134503364562988281e+00 -6.088830947875976562e+00 1.325827324762940407e-04 -3.626421676017343998e-04 -6.901782762724906206e-05 1.648623219807632267e-05
1.907000000000000000e+03 7.665891265869140625e+01 -2.077668762207031250e+01 -1.044770120643079281e-03 7.784063339233398438e+00 2.334905624389648438e+00 -9.725833684206008911e-02
1.908000000000000000e+03 7.671001434326171875e+01 -4.792603969573974609e+00 1.122061163187026978e-02 7.459015369415283203e+00 2.241070747375488281e+00 -4.134590178728103638e-02
1.909000000000000000e+03 7.595580291748046875e+01 -4.106079578399658203e+00 1.683606393635272980e-02 7.469566822052001953e+00 2.245920896530151367e+00 -4.396039992570877075e-02
1.910000000000000000e+03 7.668891143798828125e+01 2.421744823455810547e+00 1.209320966154336929e-02 7.426982879638671875e+00 2.231722831726074219e+00 7.509198971092700958e-03
1.911000000000000000e+03 7.516747283935546875e+01 2.194622755050659180e+00 2.453546039760112762e-02 7.462845325469970703e+00 2.246214389801025391e+00 8.065389469265937805e-03
1.912000000000000000e+03 7.635530090332031250e+01 2.883585357666015625e+01 -6.041385699063539505e-03 7.860857486724853516e+00 2.356444835662841797e+00 7.941167801618576050e-02
1.913000000000000000e+03 7.596423339843750000e+01 -1.372308349609375000e+01 8.106327615678310394e-03 7.621028423309326172e+00 2.288740396499633789e+00 -1.021508201956748962e-01
1.914000000000000000e+03 7.595907592773437500e+01 -1.212169170379638672e+01 1.009506732225418091e-02 7.588346004486083984e+00 2.279532432556152344e+00 -9.544456005096435547e-02
1.915000000000000000e+03 7.670809936523437500e+01 -1.281014060974121094e+01 6.319055799394845963e-03 7.592711448669433594e+00 2.279709100723266602e+00 -8.291312307119369507e-02
1.916000000000000000e+03 7.543669128417968750e+01 3.022390937805175781e+01 -1.293490827083587646e-02 7.874216079711914062e+00 2.358384370803833008e+00 8.932836353778839111e-02
1.917000000000000000e+03 7.563906860351562500e+01 -2.815917205810546875e+01 -1.003911532461643219e-02 7.941525459289550781e+00 2.379445791244506836e+00 -1.003770455718040466e-01
1.918000000000000000e+03 7.579723358154296875e+01 -2.403274154663085938e+01 -5.708643235266208649e-03 7.857237339019775391e+00 2.355458498001098633e+00 -1.121018752455711365e-01
1.919000000000000000e+03 7.591690063476562500e+01 4.713057518005371094e+00 1.710020750761032104e-02 7.454604625701904297e+00 2.241511344909667969e+00 2.726929262280464172e-02
1.920000000000000000e+03 7.594435882568359375e+01 -2.498477935791015625e+00 1.747389137744903564e-02 7.457297325134277344e+00 2.242431402206420898e+00 -3.135189041495323181e-02
1.921000000000000000e+03 7.593405151367187500e+01 -1.926209640502929688e+01 9.963500779122114182e-04 7.746732711791992188e+00 2.324318647384643555e+00 -1.147048622369766235e-01
1.922000000000000000e+03 7.592926788330078125e+01 -2.004855728149414062e+01 -3.884983016178011894e-04 7.765273094177246094e+00 2.329465389251708984e+00 -1.150993332266807556e-01
1.923000000000000000e+03 7.594860076904296875e+01 -1.051812839508056641e+01 1.192407216876745224e-02 7.558216094970703125e+00 2.271042108535766602e+00 -8.747741580009460449e-02
1.924000000000000000e+03 7.649229431152343750e+01 -2.724052238464355469e+01 -6.285779643803834915e-03 7.934716224670410156e+00 2.378529071807861328e+00 -8.734674751758575439e-02
1.925000000000000000e+03 7.591937255859375000e+01 -2.083739471435546875e+01 -1.283008954487740993e-03 7.783801555633544922e+00 2.334755420684814453e+00 -1.149197518825531006e-01
1.926000000000000000e+03 7.594998931884765625e+01 -8.911880493164062500e+00 1.351196598261594772e-02 7.530795097351074219e+00 2.263292074203491211e+00 -7.803630083799362183e-02
1.927000000000000000e+03 7.594464111328125000e+01 -9.099216014146804810e-02 1.789335720241069794e-02 7.446491718292236328e+00 2.239315509796142578e+00 -1.179407630115747452e-02
1.928000000000000000e+03 7.594171905517578125e+01 -8.916311860084533691e-01 1.784962043166160583e-02 7.449057102203369141e+00 2.240072011947631836e+00 -1.831894367933273315e-02
1.929000000000000000e+03 7.591338348388671875e+01 6.308835029602050781e+00 1.642812602221965790e-02 7.465383052825927734e+00 2.244543313980102539e+00 3.951079770922660828e-02
1.930000000000000000e+03 7.584224700927734375e+01 1.190252017974853516e+01 1.194099150598049164e-02 7.533174037933349609e+00 2.263534545898437500e+00 7.709380239248275757e-02
1.931000000000000000e+03 3.436427116394042969e+00 2.132243537902832031e+01 6.506320089101791382e-02 9.105976670980453491e-02 4.683689028024673462e-02 6.088455021381378174e-02
1.932000000000000000e+03 3.549804925918579102e+00 2.202998352050781250e+01 8.460641652345657349e-02 1.136186420917510986e-01 5.946751683950424194e-02 2.801562286913394928e-02
1.933000000000000000e+03 7.591397857666015625e+01 5.511134624481201172e+00 1.685456000268459320e-02 7.459531307220458984e+00 2.242915630340576172e+00 3.345205262303352356e-02
1.934000000000000000e+03 7.578913879394531250e+01 1.431672096252441406e+01 9.393926709890365601e-03 7.573709011077880859e+00 2.274930953979492188e+00 8.938184380531311035e-02
1.935000000000000000e+03 7.580165100097656250e+01 1.350825500488281250e+01 1.028845924884080887e-02 7.559635162353515625e+00 2.270977020263671875e+00 8.561117202043533325e-02
1.936000000000000000e+03 7.594351959228515625e+01 -1.768140411376953125e+01 3.214856376871466637e-03 7.709677696228027344e+00 2.313867807388305664e+00 -1.130638271570205688e-01
1.937000000000000000e+03 4.621732711791992188e+00 -1.915215492248535156e+01 6.424105167388916016e-02 1.823902279138565063e-01 7.398938387632369995e-02 -4.105809703469276428e-02
1.938000000000000000e+03 7.569928741455078125e+01 -2.650332450866699219e+01 -8.933820761740207672e-03 7.908823966979980469e+00 2.369966983795166016e+00 -1.070553213357925415e-01
1.939000000000000000e+03 7.467727661132812500e+01 -3.422185134887695312e+01 -2.611875534057617188e-02 8.015479087829589844e+00 2.396808147430419922e+00 -7.962173223495483398e-02
1.940000000000000000e+03 7.653038787841796875e+01 -3.256063079833984375e+01 -1.149088609963655472e-02 8.034271240234375000e+00 2.406833887100219727e+00 -6.545441597700119019e-02
1.941000000000000000e+03 7.571543121337890625e+01 1.916346168518066406e+01 3.194742836058139801e-03 7.666276931762695312e+00 2.300841569900512695e+00 1.042656451463699341e-01
1.942000000000000000e+03 7.595333862304687500e+01 -1.610322570800781250e+01 5.351710133254528046e-03 7.673307895660400391e+00 2.303597927093505859e+00 -1.098392680287361145e-01
1.943000000000000000e+03 3.573580265045166016e+00 -1.858962059020996094e+01 6.985714193433523178e-03 9.722515940666198730e-02 3.126326203346252441e-02 -7.521201670169830322e-02
1.944000000000000000e+03 3.898745536804199219e+00 -1.670185470581054688e+01 -6.095925346016883850e-02 8.762452006340026855e-02 7.999579422175884247e-03 -5.257216840982437134e-02
1.945000000000000000e+03 7.561368560791015625e+01 2.471194458007812500e+01 -4.108492750674486160e-03 7.777834415435791016e+00 2.332117795944213867e+00 1.048719137907028198e-01
1.946000000000000000e+03 3.192915439605712891e+00 1.717969131469726562e+01 -4.951863363385200500e-02 3.510040044784545898e-02 -4.325469955801963806e-03 6.453448534011840820e-02
1.947000000000000000e+03 4.529745578765869141e+00 1.898141288757324219e+01 -2.185032889246940613e-02 1.330320984125137329e-01 3.335453197360038757e-02 9.226942807435989380e-02
1.948000000000000000e+03 3.575876951217651367e+00 1.957511901855468750e+01 6.540516391396522522e-03 7.760218530893325806e-02 2.524281106889247894e-02 9.715775400400161743e-02
1.949000000000000000e+03 3.721074581146240234e+00 -8.736828804016113281e+00 -9.698898793430998921e-05 -1.854706672020256519e-03 -5.855087074451148510e-04 2.117919575539417565e-05
1.950000000000000000e+03 4.104712009429931641e+00 -6.856066226959228516e+00 4.965876578353345394e-04 -8.824533433653414249e-04 -1.157596925622783601e-04 5.567951011471450329e-04
1.951000000000000000e+03 6.219278812408447266e+00 1.724487686157226562e+01 -1.391484737396240234e-01 5.932566523551940918e-02 -2.394684404134750366e-02 -6.652592122554779053e-02
1.952000000000000000e+03 3.942451715469360352e+00 -1.245587825775146484e+01 -1.350988820195198059e-02 3.267797874286770821e-03 -3.072627121582627296e-03 -1.232376438565552235e-03
1.953000000000000000e+03 3.042550325393676758e+00 -1.216381549835205078e+01 -8.630357682704925537e-03 4.140634555369615555e-04 -2.464888151735067368e-03 -3.063231706619262695e-03
1.954000000000000000e+03 7.583708953857421875e+01 -2.323147773742675781e+01 -4.831683821976184845e-03 7.839335441589355469e+00 2.350351095199584961e+00 -1.136850044131278992e-01
1.955000000000000000e+03 3.824814081192016602e+00 -1.329552745819091797e+01 -2.251686528325080872e-02 9.805433452129364014e-03 -3.813429269939661026e-03 -2.571596298366785049e-03
1.956000000000000000e+03 4.734202384948730469e+00 -1.330217933654785156e+01 -2.098197117447853088e-02 5.510046146810054779e-03 -4.641577601432800293e-03 6.245433818548917770e-03
1.957000000000000000e+03 3.567492008209228516e+00 -1.221089839935302734e+01 -1.044975314289331436e-02 1.758442260324954987e-03 -2.607393311336636543e-03 -2.187414094805717468e-03
1.958000000000000000e+03 3.321584463119506836e+00 1.534684562683105469e+01 -3.520478308200836182e-02 1.580047421157360077e-02 -5.821292288601398468e-03 2.353939414024353027e-02
1.959000000000000000e+03 4.674948692321777344e+00 1.611968421936035156e+01 -7.487434893846511841e-02 5.171393230557441711e-02 -6.948125082999467850e-03 6.163910962641239166e-03
1.960000000000000000e+03 3.237441062927246094e+00 -1.365830612182617188e+01 -2.355070784687995911e-02 9.099761955440044403e-03 -4.335283767431974411e-03 -1.011387538164854050e-02
1.961000000000000000e+03 4.225105762481689453e+00 -1.490766429901123047e+01 -5.340415984392166138e-02 3.535123541951179504e-02 -5.415876861661672592e-03 -2.852862526196986437e-04
1.962000000000000000e+03 7.569438171386718750e+01 2.076951789855957031e+01 8.774582529440522194e-04 7.699040412902832031e+00 2.309975385665893555e+00 1.059772074222564697e-01
1.963000000000000000e+03 7.570656585693359375e+01 1.997016716003417969e+01 1.947826589457690716e-03 7.682843685150146484e+00 2.305437564849853516e+00 1.054738610982894897e-01
1.964000000000000000e+03 3.378606319427490234e+00 -1.061210441589355469e+01 -2.577440580353140831e-03 -1.594780944287776947e-03 -1.251666457392275333e-03 -5.853877883055247366e-05
1.965000000000000000e+03 2.998835802078247070e+00 -1.833669471740722656e+01 -6.514966487884521484e-03 5.232728272676467896e-02 1.374369487166404724e-02 -8.592438697814941406e-02
1.966000000000000000e+03 3.476710796356201172e+00 -2.452713775634765625e+01 8.633746206760406494e-02 4.256672561168670654e-01 1.536014080047607422e-01 2.034206688404083252e-01
1.967000000000000000e+03 4.248550891876220703e+00 -2.433596038818359375e+01 1.249573081731796265e-01 5.663818120956420898e-01 2.074017375707626343e-01 2.649811506271362305e-01
1.968000000000000000e+03 4.273046970367431641e+00 -2.517812538146972656e+01 1.045844107866287231e-01 6.651262044906616211e-01 2.309131771326065063e-01 3.042498826980590820e-01
1.969000000000000000e+03 5.623093128204345703e+00 1.421837234497070312e+01 -2.201022021472454071e-02 -1.247314619831740856e-03 -6.977260578423738480e-03 -1.548391301184892654e-02
1.970000000000000000e+03 6.872833251953125000e+00 1.308511924743652344e+01 -6.690132897347211838e-03 -6.472976412624120712e-03 -3.948932979255914688e-03 -2.318048616871237755e-03
1.971000000000000000e+03 5.793943881988525391e+00 -1.146298027038574219e+01 -3.682034322991967201e-03 -1.412149635143578053e-03 -1.528255175799131393e-03 1.587077975273132324e-03
1.972000000000000000e+03 4.593847751617431641e+00 1.519635772705078125e+01 -5.177964270114898682e-02 2.992267534136772156e-02 -6.557090673595666885e-03 2.613871823996305466e-03
1.973000000000000000e+03 4.718900680541992188e+00 -1.000641918182373047e+01 -1.332808402366936207e-03 -2.868864685297012329e-03 -1.260501914657652378e-03 8.342134242411702871e-05
1.974000000000000000e+03 3.161089181900024414e+00 -9.040777206420898438e+00 -1.803518243832513690e-04 -9.459685534238815308e-04 -3.378961118869483471e-04 6.123937200754880905e-04
1.975000000000000000e+03 4.116271018981933594e+00 1.648743247985839844e+01 -6.679300218820571899e-02 5.020936578512191772e-02 -4.975090268999338150e-03 2.568820677697658539e-02
1.976000000000000000e+03 3.663272142410278320e+00 1.592043972015380859e+01 -5.557584762573242188e-02 3.397182375192642212e-02 -6.481207907199859619e-03 2.616600878536701202e-02
1.977000000000000000e+03 3.019547939300537109e+00 1.078601932525634766e+01 -1.024841680191457272e-03 -1.627053134143352509e-03 -7.955684559419751167e-04 -9.074875852093100548e-04
1.978000000000000000e+03 5.601438522338867188e+00 1.911730003356933594e+01 -2.443851158022880554e-02 1.982592195272445679e-01 5.214621126651763916e-02 6.799159198999404907e-02
1.979000000000000000e+03 5.472879886627197266e+00 1.345873546600341797e+01 -1.720337755978107452e-02 -1.706242037471383810e-04 -5.212200339883565903e-03 -5.014647264033555984e-03
1.980000000000000000e+03 6.154750347137451172e+00 -3.078598213195800781e+01 -6.285588443279266357e-02 1.603924036026000977e+00 4.623204171657562256e-01 4.383050203323364258e-01
1.981000000000000000e+03 4.554658889770507812e+00 9.140658378601074219e+00 -1.180612831376492977e-03 -1.938548288308084011e-03 -9.357483359053730965e-04 -3.052359679713845253e-04
1.982000000000000000e+03 7.223238468170166016e+00 1.197305965423583984e+01 -3.164782887324690819e-03 -4.582145716995000839e-03 -2.324078464880585670e-03 4.300525179132819176e-04
1.983000000000000000e+03 4.202704906463623047e+00 -3.415079879760742188e+01 -5.325488373637199402e-02 1.270951032638549805e+00 3.653088510036468506e-01 2.556646168231964111e-01
1.984000000000000000e+03 5.394581794738769531e+00 -3.432019424438476562e+01 -8.131206780672073364e-02 1.562112092971801758e+00 4.442400038242340088e-01 2.991195917129516602e-01
1.985000000000000000e+03 3.174843311309814453e+00 8.024123191833496094e+00 9.525749483145773411e-04 -5.819519283249974251e-04 1.111869132728315890e-04 -1.136409118771553040e-03
1.986000000000000000e+03 3.831375122070312500e+00 8.955586433410644531e+00 5.696387379430234432e-04 -1.604936667717993259e-03 -3.105893847532570362e-04 -8.268923265859484673e-04
1.987000000000000000e+03 3.621225357055664062e+00 2.056547164916992188e+01 4.081520065665245056e-02 9.441508352756500244e-02 4.056908562779426575e-02 7.889131456613540649e-02
1.988000000000000000e+03 4.113223552703857422e+00 6.147744178771972656e+00 1.050426159054040909e-03 -6.988375680521130562e-04 1.054765816661529243e-04 -7.569217123091220856e-04
1.989000000000000000e+03 3.450289726257324219e+00 2.591407012939453125e+01 8.397145569324493408e-02 3.406496644020080566e-01 1.273863315582275391e-01 -1.589076668024063110e-01
1.990000000000000000e+03 4.243737220764160156e+00 2.859675216674804688e+01 4.644118994474411011e-02 7.329866886138916016e-01 2.338283658027648926e-01 -2.825792133808135986e-01
1.991000000000000000e+03 3.684274435043334961e+00 3.487258148193359375e+01 -5.474022030830383301e-02 9.640634655952453613e-01 2.727969586849212646e-01 -2.190200239419937134e-01
1.992000000000000000e+03 3.737547636032104492e+00 3.188498878479003906e+01 -1.365798525512218475e-02 8.056547641754150391e-01 2.375990301370620728e-01 -2.568858265876770020e-01
1.993000000000000000e+03 4.464141368865966797e+00 3.132958793640136719e+01 -5.260450416244566441e-04 9.515060186386108398e-01 2.852939963340759277e-01 -3.070034384727478027e-01
1.994000000000000000e+03 3.233446836471557617e+00 -2.043133926391601562e+01 7.703823596239089966e-02 1.117267832159996033e-01 5.662950873374938965e-02 -2.919664233922958374e-02
1.995000000000000000e+03 3.369202136993408203e+00 2.507491493225097656e+01 8.827085047960281372e-02 2.656380832195281982e-01 1.061726808547973633e-01 -1.213480010628700256e-01
1.996000000000000000e+03 4.413318157196044922e+00 2.669863891601562500e+01 9.584157913923263550e-02 6.199554204940795898e-01 2.147390991449356079e-01 -2.637379765510559082e-01
1.997000000000000000e+03 4.384707927703857422e+00 2.763561058044433594e+01 7.070423662662506104e-02 6.879406571388244629e-01 2.275934666395187378e-01 -2.809897661209106445e-01
1.998000000000000000e+03 3.918538570404052734e+00 7.445781230926513672e+00 1.053331652656197548e-03 -1.015510526485741138e-03 1.134636204369599000e-05 -8.961060084402561188e-04
1.999000000000000000e+03 5.360145092010498047e+00 -3.308271026611328125e+01 -7.104979455471038818e-02 1.508780479431152344e+00 4.313192367553710938e-01 3.329594135284423828e-01
2.000000000000000000e+03 7.551052856445312500e+01 2.870399284362792969e+01 -9.503896348178386688e-03 7.850727081298828125e+00 2.352366924285888672e+00 9.398985654115676880e-02
2.001000000000000000e+03 7.553431701660156250e+01 2.792428398132324219e+01 -8.198612369596958160e-03 7.837654113769531250e+00 2.348836660385131836e+00 9.705874323844909668e-02
2.002000000000000000e+03 4.444311141967773438e+00 -2.678159713745117188e+01 4.793506860733032227e-02 8.532320857048034668e-01 2.703501582145690918e-01 3.494577705860137939e-01
2.003000000000000000e+03 7.560935974121093750e+01 2.551411247253417969e+01 -5.552519578486680984e-03 7.793230056762695312e+00 2.336303234100341797e+00 1.030473560094833374e-01
2.004000000000000000e+03 4.102705478668212891e+00 2.500227165222167969e+01 1.225289106369018555e-01 4.030945897102355957e-01 1.576870530843734741e-01 -1.687186509370803833e-01
2.005000000000000000e+03 5.876905918121337891e+00 -2.024452209472656250e+01 2.865012586116790771e-01 3.329474627971649170e-01 1.858346164226531982e-01 1.613700836896896362e-01
2.006000000000000000e+03 4.599581718444824219e+00 -2.753843498229980469e+01 3.067561052739620209e-02 9.641439914703369141e-01 2.984458804130554199e-01 3.648359775543212891e-01
2.007000000000000000e+03 3.569511175155639648e+00 2.287541580200195312e+01 1.148949488997459412e-01 1.613536179065704346e-01 8.287457376718521118e-02 -1.823433488607406616e-02
2.008000000000000000e+03 6.774996280670166016e+00 -3.586569595336914062e+01 -1.414330303668975830e-01 1.895173668861389160e+00 5.261222124099731445e-01 2.722715139389038086e-01
2.009000000000000000e+03 7.651025390625000000e+01 -3.181407928466796875e+01 -1.042252779006958008e-02 8.021468162536621094e+00 2.403313875198364258e+00 -6.933861225843429565e-02
2.010000000000000000e+03 7.570649719238281250e+01 -3.036615753173828125e+01 -1.164979021996259689e-02 7.979791641235351562e+00 2.390442609786987305e+00 -8.969888091087341309e-02
2.011000000000000000e+03 6.168000221252441406e+00 -1.937341308593750000e+01 2.232558429241180420e-01 2.502492070198059082e-01 1.420515179634094238e-01 8.450177311897277832e-02
2.012000000000000000e+03 4.780493259429931641e+00 -1.822806739807128906e+01 -1.050416380167007446e-02 1.547823697328567505e-01 4.328346252441406250e-02 -4.801819473505020142e-02
2.013000000000000000e+03 4.054125308990478516e+00 3.063847351074218750e+01 6.644906941801309586e-03 8.126006722450256348e-01 2.457736730575561523e-01 -2.738527357578277588e-01
2.014000000000000000e+03 9.509167671203613281e+00 7.587027072906494141e+00 -2.870534081012010574e-04 8.006516873138025403e-05 -6.209647108335047960e-05 6.331545882858335972e-04
2.015000000000000000e+03 8.383898735046386719e+00 -6.580593109130859375e+00 -1.408548996550962329e-04 6.253931787796318531e-04 1.453614822821691632e-04 -6.541719776578247547e-04
2.016000000000000000e+03 6.283799648284912109e+00 1.882873535156250000e+01 -5.576778575778007507e-02 1.376344263553619385e-01 2.455999143421649933e-02 1.308892481029033661e-02
2.017000000000000000e+03 6.748399734497070312e+00 2.033178138732910156e+01 2.104295045137405396e-01 2.843266725540161133e-01 1.484268605709075928e-01 -7.092627882957458496e-02
2.018000000000000000e+03 3.851020574569702148e+00 -4.384964942932128906e+00 3.902021853718906641e-04 -5.855043418705463409e-04 -5.859064913238398731e-05 2.011686301557347178e-04
2.019000000000000000e+03 4.762391090393066406e+00 -6.164623260498046875e+00 6.543909548781812191e-04 -1.096974709071218967e-03 -1.327751233475282788e-04 2.806046977639198303e-04
2.020000000000000000e+03 7.864450931549072266e+00 -5.156343460083007812e+00 1.689666823949664831e-04 -6.325436988845467567e-04 -1.390731049468740821e-04 -3.759947721846401691e-04
2.021000000000000000e+03 7.600273609161376953e+00 -4.525843620300292969e+00 5.750684067606925964e-05 1.120377346524037421e-04 5.086337478132918477e-05 6.229036807781085372e-05
2.022000000000000000e+03 5.870900154113769531e+00 -5.229961872100830078e+00 2.033387318078894168e-05 -3.370136255398392677e-05 -4.010246357211144641e-06 -2.599789295345544815e-04
2.023000000000000000e+03 7.239227771759033203e+00 -5.732295513153076172e+00 -9.019255230668932199e-05 3.637424670159816742e-04 8.206497295759618282e-05 -5.029127933084964752e-04
2.024000000000000000e+03 7.069171905517578125e+00 -9.438221931457519531e+00 -4.215732333250343800e-04 -1.554699498228728771e-03 -5.928818136453628540e-04 -5.008048610761761665e-04
2.025000000000000000e+03 1.519243717193603516e+01 -1.952033805847167969e+01 2.141981869935989380e-01 4.698074817657470703e+00 1.473681926727294922e+00 1.534087657928466797e+00
2.026000000000000000e+03 3.713246345520019531e+00 9.721416473388671875e+00 -1.466044574044644833e-03 -1.613036380149424076e-03 -9.237243211828172207e-04 -7.331566885113716125e-04
2.027000000000000000e+03 9.758084297180175781e+00 -5.092205047607421875e+00 -2.022170519921928644e-04 7.450735211023129523e-06 -5.842989776283502579e-05 3.608684346545487642e-05
2.028000000000000000e+03 8.364359855651855469e+00 -4.272054672241210938e+00 1.578761439304798841e-04 -3.400895802769809961e-04 -5.466402944875881076e-05 -5.582848098129034042e-04
2.029000000000000000e+03 8.024168014526367188e+00 -8.146891593933105469e+00 -3.028173814527690411e-04 -5.449985619634389877e-04 -2.543447772040963173e-04 -2.900096296798437834e-04
2.030000000000000000e+03 9.025107383728027344e+00 -4.093486785888671875e+00 -1.082103117369115353e-04 3.047479840461164713e-04 5.896130096516571939e-05 1.149074887507595122e-04
2.031000000000000000e+03 7.899700164794921875e+00 -7.168847560882568359e+00 -7.682134310016408563e-05 -6.690245936624705791e-04 -2.237537846667692065e-04 -3.001819422934204340e-04
2.032000000000000000e+03 7.415307998657226562e+00 -7.791600704193115234e+00 -2.672499394975602627e-04 5.195572739467024803e-04 7.569219451397657394e-05 -9.283424587920308113e-04
2.033000000000000000e+03 4.237739086151123047e+00 -1.082047367095947266e+01 -4.150914493948221207e-03 -5.857576616108417511e-04 -1.421001623384654522e-03 2.223691699327901006e-04
2.034000000000000000e+03 2.166962432861328125e+01 -9.353150367736816406e+00 1.294443845748901367e+00 9.723209381103515625e+00 3.305295944213867188e+00 9.451623558998107910e-01
2.035000000000000000e+03 2.206029319763183594e+01 2.969504833221435547e+00 9.497945904731750488e-01 1.139205837249755859e+01 3.702555894851684570e+00 -4.847955107688903809e-01
2.036000000000000000e+03 2.300393104553222656e+01 2.283434629440307617e+00 1.038964748382568359e+00 1.101223754882812500e+01 3.615360736846923828e+00 -2.663888335227966309e-01
2.037000000000000000e+03 1.993793678283691406e+01 1.412578868865966797e+01 1.074305772781372070e+00 8.527080535888671875e+00 2.880415916442871094e+00 -1.470545411109924316e+00
2.038000000000000000e+03 1.711104774475097656e+01 -1.671039390563964844e+01 4.742425084114074707e-01 5.989199161529541016e+00 1.939032435417175293e+00 1.699371933937072754e+00
2.039000000000000000e+03 1.996326446533203125e+01 -1.298036193847656250e+01 6.836813688278198242e-01 8.167669296264648438e+00 2.655405282974243164e+00 1.494889020919799805e+00
2.040000000000000000e+03 1.676495742797851562e+01 1.792675971984863281e+01 7.034538984298706055e-01 6.170592784881591797e+00 2.062214136123657227e+00 -1.824403762817382812e+00
2.041000000000000000e+03 1.609944343566894531e+01 1.867228698730468750e+01 5.874436497688293457e-01 5.600699424743652344e+00 1.856442928314208984e+00 -1.844379067420959473e+00
2.042000000000000000e+03 6.166232585906982422e+00 -1.078215980529785156e+01 -1.348297228105366230e-03 -3.579062642529606819e-03 -1.478207996115088463e-03 2.419184020254760981e-04
2.043000000000000000e+03 1.369587516784667969e+01 2.085820198059082031e+01 3.781078755855560303e-01 3.694765329360961914e+00 1.221861958503723145e+00 -1.711904764175415039e+00
2.044000000000000000e+03 1.343111324310302734e+01 1.985928726196289062e+01 6.536164879798889160e-01 3.514426469802856445e+00 1.250412821769714355e+00 -1.835240483283996582e+00
2.045000000000000000e+03 1.933338165283203125e+01 1.553554725646972656e+01 8.837565779685974121e-01 7.869166374206542969e+00 2.625876903533935547e+00 -1.471699357032775879e+00
2.046000000000000000e+03 2.097223472595214844e+01 -5.179643630981445312e+00 1.897431015968322754e+00 1.167812252044677734e+01 4.072666168212890625e+00 1.394306898117065430e+00
2.047000000000000000e+03 1.875004196166992188e+01 -1.451823139190673828e+01 6.187481880187988281e-01 7.199637889862060547e+00 2.345515727996826172e+00 1.690083742141723633e+00
2.048000000000000000e+03 2.199234771728515625e+01 3.803356647491455078e+00 1.015495181083679199e+00 1.132653141021728516e+01 3.702608108520507812e+00 -6.096289753913879395e-01
2.049000000000000000e+03 2.074164390563964844e+01 -9.071751594543457031e+00 1.360277056694030762e+00 1.008530902862548828e+01 3.433675765991210938e+00 1.346534013748168945e+00
2.050000000000000000e+03 2.083960914611816406e+01 -1.117934131622314453e+01 9.015297293663024902e-01 9.067063331604003906e+00 2.990577936172485352e+00 1.269913315773010254e+00
2.051000000000000000e+03 1.651486587524414062e+01 -1.745201873779296875e+01 4.208473861217498779e-01 5.569242954254150391e+00 1.797026991844177246e+00 1.667346715927124023e+00
2.052000000000000000e+03 1.820282745361328125e+01 -1.524063682556152344e+01 5.875462889671325684e-01 6.792034626007080078e+00 2.213874340057373047e+00 1.717595815658569336e+00
2.053000000000000000e+03 2.127207183837890625e+01 -1.028217029571533203e+01 1.074536204338073730e+00 9.432534217834472656e+00 3.152121305465698242e+00 1.103692531585693359e+00
2.054000000000000000e+03 1.038636016845703125e+01 2.164600372314453125e+01 5.507230758666992188e-01 1.600329279899597168e+00 6.453157067298889160e-01 -1.185191392898559570e+00
2.055000000000000000e+03 9.921804428100585938e+00 2.095677375793457031e+01 6.286133527755737305e-01 1.091531276702880859e+00 5.160433650016784668e-01 -1.058719038963317871e+00
2.056000000000000000e+03 4.758473873138427734e+00 -1.432183361053466797e+01 -3.826058655977249146e-02 1.789009384810924530e-02 -6.111147347837686539e-03 1.084392052143812180e-02
2.057000000000000000e+03 2.067740821838378906e+01 1.053147029876708984e+01 1.361635327339172363e+00 9.985331535339355469e+00 3.404090166091918945e+00 -1.470599651336669922e+00
2.058000000000000000e+03 2.118617820739746094e+01 1.172351360321044922e+01 1.244241714477539062e+00 9.415795326232910156e+00 3.198011159896850586e+00 -1.199071168899536133e+00
2.059000000000000000e+03 1.253287696838378906e+01 -1.998502540588378906e+01 4.216075837612152100e-01 3.228964090347290039e+00 1.095171451568603516e+00 1.519261121749877930e+00
2.060000000000000000e+03 2.076481246948242188e+01 -6.110211372375488281e+00 2.017388105392456055e+00 1.149215888977050781e+01 4.052864074707031250e+00 1.412551879882812500e+00
2.061000000000000000e+03 4.296943187713623047e+00 3.562662887573242188e+01 -7.021624594926834106e-02 1.133837223052978516e+00 3.190862834453582764e-01 -2.274141460657119751e-01
2.062000000000000000e+03 1.507556343078613281e+01 -1.873885154724121094e+01 3.732899427413940430e-01 4.685617923736572266e+00 1.517672419548034668e+00 1.624634146690368652e+00
2.063000000000000000e+03 2.154512786865234375e+01 1.086453533172607422e+01 1.292765736579895020e+00 9.638370513916015625e+00 3.279340744018554688e+00 -1.125329017639160156e+00
2.064000000000000000e+03 2.119259643554687500e+01 8.842561721801757812e+00 1.305318713188171387e+00 1.047001361846923828e+01 3.532599687576293945e+00 -1.319744110107421875e+00
2.065000000000000000e+03 2.278970718383789062e+01 1.030739021301269531e+01 1.269424915313720703e+00 9.510381698608398438e+00 3.233941793441772461e+00 -7.821230888366699219e-01
2.066000000000000000e+03 1.816239929199218750e+01 1.765042304992675781e+01 5.635370016098022461e-01 6.891351222991943359e+00 2.236466407775878906e+00 -1.505711913108825684e+00
2.067000000000000000e+03 1.957029914855957031e+01 1.629463768005371094e+01 7.263560891151428223e-01 7.705906867980957031e+00 2.529678821563720703e+00 -1.324684858322143555e+00
2.068000000000000000e+03 1.407890892028808594e+01 2.036045074462890625e+01 4.579305052757263184e-01 4.045454502105712891e+00 1.351015567779541016e+00 -1.788825154304504395e+00
2.069000000000000000e+03 5.071202754974365234e+00 -1.740987014770507812e+01 -7.286596298217773438e-02 1.423940807580947876e-01 2.085843496024608612e-02 -3.525280207395553589e-02
2.070000000000000000e+03 5.329278469085693359e+00 -1.676397705078125000e+01 -1.056958809494972229e-01 1.071550473570823669e-01 4.377487057354301214e-04 1.173127815127372742e-02
2.071000000000000000e+03 4.292223453521728516e+00 -1.287114143371582031e+01 -1.702637784183025360e-02 5.221185274422168732e-03 -3.541557816788554192e-03 3.057527123019099236e-03
2.072000000000000000e+03 1.882660675048828125e+01 1.687263107299804688e+01 6.906262636184692383e-01 7.379790782928466797e+00 2.421125173568725586e+00 -1.422084569931030273e+00
2.073000000000000000e+03 5.717230319976806641e+00 -1.632737922668457031e+01 -1.281919330358505249e-01 9.034079313278198242e-02 -1.135533954948186874e-02 3.313682600855827332e-02
2.074000000000000000e+03 1.177924346923828125e+01 -2.059292602539062500e+01 3.839749097824096680e-01 2.814764976501464844e+00 9.596219658851623535e-01 1.428248524665832520e+00
2.075000000000000000e+03 7.427399444580078125e+01 3.627943801879882812e+01 -3.136552125215530396e-02 7.934825897216796875e+00 2.371038198471069336e+00 5.813473090529441833e-02
2.076000000000000000e+03 2.251402091979980469e+01 -5.438126921653747559e-01 9.030835032463073730e-01 1.141683101654052734e+01 3.695974349975585938e+00 3.085148930549621582e-01
2.077000000000000000e+03 7.489702606201171875e+01 -3.550462722778320312e+01 -2.777026593685150146e-02 8.034820556640625000e+00 2.402115106582641602e+00 -6.669680774211883545e-02
2.078000000000000000e+03 2.155895614624023438e+01 7.156287193298339844e+00 1.189991593360900879e+00 1.086804676055908203e+01 3.617411613464355469e+00 -1.090740799903869629e+00
2.079000000000000000e+03 2.229204177856445312e+01 8.220502853393554688e+00 1.297705054283142090e+00 1.023941230773925781e+01 3.461135149002075195e+00 -9.445471167564392090e-01
2.080000000000000000e+03 2.181495857238769531e+01 5.471841812133789062e+00 1.111793875694274902e+00 1.114478683471679688e+01 3.676974058151245117e+00 -8.334930539131164551e-01
2.081000000000000000e+03 2.260024452209472656e+01 6.478106498718261719e+00 1.242821693420410156e+00 1.055422306060791016e+01 3.539113521575927734e+00 -7.731344699859619141e-01
2.082000000000000000e+03 2.276385498046875000e+01 -5.488837718963623047e+00 1.825602889060974121e+00 1.042201805114746094e+01 3.674286127090454102e+00 8.276013731956481934e-01
2.083000000000000000e+03 7.385568618774414062e+00 -2.080168342590332031e+01 4.567736983299255371e-01 7.194285988807678223e-01 3.528606891632080078e-01 5.582256913185119629e-01
2.084000000000000000e+03 2.370952987670898438e+01 -4.023825228214263916e-01 1.150648355484008789e+00 1.077226257324218750e+01 3.576873302459716797e+00 2.345894575119018555e-01
2.085000000000000000e+03 2.340853881835937500e+01 5.645959377288818359e-01 1.049435377120971680e+00 1.094009113311767578e+01 3.596857786178588867e+00 4.821519553661346436e-02
2.086000000000000000e+03 7.839761352539062500e+01 -4.103515625000000000e+01 -7.311905268579721451e-03 8.173392295837402344e+00 2.449824333190917969e+00 -7.813054136931896210e-03
2.087000000000000000e+03 7.440345764160156250e+01 3.365565109252929688e+01 -2.849127538502216339e-02 7.911637306213378906e+00 2.364943742752075195e+00 8.014250546693801880e-02
2.088000000000000000e+03 6.946600914001464844e+00 -4.156020736694335938e+01 -1.965585947036743164e-01 2.156155824661254883e+00 5.878791213035583496e-01 5.458587408065795898e-02
2.089000000000000000e+03 3.802212953567504883e+00 -3.748686599731445312e+01 -7.392193377017974854e-02 1.375614285469055176e+00 3.905076980590820312e-01 1.456059217453002930e-01
2.090000000000000000e+03 4.665547847747802734e+00 -3.694155502319335938e+01 -9.685964882373809814e-02 1.508254289627075195e+00 4.234183728694915771e-01 2.134066522121429443e-01
2.091000000000000000e+03 7.431944274902343750e+01 -3.705406951904296875e+01 -3.484064340591430664e-02 8.041951179504394531e+00 2.402133226394653320e+00 -5.440182238817214966e-02
2.092000000000000000e+03 5.325406551361083984e+00 -3.819532394409179688e+01 -1.219855770468711853e-01 1.646694660186767578e+00 4.574127197265625000e-01 1.857494711875915527e-01
2.093000000000000000e+03 7.439553833007812500e+01 4.041675949096679688e+01 -2.298210933804512024e-02 7.957423210144042969e+00 2.380332231521606445e+00 1.914852671325206757e-02
2.094000000000000000e+03 7.161051940917968750e+01 4.099235916137695312e+01 -5.538180470466613770e-02 7.927868366241455078e+00 2.361746072769165039e+00 1.735390350222587585e-02
2.095000000000000000e+03 8.099424362182617188e+00 5.852058887481689453e+00 3.764969278563512489e-06 -7.396183209493756294e-04 -2.207560028182342649e-04 8.206488564610481262e-04
2.096000000000000000e+03 8.807817459106445312e+00 5.826333999633789062e+00 3.732299956027418375e-04 -3.548949898686259985e-04 5.500503903022035956e-06 3.498447185847908258e-04
2.097000000000000000e+03 1.037953376770019531e+01 9.318622589111328125e+00 -4.291794903110712767e-04 6.418901029974222183e-04 6.381318962667137384e-05 7.834164425730705261e-04
2.098000000000000000e+03 9.069741249084472656e+00 8.438894271850585938e+00 -3.922098549082875252e-04 -7.691284554312005639e-05 -1.407368108630180359e-04 7.367996731773018837e-04
2.099000000000000000e+03 4.612330913543701172e+00 2.414934921264648438e+01 1.716183274984359741e-01 4.308628439903259277e-01 1.807443499565124512e-01 -1.659166365861892700e-01
2.100000000000000000e+03 5.966521739959716797e+00 2.280224990844726562e+01 2.600722312927246094e-01 5.121989846229553223e-01 2.316813617944717407e-01 -2.173663079738616943e-01
2.101000000000000000e+03 8.777685165405273438e+00 1.011306762695312500e+01 -1.124283997341990471e-03 -1.036632340401411057e-03 -6.482749013230204582e-04 1.764780608937144279e-03
2.102000000000000000e+03 4.635550022125244141e+00 3.001314353942871094e+01 2.268149517476558685e-02 9.154863357543945312e-01 2.814503610134124756e-01 -3.202536404132843018e-01
2.103000000000000000e+03 1.029633903503417969e+01 5.188614845275878906e+00 -1.395071303704753518e-04 -1.122273461078293622e-04 -7.552034367108717561e-05 7.258377154357731342e-04
2.104000000000000000e+03 2.486299514770507812e+01 2.097130060195922852e+00 1.274253726005554199e+00 1.023553180694580078e+01 3.452935695648193359e+00 -8.645962923765182495e-02
2.105000000000000000e+03 7.450727081298828125e+01 3.068077278137207031e+01 -1.931842975318431854e-02 7.872202873229980469e+00 2.355865240097045898e+00 1.006475165486335754e-01
2.106000000000000000e+03 5.338521003723144531e+00 5.878615379333496094e+00 1.580976386321708560e-04 -9.547372465021908283e-04 -2.389918809058144689e-04 1.304700163018424064e-05
2.107000000000000000e+03 4.786844253540039062e+00 5.829634189605712891e+00 1.031775609590113163e-03 -8.696491131559014320e-04 4.863794310949742794e-05 -8.035596692934632301e-04
2.108000000000000000e+03 5.969467639923095703e+00 5.972179889678955078e+00 9.922601748257875443e-04 -1.105381408706307411e-03 -3.393638326087966561e-05 -2.245598298031836748e-04
2.109000000000000000e+03 6.669452190399169922e+00 5.983890533447265625e+00 1.056422916008159518e-04 -1.026126090437173843e-03 -2.761451178230345249e-04 4.909192794002592564e-04
2.110000000000000000e+03 7.392483234405517578e+00 5.899936199188232422e+00 6.770418840460479259e-04 -8.176442352123558521e-04 -4.218069807393476367e-05 7.843671482987701893e-05
2.111000000000000000e+03 6.604386806488037109e+00 1.231666088104248047e+01 -4.706200212240219116e-03 -3.952810075134038925e-03 -2.597702899947762489e-03 -2.575711114332079887e-03
2.112000000000000000e+03 3.832885980606079102e+00 1.144729137420654297e+01 -3.528961446136236191e-03 -2.214610576629638672e-03 -1.723071560263633728e-03 4.475192981772124767e-04
2.113000000000000000e+03 2.415982818603515625e+01 -3.757163524627685547e+00 1.604440093040466309e+00 1.018371009826660156e+01 3.536444902420043945e+00 5.628026127815246582e-01
2.114000000000000000e+03 2.346277809143066406e+01 -2.530625820159912109e+00 1.374221920967102051e+00 1.070586299896240234e+01 3.624025344848632812e+00 6.011022925376892090e-01
2.115000000000000000e+03 2.134493827819824219e+01 -1.243068218231201172e+01 6.832754611968994141e-01 8.601730346679687500e+00 2.785501718521118164e+00 1.034872055053710938e+00
2.116000000000000000e+03 3.972125530242919922e+00 1.736627388000488281e+01 -7.074703276157379150e-02 7.614402472972869873e-02 1.619098125956952572e-03 6.430504471063613892e-02
2.117000000000000000e+03 5.859803199768066406e+00 1.653650665283203125e+01 -1.006581187248229980e-01 5.563357099890708923e-02 -1.350736431777477264e-02 -3.985644131898880005e-02
2.118000000000000000e+03 6.022972583770751953e+00 -2.979786300659179688e+01 -3.096851147711277008e-02 1.505592584609985352e+00 4.423872232437133789e-01 4.566651284694671631e-01
2.119000000000000000e+03 7.488291931152343750e+01 -3.152227592468261719e+01 -1.784818433225154877e-02 7.984902381896972656e+00 2.390116214752197266e+00 -9.505106508731842041e-02
2.120000000000000000e+03 5.292151927947998047e+00 2.947061729431152344e+01 3.801127895712852478e-02 1.054662585258483887e+00 3.278021514415740967e-01 -3.708648085594177246e-01
2.121000000000000000e+03 8.433013916015625000e+00 1.115022945404052734e+01 -1.530322129838168621e-03 -1.832791604101657867e-03 -1.008934108540415764e-03 1.717378501780331135e-03
2.122000000000000000e+03 4.408248901367187500e+00 1.002821540832519531e+01 -3.344832221046090126e-04 -2.699744887650012970e-03 -9.102684562094509602e-04 -1.194512587971985340e-04
2.123000000000000000e+03 5.151374816894531250e+00 -1.273700332641601562e+01 -1.305657997727394104e-02 1.573524554260075092e-03 -3.444916568696498871e-03 7.173106539994478226e-03
2.124000000000000000e+03 5.965909481048583984e+00 3.225940704345703125e+01 -5.037564411759376526e-02 1.410484790802001953e+00 4.080327153205871582e-01 -3.730116784572601318e-01
2.125000000000000000e+03 7.479364776611328125e+01 -2.918703460693359375e+01 -1.525695342570543289e-02 7.947948932647705078e+00 2.379807472229003906e+00 -1.106554940342903137e-01
2.126000000000000000e+03 8.795663833618164062e+00 6.474776744842529297e+00 -1.495672768214717507e-04 -6.410194328054785728e-04 -2.371760201640427113e-04 1.066968776285648346e-03
2.127000000000000000e+03 5.250984191894531250e+00 -3.197447013854980469e+01 -5.612941458821296692e-02 1.428774476051330566e+00 4.117935299873352051e-01 3.544963896274566650e-01
2.128000000000000000e+03 7.467257690429687500e+01 3.006997489929199219e+01 -1.534685119986534119e-02 7.863863468170166016e+00 2.354554891586303711e+00 1.021376401185989380e-01
2.129000000000000000e+03 4.114329814910888672e+00 2.199694824218750000e+01 1.139736101031303406e-01 1.948591619729995728e-01 9.264983236789703369e-02 6.184760481119155884e-03
2.130000000000000000e+03 3.910111427307128906e+00 2.245313835144042969e+01 1.189018264412879944e-01 1.887537539005279541e-01 9.229667484760284424e-02 -1.500514149665832520e-02
2.131000000000000000e+03 4.759136676788330078e+00 -2.830617332458496094e+01 1.061972603201866150e-02 1.052929759025573730e+00 3.190648555755615234e-01 3.703180253505706787e-01
2.132000000000000000e+03 7.517230987548828125e+01 -2.166279029846191406e+01 -3.290473483502864838e-03 7.800587654113769531e+00 2.339189052581787109e+00 -1.311704963445663452e-01
2.133000000000000000e+03 3.323317050933837891e+00 6.542934417724609375e+00 1.011086511425673962e-03 -3.420939319767057896e-04 2.006977738346904516e-04 -9.109012898989021778e-04
2.134000000000000000e+03 4.807814121246337891e+00 2.482188224792480469e+01 1.671417504549026489e-01 5.285642743110656738e-01 2.087118029594421387e-01 -2.245351523160934448e-01
2.135000000000000000e+03 7.472914886474609375e+01 2.299725723266601562e+01 -2.873057266697287560e-03 7.743396759033203125e+00 2.322157144546508789e+00 1.237435266375541687e-01
2.136000000000000000e+03 3.958352088928222656e+00 -2.110587120056152344e+01 1.480420231819152832e-01 2.309427112340927124e-01 1.136954203248023987e-01 5.117119103670120239e-02
2.137000000000000000e+03 7.500637054443359375e+01 -2.405103111267089844e+01 -8.152578026056289673e-03 7.851720333099365234e+00 2.353070497512817383e+00 -1.295651644468307495e-01
2.138000000000000000e+03 4.047377109527587891e+00 -2.272390556335449219e+01 1.550896465778350830e-01 3.877774178981781006e-01 1.628601253032684326e-01 1.674800664186477661e-01
2.139000000000000000e+03 5.779621124267578125e+00 -2.422534179687500000e+01 1.915495693683624268e-01 9.002920985221862793e-01 3.275524973869323730e-01 4.230392873287200928e-01
2.140000000000000000e+03 4.723218441009521484e+00 -2.247295951843261719e+01 2.030868381261825562e-01 4.762005209922790527e-01 2.037862092256546021e-01 2.168673425912857056e-01
2.141000000000000000e+03 7.474797821044921875e+01 2.381188201904296875e+01 -4.179414361715316772e-03 7.759160995483398438e+00 2.326494455337524414e+00 1.228715404868125916e-01
2.142000000000000000e+03 7.463120269775390625e+01 2.937328910827636719e+01 -1.440164353698492050e-02 7.853764533996582031e+00 2.351808786392211914e+00 1.051481813192367554e-01
2.143000000000000000e+03 7.494496917724609375e+01 1.498820781707763672e+01 1.214033924043178558e-02 7.595417022705078125e+00 2.282267332077026367e+00 1.067835092544555664e-01
2.144000000000000000e+03 7.520589447021484375e+01 -1.463119792938232422e+01 9.559716098010540009e-03 7.646931648254394531e+00 2.296947479248046875e+00 -1.213329806923866272e-01
2.145000000000000000e+03 5.726417541503906250e+00 -6.700321197509765625e+00 4.400241596158593893e-04 -1.434947946108877659e-03 -2.984771272167563438e-04 -1.930347934830933809e-04
2.146000000000000000e+03 7.473482513427734375e+01 2.219605445861816406e+01 -1.652766950428485870e-03 7.729190826416015625e+00 2.318261384963989258e+00 1.242474690079689026e-01
2.147000000000000000e+03 7.520592498779296875e+01 -1.697881126403808594e+01 5.736339837312698364e-03 7.696633815765380859e+00 2.310711145401000977e+00 -1.283676624298095703e-01
2.148000000000000000e+03 7.508189392089843750e+01 1.095335102081298828e+01 1.774826832115650177e-02 7.531895637512207031e+00 2.264893054962158203e+00 8.231640607118606567e-02
2.149000000000000000e+03 7.510668182373046875e+01 1.015457820892333984e+01 1.877753250300884247e-02 7.521143913269042969e+00 2.261976480484008789e+00 7.645802199840545654e-02
2.150000000000000000e+03 7.559302520751953125e+01 2.631999206542968750e+01 -6.505991797894239426e-03 7.808847904205322266e+00 2.340702533721923828e+00 1.015566587448120117e-01
2.151000000000000000e+03 7.384238433837890625e+01 2.375186729431152344e+01 -6.578775588423013687e-03 7.758738517761230469e+00 2.325648069381713867e+00 1.384193748235702515e-01
2.152000000000000000e+03 7.401875305175781250e+01 1.729178810119628906e+01 1.056086365133523941e-02 7.643447875976562500e+00 2.296202659606933594e+00 1.315376758575439453e-01
2.153000000000000000e+03 7.490650177001953125e+01 1.660862541198730469e+01 9.238786064088344574e-03 7.624139308929443359e+00 2.290013551712036133e+00 1.136992350220680237e-01
2.154000000000000000e+03 3.527093648910522461e+00 -1.737275695800781250e+01 -3.964246809482574463e-02 7.180695235729217529e-02 9.649345651268959045e-03 -6.937699019908905029e-02
2.155000000000000000e+03 4.687541484832763672e+00 2.221564102172851562e+01 1.603830158710479736e-01 2.712842524051666260e-01 1.295001804828643799e-01 -4.583857581019401550e-02
2.156000000000000000e+03 7.513468933105468750e+01 8.563638687133789062e+00 2.064951322972774506e-02 7.502117633819580078e+00 2.256829977035522461e+00 6.421053409576416016e-02
2.157000000000000000e+03 4.077761650085449219e+00 -7.631340026855468750e+00 -7.829817332094535232e-05 -8.525344892404973507e-04 -2.792497980408370495e-04 -1.283286692341789603e-04
2.158000000000000000e+03 7.574853515625000000e+01 1.673661804199218750e+01 6.446595303714275360e-03 7.618659496307373047e+00 2.287531852722167969e+00 9.857675433158874512e-02
2.159000000000000000e+03 7.401579284667968750e+01 1.812735939025878906e+01 8.371226489543914795e-03 7.658050537109375000e+00 2.299926519393920898e+00 1.341451555490493774e-01
2.160000000000000000e+03 7.566110229492187500e+01 -2.733563232421875000e+01 -9.909238666296005249e-03 7.925744056701660156e+00 2.374750375747680664e+00 -1.039322838187217712e-01
2.161000000000000000e+03 7.481221771240234375e+01 -2.739315032958984375e+01 -1.454968191683292389e-02 7.916625499725341797e+00 2.370622634887695312e+00 -1.206186711788177490e-01
2.162000000000000000e+03 7.514153289794921875e+01 7.771841526031494141e+00 2.146597206592559814e-02 7.494039535522460938e+00 2.254651546478271484e+00 5.778698250651359558e-02
2.163000000000000000e+03 7.519155883789062500e+01 -7.426050662994384766e+00 2.035619132220745087e-02 7.522134780883789062e+00 2.262747287750244141e+00 -7.873315364122390747e-02
2.164000000000000000e+03 7.590335845947265625e+01 8.695495605468750000e+00 1.492660772055387497e-02 7.488851547241210938e+00 2.251133441925048828e+00 5.675151944160461426e-02
2.165000000000000000e+03 7.434324645996093750e+01 9.214663505554199219e+00 2.618943341076374054e-02 7.522672653198242188e+00 2.264658689498901367e+00 7.802920043468475342e-02
2.166000000000000000e+03 5.486473560333251953e+00 -1.212141513824462891e+01 -6.032041739672422409e-03 -4.342418629676103592e-03 -3.112338017672300339e-03 4.175283480435609818e-03
2.167000000000000000e+03 6.349665641784667969e+00 -3.183767509460449219e+01 -8.435181528329849243e-02 1.715236902236938477e+00 4.892655014991760254e-01 4.167750179767608643e-01
2.168000000000000000e+03 7.517696380615234375e+01 5.969504117965698242e-01 2.472002245485782623e-02 7.462600231170654297e+00 2.246196031570434570e+00 -7.115735206753015518e-03
2.169000000000000000e+03 7.517467498779296875e+01 -2.615127801895141602e+00 2.407083101570606232e-02 7.474878311157226562e+00 2.249684572219848633e+00 -3.731916472315788269e-02
2.170000000000000000e+03 7.519438171386718750e+01 -5.829303741455078125e+00 2.188273333013057709e-02 7.502589225769042969e+00 2.257341623306274414e+00 -6.571906805038452148e-02
2.171000000000000000e+03 7.596271514892578125e+01 -5.709241867065429688e+00 1.590675860643386841e-02 7.486043930053710938e+00 2.250585079193115234e+00 -5.599226802587509155e-02
2.172000000000000000e+03 7.519620513916015625e+01 -6.627028465270996094e+00 2.111181803047657013e-02 7.511854171752929688e+00 2.259889841079711914e+00 -7.221903651952743530e-02
2.173000000000000000e+03 7.582009124755859375e+01 1.270377349853515625e+01 1.112468633800745010e-02 7.546232700347900391e+00 2.267207145690917969e+00 8.154207468032836914e-02
2.174000000000000000e+03 7.504972076416015625e+01 1.175079345703125000e+01 1.669131219387054443e-02 7.543576240539550781e+00 2.268080234527587891e+00 8.788415789604187012e-02
2.175000000000000000e+03 7.592936706542968750e+01 3.112111806869506836e+00 1.759116910398006439e-02 7.447592258453369141e+00 2.239555120468139648e+00 1.450619474053382874e-02
2.176000000000000000e+03 7.517525482177734375e+01 1.394711375236511230e+00 2.467876486480236053e-02 7.462044239044189453e+00 2.246016979217529297e+00 5.260318866930902004e-04
2.177000000000000000e+03 7.594104766845703125e+01 -1.694568157196044922e+00 1.771209947764873505e-02 7.452708721160888672e+00 2.241126298904418945e+00 -2.492506057024002075e-02
2.178000000000000000e+03 7.439691925048828125e+01 -3.537849426269531250e+00 3.109852597117424011e-02 7.496229648590087891e+00 2.258198499679565430e+00 -5.162382870912551880e-02
2.179000000000000000e+03 7.595893859863281250e+01 -4.909129142761230469e+00 1.640197820961475372e-02 7.477348804473876953e+00 2.248125314712524414e+00 -5.014693364500999451e-02
2.180000000000000000e+03 7.359164428710937500e+01 -4.440144538879394531e+00 3.884850814938545227e-02 7.516689777374267578e+00 2.266661405563354492e+00 -6.740666180849075317e-02
2.181000000000000000e+03 7.592287445068359375e+01 3.913905858993530273e+00 1.739632338285446167e-02 7.450568675994873047e+00 2.240389347076416016e+00 2.094621211290359497e-02
2.182000000000000000e+03 7.438822937011718750e+01 1.289690971374511719e+00 3.260315209627151489e-02 7.478152751922607422e+00 2.253226757049560547e+00 -6.545526557601988316e-04
2.183000000000000000e+03 7.596192169189453125e+01 -1.292378997802734375e+01 9.323891252279281616e-03 7.604486465454101562e+00 2.284143209457397461e+00 -9.907241165637969971e-02
2.184000000000000000e+03 7.520402526855468750e+01 -1.384028244018554688e+01 1.125111058354377747e-02 7.630929946899414062e+00 2.292654275894165039e+00 -1.182853877544403076e-01
2.185000000000000000e+03 7.519136047363281250e+01 -2.087798881530761719e+01 -2.097399439662694931e-03 7.783178806304931641e+00 2.334324359893798828e+00 -1.317041814327239990e-01
2.186000000000000000e+03 7.520008087158203125e+01 -1.304453086853027344e+01 1.236759684979915619e-02 7.615272045135498047e+00 2.288291931152343750e+00 -1.146512106060981750e-01
2.187000000000000000e+03 7.595440673828125000e+01 -1.131915092468261719e+01 1.117167994379997253e-02 7.572974205017089844e+00 2.275243759155273438e+00 -9.169579297304153442e-02
2.188000000000000000e+03 7.495782470703125000e+01 -2.487510299682617188e+01 -9.190944023430347443e-03 7.868646621704101562e+00 2.357836723327636719e+00 -1.270616799592971802e-01
2.189000000000000000e+03 7.576232147216796875e+01 -2.484567832946777344e+01 -6.416097283363342285e-03 7.874108314514160156e+00 2.360307693481445312e+00 -1.109974533319473267e-01
2.190000000000000000e+03 7.518347930908203125e+01 -8.228156089782714844e+00 1.950068958103656769e-02 7.533360004425048828e+00 2.265858173370361328e+00 -8.497017621994018555e-02
2.191000000000000000e+03 7.517606353759765625e+01 -9.838109016418457031e+00 1.747149974107742310e-02 7.558092594146728516e+00 2.272669315338134766e+00 -9.651450067758560181e-02
2.192000000000000000e+03 7.487901306152343750e+01 1.906012153625488281e+01 4.571346566081047058e-03 7.669510841369628906e+00 2.302224636077880859e+00 1.199189350008964539e-01
2.193000000000000000e+03 5.038782596588134766e+00 -2.580939292907714844e+01 9.226838499307632446e-02 9.130888581275939941e-01 3.016071617603302002e-01 3.896698951721191406e-01
2.194000000000000000e+03 7.593821716308593750e+01 -1.847242546081542969e+01 1.854423782788217068e-03 7.728198528289794922e+00 2.319015979766845703e+00 -1.142122223973274231e-01
2.195000000000000000e+03 7.519486236572265625e+01 -2.010657501220703125e+01 -2.659477177076041698e-04 7.765910625457763672e+00 2.329693555831909180e+00 -1.316992938518524170e-01
2.196000000000000000e+03 4.240339279174804688e+00 -1.382870864868164062e+01 -3.022874332964420319e-02 1.435023918747901917e-02 -4.763551056385040283e-03 3.434362588450312614e-03
2.197000000000000000e+03 7.520454406738281250e+01 -1.541621303558349609e+01 8.490845561027526855e-03 7.663266181945800781e+00 2.301527023315429688e+00 -1.242102086544036865e-01
2.198000000000000000e+03 7.517829895019531250e+01 -9.032924652099609375e+00 1.856981031596660614e-02 7.545421123504638672e+00 2.269197225570678711e+00 -9.098409116268157959e-02
2.199000000000000000e+03 7.438880157470703125e+01 -8.346401214599609375e+00 2.565914578735828400e-02 7.547271251678466797e+00 2.271879196166992188e+00 -9.706573188304901123e-02
2.200000000000000000e+03 7.512879180908203125e+01 -2.245348930358886719e+01 -5.222929175943136215e-03 7.818260192871093750e+00 2.343911170959472656e+00 -1.312120705842971802e-01
2.201000000000000000e+03 6.280982971191406250e+00 -2.341626739501953125e+01 2.417550981044769287e-01 9.261013865470886230e-01 3.503569364547729492e-01 4.638257324695587158e-01
2.202000000000000000e+03 7.515194702148437500e+01 3.795936107635498047e+00 2.397127263247966766e-02 7.467242717742919922e+00 2.247364282608032227e+00 2.300461195409297943e-02
2.203000000000000000e+03 7.489292907714843750e+01 -2.655211448669433594e+01 -1.214765105396509171e-02 7.899827003479003906e+00 2.366303682327270508e+00 -1.233563274145126343e-01
2.204000000000000000e+03 7.518304443359375000e+01 -3.422823667526245117e+00 2.362670004367828369e-02 7.480277061462402344e+00 2.251171112060546875e+00 -4.462897032499313354e-02
2.205000000000000000e+03 7.520252990722656250e+01 -1.854854774475097656e+01 2.652053255587816238e-03 7.731478214263916016e+00 2.320239067077636719e+00 -1.308671683073043823e-01
2.206000000000000000e+03 7.514286041259765625e+01 6.979200839996337891e+00 2.211419120430946350e-02 7.486841201782226562e+00 2.252686738967895508e+00 5.116439238190650940e-02
2.207000000000000000e+03 7.514196014404296875e+01 6.184875965118408203e+00 2.277509123086929321e-02 7.480647563934326172e+00 2.251026868820190430e+00 4.434887692332267761e-02
2.208000000000000000e+03 3.985785007476806641e+00 1.854841804504394531e+01 -5.052992701530456543e-02 1.005960553884506226e-01 1.501983869820833206e-02 8.425800502300262451e-02
2.209000000000000000e+03 7.556444549560546875e+01 2.712725067138671875e+01 -7.728938944637775421e-03 7.823617935180664062e+00 2.344766855239868164e+00 9.898824989795684814e-02
2.210000000000000000e+03 5.546790122985839844e+00 1.752717781066894531e+01 -1.582861095666885376e-01 1.284681260585784912e-01 -8.945394307374954224e-03 -5.509829614311456680e-03
2.211000000000000000e+03 7.439616394042968750e+01 -2.241898918151855469e+01 -6.362934596836566925e-03 7.814411640167236328e+00 2.342414617538452148e+00 -1.462875455617904663e-01
2.212000000000000000e+03 7.517279815673828125e+01 -2.011246383190155029e-01 2.470482140779495239e-02 7.464157581329345703e+00 2.246658802032470703e+00 -1.463454123586416245e-02
2.213000000000000000e+03 7.516848754882812500e+01 -1.002094149589538574e+00 2.465359680354595184e-02 7.466837882995605469e+00 2.247447490692138672e+00 -2.230009250342845917e-02
2.214000000000000000e+03 7.519774627685546875e+01 -1.933246040344238281e+01 9.642374934628605843e-04 7.748808860778808594e+00 2.324931859970092773e+00 -1.316109597682952881e-01
2.215000000000000000e+03 7.520332336425781250e+01 -1.619769096374511719e+01 6.722547579556703568e-03 7.679912567138671875e+00 2.305990695953369141e+00 -1.265078037977218628e-01
2.216000000000000000e+03 7.443348693847656250e+01 -1.552575492858886719e+01 1.047266181558370590e-02 7.670355796813964844e+00 2.304248571395874023e+00 -1.401979178190231323e-01
2.217000000000000000e+03 4.533959865570068359e+00 1.711378669738769531e+01 -1.032270267605781555e-01 9.114582091569900513e-02 -3.624361474066972733e-03 2.888667024672031403e-02
2.218000000000000000e+03 5.309297561645507812e+00 -9.319781303405761719e+00 -8.044600253924727440e-04 -8.186729392036795616e-04 -4.869398835580796003e-04 -2.674608840607106686e-04
2.219000000000000000e+03 4.315831661224365234e+00 -1.199991035461425781e+01 -9.442937560379505157e-03 8.560033165849745274e-04 -2.576080383732914925e-03 1.761287101544439793e-03
2.220000000000000000e+03 5.052618026733398438e+00 1.946718978881835938e+01 1.026661321520805359e-02 1.623660027980804443e-01 5.178978294134140015e-02 6.665857881307601929e-02
2.221000000000000000e+03 4.172101974487304688e+00 1.953419303894042969e+01 -2.839853288605809212e-03 1.208019703626632690e-01 3.538863733410835266e-02 8.356231451034545898e-02
2.222000000000000000e+03 4.860419750213623047e+00 -1.185858154296875000e+01 -7.914573885500431061e-03 3.062695031985640526e-04 -2.282491419464349747e-03 2.049723407253623009e-03
2.223000000000000000e+03 3.958652019500732422e+00 -2.023166275024414062e+01 1.123909354209899902e-01 1.793154478073120117e-01 8.751191943883895874e-02 -1.194948516786098480e-02
2.224000000000000000e+03 5.403705120086669922e+00 -1.920899772644042969e+01 1.120784729719161987e-01 2.165262401103973389e-01 9.858141839504241943e-02 6.044826470315456390e-03
2.225000000000000000e+03 7.480135345458984375e+01 2.143208503723144531e+01 -1.514761243015527725e-04 7.715184688568115234e+00 2.314509868621826172e+00 1.236477717757225037e-01
2.226000000000000000e+03 7.486350250244140625e+01 2.066582489013671875e+01 1.442107022739946842e-03 7.699524402618408203e+00 2.310290098190307617e+00 1.227572485804557800e-01
2.227000000000000000e+03 5.455645561218261719e+00 -1.042304706573486328e+01 -2.156166825443506241e-03 -1.116780797019600868e-03 -9.818843100219964981e-04 7.128491415642201900e-05
2.228000000000000000e+03 7.496067810058593750e+01 1.416924476623535156e+01 1.336127240210771561e-02 7.581722259521484375e+00 2.278525114059448242e+00 1.025962457060813904e-01
2.229000000000000000e+03 7.498281860351562500e+01 1.335389232635498047e+01 1.455971784889698029e-02 7.568502426147460938e+00 2.274918556213378906e+00 9.812726825475692749e-02
2.230000000000000000e+03 4.057305812835693359e+00 1.286687660217285156e+01 -1.098989322781562805e-02 -3.903007018379867077e-04 -3.414058359339833260e-03 -2.015010832110419869e-04
2.231000000000000000e+03 5.959620952606201172e+00 2.030304527282714844e+01 1.212035119533538818e-01 2.407038211822509766e-01 1.085721999406814575e-01 -1.189045142382383347e-02
2.232000000000000000e+03 3.943021535873413086e+00 2.002124977111816406e+01 3.343156352639198303e-02 1.140954047441482544e-01 4.425809159874916077e-02 9.417019039392471313e-02
2.233000000000000000e+03 4.257858753204345703e+00 -8.297670364379882812e+00 -6.647808186244219542e-05 -9.041723096743226051e-04 -2.911951160058379173e-04 3.847970219794660807e-04
2.234000000000000000e+03 5.087069511413574219e+00 1.500367927551269531e+01 -4.146490246057510376e-02 1.494424883276224136e-02 -7.956195622682571411e-03 -1.303315535187721252e-02
2.235000000000000000e+03 4.167357921600341797e+00 1.556905364990234375e+01 -4.905645176768302917e-02 2.769375778734683990e-02 -6.408808752894401550e-03 9.848138317465782166e-03
2.236000000000000000e+03 3.926261425018310547e+00 1.218983650207519531e+01 -9.479882195591926575e-03 -1.306476769968867302e-04 -2.883158857002854347e-03 5.732899298891425133e-04
2.237000000000000000e+03 7.421583557128906250e+01 -3.062877273559570312e+01 -2.145452983677387238e-02 7.960387706756591797e+00 2.381680011749267578e+00 -1.113932132720947266e-01
2.238000000000000000e+03 7.564579010009765625e+01 -3.187715721130371094e+01 -1.467746216803789139e-02 8.004160881042480469e+00 2.396845102310180664e+00 -8.260659873485565186e-02
2.239000000000000000e+03 3.476025819778442383e+00 1.041104412078857422e+01 -1.043853117153048515e-03 -1.684998045675456524e-03 -8.186553604900836945e-04 -5.263987623038701713e-05
2.240000000000000000e+03 5.715228557586669922e+00 1.065787887573242188e+01 -1.372675877064466476e-03 -3.775617340579628944e-03 -1.544488011859357357e-03 1.953875907929614186e-04
2.241000000000000000e+03 7.488821411132812500e+01 1.823887252807617188e+01 5.979830864816904068e-03 7.654256343841552734e+00 2.298070907592773438e+00 1.184748336672782898e-01
2.242000000000000000e+03 4.424847602844238281e+00 1.132260799407958984e+01 -5.049464758485555649e-03 -2.158099552616477013e-03 -2.162269316613674164e-03 2.823688846547156572e-04
2.243000000000000000e+03 3.879475831985473633e+00 8.182085990905761719e+00 -4.039020859636366367e-04 -1.221540500409901142e-03 -4.876327875535935163e-04 -7.350002415478229523e-04
2.244000000000000000e+03 7.768488407135009766e+00 9.680985450744628906e+00 -8.696552249602973461e-04 -2.144891070201992989e-03 -9.043638710863888264e-04 1.640611095353960991e-03
2.245000000000000000e+03 4.526463031768798828e+00 -2.180295372009277344e+01 1.896313726902008057e-01 3.683173060417175293e-01 1.673845946788787842e-01 1.521012932062149048e-01
2.246000000000000000e+03 5.915496349334716797e+00 -2.145104026794433594e+01 3.068566322326660156e-01 5.336686968803405762e-01 2.521575987339019775e-01 2.841158807277679443e-01
2.247000000000000000e+03 4.252564907073974609e+00 2.581473731994628906e+01 1.179802417755126953e-01 5.016739368438720703e-01 1.858962625265121460e-01 -2.199613451957702637e-01
2.248000000000000000e+03 4.984916687011718750e+00 2.864717292785644531e+01 5.649181082844734192e-02 8.866649270057678223e-01 2.829470038414001465e-01 -3.360654115676879883e-01
2.249000000000000000e+03 4.847017765045166016e+00 2.319216918945312500e+01 1.892855018377304077e-01 3.826220035552978516e-01 1.715722531080245972e-01 -1.335748285055160522e-01
2.250000000000000000e+03 4.613252639770507812e+00 7.578400611877441406e+00 -2.101760328514501452e-04 -1.399347907863557339e-03 -4.828571691177785397e-04 -3.154985606670379639e-04
2.251000000000000000e+03 4.581902503967285156e+00 8.314455986022949219e+00 9.233687887899577618e-04 -1.819461933337152004e-03 -2.688279491849243641e-04 -7.057681796140968800e-04
2.252000000000000000e+03 7.478237152099609375e+01 2.540931701660156250e+01 -7.093628868460655212e-03 7.788140296936035156e+00 2.334313869476318359e+00 1.188129186630249023e-01
2.253000000000000000e+03 5.049563884735107422e+00 2.559763336181640625e+01 1.522004753351211548e-01 6.584518551826477051e-01 2.431956976652145386e-01 -2.806388139724731445e-01
2.254000000000000000e+03 4.564087390899658203e+00 -2.114937782287597656e+01 1.903053373098373413e-01 3.072313964366912842e-01 1.492610275745391846e-01 9.585443139076232910e-02
2.255000000000000000e+03 7.811747550964355469e+00 -6.180588245391845703e+00 9.789098839974030852e-05 -7.062585791572928429e-04 -1.825102808652445674e-04 -2.921658742707222700e-04
2.256000000000000000e+03 8.871496200561523438e+00 -6.045379161834716797e+00 -1.357618748443201184e-04 -2.896483056247234344e-04 -1.276230614166706800e-04 -1.566676655784249306e-04
2.257000000000000000e+03 1.177010631561279297e+01 5.257899761199951172e+00 -2.356280456297099590e-04 1.970031444216147065e-04 -1.158747090812539682e-05 5.183902103453874588e-04
2.258000000000000000e+03 6.174032688140869141e+00 1.330951499938964844e+01 -9.438894689083099365e-03 -5.049188155680894852e-03 -4.346424713730812073e-03 -7.183641660958528519e-03
2.259000000000000000e+03 4.290935993194580078e+00 2.367987442016601562e+01 1.510238945484161377e-01 3.345026075839996338e-01 1.456579566001892090e-01 -1.109567731618881226e-01
2.260000000000000000e+03 7.928487300872802734e+00 2.234024429321289062e+01 4.453426897525787354e-01 8.096019625663757324e-01 3.764833807945251465e-01 -5.369952321052551270e-01
2.261000000000000000e+03 7.461869049072265625e+01 2.860496330261230469e+01 -1.264864858239889145e-02 7.842020034790039062e+00 2.348811388015747070e+00 1.091916039586067200e-01
2.262000000000000000e+03 7.466099548339843750e+01 2.781229782104492188e+01 -1.209332607686519623e-02 7.830061435699462891e+00 2.345390319824218750e+00 1.117451786994934082e-01
2.263000000000000000e+03 5.082314968109130859e+00 3.484597015380859375e+01 -8.980126678943634033e-02 1.306116342544555664e+00 3.648945093154907227e-01 -2.798650562763214111e-01
2.264000000000000000e+03 7.310369110107421875e+01 3.326541519165039062e+01 -3.643864020705223083e-02 7.891609668731689453e+00 2.356551408767700195e+00 9.932934492826461792e-02
2.265000000000000000e+03 4.975789546966552734e+00 -2.503707313537597656e+01 1.276258677244186401e-01 8.167709708213806152e-01 2.833190560340881348e-01 3.696495592594146729e-01
2.266000000000000000e+03 5.811763763427734375e+00 3.026004981994628906e+01 2.798267873004078865e-03 1.255270838737487793e+00 3.774207234382629395e-01 -4.007186293601989746e-01
2.267000000000000000e+03 9.476180076599121094e+00 6.471533775329589844e+00 1.435955782653763890e-04 -1.257795956917107105e-04 5.344793862605001777e-06 4.838093009311705828e-04
2.268000000000000000e+03 9.560652732849121094e+00 5.174152374267578125e+00 3.102975897490978241e-04 -8.159894059645012021e-05 6.860959547339007258e-05 4.042327345814555883e-04
2.269000000000000000e+03 9.416184425354003906e+00 7.065628051757812500e+00 -3.477886493783444166e-04 -3.776937373913824558e-04 -2.176447160309180617e-04 1.213978743180632591e-03
2.270000000000000000e+03 5.960270404815673828e+00 -2.885040092468261719e+01 -1.241891924291849136e-02 1.416195988655090332e+00 4.211331307888031006e-01 4.659774899482727051e-01
2.271000000000000000e+03 5.777612686157226562e+00 -2.798155593872070312e+01 1.650795899331569672e-02 1.300641417503356934e+00 3.951448202133178711e-01 4.696790277957916260e-01
2.272000000000000000e+03 1.088449668884277344e+01 6.578484535217285156e+00 -1.269251661142334342e-04 5.889709573239088058e-04 1.386137446388602257e-04 4.719810094684362411e-04
2.273000000000000000e+03 5.585701942443847656e+00 3.151975631713867188e+01 -1.557870395481586456e-02 1.266335844993591309e+00 3.752271533012390137e-01 -3.660568594932556152e-01
2.274000000000000000e+03 4.904459476470947266e+00 3.204542160034179688e+01 -2.864843979477882385e-02 1.117129206657409668e+00 3.265442550182342529e-01 -3.248692154884338379e-01
2.275000000000000000e+03 1.617092132568359375e+01 -1.978461074829101562e+01 7.772684097290039062e-02 5.111437320709228516e+00 1.556749343872070312e+00 1.417375326156616211e+00
2.276000000000000000e+03 4.325371742248535156e+00 -5.356232643127441406e+00 5.815603071823716164e-04 -8.594394894316792488e-04 -8.336375321960076690e-05 3.154415462631732225e-04
2.277000000000000000e+03 6.570267200469970703e+00 -5.396001338958740234e+00 3.338157839607447386e-04 -7.740207365714013577e-04 -1.320614828728139400e-04 -7.889403786975890398e-05
2.278000000000000000e+03 5.581764698028564453e+00 -5.812415122985839844e+00 5.808800342492759228e-04 -1.189537812024354935e-03 -1.825973304221406579e-04 -6.359937833622097969e-05
2.279000000000000000e+03 5.766938209533691406e+00 -7.665703296661376953e+00 3.120841574855148792e-04 -1.856128335930407047e-03 -4.632132768165320158e-04 -3.389904741197824478e-04
2.280000000000000000e+03 6.171127796173095703e+00 -6.090798854827880859e+00 -4.302497018215944991e-06 2.124860839103348553e-05 5.083833457319997251e-06 -4.298491403460502625e-04
2.281000000000000000e+03 7.313827991485595703e+00 -6.793199539184570312e+00 -1.508166897110641003e-04 3.877306880895048380e-04 7.107419514795765281e-05 -7.046273676678538322e-04
2.282000000000000000e+03 2.090520668029785156e+01 -1.434769344329833984e+01 4.099346697330474854e-01 7.912042617797851562e+00 2.496593236923217773e+00 1.089800953865051270e+00
2.283000000000000000e+03 5.838644027709960938e+00 -8.680934906005859375e+00 3.246757842134684324e-05 -2.292238408699631691e-03 -6.779312388971447945e-04 -4.012658901046961546e-04
2.284000000000000000e+03 5.939549922943115234e+00 -9.733179092407226562e+00 -5.315610324032604694e-04 -2.779265632852911949e-03 -9.932479588314890862e-04 -3.414810053072869778e-04
2.285000000000000000e+03 1.328366184234619141e+01 2.227228736877441406e+01 2.136663794517517090e-01 3.499146461486816406e+00 1.113843917846679688e+00 -1.542928576469421387e+00
2.286000000000000000e+03 6.825782299041748047e+00 -7.427558898925781250e+00 1.430610573152080178e-04 -1.295447233133018017e-03 -3.457158454693853855e-04 -3.915788838639855385e-04
2.287000000000000000e+03 6.337690353393554688e+00 -8.055428504943847656e+00 -2.498363028280436993e-04 -2.635137752804439515e-05 -8.285629883175715804e-05 -7.542208768427371979e-04
2.288000000000000000e+03 6.928979396820068359e+00 -8.427989006042480469e+00 -8.558340778108686209e-05 -1.458237180486321449e-03 -4.631461633834987879e-04 -4.878697218373417854e-04
2.289000000000000000e+03 2.112176895141601562e+01 1.378923034667968750e+01 9.905600547790527344e-01 8.706604957580566406e+00 2.909149646759033203e+00 -1.040383458137512207e+00
2.290000000000000000e+03 2.283187866210937500e+01 4.764667034149169922e+00 1.173554301261901855e+00 1.078303718566894531e+01 3.586977481842041016e+00 -5.841832160949707031e-01
2.291000000000000000e+03 2.000924682617187500e+01 -1.452303600311279297e+01 4.575736522674560547e-01 7.678715705871582031e+00 2.440886735916137695e+00 1.308119177818298340e+00
2.292000000000000000e+03 2.381812477111816406e+01 2.457700490951538086e+00 1.149216532707214355e+00 1.067851257324218750e+01 3.548318862915039062e+00 -2.052106857299804688e-01
2.293000000000000000e+03 2.367424392700195312e+01 5.764204502105712891e+00 1.287335753440856934e+00 1.025643253326416016e+01 3.463130474090576172e+00 -5.244311094284057617e-01
2.294000000000000000e+03 2.278456115722656250e+01 -1.197346019744873047e+01 7.392475008964538574e-01 8.729211807250976562e+00 2.840537786483764648e+00 5.945117473602294922e-01
2.295000000000000000e+03 1.940954589843750000e+01 -1.504488945007324219e+01 4.422012567520141602e-01 7.308559417724609375e+00 2.325228214263916016e+00 1.462847948074340820e+00
2.296000000000000000e+03 1.766907501220703125e+01 -1.597113037109375000e+01 5.379295945167541504e-01 6.387958526611328125e+00 2.077766418457031250e+00 1.718104362487792969e+00
2.297000000000000000e+03 1.753634452819824219e+01 1.848006439208984375e+01 4.275117218494415283e-01 6.421513080596923828e+00 2.054707527160644531e+00 -1.542550444602966309e+00
2.298000000000000000e+03 2.434926795959472656e+01 9.233384132385253906e-01 1.196056246757507324e+00 1.053177356719970703e+01 3.518348932266235352e+00 2.219899930059909821e-02
2.299000000000000000e+03 2.202042579650878906e+01 -8.398166656494140625e+00 1.530629515647888184e+00 9.945589065551757812e+00 3.442865610122680664e+00 8.327813744544982910e-01
2.300000000000000000e+03 2.184166526794433594e+01 -5.325900077819824219e+00 1.877362966537475586e+00 1.096895694732666016e+01 3.853895902633666992e+00 1.095200657844543457e+00
2.301000000000000000e+03 2.162933349609375000e+01 -6.282473564147949219e+00 1.931544661521911621e+00 1.080693340301513672e+01 3.821543216705322266e+00 1.085338354110717773e+00
2.302000000000000000e+03 1.843324089050292969e+01 -1.647639083862304688e+01 3.277341127395629883e-01 6.623186111450195312e+00 2.085276126861572266e+00 1.479427576065063477e+00
2.303000000000000000e+03 1.391584491729736328e+01 -1.992585563659667969e+01 2.994567155838012695e-01 3.998227357864379883e+00 1.289305210113525391e+00 1.532672524452209473e+00
2.304000000000000000e+03 2.266944503784179688e+01 -9.657136917114257812e+00 1.223324179649353027e+00 9.394157409667968750e+00 3.185244560241699219e+00 6.261728405952453613e-01
2.305000000000000000e+03 2.205862998962402344e+01 1.214721202850341797e+01 1.144226074218750000e+00 9.143568038940429688e+00 3.086338043212890625e+00 -8.909891247749328613e-01
2.306000000000000000e+03 1.471090698242187500e+01 1.990900421142578125e+01 4.642425775527954102e-01 4.488373279571533203e+00 1.485784769058227539e+00 -1.849153637886047363e+00
2.307000000000000000e+03 6.412376880645751953e+00 -2.207130432128906250e+01 3.339608013629913330e-01 7.416998147964477539e-01 3.226981759071350098e-01 4.386237561702728271e-01
2.308000000000000000e+03 2.178676986694335938e+01 -1.154859447479248047e+01 8.210737705230712891e-01 8.917950630187988281e+00 2.921707391738891602e+00 9.009628891944885254e-01
2.309000000000000000e+03 2.223691368103027344e+01 -1.062905883789062500e+01 9.964696168899536133e-01 9.177662849426269531e+00 3.052239656448364258e+00 7.543476223945617676e-01
2.310000000000000000e+03 1.789599037170410156e+01 -1.724295425415039062e+01 2.643286883831024170e-01 6.239357948303222656e+00 1.951105952262878418e+00 1.490453124046325684e+00
2.311000000000000000e+03 1.331360626220703125e+01 -2.068199157714843750e+01 2.336642891168594360e-01 3.636790037155151367e+00 1.161136269569396973e+00 1.458413720130920410e+00
2.312000000000000000e+03 5.562761306762695312e+00 -1.836147117614746094e+01 1.052895095199346542e-02 1.911901831626892090e-01 6.051573902368545532e-02 -2.387037873268127441e-02
2.313000000000000000e+03 2.169660186767578125e+01 6.313707828521728516e+00 1.145720481872558594e+00 1.102703475952148438e+01 3.651826620101928711e+00 -9.645615816116333008e-01
2.314000000000000000e+03 2.184862518310546875e+01 9.985841751098632812e+00 1.317464113235473633e+00 9.846811294555664062e+00 3.349282741546630859e+00 -1.069108605384826660e+00
2.315000000000000000e+03 2.246206474304199219e+01 1.124523544311523438e+01 1.214662909507751465e+00 9.329485893249511719e+00 3.163244724273681641e+00 -8.300535678863525391e-01
2.316000000000000000e+03 6.434469699859619141e+00 -2.075532913208007812e+01 3.567651510238647461e-01 4.910469651222229004e-01 2.543436288833618164e-01 3.208938837051391602e-01
2.317000000000000000e+03 6.945831298828125000e+00 -2.139766120910644531e+01 4.028480052947998047e-01 7.311167716979980469e-01 3.401894271373748779e-01 4.853318333625793457e-01
2.318000000000000000e+03 7.657053470611572266e+00 2.500162315368652344e+01 2.677598297595977783e-01 1.223106741905212402e+00 4.472599923610687256e-01 -5.821470022201538086e-01
2.319000000000000000e+03 2.296435928344726562e+01 1.264775657653808594e+01 1.031398534774780273e+00 8.900076866149902344e+00 2.979442596435546875e+00 -6.324398517608642578e-01
2.320000000000000000e+03 5.737290859222412109e+00 1.498970031738281250e+01 -4.227243363857269287e-02 1.276010461151599884e-02 -8.853699080646038055e-03 -1.937972195446491241e-02
2.321000000000000000e+03 5.061481952667236328e+00 1.561924934387207031e+01 -6.459523737430572510e-02 3.417335078120231628e-02 -9.126567281782627106e-03 -1.525803375989198685e-02
2.322000000000000000e+03 1.614427375793457031e+01 2.006547546386718750e+01 2.247815132141113281e-01 5.394681930541992188e+00 1.685839056968688965e+00 -1.637989282608032227e+00
2.323000000000000000e+03 1.687678146362304688e+01 1.930400276184082031e+01 3.120822608470916748e-01 5.919402599334716797e+00 1.869445443153381348e+00 -1.594175815582275391e+00
2.324000000000000000e+03 1.008194732666015625e+01 -4.601694107055664062e+00 1.099470755434595048e-04 1.425419759470969439e-04 7.574671326437965035e-05 -4.538102657534182072e-04
2.325000000000000000e+03 1.890343093872070312e+01 1.815650367736816406e+01 3.532373309135437012e-01 7.018172740936279297e+00 2.211422920227050781e+00 -1.257754683494567871e+00
2.326000000000000000e+03 7.351183414459228516e+00 2.163155937194824219e+01 3.817876279354095459e-01 5.037741661071777344e-01 2.656685411930084229e-01 -3.217912018299102783e-01
2.327000000000000000e+03 8.568842887878417969e+00 2.180487632751464844e+01 5.029442906379699707e-01 8.439020514488220215e-01 4.040538966655731201e-01 -6.665806174278259277e-01
2.328000000000000000e+03 6.563482761383056641e+00 -3.299957656860351562e+01 -1.106335818767547607e-01 1.811293840408325195e+00 5.101980566978454590e-01 3.790574371814727783e-01
2.329000000000000000e+03 2.245864677429199219e+01 7.345098018646240234e+00 1.265935659408569336e+00 1.041561508178710938e+01 3.504465103149414062e+00 -8.642799258232116699e-01
2.330000000000000000e+03 2.342861747741699219e+01 1.166850566864013672e+01 1.128059983253479004e+00 9.052474021911621094e+00 3.054160118103027344e+00 -5.707720518112182617e-01
2.331000000000000000e+03 2.391404342651367188e+01 4.000157356262207031e+00 1.230610132217407227e+00 1.043432044982910156e+01 3.499479293823242188e+00 -3.606060445308685303e-01
2.332000000000000000e+03 7.422285461425781250e+01 3.487741088867187500e+01 -2.950628288090229034e-02 7.922288417816162109e+00 2.367834568023681641e+00 7.029569149017333984e-02
2.333000000000000000e+03 4.872000217437744141e+00 3.335792160034179688e+01 -6.034378334879875183e-02 1.169310450553894043e+00 3.326900005340576172e-01 -2.999832034111022949e-01
2.334000000000000000e+03 6.003459930419921875e+00 3.563233184814453125e+01 -1.096309125423431396e-01 1.538057446479797363e+00 4.285279810428619385e-01 -3.023614287376403809e-01
2.335000000000000000e+03 1.262681770324707031e+01 -2.140745353698730469e+01 1.957982629537582397e-01 3.316056728363037109e+00 1.053556561470031738e+00 1.387932538986206055e+00
2.336000000000000000e+03 1.106323909759521484e+01 -2.128082466125488281e+01 3.442139327526092529e-01 2.486661911010742188e+00 8.492627143859863281e-01 1.303415894508361816e+00
2.337000000000000000e+03 2.232155227661132812e+01 -7.432538032531738281e+00 1.727905273437500000e+00 1.011810779571533203e+01 3.553803920745849609e+00 7.924815416336059570e-01
2.338000000000000000e+03 2.256295585632324219e+01 -6.462838649749755859e+00 1.837312102317810059e+00 1.025983715057373047e+01 3.629144668579101562e+00 7.996116280555725098e-01
2.339000000000000000e+03 7.372183227539062500e+01 -3.597122192382812500e+01 -4.039837792515754700e-02 8.014037132263183594e+00 2.392091512680053711e+00 -7.598704844713211060e-02
2.340000000000000000e+03 7.314282989501953125e+01 -3.704840087890625000e+01 -5.036790296435356140e-02 8.011795997619628906e+00 2.388428449630737305e+00 -6.751327216625213623e-02
2.341000000000000000e+03 5.226168155670166016e+00 -3.572077178955078125e+01 -9.489414840936660767e-02 1.553426504135131836e+00 4.375596940517425537e-01 2.654655277729034424e-01
2.342000000000000000e+03 7.338124847412109375e+01 -3.365880584716796875e+01 -3.323953226208686829e-02 7.985723972320556641e+00 2.385745286941528320e+00 -9.760227054357528687e-02
2.343000000000000000e+03 7.501754760742187500e+01 -3.314042282104492188e+01 -2.058178745210170746e-02 8.008355140686035156e+00 2.396332025527954102e+00 -8.370540291070938110e-02
2.344000000000000000e+03 7.264171600341796875e+01 3.629891204833984375e+01 -4.764252528548240662e-02 7.915593624114990234e+00 2.360385417938232422e+00 6.919841468334197998e-02
2.345000000000000000e+03 7.137914657592773438e+00 4.134672927856445312e+01 -2.021945118904113770e-01 2.027513504028320312e+00 5.475957393646240234e-01 -6.700859963893890381e-02
2.346000000000000000e+03 6.960665225982666016e+00 -3.745401000976562500e+01 -1.713373661041259766e-01 1.994048118591308594e+00 5.468131899833679199e-01 2.481280565261840820e-01
2.347000000000000000e+03 5.049898147583007812e+00 -1.116225528717041016e+01 -3.872320521622896194e-03 -3.134454134851694107e-03 -2.102032536640763283e-03 1.367113552987575531e-03
2.348000000000000000e+03 5.165339946746826172e+00 1.678799819946289062e+01 -9.251867979764938354e-02 6.859800964593887329e-02 -7.176200859248638153e-03 -8.264282718300819397e-03
2.349000000000000000e+03 8.123045921325683594e+00 6.514312744140625000e+00 4.795398563146591187e-04 -7.210395415313541889e-04 -7.244990410981699824e-05 2.675191499292850494e-04
2.350000000000000000e+03 9.523648262023925781e+00 5.827819347381591797e+00 -1.277468836633488536e-04 -3.474137338344007730e-04 -1.425481896148994565e-04 8.884305716492235661e-04
2.351000000000000000e+03 9.964406967163085938e+00 7.195817947387695312e+00 5.438173320726491511e-05 -8.376737241633236408e-05 -8.815693036012817174e-06 6.892705569043755531e-04
2.352000000000000000e+03 4.867716312408447266e+00 1.431834793090820312e+01 -3.366817161440849304e-02 1.247231289744377136e-02 -6.358758080750703812e-03 -4.010131582617759705e-03
2.353000000000000000e+03 6.494696140289306641e+00 2.974493980407714844e+01 1.008380670100450516e-02 1.420162558555603027e+00 4.290739297866821289e-01 -4.573850333690643311e-01
2.354000000000000000e+03 7.379842376708984375e+01 -2.949013137817382812e+01 -2.239799313247203827e-02 7.937853813171386719e+00 2.374636650085449219e+00 -1.252391487360000610e-01
2.355000000000000000e+03 6.352515220642089844e+00 1.162996101379394531e+01 -4.107545129954814911e-03 -4.016368649899959564e-03 -2.437174087390303612e-03 1.711531658656895161e-04
2.356000000000000000e+03 5.852144241333007812e+00 9.233702659606933594e+00 -1.094983541406691074e-03 -2.253116108477115631e-03 -1.004429883323609829e-03 2.079982950817793608e-04
2.357000000000000000e+03 7.498400211334228516e+00 1.085909461975097656e+01 -1.488690380938351154e-03 -3.222826635465025902e-03 -1.413455116562545300e-03 1.339693088084459305e-03
2.358000000000000000e+03 9.317874908447265625e+00 -4.848530292510986328e+00 1.839623109844978899e-05 3.794362419284880161e-04 1.193497373606078327e-04 -4.201555566396564245e-04
2.359000000000000000e+03 7.055545330047607422e+00 -2.872010612487792969e+01 -2.117363736033439636e-02 1.691686272621154785e+00 5.011537671089172363e-01 5.583744645118713379e-01
2.360000000000000000e+03 4.694815158843994141e+00 6.338414669036865234e+00 -1.898595110105816275e-05 -8.977790712378919125e-04 -2.750295097939670086e-04 -2.092378417728468776e-04
2.361000000000000000e+03 6.802579879760742188e+00 6.651741027832031250e+00 6.594059523195028305e-04 -1.162979286164045334e-03 -1.510720030637457967e-04 -1.243886363226920366e-04
2.362000000000000000e+03 7.456942558288574219e+00 6.566264629364013672e+00 -7.265664316946640611e-05 -1.021934673190116882e-03 -3.283773839939385653e-04 8.608287316747009754e-04
2.363000000000000000e+03 9.290168762207031250e+00 9.132302284240722656e+00 -7.619330426678061485e-04 -5.410970188677310944e-04 -3.909090301021933556e-04 1.484440639615058899e-03
2.364000000000000000e+03 5.968131542205810547e+00 2.903174400329589844e+01 5.328720062971115112e-02 1.204274058341979980e+00 3.772683739662170410e-01 -4.330626428127288818e-01
2.365000000000000000e+03 7.325310516357421875e+01 3.066017532348632812e+01 -2.673492394387722015e-02 7.860864162445068359e+00 2.350238800048828125e+00 1.182322204113006592e-01
2.366000000000000000e+03 7.397590637207031250e+01 3.017905235290527344e+01 -2.091906964778900146e-02 7.858772277832031250e+00 2.351356029510498047e+00 1.121608614921569824e-01
2.367000000000000000e+03 2.231389045715332031e+01 -1.282658195495605469e+01 6.030865907669067383e-01 8.512658119201660156e+00 2.734723567962646484e+00 7.172350287437438965e-01
2.368000000000000000e+03 7.374338531494140625e+01 -2.827463531494140625e+01 -2.084483020007610321e-02 7.917255878448486328e+00 2.368923187255859375e+00 -1.346141546964645386e-01
2.369000000000000000e+03 7.473674011230468750e+01 -2.826746749877929688e+01 -1.496636308729648590e-02 7.931782722473144531e+00 2.375044822692871094e+00 -1.165432780981063843e-01
2.370000000000000000e+03 4.363766670227050781e+00 2.278193664550781250e+01 1.571571379899978638e-01 2.753096818923950195e-01 1.297400444746017456e-01 -6.388958543539047241e-02
2.371000000000000000e+03 7.294215393066406250e+01 -2.204841995239257812e+01 -7.034260313957929611e-03 7.798275470733642578e+00 2.337372303009033203e+00 -1.769832670688629150e-01
2.372000000000000000e+03 4.191308021545410156e+00 2.140786170959472656e+01 1.066428050398826599e-01 1.749841570854187012e-01 8.448809385299682617e-02 3.326248750090599060e-02
2.373000000000000000e+03 5.576354026794433594e+00 2.176726341247558594e+01 2.243083715438842773e-01 3.354551494121551514e-01 1.679290533065795898e-01 -8.820188790559768677e-02
2.374000000000000000e+03 5.357184410095214844e+00 -2.205185699462890625e+01 2.515453994274139404e-01 5.288903713226318359e-01 2.341307252645492554e-01 2.653716206550598145e-01
2.375000000000000000e+03 7.376156616210937500e+01 2.769945335388183594e+01 -1.637737080454826355e-02 7.823478698730468750e+00 2.342130422592163086e+00 1.275763213634490967e-01
2.376000000000000000e+03 7.447305297851562500e+01 -2.089971733093261719e+01 -2.090506022796034813e-03 7.781248569488525391e+00 2.333747386932373047e+00 -1.471130549907684326e-01
2.377000000000000000e+03 7.380247497558593750e+01 2.291313934326171875e+01 -4.038230981677770615e-03 7.743111610412597656e+00 2.321722030639648438e+00 1.423128098249435425e-01
2.378000000000000000e+03 7.373396301269531250e+01 2.202223587036132812e+01 -1.112790312618017197e-03 7.725696563720703125e+00 2.317375183105468750e+00 1.429812163114547729e-01
2.379000000000000000e+03 5.440034389495849609e+00 1.999303054809570312e+01 6.202304363250732422e-02 2.257957458496093750e-01 8.634563535451889038e-02 3.973486647009849548e-02
2.380000000000000000e+03 5.042378902435302734e+00 -2.415311050415039062e+01 1.656806021928787231e-01 7.327036857604980469e-01 2.695152759552001953e-01 3.413018882274627686e-01
2.381000000000000000e+03 7.389188385009765625e+01 2.124493980407714844e+01 6.850414793007075787e-04 7.713028430938720703e+00 2.314114093780517578e+00 1.405725926160812378e-01
2.382000000000000000e+03 7.408061981201171875e+01 1.483362483978271484e+01 1.658815704286098480e-02 7.602240562438964844e+00 2.285648584365844727e+00 1.200874224305152893e-01
2.383000000000000000e+03 6.864345550537109375e+00 -2.397771644592285156e+01 2.355322390794754028e-01 1.159339904785156250e+00 4.184616208076477051e-01 5.769736170768737793e-01
2.384000000000000000e+03 7.477625274658203125e+01 2.620649528503417969e+01 -8.979801088571548462e-03 7.802176475524902344e+00 2.337959051132202148e+00 1.165609806776046753e-01
2.385000000000000000e+03 7.286917114257812500e+01 2.456268882751464844e+01 -1.063230913132429123e-02 7.769744873046875000e+00 2.327733755111694336e+00 1.525434702634811401e-01
2.386000000000000000e+03 7.360965728759765625e+01 -1.488623523712158203e+01 1.539940666407346725e-02 7.663010120391845703e+00 2.303522825241088867e+00 -1.534876525402069092e-01
2.387000000000000000e+03 7.489552307128906250e+01 1.741894340515136719e+01 7.699252106249332428e-03 7.638973712921142578e+00 2.294001817703247070e+00 1.164655014872550964e-01
2.388000000000000000e+03 7.441670227050781250e+01 -1.396500778198242188e+01 1.422433927655220032e-02 7.640172481536865234e+00 2.296319007873535156e+00 -1.340896040201187134e-01
2.389000000000000000e+03 5.472180366516113281e+00 2.452558898925781250e+01 2.171882539987564087e-01 6.410651206970214844e-01 2.574760019779205322e-01 -2.793813049793243408e-01
2.390000000000000000e+03 7.428483581542968750e+01 1.078796005249023438e+01 2.369621023535728455e-02 7.542030334472656250e+00 2.269717931747436523e+00 9.140527993440628052e-02
2.391000000000000000e+03 7.355786895751953125e+01 9.069453239440917969e+00 3.349704667925834656e-02 7.533143520355224609e+00 2.269992113113403320e+00 8.493762463331222534e-02
2.392000000000000000e+03 5.236334323883056641e+00 -2.651764297485351562e+01 6.599713116884231567e-02 1.028531551361083984e+00 3.283585906028747559e-01 4.142170250415802002e-01
2.393000000000000000e+03 9.120811462402343750e+00 -2.212778472900390625e+01 3.600863516330718994e-01 1.617918133735656738e+00 5.934013128280639648e-01 9.403336644172668457e-01
2.394000000000000000e+03 7.446778869628906250e+01 -2.165200233459472656e+01 -4.640557337552309036e-03 7.798548698425292969e+00 2.338172435760498047e+00 -1.469355672597885132e-01
2.395000000000000000e+03 7.436428070068359375e+01 7.643575191497802734e+00 2.832877635955810547e-02 7.506774425506591797e+00 2.260530948638916016e+00 6.380877643823623657e-02
2.396000000000000000e+03 7.308769226074218750e+01 1.634185218811035156e+01 1.695963367819786072e-02 7.634517669677734375e+00 2.295443058013916016e+00 1.428403109312057495e-01
2.397000000000000000e+03 7.439702606201171875e+01 -7.541435718536376953e+00 2.683256939053535461e-02 7.536491870880126953e+00 2.268997430801391602e+00 -8.996734023094177246e-02
2.398000000000000000e+03 7.423917388916015625e+01 1.157634830474853516e+01 2.240401133894920349e-02 7.552682876586914062e+00 2.272526025772094727e+00 9.780406951904296875e-02
2.399000000000000000e+03 8.225438117980957031e+00 -3.412486267089843750e+01 -1.968027204275131226e-01 2.290110349655151367e+00 6.279922723770141602e-01 3.681513071060180664e-01
2.400000000000000000e+03 7.168285846710205078e+00 -3.059688949584960938e+01 -8.370734006166458130e-02 1.873198151588439941e+00 5.368472337722778320e-01 5.059472918510437012e-01
2.401000000000000000e+03 7.512305450439453125e+01 9.357296943664550781e+00 1.979236863553524017e-02 7.511183738708496094e+00 2.259292840957641602e+00 7.048349827527999878e-02
2.402000000000000000e+03 7.431983184814453125e+01 1.000004482269287109e+01 2.499363571405410767e-02 7.531866550445556641e+00 2.267058134078979492e+00 8.483470231294631958e-02
2.403000000000000000e+03 7.440327453613281250e+01 -5.944192886352539062e+00 2.883701771497726440e-02 7.517689704895019531e+00 2.263957977294921875e+00 -7.522226125001907349e-02
2.404000000000000000e+03 7.436287689208984375e+01 6.853808403015136719e+00 2.935059368610382080e-02 7.500260829925537109e+00 2.258883476257324219e+00 5.632093176245689392e-02
2.405000000000000000e+03 7.520671081542968750e+01 -1.776227760314941406e+01 3.832576097920536995e-03 7.713966369628906250e+00 2.315339803695678711e+00 -1.300057768821716309e-01
2.406000000000000000e+03 7.438365173339843750e+01 -9.155035018920898438e+00 2.436056174337863922e-02 7.558709144592285156e+00 2.274920940399169922e+00 -1.036883145570755005e-01
2.407000000000000000e+03 7.442328643798828125e+01 -1.475077629089355469e+01 1.268582325428724289e-02 7.655210971832275391e+00 2.300369024276733398e+00 -1.375164091587066650e-01
2.408000000000000000e+03 7.438784790039062500e+01 4.962193071842193604e-01 3.268761560320854187e-02 7.478660106658935547e+00 2.253404378890991211e+00 -9.099324233829975128e-03
2.409000000000000000e+03 4.841579914093017578e+00 1.783267593383789062e+01 -8.794223517179489136e-02 1.191792190074920654e-01 9.371094405651092529e-03 5.823996290564537048e-02
2.410000000000000000e+03 7.518865966796875000e+01 -4.227674961090087891e+00 2.313954755663871765e-02 7.486773490905761719e+00 2.252973794937133789e+00 -5.186789482831954956e-02
2.411000000000000000e+03 7.440271759033203125e+01 -6.741635322570800781e+00 2.785319834947586060e-02 7.526590824127197266e+00 2.266333341598510742e+00 -8.275870978832244873e-02
2.412000000000000000e+03 7.440108489990234375e+01 -4.343885898590087891e+00 3.049274161458015442e-02 7.502441883087158203e+00 2.259880304336547852e+00 -5.967888236045837402e-02
2.413000000000000000e+03 7.438747406005859375e+01 -2.724864482879638672e+00 3.177075833082199097e-02 7.490877151489257812e+00 2.256794452667236328e+00 -4.325433447957038879e-02
2.414000000000000000e+03 4.309351921081542969e+00 2.078978347778320312e+01 7.719819247722625732e-02 1.675082743167877197e-01 7.341194152832031250e-02 5.856254324316978455e-02
2.415000000000000000e+03 7.437254333496093750e+01 2.884618997573852539e+00 3.211161121726036072e-02 7.480177402496337891e+00 2.253686666488647461e+00 1.640025153756141663e-02
2.416000000000000000e+03 7.518824005126953125e+01 -1.144346714019775391e+01 1.503430586308240891e-02 7.585421085357666016e+00 2.280136585235595703e+00 -1.063444912433624268e-01
2.417000000000000000e+03 7.487554168701171875e+01 1.987085914611816406e+01 3.197605488821864128e-03 7.683916568756103516e+00 2.306134223937988281e+00 1.212620809674263000e-01
2.418000000000000000e+03 7.312257385253906250e+01 1.802378463745117188e+01 1.107841636985540390e-02 7.662396907806396484e+00 2.302042484283447266e+00 1.496563106775283813e-01
2.419000000000000000e+03 7.514564514160156250e+01 4.594346046447753906e+00 2.364945784211158752e-02 7.470827579498291016e+00 2.248343229293823242e+00 3.026405163109302521e-02
2.420000000000000000e+03 7.438143157958984375e+01 2.086298227310180664e+00 3.250966966152191162e-02 7.478538513183593750e+00 2.253314495086669922e+00 7.958580739796161652e-03
2.421000000000000000e+03 7.517958831787109375e+01 -1.064154720306396484e+01 1.639805547893047333e-02 7.571532249450683594e+00 2.276379108428955078e+00 -1.017751023173332214e-01
2.422000000000000000e+03 7.441297149658203125e+01 -1.317056179046630859e+01 1.639711298048496246e-02 7.625326156616210938e+00 2.292516946792602539e+00 -1.302938014268875122e-01
2.423000000000000000e+03 7.514244079589843750e+01 5.390242099761962891e+00 2.321895398199558258e-02 7.475304603576660156e+00 2.249557018280029297e+00 3.738741204142570496e-02
2.424000000000000000e+03 7.355220031738281250e+01 3.584038496017456055e+00 4.056104645133018494e-02 7.496736526489257812e+00 2.261189222335815430e+00 2.631578035652637482e-02
2.425000000000000000e+03 7.492649841308593750e+01 -2.570944786071777344e+01 -9.882261976599693298e-03 7.883669376373291016e+00 2.362136125564575195e+00 -1.251776814460754395e-01
2.426000000000000000e+03 7.394488525390625000e+01 -2.732429695129394531e+01 -1.841156929731369019e-02 7.904414653778076172e+00 2.365800857543945312e+00 -1.366193741559982300e-01
2.427000000000000000e+03 5.582706451416015625e+00 2.837553977966308594e+01 7.538343966007232666e-02 1.066050648689270020e+00 3.424302339553833008e-01 -3.975587189197540283e-01
2.428000000000000000e+03 5.339478015899658203e+00 2.645666122436523438e+01 1.303155422210693359e-01 8.051852583885192871e-01 2.806502282619476318e-01 -3.349774777889251709e-01
2.429000000000000000e+03 7.438138580322265625e+01 -9.963006019592285156e+00 2.298068068921566010e-02 7.570989608764648438e+00 2.278191089630126953e+00 -1.100941523909568787e-01
2.430000000000000000e+03 7.516880798339843750e+01 -1.807118654251098633e+00 2.441361732780933380e-02 7.470390796661376953e+00 2.248441457748413086e+00 -2.980003319680690765e-02
2.431000000000000000e+03 7.437955474853515625e+01 -1.910889029502868652e+00 3.219972178339958191e-02 7.486537456512451172e+00 2.255621194839477539e+00 -3.479835018515586853e-02
2.432000000000000000e+03 7.409366607666015625e+01 -2.573729324340820312e+01 -1.398961152881383896e-02 7.878797054290771484e+00 2.359442234039306641e+00 -1.401094347238540649e-01
2.433000000000000000e+03 7.411761474609375000e+01 -2.656108283996582031e+01 -1.443421468138694763e-02 7.891439914703369141e+00 2.363101720809936523e+00 -1.363989114761352539e-01
2.434000000000000000e+03 7.435656738281250000e+01 5.271948337554931641e+00 3.070548921823501587e-02 7.489793777465820312e+00 2.256149768829345703e+00 4.083479568362236023e-02
2.435000000000000000e+03 7.438201904296875000e+01 -2.999526858329772949e-01 3.266134113073348999e-02 7.480456352233886719e+00 2.253935337066650391e+00 -1.772261969745159149e-02
2.436000000000000000e+03 7.437768554687500000e+01 -1.102091550827026367e+00 3.254041448235511780e-02 7.483043193817138672e+00 2.254675149917602539e+00 -2.620297297835350037e-02
2.437000000000000000e+03 7.435925292968750000e+01 6.062470912933349609e+00 3.001392632722854614e-02 7.494578361511230469e+00 2.257377624511718750e+00 4.863035678863525391e-02
2.438000000000000000e+03 7.448164367675781250e+01 -1.861384773254394531e+01 2.920810831710696220e-03 7.733857631683349609e+00 2.321033477783203125e+00 -1.469533890485763550e-01
2.439000000000000000e+03 7.429534912109375000e+01 -2.320296096801757812e+01 -8.752095513045787811e-03 7.829892158508300781e+00 2.346342086791992188e+00 -1.467131525278091431e-01
2.440000000000000000e+03 7.419395446777343750e+01 -2.401920509338378906e+01 -1.030947826802730560e-02 7.845698356628417969e+00 2.350616693496704102e+00 -1.457633972167968750e-01
2.441000000000000000e+03 7.501404571533203125e+01 1.254853153228759766e+01 1.562569662928581238e-02 7.555637836456298828e+00 2.271378993988037109e+00 9.315680712461471558e-02
2.442000000000000000e+03 7.418853759765625000e+01 1.236868667602539062e+01 2.106251195073127747e-02 7.564288616180419922e+00 2.275605440139770508e+00 1.039514616131782532e-01
2.443000000000000000e+03 7.445650482177734375e+01 -2.015633773803710938e+01 -5.994093371555209160e-04 7.766439437866210938e+00 2.329751968383789062e+00 -1.473557949066162109e-01
2.444000000000000000e+03 7.323667907714843750e+01 2.611962318420410156e+01 -1.388131268322467804e-02 7.795072078704833984e+00 2.334357261657714844e+00 1.416971832513809204e-01
2.445000000000000000e+03 4.752018451690673828e+00 -8.839426994323730469e+00 -1.248159824172034860e-04 -2.479595830664038658e-03 -7.813235279172658920e-04 -1.885865931399166584e-04
2.446000000000000000e+03 7.444939422607421875e+01 -1.629694557189941406e+01 9.026254527270793915e-03 7.685745716094970703e+00 2.308431625366210938e+00 -1.425619721412658691e-01
2.447000000000000000e+03 7.446939849853515625e+01 -1.706794357299804688e+01 6.623204331845045090e-03 7.701772689819335938e+00 2.312518835067749023e+00 -1.441208422183990479e-01
2.448000000000000000e+03 5.916003704071044922e+00 1.969769096374511719e+01 7.435394078493118286e-02 2.023317813873291016e-01 8.300571888685226440e-02 3.232474252581596375e-02
2.449000000000000000e+03 7.410892486572265625e+01 1.400080871582031250e+01 1.833564043045043945e-02 7.588927745819091797e+00 2.282178878784179688e+00 1.151629313826560974e-01
2.450000000000000000e+03 7.414361572265625000e+01 1.317577171325683594e+01 1.962099596858024597e-02 7.576151371002197266e+00 2.278731584548950195e+00 1.096151173114776611e-01
2.451000000000000000e+03 4.976594448089599609e+00 2.028152656555175781e+01 7.373062521219253540e-02 1.962469965219497681e-01 8.099328726530075073e-02 4.822432994842529297e-02
2.452000000000000000e+03 6.097084999084472656e+00 1.104482650756835938e+01 -2.987983636558055878e-03 -3.003711113706231117e-03 -1.797508448362350464e-03 -7.831208058632910252e-04
2.453000000000000000e+03 5.030895709991455078e+00 1.119205951690673828e+01 -2.703844569623470306e-03 -3.391697537153959274e-03 -1.828662585467100143e-03 -6.344241555780172348e-04
2.454000000000000000e+03 4.677536487579345703e+00 1.281621170043945312e+01 -1.309683360159397125e-02 1.298033021157607436e-04 -3.890109248459339142e-03 -7.761656888760626316e-04
2.455000000000000000e+03 7.405428314208984375e+01 2.056314849853515625e+01 2.684785285964608192e-03 7.698802471160888672e+00 2.310446262359619141e+00 1.361001729965209961e-01
2.456000000000000000e+03 5.324789047241210938e+00 1.271249485015869141e+01 -8.904752321541309357e-03 -2.884429413825273514e-03 -3.536754520609974861e-03 -3.158523002639412880e-03
2.457000000000000000e+03 5.998542308807373047e+00 8.545009613037109375e+00 4.902548389509320259e-04 -2.236796310171484947e-03 -5.239624297246336937e-04 -3.151022974634543061e-05
2.458000000000000000e+03 5.263428688049316406e+00 6.431586265563964844e+00 1.080380752682685852e-03 -1.214091200381517410e-03 -4.011311102658510208e-05 -6.903337780386209488e-04
2.459000000000000000e+03 5.788213253021240234e+00 6.650510311126708984e+00 -1.880952913779765368e-05 -1.124722533859312534e-03 -3.430595970712602139e-04 -6.647787813562899828e-05
2.460000000000000000e+03 4.923192977905273438e+00 -2.056740570068359375e+01 2.087291032075881958e-01 2.824877798557281494e-01 1.473650634288787842e-01 8.479636907577514648e-02
2.461000000000000000e+03 5.486630439758300781e+00 -2.721954536437988281e+01 4.014983028173446655e-02 1.139284849166870117e+00 3.538304269313812256e-01 4.402452707290649414e-01
2.462000000000000000e+03 5.291337966918945312e+00 2.253865242004394531e+01 2.175827473402023315e-01 3.882450759410858154e-01 1.817483454942703247e-01 -1.273847967386245728e-01
2.463000000000000000e+03 7.472909545898437500e+01 2.701011657714843750e+01 -1.055633369833230972e-02 7.816824436187744141e+00 2.341880559921264648e+00 1.148717552423477173e-01
2.464000000000000000e+03 7.386931610107421875e+01 2.455862998962402344e+01 -7.534284610301256180e-03 7.771294593811035156e+00 2.329128026962280273e+00 1.360187530517578125e-01
2.465000000000000000e+03 8.805686950683593750e+00 7.125144004821777344e+00 1.693108788458630443e-04 -4.526962293311953545e-04 -8.501560660079121590e-05 4.557174106594175100e-04
2.466000000000000000e+03 6.842587947845458984e+00 -2.504907417297363281e+01 1.692335903644561768e-01 1.314537167549133301e+00 4.451312124729156494e-01 5.900775790214538574e-01
2.467000000000000000e+03 5.212865352630615234e+00 2.379475593566894531e+01 2.051969915628433228e-01 4.979004859924316406e-01 2.109292447566986084e-01 -2.017028182744979858e-01
2.468000000000000000e+03 6.677357196807861328e+00 2.300330924987792969e+01 3.204942047595977783e-01 6.866791248321533203e-01 3.021520078182220459e-01 -3.391130566596984863e-01
2.469000000000000000e+03 7.397678375244140625e+01 2.612287902832031250e+01 -1.091172639280557632e-02 7.797383785247802734e+00 2.335941553115844727e+00 1.309237629175186157e-01
2.470000000000000000e+03 2.404333305358886719e+01 1.724897265434265137e+00 1.160639286041259766e+00 1.063128662109375000e+01 3.537577629089355469e+00 -1.085662841796875000e-01
2.471000000000000000e+03 2.513313293457031250e+01 1.373419761657714844e+00 1.305141925811767578e+00 1.017289161682128906e+01 3.443410158157348633e+00 1.607181318104267120e-02
2.472000000000000000e+03 7.293373584747314453e+00 -2.784863281250000000e+01 -4.073867108672857285e-03 1.686242461204528809e+00 5.046505928039550781e-01 5.812815427780151367e-01
2.473000000000000000e+03 6.370784282684326172e+00 -2.459906578063964844e+01 1.900649964809417725e-01 1.132519721984863281e+00 3.967754244804382324e-01 5.188977122306823730e-01
2.474000000000000000e+03 1.017068004608154297e+01 6.555535316467285156e+00 -3.514138225000351667e-04 -9.092139225685968995e-05 -1.327005738858133554e-04 9.617584291845560074e-04
2.475000000000000000e+03 5.969696998596191406e+00 1.255399990081787109e+01 -8.557111956179141998e-03 -3.564913524314761162e-03 -3.636607667431235313e-03 -1.718349289149045944e-03
2.476000000000000000e+03 6.739727020263671875e+00 3.201008224487304688e+01 -5.166210234165191650e-02 1.606382727622985840e+00 4.664162099361419678e-01 -4.131629168987274170e-01
2.477000000000000000e+03 6.949149131774902344e+00 3.315611648559570312e+01 -1.026001945137977600e-01 1.698523044586181641e+00 4.787768721580505371e-01 -3.927844464778900146e-01
2.478000000000000000e+03 5.681250572204589844e+00 3.394171905517578125e+01 -8.088114112615585327e-02 1.383176684379577637e+00 3.906886577606201172e-01 -3.319290280342102051e-01
2.479000000000000000e+03 4.795966148376464844e+00 -1.539181041717529297e+01 -6.820180267095565796e-02 4.639705643057823181e-02 -6.541423499584197998e-03 1.400921400636434555e-02
2.480000000000000000e+03 6.743799686431884766e+00 -6.421211242675781250e+00 2.805239346344023943e-04 -1.100741676054894924e-03 -2.460653195157647133e-04 -2.464442222844809294e-04
2.481000000000000000e+03 1.952750778198242188e+01 1.481793403625488281e+01 1.029366970062255859e+00 8.216425895690917969e+00 2.773737668991088867e+00 -1.535234332084655762e+00
2.482000000000000000e+03 1.733587837219238281e+01 -1.802468681335449219e+01 2.080198675394058228e-01 5.883782386779785156e+00 1.827540755271911621e+00 1.480610966682434082e+00
2.483000000000000000e+03 2.272569656372070312e+01 5.617030620574951172e+00 1.212110042572021484e+00 1.067297172546386719e+01 3.565524339675903320e+00 -6.827830076217651367e-01
2.484000000000000000e+03 2.305582809448242188e+01 -8.652913093566894531e+00 1.448216319084167480e+00 9.555786132812500000e+00 3.301200866699218750e+00 5.454642176628112793e-01
2.485000000000000000e+03 2.150633811950683594e+01 1.499765777587890625e+01 7.530472278594970703e-01 8.338051795959472656e+00 2.727329730987548828e+00 -8.555955886840820312e-01
2.486000000000000000e+03 2.159791564941406250e+01 1.298721694946289062e+01 1.067416191101074219e+00 8.951665878295898438e+00 3.005724668502807617e+00 -9.728584885597229004e-01
2.487000000000000000e+03 2.290074157714843750e+01 3.929311752319335938e+00 1.133343815803527832e+00 1.088278007507324219e+01 3.604837179183959961e+00 -5.014478564262390137e-01
2.488000000000000000e+03 1.920685958862304688e+01 -1.694495010375976562e+01 1.514129936695098877e-01 6.806410312652587891e+00 2.087347030639648438e+00 1.258155465126037598e+00
2.489000000000000000e+03 2.013398742675781250e+01 -1.538360977172851562e+01 2.929779887199401855e-01 7.458608627319335938e+00 2.325475931167602539e+00 1.175135135650634766e+00
2.490000000000000000e+03 2.505933761596679688e+01 -4.112987041473388672e+00 1.633501529693603516e+00 9.787000656127929688e+00 3.426150798797607422e+00 4.058079719543457031e-01
2.491000000000000000e+03 2.424637985229492188e+01 -1.144534206390380859e+01 8.392903208732604980e-01 8.741207122802734375e+00 2.874149322509765625e+00 2.554916441440582275e-01
2.492000000000000000e+03 1.671498489379882812e+01 -1.884745788574218750e+01 1.507993191480636597e-01 5.457264423370361328e+00 1.682419061660766602e+00 1.457098722457885742e+00
2.493000000000000000e+03 1.931884384155273438e+01 -1.906211090087890625e+01 -1.265632212162017822e-01 6.455627918243408203e+00 1.898719310760498047e+00 1.062191486358642578e+00
2.494000000000000000e+03 1.976082229614257812e+01 -1.619060707092285156e+01 2.149791419506072998e-01 7.171103477478027344e+00 2.215824842453002930e+00 1.212148666381835938e+00
2.495000000000000000e+03 2.324145698547363281e+01 -1.102204036712646484e+01 9.201011061668395996e-01 8.935183525085449219e+00 2.956585407257080078e+00 4.689549207687377930e-01
2.496000000000000000e+03 1.839288902282714844e+01 1.901935577392578125e+01 2.193199396133422852e-01 6.668868064880371094e+00 2.066456317901611328e+00 -1.305129766464233398e+00
2.497000000000000000e+03 1.499023437500000000e+01 2.226923751831054688e+01 2.325454493984580040e-03 4.502533912658691406e+00 1.351457834243774414e+00 -1.521534562110900879e+00
2.498000000000000000e+03 9.683181762695312500e+00 -2.138469505310058594e+01 4.237121045589447021e-01 1.756470561027526855e+00 6.540548205375671387e-01 1.094138860702514648e+00
2.499000000000000000e+03 7.947697639465332031e+00 -2.118742942810058594e+01 4.594368338584899902e-01 9.851167201995849609e-01 4.333660602569580078e-01 7.107681632041931152e-01
2.500000000000000000e+03 2.373202133178710938e+01 -5.655645847320556641e+00 1.764828801155090332e+00 9.966470718383789062e+00 3.519389867782592773e+00 6.014078259468078613e-01
2.501000000000000000e+03 2.433712387084960938e+01 7.712830066680908203e+00 1.320653438568115234e+00 9.681049346923828125e+00 3.300510644912719727e+00 -4.639893472194671631e-01
2.502000000000000000e+03 2.323249816894531250e+01 8.441125869750976562e+00 1.310157179832458496e+00 9.862044334411621094e+00 3.351660490036010742e+00 -7.005679607391357422e-01
2.503000000000000000e+03 4.636878013610839844e+00 -2.001314735412597656e+01 1.355971097946166992e-01 2.232210636138916016e-01 1.076454520225524902e-01 1.022865343838930130e-02
2.504000000000000000e+03 6.861814498901367188e+00 2.782991409301757812e+01 9.357678145170211792e-02 1.345186114311218262e+00 4.316288530826568604e-01 -5.153480768203735352e-01
2.505000000000000000e+03 9.751155853271484375e+00 2.209625816345214844e+01 5.201128125190734863e-01 1.393521904945373535e+00 5.740904211997985840e-01 -1.016459465026855469e+00
2.506000000000000000e+03 5.390369415283203125e+00 3.268142700195312500e+01 -4.871955141425132751e-02 1.245803117752075195e+00 3.591250777244567871e-01 -3.370228707790374756e-01
2.507000000000000000e+03 1.774498748779296875e+01 1.995195388793945312e+01 8.575384318828582764e-02 6.218871116638183594e+00 1.891387581825256348e+00 -1.346981406211853027e+00
2.508000000000000000e+03 1.527391338348388672e+01 -2.172883605957031250e+01 -8.457288146018981934e-02 4.549341201782226562e+00 1.339430570602416992e+00 1.278016328811645508e+00
2.509000000000000000e+03 1.572474384307861328e+01 -2.076263999938964844e+01 -2.588488161563873291e-02 4.815077781677246094e+00 1.436757922172546387e+00 1.345599293708801270e+00
2.510000000000000000e+03 2.374383926391601562e+01 -1.469519853591918945e+00 1.256151795387268066e+00 1.069615459442138672e+01 3.585691928863525391e+00 4.114117920398712158e-01
2.511000000000000000e+03 2.041215324401855469e+01 1.602629661560058594e+01 6.696513891220092773e-01 7.986569404602050781e+00 2.596866130828857422e+00 -1.059279084205627441e+00
2.512000000000000000e+03 2.021905708312988281e+01 1.688840866088867188e+01 4.884186685085296631e-01 7.681864738464355469e+00 2.451085090637207031e+00 -1.023412823677062988e+00
2.513000000000000000e+03 4.472167968750000000e+00 -1.710408401489257812e+01 -6.896102428436279297e-02 1.125678569078445435e-01 1.308204978704452515e-02 -3.769284114241600037e-02
2.514000000000000000e+03 2.482827377319335938e+01 6.630168110132217407e-02 1.292925715446472168e+00 1.029807376861572266e+01 3.477299690246582031e+00 1.520085483789443970e-01
2.515000000000000000e+03 2.067821311950683594e+01 1.461490058898925781e+01 8.816013932228088379e-01 8.380691528320312500e+00 2.778687715530395508e+00 -1.113440871238708496e+00
2.516000000000000000e+03 2.241677284240722656e+01 1.351494979858398438e+01 9.417411088943481445e-01 8.741957664489746094e+00 2.905109643936157227e+00 -7.151991724967956543e-01
2.517000000000000000e+03 2.445367813110351562e+01 1.212808513641357422e+01 1.032113432884216309e+00 8.816543579101562500e+00 2.954597234725952148e+00 -3.333993852138519287e-01
2.518000000000000000e+03 7.264675140380859375e+01 -2.828351783752441406e+01 -2.774555794894695282e-02 7.907904148101806641e+00 2.364047527313232422e+00 -1.500669717788696289e-01
2.519000000000000000e+03 1.977470397949218750e+01 1.837935638427734375e+01 2.411632090806961060e-01 7.241172790527343750e+00 2.244700908660888672e+00 -1.013651013374328613e+00
2.520000000000000000e+03 1.348183727264404297e+01 2.151990509033203125e+01 2.935954332351684570e-01 3.601587772369384766e+00 1.168554902076721191e+00 -1.641288995742797852e+00
2.521000000000000000e+03 2.336242294311523438e+01 -7.644187927246093750e+00 1.620965480804443359e+00 9.692667007446289062e+00 3.394089698791503906e+00 5.217754244804382324e-01
2.522000000000000000e+03 5.750735759735107422e+00 -2.275880622863769531e+01 2.529498040676116943e-01 7.145039439201354980e-01 2.902361452579498291e-01 3.641159534454345703e-01
2.523000000000000000e+03 5.252855777740478516e+00 -1.998087310791015625e+01 1.909521371126174927e-01 2.591180503368377686e-01 1.350210607051849365e-01 4.882043227553367615e-02
2.524000000000000000e+03 2.474688339233398438e+01 -5.774998188018798828e+00 1.701024889945983887e+00 9.624767303466796875e+00 3.397737503051757812e+00 4.022706151008605957e-01
2.525000000000000000e+03 7.273796081542968750e+01 3.464262008666992188e+01 -4.661052674055099487e-02 7.903337001800537109e+00 2.357017993927001953e+00 8.829817175865173340e-02
2.526000000000000000e+03 1.271951484680175781e+01 -2.293275451660156250e+01 3.112021274864673615e-02 3.385188817977905273e+00 1.024892687797546387e+00 1.244810461997985840e+00
2.527000000000000000e+03 7.113003253936767578e+00 3.657513809204101562e+01 -1.677798330783843994e-01 1.884525418281555176e+00 5.150236487388610840e-01 -2.918862998485565186e-01
2.528000000000000000e+03 2.353515434265136719e+01 6.642289161682128906e+00 1.297837018966674805e+00 1.015098476409912109e+01 3.434646368026733398e+00 -5.955603122711181641e-01
2.529000000000000000e+03 7.358160400390625000e+01 3.217443084716796875e+01 -2.961508184671401978e-02 7.883681297302246094e+00 2.356219768524169922e+00 1.020783260464668274e-01
2.530000000000000000e+03 7.579499053955078125e+01 -3.338217926025390625e+01 -1.802085340023040771e-02 8.031359672546386719e+00 2.404001474380493164e+00 -7.167097926139831543e-02
2.531000000000000000e+03 7.414089965820312500e+01 -3.246829986572265625e+01 -2.375364117324352264e-02 7.984498500823974609e+00 2.388223409652709961e+00 -9.812128543853759766e-02
2.532000000000000000e+03 1.675640869140625000e+01 -2.119637107849121094e+01 -1.744907498359680176e-01 5.230097293853759766e+00 1.516682028770446777e+00 1.220289111137390137e+00
2.533000000000000000e+03 1.826323699951171875e+01 -1.854884338378906250e+01 2.682138420641422272e-02 6.148109912872314453e+00 1.852479457855224609e+00 1.287929177284240723e+00
2.534000000000000000e+03 7.151667022705078125e+01 -4.091876220703125000e+01 -6.480876356363296509e-02 8.009709358215332031e+00 2.383470058441162109e+00 -2.322669327259063721e-02
2.535000000000000000e+03 7.525713443756103516e+00 7.988424777984619141e+00 -4.572218458633869886e-04 -1.474459771998226643e-03 -5.795044708065688610e-04 1.235137111507356167e-03
2.536000000000000000e+03 7.094602108001708984e+00 1.012376976013183594e+01 -1.640117261558771133e-03 -1.954862382262945175e-03 -1.078493893146514893e-03 3.797673271037638187e-04
2.537000000000000000e+03 6.558745384216308594e+00 1.065044307708740234e+01 -1.647162833251059055e-03 -3.648498794063925743e-03 -1.588698476552963257e-03 8.238847949542105198e-04
2.538000000000000000e+03 8.157484054565429688e+00 7.198353767395019531e+00 -2.381933445576578379e-04 -9.912608657032251358e-04 -3.688362485263496637e-04 1.179042505100369453e-03
2.539000000000000000e+03 8.893559455871582031e+00 7.778178691864013672e+00 -3.809764166362583637e-04 -7.508447160944342613e-04 -3.395463281776756048e-04 1.344187185168266296e-03
2.540000000000000000e+03 6.310101509094238281e+00 7.040564537048339844e+00 8.903752313926815987e-04 -1.577313523739576340e-03 -2.060814877040684223e-04 1.859788317233324051e-04
2.541000000000000000e+03 6.253749847412109375e+00 2.200498199462890625e+01 2.931620478630065918e-01 4.574238955974578857e-01 2.251757830381393433e-01 -1.910407096147537231e-01
2.542000000000000000e+03 7.337792205810546875e+01 -2.676467704772949219e+01 -2.011225186288356781e-02 7.890849113464355469e+00 2.361221075057983398e+00 -1.486668884754180908e-01
2.543000000000000000e+03 5.437667846679687500e+00 -2.094398307800292969e+01 2.583259940147399902e-01 4.066284596920013428e-01 1.994863450527191162e-01 1.861085444688796997e-01
2.544000000000000000e+03 5.002923488616943359e+00 -2.149353408813476562e+01 2.364796102046966553e-01 4.058839678764343262e-01 1.927090734243392944e-01 1.757657527923583984e-01
2.545000000000000000e+03 7.131647491455078125e+01 2.387110900878906250e+01 -1.256335154175758362e-02 7.758470058441162109e+00 2.323771953582763672e+00 1.789630204439163208e-01
2.546000000000000000e+03 7.319731903076171875e+01 1.466428470611572266e+01 2.246273867785930634e-02 7.607884407043457031e+00 2.289104223251342773e+00 1.329282075166702271e-01
2.547000000000000000e+03 7.402622222900390625e+01 1.647415733337402344e+01 1.270910445600748062e-02 7.629446506500244141e+00 2.292646646499633789e+00 1.286423206329345703e-01
2.548000000000000000e+03 7.374515533447265625e+01 -2.093761253356933594e+01 -3.010248532518744469e-03 7.781191349029541016e+00 2.333454370498657227e+00 -1.620933413505554199e-01
2.549000000000000000e+03 7.324356079101562500e+01 1.381385612487792969e+01 2.385666780173778534e-02 7.594930648803710938e+00 2.285636186599731445e+00 1.264260709285736084e-01
2.550000000000000000e+03 7.364380645751953125e+01 -1.565552234649658203e+01 1.331278495490550995e-02 7.677180767059326172e+00 2.307147979736328125e+00 -1.561073511838912964e-01
2.551000000000000000e+03 7.401861572265625000e+01 1.979395103454589844e+01 3.716456238180398941e-03 7.687903404235839844e+00 2.307485818862915039e+00 1.359146684408187866e-01
2.552000000000000000e+03 6.031450748443603516e+00 -2.519320869445800781e+01 1.415353566408157349e-01 1.081270933151245117e+00 3.668418824672698975e-01 4.769383370876312256e-01
2.553000000000000000e+03 7.951392650604248047e+00 -2.402932167053222656e+01 2.171836048364639282e-01 1.539324879646301270e+00 5.269525647163391113e-01 7.297523617744445801e-01
2.554000000000000000e+03 4.791032314300537109e+00 -6.739144325256347656e+00 3.356728411745280027e-04 -1.290692365728318691e-03 -2.865058486349880695e-04 -3.465981280896812677e-04
2.555000000000000000e+03 5.194186687469482422e+00 -7.243950366973876953e+00 3.009927968378178775e-05 -3.563494828995317221e-04 -9.787506132852286100e-05 -1.038949339999817312e-04
2.556000000000000000e+03 5.987930774688720703e+00 -2.613166999816894531e+01 8.652868866920471191e-02 1.178500056266784668e+00 3.795086145401000977e-01 4.867549538612365723e-01
2.557000000000000000e+03 7.384323596954345703e+00 -2.457195663452148438e+01 2.009046226739883423e-01 1.410222768783569336e+00 4.833382070064544678e-01 6.618798375129699707e-01
2.558000000000000000e+03 7.310221099853515625e+01 1.717174720764160156e+01 1.454487815499305725e-02 7.647126674652099609e+00 2.298501491546630859e+00 1.466127783060073853e-01
2.559000000000000000e+03 7.359902954101562500e+01 -1.409581851959228516e+01 1.830934174358844757e-02 7.648765563964843750e+00 2.300122499465942383e+00 -1.500148922204971313e-01
2.560000000000000000e+03 7.435830688476562500e+01 8.430299758911132812e+00 2.735618315637111664e-02 7.514323711395263672e+00 2.262503862380981445e+00 7.105193287134170532e-02
2.561000000000000000e+03 7.357495117187500000e+01 6.739911079406738281e+00 3.737829253077507019e-02 7.512412071228027344e+00 2.264937162399291992e+00 6.101470813155174255e-02
2.562000000000000000e+03 7.340942382812500000e+01 1.138048648834228516e+01 2.913512475788593292e-02 7.561259746551513672e+00 2.277118444442749023e+00 1.069176495075225830e-01
2.563000000000000000e+03 7.352317047119140625e+01 9.836182594299316406e+00 3.207818418741226196e-02 7.541697502136230469e+00 2.272132635116577148e+00 9.234233200550079346e-02
2.564000000000000000e+03 7.358377075195312500e+01 7.524150848388671875e+00 3.627988696098327637e-02 7.518440723419189453e+00 2.266416311264038086e+00 6.930319964885711670e-02
2.565000000000000000e+03 7.357200622558593750e+01 -7.645488262176513672e+00 3.426106646656990051e-02 7.549477100372314453e+00 2.275121450424194336e+00 -1.012097001075744629e-01
2.566000000000000000e+03 7.400846862792968750e+01 1.896879386901855469e+01 5.810302682220935822e-03 7.673410415649414062e+00 2.303766250610351562e+00 1.359245330095291138e-01
2.567000000000000000e+03 7.211634826660156250e+01 1.712339019775390625e+01 1.817870512604713440e-02 7.653525352478027344e+00 2.301511049270629883e+00 1.618757098913192749e-01
2.568000000000000000e+03 7.357736968994140625e+01 -6.841512203216552734e+00 3.571105748414993286e-02 7.540084838867187500e+00 2.272738695144653320e+00 -9.308168292045593262e-02
2.569000000000000000e+03 7.440167236328125000e+01 -5.144533157348632812e+00 2.969978190958499908e-02 7.509697914123535156e+00 2.261819362640380859e+00 -6.764942407608032227e-02
2.570000000000000000e+03 7.357511138916015625e+01 4.143352210521697998e-01 4.183174297213554382e-02 7.493582248687744141e+00 2.260624170303344727e+00 -1.125983893871307373e-02
2.571000000000000000e+03 7.446773529052734375e+01 -1.939318847656250000e+01 1.156757934950292110e-03 7.750861644744873047e+00 2.325605392456054688e+00 -1.472495943307876587e-01
2.572000000000000000e+03 7.356386566162109375e+01 -8.453972816467285156e+00 3.279697895050048828e-02 7.559745788574218750e+00 2.277762651443481445e+00 -1.089397147297859192e-01
2.573000000000000000e+03 7.357038116455078125e+01 -3.803283274173736572e-01 4.177206009626388550e-02 7.495165824890136719e+00 2.261081457138061523e+00 -2.060991711914539337e-02
2.574000000000000000e+03 7.440817260742187500e+01 -1.237212562561035156e+01 1.789404451847076416e-02 7.610839843750000000e+00 2.288620233535766602e+00 -1.257221549749374390e-01
2.575000000000000000e+03 7.436368560791015625e+01 3.682931661605834961e+00 3.172893077135086060e-02 7.482532501220703125e+00 2.254278421401977539e+00 2.471663616597652435e-02
2.576000000000000000e+03 7.275606536865234375e+01 -2.875837564468383789e+00 5.025440081954002380e-02 7.518378734588623047e+00 2.270590066909790039e+00 -5.465555191040039062e-02
2.577000000000000000e+03 7.358623504638671875e+01 -5.240329742431640625e+00 3.802817314863204956e-02 7.523533821105957031e+00 2.268468618392944336e+00 -7.613115012645721436e-02
2.578000000000000000e+03 7.391403961181640625e+01 2.689319419860839844e+01 -1.370995584875345230e-02 7.810312271118164062e+00 2.338980674743652344e+00 1.288620680570602417e-01
2.579000000000000000e+03 7.435765838623046875e+01 4.479370117187500000e+00 3.118631243705749512e-02 7.485808849334716797e+00 2.255098581314086914e+00 3.287595510482788086e-02
2.580000000000000000e+03 7.270933532714843750e+01 3.505862236022949219e+00 5.053544417023658752e-02 7.509881973266601562e+00 2.268125295639038086e+00 2.774340845644474030e-02
2.581000000000000000e+03 7.438702392578125000e+01 -1.076848220825195312e+01 2.132334187626838684e-02 7.583605766296386719e+00 2.281478643417358398e+00 -1.156890168786048889e-01
2.582000000000000000e+03 7.359302520751953125e+01 -1.249628257751464844e+01 2.290576323866844177e-02 7.620683670043945312e+00 2.293076753616333008e+00 -1.408732533454895020e-01
2.583000000000000000e+03 7.358150482177734375e+01 -1.169711971282958984e+01 2.487069554626941681e-02 7.607331752777099609e+00 2.289660692214965820e+00 -1.353429704904556274e-01
2.584000000000000000e+03 7.448310089111328125e+01 -1.783859062194824219e+01 5.427109077572822571e-03 7.717326164245605469e+00 2.316826105117797852e+00 -1.452688425779342651e-01
2.585000000000000000e+03 7.334164428710937500e+01 1.216544055938720703e+01 2.742944657802581787e-02 7.571688652038574219e+00 2.279735565185546875e+00 1.136811301112174988e-01
2.586000000000000000e+03 7.411968231201171875e+01 -2.487112045288085938e+01 -1.276546437293291092e-02 7.861841678619384766e+00 2.354722738265991211e+00 -1.446169018745422363e-01
2.587000000000000000e+03 7.354972839355468750e+01 5.167914390563964844e+00 3.921046853065490723e-02 7.503172397613525391e+00 2.262714862823486328e+00 4.398042336106300354e-02
2.588000000000000000e+03 7.356358337402343750e+01 -1.089292812347412109e+01 2.722998335957527161e-02 7.594821929931640625e+00 2.286615610122680664e+00 -1.299026608467102051e-01
2.589000000000000000e+03 7.270677947998046875e+01 -7.727397441864013672e+00 4.289475083351135254e-02 7.561203956604003906e+00 2.281229496002197266e+00 -1.122727841138839722e-01
2.590000000000000000e+03 7.322726440429687500e+01 -2.579639053344726562e+01 -1.948034204542636871e-02 7.872009277343750000e+00 2.355758666992187500e+00 -1.577070951461791992e-01
2.591000000000000000e+03 7.186693572998046875e+01 2.657559871673583984e+00 6.227404251694679260e-02 7.519638538360595703e+00 2.274573802947998047e+00 1.874719187617301941e-02
2.592000000000000000e+03 7.356137084960937500e+01 5.953669071197509766e+00 3.842485323548316956e-02 7.507386207580566406e+00 2.263743400573730469e+00 5.258458480238914490e-02
2.593000000000000000e+03 7.190071868896484375e+01 -3.722740411758422852e+00 6.018653139472007751e-02 7.534679412841796875e+00 2.278459787368774414e+00 -7.086946070194244385e-02
2.594000000000000000e+03 7.350448608398437500e+01 -2.307421112060546875e+01 -9.729823097586631775e-03 7.822503089904785156e+00 2.343832015991210938e+00 -1.625779271125793457e-01
2.595000000000000000e+03 7.375157928466796875e+01 -1.942959022521972656e+01 1.563767669722437859e-03 7.750202178955078125e+00 2.325529813766479492e+00 -1.629595309495925903e-01
2.596000000000000000e+03 6.146967887878417969e+00 2.797052383422851562e+01 9.469036012887954712e-02 1.132646918296813965e+00 3.682011663913726807e-01 -4.334372878074645996e-01
2.597000000000000000e+03 5.801769256591796875e+00 2.525739288330078125e+01 1.865747272968292236e-01 7.910665273666381836e-01 2.932923734188079834e-01 -3.409655988216400146e-01
2.598000000000000000e+03 7.334645843505859375e+01 -2.391305541992187500e+01 -1.340157911181449890e-02 7.838395118713378906e+00 2.347498178482055664e+00 -1.634812951087951660e-01
2.599000000000000000e+03 7.369598388671875000e+01 -1.641414833068847656e+01 1.048242580145597458e-02 7.691500663757324219e+00 2.310595035552978516e+00 -1.575895696878433228e-01
2.600000000000000000e+03 5.789211750030517578e+00 2.100280570983886719e+01 1.776868999004364014e-01 2.934351563453674316e-01 1.413366198539733887e-01 -3.265909105539321899e-02
2.601000000000000000e+03 7.378398895263671875e+01 -1.866253852844238281e+01 4.325528163462877274e-03 7.735228538513183594e+00 2.321866273880004883e+00 -1.600325554609298706e-01
2.602000000000000000e+03 7.283400726318359375e+01 -1.582719135284423828e+01 1.569772697985172272e-02 7.683196544647216797e+00 2.309668302536010742e+00 -1.713636368513107300e-01
2.603000000000000000e+03 7.329704284667968750e+01 2.068351936340332031e+01 1.588537706993520260e-03 7.707014083862304688e+00 2.312580823898315430e+00 1.495353430509567261e-01
2.604000000000000000e+03 7.347312927246093750e+01 1.060685443878173828e+01 3.068647161126136780e-02 7.550939559936523438e+00 2.274487733840942383e+00 9.972330182790756226e-02
2.605000000000000000e+03 5.119963169097900391e+00 1.036800861358642578e+01 -2.956910990178585052e-03 -2.355466596782207489e-03 -1.593713182955980301e-03 -3.615571476984769106e-04
2.606000000000000000e+03 5.237167358398437500e+00 9.167069435119628906e+00 2.074159128824248910e-04 -2.414338756352663040e-03 -6.620768108405172825e-04 -6.961071630939841270e-04
2.607000000000000000e+03 7.310490417480468750e+01 1.889884757995605469e+01 7.354996632784605026e-03 7.677338600158691406e+00 2.305408000946044922e+00 1.515889912843704224e-01
2.608000000000000000e+03 5.283804416656494141e+00 8.405944824218750000e+00 -5.619872245006263256e-04 -1.983362482860684395e-03 -7.636049413122236729e-04 2.099655976053327322e-04
2.609000000000000000e+03 7.328535461425781250e+01 1.297607135772705078e+01 2.578056417405605316e-02 7.583136081695556641e+00 2.282675027847290039e+00 1.203758269548416138e-01
2.610000000000000000e+03 6.819746971130371094e+00 7.948145389556884766e+00 6.005055038258433342e-04 -1.665418036282062531e-03 -3.194737655576318502e-04 2.342442894587293267e-04
2.611000000000000000e+03 6.096996307373046875e+00 7.770107269287109375e+00 -2.671110851224511862e-04 -1.772699062712490559e-03 -6.119430181570351124e-04 3.611369465943425894e-04
2.612000000000000000e+03 7.091338634490966797e+00 -2.563034248352050781e+01 1.181985810399055481e-01 1.443654537200927734e+00 4.685559272766113281e-01 6.080764532089233398e-01
2.613000000000000000e+03 7.850850582122802734e+00 -2.523463821411132812e+01 1.273842006921768188e-01 1.669410228729248047e+00 5.390383005142211914e-01 6.944874525070190430e-01
2.614000000000000000e+03 6.486797332763671875e+00 2.481974792480468750e+01 2.394180744886398315e-01 8.910034298896789551e-01 3.391264379024505615e-01 -4.043914973735809326e-01
2.615000000000000000e+03 5.133301258087158203e+00 2.785735511779785156e+01 7.656698673963546753e-02 8.594518303871154785e-01 2.808056473731994629e-01 -3.359388411045074463e-01
2.616000000000000000e+03 7.286423492431640625e+01 2.750227928161621094e+01 -1.948524825274944305e-02 7.814229965209960938e+00 2.338423490524291992e+00 1.419099271297454834e-01
2.617000000000000000e+03 5.863683700561523438e+00 2.356783103942871094e+01 2.519019842147827148e-01 5.782394409179687500e-01 2.490424215793609619e-01 -2.547931075096130371e-01
2.618000000000000000e+03 6.072066783905029297e+00 2.420077896118164062e+01 2.423897534608840942e-01 7.212483882904052734e-01 2.890914380550384521e-01 -3.308821320533752441e-01
2.619000000000000000e+03 8.249002456665039062e+00 2.579161071777343750e+01 2.019767016172409058e-01 1.513208746910095215e+00 5.145556330680847168e-01 -6.740942597389221191e-01
2.620000000000000000e+03 6.202878952026367188e+00 2.604566955566406250e+01 1.747216284275054932e-01 9.848328232765197754e-01 3.478663265705108643e-01 -4.131431579589843750e-01
2.621000000000000000e+03 7.317667388916015625e+01 2.675160026550292969e+01 -1.552578993141651154e-02 7.804956912994384766e+00 2.336829423904418945e+00 1.405138820409774780e-01
2.622000000000000000e+03 7.364370727539062500e+01 2.855544090270996094e+01 -1.818617619574069977e-02 7.835724353790283203e+00 2.345261573791503906e+00 1.235428899526596069e-01
2.623000000000000000e+03 6.342161178588867188e+00 -2.677113342285156250e+01 5.835471674799919128e-02 1.331028342247009277e+00 4.168149232864379883e-01 5.139886736869812012e-01
2.624000000000000000e+03 7.236868381500244141e+00 -2.635687446594238281e+01 6.577973812818527222e-02 1.560878276824951172e+00 4.879974126815795898e-01 6.119689345359802246e-01
2.625000000000000000e+03 6.259098052978515625e+00 -7.062221527099609375e+00 -6.270113954087719321e-05 -1.092122056434163824e-05 -2.208670957770664245e-05 -5.601398879662156105e-04
2.626000000000000000e+03 2.190197181701660156e+01 -1.357766056060791016e+01 4.813142716884613037e-01 8.274719238281250000e+00 2.626809835433959961e+00 8.129669427871704102e-01
2.627000000000000000e+03 2.327975463867187500e+01 -1.342423534393310547e+01 4.900190532207489014e-01 8.374430656433105469e+00 2.659334897994995117e+00 4.553880691528320312e-01
2.628000000000000000e+03 2.383862113952636719e+01 3.176904439926147461e+00 1.189988493919372559e+00 1.055142498016357422e+01 3.522423982620239258e+00 -2.924618124961853027e-01
2.629000000000000000e+03 7.074502468109130859e+00 3.058555793762207031e+01 -3.076150082051753998e-02 1.613547325134277344e+00 4.748357534408569336e-01 -4.722476899623870850e-01
2.630000000000000000e+03 8.613300323486328125e+00 3.101386642456054688e+01 -8.662700653076171875e-02 2.067722320556640625e+00 5.943285822868347168e-01 -5.549410581588745117e-01
2.631000000000000000e+03 6.884390830993652344e+00 7.253839015960693359e+00 -2.521517744753509760e-04 -1.367797493003308773e-03 -4.859847540501505136e-04 8.435372728854417801e-04
2.632000000000000000e+03 2.560092163085937500e+01 8.064856529235839844e-01 1.358187198638916016e+00 9.958143234252929688e+00 3.394899129867553711e+00 6.191396340727806091e-02
2.633000000000000000e+03 6.881833076477050781e+00 2.231599617004394531e+01 3.427730500698089600e-01 5.732841491699218750e-01 2.748171687126159668e-01 -3.079193532466888428e-01
2.634000000000000000e+03 7.324300765991210938e+00 2.287714385986328125e+01 3.728763461112976074e-01 7.525539994239807129e-01 3.376291096210479736e-01 -4.380570948123931885e-01
2.635000000000000000e+03 2.106879615783691406e+01 -1.539979362487792969e+01 2.416400313377380371e-01 7.616394996643066406e+00 2.357410430908203125e+00 9.661208987236022949e-01
2.636000000000000000e+03 9.092446327209472656e+00 2.257271194458007812e+01 4.813313484191894531e-01 1.234179139137268066e+00 5.146531462669372559e-01 -8.285885453224182129e-01
2.637000000000000000e+03 1.029505729675292969e+01 2.283664894104003906e+01 4.177885055541992188e-01 1.838278293609619141e+00 6.768200397491455078e-01 -1.094836473464965820e+00
2.638000000000000000e+03 2.389721107482910156e+01 -4.692652225494384766e+00 1.712134838104248047e+00 1.010103893280029297e+01 3.543951988220214844e+00 6.056355237960815430e-01
2.639000000000000000e+03 2.581401252746582031e+01 -5.763209819793701172e+00 1.637647628784179688e+00 9.330054283142089844e+00 3.290310621261596680e+00 2.249439209699630737e-01
2.640000000000000000e+03 1.099963951110839844e+01 2.233276557922363281e+01 4.222858846187591553e-01 2.108832597732543945e+00 7.593355178833007812e-01 -1.278004765510559082e+00
2.641000000000000000e+03 7.565785408020019531e+00 -2.197570228576660156e+01 3.852681219577789307e-01 1.046166300773620605e+00 4.294303357601165771e-01 6.450865268707275391e-01
2.642000000000000000e+03 2.588689804077148438e+01 1.595558404922485352e+00 1.372093319892883301e+00 9.849106788635253906e+00 3.366359949111938477e+00 -2.437728224322199821e-03
2.643000000000000000e+03 2.451224136352539062e+01 2.823315620422363281e+00 1.254249334335327148e+00 1.031588649749755859e+01 3.471040725708007812e+00 -1.939779072999954224e-01
2.644000000000000000e+03 2.371522331237792969e+01 -1.000478267669677734e+01 1.125913262367248535e+00 9.105026245117187500e+00 3.069282054901123047e+00 3.650652170181274414e-01
2.645000000000000000e+03 1.873010635375976562e+01 -1.773819732666015625e+01 1.005401238799095154e-01 6.468119144439697266e+00 1.970597863197326660e+00 1.270222425460815430e+00
2.646000000000000000e+03 1.961183357238769531e+01 -1.814881515502929688e+01 -3.701153397560119629e-02 6.746069908142089844e+00 2.012717485427856445e+00 1.081185460090637207e+00
2.647000000000000000e+03 7.857570648193359375e+00 -3.276558685302734375e+01 -1.588749885559082031e-01 2.157932758331298828e+00 5.997173786163330078e-01 4.368263483047485352e-01
2.648000000000000000e+03 2.473228263854980469e+01 -1.041411590576171875e+01 1.036494493484497070e+00 8.861289978027343750e+00 2.969335317611694336e+00 1.705940067768096924e-01
2.649000000000000000e+03 1.954504966735839844e+01 1.753305625915527344e+01 4.335047006607055664e-01 7.385137081146240234e+00 2.345592498779296875e+00 -1.128528237342834473e+00
2.650000000000000000e+03 1.773879051208496094e+01 -1.936552238464355469e+01 -3.516827523708343506e-02 5.879639148712158203e+00 1.753341197967529297e+00 1.276186108589172363e+00
2.651000000000000000e+03 1.878388023376464844e+01 -1.988586997985839844e+01 -1.934056729078292847e-01 6.168531894683837891e+00 1.792537808418273926e+00 1.090431332588195801e+00
2.652000000000000000e+03 2.185379409790039062e+01 1.423432064056396484e+01 8.741659522056579590e-01 8.589399337768554688e+00 2.839069604873657227e+00 -8.145740628242492676e-01
2.653000000000000000e+03 1.611380577087402344e+01 -2.368974113464355469e+01 -3.223670125007629395e-01 4.787073612213134766e+00 1.339411973953247070e+00 1.052882552146911621e+00
2.654000000000000000e+03 1.722409248352050781e+01 -2.024869728088378906e+01 -1.072468981146812439e-01 5.545890331268310547e+00 1.631592988967895508e+00 1.247609734535217285e+00
2.655000000000000000e+03 7.532188415527343750e+00 2.646405792236328125e+01 1.637405902147293091e-01 1.380145311355590820e+00 4.631657600402832031e-01 -5.727355480194091797e-01
2.656000000000000000e+03 1.445232677459716797e+01 2.099992752075195312e+01 2.423502206802368164e-01 4.285853385925292969e+00 1.358461022377014160e+00 -1.693448662757873535e+00
2.657000000000000000e+03 1.154407310485839844e+01 2.315297317504882812e+01 3.014654517173767090e-01 2.529592514038085938e+00 8.493173718452453613e-01 -1.312774062156677246e+00
2.658000000000000000e+03 1.045363521575927734e+01 -2.209176063537597656e+01 2.953820526599884033e-01 2.267353296279907227e+00 7.688205838203430176e-01 1.179216504096984863e+00
2.659000000000000000e+03 2.339056015014648438e+01 7.532982349395751953e+00 1.310573339462280273e+00 1.001565551757812500e+01 3.397868633270263672e+00 -6.532120108604431152e-01
2.660000000000000000e+03 2.403266525268554688e+01 9.626429557800292969e+00 1.269677042961120605e+00 9.384221076965332031e+00 3.196169376373291016e+00 -5.077932476997375488e-01
2.661000000000000000e+03 9.788991928100585938e+00 -2.293329238891601562e+01 2.700423002243041992e-01 2.033378362655639648e+00 6.910261511802673340e-01 1.016824007034301758e+00
2.662000000000000000e+03 2.378408432006835938e+01 1.064347076416015625e+01 1.212930679321289062e+00 9.216045379638671875e+00 3.128692865371704102e+00 -5.291185975074768066e-01
2.663000000000000000e+03 2.304144477844238281e+01 9.367963790893554688e+00 1.302753567695617676e+00 9.686595916748046875e+00 3.296804904937744141e+00 -7.411993145942687988e-01
2.664000000000000000e+03 1.740475082397460938e+01 2.269773864746093750e+01 -2.727903723716735840e-01 5.593240261077880859e+00 1.596135020256042480e+00 -1.201674342155456543e+00
2.665000000000000000e+03 1.696015548706054688e+01 2.088343238830566406e+01 -3.962845075875520706e-03 5.677974224090576172e+00 1.702203392982482910e+00 -1.419949650764465332e+00
2.666000000000000000e+03 5.769224166870117188e+00 1.184914684295654297e+01 -4.363932181149721146e-03 -3.670198377221822739e-03 -2.410239074379205704e-03 -1.580839860253036022e-03
2.667000000000000000e+03 4.560690879821777344e+00 1.208395195007324219e+01 -6.311642937362194061e-03 -2.462233183905482292e-03 -2.632162766531109810e-03 -1.107285730540752411e-03
2.668000000000000000e+03 1.354293060302734375e+01 -2.224605178833007812e+01 2.306379750370979309e-02 3.788708925247192383e+00 1.143531799316406250e+00 1.313872218132019043e+00
2.669000000000000000e+03 1.424888515472412109e+01 -2.135304260253906250e+01 4.315149039030075073e-02 4.141850948333740234e+00 1.255500674247741699e+00 1.382811188697814941e+00
2.670000000000000000e+03 2.357404899597167969e+01 -6.641156673431396484e+00 1.732491016387939453e+00 9.840902328491210938e+00 3.472017765045166016e+00 5.579280853271484375e-01
2.671000000000000000e+03 2.520223808288574219e+01 8.815672874450683594e+00 1.287071466445922852e+00 9.268792152404785156e+00 3.166759014129638672e+00 -3.065369427204132080e-01
2.672000000000000000e+03 2.455719184875488281e+01 -2.810694932937622070e+00 1.509057641029357910e+00 1.018579673767089844e+01 3.508456230163574219e+00 4.633193314075469971e-01
2.673000000000000000e+03 2.391038131713867188e+01 1.324540805816650391e+01 9.061063528060913086e-01 8.654820442199707031e+00 2.868278264999389648e+00 -3.977101743221282959e-01
2.674000000000000000e+03 1.937421417236328125e+01 1.946638488769531250e+01 5.145956203341484070e-02 6.892360210418701172e+00 2.083145856857299805e+00 -1.041337847709655762e+00
2.675000000000000000e+03 1.873953628540039062e+01 2.056264686584472656e+01 -8.838910609483718872e-02 6.475938796997070312e+00 1.916264891624450684e+00 -1.116214752197265625e+00
2.676000000000000000e+03 7.148867797851562500e+01 -3.635358047485351562e+01 -6.241799518465995789e-02 7.979859352111816406e+00 2.375232458114624023e+00 -8.663213253021240234e-02
2.677000000000000000e+03 7.247295379638671875e+01 -3.492588043212890625e+01 -4.474853351712226868e-02 7.984003067016601562e+00 2.381776332855224609e+00 -9.389863908290863037e-02
2.678000000000000000e+03 2.091659736633300781e+01 1.847843551635742188e+01 1.628454476594924927e-01 7.462504863739013672e+00 2.287605047225952148e+00 -7.681524753570556641e-01
2.679000000000000000e+03 1.531509590148925781e+01 2.070070838928222656e+01 2.035498321056365967e-01 4.824892520904541016e+00 1.508532762527465820e+00 -1.669549822807312012e+00
2.680000000000000000e+03 2.467412185668945312e+01 -6.785493373870849609e+00 1.621234178543090820e+00 9.452613830566406250e+00 3.322154283523559570e+00 3.394951224327087402e-01
2.681000000000000000e+03 7.252098083496093750e+01 2.851115417480468750e+01 -2.432193979620933533e-02 7.827736377716064453e+00 2.341024398803710938e+00 1.412675529718399048e-01
2.682000000000000000e+03 8.076889038085937500e+00 -3.033786964416503906e+01 -1.182718127965927124e-01 2.110693693161010742e+00 5.977265834808349609e-01 5.648414492607116699e-01
2.683000000000000000e+03 7.940481662750244141e+00 -2.958245468139648438e+01 -7.876634597778320312e-02 2.011539936065673828e+00 5.798320770263671875e-01 5.920289158821105957e-01
2.684000000000000000e+03 7.370402526855468750e+01 2.942057991027832031e+01 -1.852771267294883728e-02 7.846594333648681641e+00 2.348419904708862305e+00 1.189670711755752563e-01
2.685000000000000000e+03 7.407934570312500000e+01 3.133337974548339844e+01 -2.331806719303131104e-02 7.877372741699218750e+00 2.356216430664062500e+00 1.027603894472122192e-01
2.686000000000000000e+03 2.418120765686035156e+01 -8.943819046020507812e+00 1.351212739944458008e+00 9.231822013854980469e+00 3.174910545349121094e+00 3.062241375446319580e-01
2.687000000000000000e+03 7.261847686767578125e+01 2.966779899597167969e+01 -2.761973626911640167e-02 7.842218875885009766e+00 2.344379663467407227e+00 1.334012597799301147e-01
2.688000000000000000e+03 1.789911842346191406e+01 -2.175767707824707031e+01 -3.021987080574035645e-01 5.642921924591064453e+00 1.602217078208923340e+00 1.075612306594848633e+00
2.689000000000000000e+03 7.056307220458984375e+01 3.824425125122070312e+01 -7.646378129720687866e-02 7.909483432769775391e+00 2.349905967712402344e+00 5.507111176848411560e-02
2.690000000000000000e+03 7.104347991943359375e+01 3.409605026245117188e+01 -5.954713001847267151e-02 7.882270336151123047e+00 2.346817016601562500e+00 1.115837693214416504e-01
2.691000000000000000e+03 2.464180755615234375e+01 5.932925224304199219e+00 1.330243349075317383e+00 9.896487236022949219e+00 3.368019104003906250e+00 -3.834424018859863281e-01
2.692000000000000000e+03 2.448026466369628906e+01 6.809630870819091797e+00 1.329252958297729492e+00 9.802315711975097656e+00 3.339470624923706055e+00 -4.272990524768829346e-01
2.693000000000000000e+03 9.554287910461425781e+00 -3.050658035278320312e+01 -1.908961683511734009e-01 2.547900676727294922e+00 7.071013450622558594e-01 6.226479411125183105e-01
2.694000000000000000e+03 7.172023010253906250e+01 -2.964864540100097656e+01 -4.043593630194664001e-02 7.916969299316406250e+00 2.362960100173950195e+00 -1.533559113740921021e-01
2.695000000000000000e+03 9.771152496337890625e+00 3.566658401489257812e+01 -2.548057734966278076e-01 2.540516614913940430e+00 6.857132911682128906e-01 -3.242362141609191895e-01
2.696000000000000000e+03 7.507490634918212891e+00 7.248897552490234375e+00 5.917767994105815887e-04 -1.186172128655016422e-03 -1.783186016837134957e-04 1.908163394546136260e-04
2.697000000000000000e+03 6.508306503295898438e+00 9.555216789245605469e+00 7.948026177473366261e-05 -2.971767913550138474e-03 -8.676862344145774841e-04 7.145500858314335346e-04
2.698000000000000000e+03 6.078443050384521484e+00 1.015356731414794922e+01 -2.357878489419817924e-03 -2.344920299947261810e-03 -1.410839613527059555e-03 -2.057056117337197065e-04
2.699000000000000000e+03 1.232785415649414062e+01 2.289267730712890625e+01 2.652384340763092041e-01 2.877292633056640625e+00 9.427593350410461426e-01 -1.422197818756103516e+00
2.700000000000000000e+03 7.156323432922363281e+00 2.911106491088867188e+01 2.852526865899562836e-02 1.529802799224853516e+00 4.674984216690063477e-01 -5.109409689903259277e-01
2.701000000000000000e+03 7.248181915283203125e+01 -2.083630943298339844e+01 -3.511793445795774460e-03 7.777207851409912109e+00 2.332108974456787109e+00 -1.848189234733581543e-01
2.702000000000000000e+03 7.185964202880859375e+01 -2.241794967651367188e+01 -1.151285693049430847e-02 7.802919864654541016e+00 2.337422132492065430e+00 -1.967370361089706421e-01
2.703000000000000000e+03 7.232373046875000000e+01 2.092137336730957031e+01 1.439151703380048275e-03 7.712540149688720703e+00 2.314193725585937500e+00 1.666785925626754761e-01
2.704000000000000000e+03 7.289748382568359375e+01 2.371778869628906250e+01 -8.123961277306079865e-03 7.757254600524902344e+00 2.324739217758178711e+00 1.547430306673049927e-01
2.705000000000000000e+03 7.226242828369140625e+01 -1.677870941162109375e+01 1.376589294523000717e-02 7.702483177185058594e+00 2.314874649047851562e+00 -1.847380697727203369e-01
2.706000000000000000e+03 7.002491474151611328e+00 -2.271895599365234375e+01 3.087571561336517334e-01 1.003222227096557617e+00 3.935938179492950439e-01 5.649730563163757324e-01
2.707000000000000000e+03 6.473238945007324219e+00 -2.558166885375976562e+01 1.212175711989402771e-01 1.269989013671875000e+00 4.173619747161865234e-01 5.337106585502624512e-01
2.708000000000000000e+03 7.220467376708984375e+01 2.572866630554199219e+01 -1.706675067543983459e-02 7.788049697875976562e+00 2.331294775009155273e+00 1.579271256923675537e-01
2.709000000000000000e+03 7.201567077636718750e+01 1.623694992065429688e+01 2.223481982946395874e-02 7.642170906066894531e+00 2.299321651458740234e+00 1.598383337259292603e-01
2.710000000000000000e+03 7.357897186279296875e+01 8.301493644714355469e+00 3.478518128395080566e-02 7.525310039520263672e+00 2.268028497695922852e+00 7.730648666620254517e-02
2.711000000000000000e+03 7.244235992431640625e+01 -1.946420288085937500e+01 7.529155700467526913e-04 7.754015922546386719e+00 2.326430559158325195e+00 -1.869700253009796143e-01
2.712000000000000000e+03 7.374537658691406250e+01 -1.716824150085449219e+01 8.715615607798099518e-03 7.705883026123046875e+00 2.314379692077636719e+00 -1.590604335069656372e-01
2.713000000000000000e+03 7.271613311767578125e+01 -6.918982505798339844e+00 4.474828764796257019e-02 7.551928520202636719e+00 2.279003143310546875e+00 -1.034941449761390686e-01
2.714000000000000000e+03 7.269237518310546875e+01 -1.019252490997314453e+01 3.639867529273033142e-02 7.593193054199218750e+00 2.288877487182617188e+00 -1.370574235916137695e-01
2.715000000000000000e+03 7.323887634277343750e+01 -2.482835769653320312e+01 -1.611290127038955688e-02 7.854831695556640625e+00 2.351615667343139648e+00 -1.612977534532546997e-01
2.716000000000000000e+03 7.166503906250000000e+01 1.090337657928466797e+01 4.622319340705871582e-02 7.575842380523681641e+00 2.286619663238525391e+00 1.229668781161308289e-01
2.717000000000000000e+03 7.275458526611328125e+01 -4.503480911254882812e+00 4.844801500439643860e-02 7.529139518737792969e+00 2.273276329040527344e+00 -7.467164844274520874e-02
2.718000000000000000e+03 7.275078582763671875e+01 -1.261445617675781250e+01 2.792917750775814056e-02 7.629194736480712891e+00 2.297137022018432617e+00 -1.553123742341995239e-01
2.719000000000000000e+03 7.355509185791015625e+01 -1.008282566070556641e+01 2.919453196227550507e-02 7.582522392272949219e+00 2.283514976501464844e+00 -1.233386024832725525e-01
2.720000000000000000e+03 7.272681427001953125e+01 2.713095903396606445e+00 5.133955180644989014e-02 7.507823944091796875e+00 2.267749071121215820e+00 1.798328757286071777e-02
2.721000000000000000e+03 7.357651519775390625e+01 1.203958749771118164e+00 4.192554205656051636e-02 7.492699623107910156e+00 2.260387420654296875e+00 -1.710087526589632034e-03
2.722000000000000000e+03 7.313262939453125000e+01 1.979210853576660156e+01 4.152534529566764832e-03 7.692389965057373047e+00 2.308962821960449219e+00 1.524795591831207275e-01
2.723000000000000000e+03 7.224286651611328125e+01 1.793467330932617188e+01 1.298656780272722244e-02 7.666696548461914062e+00 2.303905010223388672e+00 1.623328477144241333e-01
2.724000000000000000e+03 7.358084106445312500e+01 -6.040326118469238281e+00 3.694243729114532471e-02 7.531414508819580078e+00 2.270507097244262695e+00 -8.486539870500564575e-02
2.725000000000000000e+03 7.357256317138671875e+01 -1.995120882987976074e+00 4.120333492755889893e-02 7.501085758209228516e+00 2.262686729431152344e+00 -3.959057107567787170e-02
2.726000000000000000e+03 7.276039886474609375e+01 -3.695075988769531250e+00 4.936176165938377380e-02 7.523363590240478516e+00 2.271817684173583984e+00 -6.478464603424072266e-02
2.727000000000000000e+03 7.273041534423828125e+01 -1.181856250762939453e+01 3.104373253881931305e-02 7.616822719573974609e+00 2.294359922409057617e+00 -1.499827057123184204e-01
2.728000000000000000e+03 7.269725036621093750e+01 -9.365182876586914062e+00 3.892284631729125977e-02 7.581528186798095703e+00 2.286135435104370117e+00 -1.289232671260833740e-01
2.729000000000000000e+03 7.273986053466796875e+01 5.875359058380126953e+00 4.769727960228919983e-02 7.519392490386962891e+00 2.270126819610595703e+00 5.646105855703353882e-02
2.730000000000000000e+03 7.270162200927734375e+01 4.301787853240966797e+00 4.996746405959129333e-02 7.512390613555908203e+00 2.268707275390625000e+00 3.756172955036163330e-02
2.731000000000000000e+03 7.270323944091796875e+01 -1.101349163055419922e+01 3.359977528452873230e-02 7.604796886444091797e+00 2.291519165039062500e+00 -1.436292827129364014e-01
2.732000000000000000e+03 7.245619964599609375e+01 -2.703656005859375000e+01 -2.672286145389080048e-02 7.886522769927978516e+00 2.357939958572387695e+00 -1.622826308012008667e-01
2.733000000000000000e+03 7.356763458251953125e+01 -1.182022809982299805e+00 4.148776084184646606e-02 7.497735023498535156e+00 2.261766910552978516e+00 -3.011077083647251129e-02
2.734000000000000000e+03 7.354607391357421875e+01 4.378736019134521484e+00 3.990308195352554321e-02 7.499681472778320312e+00 2.261875391006469727e+00 3.525835648179054260e-02
2.735000000000000000e+03 7.303720092773437500e+01 -1.729116630554199219e+01 8.848952129483222961e-03 7.711652755737304688e+00 2.316150426864624023e+00 -1.726748943328857422e-01
2.736000000000000000e+03 7.271235656738281250e+01 5.091163158416748047e+00 4.909131303429603577e-02 7.515634059906005859e+00 2.269417762756347656e+00 4.732481017708778381e-02
2.737000000000000000e+03 7.273249053955078125e+01 3.594807386398315430e-01 5.237343162298202515e-02 7.506897449493408203e+00 2.267781257629394531e+00 -1.317330636084079742e-02
2.738000000000000000e+03 7.273389434814453125e+01 -1.234373211860656738e+00 5.198436975479125977e-02 7.510909080505371094e+00 2.268867969512939453e+00 -3.355988860130310059e-02
2.739000000000000000e+03 6.542112350463867188e+00 2.852489089965820312e+01 7.231509685516357422e-02 1.348375082015991211e+00 4.262070357799530029e-01 -4.846762418746948242e-01
2.740000000000000000e+03 7.246449279785156250e+01 1.194093990325927734e+01 3.505106270313262939e-02 7.578941822052001953e+00 2.284197807312011719e+00 1.228851526975631714e-01
2.741000000000000000e+03 7.264750671386718750e+01 1.040776252746582031e+01 3.869972750544548035e-02 7.559298515319824219e+00 2.279399633407592773e+00 1.072316095232963562e-01
2.742000000000000000e+03 7.295433807373046875e+01 -1.656755828857421875e+01 1.303740870207548141e-02 7.696904182434082031e+00 2.312982320785522461e+00 -1.728837341070175171e-01
2.743000000000000000e+03 7.230190277099609375e+01 -2.472886466979980469e+01 -2.009787037968635559e-02 7.846044063568115234e+00 2.347783803939819336e+00 -1.791392415761947632e-01
2.744000000000000000e+03 7.240203094482421875e+01 1.276575660705566406e+01 3.273691982030868530e-02 7.589149951934814453e+00 2.286566019058227539e+00 1.298944205045700073e-01
2.745000000000000000e+03 7.269392395019531250e+01 -2.282987213134765625e+01 -1.204710360616445541e-02 7.815041542053222656e+00 2.340898275375366211e+00 -1.797931790351867676e-01
2.746000000000000000e+03 7.245024871826171875e+01 -2.370316314697265625e+01 -1.535511948168277740e-02 7.829548358917236328e+00 2.344257831573486328e+00 -1.801712661981582642e-01
2.747000000000000000e+03 7.308896636962890625e+01 -1.799403762817382812e+01 7.245840504765510559e-03 7.723045825958251953e+00 2.319087505340576172e+00 -1.728886663913726807e-01
2.748000000000000000e+03 7.140779876708984375e+01 1.759886550903320312e+01 1.911578699946403503e-02 7.662562370300292969e+00 2.304503440856933594e+00 1.729677021503448486e-01
2.749000000000000000e+03 7.308346557617187500e+01 -1.939585685729980469e+01 2.240973059087991714e-03 7.750113487243652344e+00 2.325706243515014648e+00 -1.727147698402404785e-01
2.750000000000000000e+03 2.258872413635253906e+01 -1.406312084197998047e+01 3.828827738761901855e-01 8.191677093505859375e+00 2.572367906570434570e+00 6.178529858589172363e-01
2.751000000000000000e+03 2.183989715576171875e+01 -1.434127426147460938e+01 3.610671162605285645e-01 8.060016632080078125e+00 2.526325225830078125e+00 8.069294691085815430e-01
2.752000000000000000e+03 7.262078857421875000e+01 2.201845169067382812e+01 -2.556110499426722527e-03 7.729782104492187500e+00 2.318167686462402344e+00 1.610135734081268311e-01
2.753000000000000000e+03 7.216002655029296875e+01 1.880969619750976562e+01 1.058976072818040848e-02 7.678329944610595703e+00 2.306675910949707031e+00 1.653687506914138794e-01
2.754000000000000000e+03 6.968639373779296875e+00 2.557322692871093750e+01 2.137084305286407471e-01 1.088661193847656250e+00 3.907108902931213379e-01 -4.963477849960327148e-01
2.755000000000000000e+03 7.754143238067626953e+00 2.363677406311035156e+01 3.654072284698486328e-01 1.016651272773742676e+00 4.146175384521484375e-01 -5.590963363647460938e-01
2.756000000000000000e+03 8.981368064880371094e+00 2.654922676086425781e+01 1.422708034515380859e-01 1.831784367561340332e+00 5.922165513038635254e-01 -7.427376508712768555e-01
2.757000000000000000e+03 8.318350791931152344e+00 2.735876083374023438e+01 1.030890196561813354e-01 1.705528140068054199e+00 5.425851345062255859e-01 -6.573544144630432129e-01
2.758000000000000000e+03 6.669265270233154297e+00 2.693000984191894531e+01 1.326157748699188232e-01 1.194672465324401855e+00 3.981864750385284424e-01 -4.815370440483093262e-01
2.759000000000000000e+03 4.892441272735595703e+00 2.156490325927734375e+01 1.567546278238296509e-01 2.584627270698547363e-01 1.245652064681053162e-01 -1.023442577570676804e-02
2.760000000000000000e+03 7.205760192871093750e+01 2.705868911743164062e+01 -2.092675864696502686e-02 7.804774761199951172e+00 2.335154294967651367e+00 1.542028635740280151e-01
2.761000000000000000e+03 8.437037467956542969e+00 2.309008789062500000e+01 4.232191443443298340e-01 1.113242387771606445e+00 4.609384536743164062e-01 -6.936506628990173340e-01
2.762000000000000000e+03 6.512722492218017578e+00 2.371230697631835938e+01 2.891489863395690918e-01 7.380835413932800293e-01 3.081697523593902588e-01 -3.565124869346618652e-01
2.763000000000000000e+03 7.418277263641357422e+00 -2.709155845642089844e+01 2.833480387926101685e-02 1.676222085952758789e+00 5.113670229911804199e-01 6.154377460479736328e-01
2.764000000000000000e+03 9.620217323303222656e+00 -2.673541641235351562e+01 -2.342416346073150635e-02 2.349391460418701172e+00 6.977902054786682129e-01 8.189067840576171875e-01
2.765000000000000000e+03 9.621236801147460938e+00 2.332546424865722656e+01 3.980925381183624268e-01 1.616971492767333984e+00 6.045191884040832520e-01 -9.481132030487060547e-01
2.766000000000000000e+03 7.558446884155273438e+00 8.822975158691406250e+00 -1.662416798353660852e-05 -1.492053736001253128e-03 -4.526033590082079172e-04 3.876319096889346838e-04
2.767000000000000000e+03 7.286685180664062500e+01 -2.006098747253417969e+01 -5.362051306292414665e-04 7.763133525848388672e+00 2.328779220581054688e+00 -1.791131198406219482e-01
2.768000000000000000e+03 7.367415618896484375e+01 -2.021337127685546875e+01 -1.161421183496713638e-03 7.767997741699218750e+00 2.330050945281982422e+00 -1.637861877679824829e-01
2.769000000000000000e+03 7.275591278076171875e+01 -1.422687530517578125e+01 2.168784849345684052e-02 7.657026767730712891e+00 2.303614377975463867e+00 -1.656258106231689453e-01
2.770000000000000000e+03 2.384801864624023438e+01 -1.250328636169433594e+01 6.447232365608215332e-01 8.568167686462402344e+00 2.763867139816284180e+00 3.332813978195190430e-01
2.771000000000000000e+03 2.420213317871093750e+01 8.648536682128906250e+00 1.306874036788940430e+00 9.537361145019531250e+00 3.253270626068115234e+00 -4.898893535137176514e-01
2.772000000000000000e+03 8.333329200744628906e+00 8.655011177062988281e+00 -5.753883160650730133e-04 -1.314734923653304577e-03 -5.670369719155132771e-04 1.519853365607559681e-03
2.773000000000000000e+03 6.759662151336669922e+00 8.771727561950683594e+00 -8.547162287868559361e-04 -1.983472146093845367e-03 -8.514564833603799343e-04 8.431388414464890957e-04
2.774000000000000000e+03 7.359741210937500000e+01 -1.329557514190673828e+01 2.028425037860870361e-02 7.634512901306152344e+00 2.296439170837402344e+00 -1.455000489950180054e-01
2.775000000000000000e+03 1.797718048095703125e+01 2.164197349548339844e+01 -1.885062605142593384e-01 5.970298290252685547e+00 1.734537601470947266e+00 -1.180538773536682129e+00
2.776000000000000000e+03 1.488958930969238281e+01 2.393981742858886719e+01 -1.388080716133117676e-01 4.353821277618408203e+00 1.264503955841064453e+00 -1.357396841049194336e+00
2.777000000000000000e+03 2.572482299804687500e+01 -6.691706776618957520e-01 1.409716486930847168e+00 9.932687759399414062e+00 3.402721405029296875e+00 1.974844187498092651e-01
2.778000000000000000e+03 2.503631973266601562e+01 -1.754397869110107422e+00 1.428244709968566895e+00 1.011813163757324219e+01 3.463912963867187500e+00 3.227633535861968994e-01
2.779000000000000000e+03 2.079501533508300781e+01 -2.051471519470214844e+01 -3.495819270610809326e-01 6.628226280212402344e+00 1.883593201637268066e+00 7.646148204803466797e-01
2.780000000000000000e+03 2.255426979064941406e+01 -1.743354034423828125e+01 -7.770163565874099731e-02 7.489756107330322266e+00 2.223616361618041992e+00 5.863977670669555664e-01
2.781000000000000000e+03 2.536820411682128906e+01 -9.327896118164062500e+00 1.222373366355895996e+00 8.927418708801269531e+00 3.044937610626220703e+00 1.014644056558609009e-01
2.782000000000000000e+03 1.125723361968994141e+01 -2.283402633666992188e+01 1.657709777355194092e-01 2.722714185714721680e+00 8.665455579757690430e-01 1.203080654144287109e+00
2.783000000000000000e+03 7.274040985107421875e+01 -5.305142402648925781e+00 4.753159359097480774e-02 7.536114215850830078e+00 2.275093793869018555e+00 -8.448650687932968140e-02
2.784000000000000000e+03 7.272714996337890625e+01 -6.111256599426269531e+00 4.635991528630256653e-02 7.543612003326416016e+00 2.276991605758666992e+00 -9.396913647651672363e-02
2.785000000000000000e+03 2.645759773254394531e+01 3.945823609828948975e-01 1.429812550544738770e+00 9.679798126220703125e+00 3.332883119583129883e+00 8.703432977199554443e-02
2.786000000000000000e+03 2.493118667602539062e+01 1.392757797241210938e+01 7.676104307174682617e-01 8.469215393066406250e+00 2.771047830581665039e+00 -1.825277954339981079e-01
2.787000000000000000e+03 7.042362976074218750e+01 2.915322113037109375e+01 -4.020154848694801331e-02 7.826842784881591797e+00 2.335992336273193359e+00 1.626412123441696167e-01
2.788000000000000000e+03 7.274014282226562500e+01 1.924920678138732910e+00 5.219827592372894287e-02 7.506165981292724609e+00 2.267509222030639648e+00 7.651644758880138397e-03
2.789000000000000000e+03 7.274059295654296875e+01 1.140593171119689941e+00 5.241199955344200134e-02 7.506238460540771484e+00 2.267595052719116211e+00 -2.912941388785839081e-03
2.790000000000000000e+03 2.483972358703613281e+01 1.097579383850097656e+01 1.142122387886047363e+00 8.977202415466308594e+00 3.035797357559204102e+00 -3.124860823154449463e-01
2.791000000000000000e+03 2.049729919433593750e+01 1.984400749206542969e+01 -6.381951272487640381e-02 7.077486038208007812e+00 2.104099988937377930e+00 -7.814555764198303223e-01
2.792000000000000000e+03 2.402101516723632812e+01 1.518498897552490234e+01 5.943172574043273926e-01 8.302674293518066406e+00 2.669097423553466797e+00 -2.978436052799224854e-01
2.793000000000000000e+03 8.184501647949218750e+00 3.310267257690429688e+01 -1.384363770484924316e-01 2.054391384124755859e+00 5.747864842414855957e-01 -4.348847270011901855e-01
2.794000000000000000e+03 6.714268207550048828e+00 3.442724227905273438e+01 -1.254477947950363159e-01 1.675878047943115234e+00 4.651290774345397949e-01 -3.439270555973052979e-01
2.795000000000000000e+03 9.470755577087402344e+00 3.238992691040039062e+01 -1.768366694450378418e-01 2.435874223709106445e+00 6.777112483978271484e-01 -4.964076876640319824e-01
2.796000000000000000e+03 8.317784309387207031e+00 -2.785984039306640625e+01 -2.185222506523132324e-02 1.991011738777160645e+00 5.907478332519531250e-01 6.749581694602966309e-01
2.797000000000000000e+03 8.570304870605468750e+00 -3.119632339477539062e+01 -1.622519195079803467e-01 2.296974182128906250e+00 6.404166817665100098e-01 5.475717186927795410e-01
2.798000000000000000e+03 8.107300758361816406e+00 -2.876330757141113281e+01 -6.285744905471801758e-02 2.014826297760009766e+00 5.855906605720520020e-01 6.272450685501098633e-01
2.799000000000000000e+03 1.009986305236816406e+01 -2.472986602783203125e+01 8.656003326177597046e-02 2.364440917968750000e+00 7.353003025054931641e-01 9.453642964363098145e-01
2.800000000000000000e+03 2.480217552185058594e+01 -4.870672702789306641e+00 1.696652889251708984e+00 9.750288009643554688e+00 3.434082031250000000e+00 4.328961968421936035e-01
2.801000000000000000e+03 2.570267295837402344e+01 -4.784936428070068359e+00 1.655162930488586426e+00 9.474501609802246094e+00 3.338899135589599609e+00 2.824968397617340088e-01
2.802000000000000000e+03 7.230499267578125000e+01 -3.060411071777343750e+01 -3.580966591835021973e-02 7.936321735382080078e+00 2.370153665542602539e+00 -1.361771225929260254e-01
2.803000000000000000e+03 7.218359375000000000e+01 -3.259950256347656250e+01 -4.250430688261985779e-02 7.957571506500244141e+00 2.374520301818847656e+00 -1.203650608658790588e-01
2.804000000000000000e+03 2.507981300354003906e+01 9.857288360595703125e+00 1.233126640319824219e+00 9.121447563171386719e+00 3.106372356414794922e+00 -3.072934150695800781e-01
2.805000000000000000e+03 2.597163963317871094e+01 1.128658199310302734e+01 1.069017887115478516e+00 8.764784812927246094e+00 2.950140714645385742e+00 -1.197906658053398132e-01
2.806000000000000000e+03 1.268695259094238281e+01 2.365681838989257812e+01 1.295496076345443726e-01 3.140864133834838867e+00 9.811241030693054199e-01 -1.340837359428405762e+00
2.807000000000000000e+03 7.277069854736328125e+01 8.923309326171875000e+00 4.134673625230789185e-02 7.542461395263671875e+00 2.275142431259155273e+00 9.110061079263687134e-02
2.808000000000000000e+03 7.280098724365234375e+01 8.181164741516113281e+00 4.312265291810035706e-02 7.535428047180175781e+00 2.273565053939819336e+00 8.309283107519149780e-02
2.809000000000000000e+03 2.560607910156250000e+01 -3.329484939575195312e+00 1.590280652046203613e+00 9.733416557312011719e+00 3.397109270095825195e+00 3.268031477928161621e-01
2.810000000000000000e+03 9.183825492858886719e+00 -2.898691940307617188e+01 -1.118644922971725464e-01 2.347143650054931641e+00 6.705837249755859375e-01 6.812862753868103027e-01
2.811000000000000000e+03 7.247377014160156250e+01 3.145286750793457031e+01 -3.530193865299224854e-02 7.865329265594482422e+00 2.349008083343505859e+00 1.215404644608497620e-01
2.812000000000000000e+03 7.140615081787109375e+01 2.804714775085449219e+01 -2.818583510816097260e-02 7.817244529724121094e+00 2.336717605590820312e+00 1.572523564100265503e-01
2.813000000000000000e+03 1.836111068725585938e+01 2.343661499023437500e+01 -3.982409238815307617e-01 5.862604141235351562e+00 1.639308929443359375e+00 -1.017917513847351074e+00
2.814000000000000000e+03 2.321125602722167969e+01 1.421702861785888672e+01 7.946441769599914551e-01 8.527542114257812500e+00 2.796655893325805664e+00 -4.990445971488952637e-01
2.815000000000000000e+03 2.272467422485351562e+01 1.730138015747070312e+01 2.909442484378814697e-01 7.919232845306396484e+00 2.463053226470947266e+00 -4.583133459091186523e-01
2.816000000000000000e+03 7.236842346191406250e+01 1.362241077423095703e+01 3.060767054557800293e-02 7.600268363952636719e+00 2.289262771606445312e+00 1.370325237512588501e-01
2.817000000000000000e+03 1.337427043914794922e+01 -2.393650817871093750e+01 -1.095348745584487915e-01 3.681871414184570312e+00 1.071700930595397949e+00 1.169211864471435547e+00
2.818000000000000000e+03 1.621399688720703125e+01 -2.209347724914550781e+01 -1.988842189311981201e-01 4.996132850646972656e+00 1.439174532890319824e+00 1.190200686454772949e+00
2.819000000000000000e+03 7.172012329101562500e+01 3.259463119506835938e+01 -4.535111784934997559e-02 7.872157096862792969e+00 2.348041772842407227e+00 1.191943585872650146e-01
2.820000000000000000e+03 7.145692443847656250e+01 3.038010978698730469e+01 -3.757659718394279480e-02 7.845539093017578125e+00 2.342388868331909180e+00 1.419344544410705566e-01
2.821000000000000000e+03 6.910044097900390625e+01 3.025218009948730469e+01 -5.795548483729362488e-02 7.837776660919189453e+00 2.333946466445922852e+00 1.681531220674514771e-01
2.822000000000000000e+03 8.360687255859375000e+00 -2.236373710632324219e+01 3.665883839130401611e-01 1.375450849533081055e+00 5.226117968559265137e-01 8.069949746131896973e-01
2.823000000000000000e+03 2.481175041198730469e+01 5.061456203460693359e+00 1.331403136253356934e+00 9.965392112731933594e+00 3.389038562774658203e+00 -3.230418264865875244e-01
2.824000000000000000e+03 2.540488433837890625e+01 6.988348007202148438e+00 1.338988780975341797e+00 9.504347801208496094e+00 3.253000974655151367e+00 -2.823411524295806885e-01
2.825000000000000000e+03 2.398884391784667969e+01 -1.857026100158691406e+01 -2.257045656442642212e-01 7.466837406158447266e+00 2.172339916229248047e+00 3.300678133964538574e-01
2.826000000000000000e+03 2.149482536315917969e+01 -1.748947715759277344e+01 -4.989558458328247070e-02 7.256659030914306641e+00 2.162029027938842773e+00 7.574210762977600098e-01
2.827000000000000000e+03 1.825610542297363281e+01 -2.069350242614746094e+01 -2.353302836418151855e-01 5.876165866851806641e+00 1.692250728607177734e+00 1.094788312911987305e+00
2.828000000000000000e+03 1.983393859863281250e+01 2.114182281494140625e+01 -2.263518720865249634e-01 6.672366619110107422e+00 1.933804392814636230e+00 -8.591638207435607910e-01
2.829000000000000000e+03 2.452412605285644531e+01 -7.857784748077392578e+00 1.527382731437683105e+00 9.336509704589843750e+00 3.259167909622192383e+00 2.971127927303314209e-01
2.830000000000000000e+03 7.228717803955078125e+01 -2.585090637207031250e+01 -2.410724386572837830e-02 7.865140438079833984e+00 2.352309942245483398e+00 -1.731858402490615845e-01
2.831000000000000000e+03 7.147912597656250000e+01 -2.842703437805175781e+01 -3.850143402814865112e-02 7.899001121520996094e+00 2.358150005340576172e+00 -1.672560125589370728e-01
2.832000000000000000e+03 1.922982406616210938e+01 -2.200028991699218750e+01 -3.884595632553100586e-01 6.058472156524658203e+00 1.701003789901733398e+00 9.332439303398132324e-01
2.833000000000000000e+03 2.585677528381347656e+01 -6.813656330108642578e+00 1.551334619522094727e+00 9.147365570068359375e+00 3.209609985351562500e+00 1.599814891815185547e-01
2.834000000000000000e+03 8.557828903198242188e+00 -3.728572463989257812e+01 -2.147909104824066162e-01 2.355530261993408203e+00 6.422218084335327148e-01 2.251954525709152222e-01
2.835000000000000000e+03 9.838865280151367188e+00 -3.368239212036132812e+01 -2.809518277645111084e-01 2.756413459777832031e+00 7.426384687423706055e-01 4.535580575466156006e-01
2.836000000000000000e+03 1.199538040161132812e+01 2.406875228881835938e+01 1.641072928905487061e-01 2.879845619201660156e+00 9.131858348846435547e-01 -1.273869872093200684e+00
2.837000000000000000e+03 6.968367004394531250e+01 -3.493627929687500000e+01 -7.477038353681564331e-02 7.951727390289306641e+00 2.363087177276611328e+00 -1.128727942705154419e-01
2.838000000000000000e+03 1.596131229400634766e+01 2.163578414916992188e+01 -1.801872998476028442e-02 5.097167491912841797e+00 1.523744583129882812e+00 -1.488603472709655762e+00
2.839000000000000000e+03 2.499415588378906250e+01 4.161566734313964844e+00 1.314674139022827148e+00 1.000499343872070312e+01 3.395900249481201172e+00 -2.411045134067535400e-01
2.840000000000000000e+03 2.534932327270507812e+01 3.290055274963378906e+00 1.316876173019409180e+00 9.977099418640136719e+00 3.388192653656005859e+00 -1.480056196451187134e-01
2.841000000000000000e+03 1.391419887542724609e+01 -2.518488883972167969e+01 -2.326128929853439331e-01 3.898366928100585938e+00 1.099726200103759766e+00 1.060366988182067871e+00
2.842000000000000000e+03 1.038093471527099609e+01 -3.539694213867187500e+01 -3.275734782218933105e-01 2.940031290054321289e+00 7.837373614311218262e-01 3.561186790466308594e-01
2.843000000000000000e+03 1.035172939300537109e+01 -2.952298545837402344e+01 -1.964770555496215820e-01 2.761402130126953125e+00 7.694774866104125977e-01 7.123059630393981934e-01
2.844000000000000000e+03 7.221230316162109375e+01 -2.170543861389160156e+01 -6.535029504448175430e-03 7.790672779083251953e+00 2.335241317749023438e+00 -1.897819340229034424e-01
2.845000000000000000e+03 7.321392059326171875e+01 -2.131408691406250000e+01 -4.006156697869300842e-03 7.785947322845458984e+00 2.334582328796386719e+00 -1.711969077587127686e-01
2.846000000000000000e+03 7.105941295623779297e+00 2.424332618713378906e+01 2.972761690616607666e-01 9.358054995536804199e-01 3.699244856834411621e-01 -4.759729206562042236e-01
2.847000000000000000e+03 8.600030899047851562e+00 2.911110687255859375e+01 -4.691796377301216125e-03 1.967968344688415527e+00 5.889829993247985840e-01 -6.391470432281494141e-01
2.848000000000000000e+03 7.716128349304199219e+00 2.826306533813476562e+01 6.428342312574386597e-02 1.613792657852172852e+00 5.034228563308715820e-01 -5.740649104118347168e-01
2.849000000000000000e+03 7.310836791992187500e+01 -1.869308090209960938e+01 3.844981314614415169e-03 7.738692760467529297e+00 2.322761297225952148e+00 -1.740520000457763672e-01
2.850000000000000000e+03 7.043651580810546875e+01 -2.158562469482421875e+01 -9.854539297521114349e-03 7.785095214843750000e+00 2.332572221755981445e+00 -2.212170362472534180e-01
2.851000000000000000e+03 7.191775512695312500e+01 -1.352257537841796875e+01 2.979162521660327911e-02 7.649217605590820312e+00 2.303702831268310547e+00 -1.748862564563751221e-01
2.852000000000000000e+03 7.146752929687500000e+01 -2.332303428649902344e+01 -1.759834215044975281e-02 7.817899227142333984e+00 2.340090274810791016e+00 -1.999161392450332642e-01
2.853000000000000000e+03 7.065617370605468750e+01 -1.619126319885253906e+01 2.266332134604454041e-02 7.697696685791015625e+00 2.316107988357543945e+00 -2.108209431171417236e-01
2.854000000000000000e+03 7.280187225341796875e+01 7.423895835876464844e+00 4.492098838090896606e-02 7.528845310211181641e+00 2.272129774093627930e+00 7.455463707447052002e-02
2.855000000000000000e+03 6.948986816406250000e+01 1.111219215393066406e+01 7.014627009630203247e-02 7.594885349273681641e+00 2.299509525299072266e+00 1.467872262001037598e-01
2.856000000000000000e+03 7.149861145019531250e+01 1.431443405151367188e+01 3.467708453536033630e-02 7.615960597991943359e+00 2.295191287994384766e+00 1.534609347581863403e-01
2.857000000000000000e+03 7.188840484619140625e+01 -4.530807018280029297e+00 5.917698144912719727e-02 7.540526390075683594e+00 2.279911041259765625e+00 -8.135484158992767334e-02
2.858000000000000000e+03 7.274583435058593750e+01 -2.052740097045898438e+00 5.130694061517715454e-02 7.514144897460937500e+00 2.269635438919067383e+00 -4.438605904579162598e-02
2.859000000000000000e+03 7.005862426757812500e+01 -3.666636228561401367e+00 8.828518539667129517e-02 7.552817821502685547e+00 2.292330980300903320e+00 -8.138933777809143066e-02
2.860000000000000000e+03 7.270166015625000000e+01 -8.542185783386230469e+00 4.085820913314819336e-02 7.571113586425781250e+00 2.283591508865356445e+00 -1.207771971821784973e-01
2.861000000000000000e+03 7.088909149169921875e+01 -1.035997581481933594e+01 5.400670319795608521e-02 7.610184192657470703e+00 2.299257278442382812e+00 -1.638956665992736816e-01
2.862000000000000000e+03 7.098558044433593750e+01 -4.530135631561279297e+00 7.103402167558670044e-02 7.549426078796386719e+00 2.286138057708740234e+00 -8.735431730747222900e-02
2.863000000000000000e+03 9.183072090148925781e+00 -2.384056091308593750e+01 2.156107723712921143e-01 1.870087742805480957e+00 6.257095336914062500e-01 8.980820775032043457e-01
2.864000000000000000e+03 7.184571838378906250e+01 -1.194670104980468750e+01 3.741345927119255066e-02 7.625130176544189453e+00 2.298763036727905273e+00 -1.639271080493927002e-01
2.865000000000000000e+03 7.180348205566406250e+01 -9.441046714782714844e+00 4.768151417374610901e-02 7.591198921203613281e+00 2.291664123535156250e+00 -1.415988802909851074e-01
2.866000000000000000e+03 7.085774230957031250e+01 -7.817669868469238281e+00 6.448831409215927124e-02 7.580148696899414062e+00 2.293390989303588867e+00 -1.337063312530517578e-01
2.867000000000000000e+03 7.128618621826171875e+01 -2.455531120300292969e+01 -2.438252791762351990e-02 7.837930679321289062e+00 2.344064474105834961e+00 -1.972939223051071167e-01
2.868000000000000000e+03 7.098794555664062500e+01 2.599104881286621094e+00 7.495357096195220947e-02 7.529662132263183594e+00 2.281384706497192383e+00 1.900190673768520355e-02
2.869000000000000000e+03 7.272812652587890625e+01 -4.291027188301086426e-01 5.189419537782669067e-02 7.508664131164550781e+00 2.268167495727539062e+00 -2.331814169883728027e-02
2.870000000000000000e+03 7.187619018554687500e+01 -1.258084058761596680e+00 6.342158466577529907e-02 7.522924900054931641e+00 2.275903940200805664e+00 -3.723800927400588989e-02
2.871000000000000000e+03 7.277510070800781250e+01 6.655394077301025391e+00 4.664726927876472473e-02 7.523587703704833984e+00 2.271070480346679688e+00 6.554146856069564819e-02
2.872000000000000000e+03 7.183843994140625000e+01 5.056364536285400391e+00 6.025938317179679871e-02 7.527234077453613281e+00 2.276247978210449219e+00 5.074897035956382751e-02
2.873000000000000000e+03 7.183055114746093750e+01 3.450809478759765625e+00 6.199818477034568787e-02 7.521642208099365234e+00 2.275092124938964844e+00 2.931236661970615387e-02
2.874000000000000000e+03 7.164239501953125000e+01 -1.942883872985839844e+01 3.299351781606674194e-03 7.750042915344238281e+00 2.326002836227416992e+00 -2.007709145545959473e-01
2.875000000000000000e+03 7.233149719238281250e+01 -1.743681526184082031e+01 1.126083917915821075e-02 7.714197158813476562e+00 2.317637443542480469e+00 -1.864115297794342041e-01
2.876000000000000000e+03 7.246498870849609375e+01 -1.872445297241210938e+01 4.178532864898443222e-03 7.740257740020751953e+00 2.323330879211425781e+00 -1.863806247711181641e-01
2.877000000000000000e+03 7.146879577636718750e+01 1.256795406341552734e+01 4.153765365481376648e-02 7.595559597015380859e+00 2.291129112243652344e+00 1.396261751651763916e-01
2.878000000000000000e+03 7.115148925781250000e+01 1.861586952209472656e+01 1.588916406035423279e-02 7.678433418273925781e+00 2.308296680450439453e+00 1.816582977771759033e-01
2.879000000000000000e+03 7.189233398437500000e+01 -1.273630332946777344e+01 3.415210172533988953e-02 7.637271881103515625e+00 2.301427125930786133e+00 -1.702499389648437500e-01
2.880000000000000000e+03 7.275949096679687500e+01 -1.341367721557617188e+01 2.551754750311374664e-02 7.642511367797851562e+00 2.300408601760864258e+00 -1.610251516103744507e-01
2.881000000000000000e+03 1.081218242645263672e+01 2.360467529296875000e+01 3.060249090194702148e-01 2.222181558609008789e+00 7.584619522094726562e-01 -1.143468260765075684e+00
2.882000000000000000e+03 8.890120506286621094e+00 2.514439964294433594e+01 2.557159662246704102e-01 1.648083925247192383e+00 5.711399316787719727e-01 -7.696822881698608398e-01
2.883000000000000000e+03 8.215147972106933594e+00 -2.601668548583984375e+01 7.085027545690536499e-02 1.828929901123046875e+00 5.699340701103210449e-01 7.036240696907043457e-01
2.884000000000000000e+03 1.066169738769531250e+01 -2.369758415222167969e+01 1.273948997259140015e-01 2.542563199996948242e+00 8.009874224662780762e-01 1.065147995948791504e+00
2.885000000000000000e+03 1.070332717895507812e+01 2.485828018188476562e+01 1.982691884040832520e-01 2.340664625167846680e+00 7.616801857948303223e-01 -1.032248735427856445e+00
2.886000000000000000e+03 7.232205200195312500e+01 1.448253631591796875e+01 2.839495614171028137e-02 7.611989021301269531e+00 2.292115211486816406e+00 1.437583863735198975e-01
2.887000000000000000e+03 9.513130187988281250e+00 2.582253456115722656e+01 1.651758700609207153e-01 1.941728830337524414e+00 6.320713758468627930e-01 -8.253284692764282227e-01
2.888000000000000000e+03 7.196123504638671875e+01 6.626510143280029297e+00 5.627261847257614136e-02 7.534219741821289062e+00 2.277147769927978516e+00 7.037466019392013550e-02
2.889000000000000000e+03 8.218279838562011719e+00 7.914146423339843750e+00 9.856426913756877184e-05 -8.412782917730510235e-04 -2.228142111562192440e-04 4.846750525757670403e-04
2.890000000000000000e+03 7.184603881835937500e+01 -4.404576718807220459e-01 6.424580514430999756e-02 7.520619392395019531e+00 2.275459527969360352e+00 -2.537144720554351807e-02
2.891000000000000000e+03 7.219259643554687500e+01 1.533713340759277344e+01 2.707460150122642517e-02 7.626091480255126953e+00 2.295949697494506836e+00 1.527384817600250244e-01
2.892000000000000000e+03 7.028038024902343750e+01 1.702907943725585938e+01 2.729165926575660706e-02 7.661556243896484375e+00 2.306654214859008789e+00 1.870290786027908325e-01
2.893000000000000000e+03 4.442181110382080078e+00 2.025722503662109375e+01 5.066204443573951721e-02 1.559134125709533691e-01 6.197263672947883606e-02 6.396839767694473267e-02
2.894000000000000000e+03 7.192154693603515625e+01 9.474711418151855469e+00 4.887987673282623291e-02 7.557723999023437500e+00 2.281981229782104492e+00 1.045192331075668335e-01
2.895000000000000000e+03 7.012198638916015625e+01 2.442935752868652344e+01 -2.109444141387939453e-02 7.770215034484863281e+00 2.324736118316650391e+00 1.946780532598495483e-01
2.896000000000000000e+03 7.180191040039062500e+01 -7.783113956451416016e+00 5.247852578759193420e-02 7.571401119232177734e+00 2.287163972854614258e+00 -1.229872107505798340e-01
2.897000000000000000e+03 2.560955619812011719e+01 6.141210556030273438e+00 1.351134300231933594e+00 9.577907562255859375e+00 3.278712511062622070e+00 -2.412560135126113892e-01
2.898000000000000000e+03 2.600119400024414062e+01 4.458763122558593750e+00 1.381235241889953613e+00 9.642758369445800781e+00 3.307198047637939453e+00 -1.614491343498229980e-01
2.899000000000000000e+03 2.620056533813476562e+01 1.002101516723632812e+01 1.184857606887817383e+00 8.914800643920898438e+00 3.029897689819335938e+00 -1.330633908510208130e-01
2.900000000000000000e+03 7.187207031250000000e+01 -5.339676380157470703e+00 5.840701982378959656e-02 7.546541213989257812e+00 2.281484603881835938e+00 -9.198996424674987793e-02
2.901000000000000000e+03 7.184729003906250000e+01 -6.152772903442382812e+00 5.713500827550888062e-02 7.554147720336914062e+00 2.283384799957275391e+00 -1.031722575426101685e-01
2.902000000000000000e+03 7.052833557128906250e+01 1.345115184783935547e+01 4.575634375214576721e-02 7.614638328552246094e+00 2.298118352890014648e+00 1.593836545944213867e-01
2.903000000000000000e+03 7.202603149414062500e+01 7.362104892730712891e+00 5.500554665923118591e-02 7.538254261016845703e+00 2.277977943420410156e+00 7.960579544305801392e-02
2.904000000000000000e+03 8.285699844360351562e+00 -2.328966522216796875e+01 2.747237086296081543e-01 1.494891166687011719e+00 5.308844447135925293e-01 7.817224264144897461e-01
2.905000000000000000e+03 8.584822654724121094e+00 -2.465559005737304688e+01 1.656390130519866943e-01 1.789483904838562012e+00 5.865368843078613281e-01 7.909983992576599121e-01
2.906000000000000000e+03 9.290060997009277344e+00 2.817599296569824219e+01 1.868729107081890106e-02 2.126466035842895508e+00 6.435459852218627930e-01 -7.134611606597900391e-01
2.907000000000000000e+03 7.857181549072265625e+00 2.994267082214355469e+01 -2.578728087246417999e-02 1.801093578338623047e+00 5.325918793678283691e-01 -5.452290177345275879e-01
2.908000000000000000e+03 2.523785400390625000e+01 -1.181272315979003906e+01 7.738367915153503418e-01 8.594392776489257812e+00 2.810468673706054688e+00 9.490353614091873169e-02
2.909000000000000000e+03 1.434005355834960938e+01 2.501968002319335938e+01 -1.714991480112075806e-01 4.050934791564941406e+00 1.163830757141113281e+00 -1.235923051834106445e+00
2.910000000000000000e+03 7.190032196044921875e+01 1.875855922698974609e+00 6.398072093725204468e-02 7.518370628356933594e+00 2.274705410003662109e+00 8.098247461020946503e-03
2.911000000000000000e+03 7.188324737548828125e+01 1.109476089477539062e+00 6.466080993413925171e-02 7.517691612243652344e+00 2.274705648422241211e+00 -4.003957379609346390e-03
2.912000000000000000e+03 7.054737854003906250e+01 2.711588287353515625e+01 -3.011440671980381012e-02 7.802590370178222656e+00 2.331742763519287109e+00 1.744064688682556152e-01
2.913000000000000000e+03 2.637898826599121094e+01 -1.006392574310302734e+01 1.084062695503234863e+00 8.678526878356933594e+00 2.928776741027832031e+00 -3.004418313503265381e-02
2.914000000000000000e+03 7.184420776367187500e+01 3.488829731941223145e-01 6.380094587802886963e-02 7.519225597381591797e+00 2.274907827377319336e+00 -1.460368651896715164e-02
2.915000000000000000e+03 2.610955238342285156e+01 1.461696052551269531e+01 6.467632055282592773e-01 8.330619812011718750e+00 2.693214893341064453e+00 -8.339791558682918549e-03
2.916000000000000000e+03 2.277277183532714844e+01 1.591850376129150391e+01 5.262973904609680176e-01 8.172108650207519531e+00 2.609521627426147461e+00 -4.976225793361663818e-01
2.917000000000000000e+03 7.202919769287109375e+01 8.071851730346679688e+00 5.170981958508491516e-02 7.544227123260498047e+00 2.278781175613403320e+00 8.885020017623901367e-02
2.918000000000000000e+03 2.510377883911132812e+01 -1.392971324920654297e+01 4.287430047988891602e-01 8.276620864868164062e+00 2.611608982086181641e+00 1.362037807703018188e-01
2.919000000000000000e+03 2.616044425964355469e+01 -1.166509437561035156e+01 7.974361777305603027e-01 8.511550903320312500e+00 2.792696237564086914e+00 -3.706437721848487854e-02
2.920000000000000000e+03 2.901696586608886719e+01 -4.923988878726959229e-01 1.524214744567871094e+00 8.948506355285644531e+00 3.141816377639770508e+00 6.420655548572540283e-02
2.921000000000000000e+03 2.129632949829101562e+01 -1.644246673583984375e+01 9.660472720861434937e-02 7.440659046173095703e+00 2.261179208755493164e+00 8.630312085151672363e-01
2.922000000000000000e+03 2.063776969909667969e+01 -1.751845169067382812e+01 -2.606260590255260468e-02 7.083084583282470703e+00 2.117106676101684570e+00 9.414044618606567383e-01
2.923000000000000000e+03 8.735418319702148438e+00 -2.982079696655273438e+01 -1.261204928159713745e-01 2.286180257797241211e+00 6.480179429054260254e-01 6.252685785293579102e-01
2.924000000000000000e+03 9.196453094482421875e+00 -3.230015563964843750e+01 -2.247518450021743774e-01 2.515153408050537109e+00 6.871204972267150879e-01 5.077766180038452148e-01
2.925000000000000000e+03 7.181887054443359375e+01 -6.964700698852539062e+00 5.502604320645332336e-02 7.562774181365966797e+00 2.285340070724487305e+00 -1.134200394153594971e-01
2.926000000000000000e+03 2.221449851989746094e+01 1.872272491455078125e+01 6.450910121202468872e-02 7.607608795166015625e+00 2.301635503768920898e+00 -5.167476534843444824e-01
2.927000000000000000e+03 2.129202461242675781e+01 1.719105720520019531e+01 3.775201737880706787e-01 7.780489921569824219e+00 2.447403192520141602e+00 -7.705884575843811035e-01
2.928000000000000000e+03 8.076387405395507812e+00 3.488062667846679688e+01 -1.767585426568984985e-01 2.063343286514282227e+00 5.659754276275634766e-01 -3.885254859924316406e-01
2.929000000000000000e+03 1.336731719970703125e+01 2.440302467346191406e+01 -2.067667618393898010e-02 3.573197364807128906e+00 1.065756201744079590e+00 -1.296532154083251953e+00
2.930000000000000000e+03 1.394708824157714844e+01 2.343593215942382812e+01 1.292593893595039845e-03 3.887240171432495117e+00 1.166559815406799316e+00 -1.407202243804931641e+00
2.931000000000000000e+03 2.678710365295410156e+01 -6.194165706634521484e+00 1.564150214195251465e+00 9.037812232971191406e+00 3.180588722229003906e+00 9.392482787370681763e-02
2.932000000000000000e+03 2.624215126037597656e+01 -2.363240957260131836e+00 1.546064376831054688e+00 9.592136383056640625e+00 3.341460227966308594e+00 2.471499741077423096e-01
2.933000000000000000e+03 2.582208824157714844e+01 5.292278289794921875e+00 1.362842440605163574e+00 9.632991790771484375e+00 3.298750162124633789e+00 -2.035273313522338867e-01
2.934000000000000000e+03 2.174617385864257812e+01 2.006997871398925781e+01 -1.269144862890243530e-01 7.288090229034423828e+00 2.148352622985839844e+00 -5.693832635879516602e-01
2.935000000000000000e+03 2.170572280883789062e+01 2.128337860107421875e+01 -2.796508669853210449e-01 7.067297458648681641e+00 2.036293983459472656e+00 -5.585899949073791504e-01
2.936000000000000000e+03 1.906970596313476562e+01 2.232527732849121094e+01 -3.355881273746490479e-01 6.240770816802978516e+00 1.771554827690124512e+00 -9.514434337615966797e-01
2.937000000000000000e+03 7.489171504974365234e+00 -2.341176605224609375e+01 2.865763604640960693e-01 1.240380644798278809e+00 4.580870866775512695e-01 6.676173806190490723e-01
2.938000000000000000e+03 2.555839538574218750e+01 1.260736942291259766e+01 9.309938549995422363e-01 8.626511573791503906e+00 2.867251396179199219e+00 -1.344142556190490723e-01
2.939000000000000000e+03 8.966282844543457031e+00 2.384165573120117188e+01 3.652189373970031738e-01 1.456178426742553711e+00 5.464192032814025879e-01 -7.973009943962097168e-01
2.940000000000000000e+03 1.015049648284912109e+01 2.408093261718750000e+01 3.058171272277832031e-01 1.975860714912414551e+00 6.845033764839172363e-01 -9.949983954429626465e-01
2.941000000000000000e+03 1.934082221984863281e+01 -2.074137496948242188e+01 -3.041013479232788086e-01 6.224195480346679688e+00 1.776028275489807129e+00 9.901560544967651367e-01
2.942000000000000000e+03 2.379500770568847656e+01 -1.723704528808593750e+01 -6.611931324005126953e-02 7.656338214874267578e+00 2.277065753936767578e+00 3.649140298366546631e-01
2.943000000000000000e+03 9.516425132751464844e+00 3.008259773254394531e+01 -1.042201220989227295e-01 2.324847936630249023e+00 6.661883592605590820e-01 -6.183472275733947754e-01
2.944000000000000000e+03 2.738345527648925781e+01 8.714229583740234375e+00 1.256284952163696289e+00 8.871524810791015625e+00 3.038342714309692383e+00 -1.960350200533866882e-02
2.945000000000000000e+03 6.992719268798828125e+01 -3.218470001220703125e+01 -6.595194339752197266e-02 7.930674076080322266e+00 2.359416723251342773e+00 -1.459356695413589478e-01
2.946000000000000000e+03 6.925342559814453125e+01 3.307925415039062500e+01 -7.146058231592178345e-02 7.864351272583007812e+00 2.337867259979248047e+00 1.371792852878570557e-01
2.947000000000000000e+03 7.180596923828125000e+01 2.483253097534179688e+01 -1.497603300958871841e-02 7.773833751678466797e+00 2.327657461166381836e+00 1.678479313850402832e-01
2.948000000000000000e+03 7.109348297119140625e+01 2.091242790222167969e+01 1.878558192402124405e-03 7.716082572937011719e+00 2.315388441085815430e+00 1.869633197784423828e-01
2.949000000000000000e+03 1.199565887451171875e+01 -2.351976966857910156e+01 4.207785055041313171e-02 3.111053705215454102e+00 9.459394812583923340e-01 1.193826913833618164e+00
2.950000000000000000e+03 1.435986804962158203e+01 -2.329233551025390625e+01 -1.414126306772232056e-01 4.113207340240478516e+00 1.191538453102111816e+00 1.196380734443664551e+00
2.951000000000000000e+03 1.691329002380371094e+01 -2.466581153869628906e+01 -4.252732992172241211e-01 4.992272853851318359e+00 1.370099902153015137e+00 9.689307212829589844e-01
2.952000000000000000e+03 1.714934158325195312e+01 -2.281638336181640625e+01 -3.366572260856628418e-01 5.298507213592529297e+00 1.488554954528808594e+00 1.068094968795776367e+00
2.953000000000000000e+03 8.398153305053710938e+00 -2.691714477539062500e+01 1.636175811290740967e-02 1.914839267730712891e+00 5.793603062629699707e-01 6.921110749244689941e-01
2.954000000000000000e+03 1.110121059417724609e+01 -2.682356452941894531e+01 -1.072475314140319824e-01 2.830798149108886719e+00 8.170651793479919434e-01 8.814537525177001953e-01
2.955000000000000000e+03 7.306137847900390625e+01 2.541462707519531250e+01 -1.225028093904256821e-02 7.784104347229003906e+00 2.331556320190429688e+00 1.473642736673355103e-01
2.956000000000000000e+03 7.262250518798828125e+01 2.639735794067382812e+01 -1.648939773440361023e-02 7.797700405120849609e+00 2.334363222122192383e+00 1.498000323772430420e-01
2.957000000000000000e+03 7.056752014160156250e+01 3.597123718261718750e+01 -7.548929005861282349e-02 7.896180152893066406e+00 2.346207380294799805e+00 8.934433758258819580e-02
2.958000000000000000e+03 6.814989471435546875e+01 3.497718811035156250e+01 -9.837289154529571533e-02 7.876692771911621094e+00 2.333495855331420898e+00 1.223817318677902222e-01
2.959000000000000000e+03 2.723133087158203125e+01 -8.258729934692382812e+00 1.330416798591613770e+00 8.753887176513671875e+00 3.025291204452514648e+00 -4.999172315001487732e-02
2.960000000000000000e+03 7.123262786865234375e+01 -3.140490150451660156e+01 -4.826448485255241394e-02 7.934583663940429688e+00 2.365895748138427734e+00 -1.412476152181625366e-01
2.961000000000000000e+03 7.103400421142578125e+01 -3.368910980224609375e+01 -5.684946849942207336e-02 7.954182147979736328e+00 2.369199752807617188e+00 -1.193389371037483215e-01
2.962000000000000000e+03 1.147026538848876953e+01 2.525437545776367188e+01 9.205286204814910889e-02 2.752689838409423828e+00 8.534228205680847168e-01 -1.093669414520263672e+00
2.963000000000000000e+03 1.048951530456542969e+01 -3.152245521545410156e+01 -2.750518321990966797e-01 2.867947816848754883e+00 7.778687477111816406e-01 6.003832817077636719e-01
2.964000000000000000e+03 2.752467727661132812e+01 -5.052520275115966797e+00 1.575110197067260742e+00 8.994653701782226562e+00 3.170928955078125000e+00 7.732780277729034424e-02
2.965000000000000000e+03 2.078453254699707031e+01 2.186003684997558594e+01 -3.317317664623260498e-01 6.805103302001953125e+00 1.942011475563049316e+00 -6.877610087394714355e-01
2.966000000000000000e+03 2.307625770568847656e+01 -1.491981887817382812e+01 2.584487497806549072e-01 8.052752494812011719e+00 2.493360280990600586e+00 5.050022006034851074e-01
2.967000000000000000e+03 2.207761192321777344e+01 -2.616572189331054688e+01 -7.331796884536743164e-01 6.305399894714355469e+00 1.671666026115417480e+00 4.820130765438079834e-01
2.968000000000000000e+03 2.068137931823730469e+01 -2.194327545166015625e+01 -4.460214078426361084e-01 6.425803184509277344e+00 1.793934583663940430e+00 7.186752557754516602e-01
2.969000000000000000e+03 7.142247009277343750e+01 -2.160661315917968750e+01 -8.587820455431938171e-03 7.789485931396484375e+00 2.334269523620605469e+00 -2.043459117412567139e-01
2.970000000000000000e+03 7.019593811035156250e+01 -2.435072326660156250e+01 -2.936575375497341156e-02 7.830388069152832031e+00 2.340306758880615234e+00 -2.158832699060440063e-01
2.971000000000000000e+03 7.179673767089843750e+01 -1.113640117645263672e+01 4.091941937804222107e-02 7.614151954650878906e+00 2.296521425247192383e+00 -1.581993997097015381e-01
2.972000000000000000e+03 7.190851593017578125e+01 -1.433467292785644531e+01 2.707774005830287933e-02 7.662695407867431641e+00 2.306931972503662109e+00 -1.810374408960342407e-01
2.973000000000000000e+03 7.089721679687500000e+01 4.244847774505615234e+00 7.383888959884643555e-02 7.535418510437011719e+00 2.282777309417724609e+00 4.339820519089698792e-02
2.974000000000000000e+03 7.188887023925781250e+01 5.849627494812011719e+00 5.842716246843338013e-02 7.530442237854003906e+00 2.276660919189453125e+00 6.104507669806480408e-02
2.975000000000000000e+03 7.109284973144531250e+01 1.848937392234802246e+00 7.427816092967987061e-02 7.527523517608642578e+00 2.280540466308593750e+00 8.558390662074089050e-03
2.976000000000000000e+03 7.104742431640625000e+01 -2.900088787078857422e+00 7.402668148279190063e-02 7.539715290069580078e+00 2.284122467041015625e+00 -6.424333900213241577e-02
2.977000000000000000e+03 7.190071868896484375e+01 -2.080247640609741211e+00 6.245699897408485413e-02 7.525882720947265625e+00 2.276501893997192383e+00 -4.831019043922424316e-02
2.978000000000000000e+03 7.101874542236328125e+01 9.897784233093261719e+00 5.855979397892951965e-02 7.572076320648193359e+00 2.289190769195556641e+00 1.201705932617187500e-01
2.979000000000000000e+03 7.181615447998046875e+01 1.018182659149169922e+01 4.822415858507156372e-02 7.565825939178466797e+00 2.284214973449707031e+00 1.139134541153907776e-01
2.980000000000000000e+03 7.179972839355468750e+01 -8.608266830444335938e+00 5.054522678256034851e-02 7.580524921417236328e+00 2.289320945739746094e+00 -1.323016732931137085e-01
2.981000000000000000e+03 7.023245239257812500e+01 -1.268992424011230469e+01 4.691796377301216125e-02 7.644753456115722656e+00 2.307501316070556641e+00 -1.929903030395507812e-01
2.982000000000000000e+03 7.186094665527343750e+01 -1.852950096130371094e+01 6.642700172960758209e-03 7.734850883483886719e+00 2.322448015213012695e+00 -1.966431289911270142e-01
2.983000000000000000e+03 7.036996459960937500e+01 -2.295956802368164062e+01 -1.848526485264301300e-02 7.807507038116455078e+00 2.336706399917602539e+00 -2.184626609086990356e-01
2.984000000000000000e+03 7.185858917236328125e+01 -1.522660446166992188e+01 2.158485166728496552e-02 7.679204940795898438e+00 2.310236930847167969e+00 -1.862463951110839844e-01
2.985000000000000000e+03 9.907638549804687500e+00 2.720429420471191406e+01 4.568137601017951965e-02 2.259986400604248047e+00 6.917003393173217773e-01 -8.227907419204711914e-01
2.986000000000000000e+03 7.190724182128906250e+01 -2.904116392135620117e+00 6.138578057289123535e-02 7.529608249664306641e+00 2.277298212051391602e+00 -5.981034040451049805e-02
2.987000000000000000e+03 7.153504943847656250e+01 1.169447231292724609e+01 4.381327703595161438e-02 7.585218906402587891e+00 2.288709640502929688e+00 1.309894770383834839e-01
2.988000000000000000e+03 7.047150421142578125e+01 1.241547489166259766e+01 5.208792909979820251e-02 7.602041244506835938e+00 2.296238660812377930e+00 1.503558158874511719e-01
2.989000000000000000e+03 7.105191802978515625e+01 -2.080115318298339844e+00 7.432016730308532715e-02 7.535640239715576172e+00 2.282988071441650391e+00 -5.179478228092193604e-02
2.990000000000000000e+03 7.179598236083984375e+01 -1.029020595550537109e+01 4.456891492009162903e-02 7.602428436279296875e+00 2.294099092483520508e+00 -1.501341909170150757e-01
2.991000000000000000e+03 7.001258850097656250e+01 1.835975074768066406e+01 2.016153745353221893e-02 7.682416439056396484e+00 2.310773372650146484e+00 1.973957419395446777e-01
2.992000000000000000e+03 7.130709075927734375e+01 1.504603195190429688e+01 3.319408372044563293e-02 7.626623153686523438e+00 2.297945261001586914e+00 1.612708717584609985e-01
2.993000000000000000e+03 7.089759063720703125e+01 -9.501167297363281250e+00 5.763719603419303894e-02 7.598108768463134766e+00 2.296723842620849609e+00 -1.526242345571517944e-01
2.994000000000000000e+03 7.003963470458984375e+01 -1.035458469390869141e+01 6.034066900610923767e-02 7.616007804870605469e+00 2.302904605865478516e+00 -1.727963685989379883e-01
2.995000000000000000e+03 7.239660644531250000e+01 -1.809446716308593750e+01 7.834124378859996796e-03 7.726594924926757812e+00 2.320328712463378906e+00 -1.875417232513427734e-01
2.996000000000000000e+03 7.181837463378906250e+01 4.255859375000000000e+00 6.153263896703720093e-02 7.524454116821289062e+00 2.275795936584472656e+00 4.026870802044868469e-02
2.997000000000000000e+03 6.997256469726562500e+01 3.367034673690795898e+00 8.963850140571594238e-02 7.542268276214599609e+00 2.289572000503540039e+00 3.331381455063819885e-02
2.998000000000000000e+03 7.100360870361328125e+01 -1.264812827110290527e+00 7.532398402690887451e-02 7.533362388610839844e+00 2.282605886459350586e+00 -4.005387425422668457e-02
2.999000000000000000e+03 7.100901794433593750e+01 5.900124073028564453e+00 7.051100581884384155e-02 7.541256427764892578e+00 2.283530235290527344e+00 6.642502546310424805e-02
3.000000000000000000e+03 7.172856903076171875e+01 -1.724737739562988281e+01 1.372373010963201523e-02 7.711108207702636719e+00 2.317449569702148438e+00 -1.942686885595321655e-01
3.001000000000000000e+03 7.063731384277343750e+01 -1.902689170837402344e+01 6.108128465712070465e-03 7.743432998657226562e+00 2.324862241744995117e+00 -2.186683118343353271e-01
3.002000000000000000e+03 9.520193099975585938e+00 2.458391952514648438e+01 2.870312333106994629e-01 1.797018051147460938e+00 6.252148151397705078e-01 -8.903858065605163574e-01
3.003000000000000000e+03 8.313488960266113281e+00 2.440356445312500000e+01 3.135703802108764648e-01 1.328564167022705078e+00 4.926403462886810303e-01 -6.849144101142883301e-01
3.004000000000000000e+03 1.030195522308349609e+01 2.621545600891113281e+01 1.017232686281204224e-01 2.300723552703857422e+00 7.207340598106384277e-01 -9.156664609909057617e-01
3.005000000000000000e+03 7.101671600341796875e+01 -1.288259887695312500e+01 3.868035227060317993e-02 7.645466327667236328e+00 2.305243968963623047e+00 -1.842448264360427856e-01
3.006000000000000000e+03 7.074046325683593750e+01 1.441174602508544922e+01 3.881514817476272583e-02 7.623764038085937500e+00 2.298773765563964844e+00 1.634411662817001343e-01
3.007000000000000000e+03 1.282115077972412109e+01 -2.709668159484863281e+01 -2.467242926359176636e-01 3.526644945144653320e+00 9.839761853218078613e-01 9.152344465255737305e-01
3.008000000000000000e+03 7.108348083496093750e+01 1.974455833435058594e+01 9.303363971412181854e-03 7.696754932403564453e+00 2.311817407608032227e+00 1.849251687526702881e-01
3.009000000000000000e+03 7.146796417236328125e+01 1.347082614898681641e+01 3.771097958087921143e-02 7.605967998504638672e+00 2.293103694915771484e+00 1.469382494688034058e-01
3.010000000000000000e+03 7.123471832275390625e+01 -2.583331108093261719e+01 -3.072096779942512512e-02 7.858603477478027344e+00 2.348364830017089844e+00 -1.905305236577987671e-01
3.011000000000000000e+03 7.112590789794921875e+01 6.697138309478759766e+00 6.653489917516708374e-02 7.544076919555664062e+00 2.283183574676513672e+00 7.659102231264114380e-02
3.012000000000000000e+03 2.515637969970703125e+01 1.616281127929687500e+01 4.238775074481964111e-01 8.149357795715332031e+00 2.571970462799072266e+00 -1.170275062322616577e-01
3.013000000000000000e+03 7.093313598632812500e+01 -1.523739433288574219e+01 2.712053060531616211e-02 7.681193351745605469e+00 2.312494039535522461e+00 -2.004078626632690430e-01
3.014000000000000000e+03 7.087245941162109375e+01 4.132424592971801758e-01 7.901991903781890869e-02 7.530554294586181641e+00 2.282872200012207031e+00 -1.459954492747783661e-02
3.015000000000000000e+03 7.216683959960937500e+01 1.981463241577148438e+01 7.179887499660253525e-03 7.693458557128906250e+00 2.310191631317138672e+00 1.688732057809829712e-01
3.016000000000000000e+03 7.170964813232421875e+01 2.246818733215332031e+01 -5.108498968183994293e-03 7.736743927001953125e+00 2.319490671157836914e+00 1.760835647583007812e-01
3.017000000000000000e+03 7.092719268798828125e+01 -4.383661150932312012e-01 7.818384468555450439e-02 7.531805515289306641e+00 2.282996892929077148e+00 -2.822932414710521698e-02
3.018000000000000000e+03 2.719672203063964844e+01 1.156075859069824219e+01 1.005304574966430664e+00 8.587354660034179688e+00 2.877797842025756836e+00 3.650496155023574829e-02
3.019000000000000000e+03 2.707122421264648438e+01 -1.108649635314941406e+01 8.809030652046203613e-01 8.468304634094238281e+00 2.804762363433837891e+00 -1.385914534330368042e-01
3.020000000000000000e+03 2.756863021850585938e+01 -1.213748455047607422e+01 7.232367396354675293e-01 8.356050491333007812e+00 2.723786115646362305e+00 -1.992517113685607910e-01
3.021000000000000000e+03 2.655632209777832031e+01 6.418219566345214844e+00 1.355480790138244629e+00 9.287528038024902344e+00 3.192902565002441406e+00 -1.299237310886383057e-01
3.022000000000000000e+03 1.102334690093994141e+01 2.778453445434570312e+01 -6.523862481117248535e-02 2.734633684158325195e+00 8.008185029029846191e-01 -8.711894750595092773e-01
3.023000000000000000e+03 7.086138916015625000e+01 -8.664892196655273438e+00 6.034349650144577026e-02 7.589690208435058594e+00 2.295010089874267578e+00 -1.439275294542312622e-01
3.024000000000000000e+03 7.099032592773437500e+01 -5.346124172210693359e+00 7.102510333061218262e-02 7.555881977081298828e+00 2.288072109222412109e+00 -9.934699535369873047e-02
3.025000000000000000e+03 7.094750213623046875e+01 -6.155699729919433594e+00 6.897914409637451172e-02 7.563701152801513672e+00 2.289803981781005859e+00 -1.117631047964096069e-01
3.026000000000000000e+03 2.868708038330078125e+01 1.012732982635498047e+01 1.110654592514038086e+00 8.545242309570312500e+00 2.896769046783447266e+00 1.348532289266586304e-01
3.027000000000000000e+03 7.114008331298828125e+01 9.296433448791503906e+00 5.925215408205986023e-02 7.562626361846923828e+00 2.286563396453857422e+00 1.082522273063659668e-01
3.028000000000000000e+03 7.115550231933593750e+01 8.613574981689453125e+00 5.675502866506576538e-02 7.558706283569335938e+00 2.284638404846191406e+00 1.011673957109451294e-01
3.029000000000000000e+03 2.574290657043457031e+01 2.449579238891601562e+00 1.357853055000305176e+00 9.887653350830078125e+00 3.373651981353759766e+00 -5.223657190799713135e-02
3.030000000000000000e+03 2.683350372314453125e+01 2.780425548553466797e+00 1.411355733871459961e+00 9.502655029296875000e+00 3.274203062057495117e+00 -3.428104892373085022e-02
3.031000000000000000e+03 2.596687698364257812e+01 -1.336546039581298828e+01 5.377146601676940918e-01 8.351304054260253906e+00 2.666705608367919922e+00 -1.930006407201290131e-02
3.032000000000000000e+03 7.139318847656250000e+01 2.632903289794921875e+01 -2.185449562966823578e-02 7.795174598693847656e+00 2.331995964050292969e+00 1.658713221549987793e-01
3.033000000000000000e+03 7.080380249023437500e+01 2.541327667236328125e+01 -2.298496849834918976e-02 7.783187389373779297e+00 2.328060626983642578e+00 1.799068450927734375e-01
3.034000000000000000e+03 1.247540378570556641e+01 2.506157112121582031e+01 1.498070172965526581e-02 3.191061735153198242e+00 9.618126749992370605e-01 -1.179050207138061523e+00
3.035000000000000000e+03 2.811956977844238281e+01 -1.055583381652832031e+01 9.465007781982421875e-01 8.443778038024902344e+00 2.817083597183227539e+00 -2.274820804595947266e-01
3.036000000000000000e+03 2.739881134033203125e+01 -9.440078735351562500e+00 1.152392387390136719e+00 8.635415077209472656e+00 2.936342239379882812e+00 -1.197162121534347534e-01
3.037000000000000000e+03 1.153808021545410156e+01 -2.426546859741210938e+01 2.424514107406139374e-02 2.926190376281738281e+00 8.851307034492492676e-01 1.102473974227905273e+00
3.038000000000000000e+03 9.507331848144531250e+00 -2.794976615905761719e+01 -8.991665393114089966e-02 2.395381450653076172e+00 6.916394233703613281e-01 7.440955638885498047e-01
3.039000000000000000e+03 1.586244201660156250e+01 2.402137947082519531e+01 -2.683193981647491455e-01 4.818040847778320312e+00 1.364916324615478516e+00 -1.247600197792053223e+00
3.040000000000000000e+03 1.181893539428710938e+01 3.231659698486328125e+01 -3.134279847145080566e-01 3.209169149398803711e+00 8.687223792076110840e-01 -5.925825238227844238e-01
3.041000000000000000e+03 7.128174591064453125e+01 -1.660965728759765625e+01 1.771538332104682922e-02 7.702761173248291016e+00 2.316143035888671875e+00 -2.000167965888977051e-01
3.042000000000000000e+03 2.677734375000000000e+01 1.307416152954101562e+01 8.316913247108459473e-01 8.461599349975585938e+00 2.787987232208251953e+00 3.388689085841178894e-02
3.043000000000000000e+03 7.130834197998046875e+01 -2.713393211364746094e+01 -3.584266453981399536e-02 7.880025386810302734e+00 2.353254795074462891e+00 -1.798577159643173218e-01
3.044000000000000000e+03 2.440159225463867188e+01 2.223193168640136719e+01 -3.901737630367279053e-01 7.392311096191406250e+00 2.100641250610351562e+00 -1.944581568241119385e-01
3.045000000000000000e+03 2.173280525207519531e+01 2.239874649047851562e+01 -4.140181243419647217e-01 6.881653785705566406e+00 1.940290689468383789e+00 -5.334436893463134766e-01
3.046000000000000000e+03 7.150975036621093750e+01 -2.050183486938476562e+01 -2.637622645124793053e-03 7.768129825592041016e+00 2.329647779464721680e+00 -2.043550610542297363e-01
3.047000000000000000e+03 3.027967453002929688e+01 -5.341989517211914062e+00 1.418734908103942871e+00 8.469203948974609375e+00 2.966381549835205078e+00 -1.390665024518966675e-01
3.048000000000000000e+03 1.243780803680419922e+01 -2.434149551391601562e+01 -6.739977747201919556e-02 3.308970212936401367e+00 9.724711179733276367e-01 1.114323139190673828e+00
3.049000000000000000e+03 1.591095638275146484e+01 -2.571963119506835938e+01 -4.074625074863433838e-01 4.638812541961669922e+00 1.269405007362365723e+00 9.305590391159057617e-01
3.050000000000000000e+03 2.013201904296875000e+01 2.305828094482421875e+01 -4.364227652549743652e-01 6.435963153839111328e+00 1.799862027168273926e+00 -7.648979425430297852e-01
3.051000000000000000e+03 2.422629547119140625e+01 1.773028373718261719e+01 1.978333443403244019e-01 7.927437782287597656e+00 2.437581300735473633e+00 -2.198792695999145508e-01
3.052000000000000000e+03 2.694874572753906250e+01 -1.265569686889648438e+00 1.511418938636779785e+00 9.457466125488281250e+00 3.290665626525878906e+00 1.678208112716674805e-01
3.053000000000000000e+03 2.349720382690429688e+01 1.915228652954101562e+01 -2.774586528539657593e-02 7.659832954406738281e+00 2.289626121520996094e+00 -3.154021203517913818e-01
3.054000000000000000e+03 2.586291503906250000e+01 -8.051422119140625000e+00 1.422608613967895508e+00 9.004646301269531250e+00 3.128176450729370117e+00 9.477235376834869385e-02
3.055000000000000000e+03 7.088177490234375000e+01 2.294728279113769531e+01 -9.752681478857994080e-03 7.748158454895019531e+00 2.321521759033203125e+00 1.880261451005935669e-01
3.056000000000000000e+03 7.008640289306640625e+01 -2.575477790832519531e+01 -3.797662258148193359e-02 7.851339340209960938e+00 2.344008684158325195e+00 -2.081495523452758789e-01
3.057000000000000000e+03 1.248153400421142578e+01 -3.471557235717773438e+01 -4.402655065059661865e-01 3.483368873596191406e+00 9.129310250282287598e-01 4.658561944961547852e-01
3.058000000000000000e+03 1.635133552551269531e+01 2.518029975891113281e+01 -3.661730885505676270e-01 4.911545276641845703e+00 1.363611578941345215e+00 -1.112007141113281250e+00
3.059000000000000000e+03 6.915866851806640625e+01 2.534337806701660156e+01 -3.006524406373500824e-02 7.780404090881347656e+00 2.325101613998413086e+00 2.022715955972671509e-01
3.060000000000000000e+03 2.837648773193359375e+01 -3.938175201416015625e+00 1.566834092140197754e+00 8.905119895935058594e+00 3.141586065292358398e+00 4.663550481200218201e-02
3.061000000000000000e+03 2.818671607971191406e+01 -1.931041479110717773e+00 1.543778181076049805e+00 9.080000877380371094e+00 3.187133789062500000e+00 9.511452913284301758e-02
3.062000000000000000e+03 2.750615310668945312e+01 1.528031253814697266e+01 5.311588048934936523e-01 8.196677207946777344e+00 2.618350744247436523e+00 1.514398604631423950e-01
3.063000000000000000e+03 2.660898399353027344e+01 1.702229881286621094e+01 2.782275378704071045e-01 8.023814201354980469e+00 2.490612506866455078e+00 7.297055423259735107e-02
3.064000000000000000e+03 2.304131507873535156e+01 -2.188201141357421875e+01 -5.076037645339965820e-01 6.904689311981201172e+00 1.919125676155090332e+00 4.494918584823608398e-01
3.065000000000000000e+03 2.251327133178710938e+01 -1.876466941833496094e+01 -2.345182746648788452e-01 7.232414722442626953e+00 2.099368810653686523e+00 5.642622709274291992e-01
3.066000000000000000e+03 2.252612495422363281e+01 -2.027479171752929688e+01 -3.740210533142089844e-01 7.026498794555664062e+00 1.995743274688720703e+00 5.390044450759887695e-01
3.067000000000000000e+03 2.406221771240234375e+01 -1.438842868804931641e+01 3.413723707199096680e-01 8.192730903625488281e+00 2.560230970382690430e+00 3.024777770042419434e-01
3.068000000000000000e+03 2.547969818115234375e+01 -1.828790473937988281e+01 -1.815176010131835938e-01 7.657027244567871094e+00 2.242652893066406250e+00 1.221882924437522888e-01
3.069000000000000000e+03 2.463276672363281250e+01 -1.559353160858154297e+01 1.664121150970458984e-01 7.986680030822753906e+00 2.445927619934082031e+00 2.134387642145156860e-01
3.070000000000000000e+03 6.811179351806640625e+01 2.863519668579101562e+01 -5.678088590502738953e-02 7.817742347717285156e+00 2.328288316726684570e+00 1.931066662073135376e-01
3.071000000000000000e+03 2.247059440612792969e+01 -2.428310775756835938e+01 -6.342469453811645508e-01 6.577544689178466797e+00 1.782989263534545898e+00 4.387474060058593750e-01
3.072000000000000000e+03 2.392702484130859375e+01 -2.359705162048339844e+01 -6.246691942214965820e-01 6.882314205169677734e+00 1.877293586730957031e+00 3.346016705036163330e-01
3.073000000000000000e+03 6.999385070800781250e+01 -9.592220306396484375e+00 6.861777603626251221e-02 7.605774879455566406e+00 2.302317857742309570e+00 -1.655626893043518066e-01
3.074000000000000000e+03 7.022958374023437500e+01 -2.064465522766113281e+00 8.631717413663864136e-02 7.544003963470458984e+00 2.289096355438232422e+00 -5.573878064751625061e-02
3.075000000000000000e+03 6.919448089599609375e+01 2.304732084274291992e+00 1.056572198867797852e-01 7.546789646148681641e+00 2.295734167098999023e+00 1.722094230353832245e-02
3.076000000000000000e+03 7.091528320312500000e+01 3.411077976226806641e+00 7.550361752510070801e-02 7.532406806945800781e+00 2.282373189926147461e+00 3.161616623401641846e-02
3.077000000000000000e+03 7.000601959228515625e+01 -4.529850959777832031e+00 8.587398380041122437e-02 7.558835029602050781e+00 2.293412685394287109e+00 -9.466004371643066406e-02
3.078000000000000000e+03 7.100697326660156250e+01 -3.718612432479858398e+00 7.221214473247528076e-02 7.544526100158691406e+00 2.285021543502807617e+00 -7.648882269859313965e-02
3.079000000000000000e+03 7.093161010742187500e+01 5.076011180877685547e+00 7.306483387947082520e-02 7.538305759429931641e+00 2.283411026000976562e+00 5.491320788860321045e-02
3.080000000000000000e+03 6.907146453857421875e+01 5.319907188415527344e+00 9.900341928005218506e-02 7.556313514709472656e+00 2.296595096588134766e+00 6.687016040086746216e-02
3.081000000000000000e+03 7.092617034912109375e+01 -1.211568737030029297e+01 4.573452845215797424e-02 7.632513999938964844e+00 2.303474664688110352e+00 -1.788164228200912476e-01
3.082000000000000000e+03 6.975690460205078125e+01 -1.604760932922363281e+01 2.931814827024936676e-02 7.694805622100830078e+00 2.317237138748168945e+00 -2.234085947275161743e-01
3.083000000000000000e+03 6.941571807861328125e+01 1.231447887420654297e+01 6.415306776762008667e-02 7.608214378356933594e+00 2.301710128784179688e+00 1.616424918174743652e-01
3.084000000000000000e+03 6.985487365722656250e+01 -8.756622314453125000e+00 7.248193025588989258e-02 7.597351551055908203e+00 2.300950050354003906e+00 -1.558180600404739380e-01
3.085000000000000000e+03 7.081501770019531250e+01 -1.128053188323974609e+01 4.847462102770805359e-02 7.623395919799804688e+00 2.301561117172241211e+00 -1.727023571729660034e-01
3.086000000000000000e+03 7.059762573242187500e+01 -1.716777992248535156e+01 1.723675429821014404e-02 7.714725017547607422e+00 2.319588661193847656e+00 -2.157789021730422974e-01
3.087000000000000000e+03 7.111030578613281250e+01 -1.436229705810546875e+01 2.988953888416290283e-02 7.667701244354248047e+00 2.309277057647705078e+00 -1.927714347839355469e-01
3.088000000000000000e+03 7.021388244628906250e+01 -2.851996183395385742e+00 8.517135679721832275e-02 7.547319889068603516e+00 2.289747476577758789e+00 -6.655406951904296875e-02
3.089000000000000000e+03 1.274958992004394531e+01 2.638352394104003906e+01 -1.141212657094001770e-01 3.393279314041137695e+00 9.837474226951599121e-01 -1.071864724159240723e+00
3.090000000000000000e+03 6.952555847167968750e+01 1.356844425201416016e+01 5.538975074887275696e-02 7.622176170349121094e+00 2.303269863128662109e+00 1.737083643674850464e-01
3.091000000000000000e+03 7.128141021728515625e+01 7.966566085815429688e+00 6.217855960130691528e-02 7.552490234375000000e+00 2.284400701522827148e+00 9.511736035346984863e-02
3.092000000000000000e+03 7.100243377685546875e+01 1.172606468200683594e+00 7.859261333942413330e-02 7.528638362884521484e+00 2.282169342041015625e+00 -3.336067311465740204e-03
3.093000000000000000e+03 6.997747039794921875e+01 -4.816204011440277100e-01 9.006280452013015747e-02 7.541501998901367188e+00 2.289469480514526367e+00 -3.114412538707256317e-02
3.094000000000000000e+03 7.088422393798828125e+01 -6.972409248352050781e+00 6.615670025348663330e-02 7.571430683135986328e+00 2.291276216506958008e+00 -1.224048733711242676e-01
3.095000000000000000e+03 6.987848663330078125e+01 -7.837083816528320312e+00 7.695388793945312500e-02 7.588156223297119141e+00 2.299533128738403320e+00 -1.445511281490325928e-01
3.096000000000000000e+03 7.074250030517578125e+01 1.055374050140380859e+01 5.608320236206054688e-02 7.580492019653320312e+00 2.290972471237182617e+00 1.279966831207275391e-01
3.097000000000000000e+03 7.013381195068359375e+01 6.025825977325439453e+00 8.420327305793762207e-02 7.550708293914794922e+00 2.290473461151123047e+00 7.210690528154373169e-02
3.098000000000000000e+03 7.013238525390625000e+01 -5.350735664367675781e+00 8.209239691495895386e-02 7.563252925872802734e+00 2.293603658676147461e+00 -1.057738587260246277e-01
3.099000000000000000e+03 7.003807830810546875e+01 -6.088189125061035156e+00 8.188434690237045288e-02 7.570598125457763672e+00 2.295744895935058594e+00 -1.185054481029510498e-01
3.100000000000000000e+03 7.078619384765625000e+01 1.586679172515869141e+01 3.179381415247917175e-02 7.643190383911132812e+00 2.302495241165161133e+00 1.747982800006866455e-01
3.101000000000000000e+03 7.008585357666015625e+01 -2.718569374084472656e+01 -4.563606530427932739e-02 7.871228694915771484e+00 2.347677946090698242e+00 -1.978705227375030518e-01
3.102000000000000000e+03 7.107575988769531250e+01 -1.363519477844238281e+01 3.607418015599250793e-02 7.654527664184570312e+00 2.307180404663085938e+00 -1.885158568620681763e-01
3.103000000000000000e+03 7.043338012695312500e+01 -1.410677051544189453e+01 3.717754036188125610e-02 7.664367675781250000e+00 2.310463428497314453e+00 -2.014875411987304688e-01
3.104000000000000000e+03 6.979126739501953125e+01 2.197642707824707031e+01 -5.198078230023384094e-03 7.733488559722900391e+00 2.318487167358398438e+00 2.081311941146850586e-01
3.105000000000000000e+03 6.955973815917968750e+01 1.331012487411499023e+00 1.015984565019607544e-01 7.541978359222412109e+00 2.293073177337646484e+00 3.398133267182856798e-04
3.106000000000000000e+03 6.984837341308593750e+01 3.985701203346252441e-01 9.620265662670135498e-02 7.540478706359863281e+00 2.291004419326782227e+00 -1.751746982336044312e-02
3.107000000000000000e+03 2.761928558349609375e+01 -1.329814529418945312e+01 5.285910964012145996e-01 8.241914749145507812e+00 2.631151676177978516e+00 -1.953582465648651123e-01
3.108000000000000000e+03 6.992014312744140625e+01 1.962983894348144531e+01 1.141982711851596832e-02 7.700106620788574219e+00 2.313457965850830078e+00 2.018500268459320068e-01
3.109000000000000000e+03 7.026512908935546875e+01 6.939162731170654297e+00 7.978543639183044434e-02 7.555058002471923828e+00 2.290452957153320312e+00 8.680196851491928101e-02
3.110000000000000000e+03 6.925880432128906250e+01 -1.417937159538269043e+00 1.044187620282173157e-01 7.549772262573242188e+00 2.296257257461547852e+00 -4.790251329541206360e-02
3.111000000000000000e+03 2.682591247558593750e+01 5.531347751617431641e+00 1.371994614601135254e+00 9.289369583129882812e+00 3.198409318923950195e+00 -9.470792114734649658e-02
3.112000000000000000e+03 6.993097686767578125e+01 2.612071037292480469e+01 -2.885644510388374329e-02 7.790838718414306641e+00 2.328594684600830078e+00 1.856614202260971069e-01
3.113000000000000000e+03 6.970518493652343750e+01 -1.364643955230712891e+01 4.651019722223281860e-02 7.660601615905761719e+00 2.312133550643920898e+00 -2.094511538743972778e-01
3.114000000000000000e+03 6.903492736816406250e+01 -2.413708114624023438e+01 -3.294257819652557373e-02 7.822053432464599609e+00 2.336733102798461914e+00 -2.335791885852813721e-01
3.115000000000000000e+03 6.883768463134765625e+01 -2.561838912963867188e+01 -4.602571949362754822e-02 7.842530250549316406e+00 2.338951349258422852e+00 -2.279121875762939453e-01
3.116000000000000000e+03 9.262490272521972656e+00 -2.555975532531738281e+01 6.936059147119522095e-02 2.131402730941772461e+00 6.602289676666259766e-01 8.371114134788513184e-01
3.117000000000000000e+03 1.140748596191406250e+01 2.643267059326171875e+01 3.130815457552671432e-03 2.789813041687011719e+00 8.378831148147583008e-01 -9.743031859397888184e-01
3.118000000000000000e+03 2.377358055114746094e+01 2.093195533752441406e+01 -2.475598752498626709e-01 7.449954986572265625e+00 2.160718441009521484e+00 -2.667606770992279053e-01
3.119000000000000000e+03 2.698467445373535156e+01 2.308567428588867188e+01 -4.590348303318023682e-01 7.478346347808837891e+00 2.105793476104736328e+00 4.615582525730133057e-02
3.120000000000000000e+03 3.005042457580566406e+01 -1.133661079406738281e+01 8.167436122894287109e-01 8.217550277709960938e+00 2.710288047790527344e+00 -3.525018095970153809e-01
3.121000000000000000e+03 7.023611450195312500e+01 -2.863079833984375000e+01 -5.184276774525642395e-02 7.892500400543212891e+00 2.352197170257568359e+00 -1.822523176670074463e-01
3.122000000000000000e+03 1.055745029449462891e+01 3.116059303283691406e+01 -2.044273614883422852e-01 2.779085159301757812e+00 7.723973393440246582e-01 -6.417200565338134766e-01
3.123000000000000000e+03 2.564740180969238281e+01 1.863793373107910156e+01 4.546597972512245178e-02 7.855537891387939453e+00 2.370301246643066406e+00 -3.277461230754852295e-02
3.124000000000000000e+03 1.262597751617431641e+01 -2.552355194091796875e+01 -1.450559049844741821e-01 3.432837486267089844e+00 9.863345026969909668e-01 1.030920028686523438e+00
3.125000000000000000e+03 6.921782684326171875e+01 -3.052235412597656250e+01 -7.088252902030944824e-02 7.908394336700439453e+00 2.351253509521484375e+00 -1.746895909309387207e-01
3.126000000000000000e+03 2.811469650268554688e+01 3.002882957458496094e+00 1.439177989959716797e+00 9.140465736389160156e+00 3.173893213272094727e+00 1.687002740800380707e-02
3.127000000000000000e+03 2.694805908203125000e+01 4.524197578430175781e+00 1.407790064811706543e+00 9.360097885131835938e+00 3.230366468429565430e+00 -7.035741209983825684e-02
3.128000000000000000e+03 2.860210418701171875e+01 -5.889951229095458984e+00 1.485503315925598145e+00 8.726966857910156250e+00 3.063740968704223633e+00 -5.407495796680450439e-02
3.129000000000000000e+03 6.949256134033203125e+01 2.790489006042480469e+01 -4.051530733704566956e-02 7.810602188110351562e+00 2.331026077270507812e+00 1.823798120021820068e-01
3.130000000000000000e+03 2.469000244140625000e+01 1.999396324157714844e+01 -1.358358114957809448e-01 7.664779663085937500e+00 2.258683204650878906e+00 -1.521818488836288452e-01
3.131000000000000000e+03 2.280862998962402344e+01 2.127272224426269531e+01 -2.919234037399291992e-01 7.301122665405273438e+00 2.102759838104248047e+00 -3.905425071716308594e-01
3.132000000000000000e+03 1.067999744415283203e+01 3.366078186035156250e+01 -2.989048063755035400e-01 2.819250345230102539e+00 7.561036348342895508e-01 -4.657950103282928467e-01
3.133000000000000000e+03 1.577964019775390625e+01 2.721909141540527344e+01 -4.220510125160217285e-01 4.591607570648193359e+00 1.250866889953613281e+00 -9.887752532958984375e-01
3.134000000000000000e+03 1.406635379791259766e+01 2.619770431518554688e+01 -2.126401066780090332e-01 3.907982349395751953e+00 1.108602643013000488e+00 -1.119017362594604492e+00
3.135000000000000000e+03 1.801975822448730469e+01 -2.537355995178222656e+01 -5.409493446350097656e-01 5.393074512481689453e+00 1.455637574195861816e+00 8.304918408393859863e-01
3.136000000000000000e+03 1.506444072723388672e+01 -2.449806404113769531e+01 -2.872780263423919678e-01 4.339924335479736328e+00 1.215793967247009277e+00 1.059277534484863281e+00
3.137000000000000000e+03 7.054193115234375000e+01 1.141824722290039062e+01 5.561999604105949402e-02 7.590386390686035156e+00 2.293801784515380859e+00 1.390170753002166748e-01
3.138000000000000000e+03 6.412076473236083984e+00 3.933710098266601562e+01 -1.728758066892623901e-01 1.824733138084411621e+00 4.955571889877319336e-01 -1.816147416830062866e-01
3.139000000000000000e+03 6.874232482910156250e+01 1.822410583496093750e+01 2.518543601036071777e-02 7.684543132781982422e+00 2.312918663024902344e+00 2.128621488809585571e-01
3.140000000000000000e+03 6.881192779541015625e+01 1.676293373107910156e+01 3.676060959696769714e-02 7.664248466491699219e+00 2.310302734375000000e+00 2.045992016792297363e-01
3.141000000000000000e+03 6.922568511962890625e+01 -2.273324775695800781e+01 -2.177247963845729828e-02 7.800674438476562500e+00 2.333670616149902344e+00 -2.389303743839263916e-01
3.142000000000000000e+03 2.137286758422851562e+01 2.371315002441406250e+01 -5.205700397491455078e-01 6.669901371002197266e+00 1.844799399375915527e+00 -5.553637742996215820e-01
3.143000000000000000e+03 1.841182136535644531e+01 2.552834510803222656e+01 -5.318522453308105469e-01 5.608010292053222656e+00 1.522847414016723633e+00 -8.975228071212768555e-01
3.144000000000000000e+03 2.868997764587402344e+01 -1.183419990539550781e+01 7.648792862892150879e-01 8.305137634277343750e+00 2.721004962921142578e+00 -2.718492448329925537e-01
3.145000000000000000e+03 2.927552223205566406e+01 -9.903388023376464844e+00 1.019375801086425781e+00 8.364063262939453125e+00 2.815031766891479492e+00 -2.768388092517852783e-01
3.146000000000000000e+03 2.909866523742675781e+01 1.595609092712402344e+01 4.193061888217926025e-01 8.088300704956054688e+00 2.552282094955444336e+00 2.911992073059082031e-01
3.147000000000000000e+03 2.816797447204589844e+01 1.350778102874755859e+01 7.480120062828063965e-01 8.319347381591796875e+00 2.720207929611206055e+00 1.772524863481521606e-01
3.148000000000000000e+03 6.875991821289062500e+01 2.085122489929199219e+01 4.818680230528116226e-03 7.719116687774658203e+00 2.317180633544921875e+00 2.210561633110046387e-01
3.149000000000000000e+03 2.808880996704101562e+01 1.793146133422851562e+01 1.528707444667816162e-01 7.941758155822753906e+00 2.428388595581054688e+00 2.124406695365905762e-01
3.150000000000000000e+03 2.579576873779296875e+01 -1.507938098907470703e+01 2.393614798784255981e-01 8.093484878540039062e+00 2.499853849411010742e+00 3.627219051122665405e-02
3.151000000000000000e+03 2.348310470581054688e+01 -1.600226783752441406e+01 9.773515909910202026e-02 7.869689464569091797e+00 2.390227317810058594e+00 4.236082136631011963e-01
3.152000000000000000e+03 1.148032093048095703e+01 -3.288940429687500000e+01 -3.605785369873046875e-01 3.165814161300659180e+00 8.415706753730773926e-01 5.442367196083068848e-01
3.153000000000000000e+03 1.089349937438964844e+01 -2.827968788146972656e+01 -1.734009832143783569e-01 2.839417695999145508e+00 7.998050451278686523e-01 8.030546307563781738e-01
3.154000000000000000e+03 2.525627517700195312e+01 -2.505157279968261719e+01 -7.023484110832214355e-01 6.902251243591308594e+00 1.859970808029174805e+00 2.211299687623977661e-01
3.155000000000000000e+03 2.442146682739257812e+01 -2.129062080383300781e+01 -4.690992832183837891e-01 7.197168350219726562e+00 2.018420696258544922e+00 2.886264026165008545e-01
3.156000000000000000e+03 2.784614562988281250e+01 -1.574732780456542969e+01 1.981388032436370850e-01 8.021666526794433594e+00 2.465941667556762695e+00 -1.925375014543533325e-01
3.157000000000000000e+03 2.238191223144531250e+01 2.605435943603515625e+01 -6.877251267433166504e-01 6.620626449584960938e+00 1.779870390892028809e+00 -4.046866595745086670e-01
3.158000000000000000e+03 6.641696929931640625e+01 2.945135879516601562e+01 -8.233951777219772339e-02 7.829443454742431641e+00 2.324131250381469727e+00 2.022765278816223145e-01
3.159000000000000000e+03 2.391232299804687500e+01 -2.726901626586914062e+01 -7.818421721458435059e-01 6.519342422485351562e+00 1.721250057220458984e+00 3.105677962303161621e-01
3.160000000000000000e+03 2.684185981750488281e+01 1.551445960998535156e+00 1.426315426826477051e+00 9.535147666931152344e+00 3.288439035415649414e+00 2.351402305066585541e-02
3.161000000000000000e+03 2.762468147277832031e+01 -1.692695170640945435e-02 1.494132280349731445e+00 9.330840110778808594e+00 3.247491598129272461e+00 9.407530725002288818e-02
3.162000000000000000e+03 2.938373374938964844e+01 -2.806790113449096680e+00 1.536698698997497559e+00 8.773996353149414062e+00 3.093208551406860352e+00 1.346477773040533066e-02
3.163000000000000000e+03 6.596275329589843750e+01 3.308748245239257812e+01 -1.116079166531562805e-01 7.860521793365478516e+00 2.324674129486083984e+00 1.609812974929809570e-01
3.164000000000000000e+03 2.784599494934082031e+01 -7.036287307739257812e+00 1.440823316574096680e+00 8.770064353942871094e+00 3.063266277313232422e+00 -5.126321688294410706e-02
3.165000000000000000e+03 3.021124649047851562e+01 -4.004981994628906250e+00 1.497693181037902832e+00 8.566883087158203125e+00 3.019372940063476562e+00 -6.935115903615951538e-02
3.166000000000000000e+03 1.715507507324218750e+01 2.651832962036132812e+01 -4.936769008636474609e-01 5.098028659820556641e+00 1.381305575370788574e+00 -9.455201029777526855e-01
3.167000000000000000e+03 3.002950286865234375e+01 1.191604995727539062e+01 8.955271244049072266e-01 8.296417236328125000e+00 2.757583379745483398e+00 2.729275524616241455e-01
3.168000000000000000e+03 2.414791488647460938e+01 -1.993975067138671875e+01 -3.546373248100280762e-01 7.313819408416748047e+00 2.087754726409912109e+00 3.048460185527801514e-01
3.169000000000000000e+03 3.009469985961914062e+01 -1.696621131896972656e+01 6.832228600978851318e-02 7.910474777221679688e+00 2.393639087677001953e+00 -3.348971605300903320e-01
3.170000000000000000e+03 6.858766937255859375e+01 -1.185492324829101562e+01 6.733373552560806274e-02 7.639829635620117188e+00 2.312149047851562500e+00 -2.056277692317962646e-01
3.171000000000000000e+03 6.807397460937500000e+01 -2.916014909744262695e+00 1.236429661512374878e-01 7.563419342041015625e+00 2.306118726730346680e+00 -7.916898280382156372e-02
3.172000000000000000e+03 6.846279907226562500e+01 -1.703810119628906250e+01 2.663932368159294128e-02 7.713332653045654297e+00 2.321991682052612305e+00 -2.473982125520706177e-01
3.173000000000000000e+03 7.045350646972656250e+01 -2.028050613403320312e+01 -2.739273768384009600e-04 7.762224197387695312e+00 2.328585147857666016e+00 -2.225676029920578003e-01
3.174000000000000000e+03 6.899883270263671875e+01 3.326231002807617188e+00 1.071131750941276550e-01 7.549944400787353516e+00 2.297117233276367188e+00 3.516132012009620667e-02
3.175000000000000000e+03 6.929987335205078125e+01 6.178936958312988281e+00 9.310725331306457520e-02 7.558053970336914062e+00 2.295348405838012695e+00 7.744527608156204224e-02
3.176000000000000000e+03 7.005249023437500000e+01 -1.500442981719970703e+01 3.463730588555335999e-02 7.679813861846923828e+00 2.314335346221923828e+00 -2.145772129297256470e-01
3.177000000000000000e+03 6.988241577148437500e+01 1.487297344207763672e+01 4.240638762712478638e-02 7.636955261230468750e+00 2.303808450698852539e+00 1.796152889728546143e-01
3.178000000000000000e+03 6.989163208007812500e+01 -6.918806076049804688e+00 8.078935742378234863e-02 7.578835010528564453e+00 2.297887325286865234e+00 -1.309001147747039795e-01
3.179000000000000000e+03 7.128060150146484375e+01 7.376935482025146484e+00 6.490450352430343628e-02 7.546398162841796875e+00 2.283390760421752930e+00 8.434507995843887329e-02
3.180000000000000000e+03 7.062155914306640625e+01 7.662385940551757812e+00 7.317139953374862671e-02 7.556704998016357422e+00 2.288962841033935547e+00 9.482625126838684082e-02
3.181000000000000000e+03 6.917297363281250000e+01 -1.465600395202636719e+01 4.240321367979049683e-02 7.677088260650634766e+00 2.315847396850585938e+00 -2.248819917440414429e-01
3.182000000000000000e+03 7.037979888916015625e+01 1.641003131866455078e+00 8.675444871187210083e-02 7.535610675811767578e+00 2.286709547042846680e+00 4.328163806349039078e-03
3.183000000000000000e+03 6.948531341552734375e+01 -2.066448450088500977e+00 9.548661112785339355e-02 7.550528049468994141e+00 2.293804407119750977e+00 -5.826392024755477905e-02
3.184000000000000000e+03 6.869221496582031250e+01 2.194168090820312500e+01 -4.790317732840776443e-03 7.734764575958251953e+00 2.318992376327514648e+00 2.203194648027420044e-01
3.185000000000000000e+03 7.022363281250000000e+01 8.441951751708984375e+00 7.274771481752395630e-02 7.566468715667724609e+00 2.291764974594116211e+00 1.075972989201545715e-01
3.186000000000000000e+03 6.935597229003906250e+01 7.037719726562500000e+00 9.364148974418640137e-02 7.561577320098876953e+00 2.296565771102905273e+00 9.250982105731964111e-02
3.187000000000000000e+03 6.888396453857421875e+01 -7.827911376953125000e+00 8.940783143043518066e-02 7.593929767608642578e+00 2.305001258850097656e+00 -1.538671404123306274e-01
3.188000000000000000e+03 6.860081481933593750e+01 1.096292138099670410e+00 1.218569129705429077e-01 7.549747943878173828e+00 2.301481485366821289e+00 -4.839491099119186401e-03
3.189000000000000000e+03 6.887239837646484375e+01 2.726523578166961670e-01 1.119730472564697266e-01 7.549368381500244141e+00 2.298402309417724609e+00 -2.198807150125503540e-02
3.190000000000000000e+03 2.942705345153808594e+01 3.065087318420410156e+00 1.447112560272216797e+00 8.848808288574218750e+00 3.088776111602783203e+00 5.287272855639457703e-02
3.191000000000000000e+03 2.811313819885253906e+01 4.641525268554687500e+00 1.411264777183532715e+00 9.060502052307128906e+00 3.141530036926269531e+00 2.422089921310544014e-03
3.192000000000000000e+03 6.938008880615234375e+01 -5.623379707336425781e+00 9.143084287643432617e-02 7.571828365325927734e+00 2.298977851867675781e+00 -1.165050640702247620e-01
3.193000000000000000e+03 6.712530517578125000e+01 1.376714706420898438e+01 7.591339945793151855e-02 7.636506080627441406e+00 2.313725948333740234e+00 2.023301571607589722e-01
3.194000000000000000e+03 6.885447692871093750e+01 -2.883028602600097656e+01 -6.665474176406860352e-02 7.884404182434082031e+00 2.345324754714965820e+00 -1.990247219800949097e-01
3.195000000000000000e+03 6.907188415527343750e+01 8.116461753845214844e+00 9.021819382905960083e-02 7.572584152221679688e+00 2.298840761184692383e+00 1.124281287193298340e-01
3.196000000000000000e+03 6.978999328613281250e+01 1.000658035278320312e+01 7.111372053623199463e-02 7.582669258117675781e+00 2.296134948730468750e+00 1.302531808614730835e-01
3.197000000000000000e+03 1.210540390014648438e+01 2.856717872619628906e+01 -1.882172077894210815e-01 3.187366008758544922e+00 8.997446298599243164e-01 -8.509936332702636719e-01
3.198000000000000000e+03 6.928078460693359375e+01 -2.139283752441406250e+01 -8.938306011259555817e-03 7.778466701507568359e+00 2.330858469009399414e+00 -2.403462976217269897e-01
3.199000000000000000e+03 2.894229507446289062e+01 -1.337739372253417969e+01 5.306555032730102539e-01 8.172937393188476562e+00 2.611078023910522461e+00 -2.940773963928222656e-01
3.200000000000000000e+03 6.742049407958984375e+01 1.826755332946777344e+01 3.002540953457355499e-02 7.689177989959716797e+00 2.315761089324951172e+00 2.295211851596832275e-01
3.201000000000000000e+03 2.493295860290527344e+01 2.416823005676269531e+01 -5.681996345520019531e-01 7.205959320068359375e+00 1.991327881813049316e+00 -1.552874892950057983e-01
3.202000000000000000e+03 1.452513790130615234e+01 -2.672080993652343750e+01 -3.396392166614532471e-01 4.090494632720947266e+00 1.125256657600402832e+00 9.215263128280639648e-01
3.203000000000000000e+03 6.778968048095703125e+01 -2.384444427490234375e+01 -3.685044124722480774e-02 7.812436103820800781e+00 2.332675695419311523e+00 -2.541891038417816162e-01
3.204000000000000000e+03 6.746966552734375000e+01 -2.538550376892089844e+01 -5.305590108036994934e-02 7.833305835723876953e+00 2.334074974060058594e+00 -2.482455819845199585e-01
3.205000000000000000e+03 6.867657470703125000e+01 1.963379287719726562e+01 1.509046182036399841e-02 7.703165054321289062e+00 2.315476655960083008e+00 2.187271863222122192e-01
3.206000000000000000e+03 6.989427185058593750e+01 2.081668090820312500e+01 4.737912677228450775e-03 7.715713024139404297e+00 2.316135168075561523e+00 2.051183730363845825e-01
3.207000000000000000e+03 7.058424377441406250e+01 -3.006948661804199219e+01 -5.227310582995414734e-02 7.912202358245849609e+00 2.357978820800781250e+00 -1.634123176336288452e-01
3.208000000000000000e+03 7.001109313964843750e+01 5.156865119934082031e+00 8.500705659389495850e-02 7.547904968261718750e+00 2.289873600006103516e+00 6.013882160186767578e-02
3.209000000000000000e+03 1.126252746582031250e+01 -2.539197731018066406e+01 -2.986327372491359711e-02 2.861918449401855469e+00 8.496165871620178223e-01 9.836912155151367188e-01
3.210000000000000000e+03 6.982880401611328125e+01 -1.124165153503417969e+01 5.766440555453300476e-02 7.627927780151367188e+00 2.305677652359008789e+00 -1.841671168804168701e-01
3.211000000000000000e+03 2.845567131042480469e+01 6.913602352142333984e+00 1.338181138038635254e+00 8.841931343078613281e+00 3.054033517837524414e+00 3.770344331860542297e-02
3.212000000000000000e+03 6.897404479980468750e+01 2.660025787353515625e+01 -3.811179473996162415e-02 7.795490741729736328e+00 2.327213525772094727e+00 1.976484954357147217e-01
3.213000000000000000e+03 1.030861663818359375e+01 2.899820327758789062e+01 -1.005612760782241821e-01 2.565774440765380859e+00 7.395639419555664062e-01 -7.415737509727478027e-01
3.214000000000000000e+03 2.580468750000000000e+01 2.129040145874023438e+01 -2.826943099498748779e-01 7.583965301513671875e+00 2.190381288528442383e+00 -4.784141853451728821e-02
3.215000000000000000e+03 6.947942352294921875e+01 -1.866298103332519531e+01 1.042585261166095734e-02 7.737572669982910156e+00 2.324399709701538086e+00 -2.358042746782302856e-01
3.216000000000000000e+03 6.930330657958984375e+01 -2.005533027648925781e+01 -8.067605085670948029e-05 7.759593009948730469e+00 2.327853679656982422e+00 -2.393525242805480957e-01
3.217000000000000000e+03 1.142314815521240234e+01 2.989364814758300781e+01 -2.007554173469543457e-01 2.923265457153320312e+00 8.167530298233032227e-01 -7.498198151588439941e-01
3.218000000000000000e+03 1.322734451293945312e+01 2.918037223815917969e+01 -3.158014714717864990e-01 3.650290012359619141e+00 1.000346541404724121e+00 -8.495256304740905762e-01
3.219000000000000000e+03 1.439097881317138672e+01 2.759201812744140625e+01 -3.150730431079864502e-01 4.028596878051757812e+00 1.114057183265686035e+00 -1.001888155937194824e+00
3.220000000000000000e+03 3.046351432800292969e+01 -1.303471088409423828e+01 5.822970271110534668e-01 8.107831001281738281e+00 2.607038497924804688e+00 -3.818657696247100830e-01
3.221000000000000000e+03 2.626869583129882812e+01 7.197195053100585938e+00 1.346773982048034668e+00 9.266461372375488281e+00 3.183970689773559570e+00 -1.637535840272903442e-01
3.222000000000000000e+03 2.911691665649414062e+01 -7.858667373657226562e+00 1.277619957923889160e+00 8.500812530517578125e+00 2.933529853820800781e+00 -1.919771581888198853e-01
3.223000000000000000e+03 2.980976486206054688e+01 -6.655642509460449219e+00 1.365043520927429199e+00 8.490931510925292969e+00 2.956792593002319336e+00 -1.767758876085281372e-01
3.224000000000000000e+03 2.942698860168457031e+01 1.260815978050231934e+00 1.490575790405273438e+00 8.879319190979003906e+00 3.110968351364135742e+00 5.528671666979789734e-02
3.225000000000000000e+03 2.114911842346191406e+01 2.823247718811035156e+01 -7.536528706550598145e-01 6.104617595672607422e+00 1.605289459228515625e+00 -4.848412871360778809e-01
3.226000000000000000e+03 2.071735572814941406e+01 2.524970626831054688e+01 -6.099317073822021484e-01 6.293037414550781250e+00 1.704931735992431641e+00 -6.119958162307739258e-01
3.227000000000000000e+03 6.867054748535156250e+01 1.522176647186279297e+01 4.947873950004577637e-02 7.646744728088378906e+00 2.308866977691650391e+00 1.971455365419387817e-01
3.228000000000000000e+03 6.827955627441406250e+01 1.224149513244628906e+01 7.784017175436019897e-02 7.613990306854248047e+00 2.307549238204956055e+00 1.736034303903579712e-01
3.229000000000000000e+03 6.760718536376953125e+01 2.681024169921875000e+01 -4.858344793319702148e-02 7.798958301544189453e+00 2.325112342834472656e+00 2.108815461397171021e-01
3.230000000000000000e+03 2.699521255493164062e+01 7.676710605621337891e+00 1.322657704353332520e+00 9.037780761718750000e+00 3.108131408691406250e+00 -7.788500934839248657e-02
3.231000000000000000e+03 3.101517486572265625e+01 6.467015743255615234e+00 1.299851536750793457e+00 8.473052024841308594e+00 2.931870937347412109e+00 1.745217591524124146e-01
3.232000000000000000e+03 3.046500396728515625e+01 -8.916445732116699219e+00 1.106386542320251465e+00 8.293328285217285156e+00 2.819914340972900391e+00 -2.972882986068725586e-01
3.233000000000000000e+03 2.803741836547851562e+01 1.424384832382202148e+00 1.471933245658874512e+00 9.221981048583984375e+00 3.208174467086791992e+00 4.883670806884765625e-02
3.234000000000000000e+03 1.425510025024414062e+01 -2.992341804504394531e+01 -4.405833780765533447e-01 3.929461002349853516e+00 1.046663284301757812e+00 7.314870357513427734e-01
3.235000000000000000e+03 2.568705940246582031e+01 -1.972529411315917969e+01 -3.265084922313690186e-01 7.511013031005859375e+00 2.155351400375366211e+00 1.183326393365859985e-01
3.236000000000000000e+03 9.700920104980468750e+00 -3.999340057373046875e+01 -3.151444494724273682e-01 2.688995122909545898e+00 7.121552228927612305e-01 1.058829203248023987e-01
3.237000000000000000e+03 6.569099426269531250e+01 -3.126922988891601562e+01 -1.228884458541870117e-01 7.892005443572998047e+00 2.330735206604003906e+00 -2.013982981443405151e-01
3.238000000000000000e+03 1.163125133514404297e+01 -3.038375663757324219e+01 -3.018532991409301758e-01 3.162350654602050781e+00 8.581492304801940918e-01 6.874020099639892578e-01
3.239000000000000000e+03 1.254168415069580078e+01 -2.885350608825683594e+01 -3.075871467590332031e-01 3.426106452941894531e+00 9.355558156967163086e-01 7.999643683433532715e-01
3.240000000000000000e+03 1.956571388244628906e+01 -2.535837364196777344e+01 -6.114810705184936523e-01 5.771146774291992188e+00 1.547899723052978516e+00 7.192564010620117188e-01
3.241000000000000000e+03 1.175889778137207031e+01 3.659103775024414062e+01 -4.064941704273223877e-01 3.268277645111083984e+00 8.585350513458251953e-01 -3.250613808631896973e-01
3.242000000000000000e+03 3.051262092590332031e+01 1.686559677124023438e+01 3.102600872516632080e-01 8.006450653076171875e+00 2.495013236999511719e+00 3.655421137809753418e-01
3.243000000000000000e+03 1.807355117797851562e+01 2.808571624755859375e+01 -6.117442250251770020e-01 5.290350914001464844e+00 1.403581976890563965e+00 -7.733778357505798340e-01
3.244000000000000000e+03 6.854441070556640625e+01 -6.096681118011474609e+00 1.024820953607559204e-01 7.579915523529052734e+00 2.304719448089599609e+00 -1.295571774244308472e-01
3.245000000000000000e+03 6.722791290283203125e+01 2.064352989196777344e+00 1.431969851255416870e-01 7.558434486389160156e+00 2.310489416122436523e+00 1.255089603364467621e-02
3.246000000000000000e+03 6.770227813720703125e+01 -1.535981559753417969e+01 4.609116539359092712e-02 7.689571857452392578e+00 2.320698738098144531e+00 -2.495667338371276855e-01
3.247000000000000000e+03 6.961603546142578125e+01 -1.727921295166015625e+01 1.971502602100372314e-02 7.716281890869140625e+00 2.320799112319946289e+00 -2.302536815404891968e-01
3.248000000000000000e+03 6.734590148925781250e+01 1.682792282104492188e+01 4.445364698767662048e-02 7.672004222869873047e+00 2.314937353134155273e+00 2.242910265922546387e-01
3.249000000000000000e+03 6.833456420898437500e+01 1.081567001342773438e+01 8.732660859823226929e-02 7.599069595336914062e+00 2.305918693542480469e+00 1.544248461723327637e-01
3.250000000000000000e+03 6.857177734375000000e+01 6.582758903503417969e+00 1.048614010214805603e-01 7.565792083740234375e+00 2.301196098327636719e+00 8.818348497152328491e-02
3.251000000000000000e+03 6.823354339599609375e+01 -1.419199752807617188e+01 5.243811011314392090e-02 7.672981262207031250e+00 2.317625761032104492e+00 -2.331613600254058838e-01
3.252000000000000000e+03 1.306375217437744141e+01 2.780105972290039062e+01 -2.200411707162857056e-01 3.511453151702880859e+00 9.874235391616821289e-01 -9.550689458847045898e-01
3.253000000000000000e+03 6.781688690185546875e+01 7.450137138366699219e+00 1.163252294063568115e-01 7.575714111328125000e+00 2.307611942291259766e+00 1.096861585974693298e-01
3.254000000000000000e+03 6.943522644042968750e+01 -1.222760868072509766e+01 5.791915953159332275e-02 7.641472339630126953e+00 2.309817552566528320e+00 -1.991852372884750366e-01
3.255000000000000000e+03 6.746636962890625000e+01 1.962381744384765625e+01 1.651212386786937714e-02 7.707345008850097656e+00 2.317157030105590820e+00 2.332446426153182983e-01
3.256000000000000000e+03 6.793435668945312500e+01 4.714627265930175781e-01 1.306345164775848389e-01 7.555353164672851562e+00 2.305796146392822266e+00 -1.724087819457054138e-02
3.257000000000000000e+03 6.883456420898437500e+01 -2.727370738983154297e+00 1.111407801508903503e-01 7.558443546295166016e+00 2.300875186920166016e+00 -7.230223715305328369e-02
3.258000000000000000e+03 6.895757293701171875e+01 -6.201338768005371094e-01 1.071189567446708679e-01 7.550591945648193359e+00 2.297313213348388672e+00 -3.515293076634407043e-02
3.259000000000000000e+03 3.157385826110839844e+01 -3.855850219726562500e+00 1.449597477912902832e+00 8.397946357727050781e+00 2.954263210296630859e+00 -1.206426173448562622e-01
3.260000000000000000e+03 3.040302658081054688e+01 -1.367141366004943848e+00 1.508588790893554688e+00 8.648059844970703125e+00 3.046994447708129883e+00 6.130369845777750015e-03
3.261000000000000000e+03 6.892241668701171875e+01 -1.094866752624511719e+01 7.050064951181411743e-02 7.629174232482910156e+00 2.309902429580688477e+00 -1.941399127244949341e-01
3.262000000000000000e+03 6.797698211669921875e+01 -1.990997123718261719e+01 1.876722904853522778e-03 7.755809307098388672e+00 2.327305793762207031e+00 -2.596902549266815186e-01
3.263000000000000000e+03 6.879890441894531250e+01 -8.738496780395507812e+00 8.563530445098876953e-02 7.603420734405517578e+00 2.306716918945312500e+00 -1.660413444042205811e-01
3.264000000000000000e+03 6.839434814453125000e+01 1.369439697265625000e+01 6.489580124616622925e-02 7.629004001617431641e+00 2.308169841766357422e+00 1.871822923421859741e-01
3.265000000000000000e+03 6.712648773193359375e+01 -2.194708633422851562e+01 -1.776286028325557709e-02 7.782176494598388672e+00 2.329324245452880859e+00 -2.698908746242523193e-01
3.266000000000000000e+03 6.884251403808593750e+01 -1.318453216552734375e+01 5.679582804441452026e-02 7.657222747802734375e+00 2.314205646514892578e+00 -2.183601260185241699e-01
3.267000000000000000e+03 6.726414489746093750e+01 -2.710250663757324219e+01 -7.113485038280487061e-02 7.855041980743408203e+00 2.335172176361083984e+00 -2.364337444305419922e-01
3.268000000000000000e+03 6.874785614013671875e+01 -2.718928718566894531e+01 -5.722766369581222534e-02 7.863649368286132812e+00 2.341926574707031250e+00 -2.153559029102325439e-01
3.269000000000000000e+03 6.971154022216796875e+01 2.325423812866210938e+01 -1.624185591936111450e-02 7.754930973052978516e+00 2.321606636047363281e+00 2.033639103174209595e-01
3.270000000000000000e+03 6.831647491455078125e+01 2.330329322814941406e+01 -1.954051293432712555e-02 7.755499362945556641e+00 2.320787668228149414e+00 2.238719463348388672e-01
3.271000000000000000e+03 3.092469215393066406e+01 1.533523917198181152e+00 1.471567153930664062e+00 8.600433349609375000e+00 3.021600008010864258e+00 5.822683498263359070e-02
3.272000000000000000e+03 3.304392242431640625e+01 2.019367790222167969e+01 -4.150154441595077515e-02 7.837219238281250000e+00 2.338715314865112305e+00 4.338325858116149902e-01
3.273000000000000000e+03 3.123785400390625000e+01 -7.382356166839599609e+00 1.222422599792480469e+00 8.268470764160156250e+00 2.847268104553222656e+00 -2.823395431041717529e-01
3.274000000000000000e+03 6.876740264892578125e+01 -1.577868556976318359e+01 3.546662256121635437e-02 7.694406986236572266e+00 2.318962097167968750e+00 -2.361142635345458984e-01
3.275000000000000000e+03 1.466486167907714844e+01 2.924125289916992188e+01 -4.096629023551940918e-01 4.088937759399414062e+00 1.103782534599304199e+00 -8.621537089347839355e-01
3.276000000000000000e+03 6.778455352783203125e+01 -6.446203589439392090e-01 1.307776272296905518e-01 7.557919025421142578e+00 2.306608915328979492e+00 -3.816949948668479919e-02
3.277000000000000000e+03 6.805554199218750000e+01 -5.191484928131103516e+00 1.158277913928031921e-01 7.576303482055664062e+00 2.307639360427856445e+00 -1.185793951153755188e-01
3.278000000000000000e+03 3.171158790588378906e+01 1.185078334808349609e+01 8.597609996795654297e-01 8.183285713195800781e+00 2.712913990020751953e+00 3.525437712669372559e-01
3.279000000000000000e+03 6.994619750976562500e+01 4.274382591247558594e+00 8.865832537412643433e-02 7.544913291931152344e+00 2.290071487426757812e+00 4.745185375213623047e-02
3.280000000000000000e+03 6.809326934814453125e+01 5.649969577789306641e+00 1.120035871863365173e-01 7.565381050109863281e+00 2.303215265274047852e+00 7.642383873462677002e-02
3.281000000000000000e+03 1.712542915344238281e+01 -2.687931823730468750e+01 -5.279480814933776855e-01 5.029169082641601562e+00 1.350366234779357910e+00 8.088966012001037598e-01
3.282000000000000000e+03 1.237547302246093750e+01 3.406666946411132812e+01 -4.129391908645629883e-01 3.365577936172485352e+00 8.857916593551635742e-01 -4.962077438831329346e-01
3.283000000000000000e+03 6.724470520019531250e+01 1.532071781158447266e+01 5.959910526871681213e-02 7.654709815979003906e+00 2.314292669296264648e+00 2.156500965356826782e-01
3.284000000000000000e+03 1.466747570037841797e+01 3.133843421936035156e+01 -4.990613460540771484e-01 4.070411682128906250e+00 1.071405172348022461e+00 -6.994594335556030273e-01
3.285000000000000000e+03 6.761084747314453125e+01 -3.094516372680664062e+01 -9.429930150508880615e-02 7.899580478668212891e+00 2.341584444046020508e+00 -1.883635222911834717e-01
3.286000000000000000e+03 3.158445358276367188e+01 3.219754993915557861e-02 1.472952246665954590e+00 8.490921020507812500e+00 2.989161968231201172e+00 1.790798455476760864e-02
3.287000000000000000e+03 6.728165435791015625e+01 -2.896703338623046875e+01 -8.448880910873413086e-02 7.877247810363769531e+00 2.337827682495117188e+00 -2.152459621429443359e-01
3.288000000000000000e+03 6.647167968750000000e+01 -3.374994277954101562e+01 -1.282479912042617798e-01 7.916193962097167969e+00 2.336383819580078125e+00 -1.579138040542602539e-01
3.289000000000000000e+03 6.836540985107421875e+01 -3.299137115478515625e+01 -9.256817400455474854e-02 7.927129745483398438e+00 2.350368499755859375e+00 -1.507982462644577026e-01
3.290000000000000000e+03 6.807413482666015625e+01 -2.130236053466796875e+01 -1.070371735841035843e-02 7.775358676910400391e+00 2.329396486282348633e+00 -2.588943839073181152e-01
3.291000000000000000e+03 3.135750770568847656e+01 -1.609101295471191406e+01 1.767635792493820190e-01 7.923118114471435547e+00 2.429964542388916016e+00 -4.135390520095825195e-01
3.292000000000000000e+03 3.068152236938476562e+01 -1.469552040100097656e+01 3.497021496295928955e-01 8.029863357543945312e+00 2.513869762420654297e+00 -3.869877159595489502e-01
3.293000000000000000e+03 3.170096778869628906e+01 1.387390995025634766e+01 6.344016194343566895e-01 8.097043991088867188e+00 2.619433879852294922e+00 3.954666554927825928e-01
3.294000000000000000e+03 2.456290054321289062e+01 2.661370849609375000e+01 -7.126644253730773926e-01 6.949731826782226562e+00 1.871120214462280273e+00 -2.131275385618209839e-01
3.295000000000000000e+03 3.166292762756347656e+01 -1.061159992218017578e+01 8.830683827400207520e-01 8.118888854980468750e+00 2.700587272644042969e+00 -4.049440622329711914e-01
3.296000000000000000e+03 2.966855812072753906e+01 6.623492717742919922e+00 1.323845267295837402e+00 8.654620170593261719e+00 2.993539571762084961e+00 1.110544949769973755e-01
3.297000000000000000e+03 2.785199928283691406e+01 5.897976875305175781e+00 1.370839715003967285e+00 9.009138107299804688e+00 3.113993406295776367e+00 -1.730990782380104065e-02
3.298000000000000000e+03 2.647687530517578125e+01 -2.326088142395019531e+01 -5.820907354354858398e-01 7.220626831054687500e+00 1.991560816764831543e+00 8.564823865890502930e-02
3.299000000000000000e+03 1.319139099121093750e+01 -4.053461837768554688e+01 -5.058562755584716797e-01 3.599138736724853516e+00 9.279847741127014160e-01 1.199625879526138306e-01
3.300000000000000000e+03 3.154179191589355469e+01 -5.588034152984619141e+00 1.359462738037109375e+00 8.324830055236816406e+00 2.905287742614746094e+00 -1.967983692884445190e-01
3.301000000000000000e+03 3.170163536071777344e+01 -2.236139535903930664e+00 1.457827210426330566e+00 8.416766166687011719e+00 2.962378025054931641e+00 -5.538505688309669495e-02
3.302000000000000000e+03 2.731960105895996094e+01 -1.967797279357910156e+01 -2.950713038444519043e-01 7.622141838073730469e+00 2.198121309280395508e+00 -5.352460592985153198e-02
3.303000000000000000e+03 6.726645660400390625e+01 -1.665184593200683594e+01 3.542563691735267639e-02 7.708770751953125000e+00 2.323258876800537109e+00 -2.626391649246215820e-01
3.304000000000000000e+03 6.698567962646484375e+01 6.213738918304443359e+00 1.325482279062271118e-01 7.573874473571777344e+00 2.311926841735839844e+00 9.330133348703384399e-02
3.305000000000000000e+03 6.758681488037109375e+01 -6.588368892669677734e+00 1.170571148395538330e-01 7.589928627014160156e+00 2.312095880508422852e+00 -1.467947512865066528e-01
3.306000000000000000e+03 6.854752349853515625e+01 -3.851251125335693359e+00 1.107807010412216187e-01 7.565440654754638672e+00 2.302866458892822266e+00 -9.324195981025695801e-02
3.307000000000000000e+03 6.931439208984375000e+01 -1.007104206085205078e+01 7.130927592515945435e-02 7.616474628448486328e+00 2.306335210800170898e+00 -1.786100417375564575e-01
3.308000000000000000e+03 6.801262664794921875e+01 -1.261594009399414062e+01 7.013189047574996948e-02 7.651034355163574219e+00 2.316349983215332031e+00 -2.227392792701721191e-01
3.309000000000000000e+03 6.704511260986328125e+01 1.220015430450439453e+01 9.235502779483795166e-02 7.619496345520019531e+00 2.313555479049682617e+00 1.857640147209167480e-01
3.310000000000000000e+03 6.705900573730468750e+01 1.058512401580810547e+01 1.070441007614135742e-01 7.603374481201171875e+00 2.313125610351562500e+00 1.641236841678619385e-01
3.311000000000000000e+03 6.706969451904296875e+01 1.071686983108520508e+00 1.460617184638977051e-01 7.559272766113281250e+00 2.311600208282470703e+00 -7.488041650503873825e-03
3.312000000000000000e+03 6.820407104492187500e+01 2.112091541290283203e+00 1.233335137367248535e-01 7.553261756896972656e+00 2.302978515625000000e+00 1.454661320894956589e-02
3.313000000000000000e+03 6.895704650878906250e+01 4.353881359100341797e+00 1.036455854773521423e-01 7.553530693054199219e+00 2.297152757644653320e+00 5.255632475018501282e-02
3.314000000000000000e+03 6.781645965576171875e+01 2.497777175903320312e+01 -3.596959635615348816e-02 7.778884410858154297e+00 2.322874546051025391e+00 2.198838144540786743e-01
3.315000000000000000e+03 6.781479644775390625e+01 2.149241447448730469e+01 -1.141393790021538734e-03 7.730141162872314453e+00 2.318700075149536133e+00 2.315935045480728149e-01
3.316000000000000000e+03 6.863712310791015625e+01 9.419977188110351562e+00 8.849848061800003052e-02 7.585192680358886719e+00 2.302107334136962891e+00 1.319643557071685791e-01
3.317000000000000000e+03 3.069374847412109375e+01 3.207811355590820312e+00 1.440954923629760742e+00 8.631246566772460938e+00 3.021660327911376953e+00 8.651699125766754150e-02
3.318000000000000000e+03 6.924393463134765625e+01 -3.362219095230102539e+00 1.008761972188949585e-01 7.557974815368652344e+00 2.297655344009399414e+00 -8.149919658899307251e-02
3.319000000000000000e+03 6.891117095947265625e+01 -6.974411487579345703e+00 9.374594688415527344e-02 7.584302902221679688e+00 2.303414583206176758e+00 -1.392708867788314819e-01
3.320000000000000000e+03 6.598503875732421875e+01 -2.499475097656250000e+01 -6.074256449937820435e-02 7.823073387145996094e+00 2.328699111938476562e+00 -2.728059589862823486e-01
3.321000000000000000e+03 6.786891174316406250e+01 -1.838121294975280762e+00 1.282142102718353271e-01 7.560576915740966797e+00 2.306637287139892578e+00 -5.979906022548675537e-02
3.322000000000000000e+03 6.647710418701171875e+01 -6.742269396781921387e-01 1.578329354524612427e-01 7.563592910766601562e+00 2.316427707672119141e+00 -4.263393953442573547e-02
3.323000000000000000e+03 6.820234680175781250e+01 -1.841706848144531250e+01 1.503351796418428421e-02 7.733400821685791016e+00 2.324530363082885742e+00 -2.556207180023193359e-01
3.324000000000000000e+03 6.811293792724609375e+01 -2.251884269714355469e+01 -2.263469994068145752e-02 7.795041561126708984e+00 2.331722021102905273e+00 -2.543429732322692871e-01
3.325000000000000000e+03 6.652326202392578125e+01 -2.335920524597167969e+01 -3.503814712166786194e-02 7.799941539764404297e+00 2.329471111297607422e+00 -2.755748033523559570e-01
3.326000000000000000e+03 3.320509338378906250e+01 -4.006863117218017578e+00 1.353635787963867188e+00 8.178438186645507812e+00 2.859622001647949219e+00 -1.737930029630661011e-01
3.327000000000000000e+03 3.301660537719726562e+01 -2.328165054321289062e+00 1.401243925094604492e+00 8.239259719848632812e+00 2.892150878906250000e+00 -9.077890217304229736e-02
3.328000000000000000e+03 6.435462188720703125e+01 1.729915046691894531e+01 5.674275755882263184e-02 7.686645507812500000e+00 2.323016405105590820e+00 2.649300098419189453e-01
3.329000000000000000e+03 6.604227447509765625e+01 1.853136444091796875e+01 3.149981424212455750e-02 7.698444843292236328e+00 2.318983316421508789e+00 2.491600811481475830e-01
3.330000000000000000e+03 3.250318145751953125e+01 -1.101558804512023926e+00 1.458444118499755859e+00 8.344054222106933594e+00 2.940749406814575195e+00 -2.562436647713184357e-02
3.331000000000000000e+03 2.862055587768554688e+01 8.496200561523437500e+00 1.233483433723449707e+00 8.686087608337402344e+00 2.975871086120605469e+00 8.802492916584014893e-02
3.332000000000000000e+03 6.782559204101562500e+01 -9.005800247192382812e+00 9.824733436107635498e-02 7.610422134399414062e+00 2.312600851058959961e+00 -1.813064962625503540e-01
3.333000000000000000e+03 6.850710296630859375e+01 -9.654935836791992188e+00 8.509735018014907837e-02 7.615285873413085938e+00 2.310115098953247070e+00 -1.836565732955932617e-01
3.334000000000000000e+03 2.928521728515625000e+01 -1.512658596038818359e+01 2.951569557189941406e-01 8.053116798400878906e+00 2.504482030868530273e+00 -3.049480319023132324e-01
3.335000000000000000e+03 2.647397613525390625e+01 -1.641286468505859375e+01 8.115274459123611450e-02 7.936647415161132812e+00 2.405339956283569336e+00 -3.264446929097175598e-02
3.336000000000000000e+03 2.995038795471191406e+01 8.362431526184082031e+00 1.212161183357238770e+00 8.512339591979980469e+00 2.917350292205810547e+00 1.692937910556793213e-01
3.337000000000000000e+03 1.684881019592285156e+01 3.097566032409667969e+01 -6.286657452583312988e-01 4.723791122436523438e+00 1.228537678718566895e+00 -6.612640023231506348e-01
3.338000000000000000e+03 1.281596183776855469e+01 3.087330627441406250e+01 -3.550174236297607422e-01 3.515704870223999023e+00 9.482061862945556641e-01 -7.163184285163879395e-01
3.339000000000000000e+03 3.007699394226074219e+01 1.010441303253173828e+01 1.070125699043273926e+00 8.401900291442871094e+00 2.841607809066772461e+00 2.285102158784866333e-01
3.340000000000000000e+03 3.160779190063476562e+01 9.966025352478027344e+00 1.036946773529052734e+00 8.261737823486328125e+00 2.789605617523193359e+00 2.937853932380676270e-01
3.341000000000000000e+03 3.188053703308105469e+01 3.527956485748291016e+00 1.404443860054016113e+00 8.430374145507812500e+00 2.950445413589477539e+00 1.198733001947402954e-01
3.342000000000000000e+03 3.236405181884765625e+01 6.173108100891113281e+00 1.269899725914001465e+00 8.312969207763671875e+00 2.874860525131225586e+00 2.051074504852294922e-01
3.343000000000000000e+03 1.960564231872558594e+01 2.680380821228027344e+01 -6.473637819290161133e-01 5.821887969970703125e+00 1.552357196807861328e+00 -6.996450424194335938e-01
3.344000000000000000e+03 2.327269363403320312e+01 2.933962059020996094e+01 -8.613195419311523438e-01 6.460906028747558594e+00 1.679875969886779785e+00 -2.860169708728790283e-01
3.345000000000000000e+03 3.191202545166015625e+01 1.577117443084716797e+01 4.364462196826934814e-01 8.020092964172363281e+00 2.536961793899536133e+00 4.293588697910308838e-01
3.346000000000000000e+03 3.211765670776367188e+01 -1.279703617095947266e+01 5.945402383804321289e-01 8.030742645263671875e+00 2.587584972381591797e+00 -4.538932740688323975e-01
3.347000000000000000e+03 2.746835136413574219e+01 6.860795497894287109e+00 1.350069522857666016e+00 9.007700920104980469e+00 3.107331275939941406e+00 -4.564536735415458679e-02
3.348000000000000000e+03 6.036431121826171875e+01 2.575438308715820312e+01 -9.687356650829315186e-02 7.799208164215087891e+00 2.310700416564941406e+00 3.027815818786621094e-01
3.349000000000000000e+03 6.725074768066406250e+01 -1.354949665069580078e+01 6.692340224981307983e-02 7.665639877319335938e+00 2.319768905639648438e+00 -2.410391569137573242e-01
3.350000000000000000e+03 6.412384033203125000e+01 -1.691707611083984375e+01 4.717685282230377197e-02 7.712809085845947266e+00 2.327995777130126953e+00 -3.073313832283020020e-01
3.351000000000000000e+03 6.798439788818359375e+01 3.307280540466308594e+00 1.263500005006790161e-01 7.556671619415283203e+00 2.304906606674194336e+00 3.771248459815979004e-02
3.352000000000000000e+03 6.480288696289062500e+01 -1.068214321136474609e+01 1.259084045886993408e-01 7.635451793670654297e+00 2.328408002853393555e+00 -2.358323782682418823e-01
3.353000000000000000e+03 6.811290740966796875e+01 -7.420433521270751953e+00 1.025700271129608154e-01 7.594876289367675781e+00 2.309233903884887695e+00 -1.548222899436950684e-01
3.354000000000000000e+03 6.727633666992187500e+01 -8.081595420837402344e+00 1.131019592285156250e-01 7.603296756744384766e+00 2.314919710159301758e+00 -1.727872043848037720e-01
3.355000000000000000e+03 6.629177856445312500e+01 -8.755522727966308594e+00 1.230918914079666138e-01 7.612176895141601562e+00 2.320580720901489258e+00 -1.918417662382125854e-01
3.356000000000000000e+03 6.800345611572265625e+01 -1.063451957702636719e+01 8.353567868471145630e-02 7.628600597381591797e+00 2.313640832901000977e+00 -2.012186050415039062e-01
3.357000000000000000e+03 6.345274353027343750e+01 -1.776102662086486816e+00 2.222526371479034424e-01 7.572657585144042969e+00 2.338473081588745117e+00 -7.033064961433410645e-02
3.358000000000000000e+03 6.507019042968750000e+01 -1.901181030273437500e+01 1.408240478485822678e-02 7.741290092468261719e+00 2.326611757278442383e+00 -3.008155524730682373e-01
3.359000000000000000e+03 6.653250885009765625e+01 -1.958319664001464844e+01 4.728375934064388275e-03 7.750920295715332031e+00 2.326694488525390625e+00 -2.799290120601654053e-01
3.360000000000000000e+03 3.235495758056640625e+01 2.314689874649047852e+00 1.418431758880615234e+00 8.366917610168457031e+00 2.935604810714721680e+00 7.863705605268478394e-02
3.361000000000000000e+03 6.580054473876953125e+01 1.543558597564697266e+01 7.046961784362792969e-02 7.660549640655517578e+00 2.319305658340454102e+00 2.336945980787277222e-01
3.362000000000000000e+03 3.289643859863281250e+01 7.824261665344238281e+00 1.167138814926147461e+00 8.214531898498535156e+00 2.814501285552978516e+00 2.796102762222290039e-01
3.363000000000000000e+03 1.703172874450683594e+01 -2.952915000915527344e+01 -6.148486137390136719e-01 4.792573451995849609e+00 1.253317356109619141e+00 6.516269445419311523e-01
3.364000000000000000e+03 1.834332084655761719e+01 -2.825722122192382812e+01 -6.382139921188354492e-01 5.229955196380615234e+00 1.377522349357604980e+00 6.534129977226257324e-01
3.365000000000000000e+03 6.724031829833984375e+01 8.873407363891601562e+00 1.151354238390922546e-01 7.588372707366943359e+00 2.311052560806274414e+00 1.343903392553329468e-01
3.366000000000000000e+03 6.642453002929687500e+01 1.912202835083007812e+00 1.627063155174255371e-01 7.562328815460205078e+00 2.317510604858398438e+00 1.021353807300329208e-02
3.367000000000000000e+03 6.438339996337890625e+01 1.060068321228027344e+01 1.450762450695037842e-01 7.612715244293212891e+00 2.327337503433227539e+00 1.876859068870544434e-01
3.368000000000000000e+03 6.552834320068359375e+01 -1.753381538391113281e+01 3.196719288825988770e-02 7.722036838531494141e+00 2.326201200485229492e+00 -2.898570597171783447e-01
3.369000000000000000e+03 6.475775909423828125e+01 -1.550722503662109375e+01 6.428196281194686890e-02 7.694491863250732422e+00 2.327632188796997070e+00 -2.895709872245788574e-01
3.370000000000000000e+03 3.357487487792968750e+01 1.155197811126708984e+01 8.236653804779052734e-01 8.058006286621093750e+00 2.664501667022705078e+00 4.049999117851257324e-01
3.371000000000000000e+03 1.592596435546875000e+01 -3.136953735351562500e+01 -5.667774081230163574e-01 4.401136875152587891e+00 1.150307893753051758e+00 5.698505043983459473e-01
3.372000000000000000e+03 6.708069610595703125e+01 -5.678219318389892578e+00 1.293742954730987549e-01 7.584296703338623047e+00 2.314101457595825195e+00 -1.341707408428192139e-01
3.373000000000000000e+03 3.343389511108398438e+01 -9.625734329223632812e+00 9.353274106979370117e-01 8.051938056945800781e+00 2.696179628372192383e+00 -4.164835214614868164e-01
3.374000000000000000e+03 6.145450210571289062e+01 -2.374682617187500000e+01 -7.507798075675964355e-02 7.801519870758056641e+00 2.317932605743408203e+00 -3.334043323993682861e-01
3.375000000000000000e+03 6.572644042968750000e+01 1.050201702117919922e+01 1.261902153491973877e-01 7.608001708984375000e+00 2.320257663726806641e+00 1.750573366880416870e-01
3.376000000000000000e+03 3.299974060058593750e+01 -5.799876689910888672e+00 1.288395047187805176e+00 8.171217918395996094e+00 2.837883949279785156e+00 -2.479402571916580200e-01
3.377000000000000000e+03 6.430110931396484375e+01 1.559013748168945312e+01 8.186370134353637695e-02 7.666212558746337891e+00 2.324422836303710938e+00 2.528491020202636719e-01
3.378000000000000000e+03 3.187917137145996094e+01 1.755943870544433594e+01 2.204729467630386353e-01 7.935904026031494141e+00 2.446913003921508789e+00 4.215677380561828613e-01
3.379000000000000000e+03 2.919136619567871094e+01 -1.963963699340820312e+01 -2.494680732488632202e-01 7.693583965301513672e+00 2.233234882354736328e+00 -2.200696319341659546e-01
3.380000000000000000e+03 6.458772277832031250e+01 -2.052524757385253906e+01 -7.871993817389011383e-03 7.762101650238037109e+00 2.326268911361694336e+00 -3.064211308956146240e-01
3.381000000000000000e+03 6.599230957031250000e+01 -2.114862442016601562e+01 -1.176415570080280304e-02 7.770611286163330078e+00 2.327654123306274414e+00 -2.858352065086364746e-01
3.382000000000000000e+03 2.701495170593261719e+01 -1.797625160217285156e+01 -1.140421405434608459e-01 7.776817798614501953e+00 2.298832654953002930e+00 -5.983152613043785095e-02
3.383000000000000000e+03 3.126319122314453125e+01 -1.905046844482421875e+01 -1.440259218215942383e-01 7.780840396881103516e+00 2.291044473648071289e+00 -3.601071536540985107e-01
3.384000000000000000e+03 2.702469635009765625e+01 -2.609768486022949219e+01 -7.524861693382263184e-01 7.004179954528808594e+00 1.875508189201354980e+00 6.876238435506820679e-02
3.385000000000000000e+03 3.000201416015625000e+01 -2.513714599609375000e+01 -6.548036336898803711e-01 7.362425327301025391e+00 2.012286424636840820e+00 -1.559563875198364258e-01
3.386000000000000000e+03 6.453643798828125000e+01 2.351273918151855469e+01 -3.466143086552619934e-02 7.765226840972900391e+00 2.319169521331787109e+00 2.685315608978271484e-01
3.387000000000000000e+03 6.442362213134765625e+01 3.051325225830078125e+01 -1.175341159105300903e-01 7.840657234191894531e+00 2.316936969757080078e+00 2.067653685808181763e-01
3.388000000000000000e+03 6.705747222900390625e+01 -1.049094390869140625e+01 9.580247849225997925e-02 7.628405570983886719e+00 2.317262411117553711e+00 -2.075695842504501343e-01
3.389000000000000000e+03 6.562017059326171875e+01 -7.884554386138916016e+00 1.397923827171325684e-01 7.606250762939453125e+00 2.323812961578369141e+00 -1.837550550699234009e-01
3.390000000000000000e+03 6.540662384033203125e+01 6.143442392349243164e-01 1.777390986680984497e-01 7.566134452819824219e+00 2.323162078857421875e+00 -1.385308708995580673e-02
3.391000000000000000e+03 6.504956817626953125e+01 -4.094894886016845703e+00 1.773266345262527466e-01 7.580562591552734375e+00 2.327366828918457031e+00 -1.160137057304382324e-01
3.392000000000000000e+03 6.669024658203125000e+01 -2.010199546813964844e+00 1.497574746608734131e-01 7.566757678985595703e+00 2.314954519271850586e+00 -6.707265973091125488e-02
3.393000000000000000e+03 6.659099578857421875e+01 -1.481448841094970703e+01 6.036889925599098206e-02 7.683572292327880859e+00 2.323182344436645508e+00 -2.609133720397949219e-01
3.394000000000000000e+03 6.348805618286132812e+01 -1.472747898101806641e+01 8.484130352735519409e-02 7.684893608093261719e+00 2.330920457839965820e+00 -3.013713657855987549e-01
3.395000000000000000e+03 6.544129943847656250e+01 4.696531295776367188e+00 1.698709428310394287e-01 7.572463512420654297e+00 2.322700262069702148e+00 6.939893960952758789e-02
3.396000000000000000e+03 6.692564392089843750e+01 3.283315896987915039e+00 1.450633555650711060e-01 7.562913417816162109e+00 2.312392950057983398e+00 4.095987603068351746e-02
3.397000000000000000e+03 6.312219238281250000e+01 -2.004048919677734375e+01 6.350408075377345085e-04 7.752531051635742188e+00 2.325949668884277344e+00 -3.287885189056396484e-01
3.398000000000000000e+03 6.581177520751953125e+01 3.084012985229492188e+00 1.690772622823715210e-01 7.567116260528564453e+00 2.320858001708984375e+00 3.710498660802841187e-02
3.399000000000000000e+03 6.447868347167968750e+01 1.154792547225952148e+00 2.015836983919143677e-01 7.567685127258300781e+00 2.330780744552612305e+00 -2.502242801710963249e-03
3.400000000000000000e+03 6.515409851074218750e+01 -5.534154176712036133e-01 1.881487518548965454e-01 7.567299365997314453e+00 2.326634407043457031e+00 -4.187669977545738220e-02
3.401000000000000000e+03 6.673596954345703125e+01 -1.163670253753662109e+01 8.964332938194274902e-02 7.642958164215087891e+00 2.319780349731445312e+00 -2.265039384365081787e-01
3.402000000000000000e+03 6.546333312988281250e+01 -1.419301319122314453e+01 7.553879916667938232e-02 7.677206516265869141e+00 2.325823545455932617e+00 -2.714133560657501221e-01
3.403000000000000000e+03 6.573037719726562500e+01 8.613528251647949219e+00 1.415634453296661377e-01 7.592089653015136719e+00 2.320096015930175781e+00 1.409648656845092773e-01
3.404000000000000000e+03 6.558664703369140625e+01 6.623490810394287109e+00 1.564110368490219116e-01 7.581052780151367188e+00 2.321239233016967773e+00 1.083408966660499573e-01
3.405000000000000000e+03 6.441282653808593750e+01 1.229645538330078125e+01 1.256674975156784058e-01 7.628884792327880859e+00 2.326365709304809570e+00 2.139893323183059692e-01
3.406000000000000000e+03 6.606250000000000000e+01 -6.243314266204833984e+00 1.448418796062469482e-01 7.591844558715820312e+00 2.321005821228027344e+00 -1.526458859443664551e-01
3.407000000000000000e+03 6.338759613037109375e+01 -1.259012508392333984e+01 1.199665516614913940e-01 7.656963348388671875e+00 2.333078861236572266e+00 -2.753447592258453369e-01
3.408000000000000000e+03 6.314218139648437500e+01 -2.320433235168457031e+01 -5.234982818365097046e-02 7.796377182006835938e+00 2.323208332061767578e+00 -3.153267502784729004e-01
3.409000000000000000e+03 6.443110656738281250e+01 -5.786601066589355469e+00 1.788150072097778320e-01 7.592249870300292969e+00 2.331319570541381836e+00 -1.564925163984298706e-01
3.410000000000000000e+03 6.333134078979492188e+01 -2.879979324340820312e+01 -1.396675556898117065e-01 7.863068580627441406e+00 2.317020177841186523e+00 -2.613887488842010498e-01
3.411000000000000000e+03 3.438492202758789062e+01 2.061147212982177734e+00 1.347603082656860352e+00 8.138945579528808594e+00 2.845964670181274414e+00 8.185806125402450562e-02
3.412000000000000000e+03 6.590245056152343750e+01 2.196612167358398438e+01 -8.286769501864910126e-03 7.741186618804931641e+00 2.319869995117187500e+00 2.546895742416381836e-01
3.413000000000000000e+03 6.277669906616210938e+01 1.761815071105957031e+01 6.238793581724166870e-02 7.693646907806396484e+00 2.326810598373413086e+00 2.875489890575408936e-01
3.414000000000000000e+03 6.658940124511718750e+01 -4.697661876678466797e+00 1.435513198375701904e-01 7.579146862030029297e+00 2.316809415817260742e+00 -1.193317100405693054e-01
3.415000000000000000e+03 3.604800796508789062e+01 -1.269177150726318359e+01 5.517837405204772949e-01 7.880803108215332031e+00 2.529776096343994141e+00 -5.261441469192504883e-01
3.416000000000000000e+03 3.551820755004882812e+01 1.101740360260009766e+01 8.228216767311096191e-01 7.961822509765625000e+00 2.635393381118774414e+00 4.244944453239440918e-01
3.417000000000000000e+03 3.380018615722656250e+01 1.352808189392089844e+01 6.446397304534912109e-01 8.005787849426269531e+00 2.595128297805786133e+00 4.541710615158081055e-01
3.418000000000000000e+03 6.435005950927734375e+01 1.393339157104492188e+01 1.041838899254798889e-01 7.647131443023681641e+00 2.325394630432128906e+00 2.356944531202316284e-01
3.419000000000000000e+03 3.598080062866210938e+01 1.560420322418212891e+01 4.104189574718475342e-01 7.891345977783203125e+00 2.490529537200927734e+00 5.140411257743835449e-01
3.420000000000000000e+03 3.362503814697265625e+01 1.781562805175781250e+01 1.935711652040481567e-01 7.912557601928710938e+00 2.431838750839233398e+00 4.826197922229766846e-01
3.421000000000000000e+03 3.301985168457031250e+01 1.045524716377258301e+00 1.415276050567626953e+00 8.294172286987304688e+00 2.912834405899047852e+00 4.263519495725631714e-02
3.422000000000000000e+03 3.244269180297851562e+01 -2.136841773986816406e+01 -3.132811188697814941e-01 7.690279006958007812e+00 2.213099241256713867e+00 -3.692521452903747559e-01
3.423000000000000000e+03 1.917370796203613281e+01 3.001172256469726562e+01 -7.272683978080749512e-01 5.475566864013671875e+00 1.424489617347717285e+00 -5.816457271575927734e-01
3.424000000000000000e+03 1.728215789794921875e+01 3.353899765014648438e+01 -6.930663585662841797e-01 4.783701896667480469e+00 1.227190613746643066e+00 -5.365596413612365723e-01
3.425000000000000000e+03 3.136419486999511719e+01 8.170844078063964844e+00 1.191002964973449707e+00 8.360477447509765625e+00 2.865443944931030273e+00 2.344723641872406006e-01
3.426000000000000000e+03 2.813586616516113281e+01 -2.410185813903808594e+01 -6.192709803581237793e-01 7.278023719787597656e+00 1.997625827789306641e+00 -4.121895506978034973e-02
3.427000000000000000e+03 3.090709304809570312e+01 -2.287467575073242188e+01 -4.704755246639251709e-01 7.573614597320556641e+00 2.130941629409790039e+00 -2.567767798900604248e-01
3.428000000000000000e+03 1.782465744018554688e+01 -3.257386016845703125e+01 -7.035403847694396973e-01 4.963388919830322266e+00 1.277954578399658203e+00 4.629475176334381104e-01
3.429000000000000000e+03 6.344854354858398438e+01 1.609877467155456543e+00 2.268382906913757324e-01 7.568969726562500000e+00 2.338742256164550781e+00 8.054926060140132904e-03
3.430000000000000000e+03 6.268951797485351562e+01 -1.618471717834472656e+01 6.815222650766372681e-02 7.702502727508544922e+00 2.331196546554565430e+00 -3.196185827255249023e-01
3.431000000000000000e+03 6.328042984008789062e+01 4.844909012317657471e-01 2.347641289234161377e-01 7.568471431732177734e+00 2.340970516204833984e+00 -1.904317922890186310e-02
3.432000000000000000e+03 6.578487396240234375e+01 1.407127022743225098e+00 1.681157052516937256e-01 7.564148902893066406e+00 2.319679498672485352e+00 3.930631559342145920e-03
3.433000000000000000e+03 6.515952301025390625e+01 -1.231981372833251953e+01 1.031685397028923035e-01 7.653080940246582031e+00 2.326874971389770508e+00 -2.535056173801422119e-01
3.434000000000000000e+03 6.436203002929687500e+01 -1.347865295410156250e+01 9.814915060997009277e-02 7.667382240295410156e+00 2.329659461975097656e+00 -2.766599357128143311e-01
3.435000000000000000e+03 6.574462890625000000e+01 -1.121071624755859375e+01 1.074238568544387817e-01 7.639497756958007812e+00 2.324076414108276367e+00 -2.318470627069473267e-01
3.436000000000000000e+03 6.663387298583984375e+01 -7.189832210540771484e+00 1.287705600261688232e-01 7.597357273101806641e+00 2.317838430404663086e+00 -1.635681986808776855e-01
3.437000000000000000e+03 6.619914245605468750e+01 -1.290440273284912109e+01 8.536908775568008423e-02 7.658116340637207031e+00 2.323045730590820312e+00 -2.470815777778625488e-01
3.438000000000000000e+03 6.143504714965820312e+01 1.012565994262695312e+01 2.055238932371139526e-01 7.612887859344482422e+00 2.345523595809936523e+00 2.046374529600143433e-01
3.439000000000000000e+03 6.237168884277343750e+01 6.063247323036193848e-01 2.468323558568954468e-01 7.570464134216308594e+00 2.345189094543457031e+00 -1.597787998616695404e-02
3.440000000000000000e+03 6.333833694458007812e+01 -5.608341097831726074e-01 2.267817258834838867e-01 7.570560932159423828e+00 2.339202642440795898e+00 -4.576626792550086975e-02
3.441000000000000000e+03 3.488090515136718750e+01 -3.641300916671752930e+00 1.282058238983154297e+00 8.038067817687988281e+00 2.796037912368774414e+00 -1.887586414813995361e-01
3.442000000000000000e+03 6.415686798095703125e+01 8.772850036621093750e+00 1.699243932962417603e-01 7.597708702087402344e+00 2.330289840698242188e+00 1.557535827159881592e-01
3.443000000000000000e+03 6.395471572875976562e+01 6.786610126495361328e+00 1.868826895952224731e-01 7.586527347564697266e+00 2.332023143768310547e+00 1.213850975036621094e-01
3.444000000000000000e+03 6.613048553466796875e+01 -3.630762577056884766e+00 1.547884196043014526e-01 7.575071334838867188e+00 2.318958044052124023e+00 -1.011312156915664673e-01
3.445000000000000000e+03 6.476841735839843750e+01 -1.808973193168640137e+00 1.907589286565780640e-01 7.571497440338134766e+00 2.328676939010620117e+00 -6.875473260879516602e-02
3.446000000000000000e+03 6.526805114746093750e+01 -2.270147132873535156e+01 -3.177293017506599426e-02 7.789609909057617188e+00 2.327351093292236328e+00 -2.925513982772827148e-01
3.447000000000000000e+03 3.189196014404296875e+01 4.748492717742919922e+00 1.357320427894592285e+00 8.413906097412109375e+00 2.931367874145507812e+00 1.550328135490417480e-01
3.448000000000000000e+03 6.302181243896484375e+01 1.961278343200683594e+01 2.603967487812042236e-02 7.718238830566406250e+00 2.323283672332763672e+00 2.930097579956054688e-01
3.449000000000000000e+03 6.507472229003906250e+01 2.064277267456054688e+01 6.561931222677230835e-03 7.727597236633300781e+00 2.320247650146484375e+00 2.664054632186889648e-01
3.450000000000000000e+03 6.565608215332031250e+01 -2.506465435028076172e+00 1.691929996013641357e-01 7.571769714355468750e+00 2.322288751602172852e+00 -7.940692454576492310e-02
3.451000000000000000e+03 3.476405715942382812e+01 4.552715778350830078e+00 1.263205528259277344e+00 8.091703414916992188e+00 2.806472778320312500e+00 1.840539425611495972e-01
3.452000000000000000e+03 3.456048583984375000e+01 7.230354309082031250e+00 1.138380646705627441e+00 8.075797080993652344e+00 2.764253377914428711e+00 2.888679206371307373e-01
3.453000000000000000e+03 6.158884811401367188e+01 -2.603514671325683594e+01 -1.023458093404769897e-01 7.823508739471435547e+00 2.316348791122436523e+00 -3.130647540092468262e-01
3.454000000000000000e+03 6.367300415039062500e+01 -2.641701126098632812e+01 -9.620504826307296753e-02 7.832425117492675781e+00 2.320866107940673828e+00 -2.909732162952423096e-01
3.455000000000000000e+03 3.570771026611328125e+01 3.165537118911743164e+00 1.259226322174072266e+00 8.011528015136718750e+00 2.781226158142089844e+00 1.319683492183685303e-01
3.456000000000000000e+03 3.360775375366210938e+01 3.311207771301269531e+00 1.342545390129089355e+00 8.211498260498046875e+00 2.866213083267211914e+00 1.281682848930358887e-01
3.457000000000000000e+03 3.198652267456054688e+01 -1.472673130035400391e+01 3.434647917747497559e-01 7.948324203491210938e+00 2.487536668777465820e+00 -4.539075493812561035e-01
3.458000000000000000e+03 3.782534790039062500e+01 1.847321128845214844e+01 1.450115442276000977e-01 7.828172206878662109e+00 2.391955137252807617e+00 5.374088883399963379e-01
3.459000000000000000e+03 3.582066345214843750e+01 -1.037119865417480469e+00 1.309116601943969727e+00 7.987992763519287109e+00 2.789132833480834961e+00 -6.787708401679992676e-02
3.460000000000000000e+03 3.121121025085449219e+01 1.966771507263183594e+01 -1.737008988857269287e-02 7.873161315917968750e+00 2.356737375259399414e+00 3.861180543899536133e-01
3.461000000000000000e+03 6.271490097045898438e+01 9.328614234924316406e+00 1.904444098472595215e-01 7.604066371917724609e+00 2.338353157043457031e+00 1.760254204273223877e-01
3.462000000000000000e+03 6.388934707641601562e+01 -7.615736961364746094e+00 1.752509623765945435e-01 7.605984210968017578e+00 2.334370613098144531e+00 -1.951087564229965210e-01
3.463000000000000000e+03 6.271416091918945312e+01 -1.146582412719726562e+01 1.432408094406127930e-01 7.645780563354492188e+00 2.336706399917602539e+00 -2.689527273178100586e-01
3.464000000000000000e+03 6.553076934814453125e+01 -5.208894252777099609e+00 1.613630801439285278e-01 7.585735797882080078e+00 2.324129581451416016e+00 -1.365473419427871704e-01
3.465000000000000000e+03 6.221612930297851562e+01 -5.411924123764038086e-01 2.560802996158599854e-01 7.569220542907714844e+00 2.347590208053588867e+00 -4.417573288083076477e-02
3.466000000000000000e+03 6.428930664062500000e+01 -1.166183185577392578e+01 1.196373924612998962e-01 7.647959709167480469e+00 2.330279111862182617e+00 -2.556539475917816162e-01
3.467000000000000000e+03 3.364743804931640625e+01 5.575343132019042969e+00 1.263094544410705566e+00 8.184452056884765625e+00 2.834264039993286133e+00 2.107006609439849854e-01
3.468000000000000000e+03 6.114606857299804688e+01 1.792291450500488281e+01 6.518935412168502808e-02 7.701308250427246094e+00 2.329949378967285156e+00 3.117386102676391602e-01
3.469000000000000000e+03 6.288854980468750000e+01 1.399499607086181641e+01 1.204479038715362549e-01 7.650963306427001953e+00 2.331423282623291016e+00 2.523007988929748535e-01
3.470000000000000000e+03 6.332921600341796875e+01 -6.438513278961181641e+00 1.940859705209732056e-01 7.597704887390136719e+00 2.337537288665771484e+00 -1.758920103311538696e-01
3.471000000000000000e+03 6.500057983398437500e+01 -6.892851352691650391e+00 1.582166105508804321e-01 7.599656581878662109e+00 2.327362060546875000e+00 -1.721196025609970093e-01
3.472000000000000000e+03 6.274848556518554688e+01 1.572652912139892578e+01 9.536498785018920898e-02 7.669931411743164062e+00 2.329588890075683594e+00 2.720225155353546143e-01
3.473000000000000000e+03 6.308911132812500000e+01 1.239223384857177734e+01 1.438631117343902588e-01 7.632469654083251953e+00 2.332899808883666992e+00 2.290733903646469116e-01
3.474000000000000000e+03 3.505041122436523438e+01 9.161126136779785156e+00 1.009034872055053711e+00 8.016553878784179688e+00 2.707676649093627930e+00 3.606910407543182373e-01
3.475000000000000000e+03 6.188598632812500000e+01 1.121466541290283203e+01 1.811059266328811646e-01 7.622216224670410156e+00 2.340996742248535156e+00 2.182199954986572266e-01
3.476000000000000000e+03 3.649030685424804688e+01 -2.766442537307739258e+00 1.227598309516906738e+00 7.923609256744384766e+00 2.745362281799316406e+00 -1.624490171670913696e-01
3.477000000000000000e+03 6.391070938110351562e+01 4.764139175415039062e+00 2.007468491792678833e-01 7.576161384582519531e+00 2.333072423934936523e+00 7.587049156427383423e-02
3.478000000000000000e+03 6.621956634521484375e+01 -1.022096538543701172e+01 1.089636012911796570e-01 7.629352569580078125e+00 2.321494817733764648e+00 -2.146940678358078003e-01
3.479000000000000000e+03 3.706015396118164062e+01 4.318016529083251953e+00 1.165981411933898926e+00 7.907341957092285156e+00 2.721997022628784180e+00 1.854658275842666626e-01
3.480000000000000000e+03 6.073897933959960938e+01 -5.954484939575195312e+00 2.581976354122161865e-01 7.592922687530517578e+00 2.355336189270019531e+00 -1.856908202171325684e-01
3.481000000000000000e+03 3.513287353515625000e+01 5.947937965393066406e-01 1.337358117103576660e+00 8.061944007873535156e+00 2.819790840148925781e+00 1.771003007888793945e-02
3.482000000000000000e+03 6.545954132080078125e+01 -2.898705291748046875e+01 -1.084937453269958496e-01 7.869363784790039062e+00 2.328261137008666992e+00 -2.359154522418975830e-01
3.483000000000000000e+03 6.493285369873046875e+01 2.313206911087036133e+00 1.887433379888534546e-01 7.567730426788330078e+00 2.326942205429077148e+00 2.481738105416297913e-02
3.484000000000000000e+03 3.654059219360351562e+01 1.575769424438476562e+00 1.260307788848876953e+00 7.944211959838867188e+00 2.761355876922607422e+00 5.806905031204223633e-02
3.485000000000000000e+03 3.794293212890625000e+01 2.602797746658325195e+00 1.169767260551452637e+00 7.856503009796142578e+00 2.707881212234497070e+00 1.064851135015487671e-01
3.486000000000000000e+03 3.490052795410156250e+01 -1.839009284973144531e+01 -1.027908362448215485e-02 7.819780349731445312e+00 2.342850446701049805e+00 -5.043077468872070312e-01
3.487000000000000000e+03 3.601848220825195312e+01 1.311209869384765625e+01 6.502757072448730469e-01 7.917737483978271484e+00 2.570403814315795898e+00 4.772829115390777588e-01
3.488000000000000000e+03 3.503003692626953125e+01 2.057530784606933594e+01 -5.184964835643768311e-02 7.830596446990966797e+00 2.333623886108398438e+00 4.877212345600128174e-01
3.489000000000000000e+03 2.958308792114257812e+01 1.887391090393066406e+01 5.356498807668685913e-02 7.915021419525146484e+00 2.390575885772705078e+00 3.122677206993103027e-01
3.490000000000000000e+03 6.357978057861328125e+01 -1.844198036193847656e+01 2.552399970591068268e-02 7.732810020446777344e+00 2.327500343322753906e+00 -3.189842402935028076e-01
3.491000000000000000e+03 6.468981170654296875e+01 -2.959274053573608398e+00 1.910216510295867920e-01 7.575766563415527344e+00 2.330036401748657227e+00 -9.595654159784317017e-02
3.492000000000000000e+03 6.379930877685546875e+01 -1.073815250396728516e+01 1.370530575513839722e-01 7.637783527374267578e+00 2.332451105117797852e+00 -2.470729351043701172e-01
3.493000000000000000e+03 6.454487609863281250e+01 -8.728865623474121094e+00 1.503684967756271362e-01 7.616690158843994141e+00 2.330117702484130859e+00 -2.107662409543991089e-01
3.494000000000000000e+03 6.185739135742187500e+01 8.244424819946289062e+00 2.153101563453674316e-01 7.597346782684326172e+00 2.343797206878662109e+00 1.615746617317199707e-01
3.495000000000000000e+03 6.370249938964843750e+01 2.995227813720703125e+00 2.101921886205673218e-01 7.572018623352050781e+00 2.334663391113281250e+00 3.935163095593452454e-02
3.496000000000000000e+03 6.224155044555664062e+01 -1.369816970825195312e+01 1.181171983480453491e-01 7.670343399047851562e+00 2.336538314819335938e+00 -3.051920235157012939e-01
3.497000000000000000e+03 3.939741516113281250e+01 8.053627967834472656e+00 9.099592566490173340e-01 7.797892093658447266e+00 2.612355470657348633e+00 3.369761705398559570e-01
3.498000000000000000e+03 3.874313354492187500e+01 1.035234451293945312e+01 7.891528606414794922e-01 7.829455375671386719e+00 2.585582494735717773e+00 4.202262461185455322e-01
3.499000000000000000e+03 6.091447830200195312e+01 1.193267536163330078e+01 1.861348748207092285e-01 7.630638599395751953e+00 2.345031976699829102e+00 2.409085929393768311e-01
3.500000000000000000e+03 6.209405517578125000e+01 -1.831468820571899414e+00 2.543303668498992920e-01 7.573367118835449219e+00 2.348309278488159180e+00 -7.914683222770690918e-02
3.501000000000000000e+03 3.601659393310546875e+01 6.019239425659179688e+00 1.141660928726196289e+00 7.975088119506835938e+00 2.735024690628051758e+00 2.546094059944152832e-01
3.502000000000000000e+03 6.059228134155273438e+01 8.041522026062011719e+00 2.466107457876205444e-01 7.597047328948974609e+00 2.353097438812255859e+00 1.660240441560745239e-01
3.503000000000000000e+03 6.282235717773437500e+01 -2.164749717712402344e+01 -3.160427138209342957e-02 7.775686740875244141e+00 2.323224782943725586e+00 -3.307804465293884277e-01
3.504000000000000000e+03 6.135684585571289062e+01 2.019827842712402344e+01 1.767955347895622253e-02 7.729235172271728516e+00 2.324074506759643555e+00 3.147478103637695312e-01
3.505000000000000000e+03 3.730907058715820312e+01 -9.839763492345809937e-02 1.232823133468627930e+00 7.883533000946044922e+00 2.734906911849975586e+00 -2.927432209253311157e-02
3.506000000000000000e+03 3.608930969238281250e+01 -1.014468193054199219e+01 8.350770473480224609e-01 7.907845973968505859e+00 2.622876882553100586e+00 -4.663045108318328857e-01
3.507000000000000000e+03 3.748371887207031250e+01 -9.109987258911132812e+00 8.464518189430236816e-01 7.845899105072021484e+00 2.607705354690551758e+00 -4.350297451019287109e-01
3.508000000000000000e+03 6.135483169555664062e+01 1.389785194396972656e+01 1.427721530199050903e-01 7.652094841003417969e+00 2.338460206985473633e+00 2.676154971122741699e-01
3.509000000000000000e+03 3.758681869506835938e+01 7.293927669525146484e+00 1.015426039695739746e+00 7.878453731536865234e+00 2.668163776397705078e+00 3.085082173347473145e-01
3.510000000000000000e+03 6.265935897827148438e+01 2.490394973754882812e+01 -6.395424902439117432e-02 7.784162044525146484e+00 2.316062211990356445e+00 2.826445400714874268e-01
3.511000000000000000e+03 6.187638092041015625e+01 2.249947738647460938e+01 -2.746983431279659271e-02 7.756977081298828125e+00 2.318852186203002930e+00 3.068577051162719727e-01
3.512000000000000000e+03 6.216459274291992188e+01 3.131497859954833984e+00 2.470439076423645020e-01 7.574181556701660156e+00 2.346367597579956055e+00 4.644628241658210754e-02
3.513000000000000000e+03 6.229007720947265625e+01 1.708772659301757812e+00 2.539428472518920898e-01 7.568964004516601562e+00 2.346872091293334961e+00 1.102992240339517593e-02
3.514000000000000000e+03 5.936111450195312500e+01 -2.382198715209960938e+01 -9.100162982940673828e-02 7.797198295593261719e+00 2.311859130859375000e+00 -3.644828796386718750e-01
3.515000000000000000e+03 3.833708953857421875e+01 1.295217990875244141e+01 6.238246560096740723e-01 7.844554424285888672e+00 2.540513753890991211e+00 4.860510826110839844e-01
3.516000000000000000e+03 6.227239990234375000e+01 6.732731342315673828e+00 2.217946052551269531e-01 7.588489055633544922e+00 2.343085050582885742e+00 1.291610598564147949e-01
3.517000000000000000e+03 6.225906753540039062e+01 4.896880149841308594e+00 2.370343655347824097e-01 7.578884601593017578e+00 2.344775676727294922e+00 8.679696172475814819e-02
3.518000000000000000e+03 3.231568145751953125e+01 2.291842460632324219e+01 -3.187183141708374023e-01 7.751304626464843750e+00 2.229775905609130859e+00 3.752884864807128906e-01
3.519000000000000000e+03 5.997270584106445312e+01 1.320371246337890625e+01 1.739701777696609497e-01 7.647052764892578125e+00 2.346307039260864258e+00 2.730492949485778809e-01
3.520000000000000000e+03 6.186200332641601562e+01 1.239897632598876953e+01 1.631587147712707520e-01 7.633986473083496094e+00 2.339143514633178711e+00 2.398300170898437500e-01
3.521000000000000000e+03 6.020046615600585938e+01 1.094873332977294922e+01 2.119662314653396606e-01 7.622732162475585938e+00 2.350409507751464844e+00 2.326920181512832642e-01
3.522000000000000000e+03 6.384032058715820312e+01 -4.566720962524414062e+00 2.003260850906372070e-01 7.584981441497802734e+00 2.335592269897460938e+00 -1.332578659057617188e-01
3.523000000000000000e+03 6.346435165405273438e+01 -3.196156263351440430e+00 2.146447896957397461e-01 7.578523635864257812e+00 2.337950468063354492e+00 -1.074611470103263855e-01
3.524000000000000000e+03 6.268537521362304688e+01 -8.373147010803222656e+00 1.890735328197479248e-01 7.613977432250976562e+00 2.340915203094482422e+00 -2.212184220552444458e-01
3.525000000000000000e+03 6.338601684570312500e+01 -9.551529884338378906e+00 1.578592360019683838e-01 7.626756668090820312e+00 2.335384845733642578e+00 -2.359020709991455078e-01
3.526000000000000000e+03 6.120135116577148438e+01 -1.527734279632568359e+01 9.777714312076568604e-02 7.689696788787841797e+00 2.336242198944091797e+00 -3.323864042758941650e-01
3.527000000000000000e+03 6.048820877075195312e+01 -1.724659919738769531e+01 6.337187439203262329e-02 7.714612483978271484e+00 2.333395242691040039e+00 -3.557713925838470459e-01
3.528000000000000000e+03 6.146141433715820312e+01 -1.221539115905761719e+01 1.495598703622817993e-01 7.654657363891601562e+00 2.341265201568603516e+00 -2.958664298057556152e-01
3.529000000000000000e+03 6.054086685180664062e+01 4.973322391510009766e+00 2.760389447212219238e-01 7.580726623535156250e+00 2.357029676437377930e+00 9.811487048864364624e-02
3.530000000000000000e+03 6.112827301025390625e+01 -2.759574651718139648e-01 2.845403254032135010e-01 7.569669723510742188e+00 2.356263160705566406e+00 -3.618636354804039001e-02
3.531000000000000000e+03 6.204906463623046875e+01 -1.786209297180175781e+01 4.261682555079460144e-02 7.722863674163818359e+00 2.329644203186035156e+00 -3.389145135879516602e-01
3.532000000000000000e+03 3.848254013061523438e+01 5.344270229339599609e+00 1.077814221382141113e+00 7.834609508514404297e+00 2.673727035522460938e+00 2.263835519552230835e-01
3.533000000000000000e+03 3.669039154052734375e+01 -7.366899490356445312e+00 9.987796545028686523e-01 7.884901523590087891e+00 2.665104389190673828e+00 -3.771002590656280518e-01
3.534000000000000000e+03 3.930604934692382812e+01 3.584243535995483398e+00 1.088632822036743164e+00 7.791516304016113281e+00 2.664044857025146484e+00 1.478540003299713135e-01
3.535000000000000000e+03 3.879368209838867188e+01 9.075600504875183105e-01 1.153523087501525879e+00 7.806439876556396484e+00 2.687988996505737305e+00 1.362363528460264206e-02
3.536000000000000000e+03 3.384383010864257812e+01 -1.323711109161376953e+01 5.314918756484985352e-01 7.953912258148193359e+00 2.545621156692504883e+00 -5.028212070465087891e-01
3.537000000000000000e+03 3.816711807250976562e+01 -6.215849876403808594e+00 1.013116598129272461e+00 7.821669101715087891e+00 2.650435686111450195e+00 -3.344646990299224854e-01
3.538000000000000000e+03 4.319257736206054688e+01 8.452187538146972656e+00 7.450149059295654297e-01 7.690096855163574219e+00 2.530533552169799805e+00 3.323562741279602051e-01
3.539000000000000000e+03 5.816138458251953125e+01 1.716928672790527344e+01 1.081777662038803101e-01 7.695788860321044922e+00 2.341189861297607422e+00 3.426941037178039551e-01
3.540000000000000000e+03 2.851552772521972656e+01 2.100740814208984375e+01 -2.054416239261627197e-01 7.725597858428955078e+00 2.256047010421752930e+00 2.156791836023330688e-01
3.541000000000000000e+03 5.575334930419921875e+01 -2.038534736633300781e+01 -8.587083779275417328e-03 7.754510879516601562e+00 2.323777198791503906e+00 -4.202698171138763428e-01
3.542000000000000000e+03 5.753763580322265625e+01 9.081945419311523438e+00 2.977340817451477051e-01 7.607053279876708984e+00 2.371436119079589844e+00 2.172986268997192383e-01
3.543000000000000000e+03 6.010697937011718750e+01 1.015213653445243835e-01 3.076238930225372314e-01 7.569347381591796875e+00 2.363091468811035156e+00 -3.196357935667037964e-02
3.544000000000000000e+03 6.147458648681640625e+01 1.020985960960388184e+00 2.689104080200195312e-01 7.570942878723144531e+00 2.351956129074096680e+00 -3.422087291255593300e-03
3.545000000000000000e+03 6.059458923339843750e+01 6.636631965637207031e+00 2.647202610969543457e-01 7.587134361267089844e+00 2.355556249618530273e+00 1.358003169298171997e-01
3.546000000000000000e+03 5.714071655273437500e+01 7.334270477294921875e+00 3.390460014343261719e-01 7.592728614807128906e+00 2.379532337188720703e+00 1.795163750648498535e-01
3.547000000000000000e+03 6.049345016479492188e+01 -3.171839475631713867e+00 2.884844839572906494e-01 7.577842712402343750e+00 2.359898090362548828e+00 -1.179497241973876953e-01
3.548000000000000000e+03 6.087422180175781250e+01 -7.363974094390869141e+00 2.358554601669311523e-01 7.605412960052490234e+00 2.352380514144897461e+00 -2.168553322553634644e-01
3.549000000000000000e+03 6.185383987426757812e+01 -4.608743190765380859e+00 2.438857704401016235e-01 7.585202217102050781e+00 2.348726511001586914e+00 -1.448150277137756348e-01
3.550000000000000000e+03 6.167599105834960938e+01 -9.346433639526367188e+00 1.942174881696701050e-01 7.622971057891845703e+00 2.345156669616699219e+00 -2.461589276790618896e-01
3.551000000000000000e+03 5.962065505981445312e+01 -1.029380440711975098e+00 3.230974674224853516e-01 7.570150375366210938e+00 2.367974519729614258e+00 -6.582079827785491943e-02
3.552000000000000000e+03 6.073847961425781250e+01 -1.651584029197692871e+00 2.931161820888519287e-01 7.571836471557617188e+00 2.359485864639282227e+00 -7.922761142253875732e-02
3.553000000000000000e+03 6.229929351806640625e+01 -1.026719951629638672e+01 1.670214980840682983e-01 7.633288383483886719e+00 2.340092897415161133e+00 -2.577926814556121826e-01
3.554000000000000000e+03 5.993949508666992188e+01 -1.927085113525390625e+01 1.828372105956077576e-02 7.740471363067626953e+00 2.327626705169677734e+00 -3.700264394283294678e-01
3.555000000000000000e+03 5.999848937988281250e+01 -1.241403961181640625e+01 1.666795313358306885e-01 7.655603408813476562e+00 2.346684932708740234e+00 -3.147363364696502686e-01
3.556000000000000000e+03 3.959258651733398438e+01 -8.174790143966674805e-01 1.114126205444335938e+00 7.764446258544921875e+00 2.663571834564208984e+00 -7.255756109952926636e-02
3.557000000000000000e+03 3.805086135864257812e+01 -1.807247281074523926e+00 1.177952170372009277e+00 7.835294246673583984e+00 2.703973770141601562e+00 -1.199045553803443909e-01
3.558000000000000000e+03 6.131557083129882812e+01 -2.161292266845703125e+01 -2.957835420966148376e-02 7.769766807556152344e+00 2.322056531906127930e+00 -3.509597480297088623e-01
3.559000000000000000e+03 6.032934570312500000e+01 1.517867445945739746e+00 3.005150258541107178e-01 7.569653987884521484e+00 2.361050605773925781e+00 9.773385711014270782e-03
3.560000000000000000e+03 3.998716354370117188e+01 6.083166122436523438e+00 9.807076454162597656e-01 7.772325992584228516e+00 2.625910043716430664e+00 2.549015581607818604e-01
3.561000000000000000e+03 6.202569961547851562e+01 -3.271504402160644531e+00 2.478272020816802979e-01 7.579193115234375000e+00 2.348106145858764648e+00 -1.125945597887039185e-01
3.562000000000000000e+03 6.056378555297851562e+01 -4.634391307830810547e+00 2.753524780273437500e-01 7.584576129913330078e+00 2.357978582382202148e+00 -1.513004750013351440e-01
3.563000000000000000e+03 5.755339813232421875e+01 1.308567619323730469e+01 2.131568640470504761e-01 7.647573471069335938e+00 2.358219146728515625e+00 2.967257201671600342e-01
3.564000000000000000e+03 5.650252532958984375e+01 1.162113952636718750e+01 2.688730359077453613e-01 7.632513523101806641e+00 2.370415925979614258e+00 2.828834354877471924e-01
3.565000000000000000e+03 3.838652038574218750e+01 -1.053335094451904297e+01 7.058486938476562500e-01 7.808160305023193359e+00 2.554202795028686523e+00 -4.933904707431793213e-01
3.566000000000000000e+03 3.898362350463867188e+01 -8.971070289611816406e+00 8.051317334175109863e-01 7.790930271148681641e+00 2.578818559646606445e+00 -4.338431358337402344e-01
3.567000000000000000e+03 3.956560134887695312e+01 -7.208012580871582031e+00 8.939900994300842285e-01 7.767919063568115234e+00 2.598572731018066406e+00 -3.751313984394073486e-01
3.568000000000000000e+03 3.471667861938476562e+01 -1.142309856414794922e+01 7.171077132225036621e-01 7.945621490478515625e+00 2.598818778991699219e+00 -4.926493763923645020e-01
3.569000000000000000e+03 3.724829483032226562e+01 -1.171798801422119141e+01 6.300699114799499512e-01 7.843980312347412109e+00 2.542215108871459961e+00 -5.230859518051147461e-01
3.570000000000000000e+03 5.914612960815429688e+01 8.430718421936035156e+00 2.723909020423889160e-01 7.601607799530029297e+00 2.362199544906616211e+00 1.884837150573730469e-01
3.571000000000000000e+03 5.489119338989257812e+01 -2.291605567932128906e+01 -9.364029765129089355e-02 7.785677909851074219e+00 2.307611227035522461e+00 -4.172322750091552734e-01
3.572000000000000000e+03 4.181791687011718750e+01 4.748954772949218750e+00 9.390913248062133789e-01 7.701600551605224609e+00 2.592207670211791992e+00 1.910892128944396973e-01
3.573000000000000000e+03 4.288329315185546875e+01 1.322777938842773438e+01 4.855090081691741943e-01 7.734443187713623047e+00 2.465985536575317383e+00 4.722654819488525391e-01
3.574000000000000000e+03 4.127593231201171875e+01 8.420028686523437500e+00 8.185622096061706543e-01 7.737285614013671875e+00 2.566754341125488281e+00 3.439545929431915283e-01
3.575000000000000000e+03 6.406410217285156250e+01 -2.199435615539550781e+01 -2.792415767908096313e-02 7.780628204345703125e+00 2.325811147689819336e+00 -3.077796101570129395e-01
3.576000000000000000e+03 5.939922714233398438e+01 -8.626478195190429688e+00 2.488797307014465332e-01 7.613799571990966797e+00 2.358803749084472656e+00 -2.526359260082244873e-01
3.577000000000000000e+03 6.129686737060546875e+01 -1.063332271575927734e+01 1.844089180231094360e-01 7.635002613067626953e+00 2.345823287963867188e+00 -2.754403352737426758e-01
3.578000000000000000e+03 5.975505065917968750e+01 -7.296189785003662109e+00 2.591049671173095703e-01 7.604284286499023438e+00 2.359016656875610352e+00 -2.247563451528549194e-01
3.579000000000000000e+03 5.662055587768554688e+01 -8.485876321792602539e-01 4.068263769149780273e-01 7.567126750946044922e+00 2.392185926437377930e+00 -6.256762892007827759e-02
3.580000000000000000e+03 5.850418472290039062e+01 -1.200567817687988281e+01 1.980407387018203735e-01 7.650364875793457031e+00 2.354521751403808594e+00 -3.266583383083343506e-01
3.581000000000000000e+03 5.892127990722656250e+01 -3.401549100875854492e+00 3.268721401691436768e-01 7.577260494232177734e+00 2.371239662170410156e+00 -1.315163969993591309e-01
3.582000000000000000e+03 5.967769241333007812e+01 -6.175464630126953125e+00 2.764351665973663330e-01 7.595443725585937500e+00 2.361563682556152344e+00 -1.981199234724044800e-01
3.583000000000000000e+03 5.565054321289062500e+01 -1.515873908996582031e+01 1.521732211112976074e-01 7.687871932983398438e+00 2.352013587951660156e+00 -4.002633392810821533e-01
3.584000000000000000e+03 5.959837722778320312e+01 -1.451289749145507812e+01 1.295475363731384277e-01 7.679671764373779297e+00 2.342765808105468750e+00 -3.442096710205078125e-01
3.585000000000000000e+03 4.036345291137695312e+01 -2.639564752578735352e+00 1.044118881225585938e+00 7.735851287841796875e+00 2.633991003036499023e+00 -1.641353666782379150e-01
3.586000000000000000e+03 3.437414550781250000e+01 -1.824346899986267090e+00 1.365960955619812012e+00 8.114664077758789062e+00 2.844187498092651367e+00 -9.016510844230651855e-02
3.587000000000000000e+03 3.726224517822265625e+01 -4.521967887878417969e+00 1.129038214683532715e+00 7.871832370758056641e+00 2.700261116027832031e+00 -2.518658638000488281e-01
3.588000000000000000e+03 5.886720275878906250e+01 1.596571803092956543e+00 3.443015217781066895e-01 7.568343162536621094e+00 2.373793363571166992e+00 1.320008281618356705e-02
3.589000000000000000e+03 3.962937164306640625e+01 -5.381313800811767578e+00 9.833415150642395020e-01 7.759130001068115234e+00 2.622741460800170898e+00 -2.917053699493408203e-01
3.590000000000000000e+03 4.574212646484375000e+01 -1.219665527343750000e+01 4.202651679515838623e-01 7.681787014007568359e+00 2.430615663528442383e+00 -4.779622256755828857e-01
3.591000000000000000e+03 5.888978958129882812e+01 6.871414661407470703e+00 3.037743866443634033e-01 7.588453292846679688e+00 2.367668390274047852e+00 1.530423462390899658e-01
3.592000000000000000e+03 6.110993957519531250e+01 1.577492237091064453e+01 1.148556843400001526e-01 7.672051429748535156e+00 2.336072206497192383e+00 2.918505072593688965e-01
3.593000000000000000e+03 3.875949478149414062e+01 2.201711654663085938e+01 -1.582196950912475586e-01 7.803966522216796875e+00 2.293724060058593750e+00 5.224171280860900879e-01
3.594000000000000000e+03 3.562894821166992188e+01 1.808275032043457031e+01 1.756383180618286133e-01 7.876299858093261719e+00 2.415581464767456055e+00 5.202791690826416016e-01
3.595000000000000000e+03 3.148770904541015625e+01 2.617181205749511719e+01 -5.986003279685974121e-01 7.549873352050781250e+00 2.085381984710693359e+00 2.682875096797943115e-01
3.596000000000000000e+03 5.488980865478515625e+01 5.985674858093261719e+00 4.219793081283569336e-01 7.583187580108642578e+00 2.401550054550170898e+00 1.521819531917572021e-01
3.597000000000000000e+03 5.906208419799804688e+01 1.198563799262046814e-01 3.413467705249786377e-01 7.568692207336425781e+00 2.373011589050292969e+00 -3.372247889637947083e-02
3.598000000000000000e+03 5.537956237792968750e+01 -1.710338950157165527e+00 4.402613043785095215e-01 7.568340778350830078e+00 2.402580738067626953e+00 -9.498377889394760132e-02
3.599000000000000000e+03 5.731308746337890625e+01 -2.193331956863403320e+00 3.759399950504302979e-01 7.571949958801269531e+00 2.384366989135742188e+00 -1.024791374802589417e-01
3.600000000000000000e+03 5.705506896972656250e+01 -1.138626575469970703e+01 2.360203564167022705e-01 7.642283916473388672e+00 2.363491296768188477e+00 -3.318446576595306396e-01
3.601000000000000000e+03 5.796627044677734375e+01 -1.393639087677001953e+01 1.615253686904907227e-01 7.671988487243652344e+00 2.350054264068603516e+00 -3.584808409214019775e-01
3.602000000000000000e+03 5.736531829833984375e+01 1.336171507835388184e+00 3.885484635829925537e-01 7.566920757293701172e+00 2.386640787124633789e+00 3.309692488983273506e-03
3.603000000000000000e+03 6.536769866943359375e+01 -9.614758491516113281e+00 1.274657398462295532e-01 7.625095367431640625e+00 2.325768232345581055e+00 -2.164942026138305664e-01
3.604000000000000000e+03 4.586066055297851562e+01 4.949522614479064941e-01 8.151311874389648438e-01 7.604381561279296875e+00 2.525853872299194336e+00 -1.830380409955978394e-02
3.605000000000000000e+03 4.147047424316406250e+01 3.238750457763671875e+00 9.956874251365661621e-01 7.708181381225585938e+00 2.611160516738891602e+00 1.157353296875953674e-01
3.606000000000000000e+03 6.061393356323242188e+01 -8.896788597106933594e+00 2.186756432056427002e-01 7.618295192718505859e+00 2.351091384887695312e+00 -2.479358464479446411e-01
3.607000000000000000e+03 3.822896575927734375e+01 -1.357279586791992188e+01 4.522387385368347168e-01 7.808927059173583984e+00 2.478349685668945312e+00 -5.447917580604553223e-01
3.608000000000000000e+03 5.610548782348632812e+01 1.427752017974853516e+01 2.081131488084793091e-01 7.662223339080810547e+00 2.361100912094116211e+00 3.308446705341339111e-01
3.609000000000000000e+03 3.882565307617187500e+01 -3.559750556945800781e+00 1.085793018341064453e+00 7.792417526245117188e+00 2.663463115692138672e+00 -2.064538151025772095e-01
3.610000000000000000e+03 4.375696182250976562e+01 -5.120481491088867188e+00 8.220856785774230957e-01 7.651506423950195312e+00 2.542077541351318359e+00 -2.685243189334869385e-01
3.611000000000000000e+03 5.314924621582031250e+01 6.904868125915527344e+00 4.655881524085998535e-01 7.590100288391113281e+00 2.416706562042236328e+00 1.939311623573303223e-01
3.612000000000000000e+03 5.884906768798828125e+01 -6.870659828186035156e+00 2.863796055316925049e-01 7.599457263946533203e+00 2.365751028060913086e+00 -2.203420996665954590e-01
3.613000000000000000e+03 5.426511764526367188e+01 -2.919189453125000000e+00 4.665249586105346680e-01 7.570695877075195312e+00 2.411166191101074219e+00 -1.354106813669204712e-01
3.614000000000000000e+03 5.789199447631835938e+01 -2.808657586574554443e-01 3.714288473129272461e-01 7.567296028137207031e+00 2.381617546081542969e+00 -4.119101166725158691e-02
3.615000000000000000e+03 5.764752197265625000e+01 -9.675910949707031250e+00 2.646142840385437012e-01 7.623804569244384766e+00 2.366525650024414062e+00 -2.923387289047241211e-01
3.616000000000000000e+03 4.333884429931640625e+01 -9.684574604034423828e-01 9.295463562011718750e-01 7.649678230285644531e+00 2.573767423629760742e+00 -8.862899243831634521e-02
3.617000000000000000e+03 5.640079116821289062e+01 -1.321726226806640625e+01 2.002682983875274658e-01 7.663554191589355469e+00 2.359146833419799805e+00 -3.686000704765319824e-01
3.618000000000000000e+03 3.680142593383789062e+01 -1.414413928985595703e+01 4.157290458679199219e-01 7.842967987060546875e+00 2.477609157562255859e+00 -5.453032851219177246e-01
3.619000000000000000e+03 3.347908782958984375e+01 -1.536923980712890625e+01 2.947083115577697754e-01 7.917729854583740234e+00 2.463731527328491211e+00 -5.037890672683715820e-01
3.620000000000000000e+03 5.377175903320312500e+01 1.063063049316406250e+01 3.519022464752197266e-01 7.624995708465576172e+00 2.393069267272949219e+00 2.923611700534820557e-01
3.621000000000000000e+03 5.355077743530273438e+01 8.698504447937011719e+00 4.096444547176361084e-01 7.606185913085937500e+00 2.404749155044555664e+00 2.418994009494781494e-01
3.622000000000000000e+03 5.246046066284179688e+01 3.167819738388061523e+00 5.445668697357177734e-01 7.569433212280273438e+00 2.434200048446655273e+00 7.285343110561370850e-02
3.623000000000000000e+03 5.382437515258789062e+01 1.397799873352050781e+01 2.530586123466491699e-01 7.663469314575195312e+00 2.374958276748657227e+00 3.572457134723663330e-01
3.624000000000000000e+03 5.741812133789062500e+01 1.887498283386230469e+01 7.016532123088836670e-02 7.717456817626953125e+00 2.336286783218383789e+00 3.604017794132232666e-01
3.625000000000000000e+03 5.583996582031250000e+01 1.874394226074218750e+01 8.014484494924545288e-02 7.718721389770507812e+00 2.339659929275512695e+00 3.801404237747192383e-01
3.626000000000000000e+03 5.533211135864257812e+01 1.699212837219238281e+01 1.321820467710494995e-01 7.701019763946533203e+00 2.349960565567016602e+00 3.752065002918243408e-01
3.627000000000000000e+03 5.683179473876953125e+01 -4.995639801025390625e+00 3.637731969356536865e-01 7.583558559417724609e+00 2.384199380874633789e+00 -1.843725144863128662e-01
3.628000000000000000e+03 5.680010223388671875e+01 5.340487003326416016e+00 3.786056339740753174e-01 7.579361438751220703e+00 2.387390136718750000e+00 1.248804107308387756e-01
3.629000000000000000e+03 5.823205184936523438e+01 -8.135193824768066406e+00 2.814529240131378174e-01 7.608668327331542969e+00 2.367036342620849609e+00 -2.526006102561950684e-01
3.630000000000000000e+03 5.798074722290039062e+01 -5.942199230194091797e+00 3.207809627056121826e-01 7.591730594635009766e+00 2.373753547668457031e+00 -2.018592208623886108e-01
3.631000000000000000e+03 5.561833572387695312e+01 -1.058473587036132812e+01 2.842147350311279297e-01 7.632533073425292969e+00 2.375024318695068359e+00 -3.327105045318603516e-01
3.632000000000000000e+03 5.485851669311523438e+01 -1.233260440826416016e+01 2.482078522443771362e-01 7.652958869934082031e+00 2.370350122451782227e+00 -3.736734092235565186e-01
3.633000000000000000e+03 5.505244827270507812e+01 2.581532955169677734e+00 4.524987339973449707e-01 7.567352294921875000e+00 2.405955314636230469e+00 4.858906939625740051e-02
3.634000000000000000e+03 5.686902618408203125e+01 3.238878726959228516e+00 3.958103060722351074e-01 7.570143699645996094e+00 2.389786243438720703e+00 6.554015725851058960e-02
3.635000000000000000e+03 5.747937774658203125e+01 -3.531765937805175781e+00 3.637385964393615723e-01 7.576552867889404297e+00 2.382087469100952148e+00 -1.428924351930618286e-01
3.636000000000000000e+03 4.480966949462890625e+01 -4.325515627861022949e-01 8.664730787277221680e-01 7.619790077209472656e+00 2.545878887176513672e+00 -6.060041114687919617e-02
3.637000000000000000e+03 5.402377700805664062e+01 -1.418007278442382812e+01 2.013048231601715088e-01 7.676712512969970703e+00 2.363405227661132812e+00 -4.105137586593627930e-01
3.638000000000000000e+03 4.673403167724609375e+01 -1.799812078475952148e+00 7.700719237327575684e-01 7.596459388732910156e+00 2.509959459304809570e+00 -1.131841763854026794e-01
3.639000000000000000e+03 5.480705642700195312e+01 -1.720899963378906250e+01 9.242288768291473389e-02 7.715655803680419922e+00 2.342423677444458008e+00 -4.266343116760253906e-01
3.640000000000000000e+03 5.728380203247070312e+01 -1.596233940124511719e+01 1.148027777671813965e-01 7.698075771331787109e+00 2.343863487243652344e+00 -3.866293728351593018e-01
3.641000000000000000e+03 5.535599899291992188e+01 7.999884128570556641e+00 3.749303221702575684e-01 7.597487926483154297e+00 2.391725540161132812e+00 2.094094902276992798e-01
3.642000000000000000e+03 4.478818893432617188e+01 2.533816814422607422e+00 8.549669981002807617e-01 7.625183582305908203e+00 2.544045209884643555e+00 6.957242637872695923e-02
3.643000000000000000e+03 4.300210189819335938e+01 2.742642402648925781e+00 9.384983777999877930e-01 7.666414260864257812e+00 2.581473827362060547e+00 9.069784730672836304e-02
3.644000000000000000e+03 5.428968048095703125e+01 -2.399712651968002319e-01 4.833267033100128174e-01 7.566001415252685547e+00 2.414798498153686523e+00 -4.510850086808204651e-02
3.645000000000000000e+03 5.584580612182617188e+01 7.247810959815979004e-01 4.312644898891448975e-01 7.565662384033203125e+00 2.399078130722045898e+00 -1.184259541332721710e-02
3.646000000000000000e+03 5.633768463134765625e+01 -8.935789108276367188e+00 3.076907992362976074e-01 7.615543842315673828e+00 2.376970291137695312e+00 -2.898713052272796631e-01
3.647000000000000000e+03 5.248755264282226562e+01 5.434733867645263672e+00 5.011081099510192871e-01 7.583689212799072266e+00 2.425439357757568359e+00 1.550597250461578369e-01
3.648000000000000000e+03 5.873119735717773438e+01 5.127675056457519531e+00 3.236171603202819824e-01 7.579385757446289062e+00 2.370900869369506836e+00 1.078583076596260071e-01
3.649000000000000000e+03 4.536342239379882812e+01 -1.790181159973144531e+00 8.269968628883361816e-01 7.614057064056396484e+00 2.532316207885742188e+00 -1.165574416518211365e-01
3.650000000000000000e+03 4.335903549194335938e+01 4.589175224304199219e+00 8.803567290306091309e-01 7.666797161102294922e+00 2.564146280288696289e+00 1.800227016210556030e-01
3.651000000000000000e+03 4.055182647705078125e+01 4.427700519561767578e+00 1.019606828689575195e+00 7.745878219604492188e+00 2.629645586013793945e+00 1.776167005300521851e-01
3.652000000000000000e+03 5.135467147827148438e+01 -6.105259656906127930e-01 5.832722187042236328e-01 7.567360401153564453e+00 2.445189714431762695e+00 -5.978628620505332947e-02
3.653000000000000000e+03 4.968627166748046875e+01 1.319836616516113281e+01 3.526232838630676270e-01 7.670006275177001953e+00 2.406788825988769531e+00 3.939851224422454834e-01
3.654000000000000000e+03 5.366039276123046875e+01 1.764137077331542969e+01 1.212959140539169312e-01 7.714677333831787109e+00 2.350791931152343750e+00 4.033140242099761963e-01
3.655000000000000000e+03 5.955503082275390625e+01 1.788059234619140625e+01 7.356689870357513428e-02 7.703981876373291016e+00 2.333264589309692383e+00 3.284418284893035889e-01
3.656000000000000000e+03 5.889638900756835938e+01 1.952483177185058594e+01 4.290248453617095947e-02 7.723155498504638672e+00 2.329817295074462891e+00 3.405599296092987061e-01
3.657000000000000000e+03 5.708180236816406250e+01 -7.386903285980224609e+00 3.240828812122344971e-01 7.600958347320556641e+00 2.377512454986572266e+00 -2.468512058258056641e-01
3.658000000000000000e+03 5.389176177978515625e+01 4.278182029724121094e+00 4.785346388816833496e-01 7.573339462280273438e+00 2.415562152862548828e+00 1.097813770174980164e-01
3.659000000000000000e+03 5.418591690063476562e+01 -9.617928504943847656e+00 3.395764529705047607e-01 7.622137069702148438e+00 2.388514041900634766e+00 -3.280095756053924561e-01
3.660000000000000000e+03 4.336228561401367188e+01 6.434603214263916016e+00 8.258023858070373535e-01 7.674619674682617188e+00 2.550126791000366211e+00 2.532919645309448242e-01
3.661000000000000000e+03 5.385088729858398438e+01 -1.938648796081542969e+01 1.979016326367855072e-02 7.743461132049560547e+00 2.328975439071655273e+00 -4.428918063640594482e-01
3.662000000000000000e+03 4.268164062500000000e+01 -3.502417325973510742e+00 9.087760448455810547e-01 7.667426109313964844e+00 2.572860717773437500e+00 -2.022672742605209351e-01
3.663000000000000000e+03 4.497435760498046875e+01 -3.990548849105834961e+00 7.985438704490661621e-01 7.626244544982910156e+00 2.527436494827270508e+00 -2.166380435228347778e-01
3.664000000000000000e+03 5.151685333251953125e+01 7.524666309356689453e+00 4.983417391777038574e-01 7.600654602050781250e+00 2.429698944091796875e+00 2.294880002737045288e-01
3.665000000000000000e+03 5.551826477050781250e+01 -4.075080394744873047e+00 4.171599745750427246e-01 7.576163291931152344e+00 2.397996902465820312e+00 -1.644149869680404663e-01
3.666000000000000000e+03 5.636461639404296875e+01 -2.891961097717285156e+00 4.018745422363281250e-01 7.573348522186279297e+00 2.392566919326782227e+00 -1.293628066778182983e-01
3.667000000000000000e+03 5.142203521728515625e+01 -1.485529708862304688e+01 2.052251398563385010e-01 7.688581943511962891e+00 2.368142127990722656e+00 -4.517501592636108398e-01
3.668000000000000000e+03 5.587809753417968750e+01 -6.490434646606445312e+00 3.662730455398559570e-01 7.594053268432617188e+00 2.388098001480102539e+00 -2.342216074466705322e-01
3.669000000000000000e+03 5.188975524902343750e+01 -3.211932420730590820e+00 5.489389896392822266e-01 7.571960926055908203e+00 2.436269998550415039e+00 -1.550290882587432861e-01
3.670000000000000000e+03 5.325310897827148438e+01 -4.347077369689941406e+00 4.843744337558746338e-01 7.577156543731689453e+00 2.418459177017211914e+00 -1.846971660852432251e-01
3.671000000000000000e+03 5.458750152587890625e+01 -5.474459648132324219e+00 4.217101633548736572e-01 7.584665298461914062e+00 2.401912689208984375e+00 -2.126623392105102539e-01
3.672000000000000000e+03 5.501675033569335938e+01 -8.022487640380859375e+00 3.610210418701171875e-01 7.605324745178222656e+00 2.389903783798217773e+00 -2.808235287666320801e-01
3.673000000000000000e+03 5.003831863403320312e+01 7.962133884429931641e+00 5.216025710105895996e-01 7.612121105194091797e+00 2.440117120742797852e+00 2.531740069389343262e-01
3.674000000000000000e+03 4.530390167236328125e+01 6.263224601745605469e+00 7.458349466323852539e-01 7.638137817382812500e+00 2.515191793441772461e+00 2.341200709342956543e-01
3.675000000000000000e+03 5.825584030151367188e+01 -1.876603698730468750e+01 3.635013848543167114e-02 7.733274459838867188e+00 2.330887317657470703e+00 -3.887780308723449707e-01
3.676000000000000000e+03 4.868054580688476562e+01 -1.520194530487060547e+01 2.174757719039916992e-01 7.698967456817626953e+00 2.374933004379272461e+00 -4.902280569076538086e-01
3.677000000000000000e+03 5.241999816894531250e+01 -1.304862880706787109e+01 2.631827592849731445e-01 7.663797855377197266e+00 2.378094196319580078e+00 -4.154363572597503662e-01
3.678000000000000000e+03 5.135215759277343750e+01 4.536966323852539062e+00 5.609623789787292480e-01 7.579269886016845703e+00 2.442069768905639648e+00 1.319453567266464233e-01
3.679000000000000000e+03 5.228376007080078125e+01 -5.858508110046386719e+00 4.873687624931335449e-01 7.587939262390136719e+00 2.422592401504516602e+00 -2.417834550142288208e-01
3.680000000000000000e+03 4.952101898193359375e+01 -3.660940647125244141e+00 6.282520890235900879e-01 7.580548286437988281e+00 2.462640047073364258e+00 -1.819490045309066772e-01
3.681000000000000000e+03 5.366286468505859375e+01 -6.974317073822021484e+00 4.193480014801025391e-01 7.596642494201660156e+00 2.404797077178955078e+00 -2.650538086891174316e-01
3.682000000000000000e+03 5.275262832641601562e+01 -8.532380104064941406e+00 4.064737558364868164e-01 7.611041545867919922e+00 2.405254602432250977e+00 -3.159035742282867432e-01
3.683000000000000000e+03 5.182791137695312500e+01 -1.014900779724121094e+01 3.772889971733093262e-01 7.630201816558837891e+00 2.402247190475463867e+00 -3.666236102581024170e-01
3.684000000000000000e+03 4.505938339233398438e+01 -6.562590122222900391e+00 7.193124294281005859e-01 7.637680053710937500e+00 2.507097721099853516e+00 -3.241272568702697754e-01
3.685000000000000000e+03 4.606394577026367188e+01 -2.979867219924926758e+00 7.761505842208862305e-01 7.608792304992675781e+00 2.515482902526855469e+00 -1.726323366165161133e-01
3.686000000000000000e+03 4.991835403442382812e+01 -6.244294643402099609e+00 5.560370683670043945e-01 7.596061229705810547e+00 2.445629358291625977e+00 -2.736470103263854980e-01
3.687000000000000000e+03 4.730985641479492188e+01 -3.644896447658538818e-01 7.532876133918762207e-01 7.589554309844970703e+00 2.502852439880371094e+00 -5.173949897289276123e-02
3.688000000000000000e+03 5.173853683471679688e+01 1.012111425399780273e+00 5.731387138366699219e-01 7.566427230834960938e+00 2.441869735717773438e+00 -4.295402206480503082e-03
3.689000000000000000e+03 4.951062774658203125e+01 6.414474010467529297e+00 5.829123258590698242e-01 7.598819255828857422e+00 2.454519510269165039e+00 2.090358138084411621e-01
3.690000000000000000e+03 5.179251480102539062e+01 9.231901168823242188e+00 4.428657293319702148e-01 7.616320610046386719e+00 2.417755842208862305e+00 2.739681005477905273e-01
3.691000000000000000e+03 4.649408340454101562e+01 1.964744210243225098e+00 7.841587662696838379e-01 7.600079536437988281e+00 2.515271425247192383e+00 4.457890987396240234e-02
3.692000000000000000e+03 4.812853622436523438e+01 -2.644886016845703125e+00 6.970626711845397949e-01 7.585705757141113281e+00 2.484830379486083984e+00 -1.456273645162582397e-01
3.693000000000000000e+03 4.525766372680664062e+01 4.317506790161132812e+00 8.053091168403625488e-01 7.625994682312011719e+00 2.529391050338745117e+00 1.550488770008087158e-01
3.694000000000000000e+03 4.891602325439453125e+01 -1.233611106872558594e+00 6.752858757972717285e-01 7.577698230743408203e+00 2.475895166397094727e+00 -8.635924011468887329e-02
3.695000000000000000e+03 4.737699127197265625e+01 -1.688269805908203125e+01 1.363626867532730103e-01 7.725628852844238281e+00 2.358597517013549805e+00 -5.186780691146850586e-01
3.696000000000000000e+03 4.889064407348632812e+01 2.473217010498046875e+00 6.731743216514587402e-01 7.581106662750244141e+00 2.476284265518188477e+00 5.916014686226844788e-02
3.697000000000000000e+03 4.830599594116210938e+01 -1.212062263488769531e+01 3.731898665428161621e-01 7.664010524749755859e+00 2.411159992218017578e+00 -4.485439360141754150e-01
3.698000000000000000e+03 5.086028289794921875e+01 -1.181581783294677734e+01 3.373510539531707764e-01 7.651466846466064453e+00 2.396645307540893555e+00 -4.124668240547180176e-01
3.699000000000000000e+03 5.132453536987304688e+01 -7.394370555877685547e+00 4.770059883594512939e-01 7.602851390838623047e+00 2.423957109451293945e+00 -2.984210550785064697e-01
3.700000000000000000e+03 5.336624908447265625e+01 1.504872798919677734e+00 5.204750299453735352e-01 7.564982414245605469e+00 2.425637245178222656e+00 1.297432091087102890e-02
3.701000000000000000e+03 4.751463699340820312e+01 -6.525142669677734375e+00 6.305568218231201172e-01 7.612587928771972656e+00 2.472943305969238281e+00 -3.040830492973327637e-01
3.702000000000000000e+03 5.044631195068359375e+01 -2.180747747421264648e+00 6.081881523132324219e-01 7.573141574859619141e+00 2.454398870468139648e+00 -1.222788840532302856e-01
3.703000000000000000e+03 5.115107727050781250e+01 2.408632516860961914e+00 5.829598903656005859e-01 7.572438240051269531e+00 2.446619510650634766e+00 5.200914666056632996e-02
3.704000000000000000e+03 5.029211807250976562e+01 1.475348234176635742e+00 6.277561187744140625e-01 7.571559429168701172e+00 2.459794759750366211e+00 1.449533924460411072e-02
3.705000000000000000e+03 4.244393920898437500e+01 -6.407120704650878906e+00 8.269500732421875000e-01 7.684738636016845703e+00 2.553506612777709961e+00 -3.316841125488281250e-01
3.706000000000000000e+03 4.883274841308593750e+01 8.332818031311035156e+00 5.512664318084716797e-01 7.619136810302734375e+00 2.451120853424072266e+00 2.732202708721160889e-01
3.707000000000000000e+03 5.090312194824218750e+01 -4.738479614257812500e+00 5.562953352928161621e-01 7.582685947418212891e+00 2.441694498062133789e+00 -2.134812921285629272e-01
3.708000000000000000e+03 5.181620025634765625e+01 1.105541419982910156e+01 3.920382857322692871e-01 7.633595943450927734e+00 2.407690286636352539e+00 3.228396773338317871e-01
3.709000000000000000e+03 4.884200286865234375e+01 9.666769027709960938e+00 5.153045058250427246e-01 7.632460117340087891e+00 2.444329500198364258e+00 3.114505708217620850e-01
3.710000000000000000e+03 4.709133148193359375e+01 6.519727706909179688e+00 6.772665381431579590e-01 7.616511821746826172e+00 2.488133430480957031e+00 2.310523092746734619e-01
3.711000000000000000e+03 5.766623687744140625e+01 -2.106801605224609375e+01 -2.800455130636692047e-02 7.763235092163085938e+00 2.320569276809692383e+00 -3.962783813476562500e-01
3.712000000000000000e+03 5.035486221313476562e+01 -8.952336311340332031e+00 4.568953514099121094e-01 7.620100975036621094e+00 2.423098802566528320e+00 -3.519064188003540039e-01
3.713000000000000000e+03 4.808621215820312500e+01 1.084930658340454102e+00 7.195081710815429688e-01 7.581843852996826172e+00 2.490405559539794922e+00 6.839262321591377258e-03
3.714000000000000000e+03 4.658912277221679688e+01 8.178854942321777344e+00 6.341113448143005371e-01 7.637587547302246094e+00 2.481509685516357422e+00 3.010882735252380371e-01
3.715000000000000000e+03 4.615102386474609375e+01 1.193922328948974609e+01 4.902603030204772949e-01 7.684206962585449219e+00 2.452340126037597656e+00 4.125880897045135498e-01
3.716000000000000000e+03 4.717851257324218750e+01 -1.368587779998779297e+01 3.143624365329742432e-01 7.688008308410644531e+00 2.400711297988891602e+00 -4.896578490734100342e-01
3.717000000000000000e+03 4.982534790039062500e+01 -1.350405120849609375e+01 2.839698493480682373e-01 7.674942970275878906e+00 2.387673854827880859e+00 -4.552893042564392090e-01
3.718000000000000000e+03 4.997001266479492188e+01 3.704923391342163086e+00 6.195813417434692383e-01 7.579653263092041016e+00 2.459770441055297852e+00 1.023869737982749939e-01
3.719000000000000000e+03 4.683905410766601562e+01 -1.073095130920410156e+01 4.702459275722503662e-01 7.658063411712646484e+00 2.438492774963378906e+00 -4.362128078937530518e-01
3.720000000000000000e+03 4.966439056396484375e+01 1.702659726142883301e-01 6.594833135604858398e-01 7.571150779724121094e+00 2.469190359115600586e+00 -2.930159308016300201e-02
3.721000000000000000e+03 4.778777313232421875e+01 8.354823112487792969e+00 5.891001820564270020e-01 7.629145622253417969e+00 2.465473651885986328e+00 2.875453233718872070e-01
3.722000000000000000e+03 4.657846069335937500e+01 9.673406600952148438e+00 5.737833380699157715e-01 7.654133319854736328e+00 2.468374967575073242e+00 3.415903449058532715e-01
3.723000000000000000e+03 4.122114181518554688e+01 -4.601773738861083984e+00 9.463762640953063965e-01 7.710216522216796875e+00 2.596977710723876953e+00 -2.577996551990509033e-01
3.724000000000000000e+03 4.768253326416015625e+01 9.556154251098632812e+00 5.508425235748291016e-01 7.642306804656982422e+00 2.457944869995117188e+00 3.234593570232391357e-01
3.725000000000000000e+03 4.314079666137695312e+01 1.075078964233398438e+01 6.273930668830871582e-01 7.708961009979248047e+00 2.500906229019165039e+00 4.100240767002105713e-01
3.726000000000000000e+03 4.513082504272460938e+01 1.032375907897949219e+01 5.886783003807067871e-01 7.676498889923095703e+00 2.479553222656250000e+00 3.806498050689697266e-01
3.727000000000000000e+03 4.394138336181640625e+01 -7.904619216918945312e+00 6.910561919212341309e-01 7.664690971374511719e+00 2.506724119186401367e+00 -3.798875510692596436e-01
3.728000000000000000e+03 4.203479766845703125e+01 -1.357180404663085938e+01 4.047506749629974365e-01 7.740539550781250000e+00 2.443587064743041992e+00 -5.338618159294128418e-01
3.729000000000000000e+03 4.891480255126953125e+01 -7.741641044616699219e+00 5.389435291290283203e-01 7.614801883697509766e+00 2.446123600006103516e+00 -3.320848047733306885e-01
3.730000000000000000e+03 4.851882171630859375e+01 1.114203548431396484e+01 4.745810925960540771e-01 7.649901866912841797e+00 2.437345027923583984e+00 3.625670969486236572e-01
3.731000000000000000e+03 4.617924118041992188e+01 -5.289308547973632812e+00 7.179608941078186035e-01 7.616705417633056641e+00 2.500399827957153320e+00 -2.643142640590667725e-01
3.732000000000000000e+03 4.645796585083007812e+01 -7.919924736022949219e+00 6.082776784896850586e-01 7.634415149688720703e+00 2.472807884216308594e+00 -3.602055907249450684e-01
3.733000000000000000e+03 5.511971282958984375e+01 1.291361713409423828e+01 2.648046910762786865e-01 7.647574424743652344e+00 2.373713731765747070e+00 3.203548491001129150e-01
3.734000000000000000e+03 5.169308853149414062e+01 1.300212860107421875e+01 3.229040801525115967e-01 7.658363342285156250e+00 2.394380092620849609e+00 3.666434884071350098e-01
3.735000000000000000e+03 5.948460006713867188e+01 -2.642773437500000000e+01 -1.490465253591537476e-01 7.828408241271972656e+00 2.303808450698852539e+00 -3.333671092987060547e-01
3.736000000000000000e+03 4.323308944702148438e+01 -1.218311309814453125e+01 4.702115058898925781e-01 7.711336612701416016e+00 2.454464435577392578e+00 -5.010725855827331543e-01
3.737000000000000000e+03 4.539672851562500000e+01 -9.328649520874023438e+00 5.800521969795227051e-01 7.656449794769287109e+00 2.470950603485107422e+00 -4.114419221878051758e-01
3.738000000000000000e+03 4.131648635864257812e+01 -8.020343780517578125e+00 7.858571410179138184e-01 7.716997623443603516e+00 2.550856351852416992e+00 -3.938704431056976318e-01
3.739000000000000000e+03 5.005902099609375000e+01 1.127277565002441406e+01 4.268365800380706787e-01 7.642435073852539062e+00 2.420781612396240234e+00 3.463864922523498535e-01
3.740000000000000000e+03 5.456415939331054688e+01 1.534821224212646484e+01 2.019814550876617432e-01 7.679579734802246094e+00 2.364468336105346680e+00 3.704521358013153076e-01
3.741000000000000000e+03 5.367113494873046875e+01 1.247803592681884766e+01 2.981852591037750244e-01 7.645689487457275391e+00 2.383162498474121094e+00 3.288148343563079834e-01
3.742000000000000000e+03 4.456748580932617188e+01 -1.364072418212890625e+01 3.605581820011138916e-01 7.706374168395996094e+00 2.420079708099365234e+00 -5.147175788879394531e-01
3.743000000000000000e+03 4.789086151123046875e+01 -9.241898536682128906e+00 5.128297209739685059e-01 7.634796619415283203e+00 2.444288015365600586e+00 -3.855754733085632324e-01
3.744000000000000000e+03 4.092077255249023438e+01 -1.218736934661865234e+01 5.098823904991149902e-01 7.747420787811279297e+00 2.477190971374511719e+00 -5.207239985466003418e-01
3.745000000000000000e+03 4.189931869506835938e+01 -1.083821296691894531e+01 5.919526815414428711e-01 7.720902919769287109e+00 2.493856668472290039e+00 -4.871263504028320312e-01
3.746000000000000000e+03 3.969936370849609375e+01 -1.300710773468017578e+01 4.763833582401275635e-01 7.782968521118164062e+00 2.477805614471435547e+00 -5.433452129364013672e-01
3.747000000000000000e+03 5.294800949096679688e+01 1.625157546997070312e+01 1.768685728311538696e-01 7.697402954101562500e+00 2.362281560897827148e+00 3.981103897094726562e-01
3.748000000000000000e+03 4.785613250732421875e+01 1.278203487396240234e+01 4.047991931438446045e-01 7.679392814636230469e+00 2.425257444381713867e+00 4.115084409713745117e-01
3.749000000000000000e+03 4.433052825927734375e+01 -1.075658798217773438e+01 5.315404534339904785e-01 7.682306289672851562e+00 2.464154005050659180e+00 -4.615126252174377441e-01
3.750000000000000000e+03 4.724565505981445312e+01 1.067614555358886719e+01 5.245949029922485352e-01 7.657431125640869141e+00 2.454607725143432617e+00 3.597146868705749512e-01
3.751000000000000000e+03 5.152175140380859375e+01 1.739263153076171875e+01 1.445884704589843750e-01 7.717339038848876953e+00 2.358578205108642578e+00 4.291186034679412842e-01
3.752000000000000000e+03 5.256103515625000000e+01 2.070708274841308594e+01 1.499465666711330414e-02 7.754466533660888672e+00 2.330838203430175781e+00 4.298429489135742188e-01
3.753000000000000000e+03 4.502868652343750000e+01 1.386592769622802734e+01 4.154173135757446289e-01 7.715483665466308594e+00 2.439270257949829102e+00 4.572705924510955811e-01
3.754000000000000000e+03 5.348858261108398438e+01 1.912754058837890625e+01 7.598530501127243042e-02 7.731270313262939453e+00 2.342176675796508789e+00 4.090651869773864746e-01
3.755000000000000000e+03 4.895278549194335938e+01 -1.858292198181152344e+01 4.738116264343261719e-02 7.739219188690185547e+00 2.335980176925659180e+00 -5.008029341697692871e-01
3.756000000000000000e+03 4.593869781494140625e+01 -1.521252536773681641e+01 2.446483224630355835e-01 7.710574150085449219e+00 2.386566877365112305e+00 -5.237426757812500000e-01
3.757000000000000000e+03 3.072896003723144531e+01 4.823255062103271484e+00 1.373164653778076172e+00 8.562486648559570312e+00 2.980695247650146484e+00 1.170626208186149597e-01
3.758000000000000000e+03 5.833344268798828125e+01 2.117472076416015625e+01 2.444820944219827652e-03 7.747116088867187500e+00 2.324868440628051758e+00 3.565625846385955811e-01
3.759000000000000000e+03 6.606118774414062500e+01 2.466705322265625000e+01 -4.284763336181640625e-02 7.775997161865234375e+00 2.319944858551025391e+00 2.468438893556594849e-01
3.760000000000000000e+03 4.783771896362304688e+01 1.756804847717285156e+01 1.761320978403091431e-01 7.737140655517578125e+00 2.373981714248657227e+00 4.776294231414794922e-01
3.761000000000000000e+03 4.044165802001953125e+01 1.555102443695068359e+01 3.645678758621215820e-01 7.794828414916992188e+00 2.447818994522094727e+00 5.284584164619445801e-01
3.762000000000000000e+03 6.327706146240234375e+01 -3.134905052185058594e+01 -1.599158793687820435e-01 7.883741378784179688e+00 2.317147731781005859e+00 -2.191513925790786743e-01
3.763000000000000000e+03 1.298377895355224609e+01 -3.162860870361328125e+01 -4.120682179927825928e-01 3.549322843551635742e+00 9.411763548851013184e-01 6.310260891914367676e-01
3.764000000000000000e+03 1.618966293334960938e+01 -3.531361389160156250e+01 -6.435811519622802734e-01 4.395348548889160156e+00 1.125530242919921875e+00 3.638487160205841064e-01
3.765000000000000000e+03 5.380578994750976562e+01 2.144730758666992188e+01 -1.105326693505048752e-02 7.761929035186767578e+00 2.325262784957885742e+00 4.110188186168670654e-01
3.766000000000000000e+03 3.101994514465332031e+01 2.997059059143066406e+01 -8.035040497779846191e-01 7.367156028747558594e+00 1.969095587730407715e+00 1.812236309051513672e-01
3.767000000000000000e+03 2.697953033447265625e+01 2.761276245117187500e+01 -7.548382878303527832e-01 7.126605033874511719e+00 1.911530017852783203e+00 -1.219652686268091202e-02
3.768000000000000000e+03 2.888531875610351562e+01 -2.730751419067382812e+01 -7.793577313423156738e-01 7.130248069763183594e+00 1.905267119407653809e+00 -4.845467954874038696e-02
3.769000000000000000e+03 6.810661315917968750e+01 -3.645205307006835938e+01 -1.067585423588752747e-01 7.948409557342529297e+00 2.352495193481445312e+00 -1.013187989592552185e-01
3.770000000000000000e+03 4.323161315917968750e+01 1.856703567504882812e+01 1.242713779211044312e-01 7.781695365905761719e+00 2.371789932250976562e+00 5.357985496520996094e-01
3.771000000000000000e+03 5.072446441650390625e+01 -2.023182678222656250e+01 -1.909060031175613403e-02 7.754682064056396484e+00 2.320677280426025391e+00 -4.783965647220611572e-01
3.772000000000000000e+03 5.388269042968750000e+01 -2.573196792602539062e+01 -1.876534819602966309e-01 7.813605308532714844e+00 2.287785530090332031e+00 -3.987852036952972412e-01
3.773000000000000000e+03 6.157054138183593750e+01 -1.966742134094238281e+01 8.031390607357025146e-03 7.746984481811523438e+00 2.326504707336425781e+00 -3.482152223587036133e-01
3.774000000000000000e+03 3.895017242431640625e+01 -1.583192443847656250e+01 2.411728501319885254e-01 7.789106845855712891e+00 2.409084081649780273e+00 -5.648118257522583008e-01
3.775000000000000000e+03 4.194225311279296875e+01 -1.642096328735351562e+01 1.926771849393844604e-01 7.756677150726318359e+00 2.384806156158447266e+00 -5.637323260307312012e-01
3.776000000000000000e+03 2.485367584228515625e+01 3.294328308105468750e+01 -9.404978752136230469e-01 6.560307979583740234e+00 1.685943007469177246e+00 -1.798220276832580566e-01
3.777000000000000000e+03 5.954778289794921875e+01 -2.144788169860839844e+01 -3.041578084230422974e-02 7.767802715301513672e+00 2.321216106414794922e+00 -3.705801069736480713e-01
3.778000000000000000e+03 5.999924850463867188e+01 2.317069625854492188e+01 -4.779175668954849243e-02 7.769882678985595703e+00 2.316627264022827148e+00 3.256521522998809814e-01
3.779000000000000000e+03 6.040143966674804688e+01 -3.427463150024414062e+01 -2.387238144874572754e-01 7.896632671356201172e+00 2.297372579574584961e+00 -1.897975504398345947e-01
3.780000000000000000e+03 6.019338989257812500e+01 -3.088787841796875000e+01 -2.076152712106704712e-01 7.872070312500000000e+00 2.299336433410644531e+00 -2.550436854362487793e-01
3.781000000000000000e+03 6.211242294311523438e+01 3.176217842102050781e+01 -1.690924018621444702e-01 7.853870868682861328e+00 2.305433511734008789e+00 2.128160446882247925e-01
3.782000000000000000e+03 6.103837585449218750e+01 2.863124656677246094e+01 -1.369160413742065430e-01 7.826195716857910156e+00 2.306783914566040039e+00 2.672890126705169678e-01
3.783000000000000000e+03 5.201595306396484375e+01 -1.812982749938964844e+01 6.701186299324035645e-02 7.730303287506103516e+00 2.339194536209106445e+00 -4.649797677993774414e-01
3.784000000000000000e+03 3.280947875976562500e+01 -1.745242881774902344e+01 4.293844103813171387e-02 7.848341941833496094e+00 2.367384195327758789e+00 -4.574204087257385254e-01
3.785000000000000000e+03 3.484695434570312500e+01 -2.112988281250000000e+01 -2.443350553512573242e-01 7.751433849334716797e+00 2.252129554748535156e+00 -4.601521790027618408e-01
3.786000000000000000e+03 4.697553634643554688e+01 1.471957969665527344e+01 3.382573425769805908e-01 7.704863548278808594e+00 2.412936210632324219e+00 4.514728188514709473e-01
3.787000000000000000e+03 1.343244266510009766e+01 -3.716622924804687500e+01 -5.093298554420471191e-01 3.726912975311279297e+00 9.652749300003051758e-01 3.258484601974487305e-01
3.788000000000000000e+03 3.701041793823242188e+01 2.609420967102050781e+01 -4.687059223651885986e-01 7.734762191772460938e+00 2.179816722869873047e+00 4.244207441806793213e-01
3.789000000000000000e+03 5.976232910156250000e+01 2.089692878723144531e+01 7.940438576042652130e-03 7.738895416259765625e+00 2.324050903320312500e+00 3.366327285766601562e-01
3.790000000000000000e+03 1.440661334991455078e+01 3.701379776000976562e+01 -5.659053921699523926e-01 3.932841300964355469e+00 1.010080695152282715e+00 -3.181315958499908447e-01
3.791000000000000000e+03 3.722616958618164062e+01 -1.857574844360351562e+01 3.320020390674471855e-03 7.795188426971435547e+00 2.339552640914916992e+00 -5.470885038375854492e-01
3.792000000000000000e+03 2.072936820983886719e+01 -3.013760757446289062e+01 -7.883480191230773926e-01 5.728499412536621094e+00 1.482045412063598633e+00 4.400289356708526611e-01
3.793000000000000000e+03 2.563327789306640625e+01 3.003828048706054688e+01 -9.079924821853637695e-01 6.772208690643310547e+00 1.759264826774597168e+00 -1.516143530607223511e-01
3.794000000000000000e+03 1.861047744750976562e+01 -3.018429756164550781e+01 -7.067341208457946777e-01 5.220829963684082031e+00 1.354228734970092773e+00 5.613515973091125488e-01
3.795000000000000000e+03 2.308974266052246094e+01 -3.683218002319335938e+01 -9.322530627250671387e-01 5.873987197875976562e+00 1.482520222663879395e+00 1.285277307033538818e-01
3.796000000000000000e+03 2.376900100708007812e+01 3.631221008300781250e+01 -9.661742448806762695e-01 6.134993076324462891e+00 1.550645589828491211e+00 -1.497321277856826782e-01
3.797000000000000000e+03 3.393380355834960938e+01 3.492322158813476562e+01 -9.235298037528991699e-01 7.445514202117919922e+00 1.956595301628112793e+00 1.499388813972473145e-01
3.798000000000000000e+03 4.349229431152343750e+01 -3.696004104614257812e+01 -7.396820783615112305e-01 7.748974800109863281e+00 2.102787733078002930e+00 -1.594963669776916504e-01
3.799000000000000000e+03 3.856205749511718750e+01 3.564927673339843750e+01 -8.260667324066162109e-01 7.681119918823242188e+00 2.056515932083129883e+00 1.975961476564407349e-01
3.800000000000000000e+03 4.312152099609375000e+01 3.655880355834960938e+01 -7.057117223739624023e-01 7.820292472839355469e+00 2.134374141693115234e+00 1.833440214395523071e-01
3.801000000000000000e+03 6.121190643310546875e+01 -3.770426559448242188e+01 -2.504881024360656738e-01 7.914805889129638672e+00 2.299295425415039062e+00 -1.088674813508987427e-01
3.802000000000000000e+03 5.683278274536132812e+01 -3.769919967651367188e+01 -3.567281961441040039e-01 7.899746894836425781e+00 2.262905597686767578e+00 -1.203316971659660339e-01
3.803000000000000000e+03 5.658411788940429688e+01 3.712199020385742188e+01 -3.346109390258789062e-01 7.896345615386962891e+00 2.268520355224609375e+00 1.327074915170669556e-01
3.804000000000000000e+03 6.080784606933593750e+01 3.659336090087890625e+01 -2.329747229814529419e-01 7.886830806732177734e+00 2.296156883239746094e+00 1.284448951482772827e-01
3.805000000000000000e+03 4.909843444824218750e+01 1.990866088867187500e+01 4.346729815006256104e-02 7.761408805847167969e+00 2.341462850570678711e+00 4.717901647090911865e-01
3.806000000000000000e+03 5.038412094116210938e+01 1.880708885192871094e+01 9.497669339179992676e-02 7.740328788757324219e+00 2.350591659545898438e+00 4.492976367473602295e-01
3.807000000000000000e+03 4.728343200683593750e+01 2.006594657897949219e+01 4.523706063628196716e-02 7.768962383270263672e+00 2.344259738922119141e+00 4.946538209915161133e-01
3.808000000000000000e+03 5.794114685058593750e+01 2.340610313415527344e+01 -6.291044503450393677e-02 7.777807235717773438e+00 2.314469099044799805e+00 3.509160578250885010e-01
3.809000000000000000e+03 5.486615371704101562e+01 2.652829551696777344e+01 -1.682867705821990967e-01 7.819186210632324219e+00 2.295269727706909180e+00 3.591832220554351807e-01
3.810000000000000000e+03 4.133523559570312500e+01 1.743186187744140625e+01 2.203374505043029785e-01 7.795351028442382812e+00 2.404706478118896484e+00 5.479026436805725098e-01
3.811000000000000000e+03 4.418189239501953125e+01 1.623832702636718750e+01 2.957515120506286621e-01 7.748741149902343750e+00 2.413347959518432617e+00 5.088269710540771484e-01
3.812000000000000000e+03 4.457041549682617188e+01 -1.663495635986328125e+01 1.600413471460342407e-01 7.735809326171875000e+00 2.368755102157592773e+00 -5.455915927886962891e-01
3.813000000000000000e+03 4.145039749145507812e+01 -1.829702186584472656e+01 5.880215391516685486e-02 7.769061565399169922e+00 2.348359107971191406e+00 -5.599279999732971191e-01
3.814000000000000000e+03 4.063759613037109375e+01 -1.491495418548583984e+01 3.042170703411102295e-01 7.771569252014160156e+00 2.422735929489135742e+00 -5.594873428344726562e-01
3.815000000000000000e+03 4.076277160644531250e+01 2.362872314453125000e+01 -2.308392375707626343e-01 7.807520866394042969e+00 2.273004531860351562e+00 5.026457309722900391e-01
3.816000000000000000e+03 4.000544738769531250e+01 1.953042793273925781e+01 5.920236930251121521e-02 7.803355693817138672e+00 2.358767271041870117e+00 5.454059243202209473e-01
3.817000000000000000e+03 3.943927383422851562e+01 -1.840507698059082031e+01 4.020176455378532410e-02 7.782320976257324219e+00 2.346756935119628906e+00 -5.596745014190673828e-01
3.818000000000000000e+03 4.912260437011718750e+01 -2.239229583740234375e+01 -1.269435435533523560e-01 7.778725624084472656e+00 2.295534610748291016e+00 -4.819462895393371582e-01
3.819000000000000000e+03 6.395908737182617188e+01 3.508824920654296875e+01 -1.625281721353530884e-01 7.874480724334716797e+00 2.313585758209228516e+00 1.390417814254760742e-01
3.820000000000000000e+03 4.587138748168945312e+01 -1.846858978271484375e+01 4.846735298633575439e-02 7.742369174957275391e+00 2.337250947952270508e+00 -5.322561860084533691e-01
3.821000000000000000e+03 4.433717727661132812e+01 2.208648300170898438e+01 -8.739138394594192505e-02 7.802037715911865234e+00 2.314393997192382812e+00 5.131176710128784180e-01
3.822000000000000000e+03 5.928897857666015625e+01 3.282985687255859375e+01 -2.269917428493499756e-01 7.866532325744628906e+00 2.291862249374389648e+00 2.172895520925521851e-01
3.823000000000000000e+03 3.689130783081054688e+01 2.329513931274414062e+01 -2.764430046081542969e-01 7.781727790832519531e+00 2.251585483551025391e+00 4.777607619762420654e-01
3.824000000000000000e+03 2.561394309997558594e+01 -3.018767738342285156e+01 -8.836389183998107910e-01 6.590888023376464844e+00 1.712174773216247559e+00 1.598301380872726440e-01
3.825000000000000000e+03 2.748543739318847656e+01 -2.919995307922363281e+01 -8.580680489540100098e-01 6.885692119598388672e+00 1.808287262916564941e+00 4.617007076740264893e-02
3.826000000000000000e+03 3.209515762329101562e+01 -2.620972251892089844e+01 -6.668414473533630371e-01 7.479724407196044922e+00 2.043864965438842773e+00 -2.485637366771697998e-01
3.827000000000000000e+03 3.738037872314453125e+01 -2.130845642089843750e+01 -2.084601968526840210e-01 7.766913414001464844e+00 2.267535924911499023e+00 -5.088441967964172363e-01
3.828000000000000000e+03 3.274055099487304688e+01 -2.372735786437988281e+01 -4.995850920677185059e-01 7.592144966125488281e+00 2.127768039703369141e+00 -3.295416831970214844e-01
3.829000000000000000e+03 1.991413879394531250e+01 3.246202468872070312e+01 -8.038297295570373535e-01 5.455295562744140625e+00 1.395439743995666504e+00 -4.054847955703735352e-01
3.830000000000000000e+03 5.687110137939453125e+01 -2.665339088439941406e+01 -1.793961077928543091e-01 7.826522350311279297e+00 2.294137716293334961e+00 -3.611058294773101807e-01
3.831000000000000000e+03 2.591113662719726562e+01 -2.802923774719238281e+01 -8.175656199455261230e-01 6.747292518615722656e+00 1.778918027877807617e+00 1.519103050231933594e-01
3.832000000000000000e+03 2.322904586791992188e+01 -3.017000961303710938e+01 -8.526622056961059570e-01 6.198498725891113281e+00 1.603750944137573242e+00 3.212505578994750977e-01
3.833000000000000000e+03 5.252645492553710938e+01 -2.884822082519531250e+01 -3.175121843814849854e-01 7.839057922363281250e+00 2.256463766098022461e+00 -3.592366576194763184e-01
3.834000000000000000e+03 4.735064697265625000e+01 -2.043280982971191406e+01 -4.592295736074447632e-02 7.760632514953613281e+00 2.314412832260131836e+00 -5.132274627685546875e-01
3.835000000000000000e+03 4.523249435424804688e+01 1.945260047912597656e+01 7.297080010175704956e-02 7.777235507965087891e+00 2.355062007904052734e+00 5.144259333610534668e-01
3.836000000000000000e+03 5.508109664916992188e+01 2.202228164672851562e+01 -2.596496231853961945e-02 7.765817642211914062e+00 2.321955919265747070e+00 3.984258174896240234e-01
3.837000000000000000e+03 4.409413528442382812e+01 -1.984126281738281250e+01 -2.948471903800964355e-02 7.757861614227294922e+00 2.318513154983520508e+00 -5.405989885330200195e-01
3.838000000000000000e+03 3.753054046630859375e+01 -2.435999298095703125e+01 -4.235329031944274902e-01 7.719069480895996094e+00 2.188660860061645508e+00 -4.449743926525115967e-01
3.839000000000000000e+03 5.832976150512695312e+01 2.940951347351074219e+01 -1.916853189468383789e-01 7.842469692230224609e+00 2.295235395431518555e+00 2.827814817428588867e-01
3.840000000000000000e+03 5.473075103759765625e+01 2.386556625366210938e+01 -9.235195815563201904e-02 7.791194438934326172e+00 2.309652805328369141e+00 3.870013952255249023e-01
3.841000000000000000e+03 5.630835342407226562e+01 2.279297828674316406e+01 -5.986373871564865112e-02 7.775447368621826172e+00 2.314675092697143555e+00 3.744623363018035889e-01
3.842000000000000000e+03 5.146053314208984375e+01 2.416055107116699219e+01 -1.256849914789199829e-01 7.799945831298828125e+00 2.302278280258178711e+00 4.202818572521209717e-01
3.843000000000000000e+03 3.948839187622070312e+01 2.656268310546875000e+01 -4.239958822727203369e-01 7.792575359344482422e+00 2.210573911666870117e+00 4.461052715778350830e-01
3.844000000000000000e+03 4.795299911499023438e+01 3.342166900634765625e+01 -5.034030675888061523e-01 7.871682167053222656e+00 2.210483789443969727e+00 2.663684785366058350e-01
3.845000000000000000e+03 3.091658401489257812e+01 -2.879913711547851562e+01 -8.077984452247619629e-01 7.255418300628662109e+00 1.934285998344421387e+00 -1.443598866462707520e-01
3.846000000000000000e+03 3.522270584106445312e+01 -1.599370670318603516e+01 2.451682388782501221e-01 7.872714042663574219e+00 2.435364723205566406e+00 -5.396480560302734375e-01
3.847000000000000000e+03 5.460769271850585938e+01 1.976430130004882812e+01 4.936801642179489136e-02 7.737183094024658203e+00 2.335965394973754883e+00 4.006776213645935059e-01
3.848000000000000000e+03 3.032180595397949219e+01 3.396780014038085938e+01 -9.817327857017517090e-01 7.166797161102294922e+00 1.855519413948059082e+00 9.432832896709442139e-02
3.849000000000000000e+03 2.901934051513671875e+01 -3.121745300292968750e+01 -9.119597077369689941e-01 6.959743022918701172e+00 1.814334988594055176e+00 -2.043495513498783112e-02
3.850000000000000000e+03 5.032730102539062500e+01 -3.159430694580078125e+01 -4.317049384117126465e-01 7.842883110046386719e+00 2.223353385925292969e+00 -3.041251599788665771e-01
3.851000000000000000e+03 4.856151580810546875e+01 -3.426810073852539062e+01 -5.376213788986206055e-01 7.837759017944335938e+00 2.190041303634643555e+00 -2.387540489435195923e-01
3.852000000000000000e+03 4.940962600708007812e+01 -2.678933525085449219e+01 -2.982338666915893555e-01 7.813641071319580078e+00 2.254622220993041992e+00 -4.241153895854949951e-01
3.853000000000000000e+03 3.111185455322265625e+01 -3.371728134155273438e+01 -9.518802165985107422e-01 7.104472160339355469e+00 1.845777630805969238e+00 -7.836177945137023926e-02
3.854000000000000000e+03 4.590881729125976562e+01 2.595524978637695312e+01 -2.669107615947723389e-01 7.824561595916748047e+00 2.267295122146606445e+00 4.461131393909454346e-01
3.855000000000000000e+03 4.201414108276367188e+01 2.805625152587890625e+01 -4.353531301021575928e-01 7.818810462951660156e+00 2.215037107467651367e+00 4.197803735733032227e-01
3.856000000000000000e+03 4.204412078857421875e+01 -2.077079582214355469e+01 -1.121414080262184143e-01 7.771826744079589844e+00 2.297905683517456055e+00 -5.412660837173461914e-01
3.857000000000000000e+03 3.979143905639648438e+01 -2.121847724914550781e+01 -1.722194701433181763e-01 7.770680427551269531e+00 2.279538393020629883e+00 -5.305242538452148438e-01
3.858000000000000000e+03 4.537955474853515625e+01 -2.216190528869628906e+01 -1.622195988893508911e-01 7.769131183624267578e+00 2.282073497772216797e+00 -5.145360827445983887e-01
3.859000000000000000e+03 4.914966964721679688e+01 2.369909667968750000e+01 -1.213982924818992615e-01 7.801378726959228516e+00 2.303994178771972656e+00 4.497198462486267090e-01
3.860000000000000000e+03 5.011277389526367188e+01 2.147084236145019531e+01 -1.622279919683933258e-02 7.775536537170410156e+00 2.327794075012207031e+00 4.598791003227233887e-01
3.861000000000000000e+03 3.762827682495117188e+01 2.917922210693359375e+01 -6.371883749961853027e-01 7.711689949035644531e+00 2.122350454330444336e+00 3.466259241104125977e-01
3.862000000000000000e+03 3.445344924926757812e+01 3.026015853881835938e+01 -7.421507835388183594e-01 7.599987506866455078e+00 2.057351112365722656e+00 2.730718851089477539e-01
3.863000000000000000e+03 5.183105850219726562e+01 3.011899948120117188e+01 -3.213513493537902832e-01 7.859565734863281250e+00 2.261464357376098633e+00 3.263078331947326660e-01
3.864000000000000000e+03 5.215637588500976562e+01 3.724781036376953125e+01 -4.515745043754577637e-01 7.900393962860107422e+00 2.234645843505859375e+00 1.451066881418228149e-01
3.865000000000000000e+03 2.763118743896484375e+01 3.319381332397460938e+01 -9.789536595344543457e-01 6.867438793182373047e+00 1.766545534133911133e+00 -2.930700220167636871e-02
3.866000000000000000e+03 3.641122055053710938e+01 -3.144088363647460938e+01 -7.818415164947509766e-01 7.537892818450927734e+00 2.026815414428710938e+00 -2.469992786645889282e-01
3.867000000000000000e+03 5.240210723876953125e+01 -3.773027038574218750e+01 -4.649465382099151611e-01 7.878755569458007812e+00 2.224142789840698242e+00 -1.331018507480621338e-01
3.868000000000000000e+03 4.673386764526367188e+01 2.291112518310546875e+01 -1.140376254916191101e-01 7.803248405456542969e+00 2.306763410568237305e+00 4.817916452884674072e-01
3.869000000000000000e+03 5.172666168212890625e+01 2.679482650756835938e+01 -2.201219201087951660e-01 7.830156803131103516e+00 2.283010482788085938e+00 3.917893469333648682e-01
3.870000000000000000e+03 4.399631500244140625e+01 3.274702835083007812e+01 -6.034187078475952148e-01 7.830132484436035156e+00 2.168014049530029297e+00 2.959679961204528809e-01
3.871000000000000000e+03 4.467807388305664062e+01 -3.299381256103515625e+01 -6.129450201988220215e-01 7.780327796936035156e+00 2.150214910507202148e+00 -2.796264588832855225e-01
3.872000000000000000e+03 4.299357604980468750e+01 -2.356456947326660156e+01 -2.714865803718566895e-01 7.770337581634521484e+00 2.249655246734619141e+00 -5.004260540008544922e-01
3.873000000000000000e+03 5.220522689819335938e+01 -3.433302688598632812e+01 -4.323853850364685059e-01 7.866067886352539062e+00 2.230104923248291016e+00 -2.276039421558380127e-01
3.874000000000000000e+03 3.734841537475585938e+01 -2.774007415771484375e+01 -6.180462241172790527e-01 7.641865730285644531e+00 2.107145786285400391e+00 -3.459788560867309570e-01
3.875000000000000000e+03 4.707245635986328125e+01 -2.457342910766601562e+01 -2.464266568422317505e-01 7.792110443115234375e+00 2.263705253601074219e+00 -4.688149988651275635e-01
3.876000000000000000e+03 4.687009048461914062e+01 -2.952374839782714844e+01 -4.546133875846862793e-01 7.805345058441162109e+00 2.205219507217407227e+00 -3.754169344902038574e-01
3.877000000000000000e+03 4.083118820190429688e+01 -2.792280197143554688e+01 -5.325313210487365723e-01 7.731841564178466797e+00 2.159793138504028320e+00 -3.937597870826721191e-01
3.878000000000000000e+03 4.433166885375976562e+01 -2.676243782043457031e+01 -4.097223877906799316e-01 7.779280185699462891e+00 2.210867404937744141e+00 -4.358045756816864014e-01
3.879000000000000000e+03 7.100250244140625000e+00 1.654251098632812500e+01 -7.982210069894790649e-02 -2.551721967756748199e-02 -3.160179778933525085e-02 -1.163091957569122314e-01
3.880000000000000000e+03 7.845126152038574219e+00 -3.875509262084960938e+01 -2.141037285327911377e-01 2.185179710388183594e+00 5.913227796554565430e-01 2.006030380725860596e-01
3.881000000000000000e+03 7.692667007446289062e+00 -1.947335243225097656e+01 4.565386176109313965e-01 3.671481311321258545e-01 2.471060305833816528e-01 4.855655133724212646e-01
3.882000000000000000e+03 1.297765374183654785e+00 -3.052797555923461914e+00 2.013157500186935067e-04 2.686899970285594463e-04 1.410017284797504544e-04 2.237867884105071425e-04
3.883000000000000000e+03 7.892021179199218750e+01 3.864313125610351562e+01 -1.403437345288693905e-03 8.045968055725097656e+00 2.413369417190551758e+00 9.479156695306301117e-03
3.884000000000000000e+03 1.311333417892456055e+00 3.805318832397460938e+01 1.476192846894264221e-02 5.463833212852478027e-01 1.683435738086700439e-01 -4.647274687886238098e-02
3.885000000000000000e+03 7.589392852783203125e+01 -3.774265670776367188e+01 -1.561163924634456635e-02 8.086143493652343750e+00 2.421159505844116211e+00 -3.197322040796279907e-02
3.886000000000000000e+03 2.075520753860473633e+00 -3.770274734497070312e+01 -2.698367834091186523e-02 9.583263397216796875e-01 2.794027924537658691e-01 7.045350223779678345e-02
3.887000000000000000e+03 8.954674720764160156e+00 -2.081601333618164062e+01 5.055760145187377930e-01 1.230450034141540527e+00 5.208078026771545410e-01 9.385270476341247559e-01
3.888000000000000000e+03 6.932534217834472656e+00 -1.944841957092285156e+01 3.798179626464843750e-01 2.671432793140411377e-01 1.940883696079254150e-01 2.483288943767547607e-01
3.889000000000000000e+03 2.455118417739868164e+00 3.733949279785156250e+01 -3.284006565809249878e-02 8.180239200592041016e-01 2.355551570653915405e-01 -8.945004642009735107e-02
3.890000000000000000e+03 1.982346177101135254e+00 3.888634490966796875e+01 3.054064465686678886e-03 6.909173727035522461e-01 2.081914246082305908e-01 -2.539388462901115417e-02
3.891000000000000000e+03 7.004681587219238281e+00 -2.026084327697753906e+01 4.006213843822479248e-01 4.673932194709777832e-01 2.604043781757354736e-01 3.544782400131225586e-01
3.892000000000000000e+03 1.047929000854492188e+01 -1.977500915527343750e+01 5.778784155845642090e-01 1.964703679084777832e+00 7.627745866775512695e-01 1.317535996437072754e+00
3.893000000000000000e+03 1.191353416442871094e+01 2.088793563842773438e+01 5.520729422569274902e-01 2.388348817825317383e+00 8.821265697479248047e-01 -1.562304019927978516e+00
3.894000000000000000e+03 7.734500885009765625e+01 -3.394269561767578125e+01 -6.103627849370241165e-03 8.076638221740722656e+00 2.421160221099853516e+00 -4.253598675131797791e-02
3.895000000000000000e+03 6.028534889221191406e+00 3.305272674560546875e+01 -7.429374754428863525e-02 1.447496652603149414e+00 4.119608700275421143e-01 -3.552149832248687744e-01
3.896000000000000000e+03 5.168773174285888672e+00 1.197340297698974609e+01 -7.662720978260040283e-03 -2.300711115822196007e-03 -2.989029744639992714e-03 -5.500519764609634876e-04
3.897000000000000000e+03 2.026932144165039062e+01 -2.748738479614257812e+01 -6.967611312866210938e-01 5.804306030273437500e+00 1.532263398170471191e+00 5.751469135284423828e-01
3.898000000000000000e+03 3.561327219009399414e+00 -1.275287437438964844e+01 -1.510138809680938721e-02 3.903939388692378998e-03 -3.359234426170587540e-03 -3.524037543684244156e-03
3.899000000000000000e+03 2.069783973693847656e+01 6.968653678894042969e+00 1.050814986228942871e+00 1.141347026824951172e+01 3.739285469055175781e+00 -1.327678680419921875e+00
3.900000000000000000e+03 3.283879995346069336e+00 1.472377014160156250e+01 -3.145711869001388550e-02 1.130795665085315704e-02 -6.044748704880475998e-03 1.437227148562669754e-02
3.901000000000000000e+03 3.255807161331176758e+00 1.234379386901855469e+01 -6.943660788238048553e-03 -1.009809551760554314e-03 -2.386040985584259033e-03 2.060838043689727783e-03
3.902000000000000000e+03 1.941081047058105469e+01 2.433055877685546875e+01 -5.067420601844787598e-01 6.055090427398681641e+00 1.664504408836364746e+00 -8.268258571624755859e-01
3.903000000000000000e+03 1.310226821899414062e+01 2.304746246337890625e+01 1.401030123233795166e-01 3.375519275665283203e+00 1.054686665534973145e+00 -1.448245167732238770e+00
3.904000000000000000e+03 3.702046966552734375e+01 2.093524169921875000e+01 -8.566486090421676636e-02 7.816757678985595703e+00 2.319327831268310547e+00 5.240488052368164062e-01
3.905000000000000000e+03 5.300638580322265625e+01 2.324048614501953125e+01 -8.867661654949188232e-02 7.787137985229492188e+00 2.309538364410400391e+00 4.101357758045196533e-01
3.906000000000000000e+03 5.619427204132080078e+00 1.120814704895019531e+01 -4.375506658107042313e-03 -2.998515730723738670e-03 -2.212206600233912468e-03 -8.447603613603860140e-05
3.907000000000000000e+03 3.667615175247192383e+00 1.808941078186035156e+01 -4.951797798275947571e-02 6.707271933555603027e-02 5.266421940177679062e-03 8.515781164169311523e-02
3.908000000000000000e+03 3.357343196868896484e+00 -9.772891044616699219e+00 -1.377361826598644257e-03 -1.440982101485133171e-03 -8.455031784251332283e-04 -1.849508553277701139e-04
3.909000000000000000e+03 6.357809829711914062e+01 2.160059928894042969e+01 -9.515019133687019348e-03 7.743297100067138672e+00 2.320134639739990234e+00 2.873926460742950439e-01
3.910000000000000000e+03 6.458090972900390625e+01 1.902258682250976562e+01 3.077749349176883698e-02 7.707558155059814453e+00 2.321500778198242188e+00 2.710984349250793457e-01
3.911000000000000000e+03 3.167343378067016602e+00 1.150678062438964844e+01 -4.990734159946441650e-03 -8.052609628066420555e-04 -1.738798571750521660e-03 6.938427104614675045e-04
3.912000000000000000e+03 5.135928153991699219e+00 3.077090454101562500e+01 4.791748244315385818e-03 1.121324062347412109e+00 3.378347456455230713e-01 -3.512579798698425293e-01
3.913000000000000000e+03 7.657327270507812500e+01 -3.331034088134765625e+01 -1.330122910439968109e-02 8.048084259033203125e+00 2.410434961318969727e+00 -6.083272770047187805e-02
3.914000000000000000e+03 1.520660305023193359e+01 2.585144996643066406e+01 -3.118071258068084717e-01 4.455059528350830078e+00 1.242975711822509766e+00 -1.143164634704589844e+00
3.915000000000000000e+03 2.515836524963378906e+01 -2.241011238098144531e+01 -5.509478449821472168e-01 7.157785415649414062e+00 1.982051372528076172e+00 2.094573974609375000e-01
3.916000000000000000e+03 2.570380783081054688e+01 -2.114718437194824219e+01 -4.376683831214904785e-01 7.363361835479736328e+00 2.077708005905151367e+00 1.245955750346183777e-01
3.917000000000000000e+03 1.792326545715332031e+01 -2.388049316406250000e+01 -4.574754238128662109e-01 5.512430667877197266e+00 1.516486525535583496e+00 9.294841885566711426e-01
3.918000000000000000e+03 4.061805343627929688e+01 1.307495021820068359e+01 5.597146153450012207e-01 7.775098800659179688e+00 2.500443935394287109e+00 4.863642752170562744e-01
3.919000000000000000e+03 2.064588546752929688e+01 -2.326408004760742188e+01 -5.327616333961486816e-01 6.205741882324218750e+00 1.701894044876098633e+00 6.860991120338439941e-01
3.920000000000000000e+03 9.081688880920410156e+00 -4.527140617370605469e+00 1.556648785481229424e-04 -3.613056032918393612e-04 -6.169221887830644846e-05 -4.358528531156480312e-04
3.921000000000000000e+03 1.154449653625488281e+01 7.117363452911376953e+00 -1.197190067614428699e-04 7.857747841626405716e-04 1.998167281271889806e-04 5.129838245920836926e-04
3.922000000000000000e+03 4.930970001220703125e+01 1.802130699157714844e+01 1.422064304351806641e-01 7.733315467834472656e+00 2.362656593322753906e+00 4.699569642543792725e-01
3.923000000000000000e+03 5.243009185791015625e+01 1.847596168518066406e+01 1.003959998488426208e-01 7.727050304412841797e+00 2.348233938217163086e+00 4.217535853385925293e-01
3.924000000000000000e+03 7.029776096343994141e+00 -2.965304183959960938e+01 -5.906979739665985107e-02 1.765971183776855469e+00 5.120704174041748047e-01 5.287282466888427734e-01
3.925000000000000000e+03 6.644560337066650391e+00 -2.748500633239746094e+01 2.363137342035770416e-02 1.480817675590515137e+00 4.513347148895263672e-01 5.351711511611938477e-01
3.926000000000000000e+03 5.570102214813232422e+00 -2.499399375915527344e+01 1.393796205520629883e-01 9.445663094520568848e-01 3.251837790012359619e-01 4.225136935710906982e-01
3.927000000000000000e+03 5.137065887451171875e+01 1.986391830444335938e+01 6.083146482706069946e-02 7.746777534484863281e+00 2.342282772064208984e+00 4.387428164482116699e-01
3.928000000000000000e+03 1.010964298248291016e+01 2.533591079711914062e+01 1.915327310562133789e-01 2.155850172042846680e+00 7.042148709297180176e-01 -9.336283206939697266e-01
3.929000000000000000e+03 1.127568149566650391e+01 2.439383125305175781e+01 2.029612660408020020e-01 2.594576120376586914e+00 8.392612338066101074e-01 -1.173310756683349609e+00
3.930000000000000000e+03 2.380676269531250000e+01 4.890353679656982422e+00 1.263318777084350586e+00 1.033834552764892578e+01 3.480499267578125000e+00 -4.467763006687164307e-01
3.931000000000000000e+03 2.178912353515625000e+01 -2.266847801208496094e+01 -5.250887274742126465e-01 6.596568584442138672e+00 1.821443915367126465e+00 5.659048557281494141e-01
3.932000000000000000e+03 1.547632884979248047e+01 2.310775947570800781e+01 -1.193593889474868774e-01 4.712262153625488281e+00 1.377870798110961914e+00 -1.428039908409118652e+00
3.933000000000000000e+03 1.642046356201171875e+01 2.261138725280761719e+01 -1.652776747941970825e-01 5.185184478759765625e+00 1.505972146987915039e+00 -1.339760541915893555e+00
3.934000000000000000e+03 2.511798667907714844e+01 -1.689006996154785156e+01 -1.433885376900434494e-02 7.812063217163085938e+00 2.339317321777343750e+00 1.535993516445159912e-01
3.935000000000000000e+03 1.748624801635742188e+01 2.441630363464355469e+01 -4.052459597587585449e-01 5.405097007751464844e+00 1.499955415725708008e+00 -1.074938297271728516e+00
3.936000000000000000e+03 5.570677947998046875e+01 2.038538742065429688e+01 1.424162648618221283e-02 7.745396137237548828e+00 2.327891349792480469e+00 3.824097216129302979e-01
3.937000000000000000e+03 7.092451477050781250e+01 2.199293708801269531e+01 -4.921689163893461227e-03 7.733584880828857422e+00 2.318598985671997070e+00 1.883451342582702637e-01
3.938000000000000000e+03 9.443487167358398438e+00 9.825245857238769531e+00 -8.930493495427072048e-04 5.976936081424355507e-04 -8.860671368893235922e-05 6.078752339817583561e-04
3.939000000000000000e+03 5.637122631072998047e+00 -2.558931732177734375e+01 1.121961101889610291e-01 1.024380564689636230e+00 3.409729897975921631e-01 4.443975687026977539e-01
3.940000000000000000e+03 4.634986877441406250e+00 6.920164108276367188e+00 1.078782253898680210e-03 -1.207248074933886528e-03 -3.853972157230600715e-05 -7.409440586343407631e-04
3.941000000000000000e+03 1.097329616546630859e+01 7.203404903411865234e+00 -2.622069150675088167e-04 1.773239346221089363e-04 -2.546489668020512909e-05 6.951999384909868240e-04
3.942000000000000000e+03 5.206961059570312500e+01 1.479176044464111328e+01 2.480934411287307739e-01 7.680133342742919922e+00 2.378468036651611328e+00 3.935179412364959717e-01
3.943000000000000000e+03 6.698779296875000000e+01 2.078780174255371094e+01 5.781296174973249435e-03 7.723479747772216797e+00 2.318778276443481445e+00 2.424466311931610107e-01
3.944000000000000000e+03 1.679636192321777344e+01 2.350730133056640625e+01 -3.019214868545532227e-01 5.220941066741943359e+00 1.475705862045288086e+00 -1.176011562347412109e+00
3.945000000000000000e+03 2.291996765136718750e+01 2.026697540283203125e+01 -1.591177433729171753e-01 7.459683418273925781e+00 2.190169811248779297e+00 -3.815662860870361328e-01
3.946000000000000000e+03 5.948435974121093750e+01 1.608744430541992188e+01 1.242501810193061829e-01 7.677699089050292969e+00 2.340584754943847656e+00 3.122536242008209229e-01
3.947000000000000000e+03 5.255750656127929688e+00 -6.357556343078613281e+00 -2.473196036589797586e-05 -1.081683294614776969e-04 -3.987008676631376147e-05 -1.754240365698933601e-04
3.948000000000000000e+03 3.679563140869140625e+01 9.503759384155273438e+00 9.148198962211608887e-01 7.911348819732666016e+00 2.647850513458251953e+00 3.902622163295745850e-01
3.949000000000000000e+03 5.289611339569091797e+00 6.971680164337158203e+00 5.977469845674932003e-05 -1.412410405464470387e-03 -4.057906917296350002e-04 1.670982455834746361e-04
3.950000000000000000e+03 3.971684265136718750e+01 -1.133000564575195312e+01 6.177657842636108398e-01 7.773721218109130859e+00 2.517446041107177734e+00 -5.111101269721984863e-01
3.951000000000000000e+03 5.893993377685546875e+01 1.195769691467285156e+01 2.180956602096557617e-01 7.633586406707763672e+00 2.355504512786865234e+00 2.651644349098205566e-01
3.952000000000000000e+03 2.042894554138183594e+01 -1.675653648376464844e+01 1.032918468117713928e-01 7.196770191192626953e+00 2.190018653869628906e+00 1.024497866630554199e+00
3.953000000000000000e+03 2.527453613281250000e+01 7.864884853363037109e+00 1.320008158683776855e+00 9.401417732238769531e+00 3.216427803039550781e+00 -3.054396212100982666e-01
3.954000000000000000e+03 2.208576202392578125e+01 -1.524010944366455078e+01 2.222757935523986816e-01 7.862693786621093750e+00 2.425490856170654297e+00 7.303151488304138184e-01
3.955000000000000000e+03 2.236216735839843750e+01 -1.627149581909179688e+01 7.437688857316970825e-02 7.679982662200927734e+00 2.326307773590087891e+00 6.432912349700927734e-01
3.956000000000000000e+03 4.502731323242187500e+01 8.267890930175781250e+00 6.896690130233764648e-01 7.657355308532714844e+00 2.504107236862182617e+00 3.156732022762298584e-01
3.957000000000000000e+03 7.290469360351562500e+01 2.293412971496582031e+01 -5.373611114919185638e-03 7.743841171264648438e+00 2.321540355682373047e+00 1.548523008823394775e-01
3.958000000000000000e+03 5.348680496215820312e+00 7.641119956970214844e+00 8.972830837592482567e-04 -1.685459865257143974e-03 -2.364530228078365326e-04 -5.062720738351345062e-04
3.959000000000000000e+03 5.760256767272949219e+00 2.727637863159179688e+01 9.545144438743591309e-02 9.793320894241333008e-01 3.224350512027740479e-01 -3.799296319484710693e-01
3.960000000000000000e+03 2.054814720153808594e+01 -1.923772811889648438e+01 -2.162962555885314941e-01 6.797440052032470703e+00 1.974343061447143555e+00 8.701916337013244629e-01
3.961000000000000000e+03 1.992092514038085938e+01 -1.735711860656738281e+01 3.346376493573188782e-02 6.947331905364990234e+00 2.094238758087158203e+00 1.121237635612487793e+00
3.962000000000000000e+03 2.136511421203613281e+01 -1.858994483947753906e+01 -1.786659657955169678e-01 7.023271560668945312e+00 2.053381681442260742e+00 7.385616302490234375e-01
3.963000000000000000e+03 4.854699707031250000e+01 -5.111869812011718750e+00 6.329067349433898926e-01 7.595232009887695312e+00 2.468441486358642578e+00 -2.429274022579193115e-01
3.964000000000000000e+03 4.049713134765625000e+01 -9.753275871276855469e+00 7.191226482391357422e-01 7.745599746704101562e+00 2.539416790008544922e+00 -4.604406952857971191e-01
3.965000000000000000e+03 2.625509643554687500e+01 8.876468658447265625e+00 1.272184729576110840e+00 9.050038337707519531e+00 3.096667051315307617e+00 -1.581377834081649780e-01
3.966000000000000000e+03 6.307485580444335938e+01 1.085706520080566406e+01 1.646508574485778809e-01 7.616999626159667969e+00 2.334495306015014648e+00 2.016286551952362061e-01
3.967000000000000000e+03 2.498285293579101562e+01 -1.284908580780029297e+01 5.963234305381774902e-01 8.442045211791992188e+00 2.711510658264160156e+00 1.329038441181182861e-01
3.968000000000000000e+03 2.561041450500488281e+01 -1.091397190093994141e+01 9.482287764549255371e-01 8.700331687927246094e+00 2.894568204879760742e+00 4.891149699687957764e-02
3.969000000000000000e+03 2.945458412170410156e+01 4.839263439178466797e+00 1.400867342948913574e+00 8.784548759460449219e+00 3.055624723434448242e+00 6.845411658287048340e-02
3.970000000000000000e+03 2.617684745788574219e+01 7.943578720092773438e+00 1.306218862533569336e+00 9.173229217529296875e+00 3.143834590911865234e+00 -1.770924776792526245e-01
3.971000000000000000e+03 6.086568832397460938e+01 9.115925788879394531e+00 2.244993299245834351e-01 7.606696128845214844e+00 2.349358558654785156e+00 1.922431290149688721e-01
3.972000000000000000e+03 5.574544525146484375e+01 9.933751106262207031e+00 3.223102688789367676e-01 7.616170883178710938e+00 2.381544351577758789e+00 2.562678754329681396e-01
3.973000000000000000e+03 2.239446449279785156e+01 1.487065887451171875e+01 7.265776395797729492e-01 8.406233787536621094e+00 2.739843368530273438e+00 -6.283902525901794434e-01
3.974000000000000000e+03 2.928850746154785156e+01 -4.795609951019287109e+00 1.505801081657409668e+00 8.702745437622070312e+00 3.062563896179199219e+00 -4.432965442538261414e-02
3.975000000000000000e+03 4.830252456665039062e+01 7.293469905853271484e+00 6.005232334136962891e-01 7.613300323486328125e+00 2.464147090911865234e+00 2.470016628503799438e-01
3.976000000000000000e+03 7.197991180419921875e+01 8.772666931152343750e+00 4.979960992932319641e-02 7.551087379455566406e+00 2.280266046524047852e+00 9.658044576644897461e-02
3.977000000000000000e+03 7.198772430419921875e+01 -1.608643913269042969e+01 1.784858852624893188e-02 7.692132949829101562e+00 2.312994480133056641e+00 -1.869307011365890503e-01
3.978000000000000000e+03 4.838943862915039062e+01 5.038379192352294922e+00 6.594106554985046387e-01 7.596309661865234375e+00 2.476716041564941406e+00 1.657132655382156372e-01
3.979000000000000000e+03 4.119012832641601562e+01 1.945696473121643066e-01 1.033685088157653809e+00 7.709426403045654297e+00 2.622933387756347656e+00 -2.390288934111595154e-02
3.980000000000000000e+03 4.449152755737304688e+01 9.549315571784973145e-01 8.792439103126525879e-01 7.627893924713134766e+00 2.552141427993774414e+00 8.187312632799148560e-03
3.981000000000000000e+03 3.375455474853515625e+01 -2.899791598320007324e-01 1.408058047294616699e+00 8.204644203186035156e+00 2.883810758590698242e+00 -1.197714824229478836e-02
3.982000000000000000e+03 7.114526367187500000e+01 -1.799746513366699219e+01 1.186979282647371292e-02 7.725018978118896484e+00 2.321066617965698242e+00 -2.087150961160659790e-01
3.983000000000000000e+03 6.692510986328125000e+01 -9.564125061035156250e+00 1.066578328609466553e-01 7.619371891021728516e+00 2.317808866500854492e+00 -1.988449990749359131e-01
3.984000000000000000e+03 6.213196945190429688e+01 -7.079895496368408203e+00 2.161365300416946411e-01 7.602888584136962891e+00 2.345707654953002930e+00 -2.011164426803588867e-01
3.985000000000000000e+03 6.182681274414062500e+01 -5.775381088256835938e+00 2.391476631164550781e-01 7.591882705688476562e+00 2.349309206008911133e+00 -1.746109873056411743e-01
3.986000000000000000e+03 7.038032531738281250e+01 9.352086067199707031e+00 6.893157213926315308e-02 7.572239875793457031e+00 2.292351484298706055e+00 1.181757450103759766e-01
3.987000000000000000e+03 6.278377532958984375e+01 -5.242687225341796875e+00 2.205229401588439941e-01 7.588168621063232422e+00 2.342607498168945312e+00 -1.540956050157546997e-01
3.988000000000000000e+03 7.010757446289062500e+01 2.477840900421142578e+00 9.071694314479827881e-02 7.538892745971679688e+00 2.288882970809936523e+00 1.914480887353420258e-02
3.989000000000000000e+03 6.947888183593750000e+01 -2.735293149948120117e+00 9.593113511800765991e-02 7.551818370819091797e+00 2.294324874877929688e+00 -6.721205264329910278e-02
3.990000000000000000e+03 7.012707519531250000e+01 -1.288318276405334473e+00 8.955838531255722046e-02 7.541522026062011719e+00 2.289324045181274414e+00 -4.236840084195137024e-02
3.991000000000000000e+03 6.411375427246093750e+01 4.126448929309844971e-02 2.120794653892517090e-01 7.568417072296142578e+00 2.334148883819580078e+00 -3.108023852109909058e-02
3.992000000000000000e+03 6.901211547851562500e+01 -4.750452995300292969e+00 1.009573936462402344e-01 7.567898273468017578e+00 2.300656795501708984e+00 -1.047605425119400024e-01
3.993000000000000000e+03 6.878820037841796875e+01 -1.940002322196960449e+00 1.107475385069847107e-01 7.555070400238037109e+00 2.299745321273803711e+00 -5.780754238367080688e-02
3.994000000000000000e+03 6.631320190429687500e+01 5.194931030273437500e-01 1.599916368722915649e-01 7.562316417694091797e+00 2.316692352294921875e+00 -1.615276746451854706e-02
3.995000000000000000e+03 8.742120742797851562e+00 -3.898962438106536865e-01 1.905688841361552477e-04 -8.739177428651601076e-05 3.095313513767905533e-05 -4.555124542093835771e-05
3.996000000000000000e+03 9.574714660644531250e+00 -3.899072110652923584e-01 1.304594043176621199e-04 9.257612691726535559e-05 6.691065937047824264e-05 -6.153909453132655472e-06
3.997000000000000000e+03 7.909467697143554688e+00 -3.898679614067077637e-01 2.430314925732091069e-04 7.744221511529758573e-05 9.614211012376472354e-05 -1.360449459752999246e-06
3.998000000000000000e+03 6.243529319763183594e+00 -3.896326422691345215e-01 3.096765140071511269e-04 5.573496673605404794e-05 1.096234409487806261e-04 1.804118437576107681e-05
3.999000000000000000e+03 5.410895347595214844e+00 -3.894082903861999512e-01 3.092881524935364723e-04 -5.442769543151371181e-05 7.645813457202166319e-05 -1.602932752575725317e-05
4.000000000000000000e+03 4.578301429748535156e+00 -3.893436789512634277e-01 2.735960588324815035e-04 2.587437120382674038e-05 8.984113082988187671e-05 4.836535663343966007e-05
4.001000000000000000e+03 3.745715141296386719e+00 -3.893288075923919678e-01 2.179403672926127911e-04 -1.283874007640406489e-05 6.153048889245837927e-05 2.035201987382606603e-06
4.002000000000000000e+03 2.913140058517456055e+00 -3.893370330333709717e-01 1.428469113307073712e-04 -1.521002104709623381e-05 3.829106572084128857e-05 6.504131306428462267e-05
4.003000000000000000e+03 2.080621957778930664e+00 -3.893803060054779053e-01 6.039842264726758003e-05 3.800331251113675535e-05 2.952052091131918132e-05 8.523425094608683139e-06
4.004000000000000000e+03 1.248418450355529785e+00 -3.895316720008850098e-01 2.552738988015335053e-05 -2.259703796880785376e-05 8.791058121460082475e-07 2.201263669121544808e-05
4.005000000000000000e+03 4.162248969078063965e-01 -3.898245394229888916e-01 1.123482775255979504e-06 1.419084765075240284e-05 4.594299298332771286e-06 5.060431362835515756e-07
4.006000000000000000e+03 4.155138731002807617e-01 -1.129824519157409668e+00 1.942133894772268832e-05 4.585155693348497152e-06 7.201947937574004754e-06 1.989513839362189174e-05
4.007000000000000000e+03 9.558361053466796875e+00 -1.129907250404357910e+00 1.242626894963905215e-04 -8.167951455106958747e-05 1.277495357498992234e-05 -1.194407595903612673e-04
4.008000000000000000e+03 8.727190017700195312e+00 -1.129896283149719238e+00 1.533635513624176383e-04 8.141261787386611104e-05 7.043284858809784055e-05 -1.437747232557740062e-05
4.009000000000000000e+03 7.895958423614501953e+00 -1.129867911338806152e+00 2.046192821580916643e-04 -8.864351548254489899e-05 3.479272709228098392e-05 -1.223504514200612903e-04
4.010000000000000000e+03 6.232863426208496094e+00 -1.129632592201232910e+00 2.578609855845570564e-04 -8.607780910097062588e-05 5.153494930709712207e-05 -7.891960558481514454e-05
4.011000000000000000e+03 5.401651859283447266e+00 -1.129408359527587891e+00 2.470817998982965946e-04 2.259551729366648942e-05 8.090319897746667266e-05 8.939247345551848412e-05
4.012000000000000000e+03 4.570479869842529297e+00 -1.129343748092651367e+00 2.416513743810355663e-04 -6.727378058712929487e-05 5.231327668298035860e-05 -1.872243956313468516e-05
4.013000000000000000e+03 3.739315748214721680e+00 -1.129328846931457520e+00 1.895876484923064709e-04 1.481853450968628749e-05 6.132185080787166953e-05 1.638158719288185239e-04
4.014000000000000000e+03 2.908162593841552734e+00 -1.129337072372436523e+00 1.390713878208771348e-04 -2.304762347193900496e-05 3.480712621239945292e-05 1.601518852112349123e-05
4.015000000000000000e+03 2.077066898345947266e+00 -1.129380345344543457e+00 1.115205595851875842e-04 2.928803769464138895e-05 4.224258009344339371e-05 1.543904072605073452e-04
4.016000000000000000e+03 7.064402580261230469e+00 -1.129782080650329590e+00 2.306032984051853418e-04 5.034287823946215212e-05 8.428385626757517457e-05 1.905634780996479094e-05
4.017000000000000000e+03 1.246285319328308105e+00 -1.129531621932983398e+00 1.258039787899178918e-06 5.008567677577957511e-05 1.540311495773494244e-05 6.493184173450572416e-06
4.018000000000000000e+03 7.076490402221679688e+00 -3.897820413112640381e-01 2.881071995943784714e-04 -7.533137249993160367e-05 6.383274740073829889e-05 -3.681319867610000074e-05
4.019000000000000000e+03 1.418479251861572266e+01 -1.305087447166442871e+00 1.005566809908486903e-05 -3.390790880075655878e-05 -7.155672392400447279e-06 -4.259161869413219392e-06
4.020000000000000000e+03 1.338981437683105469e+01 -5.390486121177673340e-01 2.655393473105505109e-06 -5.897074152017012239e-05 -1.689460441411938518e-05 -5.564458206208655611e-06
4.021000000000000000e+03 1.336326122283935547e+01 -1.280161738395690918e+00 -3.555971261448576115e-06 6.278241926338523626e-05 1.776793396857101470e-05 3.925742021237965673e-06
4.022000000000000000e+03 1.501021480560302734e+01 -1.329233884811401367e+00 -2.450673719067708589e-06 1.125602557294769213e-05 2.641605533426627517e-06 7.431724498019320890e-07
4.023000000000000000e+03 1.502777862548828125e+01 -5.815086364746093750e-01 4.814785370399476960e-07 -1.284816244151443243e-05 -3.710005103130242787e-06 2.144682014204590814e-07
4.024000000000000000e+03 1.420685100555419922e+01 -5.606682896614074707e-01 -3.162922894262010232e-06 3.765447036130353808e-05 1.034746492223348469e-05 1.752743628458119929e-06
4.025000000000000000e+03 1.111242771148681641e+01 -4.403275847434997559e-01 4.844945215154439211e-05 1.098168504540808499e-04 4.747989078168757260e-05 -1.416279474142356776e-06
4.026000000000000000e+03 1.260764503479003906e+01 -5.095726251602172852e-01 4.595172413246473297e-06 8.969393820734694600e-05 2.828673314070329070e-05 2.102832240780116990e-06
4.027000000000000000e+03 1.185993289947509766e+01 -4.741277396678924561e-01 2.721645250858273357e-05 -9.698128997115418315e-05 -2.092945032927673310e-05 -2.440922071400564164e-05
4.028000000000000000e+03 1.109096240997314453e+01 -1.180124521255493164e+00 6.058485450921580195e-05 -7.723452290520071983e-05 -4.994899427401833236e-06 -8.504748257109895349e-05
4.029000000000000000e+03 1.036482620239257812e+01 -4.067706167697906494e-01 8.691340917721390724e-05 -1.026557074510492384e-04 -4.722689027403248474e-06 -4.125422128709033132e-05
4.030000000000000000e+03 1.034629440307617188e+01 -1.146702885627746582e+00 6.984477658988907933e-05 1.068028504960238934e-04 5.299428812577389181e-05 -8.470075954392086715e-06
4.031000000000000000e+03 1.258031177520751953e+01 -1.249099493026733398e+00 2.802114613587036729e-05 -6.152314745122566819e-05 -1.005060130410129204e-05 -3.959020978072658181e-05
4.032000000000000000e+03 1.183553314208984375e+01 -1.213789224624633789e+00 1.867926403065212071e-05 9.801150008570402861e-05 3.500722959870472550e-05 -6.529442657665640581e-07
