# el_label, x, y, sXX, sYY, sZZ, sXY
1.000000000000000000e+00 7.963948822021484375e+01 -5.269652366638183594e+00 6.192634838080024462e-14 2.653986480181860091e-14 2.653986480181860091e-14 1.169017783779740388e-14
2.000000000000000000e+00 7.891742706298828125e+01 -6.011713981628417969e+00 2.701707977616988471e-14 1.157874895952020616e-14 1.157874895952020616e-14 2.559436766257777718e-14
3.000000000000000000e+00 7.747634124755859375e+01 -5.266009807586669922e+00 -7.746959269829684080e-14 -3.320125207748048091e-14 -3.320125207748048091e-14 -1.628306152835334170e-14
4.000000000000000000e+00 7.819660186767578125e+01 -5.264193058013916016e+00 4.585785893271125679e-14 2.026571591746614831e-13 7.455450509339864307e-14 1.207693070982146510e-13
5.000000000000000000e+00 7.891765594482421875e+01 -5.265468120574951172e+00 7.907670557857210403e-14 -1.033628342422474033e-13 -7.285838599102589797e-15 4.979349249004290379e-14
6.000000000000000000e+00 7.747579193115234375e+01 -6.007258892059326172e+00 2.152399826839228314e-14 1.007264679108409167e-13 3.667514087020949665e-14 3.918634622519789890e-14
7.000000000000000000e+00 7.963941192626953125e+01 -6.018396377563476562e+00 1.194150267764312184e-14 5.117786619837638717e-15 5.117786619837638717e-15 -1.341212805692961613e-14
8.000000000000000000e+00 7.819620513916015625e+01 -6.007940292358398438e+00 -5.627173938404714248e-14 -2.071202503126437500e-13 -7.901759623138090993e-14 7.652599799505555023e-14
9.000000000000000000e+00 7.674036407470703125e+01 -6.006698131561279297e+00 8.130832568646259584e-14 -1.481573652824252907e-13 -2.005471458929423967e-14 -1.040233573107798848e-13
1.000000000000000000e+01 7.524168395996093750e+01 -5.266691207885742188e+00 -7.027836429127076734e-14 1.528845003069892461e-13 2.478184114352872253e-14 -7.657982863291945552e-14
1.100000000000000000e+01 7.674094390869140625e+01 -5.266698360443115234e+00 -2.293855514876822627e-14 2.646748922460750997e-13 7.252090095978547257e-14 -3.165361107449783662e-14
1.200000000000000000e+01 7.449057006835937500e+01 -5.262613773345947266e+00 -1.018119779021969817e-13 -3.181393950363320400e-13 -1.259854173025695689e-13 6.622023537020604519e-15
1.300000000000000000e+01 7.449023437500000000e+01 -6.002614498138427734e+00 -1.023695085406069183e-13 2.763840046583754262e-13 5.220434476957240555e-14 -2.391347990666255890e-14
1.400000000000000000e+01 7.524125671386718750e+01 -6.006691455841064453e+00 -6.837342785047731408e-14 -2.123066940350540333e-13 -8.420403995379119322e-14 -1.993822045399246123e-14
1.500000000000000000e+01 7.599130249023437500e+01 -6.008103847503662109e+00 -6.886296546014525344e-15 2.715544260810387467e-13 7.940043479474911958e-14 -1.009729002883832938e-14
1.600000000000000000e+01 7.599180603027343750e+01 -5.268103599548339844e+00 -6.857531307125769304e-14 -2.123932133684183765e-13 -8.429055928715553647e-14 -1.362394490842314121e-13
1.700000000000000000e+01 7.299001312255859375e+01 -6.002902984619140625e+00 -9.261032695925819347e-14 2.348155578400096255e-13 4.266156655371999840e-14 -2.871147262539612555e-14
1.800000000000000000e+01 7.224011993408203125e+01 -5.264317512512207031e+00 -1.165688097264083734e-13 2.702985675995944748e-13 4.611893142771397724e-14 -2.369617529811036266e-14
1.900000000000000000e+01 7.374024200439453125e+01 -5.261628150939941406e+00 -1.061257744010279946e-13 4.601942199707054204e-14 -1.803190673762677249e-14 1.160225920600419652e-14
2.000000000000000000e+01 7.148986816406250000e+01 -5.264516830444335938e+00 -2.784116795613578166e-13 -2.108211879809501754e-13 -1.467698575521869664e-13 -4.543138462003229461e-14
2.100000000000000000e+01 7.148999023437500000e+01 -6.004517078399658203e+00 -2.000330917616491289e-13 1.430262700809203924e-13 -1.710204582659226313e-14 5.392777136713168204e-15
2.200000000000000000e+01 7.224012756347656250e+01 -6.004318237304687500e+00 -1.430374915734056174e-13 -1.985546330216664268e-13 -1.024776373785216133e-13 -3.663568946365818035e-14
2.300000000000000000e+01 7.374000549316406250e+01 -6.001628875732421875e+00 -6.650217621593026984e-14 -1.657537768064848427e-13 -6.967678793960360717e-14 -2.639438181092999131e-14
2.400000000000000000e+01 7.299012756347656250e+01 -5.262902259826660156e+00 -1.862215893641550046e-13 -1.713111531971567292e-13 -1.072598227683935201e-13 -1.619860387318261541e-14
2.500000000000000000e+01 6.923983764648437500e+01 -5.262402534484863281e+00 -2.575927481301282240e-13 7.260689852085430718e-14 -5.549575556040853286e-14 -5.933978081042873276e-14
2.600000000000000000e+01 6.998959350585937500e+01 -6.002072811126708984e+00 -3.895046991105738377e-13 6.182416232604348583e-14 -9.830416374586453676e-14 9.806964403969234412e-14
2.700000000000000000e+01 6.848992156982421875e+01 -6.002591609954833984e+00 -2.949122879496862693e-13 1.481147154794651422e-13 -4.403927241869269593e-14 -2.003896824680478223e-14
2.800000000000000000e+01 7.073961639404296875e+01 -6.002997875213623047e+00 -3.203923400457026061e-13 -2.288128996170979423e-13 -1.647615691883347333e-13 -8.153881351580585801e-14
2.900000000000000000e+01 7.073947906494140625e+01 -5.262997627258300781e+00 -3.217938068789116812e-13 4.509216147718410339e-14 -8.301049599221052566e-14 -1.668333440146829716e-13
3.000000000000000000e+01 6.849003601074218750e+01 -5.262591361999511719e+00 -2.515663458796391083e-13 -6.206320180002222742e-14 -9.408886701440383193e-14 4.374952616435952291e-14
3.100000000000000000e+01 6.998954010009765625e+01 -5.262072563171386719e+00 -3.128691153809343151e-13 -2.255886585389790810e-13 -1.615373281102158720e-13 5.662026972491976395e-14
3.200000000000000000e+01 6.923980712890625000e+01 -6.002402305603027344e+00 -2.145303926908218028e-13 -4.619064801329210435e-14 -7.821630983954191985e-14 -1.485344948437290064e-14
3.300000000000000000e+01 6.623886871337890625e+01 -5.999034404754638672e+00 -2.402783646961864639e-13 1.715292404641521884e-13 -2.062473726961028264e-14 2.780343805934646501e-14
3.400000000000000000e+01 6.623917388916015625e+01 -5.259034156799316406e+00 -3.016732371720343142e-13 1.452171716209704755e-13 -4.693681627718736260e-14 4.358474098666888230e-14
3.500000000000000000e+01 6.548987579345703125e+01 -6.001818180084228516e+00 -1.967623519628577955e-13 1.901789679513085640e-13 -1.975013382343932845e-15 1.035962714403130050e-14
3.600000000000000000e+01 6.698884582519531250e+01 -5.999063968658447266e+00 -3.353919789464421264e-13 -5.223752474418225100e-14 -1.162888551729454600e-13 2.191305913579102288e-14
3.700000000000000000e+01 6.773998260498046875e+01 -5.261753082275390625e+00 -2.172804443962769727e-13 -1.618291915234007072e-15 -6.566961736767865099e-14 -2.799359526193916092e-14
3.800000000000000000e+01 6.773979187011718750e+01 -6.001753330230712891e+00 -3.040587801070998575e-13 -3.880901337598684220e-14 -1.028603404166182622e-13 -4.492123615765881636e-15
3.900000000000000000e+01 6.549024963378906250e+01 -5.261817932128906250e+00 -3.141336203747041589e-13 2.624155080922395064e-15 -9.345284013870594486e-14 2.682238925324348378e-14
4.000000000000000000e+01 6.698908996582031250e+01 -5.259063720703125000e+00 -2.336139907823525652e-13 1.286344620231305580e-13 -3.149385388438209754e-14 3.996305849717114722e-14
4.100000000000000000e+01 6.323952865600585938e+01 -5.256879329681396484e+00 -2.508610452613829755e-13 1.212428730546291633e-13 -3.888545301727885928e-14 1.849821700981510442e-14
4.200000000000000000e+01 6.398902130126953125e+01 -5.997806072235107422e+00 -2.564294805142142142e-13 7.310544178481745425e-14 -5.499721568457717480e-14 2.373800009097988550e-14
4.300000000000000000e+01 6.249014663696289062e+01 -5.998846054077148438e+00 -2.613688074564607389e-13 -2.051330161506950689e-14 -8.456463204383271592e-14 4.705165531011020613e-15
4.400000000000000000e+01 6.474034118652343750e+01 -5.261467933654785156e+00 -2.194042338218502031e-13 4.322245821886464001e-14 -5.285453403614838452e-14 -2.007090138891626935e-14
4.500000000000000000e+01 6.473993682861328125e+01 -6.001468181610107422e+00 -2.425334238997933767e-13 -1.496938423911631233e-13 -1.176681771767815188e-13 -3.647136846002263511e-14
4.600000000000000000e+01 6.249060440063476562e+01 -5.258846282958984375e+00 -2.790302169007607969e-13 6.341941674505718884e-14 -6.468323733620565119e-14 -6.122078348826456851e-14
4.700000000000000000e+01 6.398944091796875000e+01 -5.257805824279785156e+00 -2.538802772612119840e-13 -1.545567872903580442e-13 -1.225311220759764397e-13 -6.345978972345511782e-14
4.800000000000000000e+01 6.323908996582031250e+01 -5.996879577636718750e+00 -2.608757936235772679e-13 -1.118039038086604542e-13 -1.118039038086604542e-13 3.443478277043512947e-14
4.900000000000000000e+01 6.024127578735351562e+01 -6.002173423767089844e+00 -3.684865997402586579e-13 -2.494247213283284914e-13 -1.853733908995652824e-13 -1.406127123781573604e-14
5.000000000000000000e+01 5.949018478393554688e+01 -5.999024868011474609e+00 -4.318325211305484856e-13 -4.781823876210018753e-14 -1.438952310171132121e-13 -9.640966275098125648e-14
5.100000000000000000e+01 6.174050903320312500e+01 -6.000143527984619141e+00 -3.221698352973839663e-13 -9.232183431368695681e-14 -1.243474995280685613e-13 -3.068067176183186806e-14
5.200000000000000000e+01 6.024153518676757812e+01 -5.262173175811767578e+00 -3.512073715617597403e-13 7.823729592784309239e-14 -8.189102336780135216e-14 6.117836407826607314e-14
5.300000000000000000e+01 6.099138641357421875e+01 -6.002598762512207031e+00 -4.137862470200703857e-13 9.716872624446551421e-14 -9.498525826556053486e-14 -2.120841750916785395e-14
5.400000000000000000e+01 6.174093246459960938e+01 -5.260143280029296875e+00 -2.180187996282667573e-13 1.810690676172163616e-13 -1.108491773984263476e-14 -1.778982810943328247e-14
5.500000000000000000e+01 5.949036026000976562e+01 -5.259025096893310547e+00 -2.235795641507276610e-13 4.143303335515415020e-14 -5.464395889985887433e-14 -3.251816066310135589e-14
5.600000000000000000e+01 6.099172973632812500e+01 -5.262598991394042969e+00 -2.489461815944477019e-13 -1.524421729256694724e-13 -1.204165077112878679e-13 9.067938321885224418e-15
5.700000000000000000e+01 5.648974227905273438e+01 -5.999071121215820312e+00 -2.565875029808539765e-13 -1.099660727060802756e-13 -1.099660727060802756e-13 3.455934404752655786e-14
5.800000000000000000e+01 5.723953247070312500e+01 -5.259526252746582031e+00 -3.136107909820773365e-13 -3.174084259316423129e-13 -1.893057650741158948e-13 4.180837059474147577e-14
5.900000000000000000e+01 5.723992156982421875e+01 -5.999526023864746094e+00 -2.979422264459685721e-13 5.531427028112982647e-14 -7.278838718826480259e-14 2.157017681061069309e-14
6.000000000000000000e+01 5.798986434936523438e+01 -5.998773574829101562e+00 -2.475340353698396445e-13 -1.518369712729880638e-13 -1.198113060586064593e-13 -7.775751613772752258e-14
6.100000000000000000e+01 5.873990631103515625e+01 -5.998174190521240234e+00 -2.219415244034822488e-13 4.213505087370672531e-14 -5.394194138130629923e-14 4.431638432958462381e-14
6.200000000000000000e+01 5.873993682861328125e+01 -5.258173942565917969e+00 -2.823972880625774673e-13 6.197638431106045065e-14 -6.612627654646596742e-14 1.563651958564823974e-14
6.300000000000000000e+01 5.648913955688476562e+01 -5.259071350097656250e+00 -3.511415062797812459e-13 7.826553261817276175e-14 -8.186279345373526084e-14 -7.233262925253336473e-14
6.400000000000000000e+01 5.798968124389648438e+01 -5.258773326873779297e+00 -2.656642267284681225e-13 1.148986504898030780e-13 -4.522967558210494454e-14 -7.911005157163961132e-14
6.500000000000000000e+01 5.348892211914062500e+01 -6.003879547119140625e+00 -2.187120791549354570e-13 -2.231850077335671353e-15 -6.628318092961535402e-14 -8.550968703187507292e-15
6.600000000000000000e+01 5.423745727539062500e+01 -5.263031959533691406e+00 -1.917279811476657603e-13 9.332763172844281419e-15 -5.471856556185303311e-14 5.215407844635054635e-14
6.700000000000000000e+01 5.423921203613281250e+01 -6.003029823303222656e+00 -2.266061822778567270e-13 8.588686402702383482e-14 -4.221579683050258325e-14 3.207133045463397836e-14
6.800000000000000000e+01 5.498925781250000000e+01 -6.000969409942626953e+00 -2.250267707630884684e-13 -9.644004751686516275e-14 -9.644004751686516275e-14 5.159702214639107221e-14
6.900000000000000000e+01 5.573940658569335938e+01 -5.999091625213623047e+00 -3.610173141335715208e-13 2.828208790751039758e-14 -9.982056956188423147e-14 -4.460434165033319576e-14
7.000000000000000000e+01 5.573849105834960938e+01 -5.259091854095458984e+00 -2.341125611513700244e-13 -5.458300979710624390e-14 -8.660867162335605940e-14 4.350802690670195483e-14
7.100000000000000000e+01 5.348674774169921875e+01 -5.263882160186767578e+00 -2.781694687960245549e-13 6.378830975798180369e-14 -6.431434432328103634e-14 -2.823284480008882158e-14
7.200000000000000000e+01 5.498792266845703125e+01 -5.260970592498779297e+00 -2.170207237658580701e-13 -1.506986597887990074e-15 -6.555831723840943592e-14 4.534769098857999170e-14
7.300000000000000000e+01 5.048752975463867188e+01 -6.016662120819091797e+00 -1.035186002131156802e-13 9.288773363761576585e-14 -3.189259464430205943e-15 2.300285511386019471e-14
7.400000000000000000e+01 5.123381042480468750e+01 -5.273665904998779297e+00 -1.996677698396301381e-13 -1.313228497300256148e-13 -9.929719129190758831e-14 1.267652974777655484e-13
7.500000000000000000e+01 5.123796844482421875e+01 -6.013654708862304688e+00 -2.195811891689269935e-13 -1.856081206699083941e-13 -1.215567902411451850e-13 7.060715537634057459e-14
7.600000000000000000e+01 5.198816299438476562e+01 -6.009502887725830078e+00 -2.666969292977605654e-13 -6.854773367849509302e-14 -1.005733921166131195e-13 4.391565981850219236e-14
7.700000000000000000e+01 5.273845672607421875e+01 -6.005567073822021484e+00 -3.213743019533227274e-13 4.527195269056830118e-14 -8.283070816695811689e-14 -5.036770628938196104e-14
7.800000000000000000e+01 5.273571777343750000e+01 -5.265571594238281250e+00 -2.766288446139769652e-13 -2.100571236049453283e-13 -1.460057931761821193e-13 -1.055288194611210539e-13
7.900000000000000000e+01 5.048266220092773438e+01 -5.276676654815673828e+00 -2.046989964685219654e-13 -1.792300438922464489e-13 -1.151787134634832399e-13 5.746335211050807024e-14
8.000000000000000000e+01 5.198471069335937500e+01 -5.269510746002197266e+00 -2.184843018310234086e-13 -9.363613129222819742e-14 -9.363613129222819742e-14 4.529564589616889847e-14
8.100000000000000000e+01 4.748569488525390625e+01 -6.043330192565917969e+00 -1.615008311545845787e-13 1.595401057357531682e-13 -5.882166833252693277e-16 7.989504104957342867e-14
8.200000000000000000e+01 4.822861480712890625e+01 -5.296689510345458984e+00 -1.590807970379068403e-13 -6.817748541285487129e-14 -6.817748541285487129e-14 3.058491976934245293e-15
8.300000000000000000e+01 4.823624420166015625e+01 -6.036650180816650391e+00 -1.156688135030281561e-13 -1.410742453845231781e-13 -7.702291495575996905e-14 -9.345979258513700816e-14
8.400000000000000000e+01 4.898653793334960938e+01 -6.028829574584960938e+00 -8.439212192566311610e-14 5.533384351847497884e-14 -8.717483522156441178e-15 -5.072285280460558585e-15
8.500000000000000000e+01 4.973693847656250000e+01 -6.021259307861328125e+00 -9.495397225662075003e-14 -4.069455953855175001e-14 -4.069455953855175001e-14 1.870990409586111014e-14
8.600000000000000000e+01 4.973123168945312500e+01 -5.281280040740966797e+00 -2.199481102891504003e-13 -9.426347777428262242e-14 -9.426347777428262242e-14 4.531654728117534559e-14
8.700000000000000000e+01 4.747710418701171875e+01 -5.303378582000732422e+00 -9.733219005075843810e-14 -1.789666369744410956e-13 -8.288964810755986012e-14 -1.376901522485984852e-13
8.800000000000000000e+01 4.897986984252929688e+01 -5.288859844207763672e+00 -1.691923239965226200e-13 -1.182619404965432053e-13 -8.623627528216160076e-14 -3.534641383837883177e-14
8.900000000000000000e+01 4.448383331298828125e+01 -6.086326122283935547e+00 -6.564950541737904488e-14 1.761544774251614515e-14 -1.441021577779956486e-14 4.343311870097857352e-14
9.000000000000000000e+01 4.522269439697265625e+01 -5.335564136505126953e+00 -1.280771007913100723e-13 3.661171165498730562e-14 -2.743961538564411440e-14 1.039474157248608532e-13
9.100000000000000000e+01 4.523437500000000000e+01 -6.075472354888916016e+00 -9.158649451898939753e-14 -8.500230413207437996e-14 -5.297664230582456446e-14 -2.234680268522332147e-14
9.200000000000000000e+01 4.598466110229492188e+01 -6.063519477844238281e+00 -1.632255664180473631e-13 -2.420286363089430709e-14 -5.622852715121001710e-14 8.896059073854739596e-14
9.300000000000000000e+01 4.673505020141601562e+01 -6.051823139190673828e+00 -1.451214907792486297e-13 -1.644397745954092466e-14 -4.846964097985663467e-14 -8.610414491865350795e-14
9.400000000000000000e+01 4.672545623779296875e+01 -5.311883449554443359e+00 -1.502665450837242789e-13 -1.864900073288763144e-14 -5.067466425320334145e-14 5.134246841695042085e-14
9.500000000000000000e+01 4.447110748291015625e+01 -5.346434116363525391e+00 -7.357063227944951600e-14 -1.687831189915722785e-13 -7.270612334842746494e-14 2.842866187683507073e-14
9.600000000000000000e+01 4.597402191162109375e+01 -5.323595523834228516e+00 -1.521185385771825493e-13 -2.939484051132923437e-13 -1.338200790413843211e-13 4.017554179418757199e-14
9.700000000000000000e+01 4.223370742797851562e+01 -6.133643150329589844e+00 9.728619277359074058e-14 -4.980781751124686851e-14 1.424351122345044601e-14 -1.307608552279836481e-14
9.800000000000000000e+01 4.148229217529296875e+01 -6.146579742431640625e+00 -6.663650886510122384e-14 -2.855850525138557694e-14 -2.855850525138557694e-14 6.344051887687213523e-15
9.900000000000000000e+01 4.221790695190429688e+01 -5.393811225891113281e+00 -2.997439874975228735e-14 7.865572342752313872e-14 1.460439808095761322e-14 3.817672360965224110e-14
1.000000000000000000e+02 4.298408889770507812e+01 -6.118122577667236328e+00 9.105652294455132689e-14 2.220280166317922799e-13 9.392536255052943983e-14 2.779750713464979039e-14
1.010000000000000000e+02 4.373342132568359375e+01 -6.099862575531005859e+00 -2.377377876267190715e-14 -1.016906624553594318e-13 -3.763933202659622279e-14 5.121430216763547816e-14
1.020000000000000000e+02 4.371966552734375000e+01 -5.359988689422607422e+00 -8.793896058394146120e-14 1.453156713883407836e-13 1.721301391894615451e-14 6.951146743709030185e-14
1.030000000000000000e+02 4.146547317504882812e+01 -5.406769752502441406e+00 -1.224902341015465801e-13 -2.354996080956850424e-13 -1.073969540144222024e-13 -1.353588329746843733e-13
1.040000000000000000e+02 4.296931076049804688e+01 -5.378270149230957031e+00 -7.164727795425096524e-14 1.065468717485577865e-13 1.046987695244592023e-14 1.329580205766786767e-15
1.050000000000000000e+02 3.846181488037109375e+01 -5.483074665069580078e+00 -1.274896665017302699e-13 -1.918912755473692333e-13 -9.581428668048799779e-14 -3.924035643404662210e-14
1.060000000000000000e+02 3.848166656494140625e+01 -6.222808361053466797e+00 -3.067694752736938035e-13 -1.772235786942633062e-13 -1.451979134798817017e-13 2.821074232236316787e-14
1.070000000000000000e+02 3.923187255859375000e+01 -6.203719139099121094e+00 -1.991120891211770050e-13 -3.958280169022616868e-14 -7.160846351647598418e-14 -1.763520732710969346e-14
1.080000000000000000e+02 3.998181152343750000e+01 -6.183495998382568359e+00 -1.717447256459336824e-13 -1.193558327259452989e-13 -8.733016751156369439e-14 5.609775881668110920e-14
1.090000000000000000e+02 4.073185729980468750e+01 -6.163486957550048828e+00 -9.555927555325582912e-14 -2.239577745260720731e-13 -9.585511366854565507e-14 -1.716673203870817954e-14
1.100000000000000000e+02 4.071416854858398438e+01 -5.423696517944335938e+00 -8.295372445595375344e-14 -2.185553848359569895e-13 -9.045273753095772751e-14 5.146262512271612688e-14
1.110000000000000000e+02 3.921274185180664062e+01 -5.463966846466064453e+00 -1.975656915625609300e-13 -1.761729054739619160e-13 -1.121215750451987070e-13 -3.665325015072065651e-15
1.120000000000000000e+02 3.996340179443359375e+01 -5.443724155426025391e+00 -1.186624176740050385e-13 -1.423572224728067437e-13 -7.830589204404353465e-14 -3.422839133437535764e-14
1.130000000000000000e+02 3.698171997070312500e+01 -6.262598514556884766e+00 -4.207415598106271915e-14 -6.378273289305708138e-14 -3.175706429054368785e-14 5.985392303314851503e-14
1.140000000000000000e+02 3.621255493164062500e+01 -5.544963359832763672e+00 -1.312307603080001273e-13 -1.019927008518231593e-13 -6.996703563744155474e-14 7.872796517352856349e-14
1.150000000000000000e+02 3.548279571533203125e+01 -6.306656837463378906e+00 2.148531088555939023e-14 1.922117792620831045e-13 6.410913195708384249e-14 5.597131035018319822e-14
1.160000000000000000e+02 3.771127700805664062e+01 -5.501970291137695312e+00 -1.799576113126200028e-13 -1.686265873029196838e-13 -1.045752636504200528e-13 1.588006934066452103e-13
1.170000000000000000e+02 3.773139953613281250e+01 -6.241697311401367188e+00 -1.487369526587817292e-13 -6.374441312252329683e-14 -6.374441312252329683e-14 4.622167991234771289e-14
1.180000000000000000e+02 3.546322250366210938e+01 -5.566914081573486328e+00 -9.230631667009325803e-14 1.891948918494520959e-13 2.906657255380765137e-14 -1.257882822425573921e-13
1.190000000000000000e+02 3.696178054809570312e+01 -5.522866249084472656e+00 -1.115630279672520653e-13 -2.308165323369054667e-13 -1.027138647031154706e-13 5.963119402560210225e-14
1.200000000000000000e+02 3.623231124877929688e+01 -6.284700870513916016e+00 1.076332982295627808e-14 5.036380316156101322e-14 1.833813964124530321e-14 -5.069606369358277409e-14
1.210000000000000000e+02 3.323463058471679688e+01 -6.359344959259033203e+00 -9.417552187303973588e-14 -8.611189018792320127e-14 -5.408622158540980773e-14 -6.038452480009934287e-14
1.220000000000000000e+02 3.321954727172851562e+01 -5.619493961334228516e+00 -1.603294726799583958e-13 -6.871262727640298218e-14 -6.871262727640298218e-14 -2.519020758586128228e-14
1.230000000000000000e+02 3.248681640625000000e+01 -6.379900932312011719e+00 -1.236946471899064148e-13 3.848990557157004611e-14 -2.556142316312726842e-14 2.110409693138401432e-14
1.240000000000000000e+02 3.398349380493164062e+01 -6.341384410858154297e+00 -1.491385818010518283e-13 -2.011693762959954057e-13 -1.050923874291141702e-13 5.625870524105479331e-14
1.250000000000000000e+02 3.471478271484375000e+01 -5.586100101470947266e+00 3.426042273230872626e-14 2.434377840369178481e-13 8.330945796500982548e-14 3.966843672119357844e-14
1.260000000000000000e+02 3.473338699340820312e+01 -6.325866699218750000e+00 -1.488830217964698388e-13 -6.380700546919360061e-14 -6.380700546919360061e-14 -6.924027459243378702e-14
1.270000000000000000e+02 3.247348785400390625e+01 -5.640007495880126953e+00 -8.475133165793471979e-14 -8.207294571608084177e-14 -5.004728388983102627e-14 -1.099061366547325613e-13
1.280000000000000000e+02 3.396664810180664062e+01 -5.601575374603271484e+00 -5.713894950313798751e-15 1.805549796046052036e-13 5.245232552334236353e-14 7.493357965410749142e-16
1.290000000000000000e+02 3.099083137512207031e+01 -6.399948596954345703e+00 -9.134194594272171397e-14 5.235534702714532418e-14 -1.169598001348609584e-14 6.728984909424098881e-14
1.300000000000000000e+02 3.024179267883300781e+01 -5.667771339416503906e+00 -2.124981505861878173e-13 -9.107063112532079452e-14 -9.107063112532079452e-14 4.496797967085304493e-14
1.310000000000000000e+02 2.949573898315429688e+01 -6.414954185485839844e+00 -1.591312937540903527e-13 2.063065701347205350e-13 1.415258223656269687e-14 -3.727370517271622052e-14
1.320000000000000000e+02 3.172830200195312500e+01 -5.652883052825927734e+00 -1.159129080696361114e-13 -4.967696108529144616e-14 -4.967696108529144616e-14 6.504078010763705842e-14
1.330000000000000000e+02 3.173856925964355469e+01 -6.392818927764892578e+00 -9.552149788380828732e-14 5.056411290105949918e-14 -1.348721498660486809e-14 1.599420465861478569e-14
1.340000000000000000e+02 2.949855422973632812e+01 -5.674893379211425781e+00 -1.132888948667323814e-13 -9.430333575664862078e-14 -6.227767054226701626e-14 -2.173406718269585425e-13
1.350000000000000000e+02 3.098492622375488281e+01 -5.659971237182617188e+00 -8.690296475055009351e-14 -8.299507999257049740e-14 -5.096941139005710386e-14 5.816107263091922427e-16
1.360000000000000000e+02 3.024333572387695312e+01 -6.407790660858154297e+00 -9.783869542442577560e-14 -4.193087188770518170e-14 -4.193087188770518170e-14 -7.877115707757495477e-14
1.370000000000000000e+02 2.800358009338378906e+01 -6.392907142639160156e+00 -6.713369687634876404e-14 1.697936496264373929e-14 -1.504629855767197072e-14 7.074680061615670756e-14
1.380000000000000000e+02 2.728431129455566406e+01 -5.636834621429443359e+00 -8.269989239858416274e-14 -3.544280957590816017e-14 -3.544280957590816017e-14 1.238980164124103833e-13
1.390000000000000000e+02 2.651304817199707031e+01 -6.358762741088867188e+00 -7.123266549096535227e-14 -1.220301800147066684e-13 -5.797885636220703742e-14 -1.375130291889981385e-14
1.400000000000000000e+02 2.875823974609375000e+01 -5.669638156890869141e+00 -1.026091443257805269e-13 1.775602027165128476e-15 -3.025006054023851587e-14 1.972500396525689315e-13
1.410000000000000000e+02 2.874904632568359375e+01 -6.409622669219970703e+00 -1.873815501634429337e-13 1.119551821989741777e-14 -5.285581136183284401e-14 1.778333644892552551e-14
1.420000000000000000e+02 2.654741096496582031e+01 -5.619358539581298828e+00 -2.681217572996549142e-14 -1.029928299220959909e-13 -3.894150288146457084e-14 -4.591485069753431514e-14
1.430000000000000000e+02 2.802116203308105469e+01 -5.653115749359130859e+00 -1.380832297462331049e-13 1.695762128807454250e-13 9.447895279166874938e-15 -1.275768668495842056e-14
1.440000000000000000e+02 2.725833702087402344e+01 -6.376431941986083984e+00 -4.728702035516375857e-14 1.169869865043360324e-13 2.090998747305942984e-14 -2.899061741536146375e-14
1.450000000000000000e+02 2.428754043579101562e+01 -6.197861671447753906e+00 -3.215499020476839109e-14 1.234721417990580772e-13 2.739514446184736912e-14 6.771524936914283255e-14
1.460000000000000000e+02 2.435861396789550781e+01 -5.461198806762695312e+00 1.151337749774996103e-14 -1.794116918018510282e-14 -1.928337420027247812e-15 2.726158091859252203e-14
1.470000000000000000e+02 2.354777717590332031e+01 -6.138960838317871094e+00 3.129133508295717236e-14 -7.809132165784507529e-14 -1.403999631127954978e-14 -1.302178732274757514e-14
1.480000000000000000e+02 2.502826499938964844e+01 -6.258197307586669922e+00 -1.115058566314441890e-13 -2.307920293678072943e-13 -1.026893617340172982e-13 -4.130631722624490687e-14
1.490000000000000000e+02 2.581491851806640625e+01 -5.581003189086914062e+00 -7.524793369786605957e-14 -2.610038650052021181e-13 -1.008755389332940955e-13 -2.516446117239654057e-14
1.500000000000000000e+02 2.576985549926757812e+01 -6.319781780242919922e+00 -2.520893209619328584e-14 1.264490221515243706e-13 3.037202650837955709e-14 -2.710255895307499968e-14
1.510000000000000000e+02 2.363185691833496094e+01 -5.403356075286865234e+00 -4.929274016415331749e-14 2.076292832326256943e-13 4.750096393698124975e-14 6.587744537161696612e-14
1.520000000000000000e+02 2.508633232116699219e+01 -5.520476818084716797e+00 -2.738835125761038963e-14 1.483904551969825181e-13 3.630063033477869128e-14 1.578556519711300093e-14
1.530000000000000000e+02 2.146717453002929688e+01 -5.077126979827880859e+00 2.673355751993313628e-14 1.715855647670128103e-13 5.949573651667719454e-14 9.956493501840288363e-14
1.540000000000000000e+02 2.134441947937011719e+01 -5.806876659393310547e+00 1.106981802230511125e-13 -4.405982143799308526e-14 1.999150729670422927e-14 1.706478315317665195e-14
1.550000000000000000e+02 2.061148262023925781e+01 -5.684748649597167969e+00 1.371011865234500471e-13 1.045085987693393503e-13 7.248293355495774581e-14 -2.358156835221506681e-14
1.560000000000000000e+02 2.207760429382324219e+01 -5.928263664245605469e+00 8.626911305546075548e-14 1.742253260064718923e-13 7.814833036332707872e-14 -9.600500970108945958e-15
1.570000000000000000e+02 2.290797805786132812e+01 -5.314875125885009766e+00 9.686820573104326648e-14 -2.711147651594369296e-14 2.092701961156281931e-14 8.342072590702704488e-15
1.580000000000000000e+02 2.281096076965332031e+01 -6.048885822296142578e+00 -1.128877654739011624e-14 8.666385073767199354e-14 2.261252200297467901e-14 1.230829250775970427e-14
1.590000000000000000e+02 2.074710655212402344e+01 -4.957129478454589844e+00 1.174632087560731342e-13 1.418432699854671464e-13 7.779194633296751538e-14 -4.095619785156323633e-14
1.600000000000000000e+02 2.218749046325683594e+01 -5.196383476257324219e+00 2.869374591987598755e-14 1.037992188404092408e-13 3.974788841164603181e-14 7.401959362281218535e-14
1.610000000000000000e+02 1.870123863220214844e+01 2.646065473556518555e+00 1.684315190032988074e-14 1.902222953806265160e-13 6.211963452310009792e-14 3.717932876173314638e-14
1.620000000000000000e+02 1.929932022094726562e+01 4.243825435638427734e+00 -4.907376012443145225e-15 8.939873716523952241e-14 2.534740843054220788e-14 5.089333089073472260e-14
1.630000000000000000e+02 2.939179229736328125e+01 1.115061759948730469e+00 3.369957850100913088e-14 -3.286894411161367380e-13 -8.849695878453828213e-14 1.388646684620520322e-13
1.640000000000000000e+02 3.507630538940429688e+01 1.320806860923767090e+00 -1.638646358360917876e-13 -2.074805442470878392e-13 -1.114035553802066036e-13 1.131644691149125137e-13
1.650000000000000000e+02 4.331080627441406250e+01 9.875648617744445801e-01 -1.059028488818378189e-13 -9.113788554133278597e-14 -5.911222032695118145e-14 4.283396486354056065e-14
1.660000000000000000e+02 4.932863616943359375e+01 1.010562658309936523e+00 -2.345554035287217287e-13 -2.149011220711760650e-13 -1.348369522589584757e-13 4.864340470678817085e-14
1.670000000000000000e+02 5.814331436157226562e+01 1.910350084304809570e+00 -2.200321495100451830e-13 2.007787924633575027e-14 -5.998628378961826102e-14 2.214328269085474171e-14
1.680000000000000000e+02 6.491261291503906250e+01 1.795009613037109375e+00 -1.376721409400080698e-13 -5.900234998929693164e-14 -5.900234998929693164e-14 1.525842440678465417e-13
1.690000000000000000e+02 7.156904602050781250e+01 1.564435243606567383e+00 -2.976700103855117741e-13 -1.733238119000501953e-13 -1.412981466856685908e-13 -3.146649133205399462e-14
1.700000000000000000e+02 7.890152740478515625e+01 6.712463855743408203e+00 -1.986282910067596608e-13 2.351302204155192310e-13 1.095057916144104998e-14 1.731730129303846177e-13
1.710000000000000000e+02 7.963142395019531250e+01 8.344610214233398438e+00 2.034247201026725960e-13 2.701858105736559823e-13 1.420831632686567203e-13 6.494844822243041934e-16
1.720000000000000000e+02 7.887444305419921875e+01 1.313678359985351562e+01 -6.353174686639026514e-14 3.159042309425902362e-13 7.571174183472820229e-14 1.346800597342703507e-14
1.730000000000000000e+02 7.962519836425781250e+01 1.316387653350830078e+01 -2.502662858308753180e-14 4.010328310752320213e-13 1.128018644745883148e-13 -8.596958865278447881e-14
1.740000000000000000e+02 7.885054779052734375e+01 1.875378990173339844e+01 7.119410177494275849e-14 4.880212445095011287e-13 1.677646059182122396e-13 3.892495524580701083e-14
1.750000000000000000e+02 7.336418151855468750e+01 2.605290985107421875e+01 -7.567733196827894360e-14 2.649480298783785104e-13 5.678120598489808102e-14 -5.766228965663200423e-14
1.760000000000000000e+02 6.442334747314453125e+01 3.061592483520507812e+01 3.512895337576434074e-14 1.408703747185144350e-13 5.279979876709681164e-14 -3.301988199468260110e-14
1.770000000000000000e+02 5.607108306884765625e+01 3.662637710571289062e+01 4.204696622345585610e-14 3.517673619838485033e-14 2.316711004892585413e-14 2.558975641521292477e-14
1.780000000000000000e+02 5.179952621459960938e+01 3.738111877441406250e+01 3.412942061668637617e-14 3.189157608718298613e-15 1.119557412407193656e-14 4.788077351053007802e-15
1.790000000000000000e+02 5.232162475585937500e+01 4.079306411743164062e+01 2.229340911636019940e-14 -1.332115587136155702e-14 2.691676100554534802e-15 -1.803875076384058723e-14
1.800000000000000000e+02 3.772605514526367188e+01 4.068596267700195312e+01 3.913658812174439228e-14 -8.044794349995956773e-14 -1.239340746049749989e-14 4.624557217069091494e-15
1.810000000000000000e+02 4.260162353515625000e+01 4.081750106811523438e+01 2.217930530803557260e-14 -8.199648235786630157e-14 -1.794515192910309254e-14 -2.297701891490304404e-14
1.820000000000000000e+02 4.356382369995117188e+01 3.397392272949218750e+01 -6.508485123188269966e-15 -8.285351029389820265e-14 -2.680859955686218377e-14 -7.651048712772542948e-15
1.830000000000000000e+02 4.633479309082031250e+01 2.511595726013183594e+01 4.726579370950556580e-15 -7.231961205019996064e-14 -2.027791115902753682e-14 1.803220150509241698e-14
1.840000000000000000e+02 4.320071792602539062e+01 1.503487396240234375e+01 1.582474385905530134e-14 -1.190330792917235203e-13 -3.096249995217410789e-14 -2.725953787512374465e-14
1.850000000000000000e+02 4.452017211914062500e+01 7.796039104461669922e+00 -6.193405299248846974e-14 1.920778498005950435e-14 -1.281788023432210016e-14 -3.068029229107149813e-14
1.860000000000000000e+02 4.408519363403320312e+01 1.040197610855102539e+00 -2.407276038663558326e-13 -2.404218046436062961e-13 -1.443448225529886386e-13 1.224643894322599569e-13
1.870000000000000000e+02 1.930180358886718750e+01 -1.293591260910034180e+00 -9.541222216328301003e-15 -9.559099524306460816e-14 -3.153966481430139912e-14 8.696861996835766884e-14
1.880000000000000000e+02 1.869978332519531250e+01 2.753252089023590088e-01 -1.888497437111378609e-15 1.821944423672020030e-13 5.409178150967558496e-14 3.526796503493592749e-14
1.890000000000000000e+02 1.870874404907226562e+01 -2.103693246841430664e+00 1.672334823789659031e-13 2.592054310990646315e-14 5.794620832428806767e-14 -6.590464783471803797e-15
1.900000000000000000e+02 2.524559211730957031e+01 -4.120230197906494141e+00 -7.698872870600878549e-14 5.850672729493591739e-14 -5.544600592728449878e-15 -4.367929019237319632e-14
1.910000000000000000e+02 2.444323348999023438e+01 -4.746679782867431641e+00 -8.601791696462302017e-14 1.461389738605448074e-13 1.803631639115017837e-14 1.498760933882261476e-14
1.920000000000000000e+02 2.805666923522949219e+01 -4.940026760101318359e+00 -1.364056572772734399e-13 -1.270861552522513718e-14 -4.473427989257379445e-14 5.983316056154541762e-14
1.930000000000000000e+02 3.029112434387207031e+01 -4.268494606018066406e+00 -1.307057354059740217e-13 8.123610426924790517e-14 -1.484088967983101387e-14 -4.140726491883277988e-15
1.940000000000000000e+02 3.322399902343750000e+01 -4.906855583190917969e+00 5.228309172861274334e-15 9.374259994556627396e-14 2.969127290493485394e-14 -4.446914502755604237e-14
1.950000000000000000e+02 3.471536254882812500e+01 -4.869789600372314453e+00 -8.080678731399795756e-14 1.111946821376113767e-14 -2.090619615358751959e-14 -3.248447924498673589e-14
1.960000000000000000e+02 3.546260452270507812e+01 -4.849779129028320312e+00 -1.156777310658968494e-13 -1.868290136312900085e-13 -9.075202476440877297e-14 -2.889683731557325663e-14
1.970000000000000000e+02 3.771002960205078125e+01 -4.784940242767333984e+00 -1.858779243805314119e-13 -3.999185965025686684e-13 -1.757389535544245929e-13 1.114031284756011875e-13
1.980000000000000000e+02 4.071452331542968750e+01 -4.704350471496582031e+00 -1.377241013291244376e-13 -3.335302953960672667e-13 -1.413763176623047957e-13 -1.176279668287094626e-13
1.990000000000000000e+02 4.221886062622070312e+01 -4.669910430908203125e+00 -2.268509273657681735e-13 4.003101764459525425e-14 -5.604597461041777029e-14 -7.606045513471743069e-14
2.000000000000000000e+02 4.522828292846679688e+01 -4.612725257873535156e+00 -6.184116397136077414e-14 -3.010090549211696942e-13 -1.088550636348800671e-13 -5.064500624158817937e-15
2.010000000000000000e+02 4.823800659179687500e+01 -4.573057651519775391e+00 -5.031204606035198645e-14 -1.130642007427483386e-13 -4.901287370211691863e-14 -3.885406875251719294e-14
2.020000000000000000e+02 4.901631164550781250e+01 -3.863352775573730469e+00 -1.355085748472317775e-13 -2.410788853702411361e-13 -1.129762448415054521e-13 -4.316116945590016060e-15
2.030000000000000000e+02 5.425184249877929688e+01 -4.538769245147705078e+00 -1.852630733285148823e-13 5.785438317654212348e-14 -3.822260569033911204e-14 -1.894322609744588520e-14
2.040000000000000000e+02 5.725490188598632812e+01 -4.535884380340576172e+00 -3.059790647848975587e-13 2.348736981815091607e-13 -2.133160320475294136e-14 -3.309698570980526555e-14
2.050000000000000000e+02 5.728483200073242188e+01 -3.833359479904174805e+00 -2.574270820381724389e-13 2.099307462892149867e-13 -1.424890512925856140e-14 -2.456197171921224026e-14
2.060000000000000000e+02 6.025701141357421875e+01 -4.536441802978515625e+00 -2.868755309259202191e-13 -7.719570967699984632e-14 -1.092213748913814508e-13 -3.719273559922228745e-14
2.070000000000000000e+02 6.400753021240234375e+01 -4.540309906005859375e+00 -1.969966073947504448e-13 9.857667796191876830e-14 -2.952597950747586075e-14 -9.973937637169222326e-14
2.080000000000000000e+02 6.625722503662109375e+01 -4.543506622314453125e+00 -2.125379001483365671e-13 2.291689787155964941e-13 4.989318403276999866e-15 5.394186684240694085e-14
2.090000000000000000e+02 6.850681304931640625e+01 -4.545362472534179688e+00 -2.223450237944998853e-13 -4.953977562915413968e-14 -8.156543745540395518e-14 1.862889725291749787e-14
2.100000000000000000e+02 6.928771972656250000e+01 -3.854055404663085938e+00 -2.307935472508487740e-13 8.409227226233509378e-14 -4.401038181892774626e-14 5.623613011894457170e-14
2.110000000000000000e+02 7.225608825683593750e+01 -4.545617580413818359e+00 -2.648474972319347920e-13 -3.880117798241156102e-13 -1.958577885378259831e-13 -5.374110648138051560e-14
2.120000000000000000e+02 7.525802612304687500e+01 -4.535772800445556641e+00 -1.399401292545218722e-13 -3.344800293941102565e-13 -1.423260516603477854e-13 -1.564938635493021146e-13
2.130000000000000000e+02 7.749393463134765625e+01 -3.759197711944580078e+00 -2.015807497052907182e-13 -3.151464820442401171e-13 -1.550181695248592506e-13 -1.535165224109125148e-13
2.140000000000000000e+02 7.675527954101562500e+01 -2.269198417663574219e+00 -1.060314691408124899e-13 4.578183535400293103e-13 1.055360768394131288e-13 -5.304476408357454431e-14
2.150000000000000000e+02 7.963401794433593750e+01 1.109354019165039062e+00 -2.839915585681196397e-12 -9.197254503129359549e-13 -1.127892267430152806e-12 1.225839850634014017e-12
2.160000000000000000e+02 7.961721038818359375e+01 1.878573417663574219e+01 -1.096157534316230531e-14 4.756871437548715331e-13 1.394176657801282637e-13 5.177610862836315442e-14
2.170000000000000000e+02 7.958948516845703125e+01 2.602079010009765625e+01 -9.585942337218128495e-14 2.105476031152506144e-13 3.440645460054715665e-14 3.006204294287058432e-14
2.180000000000000000e+02 7.248131561279296875e+01 3.213954925537109375e+01 -5.959720005232994541e-15 1.575741490414395152e-13 4.548433095549926641e-14 2.167731970217478404e-14
2.190000000000000000e+02 6.240126419067382812e+01 4.036912155151367188e+01 2.083135909863170765e-14 1.290239616535959755e-13 4.495659893617373615e-14 -3.484847705000591878e-14
2.200000000000000000e+02 5.725857162475585938e+01 4.046753692626953125e+01 4.684262960158447342e-14 8.637676077866141000e-15 1.664409238146154213e-14 3.236107332083536237e-14
2.210000000000000000e+02 7.874977874755859375e+01 2.681578636169433594e+01 -5.198329966352513432e-14 2.522271399987147111e-13 6.007314871242508403e-14 5.720548817630954908e-14
2.220000000000000000e+02 7.960216522216796875e+01 3.166846466064453125e+01 1.294657604863566625e-13 4.672438651265320431e-13 1.790128917496247585e-13 6.878111497238617589e-14
2.230000000000000000e+02 7.189866638183593750e+01 3.482918930053710938e+01 -2.827031923174124634e-14 3.081408012865077817e-13 8.396113800957297202e-14 3.260345349275807492e-14
2.240000000000000000e+02 7.878696441650390625e+01 3.331218338012695312e+01 -2.584590764879209773e-14 1.719269800311284957e-13 4.382432256173386664e-14 4.133772181979730731e-14
2.250000000000000000e+02 7.959416198730468750e+01 3.804817581176757812e+01 3.747689482423537111e-14 5.193219443887231446e-13 1.670396541355798070e-13 -3.473752589831097248e-14
2.260000000000000000e+02 7.882888793945312500e+01 3.872059631347656250e+01 5.406263002376288096e-14 2.976754042913198894e-13 1.055214062287666843e-13 6.197853153958174030e-15
2.270000000000000000e+02 3.354667282104492188e+01 3.289054870605468750e+01 1.365205013923939670e-14 -1.199642327750355397e-13 -3.189365343548612730e-14 -5.605381982957523962e-15
2.280000000000000000e+02 3.800762939453125000e+01 2.318571090698242188e+01 -1.226016578976260943e-14 -5.672417356249355447e-14 -2.069530189038014389e-14 2.145779586730078153e-14
2.290000000000000000e+02 3.479466629028320312e+01 1.667910575866699219e+01 -6.589220407368992505e-14 -6.255272585716301070e-14 -3.853347694637680731e-14 -8.153865257954587970e-15
2.300000000000000000e+02 3.634413146972656250e+01 7.490516185760498047e+00 -6.683340675588816948e-14 -2.116466859625534824e-13 -8.354402510502706436e-14 1.906374872144480509e-14
2.310000000000000000e+02 3.581252288818359375e+01 1.357391715049743652e+00 -1.070621456072951005e-13 -9.163472796313784641e-14 -5.960906274875624189e-14 -4.499915387144379220e-14
2.320000000000000000e+02 2.888287544250488281e+01 3.684301757812500000e+01 2.615499505344287545e-14 -1.775133859349686816e-13 -4.540751523157866842e-14 -5.557251029795692854e-15
2.330000000000000000e+02 2.816982460021972656e+01 2.707578468322753906e+01 -3.661591971466926498e-14 -6.144348539075666915e-14 -2.941782017637506463e-14 -8.095481817999190810e-15
2.340000000000000000e+02 3.020501327514648438e+01 2.266233444213867188e+01 1.012180570343071059e-14 -1.443526694662120025e-13 -4.026925751947178778e-14 -2.786635905480030345e-14
2.350000000000000000e+02 2.893105888366699219e+01 1.678485107421875000e+01 -6.373839580046600228e-14 6.996757689149485024e-15 -1.702249079812024474e-14 -1.209295555674397976e-14
2.360000000000000000e+02 2.614750862121582031e+01 1.067544841766357422e+01 -1.454958928944621865e-13 -1.767327468182519623e-13 -9.666859055856152905e-14 -1.197841467941856974e-14
2.370000000000000000e+02 3.007051849365234375e+01 1.116805672645568848e+00 1.624801774244635788e-13 -2.186753789113968227e-14 4.218378914949173775e-14 -9.812111653783109344e-14
2.380000000000000000e+02 1.785576057434082031e+01 4.057883071899414062e+01 5.583192599651481958e-14 -1.590758232604405631e-13 -3.097316917917772305e-14 -1.265625247782146837e-16
2.390000000000000000e+02 2.296520423889160156e+01 4.042597198486328125e+01 2.577421816826828277e-14 -2.005520451315093156e-13 -5.243334859719207819e-14 3.758200060156131547e-15
2.400000000000000000e+02 2.197891235351562500e+01 3.001118087768554688e+01 4.813610312215041431e-14 -1.966872438573588622e-13 -4.456534425344160777e-14 3.811885431869582730e-15
2.410000000000000000e+02 2.096743583679199219e+01 2.518785667419433594e+01 7.726867648320812076e-14 -1.452420676133561739e-13 -2.039201666141805813e-14 -2.160717690381265543e-14
2.420000000000000000e+02 2.062934875488281250e+01 1.574600887298583984e+01 -5.023962813149353279e-14 -2.731614847512053856e-13 -9.702033284837013882e-14 -2.597293548582593065e-14
2.430000000000000000e+02 1.955974769592285156e+01 1.409255313873291016e+01 -1.415657142293108572e-13 -1.292974516516054440e-13 -8.125894705376945915e-14 1.508865054384786464e-13
2.440000000000000000e+02 1.912838172912597656e+01 5.871118068695068359e+00 8.839778139081017061e-14 -5.361713473922037621e-14 1.043419399547693832e-14 1.210423363103008132e-13
2.450000000000000000e+02 1.759208488464355469e+01 3.711615753173828125e+01 5.874051516464168232e-14 -1.521104206134160641e-13 -2.801097298988503015e-14 -5.575126389598073981e-15
2.460000000000000000e+02 1.620954132080078125e+01 2.998375701904296875e+01 5.933604708919723580e-14 -1.575740677262765788e-13 -2.947140348061837167e-14 6.925836721618713887e-14
2.470000000000000000e+02 1.162614250183105469e+01 1.803555488586425781e+01 -1.943898601114435465e-13 -1.176231556815690582e-13 -9.360390338265106580e-14 9.773514225849214837e-15
2.480000000000000000e+02 1.289686107635498047e+01 1.712365341186523438e+01 -1.892931476713335948e-13 -2.755671667416248471e-13 -1.394580929686348170e-13 2.027330126691540002e-13
2.490000000000000000e+02 1.468142604827880859e+01 1.548165893554687500e+01 -7.514639816441279208e-14 -2.173539668560986460e-13 -8.775011289428522043e-14 1.862896501555327822e-13
2.500000000000000000e+02 1.524345397949218750e+01 1.486461353302001953e+01 -2.654101168442918324e-13 -4.683170626469668196e-13 -2.201181402948504395e-13 8.719019023483223774e-14
2.510000000000000000e+02 1.675248336791992188e+01 1.196002960205078125e+01 -2.937601401823038139e-14 -1.955935142582826414e-13 -6.749086017701980134e-14 4.278424402953673322e-14
2.520000000000000000e+02 1.801907539367675781e+01 8.185215950012207031e+00 -4.590674205113024972e-15 -3.908504921622257822e-13 -1.186323446162457218e-13 1.302022590221260656e-13
2.530000000000000000e+02 1.844774055480957031e+01 5.829733371734619141e+00 1.111288592072802450e-14 -1.811280854848492522e-14 -2.099977000085307029e-15 -2.978264404302106982e-14
2.540000000000000000e+02 1.290664482116699219e+01 4.102895355224609375e+01 3.237992488610945407e-14 -1.405323475861877669e-13 -3.244572579358395714e-14 8.317334993478142646e-15
2.550000000000000000e+02 9.683747291564941406e+00 3.855312347412109375e+01 -5.416218350011957339e-15 -1.166986022789820443e-13 -3.663444940742340006e-14 -1.881742476411967652e-14
2.560000000000000000e+02 5.472574710845947266e+00 2.421104431152343750e+01 -3.178910924100421254e-14 -1.362390408143508355e-14 -1.362390408143508355e-14 -4.680857210084127251e-14
2.570000000000000000e+02 9.080707550048828125e+00 1.870612907409667969e+01 2.920691845927775310e-13 3.996782017758743200e-13 2.075242240421118489e-13 1.903174476737892751e-13
2.580000000000000000e+02 9.823293685913085938e+00 1.876453208923339844e+01 1.687273909999065236e-13 1.409381644593490912e-13 9.289966663777668443e-14 5.823652378476179559e-14
2.590000000000000000e+02 1.100607585906982422e+01 1.842126464843750000e+01 8.370378737734048696e-15 1.694344941042744135e-13 5.334146278433878063e-14 1.324731611299784229e-13
2.600000000000000000e+02 1.059365177154541016e+01 1.903455924987792969e+01 1.349706072817716263e-13 -3.365734882639082048e-14 3.039397821424059953e-14 9.635403640326917207e-14
2.610000000000000000e+02 1.306724786758422852e+00 3.725822067260742188e+01 -3.788859349418242928e-14 -4.279965054240775224e-13 -1.397655320471702378e-13 6.066769130249824449e-14
2.620000000000000000e+02 1.246266961097717285e+00 3.797822189331054688e+01 1.378879598527707820e-14 -3.600981004266839980e-13 -1.038927922641583179e-13 1.287786117841601893e-14
2.630000000000000000e+02 1.210464715957641602e+00 3.088233947753906250e+01 -3.121580684911640091e-14 -5.912915420963268942e-14 -2.710348730118519039e-14 1.362413955659442025e-14
2.640000000000000000e+02 1.111281037330627441e+00 2.444107818603515625e+01 5.988976946747631702e-14 2.566704308945219615e-14 2.566704308945219615e-14 -1.380021991863669695e-13
2.650000000000000000e+02 5.860476016998291016e+00 1.665300559997558594e+01 9.099845714195115010e-14 -6.751608990038671793e-15 2.527405537730998547e-14 3.181331066637316241e-13
2.660000000000000000e+02 1.102079272270202637e+00 1.076820278167724609e+01 4.286310618505789760e-14 -3.476376901189598412e-13 -9.143237518017058307e-14 -4.807709880704467975e-14
2.670000000000000000e+02 5.027575969696044922e+00 2.571535348892211914e+00 -2.092767521506399414e-14 -3.749766068397025753e-13 -1.187712851246497392e-13 1.414752646630712540e-13
2.680000000000000000e+02 4.022043347358703613e-01 6.717884063720703125e+00 6.684291385368815175e-14 -3.144851458240782716e-13 -7.429267026874339375e-14 2.048525127198823348e-14
2.690000000000000000e+02 5.792019367218017578e+00 1.853781938552856445e+00 5.090503688606577704e-14 -2.526892540696823453e-13 -6.053526278339271816e-14 1.520527308934444682e-14
2.700000000000000000e+02 1.192784118652343750e+01 2.497128486633300781e+00 2.114569980162135654e-14 1.463152922388452626e-13 5.023829659570044903e-14 9.183903908627916168e-14
2.710000000000000000e+02 1.116968917846679688e+01 1.801280140876770020e+00 6.392161919135247450e-14 -1.835596968478500624e-14 1.366969383553070377e-14 -1.087843601007068561e-13
2.720000000000000000e+02 1.237001800537109375e+01 1.141990470886230469e+01 -9.091204622880405539e-14 9.829054345607268761e-14 2.213549295235531754e-15 -1.622967304168790315e-13
2.730000000000000000e+02 9.805118560791015625e+00 1.439998531341552734e+01 2.233479108040489769e-13 3.702262292310659619e-13 1.780722379447763348e-13 -2.923347870199821674e-13
2.740000000000000000e+02 3.674752712249755859e-01 1.396485614776611328e+01 -2.514322775047476977e-14 -4.682851328929871215e-13 -1.480285214067525446e-13 1.091136526292814379e-13
2.750000000000000000e+02 1.425064563751220703e+01 1.709904193878173828e+00 4.059302061696669350e-14 1.739700810981462814e-14 1.739700810981462814e-14 5.379762390775311154e-14
2.760000000000000000e+02 8.711715698242187500e+00 1.540451908111572266e+01 4.000446350051201083e-13 4.002024406313253735e-13 2.400741281119445070e-13 -4.119955245018847023e-13
2.770000000000000000e+02 7.820051193237304688e+00 1.692568778991699219e+01 2.228590101631573728e-14 9.703210457345790019e-13 2.977820897850924631e-13 -1.780819280016929240e-13
2.780000000000000000e+02 3.708484768867492676e-01 1.718020629882812500e+01 -2.331486986437668329e-14 -6.047544192852583045e-13 -1.884207850508246018e-13 -2.125258011297179866e-14
2.790000000000000000e+02 7.965565681457519531e+00 1.805526733398437500e+01 2.719935821710040003e-13 8.028328978178234099e-13 3.224479331546264982e-13 3.272487803743923118e-13
2.800000000000000000e+02 6.325764846801757812e+01 -4.539071559906005859e+00 -2.986031831953700477e-13 -3.647090089783575073e-14 -1.005222313265989598e-13 5.470311906902690369e-14
2.810000000000000000e+02 4.974226760864257812e+01 -4.559050083160400391e+00 -1.777816446574959075e-13 -1.219430779226746142e-13 -8.991741948455658773e-14 1.006881871038227058e-14
2.820000000000000000e+02 3.099746894836425781e+01 -4.946180820465087891e+00 -1.176100368352819836e-13 8.684854457775489922e-14 -9.228448524291072569e-15 8.196146940395859781e-14
2.830000000000000000e+02 7.083157348632812500e+01 9.449544548988342285e-01 -2.486805249571344412e-13 7.642642757803991271e-14 -5.167622650322292732e-14 -1.242596147775932441e-14
2.840000000000000000e+02 7.363744354248046875e+01 1.168895339965820312e+01 -5.462652357367259182e-14 -4.628684385104588073e-14 -3.027401124385507847e-14 -4.942045579194032090e-14
2.850000000000000000e+02 6.776774597167968750e+01 2.067158699035644531e+01 6.264176596057838275e-14 1.011917600494266489e-13 4.915005915825422511e-14 2.383624913659780631e-14
2.860000000000000000e+02 5.659866333007812500e+01 2.334912300109863281e+01 2.312350648686709725e-14 -1.527663095646941173e-15 6.478752996190223143e-15 4.530660989063815813e-14
2.870000000000000000e+02 4.798446273803710938e+01 2.826655578613281250e+01 2.592930312464696713e-14 -3.463838916216432917e-14 -2.612725853606855976e-15 3.781907241800358532e-15
2.880000000000000000e+02 6.111981964111328125e+01 1.845657587051391602e+00 -2.070027363496734774e-13 9.428833988535043065e-14 -3.381431758404419841e-14 -1.723147449381179364e-13
2.890000000000000000e+02 6.714321136474609375e+01 1.369004249572753906e+01 -7.097690897473959981e-14 3.820774534431248259e-14 -9.830749089128135165e-15 9.941838307193483909e-15
2.900000000000000000e+02 5.924534606933593750e+01 1.802980422973632812e+01 3.644533066722403791e-14 4.993263967448605123e-14 2.591339076369984784e-14 -8.201160189597479083e-15
2.910000000000000000e+02 4.714211273193359375e+01 2.281478500366210938e+01 -1.570970662042280031e-14 -2.960820607786351921e-14 -1.359537347067271695e-14 3.607728468724667736e-14
2.920000000000000000e+02 4.422554397583007812e+01 2.433429718017578125e+01 -2.820564657215248600e-14 -8.643342389470093368e-14 -3.439172300352850986e-14 -9.920909393616251029e-16
2.930000000000000000e+02 5.888433456420898438e+01 1.919403314590454102e+00 -2.608789649149317880e-13 -2.261826522517024207e-13 -1.461184824394848314e-13 -5.445274290608211054e-14
2.940000000000000000e+02 5.496675872802734375e+01 8.370337486267089844e+00 -8.182166153381659202e-14 7.931094745793759726e-14 -7.532155780164140335e-16 8.387710556494176739e-14
2.950000000000000000e+02 4.910468292236328125e+01 1.528620338439941406e+01 1.328231856369700009e-14 5.144337036975914212e-14 1.941770684944343212e-14 8.838515212956660899e-15
2.960000000000000000e+02 4.452731704711914062e+01 1.556691169738769531e+01 -1.506947846130653190e-14 1.641712651511296334e-14 4.042943314386347048e-16 -1.283382732362005688e-14
2.970000000000000000e+02 5.078751373291015625e+01 1.020755171775817871e+00 -2.156622862063695134e-13 -1.839285966370382552e-13 -1.198772662082750462e-13 6.045866389990661727e-14
2.980000000000000000e+02 4.975133895874023438e+01 8.154846191406250000e+00 -8.679156975359078596e-14 -2.430756605113076896e-13 -9.896016704659046925e-14 8.917111569538976878e-14
2.990000000000000000e+02 4.436710739135742188e+01 9.448940277099609375e+00 2.182899111577603357e-14 6.654396543341600800e-14 2.651188730357079137e-14 -1.826880321824896070e-14
3.000000000000000000e+02 7.377912902832031250e+01 1.243390560150146484e+01 6.345865131117400804e-14 2.719656436362717644e-14 2.719656436362717644e-14 5.512660843759974172e-14
3.010000000000000000e+02 7.346057128906250000e+01 1.715478897094726562e+01 2.736679596316866220e-15 -4.457808701710010146e-14 -1.255242180271849695e-14 7.625563185455555559e-14
3.020000000000000000e+02 6.625762176513671875e+01 2.565237045288085938e+01 -1.191278402556646479e-14 -5.105478807597560106e-15 -5.105478807597560106e-15 -5.428549455658085443e-14
3.030000000000000000e+02 5.597381591796875000e+01 2.924542427062988281e+01 1.520659107261037452e-14 -2.207723275569374588e-14 -2.061192208463479870e-15 1.246523331332582279e-14
3.040000000000000000e+02 4.741845321655273438e+01 3.430826187133789062e+01 2.401333153861668485e-14 -5.833499644707779153e-14 -1.029649947253833200e-14 -1.468434740326657849e-15
3.050000000000000000e+02 6.632377624511718750e+01 1.475890636444091797e+01 1.864949878826061697e-14 9.949454319235426225e-14 3.544321276359105322e-14 3.577685057118504958e-15
3.060000000000000000e+02 5.609934234619140625e+01 8.215454101562500000e+00 -3.086005301126959477e-14 -5.897668827912691536e-14 -2.695102306474531084e-14 3.738710933182641527e-14
3.070000000000000000e+02 5.240637969970703125e+01 9.492538452148437500e+00 -4.123705703621381724e-14 1.424553021118352136e-13 3.036547386149959782e-14 7.861345987158693815e-14
3.080000000000000000e+02 3.749059295654296875e+01 1.021701526641845703e+01 -9.479231093643958328e-14 -1.550026518812655518e-13 -7.493848884531154053e-14 3.045523563698603053e-14
3.090000000000000000e+02 2.626726913452148438e+01 1.163567638397216797e+01 -5.899585155252559665e-14 -2.528393686367265414e-14 -2.528393686367265414e-14 -3.928728205932451034e-14
3.100000000000000000e+02 1.879609107971191406e+01 1.321366977691650391e+01 -1.071318191494044503e-13 -1.602910106078894725e-13 -8.022684757193546123e-14 9.494181563976175631e-14
3.110000000000000000e+02 7.333273315429687500e+01 1.789697456359863281e+01 8.489400419350433963e-16 9.186573078851303920e-14 2.781440035974983016e-14 -1.872771143891782675e-13
3.120000000000000000e+02 6.296029663085937500e+01 1.792971992492675781e+01 8.671997005855937996e-15 9.521847015286216687e-14 3.116713972409895783e-14 -5.693640952588938098e-14
3.130000000000000000e+02 5.535673904418945312e+01 1.537209415435791016e+01 2.690123107997391405e-14 -3.422184885189076542e-14 -2.196185331575055411e-15 6.204592910416181772e-14
3.140000000000000000e+02 5.213080596923828125e+01 1.736371231079101562e+01 1.365457514445516177e-14 4.016517072278139033e-14 1.614592350606108145e-14 2.899050560701242618e-14
3.150000000000000000e+02 3.320486450195312500e+01 1.771169853210449219e+01 1.785304387235276541e-14 -3.809964361145209977e-14 -6.073980514652863386e-15 1.071630594185650834e-14
3.160000000000000000e+02 2.712144470214843750e+01 1.606855964660644531e+01 -8.491671992308380545e-14 -1.278947786434794787e-13 -6.384344821471626963e-14 5.838074215546015452e-15
3.170000000000000000e+02 2.240004348754882812e+01 1.449353122711181641e+01 9.763066921477780297e-16 4.184171764660016713e-16 4.184171764660016713e-16 1.920035141891440061e-14
3.180000000000000000e+02 3.616473078727722168e-01 2.040411567687988281e+01 1.491134079818594305e-14 -3.367415396006434580e-13 -9.654905726904500218e-14 -8.442901868084551342e-14
3.190000000000000000e+02 6.278897857666015625e+01 2.575661659240722656e+01 2.960690503525653661e-14 3.556414873966823320e-14 1.955131613247743094e-14 -2.328392266861580018e-14
3.200000000000000000e+02 5.875342178344726562e+01 2.256458282470703125e+01 6.448530013599242453e-15 3.707686826830147719e-14 1.305761935751527381e-14 1.009202233093935488e-14
3.210000000000000000e+02 4.862353134155273438e+01 2.571126937866210938e+01 -4.157197471059111485e-15 -1.893826248437497500e-14 -6.928637605465399682e-15 2.515080191908911772e-14
3.220000000000000000e+02 3.640729522705078125e+01 2.467530822753906250e+01 6.865279964527251644e-14 -7.351700492949295174e-14 -1.459262644057314658e-15 -8.675249612373394509e-15
3.230000000000000000e+02 2.704950523376464844e+01 2.451368904113769531e+01 -5.318830567494804706e-14 -7.998367457717411866e-14 -3.995159305919711301e-14 1.405504723971931144e-14
3.240000000000000000e+02 2.203740310668945312e+01 2.169744110107421875e+01 2.075002699503634973e-14 -1.512354559076931060e-13 -3.914562765735749017e-14 1.658643823687373092e-14
3.250000000000000000e+02 1.347540760040283203e+01 2.394421195983886719e+01 1.695619420696500845e-13 -1.560853361707095766e-13 4.042980160319552610e-15 7.927234986059711330e-14
3.260000000000000000e+02 9.982713699340820312e+00 2.113939094543457031e+01 2.414036615191409579e-14 -1.269069755966550916e-13 -3.082998334164206711e-14 1.099619188565069405e-13
3.270000000000000000e+02 3.828147053718566895e-01 2.763924980163574219e+01 -7.652227105008763131e-14 -2.157990583104285598e-13 -8.769639745290214172e-14 -2.785817671652982691e-14
3.280000000000000000e+02 7.124972534179687500e+01 3.312044525146484375e+01 -5.355695474238385267e-14 2.515527120373201031e-13 5.939872752729405403e-14 1.621151096123287644e-14
3.290000000000000000e+02 3.832640075683593750e+01 3.686380767822265625e+01 -1.709801225569743816e-14 -1.045484838567596608e-13 -3.649395035839643475e-14 2.677264639638302773e-14
3.300000000000000000e+02 3.016976547241210938e+01 2.724523925781250000e+01 2.013106613915974230e-14 -1.515007195217188407e-13 -3.941089804764680293e-14 -3.136831343720364318e-14
3.310000000000000000e+02 2.133962821960449219e+01 3.471349334716796875e+01 2.531893118285551830e-14 -2.636547122118748643e-13 -7.150073447811239324e-14 8.923631859760351032e-15
3.320000000000000000e+02 1.448918724060058594e+01 2.911842536926269531e+01 5.135297162549637418e-14 -9.236895645060860804e-14 -1.230479595575343851e-14 7.222099031008524794e-14
3.330000000000000000e+02 7.537652969360351562e+00 3.191226959228515625e+01 4.469593979324927580e-14 -3.720071719068426472e-15 1.229276046460590216e-14 4.242202224810469324e-14
3.340000000000000000e+02 4.315174818038940430e-01 3.407317733764648438e+01 -1.768356376044208367e-13 -3.003575104018781083e-14 -6.206141286643762633e-14 -3.692327747804174942e-14
3.350000000000000000e+02 1.192748069763183594e+01 1.775632023811340332e+00 -3.373643798674184902e-14 2.142962727842007142e-13 5.416795010042448066e-14 7.979905527599057136e-14
3.360000000000000000e+02 1.870032882690429688e+01 1.852832794189453125e+00 -6.665307682954951796e-14 1.718534474069114554e-14 -1.484031877962456447e-14 2.910441798589097351e-14
3.370000000000000000e+02 1.869619560241699219e+01 -5.109853744506835938e-01 8.043180921638026781e-14 2.174745707952605023e-13 8.937190993773408421e-14 6.162866034555361527e-14
3.380000000000000000e+02 2.160318946838378906e+01 -4.335628032684326172e+00 -1.988863345119429998e-14 1.287291399778428547e-13 3.265215449909340817e-14 7.997777922786122873e-14
3.390000000000000000e+02 2.372849655151367188e+01 -4.679539680480957031e+00 -1.920583341614903045e-14 -9.973296602634740271e-14 -3.568164237384777171e-14 1.161806789011857188e-13
3.400000000000000000e+02 2.516025543212890625e+01 -4.807533740997314453e+00 -1.638944039619900928e-14 -2.357787901551000598e-13 -7.565047085945561522e-14 -1.704608913603074954e-14
3.410000000000000000e+02 2.587786865234375000e+01 -4.863073825836181641e+00 6.131910707278184769e-14 1.635324633954965412e-13 6.745547452861530568e-14 -3.054484155841016846e-14
3.420000000000000000e+02 2.883210182189941406e+01 -4.267821311950683594e+00 -7.659134828100211401e-14 -1.700777105956285951e-13 -7.400072172874735954e-14 1.147123438989886002e-13
3.430000000000000000e+02 2.878699493408203125e+01 -4.954144954681396484e+00 -1.162168590664947390e-14 4.077022668579587117e-14 8.744562318447213906e-15 6.389054324658360873e-14
3.440000000000000000e+02 3.176317024230957031e+01 -4.249143600463867188e+00 -4.876979896317745755e-14 2.078534013742056041e-13 4.772508207856115958e-14 -8.738057952445248133e-15
3.450000000000000000e+02 3.173736190795898438e+01 -4.937294483184814453e+00 -6.726397054363647543e-14 -7.457836431745690220e-14 -4.255270249120708670e-14 -4.861218307235237734e-14
3.460000000000000000e+02 3.398809432983398438e+01 -4.198661327362060547e+00 -6.883772387831707529e-14 1.077509663525294537e-13 1.167397325048348186e-14 4.446537149577602446e-15
3.470000000000000000e+02 3.396952438354492188e+01 -4.888421535491943359e+00 -1.615102501609580465e-13 2.228321761593883565e-14 -4.176810942469258436e-14 1.324740640671001959e-14
3.480000000000000000e+02 3.622727966308593750e+01 -4.136306762695312500e+00 -9.275973001862669598e-14 5.174772963649834634e-14 -1.230359994523191544e-14 1.133235419024068713e-13
3.490000000000000000e+02 3.696045684814453125e+01 -4.806743144989013672e+00 -1.133600185292474305e-13 8.866998389873981257e-14 -7.407010050339106477e-15 1.151777376815280030e-13
3.500000000000000000e+02 3.846053314208984375e+01 -4.763981342315673828e+00 -1.049919225453062321e-13 -9.074749144407506796e-14 -5.872182622969346344e-14 4.718611501422324828e-14
3.510000000000000000e+02 3.921175003051757812e+01 -4.743759155273437500e+00 -8.407608376864716959e-14 -1.275344982615625455e-13 -6.348317460906291454e-14 -7.173162210700675945e-14
3.520000000000000000e+02 3.996296691894531250e+01 -4.723891258239746094e+00 -6.645127970019565344e-14 -1.199810108036547529e-13 -5.592968715115512190e-14 3.372947876404720768e-15
3.530000000000000000e+02 4.297093200683593750e+01 -4.654059410095214844e+00 -7.925481966672073830e-14 1.032864928567772678e-13 7.209501448797190487e-15 1.002258646627500471e-13
3.540000000000000000e+02 4.372323226928710938e+01 -4.638472080230712891e+00 -1.258277472016358645e-13 8.332666967449803286e-14 -1.275032173348204442e-14 -3.889635941350770565e-14
3.550000000000000000e+02 4.673300933837890625e+01 -4.590349197387695312e+00 -1.237533567375465049e-13 -1.902900038062982357e-13 -9.421300816315342219e-14 1.921324495443750557e-14
3.560000000000000000e+02 4.748559951782226562e+01 -4.580862522125244141e+00 -1.235485509471639931e-13 -9.870033121969074008e-14 -6.667466600530913556e-14 -9.702058357012252610e-14
3.570000000000000000e+02 4.899016189575195312e+01 -4.565738201141357422e+00 -1.968323372130917348e-13 5.289613351825393772e-14 -4.318085873675908681e-14 -5.570114410945875560e-14
3.580000000000000000e+02 5.049444198608398438e+01 -4.553624153137207031e+00 -2.013532434319217912e-13 -2.692980387297705391e-13 -1.411953778722441211e-13 1.103154704086908855e-13
3.590000000000000000e+02 5.199765777587890625e+01 -4.546308517456054688e+00 -1.699893887761524947e-13 1.864930227661685397e-14 -4.540202645808046056e-14 5.146441405630072796e-14
3.600000000000000000e+02 5.274917602539062500e+01 -4.543115139007568359e+00 -1.367493764710056570e-13 1.243969255946067443e-13 -3.705735262919673811e-15 -2.145269842302420515e-14
3.610000000000000000e+02 5.350073242187500000e+01 -4.540457248687744141e+00 -1.515947740601819582e-13 2.653270737341430208e-14 -3.751861966721711794e-14 -3.427394137814690489e-14
3.620000000000000000e+02 5.500262832641601562e+01 -4.537598609924316406e+00 -2.749497949195572888e-13 -2.093375250705395429e-13 -1.452861946417763339e-13 7.326169564666334955e-14
3.630000000000000000e+02 5.575344467163085938e+01 -4.536569118499755859e+00 -2.611862820207228042e-13 -6.618602286243349675e-14 -9.821168807681510127e-14 4.807243673770299208e-14
3.640000000000000000e+02 5.650432586669921875e+01 -4.535900115966796875e+00 -2.023447463186597850e-13 5.053366714880339061e-14 -4.554332510620963392e-14 5.468749639334774537e-14
3.650000000000000000e+02 5.803540420532226562e+01 -3.833926916122436523e+00 -2.356041793952212693e-13 3.107853330155257998e-13 2.255434439202546465e-14 3.787402113935786629e-14
3.660000000000000000e+02 5.875600814819335938e+01 -4.535954475402832031e+00 -2.318528398784214239e-13 1.293892429180334980e-13 -3.073907976574273559e-14 -8.190152657634730549e-14
3.670000000000000000e+02 5.950658798217773438e+01 -4.536101818084716797e+00 -3.163409475776673974e-13 -8.982374441685384014e-14 -1.218494028549718666e-13 5.179005756693853824e-14
3.680000000000000000e+02 6.100724411010742188e+01 -4.536897182464599609e+00 -1.922585083757172297e-13 1.463582401974028446e-13 -1.377008248637338894e-14 -2.839893779665002282e-14
3.690000000000000000e+02 6.175740432739257812e+01 -4.537462234497070312e+00 -2.113366719038584085e-13 -4.482190714503314632e-14 -7.684757235941475084e-14 2.513217566457899566e-14
3.700000000000000000e+02 6.250754928588867188e+01 -4.538201808929443359e+00 -2.829157535414600355e-13 1.990070299306631596e-13 -2.517261809967859948e-14 -8.861102362934733523e-14
3.710000000000000000e+02 6.403939056396484375e+01 -3.841101884841918945e+00 -2.833714166095013809e-13 6.155889871201775110e-14 -6.654375536924508894e-14 -2.911029978267670737e-14
3.720000000000000000e+02 6.550729370117187500e+01 -4.542769908905029297e+00 -2.413495293375478301e-13 2.168211221459034888e-13 -7.358525884438270326e-15 1.195158406378134253e-14
3.730000000000000000e+02 6.700704956054687500e+01 -4.544411659240722656e+00 -2.377914759630478381e-13 8.109315898906926945e-14 -4.700949848032535960e-14 -1.158358382358313371e-14
3.740000000000000000e+02 6.775686645507812500e+01 -4.545094966888427734e+00 -2.313318536294878269e-13 -5.339126832163733349e-14 -8.541693692415072703e-14 -3.422870304249994722e-14
3.750000000000000000e+02 7.078627014160156250e+01 -3.855037927627563477e+00 -1.639936965521990309e-13 2.957245722173124092e-13 3.951926405478672910e-14 -4.581133310698447259e-14
3.760000000000000000e+02 7.075588226318359375e+01 -4.546409606933593750e+00 -2.055057919626498975e-13 -8.807390987309801633e-14 -8.807390987309801633e-14 -1.231144228447736411e-13
3.770000000000000000e+02 7.375767517089843750e+01 -4.541587352752685547e+00 -2.019033947192952483e-13 -3.610357184654494622e-13 -1.688817407316869912e-13 -9.607402763969763448e-14
3.780000000000000000e+02 7.450834655761718750e+01 -4.538781642913818359e+00 -1.044007138769134646e-13 9.250967911633364849e-14 -3.567310174064060660e-15 3.939799265366243641e-14
3.790000000000000000e+02 7.600561523437500000e+01 -4.531540870666503906e+00 -9.466938273887046118e-14 5.178354981280478345e-15 -2.684730896255170529e-14 -1.414347578534676589e-14
3.800000000000000000e+02 7.675070953369140625e+01 -4.525647640228271484e+00 -1.474461828673834241e-13 -1.546931121610209403e-13 -9.064178850852130931e-14 -1.302345546943389776e-13
3.810000000000000000e+02 7.748395538330078125e+01 -4.518382549285888672e+00 7.692854193290868392e-14 3.989769669157650078e-13 1.427716587532393278e-13 1.805387436770722331e-13
3.820000000000000000e+02 7.964324188232421875e+01 -2.100331306457519531e+00 4.459138136861384716e-13 9.960402728298456410e-14 1.636553577117477731e-13 -4.701877772626253046e-15
3.830000000000000000e+02 7.964172363281250000e+01 -4.497894763946533203e+00 -1.841654948117263380e-14 8.360909078790335069e-14 1.955776205320603617e-14 6.645315672520676897e-14
3.840000000000000000e+02 7.957995605468750000e+01 4.205907821655273438e+01 5.684383221288627497e-14 2.073654426339513468e-13 7.926278177642492873e-14 -4.925034447107734525e-14
3.850000000000000000e+02 7.788387298583984375e+01 3.913239288330078125e+01 2.756575722621511931e-14 2.863195791569239645e-13 9.416560142316149351e-14 -1.253764615998659293e-14
3.860000000000000000e+02 7.870888519287109375e+01 3.943581008911132812e+01 1.521226619335697833e-14 3.267761766474058804e-13 1.025965336992618049e-13 6.309805244486890730e-14
3.870000000000000000e+02 7.952956390380859375e+01 4.041333770751953125e+01 -4.749746060871140596e-14 1.168967944361123945e-13 2.081979879296758096e-14 -6.776563766510909637e-14
3.880000000000000000e+02 7.958256530761718750e+01 3.726201629638671875e+01 -1.615382632345896408e-14 4.048354804598447432e-13 1.166044935304103025e-13 -3.179300220442979330e-14
3.890000000000000000e+02 7.868780517578125000e+01 3.724160003662109375e+01 7.006454607032946980e-14 5.104126214565407604e-13 1.741431570343246471e-13 3.824912798598353869e-14
3.900000000000000000e+02 7.960501098632812500e+01 3.646599197387695312e+01 4.801846718643573708e-14 2.493340820267087032e-13 8.920576950732783672e-14 1.790393869402148730e-14
3.910000000000000000e+02 7.960739135742187500e+01 3.407356262207031250e+01 -9.414652624118932667e-14 1.426552832025501649e-13 1.455262742722143038e-14 1.100358072345618277e-13
3.920000000000000000e+02 7.879393768310546875e+01 3.250781631469726562e+01 1.395975078154892968e-13 3.572086745319558165e-13 1.490418574147389652e-13 4.808857102128229200e-14
3.930000000000000000e+02 7.960018157958984375e+01 3.086336326599121094e+01 -4.641506769860123671e-14 2.546135231904639307e-13 6.245953868043788160e-14 -3.664389890698296903e-14
3.940000000000000000e+02 7.876517486572265625e+01 3.010138702392578125e+01 -8.244288904986005195e-14 1.934220741472286731e-13 3.329375823971601756e-14 1.587191173575610431e-14
3.950000000000000000e+02 7.958080291748046875e+01 2.844991874694824219e+01 6.753350997997994987e-14 2.119467253612616897e-13 8.384407127999884968e-14 2.165818014569862587e-14
3.960000000000000000e+02 7.958097076416015625e+01 2.763945388793945312e+01 -7.715848088490212531e-14 2.414377833943881502e-13 4.928378871996673405e-14 6.684732350721155764e-15
3.970000000000000000e+02 7.873885345458984375e+01 2.764177131652832031e+01 1.957681860045336342e-14 2.828957500113776780e-13 9.074177227761520692e-14 -1.710069565607433978e-14
3.980000000000000000e+02 7.959474945068359375e+01 2.521404647827148438e+01 7.430175723820153788e-14 2.834738195046926368e-13 1.073326743781209680e-13 -4.712492874224538664e-14
3.990000000000000000e+02 7.959844970703125000e+01 2.440930557250976562e+01 -7.043175856988673211e-14 2.900715963000816133e-13 6.589195335193753778e-14 1.293288952086734181e-14
4.000000000000000000e+02 7.960189056396484375e+01 2.360577774047851562e+01 6.402352064303895585e-14 3.476952883593731336e-13 1.235156454112290580e-13 9.939220975386468121e-15
4.010000000000000000e+02 7.960519409179687500e+01 2.280258750915527344e+01 -7.606214920061193929e-14 4.477869084643787412e-13 1.115174237133718937e-13 -1.066034162799846946e-14
4.020000000000000000e+02 7.960823059082031250e+01 2.199923324584960938e+01 9.423276097148339248e-14 3.835175991888373215e-13 1.433251033047117096e-13 -3.304477459893651048e-14
4.030000000000000000e+02 7.881114196777343750e+01 2.276930236816406250e+01 5.949022063812467453e-14 3.457524522763877339e-13 1.215727957757165023e-13 9.654959937013124494e-14
4.040000000000000000e+02 7.961090087890625000e+01 2.119574928283691406e+01 -5.016056607619681640e-14 3.216347273151537456e-13 8.144225175981886777e-14 -5.901105325282996958e-15
4.050000000000000000e+02 7.961854553222656250e+01 1.798278999328613281e+01 1.007430765328706790e-13 4.549341589207833714e-13 1.667031719913489307e-13 1.216761558181381556e-14
4.060000000000000000e+02 7.961971282958984375e+01 1.717982864379882812e+01 -7.654409739507248012e-14 4.247048676284115309e-13 1.044482290371226418e-13 1.369631841040351138e-15
4.070000000000000000e+02 7.962082672119140625e+01 1.637679290771484375e+01 1.027136546389445515e-13 2.270239253749153918e-13 9.892127806991612982e-14 6.694541839283307816e-15
4.080000000000000000e+02 7.885799407958984375e+01 1.715001678466796875e+01 1.251031477847094897e-13 3.052458459606999241e-13 1.291046940578646773e-13 -3.558752684901245189e-14
4.090000000000000000e+02 7.962191772460937500e+01 1.557366275787353516e+01 -6.388113779273729698e-14 2.700035290834068569e-13 6.183671874245358357e-14 -3.678460463204906439e-14
4.100000000000000000e+02 7.962608337402343750e+01 1.236076927185058594e+01 -1.236259409594228295e-14 3.835848197235314228e-13 1.113666654012877844e-13 2.350339059931528390e-14
4.110000000000000000e+02 7.962703704833984375e+01 1.155757522583007812e+01 5.410459542410164802e-14 2.748179017252744272e-13 9.867674982243918036e-14 -4.885650040862546048e-15
4.120000000000000000e+02 7.962800598144531250e+01 1.075442600250244141e+01 -7.038730628081482643e-14 1.757132850679909986e-13 3.159779160327377823e-14 -3.467145732842513706e-14
4.130000000000000000e+02 7.888003540039062500e+01 1.153096199035644531e+01 -4.008464499455181851e-14 2.573265493917287206e-13 6.517257165796624951e-14 2.994931048088756223e-15
4.140000000000000000e+02 7.962896728515625000e+01 9.951154708862304688e+00 1.736374173784416275e-13 3.489217378568887362e-13 1.567677465705991091e-13 -1.312708029435486271e-14
4.150000000000000000e+02 7.963282012939453125e+01 7.541216373443603516e+00 -2.791967774595088825e-13 2.921027677550702695e-13 3.871799460360668410e-15 2.159800861919157489e-14
4.160000000000000000e+02 7.963401031494140625e+01 6.738018035888671875e+00 3.279554362453640515e-13 3.464315965172326539e-13 2.023161098287790116e-13 -1.807659450185801486e-14
4.170000000000000000e+02 7.963505554199218750e+01 5.934662342071533203e+00 -2.984818338672146076e-13 2.838377590689417085e-13 -4.393228284009205800e-15 1.256365176553319446e-14
4.180000000000000000e+02 7.963589477539062500e+01 5.131037235260009766e+00 2.913708499734796176e-13 1.019977491681887949e-13 1.180105817753795971e-13 9.906644088235067730e-15
4.190000000000000000e+02 7.963625335693359375e+01 4.327094078063964844e+00 -4.542788400226788204e-13 1.713166555231820931e-13 -8.488865941560716499e-14 7.319379748561144483e-14
4.200000000000000000e+02 7.890820312500000000e+01 5.105660438537597656e+00 -4.125481694542548761e-13 2.807031408529059302e-13 -3.955350790277832596e-14 8.754764491483713051e-14
4.210000000000000000e+02 7.963587188720703125e+01 3.522663354873657227e+00 6.616237505779887229e-13 2.378020740392838839e-13 2.698277528061926445e-13 -7.883215700230442047e-14
4.220000000000000000e+02 7.963484954833984375e+01 3.064607083797454834e-01 -2.277543821940786195e-12 -1.090467559999863667e-12 -1.010403349530064609e-12 -1.237410239378344823e-12
4.230000000000000000e+02 7.963703918457031250e+01 -4.961970150470733643e-01 1.097631209014127140e-12 5.865482931169743730e-14 3.468857959123411439e-13 2.694058355307699104e-13
4.240000000000000000e+02 7.821507263183593750e+01 -2.958895921707153320e+00 -2.256385318389134143e-13 -1.424531743650717108e-13 -1.104275159269536843e-13 -3.098247841008122672e-13
4.250000000000000000e+02 7.964015960693359375e+01 -1.298657894134521484e+00 -6.628349670349809042e-13 -1.010683236320891742e-13 -2.291709844896155923e-13 -2.281124236985093701e-13
4.260000000000000000e+02 7.964468383789062500e+01 -3.700253009796142578e+00 2.912728448733505060e-14 1.039850172114553661e-13 3.993369017082394612e-14 6.982453759065906929e-14
4.270000000000000000e+02 4.231990873813629150e-01 4.206370925903320312e+01 -1.042254813948513895e-14 -1.874706038193854618e-13 -5.936794296185904374e-14 -2.276117459115191421e-14
4.280000000000000000e+02 5.104499459266662598e-01 4.121920394897460938e+01 3.667269125092603721e-14 8.434329217031980019e-14 3.630479434874739342e-14 -4.630817214065774401e-14
4.290000000000000000e+02 5.516602516174316406e+00 4.050369262695312500e+01 -1.071860733037419827e-14 -6.178237310855774767e-14 -2.175029497871253104e-14 -5.061378884231712214e-15
4.300000000000000000e+02 2.793875503540039062e+01 4.061539077758789062e+01 3.751893137534170752e-14 -2.012374641924274954e-13 -4.911556120037845197e-14 1.242321285584548421e-14
4.310000000000000000e+02 4.746729278564453125e+01 4.087610244750976562e+01 2.414737280845378337e-14 -4.683981067593601111e-14 -6.807731275541373597e-15 2.029340847383050150e-14
4.320000000000000000e+02 7.854732513427734375e+01 4.197631072998046875e+01 2.498581006535934707e-14 1.022101037161972370e-13 3.815877328743402797e-14 6.036535475043708354e-14
4.330000000000000000e+02 3.833131194114685059e-01 1.898037075996398926e+00 -9.329602045885128370e-15 4.175254773538562836e-14 9.726883368036971095e-15 -1.759736020096047682e-14
4.340000000000000000e+02 1.151240110397338867e+00 1.890531778335571289e+00 -1.073009055604012482e-14 4.115234018896123114e-14 9.126674127546679366e-15 1.256661333152997440e-13
4.350000000000000000e+02 2.685710191726684570e+00 2.632833003997802734e+00 -5.387700783556978457e-14 -2.309014524720653938e-14 -2.309014524720653938e-14 2.928762528315144789e-15
4.360000000000000000e+02 1.215420722961425781e+00 6.713831901550292969e+00 2.065243016478781474e-14 -4.029074979466223949e-13 -1.146765245697151103e-13 -4.176735725943542255e-14
4.370000000000000000e+02 2.057882070541381836e+00 6.749212265014648438e+00 -6.025126280057371830e-14 -4.604560005852520455e-13 -1.562121742723632245e-13 1.057439861585143803e-13
4.380000000000000000e+02 4.042926430702209473e-01 5.911312103271484375e+00 -6.754916992510878737e-14 -3.949572331511663759e-13 -1.387519249886406958e-13 4.550821050834825965e-14
4.390000000000000000e+02 3.801554441452026367e-01 8.337042808532714844e+00 8.185054874544975267e-14 -3.309287793882426110e-13 -7.472347122571693090e-14 -1.827627235477784912e-14
4.400000000000000000e+02 3.735122680664062500e-01 9.144298553466796875e+00 -1.436312142355858357e-13 -4.504393006591472792e-13 -1.782211531131672189e-13 2.919913659818473839e-14
4.410000000000000000e+02 3.697773516178131104e-01 9.948473930358886719e+00 4.804137773359307140e-14 -5.284222495335888503e-13 -1.441142534084824400e-13 -5.186544688737595998e-14
4.420000000000000000e+02 3.670231997966766357e-01 1.075115394592285156e+01 -1.667644700716758299e-13 -3.917271238287889368e-13 -1.675474808806448612e-13 7.841070728906857079e-14
4.430000000000000000e+02 3.646170198917388916e-01 1.155414581298828125e+01 2.051692962658918651e-13 -3.009533811396125635e-13 -2.873522342923713613e-14 5.435009606540204541e-14
4.440000000000000000e+02 3.642382323741912842e-01 1.316198825836181641e+01 7.892864421939205233e-14 -4.694338993048441377e-13 -1.171515683941193320e-13 3.562840465904694442e-14
4.450000000000000000e+02 3.746175765991210938e-01 1.557013702392578125e+01 -5.518642590433484041e-14 -4.354098733037187197e-13 -1.471788863742842790e-13 3.741010373524552776e-15
4.460000000000000000e+02 3.741242289543151855e-01 1.637450408935546875e+01 2.259793101342527644e-14 -6.537039247585252344e-13 -1.893317994787827030e-13 -4.163736819521798860e-14
4.470000000000000000e+02 1.123559594154357910e+00 1.638318634033203125e+01 -6.726132356567630574e-15 -4.375166407551839276e-13 -1.332728279948222627e-13 1.308589247026167510e-14
4.480000000000000000e+02 3.672201633453369141e-01 1.798652648925781250e+01 -6.524828285092362790e-14 -6.913523030969981331e-13 -2.269801778172556017e-13 5.029013501207241221e-14
4.490000000000000000e+02 3.645506203174591064e-01 1.879268074035644531e+01 4.567989053422955026e-14 -4.608078784003322159e-13 -1.245383868730617904e-13 1.463430363795161036e-15
4.500000000000000000e+02 3.629543483257293701e-01 2.201198387145996094e+01 4.180230414477324047e-15 -2.269632100532562036e-13 -6.683489753387533705e-14 -4.657054567826744707e-14
4.510000000000000000e+02 3.651981055736541748e-01 2.281525230407714844e+01 -8.013177659393563856e-14 3.428423452252193915e-14 -1.375426245201752037e-14 -1.559019704782879656e-14
4.520000000000000000e+02 3.678736984729766846e-01 2.361880493164062500e+01 5.415477026776520375e-14 6.896013707985426677e-14 3.693447186547266226e-14 4.200871760368964092e-14
4.530000000000000000e+02 3.708939254283905029e-01 2.442238616943359375e+01 -3.340573938347482508e-14 1.458115719095084972e-13 3.372175043543645945e-14 3.563798290761449605e-14
4.540000000000000000e+02 3.738873898983001709e-01 2.522626113891601562e+01 1.294697178242862345e-13 1.469889206011376626e-13 8.293759017237445352e-14 2.079140116637793329e-14
4.550000000000000000e+02 3.794460892677307129e-01 2.683467674255371094e+01 1.805571209038958624e-13 8.755196817099991646e-15 5.679369463867239842e-14 3.005194969827110207e-14
4.560000000000000000e+02 3.914905786514282227e-01 2.924890518188476562e+01 -3.604205150477268749e-14 -1.069484873383007295e-13 -4.289716368580109851e-14 -6.028804012411055277e-15
4.570000000000000000e+02 3.965598642826080322e-01 3.005393981933593750e+01 1.127847069752087317e-14 -1.781701685060060880e-13 -5.006750764847966995e-14 1.502756896514228363e-14
4.580000000000000000e+02 4.025371372699737549e-01 3.085860061645507812e+01 -6.021841825101098555e-14 -1.173097941486664353e-13 -5.325846371990322625e-14 -6.312826102789978466e-14
4.590000000000000000e+02 4.098902046680450439e-01 3.166266250610351562e+01 -4.044976193459757369e-15 -4.748451116901378222e-14 -1.545884595463217770e-14 -1.657962173923070194e-15
4.600000000000000000e+02 4.252709746360778809e-01 3.327074432373046875e+01 1.239234545058823245e-13 -2.213956421621629533e-13 -2.924165765213690427e-14 -1.078468013542476997e-14
4.610000000000000000e+02 4.358299970626831055e-01 3.567513275146484375e+01 -4.165051753469116436e-14 -8.647664290380163710e-14 -3.843814847036101934e-14 2.325806952899970442e-14
4.620000000000000000e+02 4.333028197288513184e-01 3.647190856933593750e+01 1.164671996540557475e-14 4.991451655754659822e-15 4.991451655754659822e-15 1.030801149732446520e-13
4.630000000000000000e+02 4.248399138450622559e-01 3.725959014892578125e+01 8.651500333191688985e-14 -1.916768881202873809e-13 -3.154856204837935829e-14 5.389321665804844286e-14
4.640000000000000000e+02 4.227153360843658447e-01 3.804247283935546875e+01 -6.876330695170310148e-14 -2.124737831423612056e-13 -8.437112906109836552e-14 3.226243464006170458e-14
4.650000000000000000e+02 4.672259092330932617e-01 3.882131195068359375e+01 9.736637630050962167e-14 -1.870262977691009021e-13 -2.689797508532466852e-14 -1.814727770724049172e-14
4.660000000000000000e+02 5.489820837974548340e-01 4.040077590942382812e+01 -7.747845943918869882e-15 4.243044175560040099e-14 1.040477908231763823e-14 -2.349267055033483348e-14
4.670000000000000000e+02 9.646487236022949219e+00 1.837879180908203125e+00 4.320232932790608882e-14 -7.298661322671304297e-14 -8.935285339048675696e-15 -8.589130247966744736e-14
4.680000000000000000e+02 8.106070518493652344e+00 1.841290831565856934e+00 -3.432813793424402404e-14 -1.062139539189689563e-13 -4.216262687833753631e-14 -3.271555999739307607e-14
4.690000000000000000e+02 8.115326881408691406e+00 2.518989562988281250e+00 2.455692679097839365e-14 5.627534435627065679e-14 2.424968253002084129e-14 8.403646973176998047e-14
4.700000000000000000e+02 7.337005138397216797e+00 1.844356179237365723e+00 -4.966377786450038023e-14 -1.127863739360489281e-13 -4.873504689541750812e-14 4.168958608235032171e-14
4.710000000000000000e+02 5.016599655151367188e+00 1.858625173568725586e+00 -5.569369360765470678e-14 1.591350749091668959e-13 3.103241405164047784e-14 3.227782692277920973e-14
4.720000000000000000e+02 4.241667270660400391e+00 1.864185333251953125e+00 4.198363526405554658e-14 -2.107617601493708137e-13 -5.063343746559458014e-14 1.240124675042433844e-14
4.730000000000000000e+02 3.466636896133422852e+00 1.870491147041320801e+00 -6.770084980903950944e-14 -7.476559925638157078e-14 -4.273993404199996626e-14 1.991415794202686107e-14
4.740000000000000000e+02 1.921154022216796875e+00 1.883558392524719238e+00 -3.787350275519414666e-15 -4.737409873027328966e-14 -1.534843520995757965e-14 -2.462341040700838368e-14
4.750000000000000000e+02 1.462211036682128906e+01 6.409357547760009766e+00 4.445256859277827571e-15 4.765605905775530116e-14 1.563039553743959115e-14 -2.164200859266964677e-14
4.760000000000000000e+02 1.346096611022949219e+01 1.726712942123413086e+00 -1.786987611108060287e-14 1.753452797455951062e-13 4.724261888806868814e-14 6.557117181041696719e-14
4.770000000000000000e+02 1.423123836517333984e+01 3.252531290054321289e+00 1.013319541665926027e-13 4.342798229318642345e-14 4.342798229318642345e-14 3.038686313748366341e-14
4.780000000000000000e+02 1.504284381866455078e+01 2.490017652511596680e+00 6.208330697405825549e-14 -6.489476518005757311e-14 -8.434390393986595461e-16 4.786913527783480393e-14
4.790000000000000000e+02 1.504125308990478516e+01 1.695271611213684082e+00 -4.504046536234727893e-14 -1.108049538082502006e-13 -4.675362676761878056e-14 7.302035901933165429e-14
4.800000000000000000e+02 1.344944190979003906e+01 3.232064485549926758e+00 -9.487557766328647002e-14 1.423428296889669986e-13 1.424017730177005309e-14 9.640308299904698508e-14
4.810000000000000000e+02 1.269275474548339844e+01 2.487833738327026367e+00 -6.629403650386736513e-14 2.460939709392900854e-13 5.393997965300045827e-14 2.818581075459368479e-14
4.820000000000000000e+02 1.041147613525390625e+01 1.825608611106872559e+00 -3.078753269730364174e-16 4.561900241784912213e-14 1.359333805050046487e-14 9.607848642113198112e-14
4.830000000000000000e+02 1.384676742553710938e+01 8.633428573608398438e+00 5.350756933342713795e-14 1.601846639272958006e-13 6.410766828415098706e-14 -9.509222836240338594e-14
4.840000000000000000e+02 1.040565872192382812e+01 2.509853839874267578e+00 5.978401909807751213e-14 1.628745695172323371e-13 6.679757387408752356e-14 -1.156843040415675428e-13
4.850000000000000000e+02 1.316100025177001953e+01 8.371059417724609375e+00 -5.840128863366170209e-14 -2.153649031029838956e-15 -1.816648163822064121e-14 1.108876987628015787e-13
4.860000000000000000e+02 1.190889263153076172e+01 1.205572700500488281e+01 1.643227519115483815e-13 2.991787861287426020e-13 1.390504600568345794e-13 -1.062045315244636995e-14
4.870000000000000000e+02 1.086619663238525391e+01 1.324272155761718750e+01 3.205980674079317305e-13 4.576558316343737332e-13 2.334761615811753455e-13 -1.683172373180552572e-13
4.880000000000000000e+02 8.403877258300781250e+00 1.480754947662353516e+01 8.996638476517146432e-14 8.163231375590829231e-13 2.718868695721771145e-13 -1.626194567460464979e-13
4.890000000000000000e+02 8.832475662231445312e+00 1.441166591644287109e+01 2.181090730116533316e-13 5.649245719656359466e-13 2.349101002694503615e-13 -3.333648190394916666e-13
4.900000000000000000e+02 9.264246940612792969e+00 1.493486785888671875e+01 2.124837442498209161e-13 4.113210965404900943e-13 1.871414535923460187e-13 -3.454920269145567158e-13
4.910000000000000000e+02 8.061972618103027344e+00 1.558609390258789062e+01 3.367037009448237139e-13 9.906941803375368671e-13 3.982193535426864495e-13 -2.360374807934551011e-13
4.920000000000000000e+02 8.020665168762207031e+00 1.627375221252441406e+01 2.117426920649270738e-13 8.685129980652572801e-13 3.240767029732971594e-13 -2.412703012637934519e-13
4.930000000000000000e+02 1.399345588684082031e+01 1.712885093688964844e+01 -7.960715826772421511e-14 -3.543740008469381531e-13 -1.301943443462669214e-13 8.178495451401437966e-14
4.940000000000000000e+02 1.461840724945068359e+01 1.658890342712402344e+01 -4.963668297458360967e-14 -6.702381298616735816e-14 -3.499814777178575365e-14 1.217391665990844030e-13
4.950000000000000000e+02 1.571002292633056641e+01 1.417407131195068359e+01 -1.822739685965538148e-14 -2.136910169214106814e-13 -6.957552345669346106e-14 6.309561298998081491e-14
4.960000000000000000e+02 1.642515373229980469e+01 1.269431591033935547e+01 4.789258114981480297e-14 -1.624784020434061338e-13 -3.437574457401150474e-14 5.788758686807449205e-14
4.970000000000000000e+02 1.706792259216308594e+01 1.122702693939208984e+01 8.334634116766506673e-14 -2.387858248804886063e-13 -4.663184714672613529e-14 1.036887115339786558e-13
4.980000000000000000e+02 1.775444412231445312e+01 1.138760089874267578e+01 -8.956179439571776424e-14 -3.586402821855599887e-13 -1.344606256848887571e-13 -3.248376096104746424e-14
4.990000000000000000e+02 1.784928512573242188e+01 8.965544700622558594e+00 -8.327580026381772860e-14 -1.271915244568239123e-13 -6.314020080432428128e-14 7.477588562449302700e-14
5.000000000000000000e+02 1.816875267028808594e+01 7.402193069458007812e+00 -4.477050579766196636e-14 -1.564402090942912382e-13 -6.036321345114642467e-14 2.882283289400459567e-15
5.010000000000000000e+02 1.831646537780761719e+01 6.618450641632080078e+00 6.625177972419474259e-14 -1.088592242607169802e-13 -1.278223454680279744e-14 6.272377907866333313e-14
5.020000000000000000e+02 1.862763786315917969e+01 4.240448474884033203e+00 -1.235123928047116015e-13 6.144349216702024719e-14 -1.862066917486786960e-14 1.818898222143150445e-14
5.030000000000000000e+02 1.868299102783203125e+01 3.443428516387939453e+00 -1.018553138018444063e-14 8.713667130509292202e-14 2.308534087632971299e-14 6.939568819759600604e-14
5.040000000000000000e+02 2.088645362854003906e+01 -4.189131259918212891e+00 -2.081237370215194976e-14 8.258231067297810979e-14 1.853098024421490075e-14 2.588471192217171174e-14
5.050000000000000000e+02 1.972130775451660156e+01 -2.660586118698120117e+00 3.963504329428102491e-14 6.273739936845518228e-14 3.071173076594178875e-14 -8.649657867124821431e-14
5.060000000000000000e+02 1.865155029296875000e+01 -2.912581443786621094e+00 -1.234647590598898087e-14 -2.111706127886150974e-13 -6.705512610016145514e-14 5.843583402538252147e-14
5.070000000000000000e+02 1.848666191101074219e+01 -3.685500144958496094e+00 1.944305685148885882e-14 -1.289201086379990202e-13 -3.284311638298599567e-14 -1.027845343559707914e-13
5.080000000000000000e+02 1.869112205505371094e+01 -3.763614416122436523e+00 1.040710825351599811e-13 -1.841528503038897258e-13 -2.402452931417938670e-14 -1.157164777410360501e-13
5.090000000000000000e+02 7.892422485351562500e+01 -4.504487514495849609e+00 1.178544566625416845e-13 1.877619018380780047e-13 9.168490619493319116e-14 6.297411458402665807e-14
5.100000000000000000e+02 2.659961509704589844e+01 -4.901464939117431641e+00 -9.422735351314812102e-14 -4.038315295769139002e-14 -4.038315295769139002e-14 3.695328616129707477e-14
5.110000000000000000e+02 2.609583473205566406e+01 -2.818490505218505859e+00 -7.113679491386332154e-14 1.067656501944382053e-13 1.068865709239223347e-14 -5.600483167907078716e-15
5.120000000000000000e+02 2.002127838134765625e+01 2.414528727531433105e-01 3.973800184308567962e-14 6.278151962061176428e-14 3.075585779436194878e-14 -2.380919829239429297e-14
5.130000000000000000e+02 2.595501518249511719e+01 -4.172758102416992188e+00 3.997525577161160915e-14 1.713225271555724599e-14 1.713225271555724599e-14 7.588818218577306207e-14
5.140000000000000000e+02 2.383806800842285156e+01 -3.975823402404785156e+00 -1.428112626257211498e-14 2.455097485986462713e-13 6.936858314328386843e-14 1.026186446473169311e-13
5.150000000000000000e+02 2.301868247985839844e+01 -4.586829185485839844e+00 -6.047240616244287104e-14 1.570870441103960902e-13 2.898439341726503915e-14 5.729910903390367238e-14
5.160000000000000000e+02 2.231159210205078125e+01 -4.466943740844726562e+00 2.116848498790249722e-14 -8.242968888841004094e-14 -1.837836184777862092e-14 1.915915173635995145e-14
5.170000000000000000e+02 2.314483642578125000e+01 -3.875527858734130859e+00 8.927307135718487441e-14 1.068863083437086858e-13 5.884781052213627905e-14 7.429463538518102372e-14
5.180000000000000000e+02 2.952048110961914062e+01 -4.958755493164062500e+00 -1.734572771874831609e-13 -1.200897833866093611e-13 -8.806411817222775662e-14 -6.988377568685824603e-14
5.190000000000000000e+02 2.738512420654296875e+01 -4.239259719848632812e+00 -1.032860049657996493e-13 1.485517700806882578e-15 -3.054014560775059062e-14 1.140629067976697830e-13
5.200000000000000000e+02 2.891237258911132812e+01 -2.921031951904296875e+00 -1.001534941677366397e-13 -8.867387347403360431e-14 -5.664821164778378881e-14 -9.966865928499185623e-14
5.210000000000000000e+02 2.810751152038574219e+01 -4.257166385650634766e+00 8.000350700660113085e-15 -1.338241312470039857e-13 -3.774713221572738309e-14 5.323252248886061605e-15
5.220000000000000000e+02 2.732701110839843750e+01 -4.922835350036621094e+00 -1.825769522817866780e-14 3.792622208583125432e-14 5.900558141999070680e-15 8.335196546643483528e-14
5.230000000000000000e+02 3.247935104370117188e+01 -4.924306392669677734e+00 -1.578436817015194116e-13 -1.591491830899363635e-13 -9.509785943743673253e-14 5.028990885427549531e-15
5.240000000000000000e+02 3.032188606262207031e+01 -3.590024709701538086e+00 -1.095985078408169555e-14 3.155595630719570943e-13 9.137991334754944073e-14 -9.966649765691046325e-14
5.250000000000000000e+02 3.183724594116210938e+01 -2.226480722427368164e+00 -1.999965405959092113e-14 -8.571280553262665414e-15 -8.571280553262665414e-15 -9.773105447748869912e-14
5.260000000000000000e+02 3.102622222900390625e+01 -4.260443687438964844e+00 -9.903612896130023491e-14 -1.339459549136098881e-13 -6.989462448484667911e-14 3.401898107289157147e-14
5.270000000000000000e+02 3.025818061828613281e+01 -4.953670501708984375e+00 -6.409328905283839806e-14 1.828239640298649771e-14 -1.374326796436215956e-14 -6.244977408462193402e-14
5.280000000000000000e+02 3.324417495727539062e+01 -4.217918395996093750e+00 -1.690398987235983141e-13 -2.096985101838685916e-13 -1.136215213169873561e-13 2.394468968263709086e-14
5.290000000000000000e+02 3.420088195800781250e+01 -1.230949908494949341e-01 -1.087967132292096128e-13 -9.237811118270253252e-14 -6.035244596832092800e-14 -2.127014080003427482e-14
5.300000000000000000e+02 3.621126937866210938e+01 -4.828516960144042969e+00 -5.272722498417606318e-14 1.146554639425145794e-13 1.857847168750155487e-14 3.571747779674725939e-15
5.310000000000000000e+02 3.473308944702148438e+01 -4.178629398345947266e+00 -8.133937452617714947e-14 1.089121570436567960e-14 -2.113444781595003041e-14 -7.196151362515515459e-14
5.320000000000000000e+02 3.547956085205078125e+01 -4.157659053802490234e+00 1.149856373853543057e-14 4.927955948446109333e-15 4.927955948446109333e-15 -5.962914759400153586e-14
5.330000000000000000e+02 3.624193954467773438e+01 -3.449797868728637695e+00 3.375654316077787709e-14 1.059689852143594346e-13 4.191765817372801461e-14 3.689436654948606564e-14
5.340000000000000000e+02 3.697604370117187500e+01 -4.114123821258544922e+00 -8.363328882514051155e-14 9.908109455233817670e-15 -2.211755491211483959e-14 5.493359334584300979e-15
5.350000000000000000e+02 7.150565338134765625e+01 -4.546427249908447266e+00 -2.370698309970414863e-13 1.729043340795155537e-13 -1.924965043051049540e-14 -5.627110580340259627e-14
5.360000000000000000e+02 7.155896759033203125e+01 -3.173973321914672852e+00 -1.604986217713932906e-13 2.514715323996552510e-13 2.729186912272044130e-14 -6.113933957632017302e-14
5.370000000000000000e+02 6.925650787353515625e+01 -4.545819759368896484e+00 -2.075083946903935606e-13 9.407162819986131241e-14 -3.403103265766510566e-14 -4.877879106494550920e-14
5.380000000000000000e+02 7.000607299804687500e+01 -4.546331405639648438e+00 -2.074812218734456426e-13 2.313361091230148325e-13 7.156467021903704234e-15 -3.259291301476244240e-14
5.390000000000000000e+02 6.481862640380859375e+01 -3.152117490768432617e+00 -3.672660591445831013e-13 7.135499737733960735e-14 -8.877332191830483721e-14 -8.743473203483634326e-14
5.400000000000000000e+02 6.703907012939453125e+01 -3.851131200790405273e+00 -2.524465283083171530e-13 -6.244041606462066851e-14 -9.446608127900227303e-14 1.348509147500610156e-14
5.410000000000000000e+02 6.553959655761718750e+01 -3.845928907394409180e+00 -3.444604085474367583e-13 -1.018749429433640774e-13 -1.339006081577456819e-13 3.448686513229590189e-14
5.420000000000000000e+02 6.853833770751953125e+01 -3.853434801101684570e+00 -1.876220533103545307e-13 1.109244870977667274e-14 -5.295887833085474727e-14 5.471058651148989760e-14
5.430000000000000000e+02 6.328944015502929688e+01 -3.838892936706542969e+00 -1.743979445448587406e-13 1.997637217318951053e-13 7.609731292638425432e-15 -5.427346245356510709e-15
5.440000000000000000e+02 6.475733947753906250e+01 -4.541822433471679688e+00 -2.161205242545705119e-13 4.462976619127798084e-14 -5.144722606373504370e-14 6.137547203322393785e-14
5.450000000000000000e+02 6.478940582275390625e+01 -3.843651771545410156e+00 -2.049481190227048222e-13 2.324217478633788803e-13 8.242085433477017858e-15 7.738461835302828939e-14
5.460000000000000000e+02 7.528664398193359375e+01 -3.819986343383789062e+00 -6.042850952698436418e-14 1.985301571576225665e-14 -1.217264865158640061e-14 -2.789642533629604210e-14
5.470000000000000000e+02 7.889674377441406250e+01 1.072728276252746582e+00 -1.269995718831962161e-12 3.707350724156677213e-13 -2.697782047669100569e-13 8.879959349219687659e-14
5.480000000000000000e+02 7.676516723632812500e+01 -3.781672716140747070e+00 -9.812758109328453826e-14 4.944721864494176777e-14 -1.460411008975554675e-14 9.628883519512132505e-14
5.490000000000000000e+02 6.253897094726562500e+01 -3.837742567062377930e+00 -2.408947336312444731e-13 1.255141417232444323e-13 -3.461418096053180127e-14 -4.072843746831013301e-14
5.500000000000000000e+02 6.103872680664062500e+01 -3.835338830947875977e+00 -2.928743944412282030e-13 -7.976664440729683281e-14 -1.117923096216784373e-13 -9.027459633775478109e-14
5.510000000000000000e+02 6.028835296630859375e+01 -3.834774732589721680e+00 -1.715567927518604763e-13 1.094794556660144691e-13 -1.862320349744605447e-14 3.406364342613439622e-14
5.520000000000000000e+02 7.228546142578125000e+01 -3.854903459548950195e+00 -1.731876090021317038e-13 1.087805315117852667e-13 -1.932212426354346785e-14 8.892645869890483667e-14
5.530000000000000000e+02 7.300693511962890625e+01 -4.543968677520751953e+00 -1.865733316539636144e-13 1.487947406345752066e-13 -1.133357527293744893e-14 -3.943335627921030345e-15
5.540000000000000000e+02 7.303688049316406250e+01 -3.850938320159912109e+00 -2.910165327035113547e-13 -3.534761188177942826e-13 -1.933477927458862600e-13 -1.091686758895350773e-13
5.550000000000000000e+02 7.453847503662109375e+01 -3.833635091781616211e+00 -1.785067455179270568e-13 -2.137557302385809099e-13 -1.176787481479632524e-13 -1.360812504347386209e-13
5.560000000000000000e+02 7.157546997070312500e+01 -2.501078128814697266e+00 -3.459052976776538779e-13 -3.312489171847232683e-13 -2.031462563271968502e-13 -1.748137767355883998e-13
5.570000000000000000e+02 5.806169128417968750e+01 -3.136598348617553711e+00 -2.623025223674052553e-13 2.535922318490368976e-13 -2.613089018982991257e-15 -4.322749975896669761e-14
5.580000000000000000e+02 5.800534057617187500e+01 -4.536018371582031250e+00 -3.033380025028314941e-13 -1.300019933283408369e-13 -1.300019933283408369e-13 5.572721239544345395e-14
5.590000000000000000e+02 5.953746032714843750e+01 -3.834501981735229492e+00 -1.658926224471987676e-13 2.034088500933728394e-13 1.125486727741268483e-14 3.601566134626803251e-14
5.600000000000000000e+02 5.124624633789062500e+01 -4.549640178680419922e+00 -1.960044810917632718e-13 7.499977845530896720e-15 -5.655135173619936506e-14 1.509578730464825047e-13
5.610000000000000000e+02 5.503181457519531250e+01 -3.834352016448974609e+00 -2.281557104702458538e-13 -6.279122577115435130e-15 -7.033045342939511779e-14 7.647054783019649471e-14
5.620000000000000000e+02 5.578267288208007812e+01 -3.833615541458129883e+00 -1.528472444098372129e-13 -6.550596382600554213e-14 -6.550596382600554213e-14 1.423433988951075535e-13
5.630000000000000000e+02 5.653393554687500000e+01 -3.833137273788452148e+00 -2.786634313058089507e-13 1.093275589416492499e-13 -5.080076035399519463e-14 -1.963279223167382209e-14
5.640000000000000000e+02 5.202572631835937500e+01 -3.843595504760742188e+00 -2.037448443466260972e-13 -4.156827063551277179e-14 -7.359393584989437631e-14 4.248215142296438152e-14
5.650000000000000000e+02 5.277743530273437500e+01 -3.840693235397338867e+00 -2.083208009307641051e-13 -1.350312954983765024e-13 -1.030056302839948978e-13 3.095073297047085115e-14
5.660000000000000000e+02 5.352960205078125000e+01 -3.837545394897460938e+00 -1.442567446790013475e-13 7.542852789848425443e-14 -2.064846774466055912e-14 -7.434990259092347231e-14
5.670000000000000000e+02 3.847677612304687500e+01 -4.069828987121582031e+00 -7.545650709079795848e-14 -3.068442039084323669e-13 -1.146902126221427398e-13 5.377219597867653744e-14
5.680000000000000000e+02 4.146662521362304688e+01 -4.686305999755859375e+00 -2.620155306642165532e-14 -1.122923690746171696e-14 -1.122923690746171696e-14 6.696452745612313517e-14
5.690000000000000000e+02 4.073207855224609375e+01 -4.008159160614013672e+00 -1.346356701256365418e-13 -2.407048085156793249e-13 -1.126021408818893288e-13 1.193933257923225633e-14
5.700000000000000000e+02 3.922825622558593750e+01 -4.048108100891113281e+00 -1.312609688910310046e-13 -1.020056502915207830e-13 -6.997998507713917848e-14 -2.617031279726102222e-14
5.710000000000000000e+02 4.826363754272460938e+01 -3.870779037475585938e+00 -1.025238176148059177e-13 9.331406903689137833e-14 -2.762924276912830275e-15 3.827545715811599136e-14
5.720000000000000000e+02 4.598063278198242188e+01 -4.601248264312744141e+00 -1.391885738610820766e-13 -5.965224787653905514e-14 -5.965224787653905514e-14 1.226451530394676026e-13
5.730000000000000000e+02 5.052174377441406250e+01 -3.851610660552978516e+00 -1.763188932964870892e-13 6.168760706241893654e-14 -3.438938519259408799e-14 7.150146462051292645e-15
5.740000000000000000e+02 4.447575378417968750e+01 -4.624727725982666016e+00 -1.007339624583582227e-13 1.855830484946696668e-13 2.545472411682753872e-14 7.948006944431817988e-14
5.750000000000000000e+02 4.449714279174804688e+01 -3.925014495849609375e+00 -1.200013395943888561e-13 -9.718009003848587790e-14 -6.515443160036785142e-14 -1.031805256469439658e-13
5.760000000000000000e+02 3.997978210449218750e+01 -4.027667045593261719e+00 -1.439693768931840645e-13 -3.362068652992822315e-13 -1.440528740129926044e-13 -5.336782922592091249e-14
5.770000000000000000e+02 4.299065780639648438e+01 -3.954576253890991211e+00 -1.894488391033025132e-13 5.606048936700191998e-14 -4.001650288801110456e-14 -3.170651421128449846e-15
5.780000000000000000e+02 4.374373245239257812e+01 -3.939067363739013672e+00 -1.761478468512503448e-13 1.532628055500237507e-13 -6.865513745620693831e-15 5.661535015756211098e-14
5.790000000000000000e+02 4.600374984741210938e+01 -3.899822235107421875e+00 -1.420597851593125016e-13 -3.811394017234903675e-13 -1.569597587753462919e-13 4.503183240254886310e-14
5.800000000000000000e+02 4.751039505004882812e+01 -3.879734992980957031e+00 -1.193740608749702115e-13 -2.799150613987805292e-13 -1.197867353268725066e-13 -7.463148344764511388e-14
5.810000000000000000e+02 4.525053787231445312e+01 -3.911804676055908203e+00 -1.376594151170085212e-13 -1.047478415312254330e-13 -7.272217631684382844e-14 6.965671664688546927e-14
5.820000000000000000e+02 1.344211196899414062e+01 7.677414417266845703e+00 -1.489046821229970258e-14 3.367504842685664634e-13 9.655800871323158563e-14 -3.790696055661069153e-15
5.830000000000000000e+02 8.875580787658691406e+00 1.839348077774047852e+00 2.161570483152561173e-14 9.263873136211141918e-15 9.263873136211141918e-15 -5.090550444825266141e-14
5.840000000000000000e+02 1.268664360046386719e+01 1.749252915382385254e+00 6.568737117825310112e-14 1.196536224051455988e-13 5.560229875264596777e-14 5.664745270626304896e-14
5.850000000000000000e+02 1.477232360839843750e+01 5.641138076782226562e+00 5.129823296831301227e-14 6.773590342052868141e-14 3.571024159427886591e-14 -2.221856570865728304e-15
5.860000000000000000e+02 1.340845680236816406e+01 3.975409269332885742e+00 -4.979550842845736902e-14 -2.134093242563400022e-14 -2.134093242563400022e-14 -1.700327670274472819e-14
5.870000000000000000e+02 6.566059112548828125e+00 1.848979592323303223e+00 -3.605362282186512848e-15 -9.304705037059893269e-14 -2.899572332996751267e-14 -2.436136721224810980e-14
5.880000000000000000e+02 1.228631854057312012e+00 5.893253326416015625e+00 -3.297465382343101048e-14 -2.657622114998064999e-13 -8.962105959697125313e-14 -3.155998005250834626e-14
5.890000000000000000e+02 3.895860612392425537e-01 4.300238609313964844e+00 -4.611273453467186478e-14 -2.942682989642841918e-13 -1.021143076779945646e-13 4.874626161163915505e-14
5.900000000000000000e+02 1.926444411277770996e+00 3.435091495513916016e+00 -8.993482092942498007e-14 -1.300453885202945692e-13 -6.599406486779493819e-14 -3.536150457736711439e-14
5.910000000000000000e+02 2.692827939987182617e+00 1.876932978630065918e+00 3.514465736660643547e-14 -2.136927516448866582e-13 -5.356442557297863560e-14 7.084276606094883078e-14
5.920000000000000000e+02 1.913452744483947754e+00 2.654925107955932617e+00 -6.106051807838047685e-14 -3.464254436699037987e-13 -1.222457871692325670e-13 3.750534835499953756e-14
5.930000000000000000e+02 3.809200823307037354e-01 2.695904493331909180e+00 -5.191895565271990864e-14 1.150018665366236981e-13 1.892487258754477902e-14 3.410605605986931355e-14
5.940000000000000000e+02 7.395590305328369141e+00 3.211197376251220703e+00 3.617906416618875409e-15 -3.644570539459990322e-13 -1.082517457834733521e-13 1.987988631135459427e-13
5.950000000000000000e+02 6.587007522583007812e+00 2.544042587280273438e+00 9.058533545665270470e-14 -1.899324610348668285e-13 -2.980413496295880593e-14 1.957944304733713614e-13
5.960000000000000000e+02 9.642422676086425781e+00 2.511237621307373047e+00 -3.628849065857864264e-14 -1.555220931421033570e-14 -1.555220931421033570e-14 8.651704976351745624e-14
5.970000000000000000e+02 8.231856346130371094e+00 1.883053016662597656e+01 2.261968281951076687e-13 3.485717302905561032e-13 1.724305648351937004e-13 1.695505443943118307e-13
5.980000000000000000e+02 3.220434427261352539e+00 1.311897659301757812e+01 5.681316623206388028e-14 -1.815307751123693136e-13 -3.741528164765209330e-14 1.432854892678345204e-13
5.990000000000000000e+02 1.129364490509033203e+01 1.953385734558105469e+01 1.142670993361984827e-14 -8.660473461421722141e-14 -2.255340757358580139e-14 2.156989322397995235e-13
6.000000000000000000e+02 1.226694488525390625e+01 1.760203552246093750e+01 -6.445916662847078760e-14 -1.477215973242490543e-13 -6.365422783056323697e-14 1.423407154947306519e-13
6.010000000000000000e+02 1.169931125640869141e+01 1.908986282348632812e+01 2.463271828265917174e-13 -4.548803282829194661e-13 -6.256594634740375582e-14 4.280683609230589992e-14
6.020000000000000000e+02 2.001918983459472656e+01 3.402163505554199219e+00 -2.710392775831776263e-14 7.988592697506097240e-14 1.583459993442955238e-14 -2.460248361101351894e-14
6.030000000000000000e+02 1.608535385131835938e+01 1.343657302856445312e+01 -1.287579797556309691e-13 -2.496235369017080208e-13 -1.135144495761908345e-13 3.373442543645917280e-14
6.040000000000000000e+02 1.409221744537353516e+01 1.605200767517089844e+01 -1.713315633030537688e-13 -2.921745419388888099e-13 -1.390518288620773424e-13 1.138973220208769344e-13
6.050000000000000000e+02 1.350278377532958984e+01 1.660195922851562500e+01 -2.161664402165752730e-13 -1.898635328817510626e-13 -1.218089892189924694e-13 1.678070524332650471e-13
6.060000000000000000e+02 1.278132057189941406e+01 1.816174507141113281e+01 -6.189430343033971993e-14 -1.351846287906202648e-13 -5.912367898866163762e-14 2.089774615290571069e-13
6.070000000000000000e+02 1.854861831665039062e+01 5.035607337951660156e+00 8.928004413240667181e-14 -7.488072797457237528e-15 2.453759072285847248e-14 8.384097452754368796e-14
6.080000000000000000e+02 1.512063884735107422e+01 1.716182327270507812e+01 -4.541877738164536160e-14 -2.939708752033171058e-13 -1.018168974695546347e-13 3.116401925472127299e-14
6.090000000000000000e+02 1.661517143249511719e+01 1.611687660217285156e+01 -1.429174026302756917e-13 -1.527522140894188585e-13 -8.870088366065564944e-14 -3.308624194390229201e-14
6.100000000000000000e+02 1.736251068115234375e+01 1.048640155792236328e+01 -1.653003092478427805e-13 -4.139751150385173606e-13 -1.737826191543917487e-13 3.179932445834809940e-14
6.110000000000000000e+02 1.746586227416992188e+01 1.214621353149414062e+01 8.308935814773169004e-14 -3.303978726894307716e-13 -7.419255097437793545e-14 8.865094937434911393e-14
6.120000000000000000e+02 1.762880897521972656e+01 9.733931541442871094e+00 1.187480696456313933e-13 -2.922400819602155586e-13 -5.204760301674889178e-14 1.975410801732455091e-13
6.130000000000000000e+02 1.796109962463378906e+01 1.309353446960449219e+01 1.378280627649386414e-13 -5.530820213709569666e-14 2.475595751072652562e-14 5.808507429379272669e-14
6.140000000000000000e+02 1.869434738159179688e+01 8.279355049133300781e+00 -1.323743496544835252e-13 -3.769885066010753016e-13 -1.528088501004040700e-13 1.766383534666099431e-13
6.150000000000000000e+02 1.934589576721191406e+01 3.429437398910522461e+00 -8.227345535535487975e-14 1.477437421536220707e-13 1.964108637829333620e-14 5.363955739540009204e-14
6.160000000000000000e+02 1.687636184692382812e+01 1.373185634613037109e+01 3.932234922334083838e-14 -2.576532466113529152e-13 -6.549927565385402217e-14 4.223641361243875292e-14
6.170000000000000000e+02 1.869956207275390625e+01 1.063290715217590332e+00 2.800378168016284114e-14 2.407563623289810106e-13 8.062804303333656608e-14 1.910832806545879892e-14
6.180000000000000000e+02 1.936865043640136719e+01 1.821970939636230469e+00 -5.368555128443600055e-14 2.057466474752675523e-13 4.561832817962310771e-14 2.958323215844667342e-14
6.190000000000000000e+02 1.900502586364746094e+01 6.681208133697509766e+00 -1.775509264351909922e-13 1.540864569998020434e-14 -4.864268303471711019e-14 9.432081174041637150e-14
6.200000000000000000e+02 1.885944557189941406e+01 7.483212471008300781e+00 1.334852096478850170e-13 -3.429395168449284048e-14 2.975737535613857954e-14 1.054211243040753532e-13
6.210000000000000000e+02 1.998085594177246094e+01 4.231999874114990234e+00 -6.103625905477111369e-14 -7.190934317186786773e-14 -3.988368134561805223e-14 -3.858358063927279369e-14
6.220000000000000000e+02 2.006929969787597656e+01 -3.977570533752441406e+00 -2.639497642805896382e-14 -5.706308499721715610e-14 -2.503741808876965708e-14 -4.751910399457964784e-14
6.230000000000000000e+02 1.717362785339355469e+01 1.292060852050781250e+01 -1.114945131662145594e-13 -9.353431115570465249e-14 -6.150864594132304797e-14 5.196511556021347900e-14
6.240000000000000000e+02 2.394844627380371094e+01 -3.282147407531738281e+00 -9.164481104334196160e-14 -2.680310942811126029e-13 -1.079027682092045803e-13 3.946730027753857228e-14
6.250000000000000000e+02 1.868236923217773438e+01 -1.292446136474609375e+00 -1.366033615434261717e-13 7.870854440211391689e-14 -1.736844615883321313e-14 -3.305482379782273550e-14
6.260000000000000000e+02 1.936458587646484375e+01 2.537989318370819092e-01 6.385060352553820033e-16 1.832774383647706173e-13 5.517478428350777730e-14 5.455998744159987202e-14
6.270000000000000000e+02 2.261198425292968750e+01 -3.043451070785522461e+00 3.606507047214727035e-14 3.833193392690711909e-14 2.231910131971631683e-14 7.865532701610382371e-15
6.280000000000000000e+02 2.245633506774902344e+01 -3.750152587890625000e+00 3.180900435086932154e-14 2.652626382437794916e-13 8.912149311720782285e-14 8.590808728455023857e-14
6.290000000000000000e+02 7.220486164093017578e+00 1.656787681579589844e+01 4.958003408869759987e-13 9.902520426915972784e-13 4.458156933895285334e-13 6.103085837269942027e-14
6.300000000000000000e+02 1.502050304412841797e+01 3.282281875610351562e+00 2.371399390670527775e-15 9.251821043217839380e-14 2.846688339154697378e-14 5.045809825738115095e-14
6.310000000000000000e+02 7.385049343109130859e+00 1.610646820068359375e+01 -8.331637991825478762e-15 7.741954321550947871e-13 2.297591370631346663e-13 -2.522016070375526775e-13
6.320000000000000000e+02 1.045164585113525391e+01 1.986691474914550781e+01 1.339305050326519697e-13 1.489006807393541965e-13 8.484935708685456546e-14 9.190619863460106065e-14
6.330000000000000000e+02 9.070730209350585938e+00 1.966973304748535156e+01 6.970286977811546159e-14 1.900009826121679124e-13 7.791115436183229659e-14 2.184339406401114569e-13
6.340000000000000000e+02 7.951040649414062500e+01 4.121463394165039062e+01 -1.623099780121740887e-14 1.531721798009311186e-13 4.108235493872729183e-14 -8.289605845290468067e-14
6.350000000000000000e+02 7.960212707519531250e+01 3.883269119262695312e+01 6.363162899153049223e-14 4.847801847451815860e-13 1.645235461538926969e-13 1.742491276322897381e-14
6.360000000000000000e+02 7.882342529296875000e+01 3.642642974853515625e+01 -5.365771439365743523e-14 4.116378462051817344e-13 1.073940402210836476e-13 7.209819763778768653e-14
6.370000000000000000e+02 7.961865234375000000e+01 3.486901855468750000e+01 4.204185353258622915e-14 4.069009940186468777e-13 1.346828600251939734e-13 4.566816759823955074e-14
6.380000000000000000e+02 7.790294647216796875e+01 3.018423271179199219e+01 9.520584597381628877e-14 3.610591372323751491e-13 1.368794942842310736e-13 3.160827448302899745e-14
6.390000000000000000e+02 7.959973907470703125e+01 3.247422027587890625e+01 -7.837874365377098251e-14 2.409147913714354550e-13 4.876081702580477295e-14 6.208981218709316852e-14
6.400000000000000000e+02 7.799105834960937500e+01 3.095934486389160156e+01 -2.315256479915560328e-14 1.502057891044836224e-13 3.811596763041158464e-14 4.439573776421519569e-14
6.410000000000000000e+02 7.958422851562500000e+01 2.925802993774414062e+01 -1.030879212288865476e-13 1.845742119256990610e-13 2.444588585379103840e-14 2.884077728699217802e-14
6.420000000000000000e+02 7.873290252685546875e+01 2.847184562683105469e+01 -9.171278374329322469e-14 2.352002056657531703e-13 4.304622793199069930e-14 -3.364568010050944524e-14
6.430000000000000000e+02 7.876546478271484375e+01 2.599589347839355469e+01 5.039643764695282691e-14 2.274777317467363558e-13 8.336225183454629151e-14 6.163984795672095007e-14
6.440000000000000000e+02 7.889342498779296875e+01 8.318703651428222656e+00 -2.264006446510077875e-13 1.546013751047015106e-13 -2.153977849219963075e-14 8.328076726502042781e-14
6.450000000000000000e+02 7.962412261962890625e+01 1.396725940704345703e+01 -7.939870854160261532e-15 2.939783561983072557e-13 8.581154585735398244e-14 7.751666909543934031e-15
6.460000000000000000e+02 7.738669586181640625e+01 1.150059032440185547e+01 -1.230484084849964299e-13 1.531442344899353047e-13 9.028746107415767941e-15 6.818287254239940864e-14
6.470000000000000000e+02 7.963403320312500000e+01 1.913207888603210449e+00 1.417019062852076239e-12 2.870372396799464321e-13 5.112168826280905076e-13 -1.631078220621154373e-13
6.480000000000000000e+02 7.529405212402343750e+01 -2.383493423461914062e+00 -2.403285632567725427e-13 2.630096390243003013e-13 6.804322814961622293e-15 -4.640513030806404926e-14
6.490000000000000000e+02 7.961537170410156250e+01 1.958900070190429688e+01 4.872681034703840730e-14 5.012678640226031490e-13 1.649984131529141917e-13 5.080110594343767438e-15
6.500000000000000000e+02 7.884514617919921875e+01 1.955656623840332031e+01 3.009361016674885758e-14 3.331539146118889239e-13 1.089742513349541142e-13 8.442523752576897023e-14
6.510000000000000000e+02 7.877930450439453125e+01 2.518293571472167969e+01 -9.012080903585129033e-14 2.130070208758438888e-13 3.686586219674506393e-14 1.086292446511420706e-13
6.520000000000000000e+02 7.711811828613281250e+01 4.057513427734375000e+01 -7.694468299275156187e-14 1.957784520438543563e-13 3.565013274820991174e-14 5.258373421477939569e-14
6.530000000000000000e+02 7.855921173095703125e+01 4.020155715942382812e+01 -1.106984783786485460e-13 1.813125387675751377e-13 2.118421777786479859e-14 9.507934668534154254e-14
6.540000000000000000e+02 7.957047271728515625e+01 3.962106323242187500e+01 -9.214733875028899290e-14 2.807649132716832918e-13 5.658527709980279430e-14 -2.746952750714345276e-14
6.550000000000000000e+02 7.962222290039062500e+01 3.566611480712890625e+01 -4.451323139839473420e-14 3.011795457127930398e-13 7.699989598838538618e-14 4.607060311587543588e-14
6.560000000000000000e+02 7.888216400146484375e+01 3.565528488159179688e+01 -6.878688834895466120e-14 3.822784374208493263e-13 9.404747082020561977e-14 1.527962326976217700e-13
6.570000000000000000e+02 7.960012054443359375e+01 3.327610778808593750e+01 1.070012608790464614e-13 3.889898114988604716e-13 1.487973156147348597e-13 9.637628287659585902e-14
6.580000000000000000e+02 7.880795288085937500e+01 3.410652160644531250e+01 3.934067562818763242e-14 3.828678910369753829e-13 1.266625693219225468e-13 2.997844417910837389e-16
6.590000000000000000e+02 7.959194946289062500e+01 3.006146430969238281e+01 5.546447293960053704e-14 2.296497681689851911e-13 8.553426792800439271e-14 -2.004253065562269700e-16
6.600000000000000000e+02 7.879708099365234375e+01 3.089648246765136719e+01 1.493447428441499469e-13 1.555067923389441553e-13 9.145545513391736825e-14 2.484045412941282560e-14
6.610000000000000000e+02 7.958404541015625000e+01 2.682942008972167969e+01 6.145617733243832759e-14 2.093421600348269185e-13 8.123949917730050041e-14 -3.187637396336213957e-14
6.620000000000000000e+02 7.796678924560546875e+01 2.433847427368164062e+01 -5.443778769236538861e-14 3.426771128141326006e-13 8.647179787534334250e-14 7.820388217213980475e-14
6.630000000000000000e+02 7.883081817626953125e+01 2.116280555725097656e+01 2.025921883594752892e-14 4.433165260667865093e-13 1.390727268589520005e-13 1.721750725932474912e-13
6.640000000000000000e+02 7.882172393798828125e+01 2.196626281738281250e+01 -5.199561552257821184e-14 5.267275331177767583e-13 1.424195776502518163e-13 1.267732257061518486e-13
6.650000000000000000e+02 7.961322021484375000e+01 2.039235687255859375e+01 1.921529138603807196e-14 4.886201035794734970e-13 1.523506120522030716e-13 4.142732774122144523e-14
6.660000000000000000e+02 7.883864593505859375e+01 2.035953903198242188e+01 3.878288749176173056e-14 4.055042976749967387e-13 1.332861501290166784e-13 1.577775724740521079e-14
6.670000000000000000e+02 7.885454559326171875e+01 1.795194816589355469e+01 2.719900212444937432e-14 4.234152633543486477e-13 1.351842764249142070e-13 4.307190997095144969e-14
6.680000000000000000e+02 7.886486053466796875e+01 1.554541587829589844e+01 6.860845577641785931e-14 1.666564699827691176e-13 7.057948111588788209e-14 4.956512901933135540e-14
6.690000000000000000e+02 7.886139678955078125e+01 1.634786605834960938e+01 -3.561335796577191903e-14 1.677409296532705874e-13 3.963827218387595830e-14 6.677896794836813560e-15
6.700000000000000000e+02 7.962298583984375000e+01 1.477054309844970703e+01 2.769207355557325861e-14 2.177473018517492309e-13 7.363181516329558862e-14 4.161762555128338537e-14
6.710000000000000000e+02 7.886824035644531250e+01 1.474286556243896484e+01 2.348257052947177320e-14 3.303205961795868673e-13 1.061409532314427917e-13 -2.978474807286204951e-14
6.720000000000000000e+02 7.887151336669921875e+01 1.394014072418212891e+01 -3.881435645981812232e-14 3.722483475979143641e-13 1.000301932756707257e-13 1.211479291315714288e-14
6.730000000000000000e+02 7.887706756591796875e+01 1.233398628234863281e+01 6.584098907356714103e-14 2.340968402198689846e-13 8.998134675515176428e-14 -6.052677890139301908e-14
6.740000000000000000e+02 7.888307952880859375e+01 1.072838020324707031e+01 6.044496229495183170e-14 2.089087773214301502e-13 8.080612324016731018e-14 6.859036992892808549e-14
6.750000000000000000e+02 7.963006591796875000e+01 9.147927284240722656e+00 -1.933384957122571968e-13 2.602727603752408303e-13 2.008027634957647994e-14 2.561056970879285744e-14
6.760000000000000000e+02 7.818738555908203125e+01 4.286530017852783203e+00 -5.037790930945140744e-13 8.147583492211160627e-14 -1.266909889713688231e-13 4.491454137865030782e-13
6.770000000000000000e+02 7.890510559082031250e+01 5.909429550170898438e+00 2.463942678360142580e-13 1.284730243196474664e-13 1.124601917124566641e-13 7.663946652866973630e-14
6.780000000000000000e+02 7.890849304199218750e+01 3.495390653610229492e+00 -6.188253577101010539e-13 9.294835578565075612e-15 -1.828591531666257097e-13 4.178585374849802525e-13
6.790000000000000000e+02 7.890969848632812500e+01 4.301265716552734375e+00 4.744139651437218053e-13 8.894290469060872617e-14 1.690070609502991594e-13 -1.731670904760174157e-13
6.800000000000000000e+02 7.963479614257812500e+01 2.717862844467163086e+00 -9.273850134008942980e-13 2.201870820004933615e-13 -2.121593780648675653e-13 1.835970069551107198e-13
6.810000000000000000e+02 7.890417480468750000e+01 2.687469244003295898e+00 5.590594176832497375e-13 1.709704697695074715e-13 2.190089608148163003e-13 -1.154871825340825220e-13
6.820000000000000000e+02 7.889919281005859375e+01 1.879269599914550781e+00 -8.464485622833306522e-13 -5.228920053022834136e-13 -4.108021702756842197e-13 9.657403999760449942e-13
6.830000000000000000e+02 7.889891052246093750e+01 2.688583433628082275e-01 -1.252479023272634606e-12 4.468686705394464553e-13 -2.416831112409673077e-13 -2.763070534091832675e-13
6.840000000000000000e+02 7.814833831787109375e+01 2.330675721168518066e-01 -8.062697102843852104e-13 -7.103846455308246433e-14 -2.631924626156356695e-13 -2.784993644120575818e-13
6.850000000000000000e+02 7.892717742919921875e+01 -2.134215116500854492e+00 -3.316484185802298645e-13 -2.336369216583006336e-13 -1.695856047820645807e-13 -2.274040059990073415e-13
6.860000000000000000e+02 7.602895355224609375e+01 -3.802669048309326172e+00 -1.349322265248656394e-13 -1.950809441287129631e-13 -9.900394848556814953e-14 -2.444807052116859669e-13
6.870000000000000000e+02 7.893243408203125000e+01 -2.928350925445556641e+00 1.937778279850754792e-13 3.118023959684801394e-13 1.516740698965721168e-13 2.198988604054652463e-13
6.880000000000000000e+02 7.964502716064453125e+01 -2.900896787643432617e+00 -3.108868143388704430e-13 1.412684937562511123e-13 -5.088549414190672582e-14 -1.532880132505340387e-13
6.890000000000000000e+02 1.952647328376770020e+00 2.927804756164550781e+01 -5.039441493227478364e-14 2.415334269666603167e-14 -7.872321670682625588e-15 6.900584297768810882e-14
6.900000000000000000e+02 3.869091570377349854e-01 2.844404220581054688e+01 5.363499358188028587e-14 -9.139094510465448074e-14 -1.132678630386520571e-14 1.205572591761331150e-14
6.910000000000000000e+02 2.277158021926879883e+00 3.572594451904296875e+01 4.162871490662883867e-14 1.784087878516429915e-14 1.784087878516429915e-14 -1.270109641375236076e-13
6.920000000000000000e+02 4.347902834415435791e-01 3.487422943115234375e+01 1.193101471569021910e-13 5.381972807954465976e-15 3.740763802233607049e-14 8.188493150684469923e-14
6.930000000000000000e+02 3.615594506263732910e-01 2.120865249633789062e+01 -9.918239461063210749e-14 -2.483860014369787539e-13 -1.042705215247886896e-13 2.198809100832470331e-14
6.940000000000000000e+02 1.816524744033813477e+00 2.285432052612304688e+01 -1.512013272561823357e-14 1.307727933103422502e-13 3.469579766719743663e-14 -1.152224474686158739e-13
6.950000000000000000e+02 1.093324661254882812e+00 2.283706665039062500e+01 8.049907718491941533e-14 -1.027532415707674285e-13 -6.676248045204983064e-15 -5.396204655534232730e-15
6.960000000000000000e+02 2.557393550872802734e+00 2.365273857116699219e+01 -1.559285063264595483e-13 -8.970197496035656193e-14 -7.368914235316575967e-14 -1.252447818578857758e-14
6.970000000000000000e+02 1.128292202949523926e+00 2.604886436462402344e+01 7.298503435729936095e-14 2.600340461619138344e-13 9.990572009000581177e-14 -1.098771342466185741e-13
6.980000000000000000e+02 1.120110034942626953e+00 2.524447250366210938e+01 -9.747108312531740926e-14 4.972857588496533421e-14 -1.432275284973198032e-14 -1.096831501491701832e-13
6.990000000000000000e+02 3.766918182373046875e-01 2.603038978576660156e+01 -1.441940777934316853e-13 2.970443579693518577e-14 -3.434689124369623425e-14 -1.492167121201065649e-14
7.000000000000000000e+02 1.136207580566406250e+00 2.685319137573242188e+01 -4.134026291863907021e-14 -6.346820584281903654e-14 -3.144254062843743203e-14 -9.299025850555142636e-14
7.010000000000000000e+02 1.172659516334533691e+00 2.927105331420898438e+01 5.240716511472655326e-14 -2.062945354906059459e-13 -4.616620941869792327e-14 -5.297662875329740839e-14
7.020000000000000000e+02 2.799074649810791016e+00 3.005955314636230469e+01 -5.031927294545796014e-14 -4.444087784404027186e-14 -2.842804523684946960e-14 -2.511692398933073472e-14
7.030000000000000000e+02 1.262836933135986328e+00 3.249069213867187500e+01 2.951913548126204601e-14 -2.161036920158426744e-13 -5.597536594393465181e-14 -8.896138017325423697e-15
7.040000000000000000e+02 1.236459493637084961e+00 3.168547248840332031e+01 1.471523573023762743e-14 -1.080708398747305676e-13 -2.800668192097423986e-14 -2.861091965016167304e-14
7.050000000000000000e+02 4.177700579166412354e-01 3.246685409545898438e+01 -4.957756685112883754e-15 4.362619477910750776e-14 1.160053210582474501e-14 4.844336601783280627e-14
7.060000000000000000e+02 1.289232492446899414e+00 3.329658508300781250e+01 -5.800201085485318098e-14 4.376841838721508282e-14 -4.270077740291429447e-15 5.969258019735551590e-14
7.070000000000000000e+02 1.332526803016662598e+00 3.569819259643554688e+01 5.902410179538242208e-14 -1.119568034200352225e-13 -1.587981116502219792e-14 1.281500540449911907e-13
7.080000000000000000e+02 1.369249224662780762e+00 3.863414382934570312e+01 2.843567530963833634e-14 -1.479416090501006753e-13 -3.585177741163327048e-14 -1.643541734457597270e-14
7.090000000000000000e+02 2.842172384262084961e+00 3.868811035156250000e+01 -4.670766337176897320e-14 -2.001757050049124409e-14 -2.001757050049124409e-14 -2.413712879198968986e-14
7.100000000000000000e+02 1.731049299240112305e+00 3.936922073364257812e+01 3.952997055124002346e-14 -2.118133278364645045e-13 -5.168500854082005991e-14 8.026753225845797979e-14
7.110000000000000000e+02 5.401111245155334473e-01 3.959968566894531250e+01 -5.192024991906331322e-14 -6.800248162968855481e-14 -3.597681980343873931e-14 -7.332991229210342188e-14
7.120000000000000000e+02 1.742970585823059082e+00 4.024759674072265625e+01 -3.247918698313229102e-14 -1.282970176494716008e-13 -4.823286477791295657e-14 -4.218110574911483612e-14
7.130000000000000000e+02 1.458004117012023926e+00 4.199782180786132812e+01 -3.794845500663078519e-14 9.811375073932177004e-14 1.804958770336775875e-14 1.945629258832265451e-14
7.140000000000000000e+02 1.168257117271423340e+00 7.538257122039794922e+00 5.320784841910709828e-14 -4.804570912127215099e-13 -1.281747738545238602e-13 -1.326336366040334336e-14
7.150000000000000000e+02 3.911557495594024658e-01 7.527220726013183594e+00 1.903584364451398579e-15 -4.795691296334558817e-13 -1.432996652112397684e-13 1.104741196797116159e-14
7.160000000000000000e+02 1.117421150207519531e+00 1.477084636688232422e+01 -8.585655380003928694e-14 -4.943051718810098638e-13 -1.740485061846666626e-13 4.973736808695783385e-14
7.170000000000000000e+02 3.717142343521118164e-01 1.476715183258056641e+01 8.761674247454234732e-14 -4.199594502447140387e-13 -9.970281165342514962e-14 5.811949093650556342e-14
7.180000000000000000e+02 3.627928197383880615e-01 1.959857368469238281e+01 2.318435733379784619e-14 -3.103204813340726398e-13 -8.614083838592856424e-14 -5.725376227803946616e-14
7.190000000000000000e+02 1.081608057022094727e+00 2.123409843444824219e+01 -3.635643286534380458e-14 -1.985851262077675816e-13 -7.048246535024116355e-14 -6.591176037037613233e-14
7.200000000000000000e+02 3.977365195751190186e-01 5.105566501617431641e+00 4.562631739438161027e-14 -2.092006038886817798e-13 -4.907228798116912427e-14 2.412066924775864429e-14
7.210000000000000000e+02 4.037465095520019531e+00 6.181773185729980469e+00 -3.832766826898474644e-14 -3.930161724492384212e-14 -2.328878633179893437e-14 9.489045833810383357e-14
7.220000000000000000e+02 1.132706165313720703e+00 8.356795310974121094e+00 -1.222077045679240137e-13 -2.811294762521815427e-13 -1.210011501802735201e-13 5.095307043043867390e-14
7.230000000000000000e+02 1.843025088310241699e+00 1.079695320129394531e+01 -5.023830676009581608e-14 -3.875382816303368783e-13 -1.313329734678111982e-13 2.850761212378274956e-14
7.240000000000000000e+02 1.087188363075256348e+00 1.237096118927001953e+01 1.392196904634324106e-13 -3.063420014621370813e-13 -5.013669668774319021e-14 1.157142957841639230e-13
7.250000000000000000e+02 1.092966079711914062e+00 1.156849861145019531e+01 -8.873959645447695999e-14 -4.726652554597199352e-13 -1.684214562518854263e-13 -2.550815495514033998e-14
7.260000000000000000e+02 3.633224964141845703e-01 1.235805797576904297e+01 -1.672924629771491145e-13 -5.063307629074587091e-13 -2.020869772521513563e-13 -3.539952958043525444e-14
7.270000000000000000e+02 1.126991748809814453e+00 1.557492446899414062e+01 1.082987459476505987e-13 -3.424693254677757537e-13 -7.025117114553211528e-14 1.391951874943342382e-13
7.280000000000000000e+02 1.090631008148193359e+00 1.317279815673828125e+01 -1.695672275552409514e-13 -5.759320971521209032e-13 -2.236497933464504095e-13 -7.393954731523075946e-15
7.290000000000000000e+02 6.825785636901855469e+00 1.694170379638671875e+01 6.398958511504015956e-14 3.019297865110986967e-13 1.097758155535998037e-13 1.674454981137954435e-13
7.300000000000000000e+02 1.097640752792358398e+00 1.800461959838867188e+01 -4.182929569667044600e-14 -4.754363135822670117e-13 -1.551796885435052786e-13 -7.165386448244881468e-14
7.310000000000000000e+02 1.110170602798461914e+00 1.719394302368164062e+01 2.686872873172187204e-14 -5.374962085656631583e-13 -1.531882395456110602e-13 1.002665290204818316e-13
7.320000000000000000e+02 1.089261531829833984e+00 1.881387519836425781e+01 5.067449484661389059e-14 -3.442899448608677249e-13 -8.808463669834204479e-14 -2.707084942766158769e-14
7.330000000000000000e+02 1.086320757865905762e+00 2.203587532043457031e+01 -4.903328380801395825e-14 1.391140620667780103e-13 2.702423042831060551e-14 -1.361479847725209982e-14
7.340000000000000000e+02 1.440554046630859375e+01 7.162429332733154297e+00 -4.547760551389806727e-14 7.201149534530673635e-14 7.960167457642369077e-15 -6.606054678975903371e-14
7.350000000000000000e+02 1.139742279052734375e+01 1.265590095520019531e+01 1.466262820794955735e-14 2.350387408572157666e-13 7.491040800904416597e-14 -2.303102099223547361e-13
7.360000000000000000e+02 1.127902317047119141e+01 1.163528347015380859e+01 -2.999641144198553211e-14 3.289534443451369583e-14 8.696794848298873299e-16 -2.182903380623657519e-13
7.370000000000000000e+02 1.038893985748291016e+01 3.190673828125000000e+00 2.834038749120401657e-14 5.789682969159493098e-14 2.587116447721332646e-14 5.976260610517092342e-14
7.380000000000000000e+02 1.277620983123779297e+01 1.074623012542724609e+01 1.056668180688877245e-13 1.367876759127487074e-13 7.273635226024907641e-14 -1.096025735989637762e-14
7.390000000000000000e+02 1.350870418548583984e+01 9.345362663269042969e+00 1.899794781397030202e-14 5.389292527871458738e-14 2.186726175839887737e-14 5.768940826347129791e-14
7.400000000000000000e+02 1.249329757690429688e+01 8.113965988159179688e+00 -1.427120818438612493e-13 -1.526642175305945037e-13 -8.861289387809487272e-14 -7.751016896460211081e-14
7.410000000000000000e+02 1.495950984954833984e+01 4.072067737579345703e+00 4.234488803979592764e-14 -2.760313848424334610e-14 4.422525036072363913e-15 5.043106774196837172e-14
7.420000000000000000e+02 1.169003582000732422e+01 5.963364601135253906e+00 -2.776785420523231185e-14 -1.190050882409485547e-14 -1.190050882409485547e-14 5.241068538365534213e-14
7.430000000000000000e+02 1.030320549011230469e+01 1.280437946319580078e+01 3.848919067576256348e-14 1.709048213279634743e-13 6.281819953535966450e-14 -2.740475218716148520e-13
7.440000000000000000e+02 1.386958980560302734e+01 6.251527786254882812e+00 5.359496619292483666e-14 1.830975963294095843e-13 7.100776807907396848e-14 -9.578462697480694121e-14
7.450000000000000000e+02 1.171924114227294922e+01 1.102287769317626953e+01 1.225481982601930864e-13 3.956527759498701391e-13 1.554602936182716832e-13 -2.763225439477226542e-14
7.460000000000000000e+02 8.757410049438476562e+00 1.345765399932861328e+01 1.746082391087394603e-13 5.780925326111241436e-13 2.258102288054536499e-13 -2.367564694641388634e-13
7.470000000000000000e+02 1.414385700225830078e+01 7.904743671417236328e+00 8.642241246638662777e-14 1.285400686714885388e-13 6.448874501898890776e-14 -5.960047044653929427e-14
7.480000000000000000e+02 1.033563327789306641e+01 1.382796859741210938e+01 1.700247473195026782e-13 3.473734429444708116e-13 1.552194652107083406e-13 -2.877372548126116980e-13
7.490000000000000000e+02 1.314907169342041016e+01 1.004968833923339844e+01 -2.152112005043751303e-14 3.110333171574275468e-13 8.685365388049273716e-14 -4.784604515969265170e-14
7.500000000000000000e+02 1.487526988983154297e+01 4.859796524047851562e+00 -7.124391408850488938e-14 1.982216338769146602e-13 3.809331796940200465e-14 -1.593695539577576203e-14
7.510000000000000000e+02 9.303367614746093750e+00 1.391533565521240234e+01 1.461864348106453604e-13 5.101527924059046093e-13 1.969017668097122753e-13 -2.626484099654824433e-13
7.520000000000000000e+02 1.400922393798828125e+01 5.523142814636230469e+00 -4.988786890102597793e-14 7.012138536922202237e-14 6.070054093425866076e-15 5.839969621172086400e-14
7.530000000000000000e+02 1.919569587707519531e+01 -3.833244085311889648e+00 1.059818465626305439e-14 -4.120887116786098314e-14 -9.183205106446431371e-15 -4.419792168971342639e-14
7.540000000000000000e+02 2.177088546752929688e+01 -3.598986148834228516e+00 -1.206622234989568679e-14 1.320816150679124390e-13 3.600461603663583643e-14 1.083386987977066895e-14
7.550000000000000000e+02 2.036398506164550781e+01 -3.146456241607666016e+00 -1.382571815144789315e-14 1.542030121214760241e-13 4.211318725927219730e-14 -8.795354649129318025e-15
7.560000000000000000e+02 2.453886604309082031e+01 -4.055145263671875000e+00 -3.784959948542263031e-14 -1.763495762179684290e-13 -6.425975474389639119e-14 6.172374487608059401e-14
7.570000000000000000e+02 2.340500259399414062e+01 -2.476688146591186523e+00 1.080662506502223438e-14 9.613330639347827944e-14 3.208197935284685942e-14 2.927189334022209377e-14
7.580000000000000000e+02 2.463333892822265625e+01 -3.368498802185058594e+00 -5.444704491544593086e-15 1.806703522682848173e-13 5.256769479889018826e-14 5.738379199983836831e-14
7.590000000000000000e+02 2.666746711730957031e+01 -4.212266921997070312e+00 -6.531140374615301836e-14 2.007641421815017924e-13 4.063582288585734781e-14 -2.238713839417157125e-14
7.600000000000000000e+02 2.744055366516113281e+01 -3.562365531921386719e+00 6.219791391995355134e-14 2.096600481117996684e-13 8.155738725427325031e-14 8.629517456518187579e-14
7.610000000000000000e+02 2.955946922302246094e+01 -4.271576881408691406e+00 -7.536973025941764992e-14 5.920058280400875006e-14 -4.850744660139143585e-15 -6.648841362460328197e-14
7.620000000000000000e+02 1.080244445800781250e+01 1.222614192962646484e+01 1.723694158326655179e-13 3.826915184485663035e-13 1.665182748633586840e-13 -1.355895105394078204e-13
7.630000000000000000e+02 1.109543895721435547e+01 1.064125537872314453e+01 -1.088336370894463223e-13 3.193645977013492843e-13 6.315928953882360419e-14 -1.866648112122670788e-13
7.640000000000000000e+02 7.820513153076171875e+01 -4.511101245880126953e+00 -9.531400869304887391e-14 -4.084886183648717140e-14 -4.084886183648717140e-14 -1.714278811135519498e-14
7.650000000000000000e+02 7.893180847167968750e+01 -3.718595504760742188e+00 -1.874335376576136136e-13 1.484260847908758230e-13 -1.170223873993335786e-14 -1.170189569158971987e-13
7.660000000000000000e+02 2.327441596984863281e+01 -3.175574302673339844e+00 -6.747279465832076162e-14 -6.041438355852300421e-15 -2.205426969249368180e-14 6.414297939365612433e-14
7.670000000000000000e+02 2.602662849426269531e+01 -3.492691516876220703e+00 -1.138767187914679208e-14 1.781233580772090264e-13 5.002070738407797534e-14 1.117733022023420508e-13
7.680000000000000000e+02 1.978923225402832031e+01 -1.571787118911743164e+00 -8.137369630119989372e-14 -3.487444030390515759e-14 -3.487444030390515759e-14 -1.149198737473294818e-13
7.690000000000000000e+02 1.933695602416992188e+01 -1.987810373306274414e+00 -8.723021423565589794e-15 -3.738437934463741466e-15 -3.738437934463741466e-15 9.657312316914239136e-15
7.700000000000000000e+02 1.937282943725585938e+01 -5.426304340362548828e-01 2.325502529258727247e-14 2.387211793259541581e-13 7.859286003030971357e-14 7.341587766592026082e-15
7.710000000000000000e+02 2.108172988891601562e+01 -3.412575244903564453e+00 5.686185029774026845e-14 2.302486272389575594e-13 8.613314732676749519e-14 1.381279124282666637e-13
7.720000000000000000e+02 1.313916587829589844e+01 6.115104198455810547e+00 -6.402861639324963772e-14 -2.744083680715405510e-14 -2.744083680715405510e-14 8.107398893940701012e-14
7.730000000000000000e+02 1.368036651611328125e+01 6.969120502471923828e+00 2.722717444027505235e-14 1.260461597292830693e-13 4.598200008146084705e-14 -2.202485562636732896e-15
7.740000000000000000e+02 2.887279891967773438e+01 -3.590529203414916992e+00 2.177835887432096051e-14 -1.736702144941593140e-13 -4.556755702476468495e-14 2.448543721023013070e-14
7.750000000000000000e+02 3.250223922729492188e+01 -4.235078811645507812e+00 3.729396958894633241e-14 1.074850251121459155e-13 4.343369807151449546e-14 -1.351592991173655722e-13
7.760000000000000000e+02 1.284321975708007812e+01 9.052253723144531250e+00 7.437881013134736707e-15 1.633159888792326542e-13 5.122616062889703836e-14 -4.471479135852336750e-14
7.770000000000000000e+02 1.190749168395996094e+01 3.212104797363281250e+00 -2.284113450137272017e-14 1.274637947273893346e-13 3.138679569611273201e-14 1.220083875510397098e-13
7.780000000000000000e+02 3.178581047058105469e+01 -3.568704366683959961e+00 -2.681700720589662995e-14 -1.487458431165961104e-13 -5.266885763784666386e-14 -7.700785132182599857e-14
7.790000000000000000e+02 3.326247787475585938e+01 -3.535771131515502930e+00 -1.108318962322364654e-13 4.400251457691364831e-14 -2.004881415778366621e-14 -7.539995070090978885e-15
7.800000000000000000e+02 3.474847793579101562e+01 -3.493998765945434570e+00 -1.281340078528384052e-13 -2.379183547222829542e-13 -1.098157141935472703e-13 -1.060717743565746385e-13
7.810000000000000000e+02 8.883877754211425781e+00 3.175109863281250000e+00 2.700563466698658460e-14 1.030757375069732418e-13 3.902441385447361077e-14 4.049099380440401852e-14
7.820000000000000000e+02 1.212215137481689453e+01 1.038494396209716797e+01 -1.265082060376149231e-13 6.015956640183575677e-14 -1.990459155192057100e-14 -1.266859338787396094e-13
7.830000000000000000e+02 7.081160736083984375e+01 -3.171614408493041992e+00 -2.850073150574561343e-13 -3.051497856482177085e-13 -1.770471383432184465e-13 -1.546289409449369545e-13
7.840000000000000000e+02 7.153527069091796875e+01 -3.855768680572509766e+00 -3.058601820166845231e-13 -3.140867286307441608e-13 -1.859840813257448988e-13 -2.349603801451993768e-13
7.850000000000000000e+02 6.628943634033203125e+01 -3.848619222640991211e+00 -3.404293177650813407e-13 -1.916492274123618444e-13 -1.596235621979802399e-13 2.413404050986400068e-14
7.860000000000000000e+02 6.331760406494140625e+01 -3.144885540008544922e+00 -3.018847921209405483e-13 -1.751301469295196700e-13 -1.431044817151380655e-13 -1.185356202299328587e-13
7.870000000000000000e+02 3.772581863403320312e+01 -4.091970920562744141e+00 -1.417643400673102017e-13 -1.500519713093940305e-14 -4.703086065125511306e-14 1.315908916121183436e-13
7.880000000000000000e+02 3.551103210449218750e+01 -2.792653322219848633e+00 3.729041205056786434e-14 6.173255401873203874e-14 2.970689219248222324e-14 1.109026061191567807e-15
7.890000000000000000e+02 7.006294250488281250e+01 -3.169996261596679688e+00 -2.314134669480216733e-13 8.382659529623109895e-14 -4.427605878503174108e-14 -2.654826059239178554e-14
7.900000000000000000e+02 7.003672790527343750e+01 -3.854959249496459961e+00 -2.360718228972685795e-13 -1.011736470968825630e-13 -1.011736470968825630e-13 -6.881061204774135964e-14
7.910000000000000000e+02 6.778847503662109375e+01 -3.852979898452758789e+00 -1.308114722228456706e-13 2.184436306970280461e-13 2.628964957513378609e-14 -3.293697102167356117e-14
7.920000000000000000e+02 6.631864929199218750e+01 -3.160817623138427734e+00 -2.405570588646238628e-13 7.990790917410811600e-14 -4.819474490715472403e-14 4.948603308271674883e-14
7.930000000000000000e+02 6.706758880615234375e+01 -3.164473056793212891e+00 -1.822924949011761608e-13 1.048784404591648900e-13 -2.322421531616384455e-14 -2.759083956584921365e-14
7.940000000000000000e+02 6.556912231445312500e+01 -3.156226158142089844e+00 -1.679751715326360806e-13 6.526348878639273710e-14 -3.081350346862028744e-14 3.744803132952473357e-14
7.950000000000000000e+02 6.406781768798828125e+01 -3.148509263992309570e+00 -3.043512165380735102e-13 1.440694487537044766e-13 -4.808453236818978349e-14 9.151806780937840613e-14
7.960000000000000000e+02 6.178877258300781250e+01 -3.836452484130859375e+00 -1.967851744185886154e-13 -3.858555253197400170e-14 -7.061122113448739523e-14 4.917070982150828495e-14
7.970000000000000000e+02 7.530059814453125000e+01 -3.102370500564575195e+00 -2.483523911696317032e-13 -3.351914828596952445e-13 -1.750631703403143780e-13 -1.985707740815093048e-13
7.980000000000000000e+02 7.378778076171875000e+01 -3.844063997268676758e+00 -1.927567670366100994e-13 1.461446930270046685e-13 -1.398362203347503982e-14 9.414365479949813459e-15
7.990000000000000000e+02 7.821510314941406250e+01 -3.737952709197998047e+00 1.518787842073963251e-14 1.895128883466420944e-13 6.141022748911567630e-14 1.788888590210924168e-13
8.000000000000000000e+02 7.891730499267578125e+01 -1.335800051689147949e+00 3.921017969945456150e-13 3.079077926871134907e-14 1.268677681355925846e-13 1.980765405211817876e-13
8.010000000000000000e+02 6.931421661376953125e+01 -3.168634176254272461e+00 -1.894187118354345722e-13 -3.542849810723135151e-14 -6.745415993348116701e-14 -3.096121246209428135e-14
8.020000000000000000e+02 6.856523895263671875e+01 -3.167695283889770508e+00 -2.550434364569087453e-13 -1.780243195968842645e-14 -8.185376069438574098e-14 6.824688790442109965e-14
8.030000000000000000e+02 6.181645202636718750e+01 -3.140811920166015625e+00 -2.349446863187526491e-13 3.656226525965838858e-14 -5.951473038348642497e-14 6.330414572533124562e-14
8.040000000000000000e+02 6.031598663330078125e+01 -3.138285160064697266e+00 -2.164806284536344161e-13 4.447543340015645830e-14 -5.160155885485656624e-14 1.004122796737817735e-13
8.050000000000000000e+02 5.878643417358398438e+01 -3.834166049957275391e+00 -1.807145877169222259e-13 1.513056308933072303e-13 -8.822688402337214297e-15 -1.122446658730937019e-13
8.060000000000000000e+02 7.230750274658203125e+01 -3.173111915588378906e+00 -3.417306585276613795e-13 -3.752107402988508200e-13 -2.150824277794699535e-13 -1.224732798900743380e-13
8.070000000000000000e+02 5.731097030639648438e+01 -3.135221719741821289e+00 -2.808970775165092748e-13 1.998721826067251239e-13 -2.430746542361663515e-14 4.341982028370668101e-14
8.080000000000000000e+02 5.580791854858398438e+01 -3.135052204132080078e+00 -3.268380303813461785e-13 -9.432249225378372404e-14 -1.263481642444289066e-13 1.441846045769495932e-13
8.090000000000000000e+02 6.256700897216796875e+01 -3.142500162124633789e+00 -2.057405352855201652e-13 -4.242356384806869607e-14 -7.444922906245030059e-14 -8.114218186792455934e-15
8.100000000000000000e+02 5.956459045410156250e+01 -3.137868881225585938e+00 -1.720842977663561424e-13 -1.652523061966559847e-13 -1.012009825441563537e-13 -3.420973628074502892e-14
8.110000000000000000e+02 5.127416992187500000e+01 -3.846801280975341797e+00 -1.749878182893266354e-13 -2.122476321217078854e-13 -1.161706364785630718e-13 2.057952874952306832e-13
8.120000000000000000e+02 5.428104782104492188e+01 -3.835407972335815430e+00 -1.440024315069177163e-13 -6.171532875671667528e-14 -6.171532875671667528e-14 1.981363037778082620e-14
8.130000000000000000e+02 5.505714035034179688e+01 -3.135870933532714844e+00 -1.872570566489872856e-13 -2.175058635804638651e-13 -1.214288814898462077e-13 2.852526429040352918e-14
8.140000000000000000e+02 5.054653167724609375e+01 -3.155432462692260742e+00 -2.758154490391240277e-13 -2.097085119489097704e-13 -1.456571950726737175e-13 9.308252411042994279e-14
8.150000000000000000e+02 5.205094528198242188e+01 -3.146998405456542969e+00 -1.485987439868441395e-13 -2.009380211049141551e-13 -1.048610322380329196e-13 8.206960501813687081e-14
8.160000000000000000e+02 5.280275726318359375e+01 -3.143730640411376953e+00 -2.181020663551136440e-13 -9.347231512022921573e-14 -9.347231512022921573e-14 2.823106391331721941e-15
8.170000000000000000e+02 3.924322128295898438e+01 -3.358604907989501953e+00 -8.721489140964006764e-15 -9.523967985786141455e-14 -3.118834942909820551e-14 4.653893779680770559e-14
8.180000000000000000e+02 4.148512649536132812e+01 -3.989123106002807617e+00 -1.954664864212488085e-13 -1.752732480637606005e-13 -1.112219176349973915e-13 -6.654635067819547611e-14
8.190000000000000000e+02 4.223801040649414062e+01 -3.971198558807373047e+00 -1.098900023711532614e-13 9.015712980862955472e-14 -5.919861175834048930e-15 4.310094626038332710e-14
8.200000000000000000e+02 4.074915313720703125e+01 -3.317340850830078125e+00 -8.505618220378333150e-14 2.380530397371599660e-13 4.589905861526570596e-14 3.799001721928665920e-14
8.210000000000000000e+02 5.655958175659179688e+01 -3.134574174880981445e+00 -1.936502173893739354e-13 1.457617934772642565e-13 -1.436652581838018805e-14 1.788388434196229448e-14
8.220000000000000000e+02 4.976879882812500000e+01 -3.857420206069946289e+00 -1.716520534652404839e-13 -2.781421401250143421e-14 -5.983987583875124971e-14 5.206714914903973201e-14
8.230000000000000000e+02 4.828731918334960938e+01 -3.174488067626953125e+00 -1.536586477631982084e-13 -4.318613066982279758e-13 -1.756559849831751396e-13 -2.411461507976814418e-15
8.240000000000000000e+02 4.675694656372070312e+01 -3.889397859573364258e+00 -1.044193824830709494e-13 -1.820040158081320802e-13 -8.592701338872368866e-14 5.991139252455382480e-14
8.250000000000000000e+02 4.979337310791015625e+01 -3.161657810211181641e+00 -2.065721861144523275e-13 -1.342818814042273656e-13 -1.022562229661093391e-13 5.250008124090856099e-14
8.260000000000000000e+02 7.455518341064453125e+01 -3.131156921386718750e+00 -1.518129155372860417e-13 1.179411115211775885e-13 -1.016154256008525159e-14 -9.457631753488973669e-14
8.270000000000000000e+02 4.376372909545898438e+01 -3.244601488113403320e+00 -2.103060428712208441e-13 -4.438021334435791887e-14 -7.640587517060773437e-14 2.464351727511030626e-14
8.280000000000000000e+02 4.225596618652343750e+01 -3.277740240097045898e+00 -1.717507294154638209e-13 -1.651093541402137710e-13 -1.010580304877141400e-13 5.887714496716558998e-14
8.290000000000000000e+02 4.300959396362304688e+01 -3.259965419769287109e+00 -1.602696382725643520e-13 2.058187062621563701e-13 1.366472175213032103e-14 3.012844354967174343e-14
8.300000000000000000e+02 4.677989196777343750e+01 -3.193798303604125977e+00 -5.159875348173526000e-14 -2.966194455854276324e-13 -1.044654610754015833e-13 5.666543013353557423e-14
8.310000000000000000e+02 4.527154541015625000e+01 -3.216323614120483398e+00 -1.138753669268841029e-13 -4.880372771491267581e-14 -4.880372771491267581e-14 9.888595340788383647e-14
8.320000000000000000e+02 4.451768112182617188e+01 -3.230185031890869141e+00 -6.930308377953858789e-14 6.180057415252834807e-14 -2.250751405795414252e-15 -5.973444395374061244e-14
8.330000000000000000e+02 3.849137115478515625e+01 -3.381842374801635742e+00 -1.314730659410234814e-13 -1.478475003015289335e-13 -8.379616987276572448e-14 7.921724528518053754e-14
8.340000000000000000e+02 5.355507278442382812e+01 -3.139724254608154297e+00 -1.752816777356516753e-13 -3.038754686247868708e-13 -1.437471425528788482e-13 -1.383739619469168819e-14
8.350000000000000000e+02 4.150273895263671875e+01 -3.297436714172363281e+00 -5.746411782829238812e-14 1.126253699134348307e-13 1.654837427029001717e-14 -8.025862824811644258e-14
8.360000000000000000e+02 4.753372573852539062e+01 -3.183754682540893555e+00 -1.411841021696502718e-13 -1.520093729709404151e-13 -8.795804254217720608e-14 -7.096334289505637494e-14
8.370000000000000000e+02 1.116629695892333984e+01 2.505193710327148438e+00 4.166388371459883722e-14 2.008597417080607017e-13 7.275708762679786168e-14 -2.942839792382037634e-14
8.380000000000000000e+02 8.876696586608886719e+00 2.513331413269042969e+00 4.129235134701057797e-14 -7.380517909067602078e-14 -9.753847814879864492e-15 -1.529503926940220526e-13
8.390000000000000000e+02 1.263489246368408203e+01 3.944605827331542969e+00 4.685339454331112832e-15 4.775894984392417553e-14 1.573328801767436003e-14 6.644571638779808720e-14
8.400000000000000000e+02 1.249559116363525391e+01 9.725234031677246094e+00 1.039784916696297190e-13 3.076301691683214212e-13 1.234826043500225623e-13 -5.508214937226425800e-14
8.410000000000000000e+02 1.020700550079345703e+01 1.180382728576660156e+01 -2.892598541335417162e-14 3.078598031884538511e-13 8.368013991151904141e-14 -1.905654318156910221e-13
8.420000000000000000e+02 8.010325431823730469e+00 1.444501399993896484e+01 1.913109156769648989e-13 1.734922969176544427e-13 1.094409664888912337e-13 -1.889089064214047320e-13
8.430000000000000000e+02 1.066794872283935547e+01 1.123261451721191406e+01 2.352706008799335807e-14 3.303396781378226121e-13 1.061600216371513805e-13 -6.340727368072535119e-14
8.440000000000000000e+02 1.346701240539550781e+01 2.482033252716064453e+00 5.593729350702146552e-14 6.972407270685113123e-14 3.769841088060131573e-14 -2.559635099022377312e-15
8.450000000000000000e+02 1.418395328521728516e+01 4.017822742462158203e+00 -8.798565581625769627e-14 5.379376143751363193e-14 -1.025756814421662985e-14 4.604765529926842238e-14
8.460000000000000000e+02 1.148830509185791016e+01 1.002730560302734375e+01 5.363570170142419047e-14 3.889943109378762864e-13 1.327890027753506064e-13 -4.793601699935000349e-15
8.470000000000000000e+02 1.184600162506103516e+01 7.849564552307128906e+00 -1.543891018718560049e-13 4.821061152832269159e-14 -3.185354811949953069e-14 1.715092470984651979e-14
8.480000000000000000e+02 1.411013889312744141e+01 4.777518749237060547e+00 -1.113041950273618852e-14 1.096071950107239956e-13 2.954303197476998433e-14 5.949393403056543739e-15
8.490000000000000000e+02 1.325602054595947266e+01 5.422315120697021484e+00 -7.463540690425679580e-14 1.376434637925458282e-14 -1.826131714106112719e-14 -8.978953106204834445e-14
8.500000000000000000e+02 5.809341907501220703e+00 2.557259798049926758e+00 -2.142263891779204454e-14 -1.006830252850421381e-13 -3.663170163254250711e-14 -1.925951395977468228e-13
8.510000000000000000e+02 5.066489219665527344e+00 3.274653911590576172e+00 -4.996480998582276956e-14 -1.586663336524199441e-13 -6.258934478553870862e-14 -1.188427747053980021e-13
8.520000000000000000e+02 4.279250144958496094e+00 3.307838916778564453e+00 1.061145054746977234e-13 -1.832770995515917156e-13 -2.314877856188137656e-14 9.362357487581809967e-14
8.530000000000000000e+02 3.464456558227539062e+00 2.610829114913940430e+00 3.293237332683586482e-14 -2.146408728921980757e-13 -5.451255020842184218e-14 8.855198204479192148e-14
8.540000000000000000e+02 4.246484756469726562e+00 2.589687824249267578e+00 -8.370685363660954753e-15 1.336654040489521078e-13 3.758841857020266131e-14 -5.946223466954739245e-14
8.550000000000000000e+02 5.852817058563232422e+00 3.252084493637084961e+00 1.264718700182436081e-14 -2.690854808938547560e-13 -7.693148283130155085e-14 1.020170886244405051e-13
8.560000000000000000e+02 6.632736206054687500e+00 3.234127521514892578e+00 -3.076828884989585289e-14 -1.318640987011234292e-14 -1.318640987011234292e-14 -9.397854944335343186e-14
8.570000000000000000e+02 2.755523443222045898e+00 4.162771224975585938e+00 -6.671838645791461353e-14 -2.859359274419263908e-14 -2.859359274419263908e-14 5.063177389288617269e-14
8.580000000000000000e+02 7.354993820190429688e+00 2.529843807220458984e+00 -2.531393199440082342e-14 8.065306777473024713e-14 1.660174073409882711e-14 -1.233864491698502541e-13
8.590000000000000000e+02 8.139783859252929688e+00 3.187008380889892578e+00 -7.432882163493220729e-14 -7.760616151444854616e-14 -4.558049291193515262e-14 -1.745013367745323896e-13
8.600000000000000000e+02 9.636328697204589844e+00 3.178301811218261719e+00 -2.912537696913783392e-14 1.705214880973540681e-13 4.241883401609122806e-14 -1.365070437329279907e-13
8.610000000000000000e+02 1.938779830932617188e+01 8.368030548095703125e+00 8.708359960874975658e-14 -3.744369994184565398e-13 -8.620601926528567716e-14 3.197475853425162107e-14
8.620000000000000000e+02 1.922631072998046875e+01 5.057148933410644531e+00 -1.431578007451018292e-14 -9.763723033198723478e-14 -3.358590329135581476e-14 8.313252294672376919e-14
8.630000000000000000e+02 1.955687522888183594e+01 7.554542064666748047e+00 -9.673013258437723749e-14 -4.145577110759024464e-14 -4.145577110759024464e-14 4.242543409681623356e-14
8.640000000000000000e+02 9.798386573791503906e+00 1.337162017822265625e+01 2.295121558082424684e-13 4.014623919759707782e-13 1.892923616247585428e-13 -2.554831075429059295e-13
8.650000000000000000e+02 2.068343353271484375e+01 -1.063233494758605957e+00 -8.410743076395915674e-14 2.842105890910051613e-13 6.003095291912466380e-14 1.754999581261591085e-14
8.660000000000000000e+02 1.850430488586425781e+01 9.071130752563476562e+00 8.418598121135573153e-14 -1.469240853112230294e-13 -1.882143292402608387e-14 6.266644511252958405e-14
8.670000000000000000e+02 2.196451950073242188e+01 -2.883630275726318359e+00 2.860345898396225717e-14 3.096397921051319280e-13 1.014729749879150766e-13 2.810006222121134295e-14
8.680000000000000000e+02 1.654723358154296875e+01 1.460211372375488281e+01 -2.852359190855247029e-13 -3.052477704195560859e-13 -1.771451095620296678e-13 2.643432110845892608e-14
8.690000000000000000e+02 1.599804973602294922e+01 1.539589786529541016e+01 -2.854849671008082013e-14 -2.924596329001438733e-13 -9.630243515612244010e-14 3.255429508863122434e-14
8.700000000000000000e+02 1.338191318511962891e+01 1.765516471862792969e+01 -1.114009261899383263e-13 -9.349420245158626686e-14 -6.146853723720466234e-14 1.341908761843743636e-13
8.710000000000000000e+02 1.970121955871582031e+01 6.729843616485595703e+00 6.382751721904431075e-14 -2.014000945183003211e-13 -4.127177183452408749e-14 -2.450894406858233204e-14
8.720000000000000000e+02 2.073982048034667969e+01 -2.433270454406738281e+00 -3.245183459519955516e-14 4.328075780255825900e-14 3.248676919855963789e-15 1.138977828068002407e-13
8.730000000000000000e+02 2.174316787719726562e+01 -1.319880247116088867e+00 -5.006892642866632090e-15 1.579825137897061804e-13 4.589268553937056461e-14 -6.535017752634653121e-14
8.740000000000000000e+02 7.412324905395507812e+00 1.748835372924804688e+01 5.459644238439698150e-13 9.659999579761380240e-13 4.535893145460323517e-13 1.552158737910119823e-14
8.750000000000000000e+02 7.346384048461914062e+00 1.917943763732910156e+01 -1.157355868043261071e-13 3.164066231242657068e-13 6.020130818547644869e-14 2.196261157964493616e-13
8.760000000000000000e+02 1.104301738739013672e+01 4.598227500915527344e+00 -1.162541064933172996e-13 -4.072240066449505161e-15 -3.609790485731463605e-14 -6.049945023038280634e-14
8.770000000000000000e+02 1.773097419738769531e+01 1.393502902984619141e+01 -2.482437541119486557e-13 -3.122694431593325826e-13 -1.681539564708789403e-13 1.348271131242431697e-13
8.780000000000000000e+02 1.528066635131835938e+01 1.602587509155273438e+01 -1.354163227948804171e-13 -5.612960183448700846e-13 -2.090137009866724349e-13 7.788173182537647121e-14
8.790000000000000000e+02 1.333850479125976562e+01 1.873111724853515625e+01 -4.060793178497015821e-14 -4.749128607733910101e-13 -1.546562492871564332e-13 1.224383143700116805e-13
8.800000000000000000e+02 7.927220821380615234e+00 1.494492244720458984e+01 2.390841160031936807e-13 6.057250512801759523e-13 2.534427474745054587e-13 -3.096954387816347465e-14
8.810000000000000000e+02 8.332729339599609375e+00 1.397123336791992188e+01 -1.568003780913756074e-15 5.483393687027993124e-13 1.640314132352743703e-13 -1.731779189452151146e-13
8.820000000000000000e+02 7.506607818603515625e+01 3.794744491577148438e+01 3.001473107056874812e-14 1.958672482017809191e-13 6.776459412051807907e-14 4.149297957089723154e-14
8.830000000000000000e+02 7.812261199951171875e+01 3.839603805541992188e+01 -5.208369593766434477e-16 6.402900670603173250e-13 1.919307676115020178e-13 1.824235884963568144e-13
8.840000000000000000e+02 7.785533142089843750e+01 2.936112594604492188e+01 -1.437999025410974241e-13 1.442507409094712090e-13 1.352498932086018007e-16 1.213350302392904312e-13
8.850000000000000000e+02 7.880690765380859375e+01 3.169911193847656250e+01 2.729421370991844120e-14 1.947013107380171637e-13 6.659865665675432367e-14 5.538616304956098246e-14
8.860000000000000000e+02 7.873916625976562500e+01 2.929582405090332031e+01 -2.237543070477462231e-14 3.106671820837791920e-13 8.648752558310796035e-14 -7.036492428221657880e-14
8.870000000000000000e+02 7.885355377197265625e+01 3.488655471801757812e+01 -1.168709497668257713e-13 2.244181403210365744e-13 3.226415581101052532e-14 1.140087780042084442e-13
8.880000000000000000e+02 7.796873474121093750e+01 3.418557357788085938e+01 6.423679676289401064e-14 3.020357401684048426e-13 1.098817624346423716e-13 2.407126012187940645e-14
8.890000000000000000e+02 7.889767456054687500e+01 7.515310764312744141e+00 2.965543121399155657e-13 3.329739641563106423e-13 1.888584910203841560e-13 -1.022355977138436969e-14
8.900000000000000000e+02 7.746376800537109375e+01 5.083686351776123047e+00 -2.181641233769612831e-13 1.352558337682982503e-13 -2.487248891547798324e-14 1.840495393893790133e-13
8.910000000000000000e+02 7.813224792480468750e+01 1.151071929931640625e+01 6.295480223282926002e-14 1.184825214285353812e-13 5.443119777603575016e-14 -3.251269528888831592e-16
8.920000000000000000e+02 7.733274078369140625e+01 1.710264396667480469e+01 -3.052950687393307660e-14 1.241687687999343259e-13 2.809177993305309040e-14 1.561773239487813936e-14
8.930000000000000000e+02 7.810058593750000000e+01 1.632289695739746094e+01 6.606725529070128777e-14 2.570692953212522225e-13 9.694096247308062186e-14 9.769126425775848110e-14
8.940000000000000000e+02 7.709758758544921875e+01 2.511121368408203125e+01 -2.658271111642251244e-14 2.402376257995553210e-13 6.409647389672007423e-14 5.003334257455216774e-15
8.950000000000000000e+02 7.726079559326171875e+01 3.175920104980468750e+01 -8.560296230002671647e-15 2.937124556155051858e-13 8.554565205081549051e-14 6.273547490959902051e-14
8.960000000000000000e+02 7.842660522460937500e+01 4.102032852172851562e+01 1.432750470456607694e-14 3.721479504767422064e-13 1.159426423142165263e-13 5.995121662560193299e-14
8.970000000000000000e+02 7.760842132568359375e+01 3.980564498901367188e+01 5.437213247455781329e-14 2.063061364538515408e-13 7.820348237258870072e-14 1.005151806243460150e-14
8.980000000000000000e+02 7.776258087158203125e+01 3.702394866943359375e+01 8.122585178245433912e-15 4.609906206765046477e-13 1.407339549801614464e-13 1.051093280880592562e-13
8.990000000000000000e+02 7.788948822021484375e+01 2.764171600341796875e+01 -2.847166065736948803e-14 2.851790255765235260e-13 7.701220845930667469e-14 5.160725430439390415e-14
9.000000000000000000e+02 7.880010223388671875e+01 2.357203674316406250e+01 -7.796388724499656031e-14 3.097190201788863062e-13 6.952653784728785036e-14 1.008214982312592711e-13
9.010000000000000000e+02 7.802746582031250000e+01 2.193002891540527344e+01 4.765124452248310771e-14 5.236823886860253463e-13 1.714000984328820087e-13 6.121284170735111219e-14
9.020000000000000000e+02 7.888601684570312500e+01 9.925210952758789062e+00 -1.605279223351047113e-13 3.887117949567808761e-13 6.845516314175556505e-14 4.872830790128915290e-14
9.030000000000000000e+02 7.890644073486328125e+01 -5.340191125869750977e-01 -5.431015880075218405e-13 -9.190220199434273596e-13 -4.386371094903390722e-13 -7.875152353148395790e-13
9.040000000000000000e+02 7.814642333984375000e+01 1.044602155685424805e+00 -9.496173378892303063e-13 -1.809577810404743026e-14 -2.903139154856321236e-13 2.286193695293092798e-13
9.050000000000000000e+02 7.820067596435546875e+01 3.566411209106445312e+01 -9.084861362545007535e-14 1.440686762596565806e-13 1.596601709619605708e-14 -2.209264367313609062e-14
9.060000000000000000e+02 7.888938140869140625e+01 9.121857643127441406e+00 6.078708229047963263e-14 3.234327681980037061e-13 1.152659510807868548e-13 1.665458542561212840e-14
9.070000000000000000e+02 7.816167449951171875e+01 7.495894908905029297e+00 -2.147849362558670872e-13 1.367040568201957629e-13 -2.342426078138278717e-14 8.066351677316757618e-14
9.080000000000000000e+02 7.878983306884765625e+01 2.437577438354492188e+01 5.017454211982651235e-14 4.103864329526446530e-13 1.381682989591917488e-13 6.519244643904062442e-14
9.090000000000000000e+02 7.793061065673828125e+01 2.596654129028320312e+01 -5.996465395627717521e-14 2.259310766901043155e-13 4.978992817540085769e-14 6.312469671325773857e-14
9.100000000000000000e+02 7.875122070312500000e+01 3.802641677856445312e+01 -4.430828669460887270e-14 2.555164196546555466e-13 6.336244192089307559e-14 5.245759745640607430e-14
9.110000000000000000e+02 7.700428771972656250e+01 3.899052047729492188e+01 -6.129172757979479969e-15 2.261279542521005270e-13 6.599963495645608247e-14 8.482455596215895954e-14
9.120000000000000000e+02 7.808067321777343750e+01 3.496817779541015625e+01 4.531903416990848421e-14 4.540564701571020434e-13 1.498126438442132224e-13 -5.645727432784667169e-15
9.130000000000000000e+02 7.811276245117187500e+01 3.629383850097656250e+01 -6.532952347496068235e-14 5.210130287272574101e-13 1.367050461546781559e-13 4.738470442980586075e-15
9.140000000000000000e+02 7.786667633056640625e+01 2.849961090087890625e+01 -1.473204700490002034e-15 4.111271598768867497e-13 1.228961864999794651e-13 9.173387825181164579e-14
9.150000000000000000e+02 7.798474121093750000e+01 2.353449440002441406e+01 4.735270945428922407e-14 3.863016135273455998e-13 1.300962918122927636e-13 6.466924435191701015e-14
9.160000000000000000e+02 7.806213378906250000e+01 2.032568168640136719e+01 -7.440749405507318670e-14 5.961297265284076774e-14 -4.438357352405967668e-15 1.029798398248168989e-13
9.170000000000000000e+02 7.722377777099609375e+01 2.188647842407226562e+01 2.096903541036194800e-15 3.669062666536437867e-13 1.107009517148545286e-13 1.381453138731350561e-14
9.180000000000000000e+02 7.807434082031250000e+01 1.952415084838867188e+01 7.222273180982480278e-14 3.054582953763984587e-13 1.133043040901088316e-13 2.987486899031811804e-14
9.190000000000000000e+02 7.804668426513671875e+01 2.112767982482910156e+01 2.623271371448524653e-14 6.060049380710030853e-13 1.896712902840422266e-13 -3.259221421258095761e-15
9.200000000000000000e+02 7.808351898193359375e+01 1.872342109680175781e+01 7.134124156227619751e-14 3.050805051293958847e-13 1.129265273956334137e-13 1.041929468593473518e-13
9.210000000000000000e+02 7.811277008056640625e+01 1.472083473205566406e+01 -7.595786250414598983e-14 1.504504257721778204e-13 2.234776830278319137e-14 1.317699069433228565e-13
9.220000000000000000e+02 7.809510040283203125e+01 1.712359237670898438e+01 -3.211204902247438708e-14 7.773959292056362158e-14 1.368826249180041255e-14 7.481131193047899086e-14
9.230000000000000000e+02 7.811820983886718750e+01 1.391934585571289062e+01 7.182428751143637990e-14 4.882913192706672678e-13 1.680346806793783787e-13 -1.795254991486441160e-14
9.240000000000000000e+02 7.810668945312500000e+01 1.552208423614501953e+01 -2.036705968266015743e-14 2.200260102152434838e-13 5.989768414333546120e-14 4.918211427311011685e-14
9.250000000000000000e+02 7.812295532226562500e+01 1.311717891693115234e+01 -1.674626827182293387e-14 1.300758681538685679e-13 3.399888267511912143e-14 -7.859414074412596207e-14
9.260000000000000000e+02 7.815447998046875000e+01 8.298882484436035156e+00 1.356076573732697965e-13 3.326232518585658937e-13 1.404692741248034227e-13 2.524086185017298395e-15
9.270000000000000000e+02 7.813742828369140625e+01 1.070937633514404297e+01 -5.397812747584595020e-15 5.466980492439821315e-13 1.623900666714028773e-13 4.780698338829707239e-14
9.280000000000000000e+02 7.740667724609375000e+01 9.093111038208007812e+00 8.678274028214860714e-14 2.201963925866495808e-13 9.209373850538674078e-14 7.375117904622266463e-14
9.290000000000000000e+02 7.814781188964843750e+01 9.102348327636718750e+00 -1.649731241372409674e-13 2.495538769121258271e-13 2.537422210552049001e-14 1.765422152270965800e-14
9.300000000000000000e+02 7.816896057128906250e+01 6.694478511810302734e+00 1.841049556729201786e-13 1.704040283444924198e-13 1.063526979157292107e-13 8.087604072776546915e-14
9.310000000000000000e+02 7.817581176757812500e+01 2.671980619430541992e+00 -4.795821400595257078e-13 -3.427880266963778677e-13 -2.467110446057602102e-13 6.303471199869958852e-13
9.320000000000000000e+02 7.818335723876953125e+01 5.089106082916259766e+00 1.909407419502240355e-13 8.183175139028428524e-14 8.183175139028428524e-14 6.636175170580266292e-14
9.330000000000000000e+02 7.815998077392578125e+01 1.858104109764099121e+00 -5.260387936877053416e-13 3.693171257094368665e-13 -4.701650513686504718e-14 2.029134916732913685e-13
9.340000000000000000e+02 7.818549346923828125e+01 3.482017278671264648e+00 2.654041537323431621e-13 -6.327338233571991669e-16 7.943142942435504894e-14 -1.052008415276806108e-13
9.350000000000000000e+02 7.818811035156250000e+01 -1.378487229347229004e+00 -1.862507137450133965e-13 -4.000783807977387196e-13 -1.758987242970674880e-13 -4.309538565849119207e-13
9.360000000000000000e+02 3.834233283996582031e-01 3.496909856796264648e+00 -1.325028038950005344e-14 -5.142964165975004442e-14 -1.940397644536843991e-14 6.900485194913982129e-15
9.370000000000000000e+02 2.009860038757324219e+00 3.814459991455078125e+01 -3.355371265122836233e-14 -4.261386978964692984e-13 -1.379077245195620138e-13 6.593439309072676724e-14
9.380000000000000000e+02 2.764031887054443359e+00 4.064954376220703125e+01 -1.951594573066598587e-14 -7.699040244311255998e-14 -2.895190462154015321e-14 6.762857418171619450e-14
9.390000000000000000e+02 1.334074735641479492e+00 3.649116516113281250e+01 3.245924105129034676e-14 1.391110330769586290e-14 1.391110330769586290e-14 -2.391343924908109070e-14
9.400000000000000000e+02 2.313868522644042969e+00 3.654079818725585938e+01 5.439195304552356391e-14 -2.283193707881825407e-13 -5.217822904974266096e-14 7.483719895141297679e-15
9.410000000000000000e+02 1.189483880996704102e+00 3.007776641845703125e+01 -6.862929956318389313e-14 -6.537083496586416909e-15 -2.254991610377721917e-14 -3.778308707027243363e-14
9.420000000000000000e+02 2.133043766021728516e+00 3.249257659912109375e+01 -1.868593645158560246e-14 -9.951015570363805351e-14 -3.545882866300663350e-14 5.484559678701865504e-14
9.430000000000000000e+02 1.101867437362670898e+00 2.363881683349609375e+01 -2.760918460542084729e-14 5.679391486723868454e-14 8.755419586765119527e-15 -9.599780822697190352e-14
9.440000000000000000e+02 1.863252401351928711e+00 2.525406837463378906e+01 5.708089979416380855e-14 2.532179923641492136e-13 9.308966629224119105e-14 3.950274013605169221e-14
9.450000000000000000e+02 1.145870327949523926e+00 2.765793418884277344e+01 6.426741869800314810e-14 -1.554606188789234289e-13 -2.735795802139701083e-14 4.378045980759324995e-14
9.460000000000000000e+02 1.311333775520324707e+00 3.409886169433593750e+01 -5.155327543576422936e-15 -7.083584749583565765e-14 -2.279735306239503989e-14 1.001234414387680571e-13
9.470000000000000000e+02 1.158149957656860352e+00 2.846413040161132812e+01 -6.414073645041179494e-14 -1.418662550715238391e-13 -6.180209881183340581e-14 -6.354763042821717778e-14
9.480000000000000000e+02 1.986609458923339844e+00 3.008432960510253906e+01 8.813062719924616428e-14 3.777026976771458155e-14 3.777026976771458155e-14 1.036068881512738904e-13
9.490000000000000000e+02 1.323372721672058105e+00 3.489724349975585938e+01 -4.273830773874123801e-14 -1.831641832834591394e-14 -1.831641832834591394e-14 -1.116447497060031602e-13
9.500000000000000000e+02 1.876658320426940918e+00 2.605854415893554688e+01 -3.728804374644734132e-14 -6.173153757919533358e-14 -2.970587575294551808e-14 -1.121733016532216326e-14
9.510000000000000000e+02 1.904770374298095703e+00 2.766363334655761719e+01 -1.282400021677260193e-13 -1.464619034776196149e-13 -8.241057304885640589e-14 -9.158522058143672706e-14
9.520000000000000000e+02 1.888962388038635254e+00 2.686135673522949219e+01 5.379429676233629665e-14 2.060584911251286955e-13 7.795583704386585544e-14 8.914378024811597800e-16
9.530000000000000000e+02 2.083028554916381836e+00 3.168535041809082031e+01 -7.447665090708471131e-15 -2.776975426953959269e-13 -8.554356496163345591e-14 1.112935647638738437e-14
9.540000000000000000e+02 2.234314203262329102e+00 3.411522293090820312e+01 -6.424467078117168661e-14 -1.190353290112314277e-13 -5.498399858246821870e-14 -1.299588149768216017e-13
9.550000000000000000e+02 2.278272390365600586e+00 3.736361694335937500e+01 -2.587111873743417473e-14 -5.683857044421793125e-14 -2.481290692390222125e-14 -6.265356343546774065e-14
9.560000000000000000e+02 1.084050655364990234e+00 1.962219810485839844e+01 5.250856851104004908e-14 -3.435039253908700463e-13 -8.729860367581721015e-14 -4.092212679829287936e-14
9.570000000000000000e+02 1.794485092163085938e+00 2.125811958312988281e+01 -5.498394098422780540e-14 -2.356454637810704439e-14 -2.356454637810704439e-14 -1.446153411594191390e-14
9.580000000000000000e+02 1.109448075294494629e+00 9.968774795532226562e+00 -1.224673167781256677e-13 -2.583652692830784581e-13 -1.142497690420976597e-13 1.606668628435087287e-13
9.590000000000000000e+02 7.750599384307861328e+00 1.361021518707275391e+01 1.271492812296784458e-13 4.776888520158228957e-13 1.814514386183976868e-13 -5.237009217669112704e-14
9.600000000000000000e+02 1.202051877975463867e+00 5.077941894531250000e+00 8.120141657599194707e-14 -5.670129012039053229e-14 7.350036920240887728e-15 6.803170087823703915e-14
9.610000000000000000e+02 6.005036354064941406e+00 4.617586135864257812e+00 -1.556002742831349289e-14 -2.811742809069595062e-13 -8.902028962066987905e-14 7.088756393946321621e-14
9.620000000000000000e+02 1.102853178977966309e+00 1.397137832641601562e+01 -1.467544212237562040e-14 -2.579196892952412279e-13 -8.177854416866955911e-14 1.225109745502930489e-14
9.630000000000000000e+02 1.878816723823547363e+00 1.640468025207519531e+01 6.381159977589950794e-14 -2.471578714260957987e-13 -5.500388013980617163e-14 4.564064241558557500e-14
9.640000000000000000e+02 1.145346045494079590e+00 2.675881862640380859e+00 -1.423174424174718927e-14 3.965163158752005312e-14 7.625965526105501352e-15 2.349768837351436795e-14
9.650000000000000000e+02 1.818690061569213867e+00 1.803619384765625000e+01 6.421723368994422532e-14 -3.384859124759553861e-13 -8.228060431342970604e-14 4.751560066630980406e-14
9.660000000000000000e+02 1.850758433341979980e+00 9.199015617370605469e+00 -5.140304821333804841e-14 -1.135317764821598685e-13 -4.948044605339665947e-14 1.269958395172174348e-13
9.670000000000000000e+02 1.862614274024963379e+00 8.400463104248046875e+00 -4.537727022613105912e-15 -4.137032784488209325e-13 -1.254723050719136479e-13 5.630404183252363248e-14
9.680000000000000000e+02 1.890544772148132324e+00 1.558232879638671875e+01 -9.185738243178490081e-14 -3.824995604539277450e-13 -1.423070781223292891e-13 -3.100010821503219882e-14
9.690000000000000000e+02 1.116559386253356934e+00 9.166143417358398438e+00 3.435413506946115303e-14 -2.597824841528428852e-13 -6.762850641908041416e-14 -6.780503486155178838e-14
9.700000000000000000e+02 1.802694916725158691e+00 1.238980293273925781e+01 -5.907530324297805002e-14 -3.226991427979913896e-13 -1.145323392333016943e-13 -1.270850625797494138e-14
9.710000000000000000e+02 1.840839862823486328e+00 1.397079944610595703e+01 -9.852332843876890345e-14 -4.082318792904271465e-13 -1.520265575753743104e-13 -5.048138827529885519e-14
9.720000000000000000e+02 1.811531662940979004e+00 1.318253993988037109e+01 8.846174254272323734e-14 -2.823444603117231111e-13 -5.816481736357903554e-14 1.128426304762737697e-13
9.730000000000000000e+02 1.842579603195190430e+00 1.722381973266601562e+01 -1.413401866249067163e-14 -4.178159825497101965e-13 -1.295849956202757558e-13 -9.036280973701363295e-14
9.740000000000000000e+02 1.804864764213562012e+00 1.884401512145996094e+01 -1.709384993579463052e-14 -2.589561594670830580e-13 -8.281500078798423314e-14 -6.316695349293036110e-14
9.750000000000000000e+02 1.081103563308715820e+00 2.042943572998046875e+01 5.564445388836491979e-14 -1.134052229835764980e-13 -1.732823072856347346e-14 4.724334733640332684e-14
9.760000000000000000e+02 1.803447842597961426e+00 2.205692672729492188e+01 -1.337576239140514725e-14 -1.429853143438547525e-13 -4.690832208884172794e-14 -2.008719796400826318e-13
9.770000000000000000e+02 1.792498350143432617e+00 2.045601463317871094e+01 4.162176246019777537e-14 -1.194149488494000710e-13 -2.333795490032115200e-14 -1.298636762361859986e-13
9.780000000000000000e+02 1.390126895904541016e+01 1.820812797546386719e+01 -9.481043744151082531e-14 -2.236368371304892078e-13 -9.553418304922636772e-14 8.773838995829522092e-14
9.790000000000000000e+02 1.008173465728759766e+01 1.083691978454589844e+01 -1.129805071112960357e-13 1.574590474283030228e-13 1.334356243391527502e-14 -1.614702295482661754e-13
9.800000000000000000e+02 1.802917861938476562e+01 1.062711429595947266e+01 4.293940691294656498e-14 -4.391068942916770412e-13 -1.188502421478609961e-13 9.718755748094887181e-14
9.810000000000000000e+02 1.847842025756835938e+01 1.152352046966552734e+01 9.876581703090886455e-14 -3.008038967650811246e-13 -6.061142798600982484e-14 1.486577110325001949e-13
9.820000000000000000e+02 2.133580017089843750e+01 -2.688478469848632812e+00 -4.682065671989974961e-15 2.267481449998165477e-13 6.661982570417210314e-14 4.270362343361706892e-15
9.830000000000000000e+02 1.821689224243164062e+01 1.229860496520996094e+01 -1.425898922590221329e-13 -2.898647034205170669e-13 -1.297363773486090444e-13 3.054683716803389959e-14
9.840000000000000000e+02 1.753912925720214844e+01 1.485193443298339844e+01 3.384042991574215398e-14 -1.456252788712211754e-13 -3.353545400901734863e-14 -1.421749037131079391e-14
9.850000000000000000e+02 1.991411209106445312e+01 5.064257144927978516e+00 1.085471790170143905e-14 4.652021836867338556e-15 4.652021836867338556e-15 5.874563801990667633e-14
9.860000000000000000e+02 2.040531349182128906e+01 6.767927646636962891e+00 -2.031691194405091383e-14 -3.158272119307622972e-14 -1.556989027995132197e-14 9.008274168113578756e-15
9.870000000000000000e+02 1.936563110351562500e+01 2.619608163833618164e+00 -4.003996570065004867e-14 1.658438062443826078e-13 3.774115555125155674e-14 1.519656897877846163e-14
9.880000000000000000e+02 2.003394126892089844e+01 2.582883119583129883e+00 -5.090662253174303709e-14 2.069376164566885667e-13 4.680929716104412219e-14 8.925323723369196771e-14
9.890000000000000000e+02 1.230180072784423828e+01 1.976994514465332031e+01 -1.142850056127034386e-13 2.255264117817512570e-13 3.337242049546162992e-14 9.833068604150896341e-14
9.900000000000000000e+02 1.220680046081542969e+01 1.864323425292968750e+01 -1.507815377275231045e-14 -3.267187139322641487e-13 -1.025390574315929171e-13 1.077320809059374718e-13
9.910000000000000000e+02 1.153635740280151367e+00 3.469282388687133789e+00 -5.153218008021286101e-15 -1.165858994631521761e-13 -3.652173303906637580e-14 -3.018586560723200696e-14
9.920000000000000000e+02 1.425168418884277344e+01 2.483224630355834961e+00 -5.717920982615393166e-14 2.124557176236621658e-14 -1.078009260498244068e-14 1.111679311430711914e-13
9.930000000000000000e+02 7.311360359191894531e+00 1.485996246337890625e+01 2.366789761138604620e-13 6.961961931430116213e-13 2.798625318035236065e-13 -1.213639377797143259e-13
9.940000000000000000e+02 2.003329658508300781e+01 1.782444834709167480e+00 1.195903795371718037e-15 1.377653823268418232e-13 4.168838329556522060e-14 -2.808225758866005756e-14
9.950000000000000000e+02 1.936522293090820312e+01 1.035487294197082520e+00 -5.739246964062475181e-16 4.550498161875332626e-14 1.347931725140466899e-14 8.066159231431141441e-14
9.960000000000000000e+02 8.324218750000000000e+00 1.976436424255371094e+01 3.231137620375405806e-14 3.112289072293439318e-13 1.030620833358635025e-13 1.595317573790250298e-13
9.970000000000000000e+02 7.532233715057373047e+00 1.997113800048828125e+01 -1.202016408635578695e-14 3.608560932705229263e-13 1.046507783317336682e-13 3.908458029878297824e-14
9.980000000000000000e+02 6.874907016754150391e+00 1.612787246704101562e+01 1.999266095557838963e-13 -7.444548856495522560e-14 3.764433629724860120e-14 2.604562344878796898e-13
9.990000000000000000e+02 6.721364974975585938e+00 1.789830017089843750e+01 1.822319015522613772e-13 2.039144948815657665e-13 1.158439257064117212e-13 6.951288367617811104e-14
1.000000000000000000e+03 8.894451141357421875e+00 3.818842887878417969e+00 -1.596746823304129315e-13 6.882084420574419159e-14 -2.725614974333472745e-14 -1.289567411189018742e-13
1.001000000000000000e+03 1.114517402648925781e+01 3.203521251678466797e+00 -7.048281093968364330e-14 1.554402867000575367e-14 -1.648163485030995634e-14 -9.908103526003186889e-14
1.002000000000000000e+03 1.297905254364013672e+01 6.794484138488769531e+00 -7.671536068074372161e-14 1.501257885366813483e-13 2.202312598508903568e-14 1.826368205704986120e-14
1.003000000000000000e+03 9.723104476928710938e+00 1.236557865142822266e+01 1.425239727669350143e-13 3.813383528221414576e-13 1.571586963214702259e-13 -1.950343640928775546e-13
1.004000000000000000e+03 9.625827789306640625e+00 1.137985706329345703e+01 -1.196817913328394878e-14 4.409425298848579367e-13 1.286923042090326597e-13 -1.849029826819781341e-13
1.005000000000000000e+03 2.066999244689941406e+01 -4.651232063770294189e-01 2.072996756077947339e-14 -8.261762855874682510e-14 -1.856629812998361606e-14 -4.563692288215594455e-16
1.006000000000000000e+03 2.532699012756347656e+01 -3.438451528549194336e+00 -3.787971997702699323e-14 7.526773394004107609e-14 1.121640435831081431e-14 -1.939271260123585222e-14
1.007000000000000000e+03 2.119562339782714844e+01 -1.170052647590637207e+00 1.446634526308231833e-14 -3.955108538854917866e-14 -7.525422715266415902e-15 -2.720795018050416875e-14
1.008000000000000000e+03 2.019588851928710938e+01 -1.158138990402221680e+00 1.253650605363958864e-14 1.426256302731326864e-13 4.654864140625145086e-14 1.413967345444654133e-14
1.009000000000000000e+03 2.673103141784667969e+01 -3.533468484878540039e+00 -5.484591865953861167e-14 2.224555514297212044e-14 -9.780109224376536819e-15 7.081496982775173366e-14
1.010000000000000000e+03 2.472724342346191406e+01 -2.682598590850830078e+00 2.786769397872517623e-14 1.194329669342540645e-14 1.194329669342540645e-14 -3.911830576261085546e-14
1.011000000000000000e+03 7.085423946380615234e+00 1.850310325622558594e+01 1.741120810895557813e-13 6.693818134333173742e-13 2.530481520938293594e-13 -1.401656839639803254e-13
1.012000000000000000e+03 2.513297319412231445e+00 1.888126564025878906e+01 1.074524719419170382e-13 -1.369527321409824694e-13 -8.850078906752576607e-15 5.099799875202693650e-15
1.013000000000000000e+03 2.815483474731445312e+01 -3.580836534500122070e+00 -8.359429820451250159e-14 -8.157707229996744025e-14 -4.955141047371762475e-14 1.338399385758656454e-14
1.014000000000000000e+03 2.679241752624511719e+01 -2.861776351928710938e+00 4.454125802455348448e-14 6.484006040419210137e-14 3.281439518981049686e-14 9.904238345258276066e-14
1.015000000000000000e+03 1.257548999786376953e+01 4.657315254211425781e+00 -8.219758153207162854e-14 -3.522753445829758523e-14 -3.522753445829758523e-14 2.045702813418572019e-14
1.016000000000000000e+03 2.959504890441894531e+01 -3.593398571014404297e+00 -6.066118608946333146e-14 6.550424265505672139e-14 1.452917414370314287e-15 1.254117659331074885e-13
1.017000000000000000e+03 2.749485588073730469e+01 -2.891998291015625000e+00 -6.091239573282822284e-14 -1.633581507912151842e-13 -6.728116192433394871e-14 4.477711265465054991e-14
1.018000000000000000e+03 1.218659877777099609e+01 8.757294654846191406e+00 1.147923529371203469e-14 3.251763008166319580e-13 1.009966646447514604e-13 2.206972126751749474e-14
1.019000000000000000e+03 9.455786705017089844e+00 5.163938045501708984e+00 -2.314903436583144736e-14 -9.921014849218184189e-15 -9.921014849218184189e-15 4.302324962219758464e-14
1.020000000000000000e+03 3.105236816406250000e+01 -3.581221342086791992e+00 -1.209520629269142389e-13 2.226690918238558026e-13 3.051511070196154252e-14 1.072651438293681717e-14
1.021000000000000000e+03 3.035306930541992188e+01 -2.918724298477172852e+00 -2.105190614930599335e-13 4.703038970093643967e-14 -4.904660255407658487e-14 -9.024925988823651046e-14
1.022000000000000000e+03 2.353307342529296875e+01 -1.771978378295898438e+00 -3.807621129199925680e-14 2.353118513844648652e-13 5.917068592910246227e-14 6.147485949112296844e-14
1.023000000000000000e+03 1.276265048980712891e+01 7.462009906768798828e+00 8.067168047671321313e-15 2.322120902682744958e-13 7.208377774889362932e-14 1.729936215165515240e-14
1.024000000000000000e+03 2.616815376281738281e+01 -2.143549680709838867e+00 -6.813377173651297136e-15 2.258347317745518223e-13 6.570640570264379976e-14 -2.050844642221584524e-14
1.025000000000000000e+03 3.252256774902343750e+01 -3.553630352020263672e+00 -9.952769945004158458e-14 -1.341566289482509777e-13 -7.010529851948776869e-14 -5.800798751932900732e-14
1.026000000000000000e+03 3.038998222351074219e+01 -2.251651525497436523e+00 -1.707871853922487970e-14 -1.445723017213032535e-13 -4.849530607815843997e-14 -1.641745855202828702e-14
1.027000000000000000e+03 1.049924564361572266e+01 1.027150821685791016e+01 5.898762008634417936e-15 3.799733693920365196e-13 1.157616347615200714e-13 -5.758155047609972432e-14
1.028000000000000000e+03 3.400448226928710938e+01 -3.515411376953125000e+00 -1.596782195400006654e-13 -3.429392186893309713e-13 -1.507852274030413442e-13 -1.811182599026611023e-14
1.029000000000000000e+03 3.254340744018554688e+01 -2.878705978393554688e+00 -1.489681587720642630e-14 -5.213529803184402400e-14 -2.010963451152831399e-14 -4.890556818022695484e-14
1.030000000000000000e+03 2.962987899780273438e+01 -2.922820091247558594e+00 -8.954623609454259725e-14 -4.043845607763080219e-13 -1.481792390612551857e-13 1.575687686881585559e-13
1.031000000000000000e+03 3.549465179443359375e+01 -3.472149848937988281e+00 -2.871705965471621491e-14 7.919458545977559050e-14 1.514325841914417048e-14 5.282505728958393487e-14
1.032000000000000000e+03 3.328220367431640625e+01 -2.859791278839111328e+00 -1.056749224801270537e-13 -4.528925249148302301e-14 -4.528925249148302301e-14 9.936678351885400162e-14
1.033000000000000000e+03 9.143813133239746094e+00 1.192578697204589844e+01 -8.753086688621791733e-14 3.170566294317250788e-13 6.885772740839943284e-14 -1.595694062994645890e-13
1.034000000000000000e+03 7.748122406005859375e+01 -2.217941284179687500e+00 -2.227662634435648159e-13 -3.471014708295028228e-13 -1.709603189266675760e-13 -3.704944608485388757e-13
1.035000000000000000e+03 3.699031066894531250e+01 -3.427047491073608398e+00 -1.039167802372245597e-13 4.696613378155772844e-14 -1.708519495313958608e-14 9.065157343312799099e-14
1.036000000000000000e+03 7.469847679138183594e+00 3.901443243026733398e+00 1.183716770029917889e-14 -1.780240316056821981e-14 -1.789570341619180736e-15 -1.125433093615048341e-13
1.037000000000000000e+03 1.267500114440917969e+01 3.219867944717407227e+00 -6.022456432207626276e-14 -7.156147690482589363e-14 -3.953581169044428911e-14 1.511034144826444749e-15
1.038000000000000000e+03 1.241954135894775391e+01 6.009942054748535156e+00 -1.272337541314422227e-13 -8.777801585363367159e-15 -4.080346425864612991e-14 -3.749353393945123458e-14
1.039000000000000000e+03 7.158276367187500000e+01 -1.834799408912658691e+00 -1.401561023272809847e-13 2.144387911597739338e-13 2.228480834381377923e-14 -1.597204797078050770e-14
1.040000000000000000e+03 7.083056640625000000e+01 -2.496629476547241211e+00 -1.728627278211464224e-13 -1.198349823235481115e-13 -8.780931033290292897e-14 -3.964420819077031644e-14
1.041000000000000000e+03 6.484441375732421875e+01 -2.466919183731079102e+00 -2.307366537418475971e-13 8.411666003495243960e-14 -4.398599404631040044e-14 6.062422834790873183e-14
1.042000000000000000e+03 6.486693572998046875e+01 -1.783832073211669922e+00 -2.806919735705293295e-13 -7.454561463558426193e-14 -1.065712798499658664e-13 -5.317791766288292032e-14
1.043000000000000000e+03 7.305692291259765625e+01 -3.166313886642456055e+00 -1.497691673370965537e-13 2.560698506536007724e-13 3.189020431732490779e-14 -1.865158714799207244e-15
1.044000000000000000e+03 3.774016952514648438e+01 -3.404819965362548828e+00 -1.553315988203976539e-13 -2.495744767534030517e-13 -1.214718158958766336e-13 1.703095265726331520e-14
1.045000000000000000e+03 3.628103256225585938e+01 -2.091886520385742188e+00 -2.446153563452450885e-14 -1.477363560263220132e-13 -5.165937054757256675e-14 4.007776031075653556e-14
1.046000000000000000e+03 7.008315277099609375e+01 -2.492357492446899414e+00 -2.527705150225101338e-13 -1.540811749023429655e-13 -1.220555096879613610e-13 -2.425542947916137226e-13
1.047000000000000000e+03 6.781609344482421875e+01 -3.166869640350341797e+00 -1.983971119985314391e-13 -1.307782820838404580e-13 -9.875261686945885353e-14 -9.585224730905214652e-14
1.048000000000000000e+03 6.634394073486328125e+01 -2.478475093841552734e+00 -2.354478916520574838e-13 -9.404345080183795086e-15 -7.345567296784816236e-14 1.833468950664454700e-13
1.049000000000000000e+03 6.559499359130859375e+01 -2.473037004470825195e+00 -2.669746476842427274e-13 1.143370337644555867e-13 -4.579128214305706879e-14 -3.122719097192749871e-14
1.050000000000000000e+03 6.409297943115234375e+01 -2.461110353469848633e+00 -3.750826418121716577e-13 2.225408984694865477e-14 -1.058485642343141853e-13 -3.248777928534923864e-14
1.051000000000000000e+03 7.603764343261718750e+01 -3.067589044570922852e+00 -2.211634467143980265e-13 4.246851419251358728e-14 -5.360847806249943726e-14 -4.482410943069600751e-14
1.052000000000000000e+03 7.380577087402343750e+01 -3.152640342712402344e+00 -2.558716042863617979e-13 -1.096592570437940339e-13 -1.096592570437940339e-13 -1.021229880716380267e-13
1.053000000000000000e+03 6.933489990234375000e+01 -2.489207983016967773e+00 -1.634317952237812621e-13 1.129615945596497417e-13 -1.514106121567899282e-14 6.479489660744450208e-14
1.054000000000000000e+03 6.858657836914062500e+01 -2.486915826797485352e+00 -2.349964840775431441e-13 -1.464637330687856842e-13 -1.144380678544040797e-13 -6.460807502059809360e-14
1.055000000000000000e+03 6.106636047363281250e+01 -3.139325857162475586e+00 -2.019205386661476753e-13 9.646642751097445068e-14 -3.163623334655196739e-14 -9.563745330615561202e-14
1.056000000000000000e+03 5.808415985107421875e+01 -2.443163156509399414e+00 -3.354362957102424714e-13 -5.225651522285969242e-14 -1.163078422634911124e-13 7.066220320054968432e-15
1.057000000000000000e+03 3.476486968994140625e+01 -2.815634250640869141e+00 -8.819039384400442771e-14 -8.354683047814837060e-14 -5.152116865189855510e-14 1.603268197727675953e-14
1.058000000000000000e+03 7.231967926025390625e+01 -2.500886440277099609e+00 -1.894113934707702951e-13 4.220841341370795696e-13 6.980182355514549797e-14 8.741354604675961870e-16
1.059000000000000000e+03 6.108988571166992188e+01 -2.447518348693847656e+00 -2.289735241689516698e-13 -6.629607022997372270e-15 -7.068093533417821317e-14 -9.644973079751817391e-14
1.060000000000000000e+03 5.582909393310546875e+01 -2.440014839172363281e+00 -1.449028614111669278e-13 7.515162266363145660e-14 -2.092537128544746244e-14 1.112120920528092416e-13
1.061000000000000000e+03 5.430659866333007812e+01 -3.137012958526611328e+00 -2.796915802259769546e-13 -1.198678200968472662e-13 -1.198678200968472662e-13 7.761966660775956872e-14
1.062000000000000000e+03 6.334217834472656250e+01 -2.455634117126464844e+00 -1.855163158509531840e-13 1.949986938414027815e-13 2.844713354783231889e-15 3.730355461377746207e-14
1.063000000000000000e+03 6.259109878540039062e+01 -2.451536893844604492e+00 -2.394748082560488323e-13 -1.483830148595738363e-13 -1.163573496451922318e-13 -1.109242838098593864e-13
1.064000000000000000e+03 5.881288909912109375e+01 -3.137483358383178711e+00 -3.023924426831525736e-13 5.340703329885163053e-14 -7.469562755867478754e-14 -5.359347880306945811e-14
1.065000000000000000e+03 6.033927154541015625e+01 -2.446403264999389648e+00 -2.222527988472028371e-13 -1.867530923741617110e-13 -1.227017619453985020e-13 6.445887524913693212e-14
1.066000000000000000e+03 5.958729171752929688e+01 -2.445710659027099609e+00 -2.274722565257653040e-13 8.551568063700984434e-14 -4.258697344425299569e-14 1.756301470901520945e-14
1.067000000000000000e+03 5.129917907714843750e+01 -3.150269508361816406e+00 -1.251036898857957325e-13 3.788603206654993227e-14 -2.616529666814738225e-14 1.819839174103596302e-13
1.068000000000000000e+03 5.507868957519531250e+01 -2.441075325012207031e+00 -2.609586808796637847e-13 -2.033754058444834506e-14 -8.438886931914565959e-14 1.157903525665637812e-13
1.069000000000000000e+03 5.057097625732421875e+01 -2.466046571731567383e+00 -2.216413359269753247e-13 -1.407400942749631456e-13 -1.087144290605815411e-13 2.037344766633517046e-13
1.070000000000000000e+03 3.999568557739257812e+01 -3.337113618850708008e+00 9.106757841857889002e-15 2.326576431510574139e-13 7.252931707914939130e-14 -9.082520841105154452e-14
1.071000000000000000e+03 3.625813674926757812e+01 -2.769115209579467773e+00 -4.573519162128988902e-14 -1.960079640912423815e-14 -1.960079640912423815e-14 4.983556631059891939e-14
1.072000000000000000e+03 5.207454681396484375e+01 -2.456687927246093750e+00 -1.939737026600621417e-13 -2.203844339009400355e-13 -1.243074382577952219e-13 1.071678756479031713e-13
1.073000000000000000e+03 5.733294296264648438e+01 -2.440970897674560547e+00 -2.406566428341666564e-13 2.171180851209472684e-13 -7.061568838625121441e-15 1.414297180074314958e-14
1.074000000000000000e+03 5.658081436157226562e+01 -2.439744472503662109e+00 -2.900401544370795337e-13 1.294992589453546755e-14 -8.312706805454345149e-14 1.205894921679079301e-13
1.075000000000000000e+03 3.926015472412109375e+01 -2.675575733184814453e+00 -8.735172958226899986e-14 -2.204402567602958829e-13 -9.233759590276946483e-14 3.319921242214349255e-14
1.076000000000000000e+03 3.850814819335937500e+01 -2.699600934982299805e+00 -3.068379900747313094e-14 -1.315019921161722158e-14 -1.315019921161722158e-14 1.196323330790493092e-14
1.077000000000000000e+03 4.904045867919921875e+01 -3.167442798614501953e+00 -1.470446214877491053e-13 -6.301912252671196257e-14 -6.301912252671196257e-14 -2.354619964446951624e-14
1.078000000000000000e+03 7.455190277099609375e+01 -2.432974576950073242e+00 -2.325478134709846323e-13 -9.966335347061025529e-14 -9.966335347061025529e-14 -2.247787188585509410e-13
1.079000000000000000e+03 7.380628204345703125e+01 -2.469155311584472656e+00 -2.657919186393326028e-13 1.148439253851468722e-13 -4.528440068676115038e-14 1.490596552710266726e-14
1.080000000000000000e+03 4.906508636474609375e+01 -2.476963758468627930e+00 -9.701693116405396555e-14 -8.732963218674102968e-14 -5.530396697235942516e-14 3.281593678977449968e-14
1.081000000000000000e+03 4.454071807861328125e+01 -2.540199041366577148e+00 -4.998273320298667055e-14 2.432977796551320793e-14 -7.695886401835449336e-15 -4.986160071526572757e-14
1.082000000000000000e+03 4.227584457397460938e+01 -2.589547634124755859e+00 -1.498724375940257980e-13 7.302180236347377562e-14 -2.305518819747335441e-14 4.580631189567314909e-14
1.083000000000000000e+03 4.602576828002929688e+01 -3.204324960708618164e+00 -7.075354299841685179e-14 -3.032294603128385391e-14 -3.032294603128385391e-14 9.454949708364787653e-14
1.084000000000000000e+03 4.604959869384765625e+01 -2.513811349868774414e+00 -1.015599957647841944e-13 -1.350276092109900516e-13 -7.097627878222684261e-14 2.177398987837902283e-14
1.085000000000000000e+03 5.432838821411132812e+01 -2.443382978439331055e+00 -1.446832698136571449e-13 -1.077580611004956557e-13 -7.573239588611405115e-14 -6.658171599780923766e-14
1.086000000000000000e+03 5.357725524902343750e+01 -2.447808027267456055e+00 -1.751474806117522820e-13 -2.931225954235644471e-14 -6.133792475673804923e-14 3.519690574692486973e-14
1.087000000000000000e+03 1.173881816864013672e+01 5.311502933502197266e+00 -6.710578544667084033e-14 -1.202615210107310650e-13 -5.621019058196785601e-14 -6.807193155509982940e-14
1.088000000000000000e+03 3.700650787353515625e+01 -2.745589494705200195e+00 1.159408449103024527e-14 -4.078205465387133022e-14 -8.756391133555620210e-15 6.136768610637277632e-14
1.089000000000000000e+03 5.132294082641601562e+01 -2.460668087005615234e+00 -2.281761205761428934e-13 -1.892916704458735833e-13 -1.252403400171103742e-13 5.691992287660402328e-14
1.090000000000000000e+03 4.981843566894531250e+01 -2.471608877182006836e+00 -1.822115727615272740e-13 -2.153435172151316190e-13 -1.192665351245139616e-13 -4.501855431406770469e-14
1.091000000000000000e+03 4.076907730102539062e+01 -2.631681919097900391e+00 -9.382716093875656527e-14 1.885431101609352789e-13 2.841478408902725628e-14 4.705556013199704846e-14
1.092000000000000000e+03 4.152281951904296875e+01 -2.610784292221069336e+00 -1.379457935683434111e-13 3.238227286143924299e-14 -3.166905756732396604e-14 -1.034938126409472303e-13
1.093000000000000000e+03 4.831156539916992188e+01 -2.483934879302978516e+00 -2.204203074403221496e-13 -9.446584410977704183e-14 -9.446584410977704183e-14 5.625136485353388754e-15
1.094000000000000000e+03 4.755839538574218750e+01 -2.493121147155761719e+00 -2.531353092430029851e-15 -2.755905584034962219e-13 -8.343657389347017284e-14 1.453779249218321856e-14
1.095000000000000000e+03 7.676770019531250000e+01 -3.029817581176757812e+00 -8.288672753795772730e-14 -2.642776134650220987e-13 -1.041493077219048102e-13 -3.562877261015923169e-13
1.096000000000000000e+03 7.816594696044921875e+01 -5.753957033157348633e-01 -4.890771490052847614e-13 2.936559415772643789e-13 -5.862636900466969281e-14 -2.701096453710388756e-13
1.097000000000000000e+03 4.381747436523437500e+01 -1.866894125938415527e+00 -1.296793754193906190e-13 -1.013278206458100017e-13 -6.930215543142839718e-14 1.007154835875809229e-13
1.098000000000000000e+03 4.529445648193359375e+01 -2.525964021682739258e+00 -4.477735998827114816e-14 1.180625557170231210e-13 2.198555668574651845e-14 1.095401913164643914e-13
1.099000000000000000e+03 2.548574209213256836e+00 1.163757038116455078e+01 -5.169780890271896689e-14 -3.881637849686980779e-13 -1.319584768061723978e-13 9.179490019939774009e-15
1.100000000000000000e+03 7.433099746704101562e+00 1.421455574035644531e+01 7.497004590479444675e-14 4.438885511329898614e-13 1.556575777560825768e-13 -4.737971964091126920e-14
1.101000000000000000e+03 1.961885213851928711e+00 4.225390911102294922e+00 4.161373936412138264e-14 -5.079196476387090597e-14 -2.753467154056736012e-15 1.143880996867796540e-13
1.102000000000000000e+03 2.704270601272583008e+00 3.394207954406738281e+00 -4.767151571497679763e-14 -2.949363301328611353e-13 -1.027823591753622423e-13 1.665236281115853312e-13
1.103000000000000000e+03 7.587385654449462891e+00 1.263045120239257812e+01 4.219399081430846854e-14 6.014077582293386737e-13 1.930805233578414271e-13 8.318338727520638992e-15
1.104000000000000000e+03 1.982035064697265625e+01 5.897877693176269531e+00 -6.643713763810829565e-14 -2.847305995579835214e-14 -2.847305995579835214e-14 -2.226733151301308125e-16
1.105000000000000000e+03 5.921787261962890625e+00 3.939792871475219727e+00 -5.943926313601785583e-14 2.027697942278555709e-14 -1.174868409753015291e-14 -3.828375469286729449e-14
1.106000000000000000e+03 6.707063674926757812e+00 3.926062345504760742e+00 -2.586672263643792491e-14 -2.398404825437738808e-13 -7.971216324812943621e-14 1.638748273365131514e-13
1.107000000000000000e+03 2.574810743331909180e+00 9.226673126220703125e+00 6.207380665252185126e-14 -1.335252573656312003e-13 -2.143543589155916251e-14 -2.248728987578902522e-14
1.108000000000000000e+03 2.021526098251342773e+00 5.033346652984619141e+00 -9.430468423310064963e-14 -1.776691451295733803e-13 -8.159214948642856680e-14 2.836619489104096059e-14
1.109000000000000000e+03 3.819847583770751953e+00 5.520532608032226562e+00 8.598473699001317472e-15 -2.936961112677549668e-13 -8.552928737427453743e-14 9.057977892051871649e-14
1.110000000000000000e+03 3.490362405776977539e+00 3.350051641464233398e+00 -6.769984014576638232e-14 1.673673068083685045e-14 -1.528893453354475407e-14 -2.650859065134007764e-14
1.111000000000000000e+03 1.334385204315185547e+01 4.708164215087890625e+00 -6.787798811523290676e-14 -1.205924601713551092e-13 -5.654113651885547820e-14 3.149996946226127359e-14
1.112000000000000000e+03 1.035562610626220703e+01 3.871486425399780273e+00 -9.751977735538916447e-14 -8.754513769731325779e-14 -5.551947587106344228e-14 -2.074870088025412840e-13
1.113000000000000000e+03 1.185112857818603516e+01 9.396943092346191406e+00 -1.190307211519983643e-13 2.692434762554402061e-13 4.506382653103255254e-14 -4.920173833243210448e-14
1.114000000000000000e+03 1.186515617370605469e+01 3.921544313430786133e+00 -9.539271499450774350e-14 4.868357016211402252e-15 -2.715730777465372864e-14 -5.560430367963211870e-15
1.115000000000000000e+03 1.250266265869140625e+01 5.349037647247314453e+00 -1.335333888819248416e-13 -2.859833409581818975e-13 -1.258550148862738749e-13 9.985434923582073297e-14
1.116000000000000000e+03 2.004273033142089844e+01 -5.109856128692626953e-01 -1.117563750959241209e-14 1.782142413243176238e-13 5.011158046679120570e-14 6.048162188090899782e-14
1.117000000000000000e+03 2.021320533752441406e+01 -2.066233158111572266e+00 5.237372425396895348e-15 3.225012216914041607e-13 9.832157874326008518e-14 -8.549115733912093784e-14
1.118000000000000000e+03 2.157079315185546875e+01 -1.998205661773681641e+00 -7.452578051209135523e-14 -7.769056665357654268e-14 -4.566490482732672718e-14 6.248586192333970349e-15
1.119000000000000000e+03 2.002517318725585938e+01 1.002684354782104492e+00 -1.030024081706635425e-14 1.328384559469431014e-13 3.676146369193007690e-14 -2.295514005387546547e-14
1.120000000000000000e+03 9.232554435729980469e+00 1.291954040527343750e+01 -3.032471124794593187e-14 1.700074949524330026e-13 4.190483409490658451e-14 -1.709171947852569651e-13
1.121000000000000000e+03 8.177400588989257812e+00 1.303761672973632812e+01 6.650565476848640644e-16 3.777303448325441959e-13 1.135186237545549037e-13 -1.550131008797028809e-13
1.122000000000000000e+03 1.759297180175781250e+01 1.580758476257324219e+01 -1.648541329488106832e-13 -1.392781967231651596e-13 -9.123969890159275287e-14 7.230373526463662603e-14
1.123000000000000000e+03 1.173505306243896484e+00 4.269362926483154297e+00 -2.650519574328748240e-14 -1.943631616329460909e-13 -6.626050755168325090e-14 -4.851110832482241619e-14
1.124000000000000000e+03 7.706571197509765625e+01 2.677631950378417969e+01 -6.433716677901185621e-14 1.096797755699083221e-13 1.360278162082940306e-14 8.945665389004098245e-14
1.125000000000000000e+03 7.695660400390625000e+01 3.036863899230957031e+01 -3.371785408387908967e-14 2.829306613213317112e-13 7.476384420411485987e-14 7.683454160455419069e-14
1.126000000000000000e+03 7.794956970214843750e+01 2.514787483215332031e+01 2.253171844793840778e-14 2.841621523589493714e-13 9.200816107265974431e-14 6.353110312135035187e-14
1.127000000000000000e+03 7.701731109619140625e+01 3.643586349487304688e+01 3.883559665800347116e-14 1.664382641311610428e-14 1.664382641311610428e-14 -4.146029765166037162e-14
1.128000000000000000e+03 7.718482208251953125e+01 2.268781852722167969e+01 -2.612572667698345036e-14 3.319353797902324654e-13 9.174289745863400958e-14 5.598318575210370351e-14
1.129000000000000000e+03 7.761666870117187500e+01 3.589178085327148438e+01 -7.935296876245088310e-15 5.456105402548705463e-13 1.613025712348184482e-13 1.574744045591532169e-15
1.130000000000000000e+03 7.801862335205078125e+01 3.173514938354492188e+01 1.632128948051564388e-13 1.614502802282924421e-13 9.739895657579281107e-14 -3.863170735726988853e-15
1.131000000000000000e+03 7.793655395507812500e+01 3.335978698730468750e+01 6.060463139364105634e-14 3.004790968992587796e-13 1.083251191654963086e-13 -8.549931596046889126e-14
1.132000000000000000e+03 7.800559997558593750e+01 2.273229598999023438e+01 -7.769386669393904543e-14 3.327102319778535433e-13 7.650490348653712913e-14 5.767653336267303255e-14
1.133000000000000000e+03 7.624196624755859375e+01 2.425141334533691406e+01 -2.019639270818378296e-14 2.658500860858864501e-13 7.369610835212397904e-14 1.166603570473476181e-13
1.134000000000000000e+03 7.656133270263671875e+01 1.866788673400878906e+01 -3.424897762312542615e-14 -1.467813399308199457e-14 -1.467813399308199457e-14 4.010719978787130602e-14
1.135000000000000000e+03 7.725822448730468750e+01 2.108701705932617188e+01 5.389667932873681844e-14 5.263590127993489354e-13 1.740767089936784418e-13 1.767147388977933359e-14
1.136000000000000000e+03 7.738033294677734375e+01 1.230348014831542969e+01 -1.998646745066806618e-14 1.058117420180311463e-13 2.574758237020892404e-14 -9.714804678209124772e-15
1.137000000000000000e+03 7.733962249755859375e+01 1.630465698242187500e+01 7.442181907627715143e-14 2.148988587991410015e-13 8.679620471787816149e-14 2.746249374554945305e-14
1.138000000000000000e+03 7.734823608398437500e+01 1.550623416900634766e+01 -6.327273859068000342e-15 2.260430612219949120e-13 6.591473515008688944e-14 6.783998682908728983e-14
1.139000000000000000e+03 7.741565704345703125e+01 8.288408279418945312e+00 -6.214888087670289440e-14 4.766251954745059916e-13 1.243428916688354979e-13 1.726362921974228248e-13
1.140000000000000000e+03 7.814231109619140625e+01 9.906404495239257812e+00 4.414122808048780155e-14 1.790459870209398785e-13 6.695616554686784072e-14 -1.083692004541373169e-14
1.141000000000000000e+03 7.747319793701171875e+01 3.489712476730346680e+00 -2.874282842985076414e-13 -1.231835542857967480e-13 -1.231835542857967480e-13 4.090947686944540473e-13
1.142000000000000000e+03 7.742154693603515625e+01 1.864402413368225098e+00 -5.709744200881050613e-13 -1.594856821748261849e-14 -1.760768858190611685e-13 3.388805349616857976e-13
1.143000000000000000e+03 7.745050811767578125e+01 5.883509635925292969e+00 5.255906183909177243e-14 4.540078640184568026e-14 2.938795379465487800e-14 9.372300129723270395e-15
1.144000000000000000e+03 7.745719909667968750e+01 2.682463884353637695e+00 -2.013568348516181494e-13 9.670800808379495517e-14 -3.139464938559967389e-14 1.370889214863738048e-13
1.145000000000000000e+03 7.812734222412109375e+01 1.231403827667236328e+01 -4.359401769150721140e-14 2.100715977039480098e-13 4.994327502017177622e-14 2.948193887641632066e-15
1.146000000000000000e+03 7.808990478515625000e+01 1.792363929748535156e+01 1.206761470265438341e-13 5.092278595325572255e-13 1.889711938362140242e-13 5.646844753945390316e-14
1.147000000000000000e+03 7.731976318359375000e+01 1.869497108459472656e+01 1.806724935675754762e-13 5.120651081977345420e-13 2.078212683323185650e-13 1.124028814632454382e-14
1.148000000000000000e+03 7.728543853759765625e+01 2.028880310058593750e+01 -2.241517349065979409e-14 4.021520258728344954e-13 1.139210524959272108e-13 2.637871170140578675e-14
1.149000000000000000e+03 7.732717132568359375e+01 1.789922714233398438e+01 3.076967120766577191e-14 2.648172208862681343e-13 8.867606898343288746e-14 9.352406544517466447e-14
1.150000000000000000e+03 7.817636871337890625e+01 5.891942501068115234e+00 -2.868275549797877355e-13 1.058286555719219202e-13 -5.429966711185431338e-14 2.312753124861927079e-13
1.151000000000000000e+03 7.735777282714843750e+01 1.470762825012207031e+01 2.934752999428011377e-14 3.557096295032230460e-13 1.155171471716245901e-13 -4.734080694731440664e-14
1.152000000000000000e+03 7.736674499511718750e+01 1.390884971618652344e+01 4.653633740565963489e-15 2.307491491718854926e-13 7.062083665250462605e-14 2.744142803615123860e-14
1.153000000000000000e+03 7.742599487304687500e+01 7.486421108245849609e+00 6.721246416417983593e-14 5.929868446589384862e-15 2.194270020674723987e-14 -4.000243536482310514e-15
1.154000000000000000e+03 7.745472717285156250e+01 -1.429919004440307617e+00 -2.802545793090943649e-13 4.060268018069718154e-13 3.773166539411051956e-14 -1.021348397566360089e-13
1.155000000000000000e+03 7.737691497802734375e+01 1.992659717798233032e-01 -5.948744643581582725e-13 2.254387675886329601e-13 -1.108307103861103093e-13 -4.657302240260521864e-14
1.156000000000000000e+03 7.737423706054687500e+01 1.310785198211669922e+01 1.384781046477817981e-14 2.118140461204037761e-13 6.769855943195013381e-14 1.522051629426323521e-14
1.157000000000000000e+03 7.452191162109375000e+01 -1.741367220878601074e+00 -3.118778564396851305e-13 2.780966104100335290e-13 -1.013437397830206990e-14 -1.162534966295952765e-13
1.158000000000000000e+03 7.743766784667968750e+01 6.686173439025878906e+00 -1.194080099554961638e-13 2.462063213894138958e-13 3.803949071966988837e-14 1.325958928159037820e-13
1.159000000000000000e+03 7.689730072021484375e+01 2.944955444335937500e+01 4.456270151064617435e-14 3.393549547273111422e-13 1.151752982266399106e-13 2.138143076490812283e-14
1.160000000000000000e+03 7.708065032958984375e+01 2.593698310852050781e+01 4.265811404742698987e-14 3.842896324508099370e-13 1.280843242882842570e-13 3.309878819591702270e-14
1.161000000000000000e+03 7.749335479736328125e+01 -2.992813587188720703e+00 -9.040159029347072384e-14 1.900112012176435883e-13 2.988288192199914373e-14 2.020342985790957169e-13
1.162000000000000000e+03 7.790963745117187500e+01 2.679746627807617188e+01 1.617966421648200925e-14 3.729417219922731563e-13 1.167364138297474763e-13 2.641452425441569857e-14
1.163000000000000000e+03 7.699600219726562500e+01 2.850765609741210938e+01 -6.424584307477068656e-14 2.012208081365526868e-13 4.109249222904003129e-14 1.116957072081099789e-13
1.164000000000000000e+03 7.704448699951171875e+01 2.763150596618652344e+01 2.468533359765035656e-14 4.223379729707127384e-13 1.341069860412782977e-13 6.306535019684131327e-14
1.165000000000000000e+03 7.714390563964843750e+01 3.251613235473632812e+01 4.726237508453044744e-14 4.313077876078562356e-14 2.711794615359482130e-14 -1.511373593280056910e-14
1.166000000000000000e+03 7.731560516357421875e+01 3.519644165039062500e+01 -2.498595914315806382e-14 3.504268137602059574e-14 3.017016796913701664e-15 2.221906334051379495e-14
1.167000000000000000e+03 7.820594024658203125e+01 -2.173052072525024414e+00 1.273136937128722945e-14 9.695820128762314138e-14 3.290687085885993235e-14 1.720888920730620497e-13
1.168000000000000000e+03 7.720599365234375000e+01 3.109925079345703125e+01 8.496343548419077463e-14 3.566695550016873995e-13 1.324898985010161678e-13 3.299083892898714565e-14
1.169000000000000000e+03 7.797606658935546875e+01 3.253559494018554688e+01 -2.272249059645081032e-14 1.275146302567517487e-13 3.143764477800230217e-14 5.899742872787338416e-15
1.170000000000000000e+03 7.706776428222656250e+01 3.433677673339843750e+01 1.981799090339329134e-14 5.117538879641225780e-13 1.594715570533977722e-13 -9.648851813023884283e-14
1.171000000000000000e+03 2.512956380844116211e+00 2.206896209716796875e+01 -6.719053702227426386e-15 -9.438149318075766958e-14 -3.033016275199446055e-14 8.815164039260164897e-14
1.172000000000000000e+03 1.926299571990966797e+00 2.846941184997558594e+01 5.990263759201100435e-14 -2.030821799788029569e-13 -4.295386407129030137e-14 5.015236002100381674e-14
1.173000000000000000e+03 2.964810848236083984e+00 3.164897155761718750e+01 8.248206940586824687e-15 -1.794688529732635374e-13 -5.136619211573711929e-14 4.924404254594977326e-14
1.174000000000000000e+03 2.259404420852661133e+00 3.491739654541015625e+01 2.935883280192827516e-14 -1.246704833552519931e-13 -2.859349787650254660e-14 8.894792590192004966e-14
1.175000000000000000e+03 3.428449869155883789e+00 3.652740097045898438e+01 4.045887092691234643e-14 8.596593624671591827e-14 3.792744181327530051e-14 -5.080785849009318567e-14
1.176000000000000000e+03 2.603538036346435547e+00 2.524940681457519531e+01 -3.850630412942888936e-14 1.207501438248159698e-13 2.467315326386883972e-14 -6.970479423697162336e-14
1.177000000000000000e+03 1.831887602806091309e+00 2.365222167968750000e+01 2.383963049212324548e-14 -2.185377529981269440e-13 -5.840944047874607747e-14 -9.640638981567306587e-14
1.178000000000000000e+03 1.920629620552062988e+00 7.594135761260986328e+00 -4.215651468859014928e-14 -1.781954033115706881e-13 -6.610557506123507232e-14 1.132346169954723258e-13
1.179000000000000000e+03 2.559716701507568359e+00 8.456048011779785156e+00 -1.157052426960236691e-13 -2.325917507640246074e-13 -1.044890966827617673e-13 5.702947472987010546e-14
1.180000000000000000e+03 1.852391958236694336e+00 9.998631477355957031e+00 5.034715557601567720e-15 -2.265970072169720684e-13 -6.646868792132762382e-14 -1.351889791518373629e-13
1.181000000000000000e+03 6.391091823577880859e+00 1.635813140869140625e+01 2.820314782495808581e-13 6.012555904544303331e-13 2.649861124796870637e-13 -1.144261416305067391e-13
1.182000000000000000e+03 1.869102716445922852e+00 1.476826190948486328e+01 1.574332281700048172e-15 -9.082718708001633057e-14 -2.677585495718722702e-14 3.237570666203212766e-14
1.183000000000000000e+03 2.625798702239990234e+00 1.474779224395751953e+01 1.621026074060272909e-14 -3.590603292122351853e-13 -1.028550210497095052e-13 2.068011289556997978e-14
1.184000000000000000e+03 2.500153779983520508e+00 1.241635036468505859e+01 5.054480732612567917e-14 -1.613417380382994870e-13 -3.323907718077306894e-14 1.211175037081060543e-14
1.185000000000000000e+03 1.820197463035583496e+00 1.159313583374023438e+01 5.632179564309808262e-14 -3.189942071341739238e-13 -7.880172480257546797e-14 -7.354446912577472517e-14
1.186000000000000000e+03 2.607816696166992188e+00 1.002906799316406250e+01 -9.143274109840379693e-14 -4.509439967704392815e-13 -1.627130233935319970e-13 1.048204356429369155e-13
1.187000000000000000e+03 3.388585329055786133e+00 1.003380298614501953e+01 1.957656618463508164e-14 -6.023646344091929117e-14 -1.219796985451162066e-14 -6.238686706521172527e-16
1.188000000000000000e+03 2.524726629257202148e+00 1.318043899536132812e+01 -7.800226122563896913e-14 -3.342954100929267092e-14 -3.342954100929267092e-14 -6.504193884870890230e-14
1.189000000000000000e+03 2.592945575714111328e+00 1.395170879364013672e+01 2.014187258550081266e-14 -2.201225177611218498e-13 -5.999419168921382717e-14 1.383333958450069789e-13
1.190000000000000000e+03 2.555055141448974609e+00 1.727931594848632812e+01 1.266944042082121524e-13 -1.287061955493676302e-13 -6.035392446433036039e-16 4.675264082126817655e-14
1.191000000000000000e+03 3.227463006973266602e+00 1.735496902465820312e+01 -2.286413483402246344e-14 5.882750883645648798e-14 1.078901270894997572e-14 -8.413368200906046201e-14
1.192000000000000000e+03 2.602286338806152344e+00 1.084148120880126953e+01 2.979852421671619345e-14 -1.244820490176740124e-13 -2.840505845672688240e-14 -4.893263257695762425e-14
1.193000000000000000e+03 1.796598792076110840e+00 1.965076065063476562e+01 5.725004888559870331e-14 -2.042190066142354765e-13 -4.409068731859103196e-14 -3.953770904424613875e-14
1.194000000000000000e+03 2.529434442520141602e+00 1.808078193664550781e+01 -3.243886482671119731e-14 -1.969061713810379977e-13 -6.880351052351157959e-14 -1.393950059547233167e-13
1.195000000000000000e+03 2.502847909927368164e+00 1.968154907226562500e+01 -1.708821377856360041e-14 -1.674518406965044837e-13 -5.536201583430065687e-14 -6.671033625678390866e-14
1.196000000000000000e+03 2.496816873550415039e+00 2.048074531555175781e+01 8.789938826343692436e-16 4.612765925520248556e-14 1.410199658191972280e-14 4.795034879681754625e-14
1.197000000000000000e+03 2.104094266891479492e+00 5.877661705017089844e+00 4.584621392375240467e-14 -2.091063731673656334e-13 -4.897804709545761082e-14 1.076747062822222545e-13
1.198000000000000000e+03 2.991384029388427734e+00 5.735168457031250000e+00 7.003778321732802292e-15 -1.342512255878003380e-13 -3.817423333278731346e-14 1.458905153801925980e-14
1.199000000000000000e+03 2.661445617675781250e+00 2.764881515502929688e+01 4.037374072758150023e-14 -1.428252861031958920e-13 -3.073546462912385424e-14 -2.838038523400631188e-15
1.200000000000000000e+03 4.346549034118652344e+00 4.016595363616943359e+00 -4.779006305814272049e-14 -2.492362056755875743e-13 -8.910787960367955174e-14 -6.377921601226008153e-14
1.201000000000000000e+03 2.612531185150146484e+00 7.712194442749023438e+00 3.127356771985556616e-14 -3.068536906774416151e-13 -8.267403417677038346e-14 -3.536364248852598424e-14
1.202000000000000000e+03 2.622495174407958984e+00 2.605308723449707031e+01 -5.611446230640096400e-14 9.032831855540143784e-14 1.026415721351332105e-14 -1.510986710981398508e-15
1.203000000000000000e+03 1.848055720329284668e+00 2.445163917541503906e+01 -7.101612998832926293e-14 1.068173598618021858e-13 1.074036930085505576e-14 1.453059271213155701e-14
1.204000000000000000e+03 2.580927371978759766e+00 2.444805335998535156e+01 2.895276859514635259e-14 8.103475437329019093e-14 3.299625655171778416e-14 -5.988584601086463510e-14
1.205000000000000000e+03 2.638948917388916016e+00 2.685179710388183594e+01 -7.990408058518652656e-14 -1.257464998013352320e-13 -6.169517614883560097e-14 3.796163145115827309e-14
1.206000000000000000e+03 3.389919042587280273e+00 2.681701278686523438e+01 -4.091802715882816854e-14 -1.090381921580764468e-13 -4.498686511744502681e-14 -9.419058550697370635e-14
1.207000000000000000e+03 2.187385797500610352e+00 3.330514526367187500e+01 1.129398834111457195e-14 9.634217794200761187e-14 3.229085090137619185e-14 -1.081320142882471677e-14
1.208000000000000000e+03 3.271016597747802734e+00 3.493706130981445312e+01 9.493938084355487382e-16 -1.597214385491013688e-13 -4.763161368689754205e-14 -1.949202247091691431e-13
1.209000000000000000e+03 3.044495820999145508e+00 3.245834350585937500e+01 -7.691518252926458910e-15 -7.192278727880668798e-14 -2.388429115130017572e-14 -1.319460152574523926e-14
1.210000000000000000e+03 3.133949995040893555e+00 3.328322601318359375e+01 6.291825106708934245e-15 -8.880540075008325207e-14 -2.475407201538593754e-14 7.649202180947528573e-15
1.211000000000000000e+03 3.221894264221191406e+00 3.411433029174804688e+01 -1.583295584347893178e-15 -1.836823472186124850e-13 -5.557969313734964500e-14 6.806169939709699745e-14
1.212000000000000000e+03 2.031835556030273438e+00 3.088492393493652344e+01 1.331905353558647184e-14 -8.579373106040732999e-14 -2.174240401977590997e-14 -2.149027958082798395e-14
1.213000000000000000e+03 2.880133152008056641e+00 3.085235404968261719e+01 3.479345378975227943e-14 -1.680923195773731393e-13 -3.998965871984672127e-14 3.275321569409621325e-14
1.214000000000000000e+03 1.828183937072753906e+01 9.855558395385742188e+00 -1.034249590267308228e-13 -4.560835216438352546e-13 -1.678525482669279700e-13 -2.195621885258541850e-14
1.215000000000000000e+03 1.864089584350585938e+01 1.404026889801025391e+01 4.499304506982819418e-14 -1.179701139292915757e-13 -2.189311998021265665e-14 6.991921554537136596e-14
1.216000000000000000e+03 1.919357681274414062e+01 9.170631408691406250e+00 -7.095865372066037513e-14 -3.049165466558617643e-13 -1.127625621458357152e-13 8.871857648485789727e-14
1.217000000000000000e+03 2.070072746276855469e+01 3.360786199569702148e+00 -3.924257904850021739e-14 1.661855467691500388e-13 3.808288929975540971e-14 1.641277954202765427e-14
1.218000000000000000e+03 2.052079200744628906e+01 5.915124416351318359e+00 8.765119977483665226e-14 1.468932499238111838e-14 3.070215590550602613e-14 -6.619098308737261793e-14
1.219000000000000000e+03 1.702202796936035156e+01 1.695326042175292969e+01 -3.627740130323318934e-14 -2.443021913239862286e-13 -8.417387880460536209e-14 5.517838586759950259e-14
1.220000000000000000e+03 1.581218433380126953e+01 1.664252090454101562e+01 -5.875673753964749668e-14 -1.624343021200402859e-13 -6.635731325315905038e-14 4.710047659512404949e-14
1.221000000000000000e+03 1.670285224914550781e+01 1.805391120910644531e+01 -3.389023545304070684e-14 -1.746527049503385220e-13 -6.256288347626648427e-14 7.669028172924141629e-14
1.222000000000000000e+03 1.873337554931640625e+01 1.074939537048339844e+01 -1.400880821934846754e-13 -4.946717406355272129e-13 -1.904279549802198601e-13 5.191123155927389668e-15
1.223000000000000000e+03 1.900666236877441406e+01 1.241643619537353516e+01 1.104580836519541975e-13 -2.500419847301788012e-13 -4.187517100109373891e-14 1.476665334064139468e-13
1.224000000000000000e+03 2.061138725280761719e+01 5.059886932373046875e+00 -4.111028330906416062e-14 -6.336963831281294812e-14 -3.134397648656313262e-14 -6.090119880429846824e-15
1.225000000000000000e+03 2.070451736450195312e+01 2.531779766082763672e+00 -7.676930651508845349e-15 1.110872597251746918e-13 3.102310007735246955e-14 -4.166014321710376223e-14
1.226000000000000000e+03 2.208795547485351562e+01 4.133594989776611328e+00 3.656682314394756397e-15 -2.130832504529649868e-14 -5.295492861622170047e-15 6.978879957654851585e-14
1.227000000000000000e+03 1.857858276367187500e+01 1.489348983764648438e+01 -1.605785952341412526e-13 -2.060722469401921053e-13 -1.099952580733108698e-13 1.402290826860164152e-13
1.228000000000000000e+03 1.897413444519042969e+01 9.965514183044433594e+00 2.272816402313151962e-14 -2.647650436567172694e-13 -7.261106592295479834e-14 1.257461880932106424e-13
1.229000000000000000e+03 1.923643875122070312e+01 1.163391494750976562e+01 -1.078139313936965493e-13 -2.292097718223362612e-13 -1.011071109648098432e-13 9.582818479708654635e-14
1.230000000000000000e+03 7.354315757751464844e+00 1.551590824127197266e+01 1.996838566893643918e-13 5.888392529650177121e-13 2.365569220542929063e-13 -5.691774684896252698e-15
1.231000000000000000e+03 2.067231369018554688e+01 4.206611633300781250e+00 -1.181593478659717644e-13 -1.878925617523896641e-13 -9.181557288550842855e-14 5.957547958646350339e-14
1.232000000000000000e+03 2.130178833007812500e+01 1.614395678043365479e-01 3.750610221432259389e-15 1.846111967723079728e-13 5.650854269104513272e-14 1.973320459943903038e-14
1.233000000000000000e+03 2.068111610412597656e+01 9.562655687332153320e-01 -1.322848834934956842e-15 2.281878028545514248e-13 6.805949033517055824e-14 2.303494919223166015e-14
1.234000000000000000e+03 1.449448108673095703e+01 1.768354415893554688e+01 -6.706503977377611947e-14 -2.574969046580805054e-13 -9.736858536243606088e-14 8.580718871987330632e-14
1.235000000000000000e+03 9.764274597167968750e+00 2.046726417541503906e+01 1.274407283261697055e-13 1.918702962353316388e-13 9.579330736845040328e-14 6.631975242414600569e-14
1.236000000000000000e+03 9.136812210083007812e+00 2.052613639831542969e+01 6.844691642898109718e-14 7.508534402957470211e-14 4.305967881519309759e-14 1.644562307515085031e-13
1.237000000000000000e+03 1.280821037292480469e+01 1.925044822692871094e+01 -1.157886991582507408e-13 -3.641615004337794836e-13 -1.439850571671036361e-13 2.330724860073046800e-13
1.238000000000000000e+03 1.174240589141845703e+01 2.012700462341308594e+01 2.051822795869073790e-13 -2.551968510643154442e-13 -1.500437042678288285e-14 1.453040568725680326e-13
1.239000000000000000e+03 3.404270172119140625e+00 1.090974330902099609e+01 -2.590624858188859958e-14 -1.941064767686101478e-13 -6.600381591108372970e-14 1.304593775673310030e-13
1.240000000000000000e+03 1.194797897338867188e+01 2.186951255798339844e+01 2.318140288287782319e-14 7.856130974709038539e-14 3.052281531364976763e-14 1.283123455576851146e-13
1.241000000000000000e+03 1.111666679382324219e+01 2.011543655395507812e+01 1.943118111075517462e-13 8.327649144270268811e-14 8.327649144270268811e-14 1.194359417139648216e-13
1.242000000000000000e+03 9.762022972106933594e+00 1.969372558593750000e+01 1.427004266705070301e-13 6.115732377985627632e-14 6.115732377985627632e-14 3.124808219253857877e-14
1.243000000000000000e+03 4.041732788085937500e+00 3.947670364379882812e+01 9.621147609956506343e-16 -1.082461689185486298e-13 -3.218521572845821355e-14 -1.323251556749728899e-14
1.244000000000000000e+03 7.592150878906250000e+01 3.947614288330078125e+01 1.886612577045500977e-14 3.054666437331265971e-13 9.729983339217332383e-14 -4.737741232316294848e-14
1.245000000000000000e+03 3.552257776260375977e+00 4.086484909057617188e+00 -4.747565035735255498e-15 -2.994158469337565576e-13 -9.124902304027612820e-14 1.399856250881847952e-13
1.246000000000000000e+03 2.215557289123535156e+01 -2.179887533187866211e+00 -3.841693537722998264e-14 -1.994681953247298689e-13 -7.136554124346702888e-14 -7.552545557270445853e-14
1.247000000000000000e+03 1.230711746215820312e+01 6.643775939941406250e+00 2.347309731298968111e-14 2.159391643361679991e-13 7.182367764771435681e-14 1.508414737788708188e-14
1.248000000000000000e+03 1.211623001098632812e+01 7.253905296325683594e+00 -8.695472523989090929e-15 3.394054785485489667e-13 9.921300299321408889e-14 -4.166350085570667827e-14
1.249000000000000000e+03 2.026502227783203125e+01 7.613241195678710938e+00 6.599414618295787460e-14 -1.547205831335662918e-13 -2.661793244043524076e-14 4.092296705497655562e-14
1.250000000000000000e+03 1.154206180572509766e+01 8.452963829040527344e+00 -9.085010440343724292e-14 2.126944589420434739e-13 3.655330703920822710e-14 -1.747169981391669125e-13
1.251000000000000000e+03 1.110396194458007812e+01 3.899479389190673828e+00 -1.010550218266854927e-13 -8.906024247072596989e-14 -5.703457725634436537e-14 7.391479193031430528e-14
1.252000000000000000e+03 2.405895042419433594e+01 -2.590519666671752930e+00 1.202512007613017186e-14 2.339083787772366918e-13 7.378004592906509118e-14 4.709055953337759615e-14
1.253000000000000000e+03 2.365616035461425781e+01 -1.052102208137512207e+00 1.217672880929332457e-14 -4.053234934102076248e-14 -8.506686667737999724e-15 9.648248047939081418e-14
1.254000000000000000e+03 2.276864624023437500e+01 -2.339094400405883789e+00 -8.129108687192007632e-14 1.024138049756165292e-13 6.336815685218820035e-15 2.576486692453059529e-14
1.255000000000000000e+03 9.068809509277343750e+00 1.093981361389160156e+01 -6.302614612391059523e-15 2.317725004974402481e-13 6.764096119153684139e-14 -1.522676705860079305e-13
1.256000000000000000e+03 2.133045578002929688e+01 8.888255953788757324e-01 -3.745687774162585748e-14 1.211998979910172691e-13 2.512290743007013910e-14 2.760060416166516123e-14
1.257000000000000000e+03 2.066850280761718750e+01 2.204716354608535767e-01 -3.478887642370531719e-14 7.659237827306597524e-14 1.254105123243455522e-14 3.392244345734357798e-15
1.258000000000000000e+03 2.377295684814453125e+01 -3.034111857414245605e-01 -1.489018022109763612e-14 -2.925697878408684005e-14 -1.324414787096193230e-14 -2.060249587848127922e-14
1.259000000000000000e+03 2.428275489807128906e+01 -1.175661206245422363e+00 2.146323551288804865e-14 3.294551589004546255e-13 1.052755227285741280e-13 -1.073684259447586775e-13
1.260000000000000000e+03 2.540685844421386719e+01 -2.758704900741577148e+00 1.048598328393796075e-14 2.332487501754965109e-13 7.312041732732491028e-14 7.657362835174555404e-14
1.261000000000000000e+03 1.121950531005859375e+01 9.066917419433593750e+00 -7.703503769130107259e-14 1.042378260530246736e-13 8.160836339110490861e-15 -8.040579365819653605e-16
1.262000000000000000e+03 8.727125167846679688e+00 4.969321727752685547e+00 -1.461971006495171865e-13 -2.227842205420466071e-13 -1.106943990679745693e-13 -1.542364055483885776e-13
1.263000000000000000e+03 2.755335426330566406e+01 -2.223941087722778320e+00 6.932814240225015912e-14 1.669649119483140876e-13 7.088791630516927400e-14 7.469996436736472956e-14
1.264000000000000000e+03 6.693272590637207031e+00 1.551897430419921875e+01 1.698211748090913686e-13 5.074145313990752193e-13 2.031707050861863983e-13 -6.672125281740812208e-14
1.265000000000000000e+03 2.693250656127929688e+01 -1.517011642456054688e+00 -1.410955825679809875e-15 2.281500455138946171e-13 6.802172621825017251e-14 -6.695852368659299669e-14
1.266000000000000000e+03 2.820137023925781250e+01 -2.911445379257202148e+00 -6.576986541105209194e-14 6.331481156420307177e-14 -7.365164293404139091e-16 8.754061792950670884e-14
1.267000000000000000e+03 2.895605659484863281e+01 -2.256295919418334961e+00 -5.726964583986637880e-14 1.127087111791810758e-13 1.663171892416805131e-14 -2.984445203718221612e-15
1.268000000000000000e+03 1.121503448486328125e+01 7.544590950012207031e+00 -6.860206575986377286e-14 1.764783794360597069e-13 3.236289613573785362e-14 -6.656060116050008246e-14
1.269000000000000000e+03 1.107853984832763672e+01 6.657391548156738281e+00 3.439447755467298085e-14 -1.225123518258652844e-13 -2.643536295898404886e-14 -7.601030400797639808e-14
1.270000000000000000e+03 1.180499935150146484e+01 4.623750209808349609e+00 -6.745503407148273345e-14 -1.204111951206426889e-13 -5.635986808001126891e-14 7.086375892551358135e-14
1.271000000000000000e+03 8.578807830810546875e+00 1.147988319396972656e+01 7.885522340352404957e-14 3.140196707263759324e-13 1.178624662060909212e-13 -1.193868409080783843e-13
1.272000000000000000e+03 3.180869293212890625e+01 -2.895336866378784180e+00 -9.391163384052034213e-14 -8.599878757254222905e-14 -5.397312574629241355e-14 -7.745658227222701475e-14
1.273000000000000000e+03 2.901054573059082031e+01 -1.591670155525207520e+00 -5.819576455933991865e-14 1.580627583029972638e-13 2.996009744547084575e-14 -2.926651298694113446e-14
1.274000000000000000e+03 2.971971511840820312e+01 -1.592316865921020508e+00 -6.314672634614992841e-14 1.868806589241499977e-14 -1.333759762790071024e-14 6.326368465550680220e-14
1.275000000000000000e+03 3.107924079895019531e+01 -2.909220933914184570e+00 -4.922491993013256018e-14 1.161564469826306678e-13 2.007945980981532680e-14 -2.860609833862590157e-14
1.276000000000000000e+03 1.107641124725341797e+01 2.090209197998046875e+01 3.651950364834920248e-14 -7.585068234313221969e-14 -1.179935360843490516e-14 1.900495277644409509e-14
1.277000000000000000e+03 8.436713218688964844e+00 2.064281082153320312e+01 1.599584980835659035e-15 2.294402732042066795e-13 6.931196068482581296e-14 1.229279265185789782e-13
1.278000000000000000e+03 3.402221298217773438e+01 -2.838391780853271484e+00 6.867123955253424256e-15 9.444495288916596176e-14 3.039362246040275273e-14 -1.195673063596885966e-13
1.279000000000000000e+03 3.330884170532226562e+01 -2.187003612518310547e+00 2.470982301422137289e-14 -2.181648145558462426e-13 -5.803650203646537609e-14 5.197161060885302497e-14
1.280000000000000000e+03 3.553399276733398438e+01 -2.116236209869384766e+00 -1.240229571602621816e-13 -7.401749975736657272e-15 -3.942741519011826179e-14 4.685106943787091527e-14
1.281000000000000000e+03 1.087560367584228516e+01 9.676915168762207031e+00 -2.101743529648453235e-14 2.998114452014422060e-13 8.363820161623458649e-14 -2.309154115750361447e-13
1.282000000000000000e+03 1.028463840484619141e+01 9.340673446655273438e+00 -5.113241779855851044e-14 4.012823873102838723e-13 1.050449874653858195e-13 2.796310038177211160e-14
1.283000000000000000e+03 7.084226226806640625e+01 -1.827375888824462891e+00 -2.662258705588699259e-13 -2.513496409704135681e-13 -1.552726588797959106e-13 -1.759740085854194502e-13
1.284000000000000000e+03 3.478783416748046875e+01 -2.140770435333251953e+00 5.349580235172388121e-14 2.059305688213025620e-13 7.782790796377614395e-14 8.674730042363548721e-14
1.285000000000000000e+03 6.488603973388671875e+01 -1.096456050872802734e+00 -3.142075629628676703e-13 4.834340935379322080e-14 -7.975925150373319727e-14 -4.257058166265773047e-14
1.286000000000000000e+03 7.009722137451171875e+01 -1.818864703178405762e+00 -1.812793486285699252e-13 -3.194020297813543463e-14 -6.396586819251703915e-14 -1.577193779224439485e-13
1.287000000000000000e+03 6.709176635742187500e+01 -2.482398271560668945e+00 -2.888274743071544970e-13 -1.695341458364529874e-13 -1.375084806220713829e-13 -1.520484584592585175e-13
1.288000000000000000e+03 6.636453247070312500e+01 -1.796996355056762695e+00 -3.029065713533451998e-13 -8.406615654250534919e-14 -1.160918149806233757e-13 2.318573291530418717e-14
1.289000000000000000e+03 7.306317138671875000e+01 -2.491354465484619141e+00 -2.551555971716523707e-13 -2.008542935921439621e-13 -1.368029631633807530e-13 -1.137057299444715897e-13
1.290000000000000000e+03 7.231951904296875000e+01 -1.835677862167358398e+00 -3.332948879993663516e-13 -1.885916146556268491e-13 -1.565659494412452446e-13 -1.417476975639625492e-13
1.291000000000000000e+03 6.783882141113281250e+01 -2.485026359558105469e+00 -2.423385927693977315e-13 -5.810844562687336734e-14 -9.013411084125497186e-14 1.859251549376703117e-14
1.292000000000000000e+03 6.561690521240234375e+01 -1.791680693626403809e+00 -2.472725529108904530e-13 1.685317331653543582e-13 -2.362224795653990184e-14 6.237172508073013377e-14
1.293000000000000000e+03 3.775671005249023438e+01 -2.722785711288452148e+00 -7.777987780753503610e-14 1.954205162491354231e-13 3.529219017722740048e-14 2.253559277663914895e-14
1.294000000000000000e+03 3.482308959960937500e+01 -1.465218782424926758e+00 -1.380700837948917181e-13 -5.917289499102890149e-14 -5.917289499102890149e-14 -6.254777579661925657e-15
1.295000000000000000e+03 6.184005355834960938e+01 -2.449141025543212891e+00 -1.619290503551348848e-13 1.593565774130056845e-13 -7.717419355783192939e-16 7.926597339657018293e-14
1.296000000000000000e+03 6.785661315917968750e+01 -1.802994489669799805e+00 -2.375682929458416970e-13 8.118881272573680308e-14 -4.691384474365782598e-14 -9.746150148861806861e-14
1.297000000000000000e+03 5.883525848388671875e+01 -2.444848299026489258e+00 -2.998394718276009563e-13 -3.700073017073868265e-14 -1.010520605995018917e-13 -1.384411926460063502e-13
1.298000000000000000e+03 6.411534118652343750e+01 -1.774937391281127930e+00 -2.556517551908360497e-13 1.191897058480662075e-13 -4.093861005944644804e-14 5.291980978319558993e-14
1.299000000000000000e+03 5.812035369873046875e+01 -1.052761077880859375e+00 -1.798393519606561464e-13 1.059297913058240836e-13 -2.217286785763643991e-14 -6.713111511992553293e-14
1.300000000000000000e+03 6.935012054443359375e+01 -1.811697125434875488e+00 -2.121678348418129523e-13 -1.824309746236568719e-13 -1.183796441948936629e-13 4.260712266400228099e-14
1.301000000000000000e+03 6.035807418823242188e+01 -1.755373239517211914e+00 -1.244722505405401747e-13 1.754094916192605602e-13 1.528117062955022115e-14 -5.744149866046890929e-14
1.302000000000000000e+03 5.885445785522460938e+01 -1.752518296241760254e+00 -2.905730398048561591e-13 1.042234400454485066e-13 -5.590487925019593796e-14 -3.863191911550670210e-15
1.303000000000000000e+03 6.186000823974609375e+01 -1.757251858711242676e+00 -2.434859768234848287e-13 -1.043511319563129869e-13 -1.043511319563129869e-13 -6.483529669089674319e-14
1.304000000000000000e+03 6.336370468139648438e+01 -1.767046093940734863e+00 -3.648211019304653524e-13 -6.485000118286107784e-14 -1.289013383878878649e-13 5.901540784921180394e-14
1.305000000000000000e+03 6.261168289184570312e+01 -1.761080145835876465e+00 -1.951445596911835501e-13 -3.788243387058999601e-14 -6.990809569683981151e-14 -4.067498291307480862e-14
1.306000000000000000e+03 5.282588577270507812e+01 -2.452834606170654297e+00 -1.269109193820575077e-13 -2.831451436161036561e-13 -1.230168175441956335e-13 -2.062358784590085856e-15
1.307000000000000000e+03 5.960612106323242188e+01 -1.754542708396911621e+00 -2.359860354003706640e-13 3.563726191316979319e-13 3.611597715227725380e-14 -2.129472381374596275e-15
1.308000000000000000e+03 5.735157394409179688e+01 -1.747256636619567871e+00 -2.422933815388050860e-13 -1.233812077299726445e-14 -7.638944950769457898e-14 5.099781748697622408e-14
1.309000000000000000e+03 4.001385116577148438e+01 -2.652622699737548828e+00 -1.511052161217232848e-13 2.674251912851508678e-14 -3.730880960618222775e-14 -4.283938926253477719e-14
1.310000000000000000e+03 5.584759902954101562e+01 -1.745062708854675293e+00 -2.696467723585505016e-13 -2.406099916475636785e-14 -8.811232451132189336e-14 7.571760330272320205e-14
1.311000000000000000e+03 4.680464553833007812e+01 -2.503219842910766602e+00 -1.302543278314596820e-13 -1.015742326945616447e-13 -6.954856748018004020e-14 6.667497093717014711e-14
1.312000000000000000e+03 5.434689712524414062e+01 -1.752080082893371582e+00 -1.144773295255752110e-13 8.819113245673443346e-14 -7.885858104212696562e-15 -6.064710501374817597e-14
1.313000000000000000e+03 4.378662872314453125e+01 -2.554982900619506836e+00 -2.250504605805572766e-13 -5.069924853746445026e-14 -8.272491036371426576e-14 3.571435478627073279e-14
1.314000000000000000e+03 4.303089904785156250e+01 -2.570623636245727539e+00 -1.924782083934442611e-13 -2.197435077866752295e-13 -1.236665121435304160e-13 8.753094820138085375e-14
1.315000000000000000e+03 5.659902954101562500e+01 -1.745090365409851074e+00 -1.870048170135585330e-13 5.710793030957658778e-14 -3.896906533356822577e-14 1.640707833266627502e-13
1.316000000000000000e+03 9.532604217529296875e+00 1.043806266784667969e+01 -1.141865465029145987e-14 4.354591773975124980e-13 1.272121514031554490e-13 -1.264315664965473540e-13
1.317000000000000000e+03 8.653841972351074219e+00 1.247937011718750000e+01 1.384709811006953895e-13 3.109749328704392024e-13 1.348337674150767995e-13 -2.081389802264382860e-13
1.318000000000000000e+03 7.378532409667968750e+01 -1.793781042098999023e+00 -2.637703965836790676e-13 -1.587953943685271874e-13 -1.267697291541455829e-13 -9.392995685723534716e-14
1.319000000000000000e+03 5.284846115112304688e+01 -1.766123533248901367e+00 -4.439647298881341242e-14 1.182257823540908137e-13 2.214879518127547270e-14 3.465184343349851648e-14
1.320000000000000000e+03 3.853208923339843750e+01 -2.020674705505371094e+00 -2.569357216136020083e-14 2.177432089885480981e-13 5.761488969290365358e-14 4.000709743416479280e-14
1.321000000000000000e+03 3.702967834472656250e+01 -2.067891120910644531e+00 -4.553378412709176148e-14 2.623646945857337209e-14 -5.789194485258811543e-15 -4.263247944231128572e-14
1.322000000000000000e+03 5.134877014160156250e+01 -1.776350140571594238e+00 -1.099046255479546597e-13 -1.351033220980133245e-15 -3.337669631777936963e-14 7.263972274162630582e-14
1.323000000000000000e+03 5.059898376464843750e+01 -1.781191706657409668e+00 -1.757938683944609837e-13 -7.534022640779888813e-14 -7.534022640779888813e-14 2.250681195234416343e-13
1.324000000000000000e+03 4.079600524902343750e+01 -1.948578476905822754e+00 -1.404763485439788906e-13 1.685505982831556060e-13 8.422273905313477915e-15 -3.364200058938657256e-14
1.325000000000000000e+03 5.359722900390625000e+01 -1.759166955947875977e+00 -2.106064075305807970e-13 -2.275127243718533254e-13 -1.314357422812356679e-13 1.589767170174800209e-14
1.326000000000000000e+03 4.909469985961914062e+01 -1.789465427398681641e+00 -1.047064724420815329e-13 -9.062515278143723485e-14 -5.859948756705563033e-14 -2.660841009604220792e-14
1.327000000000000000e+03 4.834089660644531250e+01 -1.795995712280273438e+00 -9.788501796224521878e-14 9.530212312673300157e-14 -7.748671695163324418e-16 2.115869836922992103e-14
1.328000000000000000e+03 4.230279922485351562e+01 -1.903958201408386230e+00 -1.253303423499538272e-13 1.750417437948806332e-13 1.491342111110439961e-14 -2.466917220901674451e-14
1.329000000000000000e+03 4.154970550537109375e+01 -1.926070809364318848e+00 -2.739816836946906697e-14 3.085145799854721593e-13 8.433492348480092771e-14 1.879965909508396482e-14
1.330000000000000000e+03 4.532408523559570312e+01 -1.837706923484802246e+00 -9.812903798995381566e-14 -1.335572006721380545e-13 -6.950587024337484543e-14 2.366329898481210788e-15
1.331000000000000000e+03 4.234193420410156250e+01 -1.215498566627502441e+00 -8.107343328579361130e-14 -3.474575905855828428e-14 -3.474575905855828428e-14 1.935578704693324825e-14
1.332000000000000000e+03 7.602742767333984375e+01 -2.325856685638427734e+00 -1.222515740983282084e-13 1.306102714046866731e-13 2.507609276610834118e-15 -2.712447508355225745e-13
1.333000000000000000e+03 7.741534423828125000e+01 -6.242378950119018555e-01 -5.334416719113277416e-13 -9.136501234394134308e-14 -1.874420079870861566e-13 -2.683779034510364037e-13
1.334000000000000000e+03 5.212613677978515625e+01 -1.087578177452087402e+00 -7.641151979816823703e-14 1.300315344494092779e-14 -1.902251007537478222e-14 -4.559767412823725885e-14
1.335000000000000000e+03 3.928406143188476562e+01 -1.996283888816833496e+00 7.520487054282765094e-15 9.472496165273749935e-14 3.067363461210607933e-14 -8.310863661761119792e-14
1.336000000000000000e+03 4.758872222900390625e+01 -1.804460644721984863e+00 -5.022833887637252748e-14 6.997546530933262954e-14 5.924137845184735893e-15 6.746208138560388923e-14
1.337000000000000000e+03 2.185145950317382812e+01 -6.353670358657836914e-01 -2.730114074536108687e-14 1.255523598498245463e-13 2.947536420667973278e-14 2.065638580865149232e-14
1.338000000000000000e+03 4.457081985473632812e+01 -1.852016925811767578e+00 -1.969868902327795435e-13 7.078942754922728023e-15 -5.697238470922516562e-14 3.616517282585378357e-14
1.339000000000000000e+03 5.135223865509033203e+00 3.967419862747192383e+00 3.110631937035431005e-14 -3.526763028751517259e-13 -9.647099471262604586e-14 1.640791587884452007e-13
1.340000000000000000e+03 4.759205341339111328e+00 6.081287860870361328e+00 -1.569184608369699613e-14 -7.535150211039273738e-14 -2.731300428882033060e-14 7.067222105921686093e-14
1.341000000000000000e+03 8.187746047973632812e+00 3.848747730255126953e+00 -1.544915454246287290e-13 -4.322182531584645160e-13 -1.760129314434116798e-13 5.279310720681350266e-14
1.342000000000000000e+03 6.795882225036621094e+00 4.618020057678222656e+00 -1.970387828592601309e-13 -1.759470932664874976e-13 -1.118957628377242886e-13 -1.033071875657445848e-13
1.343000000000000000e+03 7.602992057800292969e+00 4.630549430847167969e+00 -1.163989016934527387e-13 -3.243909318679377707e-13 -1.322369541341752996e-13 5.612788269641726113e-14
1.344000000000000000e+03 9.620263099670410156e+00 3.838918209075927734e+00 -2.509565160389339022e-14 -5.650622859703323397e-14 -2.448056338265162946e-14 7.073526063928331498e-14
1.345000000000000000e+03 1.029763793945312500e+01 4.561764717102050781e+00 -3.496042770057862514e-14 3.076790937913548296e-14 -1.257755517608766336e-15 -6.605139205766510924e-14
1.346000000000000000e+03 2.054881858825683594e+01 -1.557636857032775879e+00 6.467064703847766327e-14 2.771599037787193104e-14 2.771599037787193104e-14 -3.172107682523016801e-16
1.347000000000000000e+03 2.231814002990722656e+01 -1.477863192558288574e+00 -8.297838836131190415e-15 2.023230487226829188e-13 5.820756203422927655e-14 -6.101016366373210320e-14
1.348000000000000000e+03 2.738834619522094727e+00 2.925793266296386719e+01 -7.133300840202888571e-14 -1.678241286174816937e-13 -7.174713975060045823e-14 2.194602147587298318e-16
1.349000000000000000e+03 3.638272285461425781e+00 2.998620223999023438e+01 -1.795029172502703163e-14 -1.220703497051972564e-13 -4.200619344550682310e-14 -4.513282583491588784e-14
1.350000000000000000e+03 7.545225524902343750e+01 3.002909278869628906e+01 2.208096647692524284e-14 3.182821844624483809e-13 1.021089408772407614e-13 3.892480277987650505e-14
1.351000000000000000e+03 7.702374267578125000e+01 3.339750289916992188e+01 -7.864512873941888194e-15 2.482597189889385048e-13 7.211856030983967991e-14 5.875903469300045034e-14
1.352000000000000000e+03 7.628696441650390625e+01 3.237210083007812500e+01 1.263563855462149568e-14 1.884190638798757811e-13 6.031640979861294105e-14 4.001840362994474321e-14
1.353000000000000000e+03 2.846501588821411133e+00 4.941358089447021484e+00 -2.367620056714821175e-14 -3.304035918558906326e-13 -1.062239353552194010e-13 1.529667370417722716e-13
1.354000000000000000e+03 3.901560306549072266e+00 3.156124114990234375e+01 -3.290169718161810308e-14 -1.056026265240130046e-13 -4.155129609524979561e-14 -1.021055527454517442e-14
1.355000000000000000e+03 7.620990753173828125e+01 2.591813468933105469e+01 -5.882887764169925093e-14 1.349159499397512008e-13 2.282611999534969044e-14 1.104753360190238731e-13
1.356000000000000000e+03 7.621603393554687500e+01 2.507814025878906250e+01 3.342662425133880073e-15 3.674401549084299612e-13 1.112348467459042811e-13 1.020911328565576870e-13
1.357000000000000000e+03 7.634677886962890625e+01 2.262943267822265625e+01 -2.498760408114163167e-14 3.095476620255249722e-13 8.536801907738089668e-14 -8.419767534822552441e-15
1.358000000000000000e+03 7.711981964111328125e+01 2.429731178283691406e+01 3.497006693551837908e-14 3.123683495025175727e-13 1.042015188327735653e-13 1.822118472002021844e-14
1.359000000000000000e+03 2.533731698989868164e+00 2.286017036437988281e+01 1.383047322500718934e-13 5.927345474252693203e-14 5.927345474252693203e-14 -1.864883132629818058e-14
1.360000000000000000e+03 3.277794837951660156e+00 2.363371658325195312e+01 3.032998995727322067e-14 -3.275238221367611502e-14 -7.267169463549512983e-16 -9.032402918055654206e-14
1.361000000000000000e+03 7.674937438964843750e+01 5.088466167449951172e+00 -5.085639178390496257e-15 -2.179559557128111190e-15 -2.179559557128111190e-15 -5.441406399357869017e-14
1.362000000000000000e+03 7.672730255126953125e+01 5.883497238159179688e+00 -1.805243237881781759e-13 1.056362300150964773e-13 -2.246642576023225729e-14 1.877731775406718540e-13
1.363000000000000000e+03 7.730621337890625000e+01 1.949122238159179688e+01 6.852758784687759674e-14 1.208708697367222307e-13 5.681953591982723262e-14 1.520044534035827621e-13
1.364000000000000000e+03 7.656950378417968750e+01 1.708981513977050781e+01 -1.774116860771236467e-15 4.499061239120367983e-14 1.296494887088796982e-14 -1.371253167980514276e-14
1.365000000000000000e+03 7.663964843750000000e+01 1.230350399017333984e+01 -7.193084425620097089e-14 -7.657845305141311454e-14 -4.455279122516329904e-14 1.205346586430344757e-13
1.366000000000000000e+03 7.664563751220703125e+01 1.150239562988281250e+01 2.906035194384301579e-14 2.412091793663195816e-13 8.108086007067513701e-14 -1.657865061595667489e-14
1.367000000000000000e+03 7.677597808837890625e+01 3.518779277801513672e+00 -1.128900778738471666e-13 -4.838146146191567298e-14 -4.838146146191567298e-14 4.748299836816998604e-15
1.368000000000000000e+03 7.747350311279296875e+01 4.287941455841064453e+00 2.101731061323469651e-13 6.719870834911642610e-14 8.321154095630722836e-14 -1.417844926751912760e-13
1.369000000000000000e+03 7.737935638427734375e+01 1.034178972244262695e+00 -7.140520813520012666e-13 -5.439209534705870264e-14 -2.305332574142893165e-13 -8.138593423322182385e-14
1.370000000000000000e+03 7.658723449707031250e+01 1.059284567832946777e+00 -5.150520309728234825e-13 1.452710022588343808e-13 -1.109343059036912993e-13 1.282835599900056245e-13
1.371000000000000000e+03 7.666521453857421875e+01 9.095092773437500000e+00 -1.401934259870687982e-13 2.601737456118385916e-13 3.599409249929914900e-14 1.378404226697049761e-13
1.372000000000000000e+03 7.739340972900390625e+01 1.070114898681640625e+01 6.603413291433185561e-14 3.028060387069014814e-13 1.106520541968754323e-13 -2.978048241493967685e-14
1.373000000000000000e+03 3.954293489456176758e+00 2.281467056274414062e+01 -6.161470124258286440e-14 1.565974997244645728e-13 2.849483886693815471e-14 -2.275791317549180626e-13
1.374000000000000000e+03 7.640866088867187500e+01 2.182884597778320312e+01 -2.335248998569603579e-14 4.475012754020374350e-13 1.272446368107485459e-13 3.547994350031578870e-14
1.375000000000000000e+03 7.657599639892578125e+01 1.629488182067871094e+01 -2.192189199536499072e-14 1.736086995733979177e-13 4.550604210400328864e-14 -2.726864347930672838e-14
1.376000000000000000e+03 7.660250854492187500e+01 1.470304965972900391e+01 -3.392815542402338735e-14 2.599650637986894441e-13 6.781107251239981704e-14 9.956878224204931266e-15
1.377000000000000000e+03 7.739958190917968750e+01 9.898533821105957031e+00 -9.542765340951608888e-14 3.937364486100020100e-13 8.949263584964034512e-14 6.749689782786782999e-14
1.378000000000000000e+03 7.646569824218750000e+01 2.103423118591308594e+01 7.176582190928509908e-14 4.882662742004828527e-13 1.680096220566668075e-13 6.695485772799728008e-14
1.379000000000000000e+03 7.665145111083984375e+01 1.070453929901123047e+01 -1.606459512941069145e-13 2.056574311889991513e-13 1.350344583194015499e-14 1.660215476380344501e-13
1.380000000000000000e+03 7.676891326904296875e+01 4.303518772125244141e+00 -1.451297171632323635e-13 1.665562897020314570e-13 6.427970406387012448e-15 3.650855388403345669e-13
1.381000000000000000e+03 7.714881896972656250e+01 2.349088287353515625e+01 -6.203263407502171423e-14 3.622976484790596530e-13 9.007950770934317064e-14 3.884111592468778018e-14
1.382000000000000000e+03 7.628790283203125000e+01 2.343635940551757812e+01 3.779008356241675415e-14 3.364523828812415740e-13 1.122727399330974984e-13 5.997029180757409983e-14
1.383000000000000000e+03 7.621905517578125000e+01 2.676369857788085938e+01 3.718879520195166044e-14 3.590701683469504912e-13 1.188776860153520354e-13 6.434193049230721440e-14
1.384000000000000000e+03 7.622686767578125000e+01 3.720064926147460938e+01 2.283842230187561190e-14 4.701567911033488478e-13 1.478985662238530008e-13 -2.305830189058746121e-14
1.385000000000000000e+03 7.565785217285156250e+01 3.608679199218750000e+01 7.657816167207925906e-14 1.014456395406412859e-13 5.340714171906887908e-14 6.179289664589443509e-14
1.386000000000000000e+03 7.538376617431640625e+01 3.265065002441406250e+01 3.050729131730896444e-15 4.588169579509970841e-13 1.385603058071810390e-13 -1.881872919485844814e-14
1.387000000000000000e+03 7.654315185546875000e+01 3.157047843933105469e+01 7.607456331548689832e-14 3.986109673673882137e-13 1.424056592048625336e-13 4.087814207140785805e-14
1.388000000000000000e+03 2.651183128356933594e+00 1.645222282409667969e+01 2.087337786204615173e-15 -2.278601840630806175e-13 -6.773185121490901683e-14 -6.865169511430929683e-14
1.389000000000000000e+03 7.663147735595703125e+01 1.310787773132324219e+01 -1.269829358172989628e-14 3.148145264440793678e-13 9.063486994340813618e-14 6.745153751947646770e-14
1.390000000000000000e+03 7.518668365478515625e+01 -9.515975117683410645e-01 -3.664694687034036891e-13 3.004511515882629658e-13 -1.980550055555307942e-14 -9.783408078892913418e-14
1.391000000000000000e+03 3.283884286880493164e+00 1.173536396026611328e+01 -3.367149427660996730e-14 -1.443064113028965506e-14 -1.443064113028965506e-14 1.044147746238378860e-13
1.392000000000000000e+03 4.525180339813232422e+00 1.047468471527099609e+01 -7.351439606801540849e-14 1.424477838473953845e-14 -1.778088682964206607e-14 8.362046135818729242e-14
1.393000000000000000e+03 2.804435014724731445e+00 6.969388484954833984e+00 -2.496140196395126715e-14 -2.852034472304587620e-13 -9.304944916790555687e-14 7.807790465596056717e-14
1.394000000000000000e+03 3.276394367218017578e+00 9.212550163269042969e+00 -1.196594364392955523e-13 -2.571618861867824846e-13 -1.130463994983288423e-13 1.004926055022357934e-13
1.395000000000000000e+03 5.620242595672607422e+00 1.910120391845703125e+01 -2.745504663187719324e-14 2.169882925683735975e-13 5.685997327272915292e-14 -5.300078274482131202e-14
1.396000000000000000e+03 4.179420948028564453e+00 1.767807769775390625e+01 9.043631864430815015e-14 4.733924298568059630e-13 1.691486306489714542e-13 1.101114625233446873e-14
1.397000000000000000e+03 3.245183229446411133e+00 2.284792137145996094e+01 -3.377591649834747745e-14 5.415102977027012876e-14 6.112534489796563747e-15 -1.234288279222672813e-14
1.398000000000000000e+03 2.499632120132446289e+00 2.127662086486816406e+01 7.135907838207947856e-15 -4.269270348486106648e-14 -1.066703827047946196e-14 -7.929112688697184663e-14
1.399000000000000000e+03 3.341652631759643555e+00 2.522371482849121094e+01 3.852670407093056193e-14 1.308888164953253552e-13 5.082465684750313295e-14 -8.488828672111037310e-15
1.400000000000000000e+03 3.467375993728637695e+00 2.839810562133789062e+01 4.856156777155624937e-14 6.656304739165175288e-14 3.453738556540193738e-14 -1.552754879698397400e-14
1.401000000000000000e+03 4.876145362854003906e+00 2.589078712463378906e+01 -1.418613490566933422e-13 -1.504676950799064411e-14 -4.707243302830635412e-14 -4.305709451767102472e-15
1.402000000000000000e+03 7.580709838867187500e+01 1.864332771301269531e+01 -8.003337338832131748e-15 3.625775894799954102e-13 1.063722745412061521e-13 -1.064124577842238961e-13
1.403000000000000000e+03 2.680906534194946289e+00 1.558792018890380859e+01 1.199366381356798891e-14 -1.549881777822628703e-13 -4.289835630819083256e-14 1.503628832230131940e-14
1.404000000000000000e+03 5.070842266082763672e+00 1.791115760803222656e+01 9.955827395130567581e-14 3.400490067480277379e-13 1.318821896308108865e-13 -4.005799394989940920e-14
1.405000000000000000e+03 3.152638196945190430e+00 1.245923233032226562e+01 1.340080237939187888e-14 -1.543851174288721206e-13 -4.229529595480008286e-14 1.501622719397854855e-13
1.406000000000000000e+03 7.123123645782470703e+00 1.325519466400146484e+01 4.300835200672127601e-14 4.530661598927537836e-13 1.488223606849192748e-13 5.576919473644116609e-14
1.407000000000000000e+03 7.661843109130859375e+01 1.390797519683837891e+01 1.371874212537441129e-14 3.718870643289878819e-13 1.156817426139350458e-13 -3.657703412612671456e-14
1.408000000000000000e+03 4.853628635406494141e+00 1.347669315338134766e+01 -3.392030173453644548e-14 4.265141232274831384e-14 2.619333134111913146e-15 1.633027480602011750e-13
1.409000000000000000e+03 3.409547805786132812e+00 1.389732646942138672e+01 -9.892471532961608777e-15 -1.414924763725594614e-13 -4.541548411754643688e-14 -8.258590209267446802e-14
1.410000000000000000e+03 7.675894927978515625e+01 2.727534532546997070e+00 -3.424386967564030382e-13 -7.813302278390429900e-14 -1.261715206054767058e-13 1.911305721980990913e-13
1.411000000000000000e+03 7.670159149169921875e+01 1.919973731040954590e+00 -5.199026972824150050e-13 2.881477676364326002e-14 -1.473263785273237758e-13 1.072781627257674703e-15
1.412000000000000000e+03 7.668946838378906250e+01 7.487022876739501953e+00 -1.297819816024892159e-13 1.731339003370122032e-13 1.300557511213712783e-14 1.907710372051757419e-13
1.413000000000000000e+03 3.216925382614135742e+00 2.206689262390136719e+01 1.643711988079995384e-14 1.214218477282522080e-13 4.135769146856177469e-14 -2.168304056270053959e-13
1.414000000000000000e+03 3.211494207382202148e+00 1.971201324462890625e+01 -6.160396933514115242e-15 -1.627684938871817866e-13 -5.067866563684617076e-14 -8.497221921585380172e-15
1.415000000000000000e+03 4.138561725616455078e+00 3.321461486816406250e+01 7.930982937444722158e-14 -8.038744501873487658e-14 -3.232838356654374034e-16 -1.268070155444837172e-14
1.416000000000000000e+03 7.667578125000000000e+01 8.288996696472167969e+00 8.287861635045482012e-14 1.727722511498525071e-13 7.669526228297127157e-14 -4.919395240558094295e-14
1.417000000000000000e+03 7.654403686523437500e+01 1.945522117614746094e+01 6.807386956648314724e-14 5.781858824181751455e-13 1.938779269506502034e-13 -1.205102505416263958e-13
1.418000000000000000e+03 7.656671142578125000e+01 1.788092231750488281e+01 1.354136664995578276e-13 2.867891742228817487e-13 1.266608481509737261e-13 -7.875026585696387471e-14
1.419000000000000000e+03 3.217642784118652344e+00 8.485882759094238281e+00 1.191072658253758410e-14 -1.778991992780476483e-13 -4.979654180865301927e-14 3.108849779714407957e-14
1.420000000000000000e+03 3.342593669891357422e+00 7.274323463439941406e+00 -5.994073374584671376e-14 -2.544436287100354521e-13 -9.431530941439100757e-14 1.912255821897267116e-14
1.421000000000000000e+03 3.537231683731079102e+00 2.919717407226562500e+01 -8.842153897091475923e-14 -1.751477923198768716e-13 -7.907079667673205803e-14 -3.526694520726743332e-14
1.422000000000000000e+03 2.695225000381469727e+00 2.845084953308105469e+01 -1.004854362153702330e-13 9.418765816110799549e-14 -1.889333035113844976e-15 -6.065233628923041853e-14
1.423000000000000000e+03 3.310147523880004883e+00 2.442466545104980469e+01 -1.843378151945157528e-14 6.072623144354888369e-14 1.268773531604237143e-14 -1.094584340023295119e-14
1.424000000000000000e+03 7.600050354003906250e+01 2.932611083984375000e+01 -5.649557631068856389e-14 1.816668831425977126e-13 3.755138967788049231e-14 7.573312772258047887e-14
1.425000000000000000e+03 7.614833831787109375e+01 2.844978523254394531e+01 5.445960387295487037e-14 4.350983820195636342e-13 1.468673950901291936e-13 4.331986023153530652e-14
1.426000000000000000e+03 7.666393280029296875e+01 -6.924477219581604004e-01 -5.134931650892238242e-13 1.459390876375199486e-13 -1.102662205250057315e-13 -9.681104117149896826e-14
1.427000000000000000e+03 7.657111358642578125e+01 1.627181172370910645e-01 -5.473679235562523004e-13 1.314213494973959229e-13 -1.247839722176569133e-13 -1.838807291111230202e-13
1.428000000000000000e+03 7.578202056884765625e+01 -1.711209863424301147e-02 -5.889309222587013615e-13 1.136086260873983567e-13 -1.425966820751273234e-13 -6.183326284802878603e-14
1.429000000000000000e+03 4.218092441558837891e+00 3.597390747070312500e+01 2.517968066039280584e-14 -2.751521341499973961e-13 -7.499173672450773487e-14 -1.675664544186633576e-13
1.430000000000000000e+03 7.542977905273437500e+01 3.501539993286132812e+01 -1.388528828456239358e-14 3.600567652188579881e-13 1.038514367275415740e-13 -8.787760829350593772e-14
1.431000000000000000e+03 7.524022102355957031e+00 1.161031627655029297e+01 -2.338586647194964424e-14 2.401779946800686183e-13 6.503763592133685045e-14 -1.741716241176159696e-14
1.432000000000000000e+03 9.572869300842285156e+00 4.501804828643798828e+00 -1.411231971126108986e-13 -1.062323175932654296e-13 -7.420665237888382504e-14 -8.052817446072349505e-14
1.433000000000000000e+03 3.768093585968017578e+00 3.076809120178222656e+01 -1.655945515530599793e-14 6.152951683314339393e-14 1.349101731750509264e-14 -2.530569205788993359e-14
1.434000000000000000e+03 1.969789314270019531e+01 1.006357288360595703e+01 -1.424472925682859770e-13 -3.584300011742064251e-13 -1.502631840569895738e-13 6.479470009580073908e-14
1.435000000000000000e+03 2.049452018737792969e+01 1.332295227050781250e+01 -1.658189780146326897e-13 -2.531432840582013843e-14 -5.733999023206995393e-14 1.091756283359661406e-13
1.436000000000000000e+03 1.955919265747070312e+01 1.491375350952148438e+01 -5.274902337707365260e-15 -4.801161977209013332e-14 -1.598595794584031782e-14 3.556528376381755396e-14
1.437000000000000000e+03 1.947067070007324219e+01 1.085299301147460938e+01 6.676359091224368103e-14 -2.687681891280768731e-13 -6.060137878712359982e-14 8.888368014693670549e-14
1.438000000000000000e+03 1.981722831726074219e+01 1.250001621246337891e+01 -4.053731634222346170e-14 -1.737313533322921294e-14 -1.737313533322921294e-14 1.130256099216714327e-13
1.439000000000000000e+03 2.122704315185546875e+01 5.929867267608642578e+00 -3.216152591098940527e-14 5.484291338664175341e-14 6.804415988585820266e-15 -2.918181308034749344e-14
1.440000000000000000e+03 1.627364349365234375e+01 1.733023452758789062e+01 -1.981228766115283868e-13 -1.764117010024518484e-13 -1.123603705736886393e-13 -3.596950143877446215e-14
1.441000000000000000e+03 1.409438610076904297e+01 2.040781784057617188e+01 -2.104192742356097989e-13 -3.532476503149972746e-13 -1.691000719441712596e-13 2.134261598831996287e-13
1.442000000000000000e+03 1.786838912963867188e+01 1.672167396545410156e+01 -8.065356244197144364e-14 -1.489431814645156282e-13 -6.887902520482519497e-14 8.815101528228657529e-15
1.443000000000000000e+03 2.131644630432128906e+01 5.051356792449951172e+00 5.109550071458537901e-15 -1.121875622999216060e-13 -3.212340604023117274e-14 -9.918781562149453501e-14
1.444000000000000000e+03 2.069483184814453125e+01 1.728566288948059082e+00 -2.984997469199831416e-15 3.189773477903917742e-13 9.479770484224769866e-14 1.674677945620660184e-15
1.445000000000000000e+03 2.138892364501953125e+01 3.305471181869506836e+00 -3.008767754798628846e-14 1.014826514923045098e-13 2.141849184448228749e-14 -8.454594988514807508e-14
1.446000000000000000e+03 6.028159618377685547e+00 1.822535514831542969e+01 2.417765423631812460e-13 7.441318069546787317e-13 2.957724939533362685e-13 -8.255661508149020333e-14
1.447000000000000000e+03 6.562850952148437500e+00 1.947520637512207031e+01 6.216836941075332135e-14 2.553983229330175631e-13 9.527001041363669653e-14 -1.642766597666905914e-13
1.448000000000000000e+03 1.990937042236328125e+01 9.260200500488281250e+00 8.009668232486499839e-14 -4.231823496226444492e-13 -1.029256974788284040e-13 2.587416466791250119e-14
1.449000000000000000e+03 4.640562534332275391e+00 2.201589965820312500e+01 -1.010025887931845570e-14 -1.873324764626108085e-13 -5.922982238134796851e-14 -1.069588685741022782e-13
1.450000000000000000e+03 6.287045955657958984e+00 1.728793907165527344e+01 3.328379238887180236e-13 5.200901558380377487e-13 2.558784076549941444e-13 -6.237541136811658449e-14
1.451000000000000000e+03 1.188204479217529297e+01 2.094655990600585938e+01 1.382459007296873987e-13 -5.512912581951898150e-14 2.493503382830324078e-14 1.120424147340801091e-13
1.452000000000000000e+03 2.102739715576171875e+01 -1.793914079666137695e+00 -9.028928050092838165e-14 2.815612326623195827e-13 5.738158971417550713e-14 -4.019534881262616655e-14
1.453000000000000000e+03 1.560661697387695312e+01 1.777838897705078125e+01 -2.121425695430622510e-14 -3.293484734066820518e-13 -1.051688169060108202e-13 8.667693570264117797e-14
1.454000000000000000e+03 1.443892288208007812e+01 1.876785469055175781e+01 -7.013203257336900892e-15 -2.775113580773258537e-13 -8.535736679103622659e-14 6.404342252916764289e-14
1.455000000000000000e+03 2.388299369812011719e+01 4.925452768802642822e-01 -6.531868822949940534e-14 -7.374467383318775160e-14 -4.171900861880614708e-14 9.515895422985629071e-14
1.456000000000000000e+03 1.863946533203125000e+01 1.576486778259277344e+01 -2.934721828615552419e-14 -3.545285538666259617e-14 -1.944002277947179391e-14 6.789243510918127611e-14
1.457000000000000000e+03 1.343610668182373047e+01 1.984082221984863281e+01 1.318512627638407375e-13 -3.094999029198269858e-13 -5.329459136916951667e-14 8.635209517923736477e-14
1.458000000000000000e+03 1.365570640563964844e+01 2.097791481018066406e+01 7.715350033117227002e-14 -1.499380047204068589e-13 -2.183535233320991337e-14 6.008779899428079441e-14
1.459000000000000000e+03 4.215862274169921875e+00 1.379328346252441406e+01 4.012372031847455389e-14 -2.573098255732181316e-13 -6.515582751066492651e-14 2.068134482028846644e-13
1.460000000000000000e+03 5.039392471313476562e+00 3.787477111816406250e+01 -2.301742577461886319e-14 -2.130234838082067234e-14 -1.329593207722527121e-14 -4.622093452335412911e-14
1.461000000000000000e+03 6.988584995269775391e+00 3.833763885498046875e+01 4.294795516945025537e-14 -6.165789314662925569e-14 -5.612981139043815917e-15 3.794920717188794701e-14
1.462000000000000000e+03 7.670926666259765625e+01 4.177494049072265625e+01 -1.984960047891892732e-14 4.375647793316422840e-13 1.253145536558170070e-13 -7.001633210793880777e-15
1.463000000000000000e+03 3.288793563842773438e+00 4.180762481689453125e+01 4.745479386509231234e-14 -4.828865375595091380e-14 -2.501583431284507822e-16 2.493982972885059463e-14
1.464000000000000000e+03 7.720183563232421875e+01 3.794141387939453125e+01 2.911509737728995573e-14 2.412326523433538927e-13 8.110431949518229211e-14 2.954232724335786875e-14
1.465000000000000000e+03 3.253127336502075195e+00 3.573434448242187500e+01 3.113822201927969602e-14 -7.815694299433476044e-14 -1.410561595370334043e-14 5.761463897115126631e-14
1.466000000000000000e+03 1.167536544799804688e+01 6.541094779968261719e+00 -1.023964983984382293e-13 3.221233772342929624e-13 6.591806229550370433e-14 -1.329687092854400787e-13
1.467000000000000000e+03 1.152537536621093750e+01 7.035006999969482422e+00 4.019835747365481382e-14 1.087297637450586330e-13 4.467843670442721293e-14 1.744707792139272434e-14
1.468000000000000000e+03 7.647473812103271484e+00 5.370925903320312500e+00 -8.844894218082433035e-14 2.823499626377484750e-13 5.817030613707724340e-14 -1.223473362552129906e-13
1.469000000000000000e+03 2.291452789306640625e+01 -1.630983948707580566e+00 6.583177335510101424e-14 5.108909036924055846e-14 3.507625776204975621e-14 4.540829789002193140e-14
1.470000000000000000e+03 2.196833229064941406e+01 8.021510243415832520e-01 6.068358756981936594e-15 1.398535692635760608e-13 4.377658039669482526e-14 -1.356400208081184888e-13
1.471000000000000000e+03 2.417015457153320312e+01 -1.891668677330017090e+00 -4.717783780826267925e-14 -1.345964491120468787e-13 -5.453228607609286738e-14 1.568420584651276234e-14
1.472000000000000000e+03 2.482366752624511719e+01 -1.989860057830810547e+00 -2.298788295948452770e-14 1.502763706659124288e-13 3.818654580370860196e-14 -3.995251124291193667e-14
1.473000000000000000e+03 2.548992729187011719e+01 -2.074814796447753906e+00 -2.847747130338765253e-14 -1.220463092160882848e-14 -1.220463092160882848e-14 3.254394773414756581e-14
1.474000000000000000e+03 2.685731506347656250e+01 -2.191282749176025391e+00 -2.566188635286931197e-14 -1.024998499705304100e-13 -3.844851954176720099e-14 -4.664110352277373028e-14
1.475000000000000000e+03 2.492626953125000000e+01 -1.281160712242126465e+00 -2.901353473878237610e-14 -1.243437166789261236e-14 -1.243437166789261236e-14 1.393609349014529597e-13
1.476000000000000000e+03 1.090356826782226562e+01 8.129002571105957031e+00 -9.912416617770605787e-14 3.464012930665116841e-13 7.418313196800446763e-14 1.008032311187187849e-15
1.477000000000000000e+03 1.059764194488525391e+01 8.739333152770996094e+00 -7.237738139126859843e-15 4.544075890306614740e-13 1.341509639918997410e-13 -1.032215491466453861e-13
1.478000000000000000e+03 9.607939720153808594e+00 7.493418216705322266e+00 1.085712601637048302e-14 3.249096955024177724e-13 1.007300457780101188e-13 6.482117495760011949e-14
1.479000000000000000e+03 2.825212669372558594e+01 -2.245707988739013672e+00 -1.103183672613704952e-14 -4.727929964984953562e-15 -4.727929964984953562e-15 1.621801956239957848e-14
1.480000000000000000e+03 1.268877506256103516e+01 2.184002494812011719e+01 2.112518059788071056e-13 -1.153427803572346089e-13 2.877270633121903343e-14 8.075076794299834715e-14
1.481000000000000000e+03 2.635328865051269531e+01 -7.654242515563964844e-01 5.133506534899141827e-14 4.337592839163267877e-13 1.455283105394195031e-13 -1.273826692998331067e-13
1.482000000000000000e+03 2.762234115600585938e+01 -1.553473711013793945e+00 -3.980656407796823171e-14 -3.373166004329297696e-13 -1.131369507085221160e-13 8.557937073837978970e-14
1.483000000000000000e+03 2.966951370239257812e+01 -2.256922006607055664e+00 -7.707011163158097866e-14 1.042227963004085933e-13 8.145806586494410556e-15 1.074888265960131928e-13
1.484000000000000000e+03 3.111194801330566406e+01 -2.241575956344604492e+00 -1.372039688894016729e-13 -5.880170482475133298e-14 -5.880170482475133298e-14 -1.055974155773214962e-13
1.485000000000000000e+03 3.043790245056152344e+01 -1.585248708724975586e+00 -4.271895472996237175e-14 2.744282564051420820e-14 -4.582838303317975440e-15 -1.107602728202825362e-14
1.486000000000000000e+03 8.079597473144531250e+00 1.204586887359619141e+01 -1.029432704478686154e-15 3.055182788615912193e-13 9.134665544590844788e-14 -5.117891313109919349e-14
1.487000000000000000e+03 8.539569854736328125e+00 1.044346904754638672e+01 -5.746711971305745736e-14 1.862545084526170958e-13 3.863621865474696493e-14 -8.049145388839412663e-14
1.488000000000000000e+03 8.035273551940917969e+00 1.102831363677978516e+01 -1.176553022759832534e-13 3.513268235361133307e-13 7.010144960177544515e-14 1.286591547276089154e-14
1.489000000000000000e+03 2.908143997192382812e+01 -9.225826859474182129e-01 -7.464685878970367394e-14 -3.199151284594831113e-14 -3.199151284594831113e-14 1.222768292326835426e-14
1.490000000000000000e+03 3.257046127319335938e+01 -2.207654953002929688e+00 -1.288943859414568016e-13 -9.489501537536006170e-15 -4.151516505785171618e-14 -6.426972940388325783e-14
1.491000000000000000e+03 3.050034332275390625e+01 -9.157699942588806152e-01 -2.088639421734660856e-14 1.283015306410145717e-13 3.222454177413333620e-14 -6.230827214858541963e-14
1.492000000000000000e+03 1.060076713562011719e+01 7.138383865356445312e+00 -1.608582651845338884e-13 3.885702252581085814e-13 6.831359344308327031e-14 -8.059970067564672675e-16
1.493000000000000000e+03 3.404690170288085938e+01 -2.164707183837890625e+00 -1.040292797651470869e-13 -9.033492541239002138e-14 -5.830926019800841686e-14 -9.465327556034547341e-14
1.494000000000000000e+03 3.260923004150390625e+01 -1.536923646926879883e+00 6.877669007226971942e-14 7.522666978275818761e-14 4.320100795650837211e-14 2.568185261350199033e-14
1.495000000000000000e+03 3.057736206054687500e+01 -2.408870607614517212e-01 -7.926360170431787089e-14 -3.542267661919146216e-13 -1.300471096912433899e-13 -5.866335385127860458e-14
1.496000000000000000e+03 3.408387374877929688e+01 -1.489963412284851074e+00 1.087157301031885237e-13 -1.364113357861518327e-13 -8.308682551921939968e-15 8.170115246234482820e-14
1.497000000000000000e+03 3.556880950927734375e+01 -1.439726710319519043e+00 -1.050889586397436848e-13 7.128246001683559083e-16 -3.131283955542206454e-14 2.404114132434093803e-14
1.498000000000000000e+03 7.156419372558593750e+01 -5.022999048233032227e-01 -2.037914379349886618e-13 1.871665122150575900e-13 -4.987478647715563526e-15 -4.092035819349901238e-14
1.499000000000000000e+03 7.084629058837890625e+01 -1.158056616783142090e+00 -2.489013498346154263e-13 7.633179028090908425e-14 -5.177086718848554481e-14 -7.422796372783674324e-14
1.500000000000000000e+03 7.157923126220703125e+01 -1.170616984367370605e+00 -3.112713808494510515e-13 -3.621567835117994738e-13 -2.020284438873642952e-13 -9.249239964420966076e-14
1.501000000000000000e+03 6.563432312011718750e+01 -1.105746030807495117e+00 -2.417427965705626347e-13 3.364879040549176303e-14 -6.242820523765305052e-14 5.708028315417820742e-14
1.502000000000000000e+03 6.490044403076171875e+01 -3.986113667488098145e-01 -2.917701074234974046e-13 -7.929338338274333209e-14 -1.113190485971249366e-13 2.278401398754167917e-14
1.503000000000000000e+03 6.860284423828125000e+01 -1.806499838829040527e+00 -1.830815365847296428e-13 -3.271256827702337389e-14 -6.473823349140497840e-14 -3.428210846982433085e-15
1.504000000000000000e+03 6.711103820800781250e+01 -1.800307273864746094e+00 -2.335882951908646588e-13 -8.607376015276960168e-15 -7.265870305590838019e-14 -1.312843215893868057e-14
1.505000000000000000e+03 3.778063583374023438e+01 -2.044303417205810547e+00 -1.406447704576285675e-15 -9.210466184227453224e-14 -2.805333310757721771e-14 -1.130967539129772159e-14
1.506000000000000000e+03 6.413470458984375000e+01 -1.084452986717224121e+00 -2.591937894782375684e-13 -6.533210523138391346e-14 -9.735777044576551797e-14 4.844450104198212703e-14
1.507000000000000000e+03 7.305282592773437500e+01 -1.823534250259399414e+00 -2.401856925154932654e-13 2.630708693419914201e-13 6.865552709136267528e-15 1.448752955709314838e-14
1.508000000000000000e+03 6.637963867187500000e+01 -1.110660076141357422e+00 -2.999392997426325591e-13 8.707437711402005176e-15 -8.736955793174280838e-14 -6.963428721444217540e-14
1.509000000000000000e+03 6.110919570922851562e+01 -1.755603790283203125e+00 -1.697384908409121929e-13 -1.642469661796916447e-13 -1.001956357509284357e-13 4.987727421292172114e-14
1.510000000000000000e+03 5.810340118408203125e+01 -1.750079512596130371e+00 -2.331852430332431725e-13 -8.434632963046865411e-15 -7.248596254477712719e-14 -6.592330712351310296e-14
1.511000000000000000e+03 5.888410568237304688e+01 -3.476566672325134277e-01 -1.508885383175520567e-13 7.258632578463139473e-14 -2.349066477631573530e-14 3.944436940159050387e-14
1.512000000000000000e+03 6.112433624267578125e+01 -1.058837413787841797e+00 -1.695407052595965247e-13 1.560944434689584548e-13 -4.033881332400146916e-15 -8.012825293687506067e-14
1.513000000000000000e+03 3.636421203613281250e+01 -7.336150407791137695e-01 -1.182164446628802823e-13 -3.251698769187599813e-13 -1.330158991849975103e-13 -9.019442297523126706e-15
1.514000000000000000e+03 7.010555267333984375e+01 -1.142683506011962891e+00 -2.469588932223903965e-13 -1.973414243431823034e-13 -1.332900939144190944e-13 -2.388246664233178995e-13
1.515000000000000000e+03 6.037267303466796875e+01 -1.058823227882385254e+00 -1.359955984631122661e-13 2.162218700526435944e-13 2.406788046041986179e-14 2.665406856003100372e-14
1.516000000000000000e+03 5.962148284912109375e+01 -1.057505965232849121e+00 -2.849688800904415231e-13 1.523761721184194173e-13 -3.977781239160663174e-14 -1.420857958470567867e-14
1.517000000000000000e+03 6.338234329223632812e+01 -1.073599696159362793e+00 -3.132321875834453984e-13 -8.849142257719502802e-14 -1.205170810153130545e-13 8.616086224480165590e-14
1.518000000000000000e+03 6.262926483154296875e+01 -1.065124750137329102e+00 -2.157407688911303079e-13 9.054346492400403013e-14 -3.755919254539059893e-14 -5.094607732642614240e-14
1.519000000000000000e+03 6.712453460693359375e+01 -1.113404631614685059e+00 -2.970064786559506453e-13 -8.153753957825318754e-14 -1.135632047926347921e-13 1.996628434960089071e-14
1.520000000000000000e+03 5.887099456787109375e+01 -1.055503606796264648e+00 -2.399480625043387549e-13 2.631727030310421211e-13 6.967387668736389414e-15 7.693528431516882815e-14
1.521000000000000000e+03 9.122202873229980469e+00 8.807438850402832031e+00 -6.566679166576661064e-14 1.548608788946859161e-13 2.675822820155486503e-14 -6.936937596612249846e-14
1.522000000000000000e+03 6.187643051147460938e+01 -1.060116648674011230e+00 -1.597053381468399591e-13 -1.599470474686684462e-13 -9.589571026364165918e-14 2.382345893909426637e-14
1.523000000000000000e+03 7.230545043945312500e+01 -1.173097848892211914e+00 -2.287546237503268465e-13 1.307170517661493392e-13 -2.941127430575868340e-14 -6.128751613198105130e-14
1.524000000000000000e+03 6.936036682128906250e+01 -1.129712939262390137e+00 -1.622488086808551722e-13 -1.152861443462493973e-13 -8.326048590813137085e-14 9.292212995153786848e-14
1.525000000000000000e+03 6.861441040039062500e+01 -1.120959281921386719e+00 -3.246244961209454605e-13 -2.306266885365032548e-13 -1.665753581077400458e-13 -2.216258318359087820e-14
1.526000000000000000e+03 5.436306381225585938e+01 -1.059636235237121582e+00 -1.305865815872178648e-13 -1.017166290973904597e-13 -6.969096388300885514e-14 -9.643611558992400828e-15
1.527000000000000000e+03 5.509724044799804688e+01 -1.747260451316833496e+00 -1.383055047441197893e-13 3.222811286503896033e-14 -3.182321756372424870e-14 1.602919457322632413e-13
1.528000000000000000e+03 5.736843872070312500e+01 -1.048792839050292969e+00 -1.479711806643552174e-13 -1.766526852640774858e-14 -4.969093374078935310e-14 8.191013243109140918e-14
1.529000000000000000e+03 5.661580276489257812e+01 -1.045970201492309570e+00 -2.092884920272888860e-13 -1.811969628159881829e-13 -1.171456459397521299e-13 1.253859077112937093e-13
1.530000000000000000e+03 7.525940704345703125e+01 -1.663618803024291992e+00 -2.936619588993216734e-13 5.714866242994415257e-14 -7.095399165131868746e-14 -1.869837157287765339e-13
1.531000000000000000e+03 7.485740661621093750e+01 2.909442186355590820e-01 -5.636061279137849489e-13 7.871115326359146014e-14 -1.454685032370797715e-13 -1.060925571569684700e-13
1.532000000000000000e+03 5.063472747802734375e+01 -1.096422553062438965e+00 -1.279611995790713719e-13 -5.484051120120334022e-14 -5.484051120120334022e-14 1.760730911114574693e-13
1.533000000000000000e+03 5.209889221191406250e+01 -1.771452784538269043e+00 -6.395556149561484882e-14 -2.740952538722585263e-14 -2.740952538722585263e-14 7.012512586671709736e-14
1.534000000000000000e+03 3.631564331054687500e+01 -1.414824485778808594e+00 -1.107927971913912069e-13 -4.748262736773908865e-14 -4.748262736773908865e-14 1.676866551701423208e-14
1.535000000000000000e+03 7.302532958984375000e+01 -1.159398436546325684e+00 -3.362685564028966567e-13 -2.356170000859109104e-13 -1.715656696571477013e-13 -9.316657688385188152e-14
1.536000000000000000e+03 4.984819793701171875e+01 -1.785191178321838379e+00 -8.673750872276522750e-14 -3.717321657198575935e-14 -3.717321657198575935e-14 9.055650414919406282e-15
1.537000000000000000e+03 4.003915786743164062e+01 -1.971862196922302246e+00 -4.071425474864130700e-14 1.198038792737249336e-13 2.372688701871190908e-14 2.166396673598108835e-13
1.538000000000000000e+03 3.931949234008789062e+01 -1.316133022308349609e+00 -1.872467973859301416e-13 1.125326723217532146e-14 -5.279806065548904581e-14 -3.478233055308893595e-14
1.539000000000000000e+03 4.007500076293945312e+01 -1.289902567863464355e+00 -1.219068926751679105e-13 -1.437477117590194031e-13 -7.969638133025619409e-14 4.532398423045223834e-14
1.540000000000000000e+03 4.838065338134765625e+01 -1.105888843536376953e+00 -1.483495807750798146e-13 -1.093293410989702730e-13 -7.730367588458866845e-14 1.311834314950393460e-14
1.541000000000000000e+03 5.361621856689453125e+01 -1.069703459739685059e+00 -1.188141517680443848e-13 8.633249822496968928e-14 -9.744497418175124270e-15 1.705294502070582585e-14
1.542000000000000000e+03 4.683582687377929688e+01 -1.813713192939758301e+00 -9.204900838950813569e-14 -2.682043226832214744e-13 -1.080759966113134518e-13 1.299125242027376805e-15
1.543000000000000000e+03 4.306020736694335938e+01 -1.883767366409301758e+00 -5.246130407258325912e-14 2.326753258108642947e-14 -8.758131786262227797e-15 8.308878894159113515e-14
1.544000000000000000e+03 7.599239349365234375e+01 -1.574028491973876953e+00 -3.037240868964535823e-13 2.815910753271172462e-13 -6.639901014405353782e-15 -8.105975200962955984e-14
1.545000000000000000e+03 4.608027648925781250e+01 -1.824586629867553711e+00 -9.508359540260497011e-14 5.000837204326711097e-15 -2.702482673950547254e-14 9.004223825966398143e-14
1.546000000000000000e+03 4.612143325805664062e+01 -1.131368875503540039e+00 -5.547760872654655673e-14 -2.067799192507005501e-13 -7.867725839317413206e-14 1.350679550843336685e-13
1.547000000000000000e+03 5.287157440185546875e+01 -1.079597711563110352e+00 -1.072152485065772098e-13 -1.374512889574727725e-13 -7.339995852870956350e-14 5.957598780623185597e-14
1.548000000000000000e+03 4.386123657226562500e+01 -1.174191713333129883e+00 -1.243413060231582379e-13 -1.447910259570750480e-13 -8.073970230457541697e-14 6.378255671020405249e-14
1.549000000000000000e+03 3.706452560424804688e+01 -1.390474796295166016e+00 -1.789321322403017445e-13 -4.426927845569555986e-13 -1.864874763944299185e-13 9.552330036992004447e-14
1.550000000000000000e+03 3.426784992218017578e+00 1.545643329620361328e+01 1.015825403937083149e-13 -2.309703264150725355e-13 -3.881633512878290837e-14 3.834207291128575307e-15
1.551000000000000000e+03 6.064393043518066406e+00 1.568352031707763672e+01 1.135669249613391329e-13 -5.426809311171246208e-14 1.778965023251435906e-14 2.921691480330806945e-13
1.552000000000000000e+03 5.138025665283203125e+01 -1.093044638633728027e+00 -1.451403830021041896e-13 -1.537049160909090273e-13 -8.965358566214581826e-14 4.938923076937273837e-14
1.553000000000000000e+03 4.988677597045898438e+01 -1.098823070526123047e+00 -1.647136610048380301e-13 -2.484062014787048744e-14 -5.686628197412030294e-14 5.665674635176032314e-14
1.554000000000000000e+03 2.304291725158691406e+01 -9.109612107276916504e-01 3.013741193451727196e-14 1.501688855730376471e-13 5.409188992989283351e-14 2.099286625881647411e-14
1.555000000000000000e+03 4.158786010742187500e+01 -1.238389372825622559e+00 -2.031293292207789203e-13 9.594836860790656452e-14 -3.215428547335627552e-14 -7.161584286751246364e-14
1.556000000000000000e+03 4.762970733642578125e+01 -1.111722111701965332e+00 1.004208550353397761e-14 1.415565933785348229e-13 4.547960451165358742e-14 1.783805985951583684e-13
1.557000000000000000e+03 4.687743377685546875e+01 -1.119728684425354004e+00 -4.745135829945824890e-14 2.084184468889235808e-13 4.829012759327913629e-14 -5.717307053135223249e-14
1.558000000000000000e+03 4.536557769775390625e+01 -1.144957542419433594e+00 -9.943380076564076187e-14 1.861402606486914357e-13 2.601193627084930765e-14 -2.826001422890495052e-14
1.559000000000000000e+03 4.461417007446289062e+01 -1.158490896224975586e+00 -9.919557444329138440e-14 9.474045896754046403e-14 -1.336535934450520675e-15 3.349106609444943428e-14
1.560000000000000000e+03 4.392131423950195312e+01 -4.671917557716369629e-01 -1.899302519729403893e-13 -1.271496335953845036e-13 -9.512396160473932105e-14 1.438700368691300802e-13
1.561000000000000000e+03 3.659029245376586914e+00 4.815681457519531250e+00 2.027887508252151222e-14 -8.281094858236456857e-14 -1.875962323579904306e-14 -2.693490572182495602e-14
1.562000000000000000e+03 4.452429771423339844e+00 4.713728427886962891e+00 -1.333783564415888870e-14 -2.802219177186482391e-13 -8.806791965609503392e-14 9.788381178732832866e-14
1.563000000000000000e+03 3.798669576644897461e+00 7.365326404571533203e+00 -1.448504131310729415e-13 -6.207874654867023834e-14 -6.207874654867023834e-14 1.575650417431906369e-13
1.564000000000000000e+03 5.344123363494873047e+00 5.326119899749755859e+00 8.776153259248010291e-15 -1.911426576641905156e-14 -3.101433794502959744e-15 5.708577870393999332e-14
1.565000000000000000e+03 5.229616641998291016e+00 4.649542808532714844e+00 -5.251175335492172525e-14 -2.250503691009989732e-14 -2.250503691009989732e-14 -5.220668935677040545e-14
1.566000000000000000e+03 8.296289443969726562e+00 4.510723590850830078e+00 -1.089100055799707700e-13 2.278299890325768962e-13 3.567599097002369102e-14 -2.990548753729546649e-14
1.567000000000000000e+03 6.090603351593017578e+00 5.283873558044433594e+00 -8.114508549686774708e-14 -1.262783687295751522e-13 -6.222703830081194321e-14 -3.770570214021128075e-14
1.568000000000000000e+03 8.899533271789550781e+00 4.425854682922363281e+00 2.651350852463183611e-14 -1.258899126437007521e-13 -2.981292038868772754e-14 -5.807599410059816059e-14
1.569000000000000000e+03 6.854650497436523438e+00 5.288456916809082031e+00 3.667336548915205163e-14 1.072190567667080652e-13 4.316772633794485614e-14 1.529874724083210569e-13
1.570000000000000000e+03 5.722497463226318359e+00 9.636732101440429688e+00 -5.354778815182866664e-15 2.607730383626799542e-13 7.662548032064467329e-14 2.690395513793228388e-14
1.571000000000000000e+03 4.343633174896240234e+00 2.907780838012695312e+01 -4.286600303773750731e-14 -1.556239945937898383e-13 -5.954699895064502480e-14 -2.098091462393071593e-14
1.572000000000000000e+03 7.596672058105468750e+01 3.089600753784179688e+01 -2.686467483203631296e-14 4.002451039868126781e-13 1.120141306099053935e-13 -1.254781817865016982e-14
1.573000000000000000e+03 9.940182685852050781e+00 9.916327476501464844e+00 -4.978606909329316710e-14 3.446707166638446340e-13 8.846538817252821985e-14 -1.551756634429399262e-13
1.574000000000000000e+03 7.611563873291015625e+01 3.323112487792968750e+01 5.653568162667516050e-14 2.072333732568154563e-13 7.913071917555261625e-14 -1.700874514745220195e-14
1.575000000000000000e+03 7.487050628662109375e+01 3.163408088684082031e+01 -3.981491921095994813e-14 2.803176256654243970e-13 7.215081532447112367e-14 1.358443319312598041e-14
1.576000000000000000e+03 7.682215213775634766e+00 2.081567001342773438e+01 1.466690572433319156e-14 9.778771081726464476e-14 3.373638716476501376e-14 1.159509500133631965e-13
1.577000000000000000e+03 4.234313964843750000e+00 2.830212211608886719e+01 -3.721447046464883279e-14 6.926416261561225279e-15 -9.086415498596629725e-15 -3.198990348334852796e-14
1.578000000000000000e+03 3.310087919235229492e+00 6.424068450927734375e+00 -4.347676461468469311e-14 -1.330102748862277418e-13 -5.294611185027373046e-14 3.697158884922134570e-14
1.579000000000000000e+03 7.446296691894531250e+01 3.045552635192871094e+01 -3.856423440675750547e-14 3.151668379400285325e-13 8.298078207642084481e-14 -5.296564104190562561e-14
1.580000000000000000e+03 7.513954162597656250e+01 2.916161918640136719e+01 -1.833541050108924986e-14 3.352740719601843278e-13 9.508160318111302800e-14 -7.908196057097686971e-15
1.581000000000000000e+03 7.530473327636718750e+01 2.592690658569335938e+01 -2.075985935348807765e-14 2.656086071570196161e-13 7.345462264699356703e-14 -6.120986015137677705e-14
1.582000000000000000e+03 7.529805755615234375e+01 2.505334854125976562e+01 -2.062186243978730155e-14 2.427922771684742909e-13 6.665112526563904405e-14 7.672391401944509554e-15
1.583000000000000000e+03 4.035631179809570312e+00 2.437803268432617188e+01 5.552250147275103465e-14 9.242178420146296425e-14 4.438328637989055747e-14 -1.435627604209205321e-13
1.584000000000000000e+03 7.621845245361328125e+01 2.760973167419433594e+01 -5.807602120565247272e-14 2.267405013745005249e-13 5.059934269540170004e-14 1.002868374824252007e-13
1.585000000000000000e+03 7.535362243652343750e+01 2.679202461242675781e+01 5.746014439673681820e-15 2.312173347750190455e-13 7.108900192684744490e-14 4.136846572765084940e-14
1.586000000000000000e+03 7.600381469726562500e+01 5.888226032257080078e+00 -1.978160533259456198e-15 -1.152251579740470877e-13 -3.516099493809307641e-14 1.099373125493892031e-14
1.587000000000000000e+03 7.603730010986328125e+01 5.098205089569091797e+00 -1.703177258515625736e-13 8.713500434425272556e-14 -2.495481712981931222e-14 2.425315265459915270e-13
1.588000000000000000e+03 7.539886474609375000e+01 2.336428451538085938e+01 -1.656335828312694575e-14 1.987806891746296545e-13 5.466519909804422317e-14 5.839930064733449624e-15
1.589000000000000000e+03 1.097119903564453125e+01 5.303244113922119141e+00 -1.284337897535306472e-13 -5.504305371955078852e-14 -5.504305371955078852e-14 1.263758164820249705e-14
1.590000000000000000e+03 1.092179203033447266e+01 6.026519775390625000e+00 -1.094137394618346915e-13 -4.689160165846292805e-14 -4.689160165846292805e-14 -2.095454208371136384e-13
1.591000000000000000e+03 5.384416580200195312e+00 2.959895706176757812e+01 -4.954471467826957951e-15 -9.362524183665829614e-14 -2.957391479602687612e-14 1.556309876978023699e-14
1.592000000000000000e+03 7.590772247314453125e+01 1.231279945373535156e+01 -3.812217807598085317e-14 2.581676192270343506e-13 6.601362794074472351e-14 -4.266012659770966609e-14
1.593000000000000000e+03 7.590876007080078125e+01 1.151574134826660156e+01 -3.514608715822140073e-14 1.221902353604198410e-13 2.611324479947271099e-14 1.389368356691580986e-13
1.594000000000000000e+03 7.548886108398437500e+01 2.254887008666992188e+01 1.572342686010242546e-14 3.041197664793021671e-13 9.595296291461247185e-14 3.107363406298566111e-14
1.595000000000000000e+03 7.567165374755859375e+01 2.095986938476562500e+01 6.478831007924665264e-14 1.878947437092617911e-13 7.580491545892617533e-14 -1.186268965003289821e-13
1.596000000000000000e+03 3.922051191329956055e+00 2.204883193969726562e+01 5.458950738684463164e-15 9.384144530237906179e-14 2.979011826174764177e-14 -5.482876116015902856e-14
1.597000000000000000e+03 7.579853057861328125e+01 1.708836174011230469e+01 4.870346611901207878e-14 2.038767104358546467e-13 7.577404957832822863e-14 -7.118794384541621972e-15
1.598000000000000000e+03 7.609072113037109375e+01 3.562455415725708008e+00 -2.071489410126331476e-13 -4.302716630254568853e-14 -7.505283151692729304e-14 1.907317619814774545e-13
1.599000000000000000e+03 7.591954040527343750e+01 9.107081413269042969e+00 -3.785162389416656809e-15 1.813815888934353082e-13 5.327892464777710113e-14 -1.737416193716128515e-14
1.600000000000000000e+03 7.581805419921875000e+01 1.549587059020996094e+01 3.471635007462961497e-14 4.266369701098893241e-13 1.384059967329820395e-13 1.058511256619466823e-13
1.601000000000000000e+03 7.651176452636718750e+01 2.024409675598144531e+01 -8.226877803942014150e-15 -3.525804712615652689e-15 -3.525804712615652689e-15 3.121019949100557744e-14
1.602000000000000000e+03 7.608285522460937500e+01 2.806194782257080078e+00 -3.769347572783743328e-13 -7.004157453679993317e-14 -1.340929049655631422e-13 1.015321317689513170e-13
1.603000000000000000e+03 7.606996917724609375e+01 4.324733734130859375e+00 -5.483921693485993565e-14 -2.350252154351140099e-14 -2.350252154351140099e-14 -6.484204584942046545e-14
1.604000000000000000e+03 7.593147277832031250e+01 8.298417091369628906e+00 -1.180707821010068548e-13 1.781529839015721928e-13 1.802465782966417018e-14 1.359627064797044871e-13
1.605000000000000000e+03 7.665737152099609375e+01 9.902171134948730469e+00 3.302633553870773161e-15 2.301701581067239211e-13 7.004183881107947651e-14 3.393994612264916722e-14
1.606000000000000000e+03 7.591217041015625000e+01 9.915880203247070312e+00 -1.355524037200545040e-13 2.164118087207358987e-13 2.425782082257806060e-14 9.076231113252022920e-14
1.607000000000000000e+03 7.590894317626953125e+01 1.071886444091796875e+01 1.248194527337515014e-14 1.883531985978972867e-13 6.025054451663444666e-14 -7.202502076740849302e-14
1.608000000000000000e+03 3.797213315963745117e+00 1.716154670715332031e+01 -1.498529524481071601e-14 -6.422269451135517379e-15 -6.422269451135517379e-15 1.914254226729724187e-15
1.609000000000000000e+03 3.342747926712036133e+00 1.666878700256347656e+01 6.624933349304307217e-14 2.571473036675625545e-13 9.701899792444526605e-14 -5.593243492603601486e-14
1.610000000000000000e+03 3.368230581283569336e+00 2.602534484863281250e+01 -9.538492229139300393e-14 -1.800377846751435168e-14 -3.401661276877104845e-14 -9.037886948169357448e-14
1.611000000000000000e+03 7.533145904541015625e+01 2.419733238220214844e+01 1.139419826800538646e-14 3.480153448406908545e-13 1.078228625090923987e-13 -4.365581721533888515e-14
1.612000000000000000e+03 3.245136976242065430e+00 1.812164497375488281e+01 9.142706936578898214e-14 -5.231886701217297597e-14 1.173246172252433855e-14 3.439081837234084227e-14
1.613000000000000000e+03 7.658740234375000000e+01 1.549856758117675781e+01 4.593904195850789796e-14 2.026919620643982678e-13 7.458930120687184973e-14 -7.928194504982361002e-14
1.614000000000000000e+03 7.580256652832031250e+01 1.629228591918945312e+01 -2.400096485758677206e-14 8.121576870225022393e-14 1.716444166161880391e-14 7.869072960516726445e-14
1.615000000000000000e+03 5.967325687408447266e+00 8.686629295349121094e+00 -1.851514818199118118e-13 -1.022261092507685543e-13 -8.621327664357775200e-14 2.030241751625749824e-14
1.616000000000000000e+03 4.882257938385009766e+00 1.633131027221679688e+01 6.925321725586783272e-14 -5.610307818358986620e-14 3.945040705243853252e-15 1.016592409211480863e-13
1.617000000000000000e+03 3.841379880905151367e+00 8.446529388427734375e+00 -1.347829064747259678e-14 -9.727830520278590853e-14 -3.322697816215448852e-14 9.949961861377421002e-14
1.618000000000000000e+03 3.199438095092773438e+00 2.128702735900878906e+01 -5.022592313840695821e-14 -6.727634400092996625e-14 -3.525067878654836173e-14 -4.796563943558138088e-14
1.619000000000000000e+03 3.943273544311523438e+00 1.895265769958496094e+01 1.047541299038258489e-13 -1.152336960661554111e-13 -3.143868451094505682e-15 4.298191441437157478e-14
1.620000000000000000e+03 3.220271825790405273e+00 1.892230415344238281e+01 -1.050979913990932046e-13 -1.365438930542653417e-13 -7.249256262550213270e-14 -7.457718524759432421e-14
1.621000000000000000e+03 3.197698831558227539e+00 2.050253486633300781e+01 5.784493706511434352e-14 7.054163568380455995e-14 3.851597385755474445e-14 -2.399709391701781991e-13
1.622000000000000000e+03 7.589716339111328125e+01 1.311282444000244141e+01 -7.492832275587859442e-15 1.797925821894405529e-13 5.168992472004592387e-14 -5.903856911812152553e-14
1.623000000000000000e+03 4.079400539398193359e+00 2.517300224304199219e+01 -4.336119543936131637e-14 7.291852533028095329e-14 8.867199136682480526e-15 -7.809157915586104060e-14
1.624000000000000000e+03 4.308951377868652344e+00 1.305361652374267578e+01 1.046924116951571115e-13 -2.410752532929633096e-13 -4.091485247934185943e-14 7.418648621847559466e-14
1.625000000000000000e+03 4.810784339904785156e+00 9.447484016418457031e+00 -6.107808215357474202e-14 -2.617632164898884423e-14 -2.617632164898884423e-14 3.500516459272080827e-14
1.626000000000000000e+03 7.364484405517578125e+01 3.204563140869140625e+01 3.552377914940209325e-14 4.041075471212379755e-13 1.318893995752579151e-13 -3.404989777546635343e-14
1.627000000000000000e+03 7.584373474121093750e+01 1.470217514038085938e+01 -5.914900866191633022e-14 6.615232450365993166e-14 2.100992804347301748e-15 2.128752191611193306e-15
1.628000000000000000e+03 7.587334442138671875e+01 1.390991592407226562e+01 -5.872610205201120315e-14 3.865902010406069289e-13 9.835923443996322235e-14 3.753740008172364029e-14
1.629000000000000000e+03 7.428252410888671875e+01 2.063423097133636475e-01 -5.064164148790850639e-13 1.171914890569234272e-14 -1.484091712369850491e-13 -9.574354926499689666e-14
1.630000000000000000e+03 7.670695495605468750e+01 6.685827255249023438e+00 6.619630245428137494e-14 2.836984560304362663e-14 2.836984560304362663e-14 2.627156033951222325e-14
1.631000000000000000e+03 4.142065048217773438e+00 9.836318969726562500e+00 -1.306531109430270066e-13 -2.389979761405897074e-13 -1.108953288355904454e-13 1.673350450174734827e-13
1.632000000000000000e+03 3.942612171173095703e+00 1.974160957336425781e+01 -1.861426729985252160e-14 -5.372849246673000456e-14 -2.170282725234840004e-14 -2.017593991182620172e-13
1.633000000000000000e+03 4.602435588836669922e+00 1.455310440063476562e+01 2.226334757824896537e-13 3.012936037813385148e-13 1.571781306454120286e-13 1.821917047567164771e-13
1.634000000000000000e+03 3.385321617126464844e+00 1.472100639343261719e+01 -1.056553915944292640e-14 -9.602998870270398890e-14 -3.197865827394077987e-14 -1.036229783891399331e-14
1.635000000000000000e+03 3.827756404876708984e+00 1.612196922302246094e+01 -2.605838078141315545e-14 -1.712962047597035853e-13 -5.920637650936796947e-14 7.196597918285307927e-14
1.636000000000000000e+03 7.558414459228515625e+01 2.174728202819824219e+01 7.701012645232232362e-15 1.863042326747527122e-13 5.820157181722629414e-14 -8.581505596188740426e-14
1.637000000000000000e+03 7.580313110351562500e+01 1.787318420410156250e+01 7.017257580538933601e-15 4.875834368959879039e-14 1.673268016928308038e-14 6.980952139057014505e-14
1.638000000000000000e+03 3.894352436065673828e+00 2.052710151672363281e+01 8.670103887218824634e-14 1.286594799882606610e-13 6.460815633576103001e-14 1.067530277094582217e-14
1.639000000000000000e+03 4.393997192382812500e+00 3.499112701416015625e+01 1.020397281210547180e-13 -1.850234375433412737e-13 -2.489511147143325109e-14 7.671154564434928824e-14
1.640000000000000000e+03 4.017268180847167969e+00 3.237392425537109375e+01 3.217113126461126904e-14 -1.692161628917901450e-13 -4.111350881052730499e-14 -2.824947417442579163e-15
1.641000000000000000e+03 3.229417085647583008e+00 7.835004806518554688e+00 -8.829049958584272995e-14 -1.750916306473421225e-13 -7.901464178046088693e-14 1.279413451267877311e-13
1.642000000000000000e+03 3.939707994461059570e+00 9.100221633911132812e+00 -3.187684194906549758e-15 -1.386190018022939729e-13 -4.254200277101737038e-14 5.648744818252671163e-14
1.643000000000000000e+03 7.597371673583984375e+01 6.689294815063476562e+00 -1.351118381672650193e-13 1.022232428912750457e-13 -9.866578582796992070e-15 2.185672297446913936e-13
1.644000000000000000e+03 7.501115417480468750e+01 1.710169410705566406e+01 -7.402403207545579789e-14 1.055282638075076551e-13 9.451269011395788816e-15 9.014096841999594267e-14
1.645000000000000000e+03 4.144990444183349609e+00 2.675278854370117188e+01 -6.548572312669795337e-14 1.768563966878921451e-14 -1.434002554559239001e-14 7.633929838095354636e-14
1.646000000000000000e+03 3.419233083724975586e+00 2.760353469848632812e+01 -1.002440453779299134e-13 2.789216391353840571e-15 -2.923644670544539581e-14 -1.909650179144923438e-14
1.647000000000000000e+03 7.592137908935546875e+01 -8.072081208229064941e-01 -3.457410681535766361e-13 3.482904950232769414e-14 -9.327360796706693491e-14 -1.904569980459153156e-13
1.648000000000000000e+03 7.601889801025390625e+01 2.048574209213256836e+00 -4.025881190916624774e-13 -1.267868188908893856e-13 -1.588124841052709901e-13 1.474516445358273198e-13
1.649000000000000000e+03 7.542487335205078125e+01 6.466303467750549316e-01 -2.275684523635190804e-13 2.370244842411772801e-13 2.836802067055876724e-15 -4.497286874502459675e-14
1.650000000000000000e+03 7.594915771484375000e+01 7.493138790130615234e+00 1.773414416348078476e-14 7.622677174797670707e-14 2.818827392640430030e-14 1.062053700870814812e-14
1.651000000000000000e+03 3.993025541305541992e+00 2.359149360656738281e+01 -1.469617579485851117e-14 3.945258900931065960e-14 7.426923794929055078e-15 -8.050380024063330531e-14
1.652000000000000000e+03 4.117566108703613281e+00 2.597106552124023438e+01 -1.574288553624146169e-15 -1.836784847483730054e-13 -5.557583405524195441e-14 -1.429291696119789484e-14
1.653000000000000000e+03 7.414041900634765625e+01 2.930472946166992188e+01 -4.533041829271958201e-14 3.465802677401347287e-13 9.037495280134547060e-14 -6.437946421626594695e-14
1.654000000000000000e+03 7.529146575927734375e+01 2.832721900939941406e+01 -1.181831325511306652e-13 2.238557782066954993e-13 3.170179369666945024e-14 4.614268561968677684e-14
1.655000000000000000e+03 7.672251129150390625e+01 -1.493930101394653320e+00 -3.443514191240476530e-13 -1.475791738163659272e-13 -1.475791738163659272e-13 -3.210751434688796646e-13
1.656000000000000000e+03 4.508327484130859375e+00 2.984141731262207031e+01 -7.607372983506680009e-14 -1.469803960615564953e-13 -6.691623980186606202e-14 1.811278652562829661e-14
1.657000000000000000e+03 4.711524963378906250e+00 3.061049461364746094e+01 -2.053255975615828066e-14 -3.167514265201704093e-14 -1.566231004482623868e-14 -1.779717019102008274e-14
1.658000000000000000e+03 7.654405975341796875e+01 3.561338424682617188e+01 -7.056091923588175135e-15 5.002364082858090644e-13 1.479540909276114147e-13 -5.531320640774807507e-14
1.659000000000000000e+03 7.470770263671875000e+01 3.369712448120117188e+01 2.066161030787015684e-14 1.232323433835585957e-13 4.316818712386816248e-14 -5.242640631515638194e-14
1.660000000000000000e+03 6.320621490478515625e+00 1.883028411865234375e+01 7.723945045839605839e-14 2.161064160738010442e-13 8.800376199253820420e-14 6.478941461020987225e-14
1.661000000000000000e+03 6.755827426910400391e+00 2.020414924621582031e+01 -6.403659205548098421e-14 2.013104852087443941e-13 4.118216930123173858e-14 1.116098790536305951e-13
1.662000000000000000e+03 2.023310852050781250e+01 1.094121837615966797e+01 -1.231614230089508877e-13 -2.586627472541541684e-13 -1.145472470131733700e-13 3.364789255056767348e-14
1.663000000000000000e+03 6.710579395294189453e+00 1.396387100219726562e+01 1.024277098684786558e-13 4.785316023644958783e-13 1.742877896041342134e-13 4.708012747559921218e-14
1.664000000000000000e+03 1.965351295471191406e+01 1.328880310058593750e+01 8.374908161716196342e-14 -3.072396395457921425e-13 -6.704717076672084275e-14 8.256501087206338796e-14
1.665000000000000000e+03 2.001785850524902344e+01 1.172057342529296875e+01 5.341315226486259560e-14 -2.744898221478803135e-13 -6.632299825439988417e-14 3.081180940272577884e-14
1.666000000000000000e+03 2.046185874938964844e+01 1.410290050506591797e+01 2.811306756508348548e-14 -3.082081844515277558e-13 -8.402853472712010219e-14 5.207686292287884433e-14
1.667000000000000000e+03 1.596224880218505859e+01 1.943802070617675781e+01 -1.380828197822866338e-14 -1.603272907230862687e-13 -5.224067231861424798e-14 6.055243298826651008e-15
1.668000000000000000e+03 1.392252159118652344e+01 1.929705047607421875e+01 -5.942466706427076972e-14 -1.627205585986307712e-13 -6.664356973174953569e-14 1.133528289135911360e-13
1.669000000000000000e+03 2.137372779846191406e+01 4.172246456146240234e+00 -1.409401295757867212e-13 -2.434066945396218262e-13 -1.153040472346225642e-13 -8.439158660084045138e-14
1.670000000000000000e+03 2.193435287475585938e+01 5.951195240020751953e+00 5.978379548137943700e-14 2.086254210836510636e-13 8.052276700238822360e-14 -2.160590466032587947e-14
1.671000000000000000e+03 2.098367118835449219e+01 7.661551952362060547e+00 -6.648724980133375456e-15 -9.435135236036257256e-14 -3.030002193159936352e-14 6.329890089732184699e-14
1.672000000000000000e+03 2.111593055725097656e+01 6.800994396209716797e+00 -1.294636496802521047e-14 -1.428012845776024942e-13 -4.672429571072125865e-14 -5.727844142999066746e-14
1.673000000000000000e+03 6.565337181091308594e+00 1.476179218292236328e+01 1.381581481163518532e-13 6.997239159617363313e-13 2.513646300654481802e-13 8.501027979430572645e-14
1.674000000000000000e+03 2.137417030334472656e+01 2.464582204818725586e+00 -1.070264008169209691e-13 6.850891246445653393e-14 -1.155524633633274109e-14 -2.104885852476177238e-14
1.675000000000000000e+03 2.272621726989746094e+01 5.072824001312255859e+00 1.109818651096137337e-14 9.625826069385723383e-14 3.220693365322581381e-14 -2.557762520934234868e-14
1.676000000000000000e+03 2.135214614868164062e+01 1.657994866371154785e+00 -7.608932201755985725e-14 1.314123929710116559e-14 -1.888442507024749167e-14 -7.827067580222848986e-14
1.677000000000000000e+03 1.322952556610107422e+01 2.153016090393066406e+01 1.162503931008765368e-13 4.070650609123982466e-15 3.609631582350558698e-14 9.332968154817516959e-15
1.678000000000000000e+03 1.110730552673339844e+01 2.183190917968750000e+01 1.498572316585566888e-13 -4.401894278092564547e-15 4.363660311996336860e-14 7.334275331158379707e-14
1.679000000000000000e+03 2.009936332702636719e+01 8.444026947021484375e+00 -7.889381422460095550e-14 -7.956258400590790480e-14 -4.753691879152630029e-14 6.072856247821972753e-14
1.680000000000000000e+03 2.064720153808593750e+01 9.338038444519042969e+00 -1.231157916500164040e-13 -2.357677041878863955e-13 -1.076650501066235555e-13 -9.558845583828873976e-15
1.681000000000000000e+03 1.652726173400878906e+01 1.913033485412597656e+01 -6.082894604686472917e-14 -2.548242920927951127e-13 -9.469597279715066818e-14 9.089832429505853573e-15
1.682000000000000000e+03 1.453517532348632812e+01 1.985452270507812500e+01 -7.553284170000451603e-14 -2.153750132882423229e-13 -8.727235243071590487e-14 5.847884297031230583e-14
1.683000000000000000e+03 2.080645370483398438e+01 1.179244232177734375e+01 -1.081325919647171951e-13 -2.750972735200696295e-13 -1.149689610006887630e-13 6.491294589523743941e-14
1.684000000000000000e+03 2.183222579956054688e+01 6.834597587585449219e+00 -8.154025008368440131e-14 -3.094515203978798201e-13 -1.172975291115901930e-13 5.308836256343561766e-14
1.685000000000000000e+03 2.171407127380371094e+01 7.705717086791992188e+00 8.591089943393512285e-14 -5.468294274422330625e-14 9.368386837506955528e-15 -1.077579865615962973e-13
1.686000000000000000e+03 1.811335372924804688e+01 1.756700134277343750e+01 -1.024987860971486586e-13 -2.498073091699443138e-13 -1.056918292577542495e-13 1.695942648469173086e-13
1.687000000000000000e+03 1.963735961914062500e+01 1.576628780364990234e+01 -1.024707865760442205e-13 -2.269198419663567834e-13 -9.881718788509394336e-14 5.114406619564915157e-14
1.688000000000000000e+03 2.044648933410644531e+01 1.014990329742431641e+01 1.249262330952141675e-13 -2.895922976246800840e-13 -4.939982206934520614e-14 4.283131534448154920e-14
1.689000000000000000e+03 4.295515060424804688e+00 3.408042907714843750e+01 2.760192045086519441e-14 -2.398008278493152234e-13 -6.365966917021639859e-14 -4.770935775892833075e-14
1.690000000000000000e+03 1.589924931526184082e+00 4.109949111938476562e+01 3.735462392423331834e-14 -1.212437268638399956e-13 -2.516672952662928758e-14 -1.473673850863662510e-14
1.691000000000000000e+03 7.445458984375000000e+01 3.503998947143554688e+01 2.837500403369240531e-14 3.095418886489564869e-13 1.013750647554760576e-13 7.293047865923260598e-14
1.692000000000000000e+03 5.595487594604492188e+00 3.631201934814453125e+01 6.952450496821444004e-14 -5.026794274885434954e-14 5.776967988181669345e-15 7.275401797939701209e-14
1.693000000000000000e+03 6.873917102813720703e+00 5.917685985565185547e+00 -6.810100172584959699e-14 6.231575314357556961e-14 -1.735573155902021564e-15 1.667195298916263058e-14
1.694000000000000000e+03 9.436917304992675781e+00 9.593723297119140625e+00 -2.086488635674992737e-14 3.570655056350791057e-13 1.008601839200262695e-13 -1.323665840564230978e-13
1.695000000000000000e+03 2.315211296081542969e+01 -1.710583865642547607e-01 -1.012165747266494109e-13 1.167497901740505162e-13 4.659963617780794876e-15 5.285569277722022841e-14
1.696000000000000000e+03 2.244297218322753906e+01 -7.687664031982421875e-01 1.331933475052496027e-14 1.887120830695171447e-13 6.060942221199072666e-14 -6.040844585756275156e-15
1.697000000000000000e+03 2.253527259826660156e+01 -4.430517554283142090e-02 -6.816316716791448460e-14 8.516458209224114784e-14 5.100424985517767323e-15 4.714244030139692204e-15
1.698000000000000000e+03 2.192123985290527344e+01 6.795696914196014404e-02 -4.456596428155899792e-14 3.775775146778711025e-15 -1.223705703689561761e-14 -2.797101675169715029e-14
1.699000000000000000e+03 1.026766204833984375e+01 7.792159557342529297e+00 -2.536477006486207927e-15 -2.396253666683573896e-14 -7.949704059644936704e-15 -2.121451479113536931e-13
1.700000000000000000e+03 2.625126838684082031e+01 -1.460914492607116699e+00 -4.258518112253660559e-14 -1.555036346001167913e-13 -5.942664573323555577e-14 -3.436244615673961222e-14
1.701000000000000000e+03 2.504036140441894531e+01 -5.478406548500061035e-01 5.061605296138513288e-14 2.504473408174168192e-13 9.031901474550879660e-14 -1.990861326435413442e-14
1.702000000000000000e+03 2.452497482299804688e+01 3.653440475463867188e-01 -1.371215813827540361e-14 -5.876639202118030120e-15 -5.876639202118030120e-15 6.396473655649950740e-14
1.703000000000000000e+03 2.558295440673828125e+01 -1.378535270690917969e+00 -4.352829471106385573e-15 2.268892403600383800e-13 6.676092784065751351e-14 -1.530944628339546421e-14
1.704000000000000000e+03 2.770773124694824219e+01 -8.760504722595214844e-01 -2.344636537669080902e-15 9.049705429475807250e-14 2.644572556006075797e-14 4.030011323567436743e-14
1.705000000000000000e+03 2.917101097106933594e+01 -2.472041547298431396e-01 -4.555643039996955246e-14 -1.567770300517010162e-13 -6.070004118481978073e-14 1.057641116613411425e-13
1.706000000000000000e+03 2.831390190124511719e+01 -1.578458428382873535e+00 4.688305001382744863e-14 1.115946324605800177e-13 4.754330541994859771e-14 4.532343196497062854e-14
1.707000000000000000e+03 8.595711708068847656e+00 2.148195266723632812e+01 2.390064905157755076e-14 1.017450351943095799e-13 3.769370476554637084e-14 1.481506296764287245e-13
1.708000000000000000e+03 9.308066368103027344e+00 2.132346916198730469e+01 6.738680387351550505e-14 2.576348151744206616e-13 9.750648232624906098e-14 5.003098358779406452e-14
1.709000000000000000e+03 3.187771606445312500e+01 -1.557624816894531250e+00 -2.045501219577125496e-14 3.698451457199644632e-14 4.958851051680736310e-15 -1.716053379041335147e-13
1.710000000000000000e+03 9.980653762817382812e+00 8.429679870605468750e+00 -4.898385096521219728e-14 2.992635707386309685e-13 7.508391423795973685e-14 -6.446564473645138849e-14
1.711000000000000000e+03 7.987786293029785156e+00 9.988103866577148438e+00 -1.068335890130715782e-13 2.801896898090711074e-13 5.200683023879985878e-14 5.785529119586158009e-14
1.712000000000000000e+03 7.009000778198242188e+00 1.220325946807861328e+01 -3.829461704338288364e-14 2.781097563613749157e-13 7.194453908489217842e-14 2.952119885352155748e-14
1.713000000000000000e+03 2.978579139709472656e+01 -9.240495562553405762e-01 2.942674451550733594e-14 1.041133596436233377e-13 4.006203260299191771e-14 1.366215625873967721e-13
1.714000000000000000e+03 3.115639686584472656e+01 -1.573692798614501953e+00 1.387124701939575905e-14 5.944820272174317771e-15 5.944820272174317771e-15 -1.204633452451392417e-13
1.715000000000000000e+03 3.334739685058593750e+01 -1.513723969459533691e+00 -7.886586891360514162e-14 -3.379965713779312098e-14 -3.379965713779312098e-14 -5.048121886870940433e-14
1.716000000000000000e+03 3.193395423889160156e+01 -8.845167756080627441e-01 -6.529802740184997845e-14 -7.373581725669126063e-14 -4.171015543044144513e-14 -5.114573993275292607e-14
1.717000000000000000e+03 3.266349792480468750e+01 -8.616669178009033203e-01 2.039407325741399157e-14 -3.701063029182619091e-14 -4.984967195026954526e-15 -4.115916049825252276e-14
1.718000000000000000e+03 3.561806869506835938e+01 -7.589432597160339355e-01 -2.086934276649202169e-13 -8.944003849174764209e-14 -8.944003849174764209e-14 -4.398252798749023584e-14
1.719000000000000000e+03 8.915165901184082031e+00 9.444312095642089844e+00 2.855427008664930544e-14 5.154979633263667704e-13 1.632156730732234329e-13 -1.800634565497089001e-13
1.720000000000000000e+03 7.084294128417968750e+01 -4.808080494403839111e-01 -3.264426760591493393e-13 -1.399039982171237928e-13 -1.399039982171237928e-13 -1.284493751597601263e-13
1.721000000000000000e+03 7.010867309570312500e+01 -4.561885297298431396e-01 -2.345064789056883203e-13 -1.920046830946112171e-13 -1.279533526658480080e-13 -5.548717003445516327e-14
1.722000000000000000e+03 3.487368392944335938e+01 -7.849322557449340820e-01 5.446000981349484200e-16 -1.370194512321717961e-13 -4.094245558902698257e-14 3.720271703547273212e-14
1.723000000000000000e+03 6.490856933593750000e+01 3.144146203994750977e-01 -1.474055523909695298e-13 2.113318878617723162e-13 1.917789826954858362e-14 1.247673297143092608e-13
1.724000000000000000e+03 6.638789367675781250e+01 -4.153571724891662598e-01 -2.671334833025118538e-13 -1.144857863025205980e-13 -1.144857863025205980e-13 -1.005477209832015650e-16
1.725000000000000000e+03 6.564588165283203125e+01 -4.098472297191619873e-01 -2.969616740011726819e-13 1.472364032995346350e-13 -4.491757443422783602e-14 4.063438631797880451e-14
1.726000000000000000e+03 6.786928558349609375e+01 -1.116089105606079102e+00 -2.011486951395552447e-13 -4.045563864918562402e-14 -7.248130047543543952e-14 -5.111665620947600241e-14
1.727000000000000000e+03 5.814695739746093750e+01 3.795953989028930664e-01 -1.041039745185677601e-13 9.263685603116619816e-14 -3.440134953297405498e-15 3.208088498627900687e-14
1.728000000000000000e+03 5.963215255737304688e+01 -3.488636612892150879e-01 -3.047046122361951603e-13 -3.908579324996344639e-14 -1.031371236787266554e-13 -3.696889867258086604e-14
1.729000000000000000e+03 5.586389541625976562e+01 -1.046742558479309082e+00 -1.416793792745688063e-13 1.680350194925572804e-13 7.906691726583363333e-15 7.212509262792890508e-14
1.730000000000000000e+03 3.781595230102539062e+01 -1.366214036941528320e+00 -1.187448712492225611e-13 -2.338944467793202531e-13 -1.057917994743209911e-13 2.294722707208221579e-14
1.731000000000000000e+03 3.493796539306640625e+01 -9.601996093988418579e-02 -1.866680096086759111e-13 -1.715024742230189525e-13 -1.074511437942557435e-13 1.327955350934398315e-13
1.732000000000000000e+03 5.813542556762695312e+01 -3.452930450439453125e-01 -2.724224383403306415e-13 -2.525057054181441274e-14 -8.930189758244583276e-14 2.258044486526215866e-14
1.733000000000000000e+03 6.038225173950195312e+01 -3.501897156238555908e-01 -3.316190909114641316e-13 8.663228012566193126e-14 -7.349603916998251329e-14 -4.361246606909841006e-14
1.734000000000000000e+03 6.415004730224609375e+01 -3.832813203334808350e-01 -2.283937741622693585e-13 -5.213210302356698078e-14 -8.415776484981679628e-14 3.001645901778114689e-15
1.735000000000000000e+03 6.339717102050781250e+01 -3.693198859691619873e-01 -2.298599678651758182e-13 8.449237674530013509e-14 -4.361027733596270495e-14 8.200009410635339391e-14
1.736000000000000000e+03 6.264288330078125000e+01 -3.586543202400207520e-01 -1.794015917809879679e-13 -1.226373467838257070e-13 -9.061168156944410246e-14 -8.550123364306147500e-15
1.737000000000000000e+03 6.713091278076171875e+01 -4.183360040187835693e-01 -2.970614477060956604e-13 -8.156110064671401316e-14 -1.135867590848320396e-13 3.766451601018398765e-14
1.738000000000000000e+03 5.511285018920898438e+01 -1.051538109779357910e+00 -2.193058018171156753e-13 -2.486305550954441210e-15 -6.653763640323412387e-14 1.705342410254079288e-13
1.739000000000000000e+03 5.437682342529296875e+01 -3.616921901702880859e-01 -1.251055601345432700e-13 1.751380751579059702e-13 1.500975586226152569e-14 -6.801447561622167570e-14
1.740000000000000000e+03 5.738430404663085938e+01 -3.411923348903656006e-01 -2.111342378057282088e-13 -2.734898895892512449e-13 -1.453872422842519829e-13 -6.110596054896772281e-15
1.741000000000000000e+03 6.936543273925781250e+01 -4.370667338371276855e-01 -3.216080559417106022e-13 -2.293339129710858515e-13 -1.652825960948497985e-13 -4.325921267251189861e-14
1.742000000000000000e+03 7.374058532714843750e+01 -1.125612854957580566e+00 -2.669312253872346830e-13 3.431103871073121203e-13 2.285374851602323121e-14 -4.345524658969264487e-15
1.743000000000000000e+03 7.227656555175781250e+01 -5.093144774436950684e-01 -2.529500860073280455e-13 -1.541581397040622803e-13 -1.221324744896806758e-13 -1.650508207754267098e-13
1.744000000000000000e+03 5.512549591064453125e+01 -3.499788045883178711e-01 -2.823947130824178142e-13 -1.210263036706751838e-13 -1.210263036706751838e-13 1.854369251468729329e-13
1.745000000000000000e+03 3.856768798828125000e+01 -1.341445922851562500e+00 -1.142974061750512416e-13 -3.692412315573628812e-13 -1.450615886092188056e-13 7.696543868809108124e-14
1.746000000000000000e+03 5.663124847412109375e+01 -3.390216529369354248e-01 -1.623812575287514326e-13 -2.384102132022263704e-14 -5.586668484053834705e-14 1.016836083649746980e-13
1.747000000000000000e+03 7.445938873291015625e+01 -1.062907814979553223e+00 -3.514006848091139057e-13 7.815444932933804378e-14 -8.197387674256997880e-14 -1.521320911043386181e-13
1.748000000000000000e+03 7.505861663818359375e+01 -2.790878415107727051e-01 -3.705866180332001436e-13 2.418096105294420539e-14 -1.039216930283186346e-13 -1.672563725973325033e-13
1.749000000000000000e+03 5.289554595947265625e+01 -3.869293332099914551e-01 -1.439644302207720994e-13 -1.594809387903215608e-14 -4.797375739934786609e-14 3.057233963600983206e-14
1.750000000000000000e+03 4.843466567993164062e+01 -4.087443947792053223e-01 -8.047691880301924283e-14 -1.259920038307674184e-13 -6.194068017826778738e-14 -2.169293560159036433e-14
1.751000000000000000e+03 4.913399887084960938e+01 -1.101604223251342773e+00 -1.038638101848350648e-13 -9.026401181404589136e-14 -5.823834659966428684e-14 -2.226785752047332617e-14
1.752000000000000000e+03 4.310170745849609375e+01 -1.193708419799804688e+00 -1.825244599559794345e-13 -7.822477339275088482e-14 -7.822477339275088482e-14 7.445364041003960098e-14
1.753000000000000000e+03 5.363402557373046875e+01 -3.747131526470184326e-01 -1.018296503976084955e-13 -1.351431716100498504e-13 -7.109184795755021935e-14 3.421793894780623957e-14
1.754000000000000000e+03 3.936711120605468750e+01 -6.298348307609558105e-01 -1.489025509881017340e-13 -1.553172737991936891e-13 -9.126595014669405814e-14 2.095781942359088018e-14
1.755000000000000000e+03 3.861566543579101562e+01 -6.569986343383789062e-01 -6.792088863994544257e-14 -2.910895130622467852e-14 -2.910895130622467852e-14 7.726932022824803403e-14
1.756000000000000000e+03 5.141907501220703125e+01 -4.037573635578155518e-01 -5.378229261140780870e-14 -6.880050186248293231e-14 -3.677484003623311681e-14 5.657385570754201731e-14
1.757000000000000000e+03 5.067966842651367188e+01 -4.063151478767395020e-01 -1.272524430663904416e-13 8.271608089227208693e-14 -1.336090966867504309e-14 1.428409663771154636e-13
1.758000000000000000e+03 4.083320236206054688e+01 -1.263246178627014160e+00 -7.440383487274104812e-14 5.961453796972729369e-14 -4.436789917937073585e-15 6.319055521897265493e-14
1.759000000000000000e+03 4.918653869628906250e+01 -4.083624780178070068e-01 -1.851941993855077406e-13 -3.361799567566138569e-14 -6.564365750191120119e-14 5.162808962083046543e-15
1.760000000000000000e+03 4.239587783813476562e+01 -5.169382691383361816e-01 -1.520579316757406096e-13 -1.109186324060353057e-13 -7.889296719165370120e-14 9.997094162694439290e-14
1.761000000000000000e+03 4.163843536376953125e+01 -5.421787500381469727e-01 -2.354782222078327658e-13 -1.466701787149540803e-13 -1.146445135005724758e-13 -1.200621904413196050e-13
1.762000000000000000e+03 4.693217468261718750e+01 -4.142312705516815186e-01 -1.729190656765342005e-13 -1.198591193744130701e-13 -8.783345416003146555e-14 4.659679353523696332e-14
1.763000000000000000e+03 4.246278381347656250e+01 1.993319243192672729e-01 -1.243433117971773361e-13 3.821190597014939572e-14 -2.583942107048202430e-14 -7.436579292901396299e-14
1.764000000000000000e+03 4.542302322387695312e+01 -4.371944963932037354e-01 -1.914898090354250071e-13 -8.206705714303152988e-14 -8.206705714303152988e-14 9.132295885217606157e-15
1.765000000000000000e+03 5.219291687011718750e+01 3.091529011726379395e-01 -1.670347074631678419e-13 -3.003410508576470628e-13 -1.402127247857390402e-13 2.310273893306631632e-14
1.766000000000000000e+03 4.768418884277343750e+01 -4.098387658596038818e-01 -3.409742648820268673e-14 7.688871105559699770e-14 1.283738570903147219e-14 4.771223767094899537e-14
1.767000000000000000e+03 4.974735736846923828e+00 2.815791702270507812e+01 2.380092108643372395e-14 1.020039511434285909e-14 1.020039511434285909e-14 4.818311006259123896e-14
1.768000000000000000e+03 4.375510215759277344e+00 7.806769847869873047e+00 1.059242906738646142e-14 4.539612517953693985e-15 4.539612517953693985e-15 5.556241027709386826e-14
1.769000000000000000e+03 4.594758987426757812e+00 5.398290634155273438e+00 -8.094665617051216566e-14 3.393499945023720210e-14 -1.410349752430225742e-14 7.578675507253704313e-14
1.770000000000000000e+03 4.287026882171630859e+00 7.322040557861328125e+00 2.879687726340188214e-14 -2.621641781701961049e-13 -7.001018688390647782e-14 -1.130443564548600649e-14
1.771000000000000000e+03 7.306272125244140625e+01 2.956355667114257812e+01 2.233655739820980708e-15 2.754629749128489902e-13 8.330899040282294110e-14 -3.433658793492583294e-14
1.772000000000000000e+03 6.191926956176757812e+00 5.960725784301757812e+00 1.478885644588118220e-14 1.893418825589868182e-13 6.123922170146040012e-14 9.429481121706745350e-14
1.773000000000000000e+03 8.246251106262207031e+00 6.345621109008789062e+00 -4.401891652290428059e-14 2.556404523831878883e-13 6.348645432063468319e-14 -2.370787214548558675e-13
1.774000000000000000e+03 6.501282691955566406e+00 1.283087348937988281e+01 1.131508691539113987e-13 4.259385541754284743e-13 1.617268330974391821e-13 8.636205628669707535e-15
1.775000000000000000e+03 6.999459266662597656e+00 1.116596126556396484e+01 -9.499967137819101404e-14 4.096467631255207298e-13 9.439412413606712571e-14 4.772545816118974049e-14
1.776000000000000000e+03 1.021011543273925781e+01 5.267850399017333984e+00 -1.377035150403743691e-13 -1.047667405303445709e-13 -7.274107531596296639e-14 -1.867400277379832607e-13
1.777000000000000000e+03 4.174864292144775391e+00 2.752312088012695312e+01 -3.668507148448310606e-14 1.215306745213154405e-13 2.545368057223652142e-14 -6.129639303726827637e-14
1.778000000000000000e+03 5.134324550628662109e+00 2.888055038452148438e+01 -4.041379183345947257e-14 -6.307114390220053268e-14 -3.104548207595071718e-14 -1.586018202350252676e-14
1.779000000000000000e+03 9.084234237670898438e+00 6.551065921783447266e+00 -6.035083321758935582e-14 1.571391535773111747e-13 2.903649610791654567e-14 7.281064721411864560e-14
1.780000000000000000e+03 7.356481170654296875e+01 3.347934722900390625e+01 -2.654807763327517861e-14 3.203166356290088057e-13 8.813056621287396197e-14 8.056831026989619282e-14
1.781000000000000000e+03 5.466168880462646484e+00 1.597522258758544922e+01 1.156903620212063055e-13 4.613401132468053500e-13 1.731091398698980655e-13 1.479169027930951619e-13
1.782000000000000000e+03 7.433859252929687500e+01 2.503678131103515625e+01 2.216924425068808602e-14 3.068822594046866081e-13 9.871545583999691287e-14 -9.617876156955973421e-14
1.783000000000000000e+03 7.438175964355468750e+01 2.412898826599121094e+01 2.805288947407109327e-16 2.288749701914727375e-13 6.874665089582829292e-14 -4.993022054838869295e-14
1.784000000000000000e+03 7.436135101318359375e+01 2.597533988952636719e+01 1.237261534274124858e-14 2.798082403797363948e-13 8.765425586971034577e-14 -1.073360218523285170e-13
1.785000000000000000e+03 4.756984710693359375e+00 2.430750656127929688e+01 -5.167809336383867580e-14 1.151050961359714742e-13 1.902809879876076610e-14 -2.339970529624188500e-14
1.786000000000000000e+03 7.447827911376953125e+01 2.326410293579101562e+01 -4.280518946025643756e-14 1.646587190597473271e-13 3.655605820222090907e-14 -8.337436779382381702e-14
1.787000000000000000e+03 3.898796319961547852e+00 2.128873252868652344e+01 -2.905124464559413755e-14 -1.954543298043898147e-13 -6.735166894686339667e-14 -1.308235746295960400e-13
1.788000000000000000e+03 4.665916919708251953e+00 2.276433372497558594e+01 6.811767811051513966e-14 -6.230860418550074331e-14 1.742720843427426978e-15 1.657467294923636869e-14
1.789000000000000000e+03 7.518575286865234375e+01 1.232790279388427734e+01 -5.983792427484077581e-14 6.585707592330139470e-14 1.805745494538185669e-15 3.278381730041461661e-14
1.790000000000000000e+03 7.516056060791015625e+01 1.074537849426269531e+01 -2.087580122330824628e-14 8.255512430350303577e-14 1.850379726287161575e-14 8.454985978923260093e-14
1.791000000000000000e+03 7.475699615478515625e+01 2.162989997863769531e+01 6.568404403283628623e-14 2.111541058105390056e-13 8.305144495301258756e-14 -2.435978326063674426e-14
1.792000000000000000e+03 7.532192993164062500e+01 5.103293895721435547e+00 -5.998157428643152711e-14 -3.002120850092299120e-13 -1.080580937229402849e-13 4.605922915745970514e-14
1.793000000000000000e+03 7.537103271484375000e+01 4.342420578002929688e+00 -1.720218206161666652e-13 1.092801589779208993e-13 -1.882249679740783527e-14 2.427548721935235410e-13
1.794000000000000000e+03 7.579000091552734375e+01 1.941294097900390625e+01 4.392801633513673809e-14 2.018300890999080721e-13 7.372742824238165404e-14 2.522238975565926217e-14
1.795000000000000000e+03 7.505319213867187500e+01 1.862979507446289062e+01 3.393321771643265268e-15 -1.357985718233173378e-13 -3.972157279204073521e-14 2.173619865640432497e-14
1.796000000000000000e+03 7.501100158691406250e+01 1.629426002502441406e+01 -2.556613097224810782e-14 2.635487856596230305e-13 7.139479437333340339e-14 4.762419706641138339e-14
1.797000000000000000e+03 7.541066741943359375e+01 3.607367277145385742e+00 -2.317890887906792763e-13 8.366561160240773565e-14 -4.443704586698689341e-14 8.434703944407845322e-14
1.798000000000000000e+03 3.906632184982299805e+00 1.821774864196777344e+01 -1.594379433979189326e-14 1.761707370696169450e-13 4.806808298835410498e-14 -1.362390289558895740e-13
1.799000000000000000e+03 7.574266815185546875e+01 2.018485069274902344e+01 1.744505859484647009e-14 2.591066738336783581e-13 8.296552193084311133e-14 -5.624830367646251050e-14
1.800000000000000000e+03 7.442435455322265625e+01 1.158827972412109375e+01 2.858281509697177536e-14 -3.350116950344428357e-14 -1.475506194886810375e-15 2.533809445625419959e-14
1.801000000000000000e+03 7.527483367919921875e+01 5.888991355895996094e+00 -1.508123731149349500e-13 1.641208734670315805e-13 3.992551630288294212e-15 1.665623476816702198e-13
1.802000000000000000e+03 4.450579166412353516e+00 1.568142223358154297e+01 2.807049738322037885e-14 3.608811925508159657e-13 1.166855105377492818e-13 1.897477671947839228e-13
1.803000000000000000e+03 4.318075656890869141e+00 1.672426605224609375e+01 2.460846739056610222e-13 2.255611062512707932e-13 1.414937367575849758e-13 1.376361183228272389e-13
1.804000000000000000e+03 7.515905761718750000e+01 9.938321113586425781e+00 -8.449926142909541804e-15 8.788050175805375841e-14 2.382917302335644388e-14 -8.363276027658142486e-14
1.805000000000000000e+03 7.516616821289062500e+01 9.125067710876464844e+00 -1.108586828021604354e-13 2.041193548820569026e-13 2.797820297922165578e-14 7.202010120005084004e-14
1.806000000000000000e+03 4.666346073150634766e+00 1.880998802185058594e+01 4.054205633859629676e-14 2.918808586754167989e-13 9.972687416539074978e-14 -1.811102401947164986e-13
1.807000000000000000e+03 7.542787933349609375e+01 2.759589385986328125e+01 1.809726888203459783e-14 4.195145207781802998e-13 1.312835338487458592e-13 7.199670784411357077e-15
1.808000000000000000e+03 7.503146362304687500e+01 1.549034404754638672e+01 -1.677190287693863802e-14 2.215667834750897902e-13 6.143846417944534566e-14 1.172977662808154242e-14
1.809000000000000000e+03 7.439421653747558594e+00 9.644688606262207031e+00 3.446663459738368018e-14 1.520242671982849347e-13 5.594726816700833216e-14 1.344539527593302877e-14
1.810000000000000000e+03 7.419309234619140625e+01 1.794763374328613281e+01 3.881596921054969451e-14 1.996392146649123012e-13 7.153655380738588310e-14 1.120522064349503688e-13
1.811000000000000000e+03 4.196397304534912109e+00 1.111733627319335938e+01 -5.727151015938328552e-15 -2.454493322796174638e-15 -2.454493322796174638e-15 8.267076124146219285e-14
1.812000000000000000e+03 5.073667526245117188e+00 1.526773357391357422e+01 7.704618464488693919e-14 -1.957349484316833754e-13 -3.560663252417071989e-14 1.061334790127162198e-13
1.813000000000000000e+03 4.963989257812500000e+00 1.937507438659667969e+01 -5.012446553198483812e-14 -1.358592871449765260e-13 -5.579512749715430375e-14 -7.898682521847305571e-14
1.814000000000000000e+03 7.584644317626953125e+01 1.268882870674133301e+00 -6.097408277068450122e-13 1.046900942130134238e-13 -1.515152207257758343e-13 -1.197637460056510776e-15
1.815000000000000000e+03 4.034370899200439453e+00 1.194713211059570312e+01 6.480943846908296391e-14 -1.094773753530960125e-13 -1.340038140401709349e-14 1.065922320569491488e-13
1.816000000000000000e+03 4.746185779571533203e+00 1.235757637023925781e+01 -2.946073764174654552e-14 3.312491746827392336e-14 1.099254159716450165e-15 1.099632944380132815e-13
1.817000000000000000e+03 5.146668434143066406e+00 1.004823112487792969e+01 -1.156662927329771273e-13 -1.410731611823506926e-13 -7.702183752985106158e-14 1.148637662849033569e-13
1.818000000000000000e+03 5.313018798828125000e+00 1.173518180847167969e+01 6.169094098409932947e-14 -3.360914587542847276e-14 8.424538024381488660e-15 -1.866048480558650524e-14
1.819000000000000000e+03 4.898406505584716797e+00 1.107598114013671875e+01 -3.488290046898233354e-14 7.655207983356740464e-14 1.250075448700187913e-14 6.743570816775817933e-14
1.820000000000000000e+03 5.356797695159912109e+00 1.412349510192871094e+01 9.822085636143618181e-14 -2.081290225071103644e-14 2.322238741906366977e-14 1.152578060119660575e-13
1.821000000000000000e+03 3.997824668884277344e+00 1.503454875946044922e+01 -3.421487099447128449e-15 -3.848092634470279272e-13 -1.164692257568655798e-13 1.126181531927242241e-13
1.822000000000000000e+03 5.204197406768798828e+00 1.989191055297851562e+01 4.124829546935798730e-14 2.921835408169204396e-13 1.000295495306308124e-13 -2.251361803148194118e-13
1.823000000000000000e+03 6.011783123016357422e+00 2.039878273010253906e+01 3.103182282264329434e-15 4.708088302898816302e-14 1.505521950867245301e-14 -1.477255817672329385e-13
1.824000000000000000e+03 3.803524017333984375e+00 7.869698047637939453e+00 3.630125290399492319e-15 -1.814480233815543575e-13 -5.334536930029151747e-14 -9.300069395146159934e-15
1.825000000000000000e+03 5.715917587280273438e+00 2.659363365173339844e+01 -1.334837866325336297e-13 3.429456154821486358e-14 -2.975676549241655644e-14 -1.437931432181783348e-14
1.826000000000000000e+03 4.702448844909667969e+00 2.352863502502441406e+01 -2.579350172034547417e-14 2.634513429893708958e-13 7.129735170308126868e-14 -1.116944739281387766e-13
1.827000000000000000e+03 7.502297973632812500e+01 1.788587379455566406e+01 -4.385265922842109161e-17 5.032416540776130098e-13 1.509593367194153601e-13 -1.104691696191678618e-13
1.828000000000000000e+03 7.487943267822265625e+01 2.085303497314453125e+01 4.035496031307497788e-14 2.918006819247614958e-13 9.964669063847186870e-14 4.392849406171898952e-14
1.829000000000000000e+03 7.497893524169921875e+01 2.010291099548339844e+01 3.904552530365097696e-15 2.761790633427213537e-13 8.402508560895888268e-14 -1.028061777418390332e-13
1.830000000000000000e+03 7.517221069335937500e+01 1.154147624969482422e+01 -6.984433105657050778e-14 2.216969283933695190e-13 4.555578326679785017e-14 -7.086866494034407826e-14
1.831000000000000000e+03 4.539680957794189453e+00 8.884298324584960938e+00 -4.833312976194534261e-14 2.503675062680722069e-14 -6.988913317024962948e-15 9.947797522790596814e-14
1.832000000000000000e+03 4.231717586517333984e+00 6.786916255950927734e+00 -1.214100028195178038e-13 -5.203285786720308892e-14 -5.203285786720308892e-14 6.798307441080106428e-14
1.833000000000000000e+03 5.476612091064453125e+00 6.019900798797607422e+00 1.084946820325259371e-15 1.605932997261055872e-13 4.850347486390176044e-14 -5.438175815697041116e-14
1.834000000000000000e+03 7.542287445068359375e+01 2.896094799041748047e+00 -2.656682111714520067e-13 -1.138578164042169938e-13 -1.138578164042169938e-13 1.041876410449657508e-13
1.835000000000000000e+03 7.537949371337890625e+01 2.215227127075195312e+00 -4.396672912895804863e-13 -1.426778888178464877e-13 -1.747035540322280922e-13 1.005048366579941455e-13
1.836000000000000000e+03 7.507704162597656250e+01 1.469338321685791016e+01 -2.826085279152273227e-14 3.081448399396002902e-13 8.396519699145621463e-14 9.099512999653433520e-14
1.837000000000000000e+03 7.513294219970703125e+01 1.390358638763427734e+01 1.724149455476463311e-14 5.314016032222611263e-14 2.111449680191040262e-14 3.760338733644653930e-14
1.838000000000000000e+03 7.522994232177734375e+01 1.589909195899963379e+00 -3.103458516649088006e-13 -1.862799600986161930e-14 -9.869215226955205256e-14 6.038831950770304213e-14
1.839000000000000000e+03 5.398636341094970703e+00 2.345325469970703125e+01 3.903685846253467095e-14 1.673008147220090419e-14 1.673008147220090419e-14 1.211131753697455848e-13
1.840000000000000000e+03 7.518064117431640625e+01 8.311037063598632812e+00 -4.204218556950155283e-14 2.773287005044481474e-14 -4.292794740420316155e-15 -8.790074923362492521e-14
1.841000000000000000e+03 7.520311737060546875e+01 7.499477386474609375e+00 -5.721784808107588383e-14 1.584818566527715356e-13 3.037920257150869552e-14 6.132992198945239060e-14
1.842000000000000000e+03 7.381196594238281250e+01 2.817513084411621094e+01 -8.897131756379142442e-14 1.219977623697493518e-13 9.907931578314894266e-15 -8.343507633921942723e-14
1.843000000000000000e+03 7.469332122802734375e+01 2.781923866271972656e+01 4.841260432228737184e-15 2.308295698680296049e-13 7.070125057238516031e-14 -1.542186110802326593e-14
1.844000000000000000e+03 6.003971099853515625e+00 3.117149734497070312e+01 6.820434652167819967e-14 -6.227146348482953675e-14 1.779865461626014590e-15 -2.941461161557086534e-14
1.845000000000000000e+03 4.908409595489501953e+00 3.140817642211914062e+01 -1.903804169501211070e-15 -2.369139125602427037e-14 -7.678558648833468114e-15 -2.579385747418332098e-14
1.846000000000000000e+03 9.895870208740234375e+00 6.778680801391601562e+00 -8.561430915338813508e-14 -1.281937473925423565e-13 -6.414241696377914748e-14 -2.090776282572676115e-13
1.847000000000000000e+03 1.010719966888427734e+01 6.016087532043457031e+00 3.632066435804714999e-14 1.528188518654452488e-13 5.674185283416864622e-14 -1.011736301562236179e-14
1.848000000000000000e+03 2.062299346923828125e+01 1.255574989318847656e+01 9.751337378630792196e-14 -9.546139920213470020e-14 6.155911470541930094e-16 2.214636673781569462e-15
1.849000000000000000e+03 2.202499389648437500e+01 5.049757480621337891e+00 -1.720531134013700281e-13 -1.652389434048801009e-13 -1.011876197523804699e-13 -6.500936789078813269e-15
1.850000000000000000e+03 5.779598712921142578e+00 1.489882659912109375e+01 2.196994485208908499e-13 6.889192450017234126e-13 2.725856107672897100e-13 1.860722405148951264e-13
1.851000000000000000e+03 2.128201103210449219e+01 1.332223224639892578e+01 1.293780061789552224e-14 -3.147118796033993027e-13 -9.053222310272807105e-14 4.204711530125457286e-14
1.852000000000000000e+03 2.052372932434082031e+01 1.490098762512207031e+01 -7.193224694276162401e-14 -1.452054757900347881e-13 -6.514131953034435485e-14 4.472231978735856373e-14
1.853000000000000000e+03 1.739328193664550781e+01 1.776648330688476562e+01 2.472657054965448492e-14 -4.659158597667724389e-14 -6.559504458700238239e-15 -7.853527534242357722e-14
1.854000000000000000e+03 1.519645500183105469e+01 2.039489746093750000e+01 -1.064839812462900492e-13 -3.201416725034239574e-13 -1.279876947696614864e-13 1.249701974933084547e-13
1.855000000000000000e+03 2.082748222351074219e+01 8.507615089416503906e+00 1.338778517705847479e-14 -3.373945003590228531e-13 -9.720201125116081919e-14 1.763033688766298124e-14
1.856000000000000000e+03 2.101179504394531250e+01 1.102062988281250000e+01 9.464216926434107502e-14 -1.881938208785419175e-13 -2.806549311256800044e-14 9.037027717947662686e-14
1.857000000000000000e+03 2.255685806274414062e+01 6.871360301971435547e+00 5.660039494384538905e-14 2.425731090874381352e-14 2.425731090874381352e-14 2.330138848798818385e-14
1.858000000000000000e+03 2.208326530456542969e+01 3.234364986419677734e+00 -4.780369012419814767e-14 4.813912872383800667e-14 1.006313059297388234e-16 -8.998206503909103593e-14
1.859000000000000000e+03 2.334969711303710938e+01 6.035737514495849609e+00 2.061445428963061544e-14 -1.284180823745567634e-13 -3.234108673141194989e-14 1.330066529733452824e-14
1.860000000000000000e+03 1.378842067718505859e+01 2.225011634826660156e+01 6.391617785169931287e-14 -1.556111467980458851e-13 -2.750849102271715058e-14 6.944695063156383630e-14
1.861000000000000000e+03 2.157244682312011719e+01 8.564497947692871094e+00 -7.990931863693234716e-14 -1.943751691720063679e-13 -8.228534769793433012e-14 1.031068303924010526e-14
1.862000000000000000e+03 5.993350982666015625e+00 1.352141952514648438e+01 -1.326456898828728623e-14 3.145718277877684876e-13 9.039217806336083405e-14 1.289250824154652975e-13
1.863000000000000000e+03 1.554400730133056641e+01 1.983949089050292969e+01 -1.978278652003950810e-14 -1.114179684928370828e-13 -3.936022853674205069e-14 3.834976227638092761e-14
1.864000000000000000e+03 1.550028133392333984e+01 1.884712219238281250e+01 -6.914550854629497589e-14 -3.556092865921595125e-13 -1.274264439625472090e-13 1.231942878873043545e-13
1.865000000000000000e+03 1.879486465454101562e+01 1.667006874084472656e+01 -1.489075518706223233e-13 -1.324439418814299385e-13 -8.440545083612110977e-14 6.753567160806134284e-14
1.866000000000000000e+03 6.183605670928955078e+00 2.761283302307128906e+01 -1.645766042977087062e-14 8.444861563511318892e-14 2.039728690041587439e-14 3.540375458077615889e-14
1.867000000000000000e+03 9.704730033874511719e+00 9.039086341857910156e+00 -6.508112598098067525e-14 2.923647381049970795e-13 6.818508160432584786e-14 -1.937996746588510621e-13
1.868000000000000000e+03 1.476660919189453125e+01 2.096804428100585938e+01 9.554125069213825761e-14 -1.763707588179133645e-13 -2.424885243773253207e-14 7.382063574789751725e-14
1.869000000000000000e+03 1.498817253112792969e+01 1.932338523864746094e+01 -8.623971084779566421e-14 -7.699195420747192986e-14 -4.896949883895392042e-14 -7.559273539970486760e-15
1.870000000000000000e+03 2.260042381286621094e+01 7.053474783897399902e-01 -1.206540021971708176e-13 1.691756543881206554e-14 -3.112092899462855222e-14 9.503222454841989131e-14
1.871000000000000000e+03 2.200138282775878906e+01 1.572097301483154297e+00 -1.724679698101444503e-13 -2.816389801224821604e-14 -6.018956492069571507e-14 -4.003997925317720474e-14
1.872000000000000000e+03 1.976777267456054688e+01 1.669406700134277344e+01 -2.389597851190639055e-14 -2.161204022818261072e-13 -7.200491559337246494e-14 2.689312031598748050e-15
1.873000000000000000e+03 1.429222297668457031e+01 2.156449890136718750e+01 1.012442015532570572e-13 -1.910832467732700990e-13 -2.695171254956437584e-14 1.850061445186901299e-13
1.874000000000000000e+03 6.906729221343994141e+00 2.100810432434082031e+01 -2.948408525790466306e-14 2.161187082159315986e-13 5.599038553215536507e-14 5.093341587793058511e-14
1.875000000000000000e+03 7.349688720703125000e+01 3.849693679809570312e+01 3.972230801663895194e-14 2.915295500664771833e-13 9.937555200392397814e-14 -7.711043039987028336e-14
1.876000000000000000e+03 7.326770019531250000e+01 3.501098251342773438e+01 1.051551339357808743e-14 1.989481848577515088e-13 6.283911108476147866e-14 -4.194225601051627950e-14
1.877000000000000000e+03 5.487529754638671875e+00 3.389131546020507812e+01 1.516622148234423456e-14 -1.993794669294390864e-13 -5.526397007659007710e-14 -1.269733643449949892e-14
1.878000000000000000e+03 7.595543384552001953e+00 3.643839645385742188e+01 -3.188680602114052354e-14 -5.941672528335731340e-14 -2.739106006897570889e-14 -3.740900343944704443e-14
1.879000000000000000e+03 6.207740306854248047e+00 3.211513137817382812e+01 2.296758296787063114e-14 -8.165864496091981839e-14 -1.760731961435429288e-14 6.679284658320889731e-15
1.880000000000000000e+03 5.063022136688232422e+00 3.224218368530273438e+01 3.196024716579926039e-14 -3.205369861680393284e-14 -2.803571521932102229e-17 -5.422057795150328485e-14
1.881000000000000000e+03 7.455222320556640625e+01 3.645800781250000000e+01 3.732843366550421538e-14 3.248168064812900768e-13 1.086435696723460353e-13 -3.037103039763358603e-14
1.882000000000000000e+03 7.463855743408203125e+01 4.053413391113281250e+01 -2.589124424026093690e-14 1.947830189242411025e-13 5.066753223578746024e-14 -1.216187100436553689e-14
1.883000000000000000e+03 7.186173248291015625e+01 4.115114974975585938e+01 -1.219518121029102269e-15 2.167943559047702529e-13 6.467244952458942042e-14 -3.903103765212113940e-14
1.884000000000000000e+03 7.317243957519531250e+01 3.666861724853515625e+01 -3.000388227258031504e-14 3.417110344683393919e-13 9.351214599754090195e-14 1.254928778081365603e-14
1.885000000000000000e+03 2.439877700805664062e+01 -4.284309148788452148e-01 -3.955028578944697060e-14 -8.557654503646774935e-14 -3.753805060302713159e-14 4.345823492193055804e-14
1.886000000000000000e+03 2.569307327270507812e+01 -6.651281118392944336e-01 6.278617745478871567e-15 -4.306011249606209179e-14 -1.103444812871343453e-14 9.004706973559511995e-14
1.887000000000000000e+03 2.203719520568847656e+01 2.380241394042968750e+00 -2.926905408578289736e-14 -5.829482675658720359e-14 -2.626916493033738809e-14 -9.254454976870621352e-14
1.888000000000000000e+03 2.702563667297363281e+01 -8.328714370727539062e-01 7.288960762546169148e-15 -1.570044821149613190e-13 -4.491465725275749221e-14 -3.769315250006476103e-14
1.889000000000000000e+03 2.517637825012207031e+01 2.110795825719833374e-01 -5.956370921662845763e-14 -1.627801490605360057e-13 -6.670316019365477023e-14 4.266540869516874390e-14
1.890000000000000000e+03 2.839171600341796875e+01 -9.059656262397766113e-01 -4.004536638272174209e-14 -1.544151498290499691e-13 -5.833815418590515556e-14 1.356092972290556808e-13
1.891000000000000000e+03 2.714182472229003906e+01 -1.407107710838317871e-01 -8.131267265954790491e-15 2.710208630869043178e-13 7.886687857687826875e-14 -3.641518645869715187e-14
1.892000000000000000e+03 2.648178482055664062e+01 -5.946030467748641968e-02 -3.818222932380939405e-14 -2.451185684548135013e-13 -8.499023560664190069e-14 -5.727314239187264455e-14
1.893000000000000000e+03 6.348964691162109375e+00 6.650164127349853516e+00 -1.202031638287970328e-13 2.458655295415473896e-13 3.769870903619874924e-14 5.307260775061668767e-14
1.894000000000000000e+03 3.121546173095703125e+01 -9.023477435111999512e-01 1.478738599668474873e-14 -1.309153930010784062e-13 -3.483840413419717064e-14 -7.043059051145246843e-15
1.895000000000000000e+03 2.872792816162109375e+01 1.133388161659240723e+00 -3.243533100525525237e-14 7.760103865918355215e-14 1.354971331261802664e-14 1.171382598124520724e-13
1.896000000000000000e+03 2.180143547058105469e+01 1.110326099395751953e+01 -2.283745160211805847e-14 -7.841390568547740303e-14 -3.037540447577320724e-14 -2.055695599910509902e-14
1.897000000000000000e+03 2.996607017517089844e+01 4.302713572978973389e-01 -1.263029123562547928e-13 -3.286355020580555841e-13 -1.364815243242931131e-13 -6.086965783844155986e-14
1.898000000000000000e+03 2.986882019042968750e+01 -2.501063048839569092e-01 -7.719652960489278848e-14 -3.308422600548782677e-14 -3.308422600548782677e-14 7.629080066252555414e-14
1.899000000000000000e+03 6.555829048156738281e+00 2.642563247680664062e+01 1.231706861612620607e-14 -2.234759957382009832e-13 -6.334767644255653862e-14 1.379087545116258751e-13
1.900000000000000000e+03 3.340029907226562500e+01 -8.359566330909729004e-01 1.901791238053708588e-14 -1.291023088130852092e-13 -3.302531994620397371e-14 -2.250924158165006767e-14
1.901000000000000000e+03 3.200535202026367188e+01 -2.042033821344375610e-01 -1.615655038141733391e-13 -1.607442613260970377e-13 -9.669293089733382862e-14 6.028317222576268231e-14
1.902000000000000000e+03 6.200207710266113281e+00 2.922772407531738281e+01 1.105028679779414269e-14 -8.676605712121948644e-14 -2.271473177465396093e-14 -6.043107095461686118e-14
1.903000000000000000e+03 3.413578414916992188e+01 -8.103757500648498535e-01 -1.824148335638139939e-13 -1.696796864255820103e-13 -1.056283559968188013e-13 1.902024849740561324e-14
1.904000000000000000e+03 3.273197555541992188e+01 -1.789459139108657837e-01 7.121758152824064769e-14 -1.522912723120502243e-14 1.679653628911068758e-14 -1.562578191838248642e-13
1.905000000000000000e+03 3.346575927734375000e+01 -1.509946286678314209e-01 -9.108794447876267242e-14 -2.220414878437854123e-13 -9.393882698625899419e-14 1.205489023490755041e-13
1.906000000000000000e+03 6.456535339355468750e+00 1.173272609710693359e+01 -7.471583607073038064e-15 1.340507430535806122e-13 3.797374741043579860e-14 -1.193485685713896460e-14
1.907000000000000000e+03 7.083460998535156250e+01 2.145837992429733276e-01 -1.903243323575845580e-13 1.471871669683766370e-13 -1.294114978616896575e-14 4.405744296947719518e-14
1.908000000000000000e+03 3.711296844482421875e+01 -7.086955904960632324e-01 -7.356649875866691501e-14 5.997340211255641762e-14 -4.077929586756212296e-15 8.845471555739281566e-14
1.909000000000000000e+03 3.567980194091796875e+01 -6.905917823314666748e-02 -3.436896492230168132e-14 -1.519824034418998382e-13 -5.590541118688681366e-14 -4.303435253007019401e-14
1.910000000000000000e+03 7.154067230224609375e+01 1.742350608110427856e-01 -3.325537816043638850e-13 -9.677209798471600455e-14 -1.287977564228340310e-13 -1.374367335433071546e-13
1.911000000000000000e+03 4.918236255645751953e+00 2.741764068603515625e+01 5.331390117926807296e-15 2.284881327855605403e-15 2.284881327855605403e-15 7.847088728590509432e-14
1.912000000000000000e+03 5.643268108367919922e+00 2.797707557678222656e+01 -1.736944226957918419e-14 -7.444046565957800760e-15 -7.444046565957800760e-15 -3.252161316939436442e-14
1.913000000000000000e+03 7.513151645660400391e+00 1.059707641601562500e+01 -2.949849625295277410e-15 1.202617378511655621e-13 3.519356504898089877e-14 2.761375688927012600e-14
1.914000000000000000e+03 6.565007019042968750e+01 2.985548079013824463e-01 -1.993076249829847657e-13 9.758624572482610393e-14 -3.051641513270031414e-14 -4.978674333151918152e-14
1.915000000000000000e+03 6.564769744873046875e+01 1.019280552864074707e+00 -1.759992569435112064e-13 6.182458923064890199e-14 -3.425239963623233352e-14 1.303685214252767177e-13
1.916000000000000000e+03 6.861982727050781250e+01 -4.260073304176330566e-01 -2.419742195242796656e-13 -1.220133342234516749e-14 -7.625266385110837652e-14 3.718651498925765186e-14
1.917000000000000000e+03 7.298180389404296875e+01 -4.943412244319915771e-01 -2.186343960692768706e-13 2.265561870051779891e-13 2.376538763077993242e-15 4.949891814791038125e-14
1.918000000000000000e+03 3.786429977416992188e+01 -6.831209063529968262e-01 6.122994499662207102e-14 2.624140596658997016e-14 2.624140596658997016e-14 -3.548639238565970931e-15
1.919000000000000000e+03 5.889209365844726562e+01 1.130657315254211426e+00 -2.339685791028639494e-13 -5.452129497656929558e-14 -8.654696019095090009e-14 1.085193285737086691e-14
1.920000000000000000e+03 6.787497711181640625e+01 -4.208936691284179688e-01 -3.059284054383881735e-13 -3.141159749843469573e-13 -1.860133141268205392e-13 -7.885211309854173178e-14
1.921000000000000000e+03 6.638748168945312500e+01 2.891556918621063232e-01 -2.401171980432464936e-13 8.009642482684903309e-14 -4.800623264254559597e-14 6.093843013749503101e-14
1.922000000000000000e+03 5.889191055297851562e+01 3.781891763210296631e-01 -2.341866934749137208e-13 -1.461166664008459182e-13 -1.140910011864643137e-13 -4.803758980225295017e-14
1.923000000000000000e+03 6.113493347167968750e+01 -3.510701060295104980e-01 -1.651516922350493299e-13 6.647354650231307449e-14 -2.960344575269995004e-14 -6.970027446916507441e-14
1.924000000000000000e+03 5.963608169555664062e+01 3.767963647842407227e-01 -1.888492075392822489e-13 1.478193652551529347e-13 -1.230895065235972086e-14 -3.588101360084069991e-14
1.925000000000000000e+03 6.038488388061523438e+01 3.739340305328369141e-01 -2.311941599535821679e-13 3.816963563794961711e-14 -5.790735322893161841e-14 -8.423299492806013422e-14
1.926000000000000000e+03 6.188867187500000000e+01 -3.528235554695129395e-01 -2.103055685327703817e-13 1.386237858443800652e-13 -2.150453683939616834e-14 -1.086895737257773109e-15
1.927000000000000000e+03 7.367804718017578125e+01 -4.612714946269989014e-01 -3.187545713490003152e-13 4.639469486215387628e-14 -8.170796260724075277e-14 -8.647286852498867193e-14
1.928000000000000000e+03 7.223350524902343750e+01 1.547580361366271973e-01 -2.083201097518791456e-13 2.309765876826186393e-13 6.796943887441616455e-15 -9.246591970021259682e-15
1.929000000000000000e+03 6.415950012207031250e+01 3.344130218029022217e-01 -1.330749475458165021e-13 1.259716750400333152e-13 -2.130982005844840252e-15 -2.967504714179725056e-14
1.930000000000000000e+03 6.189484024047851562e+01 3.672885596752166748e-01 -1.861306925645192512e-13 5.748254926522464170e-14 -3.859444637792017185e-14 -1.896281119325229914e-14
1.931000000000000000e+03 5.587781143188476562e+01 -3.418814539909362793e-01 -2.037557134734052644e-13 -3.160786248620345296e-13 -1.559502987901265070e-13 4.358565578225191695e-14
1.932000000000000000e+03 6.340546798706054688e+01 3.517422080039978027e-01 -1.433187471694755133e-13 3.007957652487874833e-14 -3.397175390388446070e-14 8.362996845598727469e-14
1.933000000000000000e+03 6.264990997314453125e+01 3.625138700008392334e-01 -1.786581950088961257e-13 1.521869517342663847e-13 -7.941372643575743406e-15 -5.007358934504095582e-14
1.934000000000000000e+03 6.712750244140625000e+01 2.842138707637786865e-01 -1.969072691357376392e-13 -8.438882866156419138e-14 -8.438882866156419138e-14 -3.962951047506955982e-14
1.935000000000000000e+03 7.010553741455078125e+01 2.515187263488769531e-01 -3.081154580607259330e-13 -1.778004284601342189e-13 -1.457747632457526143e-13 -1.127542747754797792e-13
1.936000000000000000e+03 6.936143493652343750e+01 2.730398476123809814e-01 -1.694916044537100874e-13 1.886263768877821656e-14 -4.518868935185320346e-14 -1.771210944839091139e-14
1.937000000000000000e+03 7.447955322265625000e+01 6.916031241416931152e-01 -7.181676585886476172e-14 3.212893885944263783e-14 -1.190634742220027936e-14 -2.346775592322429549e-14
1.938000000000000000e+03 7.436709594726562500e+01 -4.113811552524566650e-01 -3.875266535620369712e-13 2.456756857411451778e-13 -4.255528763576210682e-14 -3.322270318686969606e-15
1.939000000000000000e+03 5.438790893554687500e+01 3.467454910278320312e-01 -2.274356375973896061e-13 -1.889743109174599200e-13 -1.249229804886967110e-13 1.141084161838598621e-13
1.940000000000000000e+03 6.861459350585937500e+01 2.809570729732513428e-01 -2.729456200986635217e-13 -2.547479032734799309e-14 -8.952611736797941311e-14 -5.717499499020839426e-14
1.941000000000000000e+03 3.649068832397460938e+01 6.631625890731811523e-01 -1.352535298386817186e-13 -2.409695977912545972e-13 -1.128669369337281791e-13 -7.367191709115039622e-14
1.942000000000000000e+03 5.739770126342773438e+01 3.808059692382812500e-01 -2.147236923856488122e-13 4.522840503268406309e-14 -5.084858722232896144e-14 7.023482679778189630e-14
1.943000000000000000e+03 5.664403915405273438e+01 3.784291148185729980e-01 -1.744309178434294560e-13 -3.035108514341799957e-13 -1.433825253622719731e-13 8.441802080505836359e-14
1.944000000000000000e+03 5.588851547241210938e+01 3.710701167583465576e-01 -1.971152733225289833e-13 -1.759798768296780280e-13 -1.119285464009148190e-13 9.087092108514896460e-14
1.945000000000000000e+03 8.318504333496093750e+00 9.302230834960937500e+00 -7.624906565514844026e-14 2.418275269703423769e-13 4.967353907218453879e-14 -1.559448642267369234e-15
1.946000000000000000e+03 5.215752029418945312e+01 -3.973053395748138428e-01 -5.986684536779182664e-14 -2.565721920132994077e-14 -2.565721920132994077e-14 8.987972313027198235e-14
1.947000000000000000e+03 5.073229980468750000e+01 2.968632280826568604e-01 -1.074392650042034492e-13 -4.604539880349693692e-14 -4.604539880349693692e-14 8.775988426636474604e-14
1.948000000000000000e+03 5.365073776245117188e+01 3.335832655429840088e-01 -1.648855070491769825e-13 -2.491426966263424886e-14 -5.693993318294995887e-14 -4.926662783245536192e-14
1.949000000000000000e+03 3.642456817626953125e+01 -4.280473291873931885e-02 -9.493932875102861768e-14 1.423155077942203639e-13 1.421285540702341837e-14 1.063224639217099157e-14
1.950000000000000000e+03 5.292075729370117188e+01 3.208214640617370605e-01 -1.337585505680957687e-13 -5.732509600472543432e-14 -5.732509600472543432e-14 1.283530573492619453e-13
1.951000000000000000e+03 4.993628692626953125e+01 -4.075828790664672852e-01 5.285603328446502464e-15 2.310200099796266837e-13 7.089168390771866113e-14 8.467440073753329521e-14
1.952000000000000000e+03 4.012249374389648438e+01 -6.005169749259948730e-01 -1.877380087327018554e-13 -3.470819822954523959e-14 -6.673386344392684411e-14 2.006693219252543570e-14
1.953000000000000000e+03 3.867348098754882812e+01 3.887560218572616577e-02 -1.023198791861613943e-13 -8.960232322817798800e-14 -5.757665801379638348e-14 8.090600367124164277e-15
1.954000000000000000e+03 3.717263793945312500e+01 -1.687277853488922119e-02 -1.149422218646098393e-13 -3.237666482570206172e-13 -1.316126569707309901e-13 -1.425482250142807994e-14
1.955000000000000000e+03 4.850415802001953125e+01 2.994349598884582520e-01 -1.357720224226185990e-13 -1.243706015046719751e-14 -4.446272451781585477e-14 -7.721257579704557394e-15
1.956000000000000000e+03 4.315905380249023438e+01 -4.913732111454010010e-01 -5.018566874462164484e-14 1.157447076551021414e-13 1.966771031789143337e-14 -6.223895097218212769e-14
1.957000000000000000e+03 4.088148880004882812e+01 -5.699971318244934082e-01 -1.263589927136266056e-13 -2.371576513730128122e-13 -1.090549905154863941e-13 1.325006998651595547e-13
1.958000000000000000e+03 3.942443466186523438e+01 6.923224776983261108e-02 -3.917783523814388769e-14 -1.679050033232855343e-14 -1.679050033232855343e-14 1.622081307705962316e-14
1.959000000000000000e+03 4.467445373535156250e+01 -4.493267536163330078e-01 -9.732332669799836911e-14 -1.332118958327285774e-13 -6.916056540396536834e-14 5.761655665374385005e-14
1.960000000000000000e+03 4.323182296752929688e+01 2.331156581640243530e-01 -1.771495547909368584e-13 -2.589250428647327240e-13 -1.308223820072063059e-13 1.814005082213451803e-13
1.961000000000000000e+03 4.624963760375976562e+01 3.075141012668609619e-01 -1.858733571788798167e-13 -3.390906330139227542e-14 -6.593472512764209092e-14 8.869813927390654551e-14
1.962000000000000000e+03 4.617673110961914062e+01 -4.245542287826538086e-01 -2.675410145703584208e-14 2.172886978853150186e-13 5.716037858967057406e-14 6.303261406749582907e-14
1.963000000000000000e+03 5.146427154541015625e+01 3.010480403900146484e-01 -1.619210137065313360e-13 -1.608966188363855632e-13 -9.684528840762235413e-14 6.140223827435717374e-14
1.964000000000000000e+03 4.925253677368164062e+01 2.942747473716735840e-01 -8.295269446388989221e-14 -3.555115525425735223e-14 -3.555115525425735223e-14 1.535254840194944653e-14
1.965000000000000000e+03 4.017913436889648438e+01 1.019283533096313477e-01 -4.031489226653806046e-14 2.847313788282949953e-14 -3.552526061002684102e-15 1.174498459642972503e-13
1.966000000000000000e+03 4.169915008544921875e+01 1.687077581882476807e-01 -1.410023898855417013e-13 -1.519314865973744877e-13 -8.788016294487485669e-14 4.399534529004808792e-14
1.967000000000000000e+03 4.775392532348632812e+01 3.069262206554412842e-01 -1.477198626007730775e-13 -1.548104092835567158e-13 -9.075907885479350679e-14 1.094315610350449219e-13
1.968000000000000000e+03 4.399824142456054688e+01 2.668651044368743896e-01 -7.652854587016089116e-14 5.870395044637460868e-14 -5.347379135355653096e-15 -2.505978992297253766e-14
1.969000000000000000e+03 4.549927520751953125e+01 2.994758784770965576e-01 -5.534081290556498722e-14 1.592863075597014677e-13 3.118364670217504964e-14 6.112555242103771477e-15
1.970000000000000000e+03 4.890729904174804688e+00 6.788597106933593750e+00 -4.200367267545579431e-14 -1.781298903952982515e-13 -6.604006892122621375e-14 3.585841476180795517e-14
1.971000000000000000e+03 3.674887180328369141e+00 6.920413494110107422e+00 -5.407726675309143527e-14 -1.375533394869579706e-13 -5.748918322726753738e-14 5.326159096554448913e-14
1.972000000000000000e+03 5.612705707550048828e+00 6.757936477661132812e+00 -6.709287412345584303e-15 4.287554062872359073e-14 1.084987541434198621e-14 4.282487111781883848e-14
1.973000000000000000e+03 8.464490890502929688e+00 5.589587211608886719e+00 -7.265054443456042677e-14 -9.976236823401249398e-14 -5.172387380057187622e-14 2.308148179422202240e-14
1.974000000000000000e+03 7.060247898101806641e+00 6.510747909545898438e+00 -8.862109315702429435e-14 1.907742762591660424e-13 3.064595357538980880e-14 6.467999150595177271e-14
1.975000000000000000e+03 6.714972019195556641e+00 2.989171791076660156e+01 -3.045099708411797002e-14 -1.846164822578988396e-13 -6.452024109209961167e-14 4.136008348960482084e-14
1.976000000000000000e+03 5.701599597930908203e+00 3.034570121765136719e+01 5.153015058927123970e-14 -1.151684948580075640e-13 -1.909150260299453949e-14 -1.988333271901038257e-14
1.977000000000000000e+03 4.909666538238525391e+00 2.666675567626953125e+01 -4.728056172894094453e-15 4.372464033636919156e-14 1.169897512198758704e-14 2.255239282811499074e-14
1.978000000000000000e+03 5.868030071258544922e+00 2.858615684509277344e+01 -4.317923243350035856e-14 -1.100072859411618809e-13 -4.595595551239867183e-14 4.464520929597232124e-14
1.979000000000000000e+03 5.563357830047607422e+00 2.498655891418457031e+01 -2.444758839001501954e-14 8.102435958496148616e-14 1.697303085026417163e-14 -2.721071489604400678e-14
1.980000000000000000e+03 4.611038208007812500e+00 2.127674293518066406e+01 1.647246995382066481e-14 5.281057980244946437e-14 2.078491458806785985e-14 8.151884386704139063e-14
1.981000000000000000e+03 5.391142845153808594e+00 2.197866630554199219e+01 5.879941444766195735e-14 2.539544908999186168e-13 9.382617160427417224e-14 1.981637476452993013e-14
1.982000000000000000e+03 7.332432556152343750e+01 2.502123641967773438e+01 -2.297833181597128821e-14 1.960314099632223805e-13 5.191592327476873825e-14 -1.055578015404443071e-13
1.983000000000000000e+03 7.446426391601562500e+01 2.691534996032714844e+01 -3.590803733998990110e-14 3.277429597246112047e-13 8.755047739301274889e-14 -9.936754923663831951e-14
1.984000000000000000e+03 6.202773571014404297e+00 2.197402954101562500e+01 -2.952292002447037822e-14 1.703511192784751271e-13 4.224845842094870907e-14 -4.010804682081856032e-14
1.985000000000000000e+03 4.609100818634033203e+00 1.986126518249511719e+01 3.342665389749195463e-15 3.216892084743211422e-13 9.750956552617706663e-14 7.346451599181749725e-14
1.986000000000000000e+03 7.372946166992187500e+01 2.226209068298339844e+01 6.243348987621097010e-15 1.399285689488577455e-13 4.385157669384472101e-14 -6.831980727678432785e-14
1.987000000000000000e+03 7.439780426025390625e+01 1.078528022766113281e+01 -2.871233659900232493e-14 1.706985112070666388e-13 4.259585034954022076e-14 -2.363141420828190897e-13
1.988000000000000000e+03 7.461328887939453125e+01 2.243389129638671875e+01 -1.912688486326724613e-14 -8.197235885952849910e-15 -8.197235885952849910e-15 -1.618996684762605276e-13
1.989000000000000000e+03 7.337877655029296875e+01 2.403351402282714844e+01 6.418169218747743487e-14 3.706385513172621993e-13 1.304460689856637434e-13 -1.273147033761454217e-13
1.990000000000000000e+03 7.459683227539062500e+01 5.092757701873779297e+00 -1.724739193695659645e-13 1.548373517075429806e-13 -5.290970129200305710e-15 2.068513817263945009e-13
1.991000000000000000e+03 7.466654205322265625e+01 4.342954635620117188e+00 -1.421753746634266125e-13 -1.524342040397017040e-13 -8.838287361093849492e-14 1.061022878714665274e-13
1.992000000000000000e+03 7.421392822265625000e+01 1.712900924682617188e+01 -7.626791044415895393e-14 2.418194496641573599e-13 4.966546176599952178e-14 -9.857526172283095911e-14
1.993000000000000000e+03 7.419565582275390625e+01 1.630020141601562500e+01 -2.591526101244738534e-14 2.176482057731840558e-13 5.751987970127603322e-14 -6.783939051789242280e-14
1.994000000000000000e+03 7.447538757324218750e+01 1.235400676727294922e+01 -8.233302548846938018e-14 5.621631632424239911e-14 -7.835013257487862676e-15 -2.487783199930926337e-14
1.995000000000000000e+03 7.473286437988281250e+01 3.632161378860473633e+00 -2.135905249325484312e-13 -1.372897428337724324e-13 -1.052640776193908279e-13 8.523793514547337025e-14
1.996000000000000000e+03 4.583559989929199219e+00 2.055478477478027344e+01 1.243541182435184064e-14 5.108040997559709639e-14 1.905474645528138639e-14 -1.768438097782959462e-13
1.997000000000000000e+03 5.383634567260742188e+00 2.271461296081542969e+01 -5.543472853062475503e-14 -6.950868916902330774e-14 -3.748302395464170322e-14 1.236945506281504278e-14
1.998000000000000000e+03 7.104444122314453125e+01 2.621141052246093750e+01 -8.869063456199387241e-15 1.792027626550812824e-13 5.110011196195023142e-14 -1.052307993889591009e-13
1.999000000000000000e+03 7.453646087646484375e+01 5.877960205078125000e+00 -1.175011287270558147e-13 -7.323310659062762240e-14 -5.722027398343682014e-14 1.554503346283943408e-15
2.000000000000000000e+03 7.439476776123046875e+01 9.965431213378906250e+00 1.456327293730252243e-14 2.349961588168913984e-13 7.486782596871979778e-14 -1.009402895199140032e-14
2.001000000000000000e+03 7.504978942871093750e+01 1.936361312866210938e+01 4.858548459385492180e-14 3.868299452459977861e-13 1.306246235309449499e-13 -7.006281134685349299e-14
2.002000000000000000e+03 5.294667720794677734e+00 1.697663307189941406e+01 1.862085247279765543e-13 4.801244579862029571e-13 1.998998975247592846e-13 2.239755181722511562e-14
2.003000000000000000e+03 4.726463317871093750e+00 1.731525039672851562e+01 1.087218016353544425e-13 8.441085660039048671e-16 3.286977420390198301e-14 2.151602938242451468e-14
2.004000000000000000e+03 5.354082107543945312e+00 1.851683616638183594e+01 1.050234796047891384e-13 2.280138697210304377e-13 9.991120208724044160e-14 1.652684201514445506e-13
2.005000000000000000e+03 4.486405849456787109e+00 1.817829895019531250e+01 2.067581267870335915e-13 8.861062382979623120e-14 8.861062382979623120e-14 3.559143336496518872e-14
2.006000000000000000e+03 7.414759826660156250e+01 2.965784788131713867e+00 -2.894606483758860316e-13 -3.255266878537249609e-14 -9.660399921413570512e-14 1.572276109220588358e-13
2.007000000000000000e+03 7.421390533447265625e+01 1.547142028808593750e+01 -9.164680326483390371e-14 2.581039765595094515e-13 4.993714588976544411e-14 -1.565565067179492537e-14
2.008000000000000000e+03 7.440435028076171875e+01 9.142717361450195312e+00 -5.078456847217548142e-14 -2.176481651156025876e-14 -2.176481651156025876e-14 -7.174774961432248133e-14
2.009000000000000000e+03 5.848704338073730469e+00 1.971315765380859375e+01 -1.977492436022309369e-15 -4.659844694355000372e-14 -1.457278172916839920e-14 9.397571696517781348e-14
2.010000000000000000e+03 6.517956733703613281e+00 1.070158672332763672e+01 1.781825114701134777e-14 5.338734147689386256e-14 2.136167795657815255e-14 -9.664047584097626431e-14
2.011000000000000000e+03 5.375365257263183594e+00 1.291951274871826172e+01 9.930171105971413725e-14 1.798107290233025291e-13 8.373373338015771550e-14 9.453802486941026428e-16
2.012000000000000000e+03 5.286931037902832031e+00 2.052482604980468750e+01 2.553935964891718841e-14 2.397001867826542565e-13 7.957186071074623390e-14 2.803778666486331228e-14
2.013000000000000000e+03 6.090865135192871094e+00 1.019663715362548828e+01 -7.014443144165091737e-14 -3.006190064133544559e-14 -3.006190064133544559e-14 1.232180996775175674e-13
2.014000000000000000e+03 5.523473262786865234e+00 1.064188861846923828e+01 1.894283307415835921e-15 4.656278346833880866e-14 1.453711994802309865e-14 1.742485347092266601e-14
2.015000000000000000e+03 5.646910667419433594e+00 2.734240722656250000e+01 3.212757344233166390e-14 1.052708606592324403e-13 4.121953023046923126e-14 -4.631054044477826703e-14
2.016000000000000000e+03 4.819372177124023438e+00 2.509578704833984375e+01 4.092735129751154388e-14 -2.821065592500254793e-14 3.815008865862582962e-15 -5.235055282066386484e-14
2.017000000000000000e+03 4.449278831481933594e+00 8.335447311401367188e+00 -9.058214383650745050e-14 -2.218247151719240917e-13 -9.372206109066125168e-14 2.659595871171756970e-14
2.018000000000000000e+03 6.989136695861816406e+00 9.357576370239257812e+00 2.935680331098665385e-14 1.955852878742989076e-13 6.748262701677248954e-14 8.808430466142672111e-14
2.019000000000000000e+03 7.517583465576171875e+01 1.311484527587890625e+01 -1.498049934426336216e-14 3.138364405592258821e-13 8.965677728229107246e-14 8.813501821804473058e-14
2.020000000000000000e+03 7.447921752929687500e+01 1.310499763488769531e+01 1.865050929856669135e-15 2.367478263399450805e-14 7.661950026803705793e-15 -4.795027679901702963e-15
2.021000000000000000e+03 7.373725891113281250e+01 1.905645370483398438e+01 1.867428657218730362e-16 1.830838269618190184e-13 5.498117288055617835e-14 -1.051340275688011916e-13
2.022000000000000000e+03 7.429708099365234375e+01 1.465584373474121094e+01 4.807025478083086500e-14 2.951072275002991629e-13 1.029532429902731139e-13 -2.853292824451028609e-14
2.023000000000000000e+03 7.491477203369140625e+01 1.086019158363342285e+00 -4.953352181549797173e-13 2.795361869496054696e-13 -6.473971071686498990e-14 -1.064672235464615702e-13
2.024000000000000000e+03 7.523458862304687500e+01 6.690785408020019531e+00 -1.022230785668832784e-14 1.328718629263828110e-13 3.679486389510620847e-14 -9.060923533829243204e-14
2.025000000000000000e+03 5.392873287200927734e+00 9.016115188598632812e+00 -1.560670402590488837e-13 -6.688587536477288986e-14 -6.688587536477288986e-14 7.772894063421895150e-14
2.026000000000000000e+03 7.409126281738281250e+01 2.070682907104492188e+01 -1.758251679559279246e-14 1.525929583428078939e-13 4.050313348060406715e-14 -1.014152208934394894e-13
2.027000000000000000e+03 7.440149688720703125e+01 1.386960315704345703e+01 -6.259241443293955820e-14 6.467657626910844337e-14 6.252489108396681351e-16 6.192003967940909459e-14
2.028000000000000000e+03 4.801072597503662109e+00 7.454406261444091797e+00 -4.465295456524201456e-14 1.638668177929639147e-13 3.576415693543749663e-14 7.173801212356084589e-14
2.029000000000000000e+03 7.428400421142578125e+01 1.837677001953125000e+00 -4.152868912470075724e-13 -1.322291478785334040e-13 -1.642548130929150085e-13 -4.641235380503823393e-14
2.030000000000000000e+03 7.406388854980468750e+01 1.124430060386657715e+00 -5.565277514003874604e-13 1.732466573629506956e-13 -1.149843295664837450e-13 5.725280004861138528e-14
2.031000000000000000e+03 7.442324829101562500e+01 8.321135520935058594e+00 -9.864979384592575951e-14 1.407253084678358745e-13 1.262265523360598177e-14 3.179359173936108229e-14
2.032000000000000000e+03 7.445123291015625000e+01 7.502145290374755859e+00 -1.065945427628292586e-13 4.581852272264076709e-14 -1.823280601205654744e-14 -4.062760327813719208e-14
2.033000000000000000e+03 6.109208106994628906e+00 2.272401809692382812e+01 2.653926340842605036e-14 2.401287176913291521e-13 8.000039161942112953e-14 -1.852729565089434455e-14
2.034000000000000000e+03 6.799497604370117188e+00 2.717018699645996094e+01 5.663956852359000593e-14 2.427410079582428826e-14 2.427410079582428826e-14 4.290213746326737576e-14
2.035000000000000000e+03 9.283580780029296875e+00 5.840817928314208984e+00 -2.015038441958777113e-15 2.736421115742682098e-13 8.148812028797858265e-14 -1.856883787357266336e-13
2.036000000000000000e+03 8.892893791198730469e+00 7.266592979431152344e+00 -1.565159406160393507e-13 7.017458581457317046e-14 -2.590240813450574858e-14 -2.257980450835403441e-13
2.037000000000000000e+03 7.339131164550781250e+01 3.074818229675292969e+01 -5.512039799203047319e-14 2.051317151080880863e-13 4.500339581244364173e-14 -3.654109960037239813e-14
2.038000000000000000e+03 7.271354675292968750e+01 2.842771530151367188e+01 -5.503950973369947652e-14 1.136644828280720942e-13 1.758749226712496422e-14 -1.953750102510771330e-14
2.039000000000000000e+03 2.263907623291015625e+01 5.986800193786621094e+00 -7.067447077872476835e-14 -1.217909508053477419e-13 -5.773962715284811087e-14 6.025949087862334658e-15
2.040000000000000000e+03 2.140170669555664062e+01 1.260212898254394531e+01 -9.475073178312476418e-14 1.881472815002879773e-13 2.801896728684121624e-14 1.564279847147964642e-13
2.041000000000000000e+03 2.246021842956542969e+01 7.747220993041992188e+00 -9.235909021083898995e-14 -2.683372187645138851e-13 -1.082088926926058625e-13 1.162684450670484204e-13
2.042000000000000000e+03 2.140554618835449219e+01 9.406705856323242188e+00 -2.326076987003555113e-14 -2.844745923200053817e-13 -9.232060780997933258e-14 -2.075169564994244070e-14
2.043000000000000000e+03 5.905353069305419922e+00 1.231625747680664062e+01 -3.124491090118405867e-14 3.068659692670450134e-13 8.268631276637378180e-14 1.040423850589070054e-13
2.044000000000000000e+03 7.841719150543212891e+00 2.166783714294433594e+01 4.445747630167466713e-14 2.935589054828269262e-13 1.014049141965372991e-13 1.700113540345406932e-14
2.045000000000000000e+03 7.041420936584472656e+00 2.187798881530761719e+01 7.889730738847543223e-15 1.635096409397657213e-13 5.141980930129831651e-14 8.342371254519906354e-14
2.046000000000000000e+03 2.151172065734863281e+01 1.481842708587646484e+01 1.043100542465029423e-13 -2.298013938428072889e-13 -3.764739916838587275e-14 1.671029308848714923e-14
2.047000000000000000e+03 1.890722656250000000e+01 1.762899208068847656e+01 5.267381955685167955e-15 -1.121199216368856666e-13 -3.205576198906344432e-14 -1.115690537596388324e-14
2.048000000000000000e+03 2.330091285705566406e+01 6.908766269683837891e+00 -8.620120811814527273e-14 -1.513207419610862470e-13 -7.125658570139581371e-14 -2.645314048648102212e-14
2.049000000000000000e+03 2.323943901062011719e+01 5.987188816070556641e-01 -3.944055436519607050e-14 -1.690309472794117307e-14 -1.690309472794117307e-14 -1.091144928859651142e-13
2.050000000000000000e+03 2.264146995544433594e+01 1.479728937149047852e+00 5.625927444719534820e-14 6.986206453835422381e-14 3.783640271210440831e-14 -7.032881357360923347e-14
2.051000000000000000e+03 2.121620178222656250e+01 1.022713375091552734e+01 -1.822856915325438143e-13 -1.467488646876222158e-13 -9.871036686604980903e-14 -2.547891198966933252e-15
2.052000000000000000e+03 2.197787284851074219e+01 1.331759548187255859e+01 -1.353451855798382120e-13 -5.800508050225403056e-14 -5.800508050225403056e-14 2.560904335542190519e-14
2.053000000000000000e+03 2.282939529418945312e+01 4.094281673431396484e+00 -1.124913693011792004e-13 -9.396153424550898747e-14 -6.193586903112738296e-14 -3.878172197442630864e-14
2.054000000000000000e+03 2.408593177795410156e+01 6.079152107238769531e+00 -5.089517064629615894e-14 1.063258541710813011e-15 -1.494957417135910765e-14 -6.563977639694688199e-15
2.055000000000000000e+03 1.710033607482910156e+01 1.877565765380859375e+01 -5.566486738239374843e-14 -2.068601637639916335e-13 -7.875750968272879349e-14 -5.521131850858874979e-14
2.056000000000000000e+03 1.696508216857910156e+01 1.993953704833984375e+01 -7.863256893487699517e-14 -2.624544190917704745e-13 -1.023260930198624519e-13 -6.014542433974839897e-14
2.057000000000000000e+03 1.764248275756835938e+01 1.936475181579589844e+01 4.750811628318786506e-14 -2.998960129708960753e-13 -7.571637002275199979e-14 8.724171016681603330e-14
2.058000000000000000e+03 1.209697055816650391e+01 2.287209320068359375e+01 1.834906060644084236e-13 -1.501159087443845741e-13 1.001240716312808143e-14 1.403531560721302252e-13
2.059000000000000000e+03 1.544347000122070312e+01 2.153953361511230469e+01 -5.229332388661557529e-15 -1.108996453154896533e-13 -3.483869212539923710e-14 4.904026674763112270e-14
2.060000000000000000e+03 2.012029457092285156e+01 1.883774185180664062e+01 -5.442644761526754804e-14 -2.292048929125600765e-13 -8.508939944784285614e-14 3.835571437690128357e-15
2.061000000000000000e+03 2.077425575256347656e+01 1.668524932861328125e+01 -3.158629567211364286e-14 -2.194162549134376361e-13 -7.530076822498399380e-14 3.156078303974234334e-14
2.062000000000000000e+03 1.775918006896972656e+01 1.860348320007324219e+01 -1.203392312014439636e-13 -1.430758587777844482e-13 -7.902452834902123913e-14 1.596850906712687923e-13
2.063000000000000000e+03 8.046301841735839844e+00 2.250577354431152344e+01 5.444649180293137380e-14 2.063380119977226146e-13 7.823535114019619652e-14 1.057597341950697323e-13
2.064000000000000000e+03 9.526380538940429688e+00 2.211893653869628906e+01 4.820951716175483903e-14 -7.084067219550321814e-14 -6.789346848937692636e-15 1.909802069093025079e-13
2.065000000000000000e+03 5.799468994140625000e+00 3.493535232543945312e+01 -3.257489831804023794e-14 -1.512135143662274306e-13 -5.513652549934619507e-14 -2.814732835373402742e-14
2.066000000000000000e+03 5.165208339691162109e+00 3.308130645751953125e+01 1.024287195317517829e-13 -1.848567279067944713e-13 -2.472840014082055421e-14 -1.831471748618782730e-14
2.067000000000000000e+03 7.120761108398437500e+01 3.866254043579101562e+01 -1.144284506423209544e-14 3.611035082062841184e-13 1.048982000437584383e-13 4.907606405404798394e-15
2.068000000000000000e+03 6.199036598205566406e+00 3.317318344116210938e+01 4.131827733146013759e-14 -5.167640861530658700e-15 1.084519132214366993e-14 2.380804463352013262e-14
2.069000000000000000e+03 7.231022644042968750e+01 3.095169639587402344e+01 2.581087944829134340e-14 2.855674952149250823e-13 9.341351070489903319e-14 -1.216910635980098312e-14
2.070000000000000000e+03 7.141097259521484375e+01 3.656298828125000000e+01 2.652765736298277194e-15 2.642048634992483214e-13 8.005728512842230638e-14 1.162942863482032546e-14
2.071000000000000000e+03 8.405714988708496094e+00 4.112434387207031250e+01 2.080217203733521897e-14 -6.543007645019513485e-14 -1.338837132385797477e-14 6.797754497972138821e-15
2.072000000000000000e+03 7.233648681640625000e+01 3.340242767333984375e+01 3.967187906309121992e-14 2.915079202331360975e-13 9.935394249937362643e-14 -7.364286724919136273e-14
2.073000000000000000e+03 2.392293739318847656e+01 3.339837551116943359e+00 -1.419984243985475056e-14 2.536813024456383708e-14 3.350486468467668046e-15 6.228471700935522479e-15
2.074000000000000000e+03 2.664088249206542969e+01 6.452569365501403809e-01 1.652815898197084604e-14 5.283444580277130154e-14 2.080878058838969702e-14 -3.678407947162176672e-14
2.075000000000000000e+03 2.279528045654296875e+01 3.132211923599243164e+00 9.431882629518800742e-14 4.042235364249031904e-14 4.042235364249031904e-14 -3.080440633476677625e-14
2.076000000000000000e+03 2.539483261108398438e+01 2.656198024749755859e+00 8.962382431251109116e-14 -3.021621310366623403e-14 1.782228302384027824e-14 -2.559607189286765283e-14
2.077000000000000000e+03 2.600509071350097656e+01 7.870519757270812988e-01 -4.788920318242115282e-14 -3.179050989468579225e-13 -1.097382953821682272e-13 -5.925167583138712946e-14
2.078000000000000000e+03 2.583039283752441406e+01 6.284454464912414551e-02 -2.014236725274200918e-14 -5.438339123649271745e-14 -2.235772771617700744e-14 1.577486547692328461e-14
2.079000000000000000e+03 2.781328201293945312e+01 -1.920158714056015015e-01 -4.338478022474466511e-14 -1.100953773676763281e-13 -4.604404693891311906e-14 6.616228561111964224e-14
2.080000000000000000e+03 7.372452259063720703e+00 2.918340301513671875e+01 3.407535280959723967e-14 -3.114722428544311472e-14 8.784387054770032531e-16 1.115464532265401931e-13
2.081000000000000000e+03 7.166652202606201172e+00 8.867072105407714844e+00 -1.012746473055131657e-13 2.347527884634533456e-15 -2.967813711798883425e-14 1.309077900333438516e-13
2.082000000000000000e+03 7.710049152374267578e+00 9.009991645812988281e+00 -6.442825331402779465e-14 1.096407375154352659e-13 1.356374526042224138e-14 3.352217253240440120e-14
2.083000000000000000e+03 2.728228759765625000e+01 5.521931648254394531e-01 -1.408023681372452818e-13 -2.662231329483844000e-13 -1.221076598124579138e-13 -4.132221772873076460e-14
2.084000000000000000e+03 2.860311126708984375e+01 4.546856284141540527e-01 -6.387602171373588100e-14 -2.332547132874451812e-13 -8.913921982272796085e-14 -1.899319257100441638e-14
2.085000000000000000e+03 2.848872184753417969e+01 -2.270569950342178345e-01 4.576337410151093410e-14 -2.613807472328852355e-14 5.887589644060133715e-15 8.432404758175818249e-14
2.086000000000000000e+03 3.128867912292480469e+01 -2.249385863542556763e-01 6.147773262688005502e-14 -6.515429607509629073e-14 -1.102969563860462746e-15 -1.061565657427265830e-13
2.087000000000000000e+03 3.066641807556152344e+01 4.414514303207397461e-01 2.064137469076025161e-14 -2.656594020288005620e-13 -7.350540396624735684e-14 -9.617350996528675755e-14
2.088000000000000000e+03 2.927689552307128906e+01 4.331102371215820312e-01 1.011555883544471013e-13 8.910334628334584672e-14 5.707768106896424221e-14 1.806376635727843794e-13
2.089000000000000000e+03 3.137281608581542969e+01 4.606131017208099365e-01 -6.490228005636561326e-14 -2.781526263929013504e-14 -2.781526263929013504e-14 2.507335769672165704e-14
2.090000000000000000e+03 7.021786212921142578e+00 1.019161033630371094e+01 -1.370423278980112403e-13 1.700223214171417419e-13 9.893996192266666517e-15 6.118293805618124637e-14
2.091000000000000000e+03 5.950942039489746094e+00 1.121313667297363281e+01 -1.625103860074944562e-14 -6.964730949897326301e-15 -6.964730949897326301e-15 1.275307984216489388e-13
2.092000000000000000e+03 3.208591842651367188e+01 4.843142628669738770e-01 5.473239252768401231e-14 -1.595470581821842315e-13 -3.144439732465781345e-14 -1.154208700187078773e-13
2.093000000000000000e+03 3.280779266357421875e+01 5.119054317474365234e-01 -1.044787493282781088e-13 -1.362785074674952024e-13 -7.222717703873199335e-14 -4.348942945131203941e-14
2.094000000000000000e+03 3.434304428100585938e+01 1.280654788017272949e+00 -1.342315608708968822e-13 -1.947806607845159466e-13 -9.870366514137113301e-14 7.823332673145225874e-15
2.095000000000000000e+03 3.500865173339843750e+01 6.047621369361877441e-01 1.136320321488298347e-15 4.623794294493499546e-14 1.421227942461928545e-14 -6.200449225238213735e-14
2.096000000000000000e+03 7.270479583740234375e+01 1.485295057296752930e+00 -2.460491391794578098e-13 1.919315401055499137e-13 -1.623527531760104309e-14 -7.952138432335345564e-14
2.097000000000000000e+03 7.152304077148437500e+01 8.630596399307250977e-01 -1.822681816674581734e-13 2.421417016548743639e-13 1.796205870673028837e-14 -5.104263569428134362e-14
2.098000000000000000e+03 7.405524444580078125e+01 3.614588737487792969e+00 -1.381534860470101655e-13 -5.920863978140303296e-14 -5.920863978140303296e-14 5.821587650963952476e-14
2.099000000000000000e+03 7.218130493164062500e+01 8.120605349540710449e-01 -2.510853937959245386e-13 -6.185707463824199892e-14 -9.388273985262360344e-14 -1.517893205875073259e-13
2.100000000000000000e+03 3.723805999755859375e+01 6.904379725456237793e-01 -1.158402936291338947e-13 -9.539678752891814217e-14 -6.337112231453653766e-14 -1.167135761274236058e-14
2.101000000000000000e+03 6.416187286376953125e+01 1.073259711265563965e+00 -2.007129678389604766e-13 -1.317707878575880009e-13 -9.974512941946997446e-14 1.171105584469450678e-13
2.102000000000000000e+03 6.491066741943359375e+01 1.045639872550964355e+00 -1.820438466854437665e-13 -1.695206881769870111e-13 -1.054693577482238021e-13 -6.972709576743988183e-15
2.103000000000000000e+03 7.348462677001953125e+01 9.087440967559814453e-01 -2.506248518181070084e-13 -1.590875089269808834e-14 -7.996007962739540287e-14 -5.530114804671096285e-14
2.104000000000000000e+03 5.815165328979492188e+01 1.128984570503234863e+00 -2.029406780427664425e-13 -4.122362986993394207e-14 -7.324929508431554659e-14 2.528920710267047040e-14
2.105000000000000000e+03 6.637987518310546875e+01 9.993091821670532227e-01 -2.230507309885707001e-13 4.165967904304866687e-14 -5.441731321196435767e-14 -9.871268434819349680e-14
2.106000000000000000e+03 6.113921356201171875e+01 3.704112470149993896e-01 -3.082078591908760101e-13 5.163759756566339496e-15 -9.091323207493021141e-14 -5.745235423472092040e-14
2.107000000000000000e+03 5.963328933715820312e+01 1.123950958251953125e+00 -2.326051677659091155e-13 -3.284426767016790372e-13 -1.683143506297710146e-13 2.656936018310789016e-14
2.108000000000000000e+03 6.787018585205078125e+01 2.825982868671417236e-01 -2.508308502308792542e-13 2.127577085862808470e-13 -1.142194198515975381e-14 3.388424862416951344e-14
2.109000000000000000e+03 6.038095092773437500e+01 1.112456202507019043e+00 -2.653234619856559284e-13 -2.220816202648263210e-14 -8.625949076117994663e-14 -6.427311075940869700e-14
2.110000000000000000e+03 6.113511276245117188e+01 1.103874325752258301e+00 -2.318340831808374247e-13 3.789538331028761975e-14 -5.818160894472540479e-14 -5.552384656107127447e-14
2.111000000000000000e+03 6.189017868041992188e+01 1.101801037788391113e+00 -2.750732313368947635e-13 -2.638662637726493093e-14 -9.043795172383045644e-14 -4.295746226725023764e-14
2.112000000000000000e+03 6.711273193359375000e+01 9.896739125251770020e-01 -2.232446540996468887e-13 2.245803640710947180e-13 4.007101379921077346e-16 5.238856765933663784e-14
2.113000000000000000e+03 6.340390014648437500e+01 1.094034194946289062e+00 -2.742370946214739424e-13 -1.175301853452784262e-13 -1.175301853452784262e-13 1.151874853366850054e-14
2.114000000000000000e+03 3.792315673828125000e+01 1.037795841693878174e-02 -1.102711536448905405e-13 -2.302628573924714317e-13 -1.021602033112085917e-13 6.480075129917592380e-14
2.115000000000000000e+03 7.292185211181640625e+01 1.716225445270538330e-01 -2.717640565710888190e-13 -1.164703099590380653e-13 -1.164703099590380653e-13 -7.914264539944995680e-14
2.116000000000000000e+03 7.361992645263671875e+01 2.215640544891357422e-01 -3.675284631753789055e-13 2.549160054321920194e-14 -1.026110552321095326e-13 1.387418012508551124e-13
2.117000000000000000e+03 5.513491058349609375e+01 3.598024249076843262e-01 -2.705357368248256789e-13 -1.616948355808237037e-13 -1.296691703664420992e-13 6.909695661775835940e-14
2.118000000000000000e+03 6.784803771972656250e+01 9.914193153381347656e-01 -1.767284100095620203e-13 1.072630482698566645e-13 -2.083961089360385904e-14 -6.710560248755423340e-14
2.119000000000000000e+03 5.439842605590820312e+01 1.070393681526184082e+00 -1.700454149234156831e-13 1.862528889256219455e-14 -4.542603814806922546e-14 2.255788837787677664e-14
2.120000000000000000e+03 5.514123916625976562e+01 1.077787637710571289e+00 -1.450360692005839280e-13 2.934358282074590873e-14 -3.470774421988551128e-14 1.363441016989305754e-13
2.121000000000000000e+03 7.009416198730468750e+01 9.926769733428955078e-01 -1.341131388886071529e-13 2.170286248891900582e-13 2.487464546136169269e-14 -1.197818343942396932e-14
2.122000000000000000e+03 6.933925628662109375e+01 1.005414009094238281e+00 -2.133972794478300461e-13 9.154781560648597716e-14 -3.655483847477686288e-14 -9.675073242565446208e-14
2.123000000000000000e+03 5.740480422973632812e+01 1.120325565338134766e+00 -1.935756378324340887e-13 -1.287119418208818034e-13 -9.668626983023662080e-14 4.659099644174595489e-14
2.124000000000000000e+03 5.665084075927734375e+01 1.105699777603149414e+00 -1.540824623924227921e-13 -6.603533908924874574e-14 -6.603533908924874574e-14 2.035278819393845917e-13
2.125000000000000000e+03 5.366821670532226562e+01 1.063684463500976562e+00 -1.971271588888448556e-13 -1.302340125932527348e-13 -9.820835415513470834e-14 9.579715628616272682e-14
2.126000000000000000e+03 3.655492401123046875e+01 1.387688398361206055e+00 -6.887838823604885974e-14 1.623163985219142763e-14 -1.579402366812428238e-14 2.438528064641499321e-14
2.127000000000000000e+03 5.294700241088867188e+01 1.054518818855285645e+00 -9.579545544400464019e-14 -2.240589983514007510e-13 -9.595633749387433298e-14 2.038258918471511777e-14
2.128000000000000000e+03 5.151154327392578125e+01 1.031144857406616211e+00 -1.830060896660518077e-13 -1.241821315917102098e-13 -9.215646637732860524e-14 4.127953404445272589e-14
2.129000000000000000e+03 4.858783340454101562e+01 1.020733714103698730e+00 -1.176033689919211978e-13 -1.190278615687684338e-13 -7.098937052345960508e-14 1.084027141597283805e-13
2.130000000000000000e+03 4.999565124511718750e+01 2.942035496234893799e-01 -1.903623471962573310e-13 -1.730857617605538468e-13 -1.090344313317906377e-13 1.733114926528653288e-13
2.131000000000000000e+03 4.337439727783203125e+01 1.769498944282531738e+00 -1.371643684050516399e-13 -5.878473028448835680e-14 -5.878473028448835680e-14 -2.287530211639906413e-15
2.132000000000000000e+03 4.253295135498046875e+01 9.360492229461669922e-01 -1.527155409509345363e-13 -1.112004639845093346e-13 -7.917479877012773004e-14 -5.242587099033371723e-14
2.133000000000000000e+03 3.798707580566406250e+01 7.195036411285400391e-01 -9.495911544067647814e-14 -1.779496146790682243e-13 -8.187261903592341072e-14 9.390741900457480473e-14
2.134000000000000000e+03 3.873652267456054688e+01 7.516922354698181152e-01 -9.395056347477614977e-14 -3.147702096802790228e-13 -1.226162319465165518e-13 7.435259954382753000e-14
2.135000000000000000e+03 5.005999755859375000e+01 1.012763857841491699e+00 -7.970078590158191645e-14 -1.256593841567760217e-13 -6.160804695174923462e-14 2.143653364625880409e-13
2.136000000000000000e+03 5.222986984252929688e+01 1.043386101722717285e+00 -1.605471533711391730e-13 2.269597338300406719e-14 -4.135535365762735283e-14 8.403284443075573207e-14
2.137000000000000000e+03 5.297610473632812500e+01 1.831619024276733398e+00 -2.109894561581199257e-13 -2.048014264687675334e-13 -1.247372702090771002e-13 2.675054053052558500e-14
2.138000000000000000e+03 4.093823242187500000e+01 1.362691521644592285e-01 -1.855330261169366168e-13 -3.376320761600687392e-14 -6.578887283038847844e-14 2.773308689087931184e-14
2.139000000000000000e+03 4.700237655639648438e+01 3.111996352672576904e-01 -9.781730953657349903e-14 4.958019604139711489e-14 -1.447113438736609414e-14 3.860090076897824962e-14
2.140000000000000000e+03 4.023955917358398438e+01 8.216215968132019043e-01 -1.512852478924645028e-13 -2.935912689176756185e-13 -1.334629563982947520e-13 1.025593997748541764e-13
2.141000000000000000e+03 4.475237655639648438e+01 2.892773151397705078e-01 -1.280592792180998418e-13 -1.006334975745502847e-13 -6.860783236016868014e-14 1.311306071323167788e-13
2.142000000000000000e+03 4.633995056152343750e+01 1.073978185653686523e+00 -1.119458462018295408e-13 8.927605968942278758e-14 -6.800935953722025973e-15 1.653082882982059160e-14
2.143000000000000000e+03 4.176200866699218750e+01 8.942479491233825684e-01 -1.441711604700107729e-13 -6.178763826535788040e-14 -6.178763826535788040e-14 6.755942918816593146e-14
2.144000000000000000e+03 4.099752044677734375e+01 8.573617339134216309e-01 -1.907940629488139028e-13 -2.190217272953973171e-13 -1.229447316522525036e-13 -5.708051354713986059e-14
2.145000000000000000e+03 4.559222030639648438e+01 1.079326510429382324e+00 -1.409021824997497285e-13 -2.205149718425072902e-13 -1.084251435921716744e-13 9.061657403174744330e-14
2.146000000000000000e+03 4.783977508544921875e+01 1.040704250335693359e+00 -9.587529338148104152e-14 9.616343366134622039e-14 8.644359009001299820e-17 7.116261247809563262e-14
2.147000000000000000e+03 4.708905029296875000e+01 1.060043573379516602e+00 -1.620311550947287071e-13 -1.380683490714157413e-13 -9.002985124984333454e-14 7.454682758676473009e-14
2.148000000000000000e+03 4.416316223144531250e+01 1.864640116691589355e+00 -1.652392686655318466e-13 -1.394432529513989216e-13 -9.140475512982651485e-14 1.342537599103785229e-13
2.149000000000000000e+03 4.992216587066650391e+00 8.477578163146972656e+00 -7.542777573322709261e-14 5.917570714041378577e-14 -4.875621170767055132e-15 4.553425507741043488e-14
2.150000000000000000e+03 6.526320457458496094e+00 7.356123924255371094e+00 -9.923016726885725003e-14 2.777294182392670008e-13 5.354977529112292522e-14 1.015478527004523568e-13
2.151000000000000000e+03 9.360793113708496094e+00 8.164650917053222656e+00 -2.148861600811957651e-14 3.110472220502896734e-13 8.686758587840917589e-14 -2.536244597586140292e-13
2.152000000000000000e+03 5.321856498718261719e+00 7.852398395538330078e+00 -1.269048071923101206e-13 -5.438777547902770571e-14 -5.438777547902770571e-14 -1.684260641111184897e-14
2.153000000000000000e+03 7.508627414703369141e+00 6.073036193847656250e+00 -3.474671789985457615e-14 2.596142430807274470e-13 6.746025857070139797e-14 5.657448251192298549e-14
2.154000000000000000e+03 7.302039146423339844e+00 7.208604335784912109e+00 -9.826689429618534755e-14 2.323913088873863497e-13 4.023732437736030065e-14 -1.149690694209060116e-13
2.155000000000000000e+03 7.352341461181640625e+01 2.311273002624511719e+01 -5.729865544776041771e-17 4.572639264303381135e-14 1.370072827568515408e-14 -5.594428661103399703e-14
2.156000000000000000e+03 5.648784637451171875e+00 2.578272056579589844e+01 -8.158575946987448035e-14 -1.722181696296037900e-13 -7.614118076272255453e-14 -8.162016256006016102e-14
2.157000000000000000e+03 6.054629325866699219e+00 2.337300300598144531e+01 2.702750844581647965e-14 5.733416942165642238e-14 2.530850251320892336e-14 -9.586679594695418638e-14
2.158000000000000000e+03 6.509963989257812500e+00 2.819434165954589844e+01 1.029952964820383954e-13 4.414084183346385359e-14 4.414084183346385359e-14 -5.220246435642950100e-14
2.159000000000000000e+03 7.351000213623046875e+01 2.710378646850585938e+01 6.637946803516919705e-16 3.434165929058763389e-13 1.032241173505414611e-13 -1.375944714068766395e-14
2.160000000000000000e+03 7.333993530273437500e+01 1.633582878112792969e+01 -3.158929078061513407e-14 3.067183822463154241e-13 8.253872574564419251e-14 -4.604411808968068842e-14
2.161000000000000000e+03 7.428911590576171875e+01 1.866946411132812500e+01 -4.088842166325573624e-14 3.942349376638565328e-13 1.060039507344220922e-13 -6.844848852213120116e-14
2.162000000000000000e+03 7.203903961181640625e+01 1.000257873535156250e+01 -8.594438095227419083e-14 1.232950102691282579e-13 1.120519133615506188e-14 -1.567175615625401863e-13
2.163000000000000000e+03 7.361854553222656250e+01 1.083176326751708984e+01 1.376525693967288119e-14 -3.985155169186280211e-14 -7.825889018580039352e-15 1.054650480445881722e-13
2.164000000000000000e+03 7.253629302978515625e+01 2.128072738647460938e+00 -2.312193947591467680e-13 2.440381067798230719e-13 3.845613860312775342e-15 -8.420064504573859798e-14
2.165000000000000000e+03 7.434671020507812500e+01 1.930560874938964844e+01 4.932209832610515154e-14 2.498927985112447958e-13 8.976446566307319519e-14 1.583060363298440659e-14
2.166000000000000000e+03 7.362107849121093750e+01 9.989104270935058594e+00 3.847908726676771418e-14 1.994948260405915441e-13 7.139217873559228211e-14 -1.263609849351185477e-13
2.167000000000000000e+03 7.394174194335937500e+01 2.146592140197753906e+01 6.497917709544914766e-14 3.023538992959207139e-13 1.101999283384218209e-13 -8.202761251274379162e-14
2.168000000000000000e+03 6.852981567382812500e+01 1.727807998657226562e+00 -1.905679119281605827e-13 1.242073121871661856e-13 -1.990818127755103473e-14 -8.126997881087449915e-14
2.169000000000000000e+03 7.354234313964843750e+01 2.903502941131591797e+00 -1.299658216333612892e-13 -1.014505862130532510e-13 -6.942492099867164645e-14 2.605905501963916987e-14
2.170000000000000000e+03 7.333882904052734375e+01 1.542919826507568359e+01 3.269047426962719272e-14 2.427649552737276561e-13 8.263662242555605553e-14 -9.540411944610957540e-14
2.171000000000000000e+03 5.356076240539550781e+00 2.123612976074218750e+01 -4.973553510765997554e-14 -6.706617818605722925e-14 -3.504051297167562473e-14 -2.022091668369904727e-13
2.172000000000000000e+03 7.363475799560546875e+01 9.154135704040527344e+00 7.279683718894661149e-14 1.913269618691176843e-13 7.923714039504564655e-14 3.774880256469936857e-14
2.173000000000000000e+03 7.383920288085937500e+01 1.307288742065429688e+01 -4.994153690856401040e-14 7.009837995437459557e-14 6.047054184292596432e-15 5.036034387900442666e-14
2.174000000000000000e+03 7.421104431152343750e+01 1.997992324829101562e+01 3.255270944295396429e-14 2.884568668995446394e-13 9.630286883699143430e-14 -4.493904163724304901e-14
2.175000000000000000e+03 7.341363525390625000e+01 1.979210662841796875e+01 9.675046815137491873e-14 1.787173382374052100e-13 8.264034259426039641e-14 2.962695726973336129e-15
2.176000000000000000e+03 7.478270721435546875e+01 2.339529037475585938e+00 -1.827380748890133910e-13 1.504384317856446995e-13 -9.689895133296270308e-15 3.981050193414001695e-15
2.177000000000000000e+03 6.128623008728027344e+00 2.115375518798828125e+01 9.856046786889068913e-16 2.749280837710532666e-13 8.277411281355437356e-14 6.396426221804904499e-14
2.178000000000000000e+03 6.435626983642578125e+00 2.562115097045898438e+01 -2.595771091563198185e-14 -1.112473337056127040e-14 -1.112473337056127040e-14 9.055855566299231274e-14
2.179000000000000000e+03 6.240253448486328125e+00 9.280892372131347656e+00 -3.380851032615782292e-14 2.600163194563936964e-13 6.786234849889480336e-14 1.816237183436056335e-13
2.180000000000000000e+03 7.448849487304687500e+01 6.685871124267578125e+00 -7.776620330763456268e-14 3.098037505786660484e-13 6.961126147080401450e-14 1.449622621376919773e-13
2.181000000000000000e+03 7.006374359130859375e+01 1.769134521484375000e+00 -2.654821891837078063e-13 1.607276188227493852e-13 -3.142636907540845292e-14 -5.938215532768102364e-15
2.182000000000000000e+03 7.365969848632812500e+01 8.324925422668457031e+00 -7.225077876477428718e-14 -3.096461753454224364e-14 -3.096461753454224364e-14 -3.648648630406522986e-15
2.183000000000000000e+03 7.227162933349609375e+01 2.613746070861816406e+01 -1.381597896662036321e-14 1.999581327339489123e-13 5.584264604549527000e-14 -6.319909331108097827e-14
2.184000000000000000e+03 7.223289489746093750e+01 2.499515914916992188e+01 2.217404184530133437e-14 2.382578997376511021e-13 7.812958721827023556e-14 -7.576573510291798041e-14
2.185000000000000000e+03 8.282731056213378906e+00 2.332666778564453125e+01 1.090766931936609438e-14 4.674715120073702143e-15 4.674715120073702143e-15 -2.030023725345126567e-14
2.186000000000000000e+03 6.186009883880615234e+00 2.406933212280273438e+01 3.805180657872296590e-14 -1.666958807317389657e-13 -3.859321987421254763e-14 7.663697286367301964e-14
2.187000000000000000e+03 7.350559997558593750e+01 1.455459880828857422e+01 -9.363464729050460789e-14 2.343765643803702448e-13 4.222257309408061765e-14 -5.453724291290019954e-14
2.188000000000000000e+03 7.318029022216796875e+01 2.124806976318359375e+01 -4.283120353613251163e-14 2.561494581981155205e-13 6.399548046435304949e-14 -7.624937058700945181e-14
2.189000000000000000e+03 7.329701995849609375e+01 2.054997825622558594e+01 4.116029891053363254e-14 3.836477305545898941e-13 1.274424088395370580e-13 2.530233272522112303e-14
2.190000000000000000e+03 7.383530139923095703e+00 2.616470336914062500e+01 -3.832809517359016260e-14 -1.536791662893124966e-13 -5.760217742243126104e-14 1.536885886838177534e-14
2.191000000000000000e+03 7.381556701660156250e+01 1.700732469558715820e+00 -1.649312874859101830e-13 -7.068483846199916099e-14 -7.068483846199916099e-14 5.408078702202022414e-14
2.192000000000000000e+03 7.472584533691406250e+01 1.810886859893798828e+00 -3.560996170246660819e-13 -6.111222096948087934e-14 -1.251635513982440884e-13 2.190268975845073574e-14
2.193000000000000000e+03 5.811677455902099609e+00 7.438231468200683594e+00 -6.926475723274122531e-14 6.181699981544150346e-14 -2.234327648706390182e-15 4.179776235411006291e-14
2.194000000000000000e+03 6.523609638214111328e+00 7.995141506195068359e+00 -1.878516331203783363e-13 -2.635116517352154020e-13 -1.354089773251618278e-13 9.649611432170981939e-14
2.195000000000000000e+03 7.368535614013671875e+01 1.377140903472900391e+01 8.356923958180093037e-14 3.103210776452675068e-13 1.181670999115050358e-13 -6.175199511893741944e-14
2.196000000000000000e+03 7.304985046386718750e+01 1.867481231689453125e+01 6.567478765678869124e-14 2.569010813541910965e-13 9.677276205854665192e-14 7.897709450397499831e-14
2.197000000000000000e+03 7.394765472412109375e+01 4.308053970336914062e+00 -2.289854503928490104e-13 -1.438875738392700332e-13 -1.118619086248884287e-13 7.770976380829311414e-14
2.198000000000000000e+03 7.373812103271484375e+01 6.673521518707275391e+00 -7.577873536459243942e-15 1.797561394439178839e-13 5.165347858639146583e-14 -8.372888835169942090e-14
2.199000000000000000e+03 7.378851318359375000e+01 5.851956844329833984e+00 -1.385902975497774192e-13 3.210605202920782664e-14 -3.194527501142359338e-14 9.184456851735883776e-14
2.200000000000000000e+03 6.315464496612548828e+00 2.483175277709960938e+01 1.698666299851728234e-14 9.878189710437954019e-14 3.473056667561633115e-14 1.298709793542572252e-14
2.201000000000000000e+03 7.242490386962890625e+01 2.728876304626464844e+01 -8.044049638628730792e-14 1.942802472718052620e-13 3.415192458802902842e-14 -6.444646113426197309e-14
2.202000000000000000e+03 1.305226230621337891e+01 2.278504943847656250e+01 4.649155816187008905e-14 -7.157694711457454617e-14 -7.525615838778389882e-15 1.300519614959652626e-13
2.203000000000000000e+03 2.341201782226562500e+01 5.146002292633056641e+00 -1.587218719087055141e-13 -1.137746038874787313e-13 -8.174894544936070484e-14 4.454802412373615184e-14
2.204000000000000000e+03 2.238091659545898438e+01 1.197237396240234375e+01 -1.352991747501433584e-13 -1.494872612197231665e-13 -8.543593079095995746e-14 -5.874798260710467623e-14
2.205000000000000000e+03 2.159170722961425781e+01 1.186662578582763672e+01 4.880796965591252534e-14 -2.535880034605642042e-13 -6.143400539801099902e-14 -2.319662575900587748e-14
2.206000000000000000e+03 8.792278289794921875e+00 2.229673194885253906e+01 3.995941625549795373e-14 1.543783140602397741e-13 5.830131841709496054e-14 -4.634021031485469067e-14
2.207000000000000000e+03 1.043072605133056641e+01 2.283107566833496094e+01 5.948904665045978007e-15 -2.033297439923628658e-13 -5.921425052764564545e-14 2.797924482974677857e-14
2.208000000000000000e+03 2.131156730651855469e+01 1.404637622833251953e+01 -1.610796186105739602e-13 -2.520379196145616785e-13 -1.239352587570352604e-13 7.966834115157028773e-14
2.209000000000000000e+03 1.988094329833984375e+01 1.774839782714843750e+01 -1.018894848050025392e-13 -2.266707194121739266e-13 -9.856805855464750854e-14 -2.180138970015680494e-14
2.210000000000000000e+03 2.165460395812988281e+01 1.568734359741210938e+01 -9.337951249646214008e-15 -3.013831588807858175e-13 -9.321632821104181010e-14 4.779124551613708749e-14
2.211000000000000000e+03 2.268096351623535156e+01 2.276193857192993164e+00 -9.322807825208612176e-14 -1.314567893559090428e-13 -6.740545892714583376e-14 4.515499438121142739e-14
2.212000000000000000e+03 2.355389213562011719e+01 4.205633163452148438e+00 -5.077057209975505137e-14 1.154940265602963367e-13 1.941703769341510122e-14 1.165958199130304185e-13
2.213000000000000000e+03 2.408376121520996094e+01 6.938712120056152344e+00 -2.399606223088806417e-14 -1.017859231687394395e-13 -3.773459612810801944e-14 6.326894981230693493e-14
2.214000000000000000e+03 2.233673286437988281e+01 8.617502212524414062e+00 5.184285143647500427e-14 1.365957314706373049e-13 5.653157521094687166e-14 3.097142767943816821e-14
2.215000000000000000e+03 2.218379592895507812e+01 9.474044799804687500e+00 -1.270198410428108327e-13 -2.145653988684659286e-13 -1.024755706181303128e-13 7.095022404876930033e-14
2.216000000000000000e+03 2.524799156188964844e+01 5.109822273254394531e+00 -9.631797312850687298e-14 4.471816847888407040e-15 -2.755384794297672385e-14 -6.603213158723573051e-16
2.217000000000000000e+03 2.200364494323730469e+01 1.030581283569335938e+01 -2.533500786819440492e-14 -3.082390300033349684e-13 -1.000722128861181170e-13 2.313569698504398114e-14
2.218000000000000000e+03 2.203599929809570312e+01 1.388371372222900391e+01 5.578264561964356438e-14 -2.505988309659673563e-13 -5.844486000846846330e-14 -1.112596728580718310e-15
2.219000000000000000e+03 1.853519248962402344e+01 1.836733245849609375e+01 -3.383834960282369742e-14 -4.309649086708076948e-14 -2.308045180215816117e-14 -1.971872033604098184e-14
2.220000000000000000e+03 1.120822525024414062e+01 2.278661918640136719e+01 -1.922934535669891531e-14 -3.111662267912471136e-14 -1.510379007193390910e-14 7.269013136638330375e-14
2.221000000000000000e+03 1.756303405761718750e+01 2.087061119079589844e+01 -4.505555610133556155e-14 -2.023133180081848614e-13 -7.421066392692202141e-14 5.804395592640121393e-14
2.222000000000000000e+03 8.535868644714355469e+00 8.615165710449218750e+00 -1.237341799116206675e-13 2.672277004713008441e-13 4.304806091128855761e-14 -7.985965540116893302e-14
2.223000000000000000e+03 2.397862625122070312e+01 1.356783032417297363e+00 -2.263316588996516082e-14 -5.545087636673121101e-14 -2.342521284641550100e-14 -3.506823127784157446e-14
2.224000000000000000e+03 2.388208198547363281e+01 2.189425706863403320e+00 -3.725301046374890346e-14 -6.171652137910640934e-14 -2.969085955285659384e-14 8.131626069111247412e-14
2.225000000000000000e+03 1.620469474792480469e+01 2.013216590881347656e+01 -1.071973473122699375e-14 -3.248508233244518095e-13 -1.006711668237805779e-13 1.761112956855104272e-13
2.226000000000000000e+03 1.839167404174804688e+01 2.010154724121093750e+01 -5.413889687033365816e-14 -2.519571194476571963e-13 -9.182880692827632974e-14 -9.558203532854855217e-15
2.227000000000000000e+03 1.743642807006835938e+01 2.261489486694335938e+01 1.440134056657823430e-14 -1.997072619037629226e-13 -5.559177860344106936e-14 1.835667780432891083e-15
2.228000000000000000e+03 1.490468120574951172e+01 2.208284378051757812e+01 -4.050885942332750622e-15 -3.019767053601130069e-13 -9.180827484963488549e-14 5.238388864933600508e-14
2.229000000000000000e+03 2.098963165283203125e+01 1.773834609985351562e+01 1.527490597387232835e-14 -1.764574001240221124e-13 -4.835474943089106137e-14 4.288419391731274066e-14
2.230000000000000000e+03 1.922980308532714844e+01 1.933777618408203125e+01 -3.565868778097718017e-14 -3.126634693338681270e-13 -1.044966454403876976e-13 -3.422060201939240709e-14
2.231000000000000000e+03 1.604643249511718750e+01 2.225244140625000000e+01 1.254226215073594997e-13 -3.122550232704385254e-13 -5.604972188417642331e-14 4.825970216981376182e-14
2.232000000000000000e+03 1.453045082092285156e+01 2.276163101196289062e+01 2.138440791631113225e-13 -9.135633195029788101e-14 3.674632213096495903e-14 1.356762873707881289e-13
2.233000000000000000e+03 7.220970153808593750e+00 3.076827239990234375e+01 -1.448893732585148503e-14 -1.892133368389115056e-13 -6.111068275764866553e-14 2.217185311216562926e-14
2.234000000000000000e+03 7.129039764404296875e+01 3.117986679077148438e+01 2.301510490434338640e-14 -3.588733246662721699e-14 -3.861668099278559724e-15 -1.289026597592855816e-15
2.235000000000000000e+03 7.193575286865234375e+01 2.983635520935058594e+01 2.237150809519588765e-15 1.153361531714552912e-13 3.527199013550127993e-14 -6.961440565710422246e-14
2.236000000000000000e+03 7.050605010986328125e+01 3.425138854980468750e+01 2.335002003762184225e-14 2.187458520526083805e-13 7.262876552342062419e-14 -3.806340415383677178e-14
2.237000000000000000e+03 6.943276214599609375e+01 3.582123947143554688e+01 -4.835570911922030049e-15 2.352606499368692372e-13 6.912752434275887259e-14 -3.142395333744288366e-14
2.238000000000000000e+03 7.681882381439208984e+00 3.476235580444335938e+01 -1.108250115484411824e-14 -1.763156949000782570e-13 -5.621946051054260707e-14 1.285168870737880831e-14
2.239000000000000000e+03 1.008063697814941406e+01 3.632907485961914062e+01 2.626630534710745757e-14 -1.603090761265885122e-13 -4.021282818452570629e-14 4.170882389464836137e-14
2.240000000000000000e+03 2.535607719421386719e+01 9.774586558341979980e-01 -4.647638610771887002e-14 4.870797233429147166e-14 6.694756244498081561e-16 -2.282180351545048252e-14
2.241000000000000000e+03 2.345077514648437500e+01 2.820309877395629883e+00 -2.464259400919779908e-14 -1.020630113627088442e-13 -3.801168093394563519e-14 4.178568027615042757e-14
2.242000000000000000e+03 2.467911148071289062e+01 1.224581241607666016e+00 -3.516396632967204450e-14 -1.065721675404945890e-13 -4.252084049986316894e-14 1.348885873874230978e-13
2.243000000000000000e+03 2.793826484680175781e+01 4.933595657348632812e-01 -5.031719263253950358e-14 2.418643796798115170e-14 -7.839226399367505566e-15 1.201454842732208039e-13
2.244000000000000000e+03 2.682468605041503906e+01 1.332842350006103516e+00 -7.528876746218729488e-14 -1.237685084629069898e-13 -5.971718481040735882e-14 -4.448032925059158815e-14
2.245000000000000000e+03 2.621712493896484375e+01 1.476973414421081543e+00 1.606995379864820106e-13 1.603731253699280934e-13 9.632180171742846242e-14 1.471350032913529282e-13
2.246000000000000000e+03 2.744161415100097656e+01 1.237249255180358887e+00 3.327324648986530742e-14 6.001090873146083804e-14 2.798524690521102254e-14 6.393155319375787293e-14
2.247000000000000000e+03 2.807668685913085938e+01 1.172967672348022461e+00 -9.023367448200703134e-14 -1.301734734544465755e-13 -6.612214302568336644e-14 2.063876074708502484e-14
2.248000000000000000e+03 2.950367927551269531e+01 1.796941399574279785e+00 4.401306521930464788e-14 -1.412655799629125575e-13 -2.917575510070873068e-14 -2.353362967553226243e-14
2.249000000000000000e+03 6.704926490783691406e+00 8.999375343322753906e+00 -1.615927443937570374e-13 -1.607559300519784129e-13 -9.670459962321520386e-14 -1.821131407567927463e-13
2.250000000000000000e+03 2.821981048583984375e+01 1.842858791351318359e+00 6.843667749471468720e-14 2.933000318853552779e-14 2.933000318853552779e-14 8.440174421994392495e-14
2.251000000000000000e+03 3.353850173950195312e+01 5.425600409507751465e-01 -1.400632590459324409e-14 -6.002711162470886555e-15 -6.002711162470886555e-15 -3.188754421035405566e-15
2.252000000000000000e+03 3.146104240417480469e+01 1.156272888183593750e+00 1.429038094455381547e-14 -1.311283980703903396e-13 -3.505140581537731503e-14 -9.128497111855760071e-14
2.253000000000000000e+03 3.427301025390625000e+01 5.738086104393005371e-01 -1.303645911924014578e-13 -1.016214903567548566e-13 -6.959582514237325213e-14 1.303335152476325920e-13
2.254000000000000000e+03 3.288333511352539062e+01 1.210074782371520996e+00 3.096734159250061347e-14 1.505245580957215168e-13 5.444757261697207029e-14 -1.800159955996083472e-13
2.255000000000000000e+03 3.361019515991210938e+01 1.242623209953308105e+00 -8.494211058271070036e-14 -8.215471488867698291e-14 -5.012904628616358937e-14 8.905142655181094713e-14
2.256000000000000000e+03 3.574746704101562500e+01 6.349471807479858398e-01 -1.625871881788878981e-13 -6.968022350523767061e-14 -6.968022350523767061e-14 1.188554598708160825e-13
2.257000000000000000e+03 7.337825775146484375e+01 3.529602050781250000e+00 -3.265571407035094964e-13 -7.132663193800195534e-14 -1.193651297595743621e-13 -4.316232565587316272e-14
2.258000000000000000e+03 7.241886138916015625e+01 2.805382728576660156e+00 -3.472843486309468153e-13 3.416764890766185725e-14 -9.393501194986456082e-14 8.729403647416561496e-14
2.259000000000000000e+03 6.492848205566406250e+01 2.564866781234741211e+00 -2.155279264521442473e-13 -1.609955387320977094e-13 -1.129570409105253026e-13 6.875168565966677248e-14
2.260000000000000000e+03 6.564841461181640625e+01 1.746778964996337891e+00 -1.028461848020037483e-13 -4.407693489165941114e-14 -4.407693489165941114e-14 -5.359861859899339720e-14
2.261000000000000000e+03 6.858923339843750000e+01 1.000066161155700684e+00 -1.878625157996846595e-13 2.854950976148573627e-13 2.928977251167273754e-14 1.586755968047311172e-14
2.262000000000000000e+03 3.586645126342773438e+01 2.105123519897460938e+00 -7.496572264863166080e-14 5.937372989095468512e-14 -4.677598843742629409e-15 3.135678023659382863e-14
2.263000000000000000e+03 6.264501571655273438e+01 1.102263927459716797e+00 -2.571251317331352260e-13 -6.444553956241536041e-14 -9.647119800053338690e-14 5.472056117147676424e-14
2.264000000000000000e+03 5.810789108276367188e+01 2.735574483871459961e+00 -1.534630305862275113e-13 -2.945246043578597650e-13 -1.343962918384788985e-13 5.632539383905801889e-14
2.265000000000000000e+03 5.514883804321289062e+01 1.802234292030334473e+00 -1.716963160189322046e-13 -1.650860302409781766e-13 -1.010347065884785456e-13 7.936516434282545052e-14
2.266000000000000000e+03 7.328279876708984375e+01 1.567647457122802734e+00 -3.519003664853581625e-13 2.609440983604438546e-13 -2.728688009866111347e-14 9.595492125478652379e-14
2.267000000000000000e+03 7.449623107910156250e+01 1.431415438652038574e+00 -6.816402097712531694e-14 -1.779037393746449314e-13 -7.382032403977292767e-14 9.366992621275774950e-15
2.268000000000000000e+03 6.186688995361328125e+01 1.850912213325500488e+00 -1.817523995889525068e-13 1.508608640570993642e-13 -9.267461167775711134e-15 -3.447672784198316243e-14
2.269000000000000000e+03 6.415826416015625000e+01 1.837845683097839355e+00 -1.890499611240450961e-13 -8.102141191030504119e-14 -8.102141191030504119e-14 1.882258658290024422e-14
2.270000000000000000e+03 6.262000656127929688e+01 1.864098787307739258e+00 -2.117963600724651063e-13 -2.214344532118061454e-14 -7.018193806055533779e-14 -5.234793718292274356e-14
2.271000000000000000e+03 6.996658325195312500e+01 2.562598228454589844e+00 -2.535456924707829574e-13 1.658432505907692089e-13 -2.631073730738862915e-14 -6.167521327633471162e-14
2.272000000000000000e+03 6.928127288818359375e+01 1.756303787231445312e+00 -1.669002121836710151e-13 2.487279859072349941e-13 2.454833279469555152e-14 -3.592132898099821559e-15
2.273000000000000000e+03 5.739804077148437500e+01 1.876103043556213379e+00 -1.040796951661676628e-13 -1.361074881273127701e-13 -7.205615092228598306e-14 1.949062385011440801e-13
2.274000000000000000e+03 5.589416885375976562e+01 1.090061187744140625e+00 -1.235343343461772769e-13 -7.192338020186976599e-15 -3.921800154050268661e-14 -6.239674982212381482e-14
2.275000000000000000e+03 5.589414978027343750e+01 1.808983325958251953e+00 -7.716753397304237927e-14 1.041810477405043234e-13 8.104052944392457075e-15 7.330601918672727257e-14
2.276000000000000000e+03 5.226338958740234375e+01 1.821375846862792969e+00 -1.574328503933103418e-13 -6.747122256517065764e-14 -6.747122256517065764e-14 2.609620927283753250e-14
2.277000000000000000e+03 5.083534622192382812e+01 1.771994113922119141e+00 -1.051083726348947534e-13 -6.792191863200930380e-14 -5.190908602481850154e-14 8.376448406427483562e-14
2.278000000000000000e+03 3.879734420776367188e+01 1.483824610710144043e+00 -2.066386172144395877e-14 -5.460688934995523713e-14 -2.258122582963952713e-14 -1.471826641412290332e-14
2.279000000000000000e+03 4.181629943847656250e+01 1.633247375488281250e+00 -1.221490221253382358e-13 -1.896024298935622410e-13 -9.352543425041742742e-14 -5.300139260854333512e-14
2.280000000000000000e+03 4.868169021606445312e+01 1.754213571548461914e+00 -3.675065555152311203e-14 -8.437670592602308783e-14 -3.633820810445068106e-14 5.841279472921720450e-14
2.281000000000000000e+03 4.940807342529296875e+01 1.745500087738037109e+00 -5.714102558089170780e-14 2.500166686094512647e-13 5.786269765195237169e-14 8.180812933545125731e-14
2.282000000000000000e+03 3.948678207397460938e+01 7.865145206451416016e-01 -1.291239928565349193e-13 -1.468407508217403623e-13 -8.278942039297715327e-14 1.579217883036516251e-14
2.283000000000000000e+03 5.155207061767578125e+01 1.797364473342895508e+00 -8.931500287620575129e-14 1.676014063861988590e-13 2.348592308587700572e-14 6.409932670368642671e-14
2.284000000000000000e+03 4.794174575805664062e+01 1.788626194000244141e+00 -1.484340130192621232e-13 -6.361457991236815768e-14 -6.361457991236815768e-14 -3.679517560323079806e-14
2.285000000000000000e+03 4.484330749511718750e+01 1.071781277656555176e+00 -7.221355674894014420e-14 6.055323343440166539e-14 -3.498096994361543643e-15 -1.938175538303017059e-14
2.286000000000000000e+03 4.338225936889648438e+01 2.548972606658935547e+00 -1.852327021151581321e-13 5.786740715513910560e-14 -3.820958848800570795e-14 -3.978562203538031639e-14
2.287000000000000000e+03 3.954742431640625000e+01 1.521589517593383789e+00 -1.311715645634483132e-14 -2.849711230336858525e-14 -1.248428054321073025e-14 1.196705630640906848e-13
2.288000000000000000e+03 4.806435394287109375e+01 2.544258356094360352e+00 -1.328397705420772401e-13 -1.713087001897414807e-13 -9.124453715378746943e-14 -1.830641148110705163e-14
2.289000000000000000e+03 4.105334854125976562e+01 1.595619678497314453e+00 -8.912231982136434305e-14 -3.819528040746068831e-14 -3.819528040746068831e-14 7.386853037886706441e-14
2.290000000000000000e+03 4.029885101318359375e+01 1.559063911437988281e+00 -6.964165978921507683e-14 3.877999741534569889e-14 -9.258498712160813382e-15 3.960322873678215339e-15
2.291000000000000000e+03 4.570034790039062500e+01 1.914769768714904785e+00 -1.077317149877042579e-13 2.245568707652696727e-14 -2.558280905097954500e-14 4.725788919804178867e-14
2.292000000000000000e+03 4.258883666992187500e+01 1.687876582145690918e+00 -1.669533380901228048e-13 -7.155143448220324665e-14 -7.155143448220324665e-14 2.472090559330324816e-14
2.293000000000000000e+03 6.587955951690673828e+00 9.771086692810058594e+00 -1.682025151756791348e-14 -7.208678979805406561e-15 -7.208678979805406561e-15 -1.173662946343800861e-13
2.294000000000000000e+03 5.894329071044921875e+00 8.049098968505859375e+00 -1.504494093326411153e-13 1.642764293737289383e-13 4.148107113469178334e-15 1.249937111279242341e-13
2.295000000000000000e+03 7.007364273071289062e+00 8.287774085998535156e+00 -1.893016722109147620e-13 1.018745024862315052e-13 -2.622815159503133486e-14 -2.113026686132238319e-13
2.296000000000000000e+03 8.108889579772949219e+00 7.122391700744628906e+00 -4.091794245553344311e-14 2.821468780183147840e-14 -3.810976989033652493e-15 5.770932370212714102e-14
2.297000000000000000e+03 7.259384155273437500e+01 2.079884910583496094e+01 -2.797242790858727596e-14 3.082684660923179498e-13 8.408880959164671820e-14 -1.845841154349183583e-14
2.298000000000000000e+03 7.256803131103515625e+01 1.660182952880859375e+01 -5.354250436030369431e-14 2.973098655288664016e-13 7.313020225193159196e-14 -3.868955462536967371e-14
2.299000000000000000e+03 8.729869842529296875e+00 7.957091808319091797e+00 3.763200688566836760e-14 3.135091741334611326e-13 1.053423502399807032e-13 -5.499418669475779342e-14
2.300000000000000000e+03 7.283795928955078125e+01 1.000075817108154297e+01 9.668102500222722218e-14 1.855924912179656577e-14 3.457208342305326254e-14 1.169591360610303110e-13
2.301000000000000000e+03 7.282815551757812500e+01 1.085631847381591797e+01 -9.285160260021768641e-14 -3.979354348750303860e-14 -3.979354348750303860e-14 -1.512022115585792692e-13
2.302000000000000000e+03 7.385474395751953125e+01 5.055969238281250000e+00 -1.161285287766891661e-13 8.748347369875314472e-14 -8.593517709226932560e-15 -8.294778167279581726e-14
2.303000000000000000e+03 7.169525909423828125e+01 2.765370607376098633e+00 -2.273770093649124524e-13 1.770584004932851396e-13 -1.509558571080680395e-14 3.987801638926681547e-14
2.304000000000000000e+03 7.201132965087890625e+01 1.172559452056884766e+01 -6.518237013510008726e-14 1.550684900581897341e-13 2.696583767099278856e-14 -1.268034749467641942e-13
2.305000000000000000e+03 7.285519409179687500e+01 9.155487060546875000e+00 3.455575262783019963e-14 2.206888778709739651e-13 7.657339118252032284e-14 -3.486420136963874761e-14
2.306000000000000000e+03 6.965605926513671875e+01 2.623336219787597656e+01 -3.184030730046805147e-14 -1.051477427262831332e-13 -4.109641568565171321e-14 -1.639029928760752514e-14
2.307000000000000000e+03 7.266546630859375000e+01 1.941987800598144531e+01 -7.883185207044340892e-14 1.492187178941256631e-13 2.111605873066513955e-14 -1.520851180452156837e-13
2.308000000000000000e+03 7.366640472412109375e+01 2.293997049331665039e+00 -2.572657798599609080e-13 7.274703165164805863e-14 -5.535562242961478141e-14 -4.268663534082693667e-14
2.309000000000000000e+03 7.421540069580078125e+01 2.363499402999877930e+00 -1.266504804676993334e-13 3.722312375323798272e-14 -2.682820498145933180e-14 1.084336545792256856e-13
2.310000000000000000e+03 7.082951354980468750e+01 2.612086057662963867e+00 -2.519074629881573602e-13 1.665453528126165095e-13 -2.560863677960722312e-14 -5.993782672877173701e-14
2.311000000000000000e+03 7.329392242431640625e+01 1.284728336334228516e+01 2.763287611695555007e-14 5.759361222526862556e-14 2.556794531682112653e-14 -1.156790727660853002e-13
2.312000000000000000e+03 7.217107391357421875e+01 1.872571372985839844e+01 7.284490122650560950e-14 2.599739813615581374e-13 9.984566884217727090e-14 -1.761205249565037101e-13
2.313000000000000000e+03 7.299178314208984375e+01 6.656701564788818359e+00 -8.459322787613202110e-14 1.009986094323983563e-13 4.921613789253542759e-15 8.594068788862416208e-14
2.314000000000000000e+03 7.300518798828125000e+01 1.355643558502197266e+01 -7.398805689212001324e-14 2.427965326620012965e-13 5.064254137571166936e-14 -1.123746278322568237e-13
2.315000000000000000e+03 7.252242279052734375e+01 2.287463569641113281e+01 1.090388371736657810e-15 1.834711039778308406e-13 5.536844650843621152e-14 -1.483003579964489727e-13
2.316000000000000000e+03 7.278605651855468750e+01 1.740495300292968750e+01 -1.116523255686834026e-13 4.096584996140378854e-13 8.940184747022184020e-14 -2.597359718796432571e-13
2.317000000000000000e+03 7.811963558197021484e+00 2.438758277893066406e+01 -1.835107214028398187e-14 -5.361569478321004389e-14 -2.159002956882843938e-14 -1.359281881930379798e-14
2.318000000000000000e+03 9.709124565124511719e+00 2.294528961181640625e+01 1.115404697858007887e-13 9.355400975392599849e-14 6.152834453954439398e-14 7.287395106846464299e-14
2.319000000000000000e+03 7.233232498168945312e+00 2.540801429748535156e+01 3.047128521727060502e-14 -3.269182613421101058e-14 -6.661625609557413671e-16 3.094942515160029051e-14
2.320000000000000000e+03 7.207581329345703125e+01 1.605487823486328125e+01 2.775920938697263446e-14 2.520892836924831792e-13 8.395455148137512258e-14 -1.355883314695452424e-13
2.321000000000000000e+03 7.369514465332031250e+01 7.499270439147949219e+00 -6.101345692783102792e-14 2.712325535610821126e-13 6.306572966760168319e-14 1.280768026357126388e-13
2.322000000000000000e+03 7.293599700927734375e+01 7.487893104553222656e+00 -2.260663173585947261e-15 1.134085162476754227e-13 3.334435659985320044e-14 -8.178752271791045469e-14
2.323000000000000000e+03 7.288722229003906250e+01 8.318126678466796875e+00 -5.934302664068261124e-14 -2.543272497712145003e-14 -2.543272497712145003e-14 5.737305839833076182e-14
2.324000000000000000e+03 2.363749122619628906e+01 1.050552463531494141e+01 -6.358878945319015874e-14 -1.187542360454874046e-13 -5.470290900485598462e-14 2.525017413039509773e-14
2.325000000000000000e+03 6.628525257110595703e+00 2.310977745056152344e+01 3.646925765391807739e-14 6.138062876980682203e-14 2.935496694355700653e-14 4.270535476896125671e-14
2.326000000000000000e+03 2.322798919677734375e+01 7.786501407623291016e+00 -3.159218424516295476e-14 3.221144325663699570e-14 1.857775393295787525e-16 -4.800660872517417688e-14
2.327000000000000000e+03 2.312121963500976562e+01 8.669421195983886719e+00 -9.660046878081154920e-14 -2.244039914826856386e-13 -9.630133740142279852e-14 5.369492624509621115e-14
2.328000000000000000e+03 2.402377891540527344e+01 7.823628425598144531e+00 -2.641440566980308297e-14 -3.419593303183657285e-14 -1.818310211871166510e-14 -1.612326876285381794e-14
2.329000000000000000e+03 7.069143772125244141e+00 2.462558364868164062e+01 3.340264263101966336e-14 -3.143553058376595544e-14 5.901334130057874026e-16 1.229956349442506980e-13
2.330000000000000000e+03 2.478783798217773438e+01 4.701273441314697266e+00 -7.058550521420875468e-14 -3.962585197036377904e-13 -1.400532115411121103e-13 8.724731413679506775e-14
2.331000000000000000e+03 6.883069515228271484e+00 2.384833145141601562e+01 -3.349574171631827801e-14 7.714658176605909690e-14 1.309525218432883512e-14 -4.270845999174589097e-15
2.332000000000000000e+03 7.279567241668701172e+00 2.275268173217773438e+01 -4.539095404339395234e-14 1.635505289141955809e-13 3.544787483293274089e-14 4.939596637536930457e-14
2.333000000000000000e+03 2.260688591003417969e+01 1.120833969116210938e+01 -4.225369647269452966e-14 -6.385967736598566202e-14 -3.183401215160405751e-14 2.937744719797713566e-14
2.334000000000000000e+03 2.308033943176269531e+01 1.390831470489501953e+01 -4.573047449480662982e-15 -3.463429900946862761e-13 -1.052748112208984343e-13 -8.405498926012874850e-14
2.335000000000000000e+03 5.962696075439453125e+01 1.897486329078674316e+00 -1.568210080023224595e-13 -2.145805505938264135e-14 -5.348372027376424587e-14 -2.545493079286666877e-14
2.336000000000000000e+03 2.508129310607910156e+01 4.155385971069335938e+00 -7.043894818554302661e-14 -2.589428508854157984e-13 -9.881454514229850994e-14 9.187573932981779601e-14
2.337000000000000000e+03 2.619454193115234375e+01 5.634744644165039062e+00 -4.888621855957987761e-15 -1.850989251196005769e-13 -5.699626426207415886e-14 -3.119944217257544783e-14
2.338000000000000000e+03 2.497896766662597656e+01 2.020711183547973633e+00 -3.246352026173987548e-14 -5.966388272110254021e-14 -2.763822258891861922e-14 6.651450223937871442e-14
2.339000000000000000e+03 1.197142601013183594e+01 2.382813835144042969e+01 4.857182025834981542e-14 -2.493445445776731884e-14 7.091209909581338428e-15 1.315613352444568521e-14
2.340000000000000000e+03 4.645249176025390625e+01 1.882411479949951172e+00 -1.236118276964556784e-13 -2.131048159118020813e-13 -1.010149944377300435e-13 -7.540586299088162386e-15
2.341000000000000000e+03 1.829895401000976562e+01 2.189332199096679688e+01 -3.607347642711582203e-14 -2.442148046288838970e-13 -8.408648533323945240e-14 2.364243613980476083e-14
2.342000000000000000e+03 9.526576995849609375e+00 3.282204818725585938e+01 -7.478308201641289954e-14 -2.608046428560079066e-13 -1.006763167840998840e-13 3.296632240736181718e-14
2.343000000000000000e+03 7.643816471099853516e+00 3.324079132080078125e+01 -2.439725261009148549e-14 -1.477088172911408814e-13 -5.163181825986427886e-14 3.303266202779077398e-14
2.344000000000000000e+03 6.972714233398437500e+01 2.768057823181152344e+01 7.169672434957988227e-14 2.594819162055755912e-13 9.935359013366756864e-14 -4.598233211837617074e-14
2.345000000000000000e+03 1.676597213745117188e+01 2.159995841979980469e+01 -6.440724689693588800e-14 -1.877314222045040060e-13 -7.564160073043196819e-14 4.886765498550785236e-14
2.346000000000000000e+03 2.008826828002929688e+01 2.047159385681152344e+01 -7.327169741170452832e-14 -1.200446128135981838e-13 -5.799489577809624485e-14 -5.173141917006601753e-14
2.347000000000000000e+03 2.080655097961425781e+01 1.974355125427246094e+01 1.431859434147743533e-16 -2.744443398667445466e-13 -8.229034180419134148e-14 1.595361314571646510e-14
2.348000000000000000e+03 1.916671752929687500e+01 2.113874244689941406e+01 2.292647137674269642e-14 -2.646800693114487180e-13 -7.252607802515909086e-14 -3.178974282164875875e-14
2.349000000000000000e+03 2.298111724853515625e+01 9.545391082763671875e+00 1.668116701356286286e-14 -1.072282995902285041e-13 -2.716413994240628182e-14 -9.502634952789773548e-14
2.350000000000000000e+03 7.413542747497558594e+00 2.843598747253417969e+01 -6.975803533990423966e-14 6.160559394433398617e-14 -2.445732461022723410e-15 9.538690096035778998e-14
2.351000000000000000e+03 8.321645736694335938e+00 2.916046714782714844e+01 8.669560939099634628e-15 -4.203542285845067450e-14 -1.000975849110201724e-14 1.992502876287192276e-14
2.352000000000000000e+03 2.307948684692382812e+01 1.509630012512207031e+01 -5.887907620228532979e-14 -2.082376832817159351e-13 -8.013502920045309508e-14 -5.643799162280242754e-14
2.353000000000000000e+03 7.149898529052734375e+01 2.870517349243164062e+01 -3.710197432485809466e-15 2.729156148035399854e-13 8.076162351725035826e-14 -3.864763327074416388e-14
2.354000000000000000e+03 6.876494598388671875e+01 3.150438308715820312e+01 1.034330481913771013e-14 1.073724781503783421e-13 3.531473480615152094e-14 -1.911705081074962370e-14
2.355000000000000000e+03 7.052351379394531250e+01 3.240414047241210938e+01 4.257403755708252802e-14 -7.325588161251339603e-14 -9.204552877816081502e-15 -5.671452416315843348e-14
2.356000000000000000e+03 7.146070861816406250e+01 3.216200256347656250e+01 -5.209700536636455159e-14 4.123067176304423542e-13 1.080629184226078454e-13 -4.610320371994935940e-14
2.357000000000000000e+03 7.075925445556640625e+01 3.029181098937988281e+01 6.431542852545352185e-14 3.649770102028687679e-13 1.287877275527385401e-13 -2.884228500563829067e-14
2.358000000000000000e+03 7.008377075195312500e+01 2.916139793395996094e+01 3.744450089620057764e-14 -6.827831790896191771e-15 9.184999969261663233e-15 -7.387241317789727812e-14
2.359000000000000000e+03 2.560564422607421875e+01 1.694968700408935547e+00 -2.875771384805263231e-14 -1.724530484777456185e-13 -6.036322700367358074e-14 -7.712886861306611497e-14
2.360000000000000000e+03 2.451366806030273438e+01 3.745734453201293945e+00 -1.077462839543970319e-13 -1.033656667204230217e-13 -6.333358181431422707e-14 8.691754726977002354e-14
2.361000000000000000e+03 2.543191146850585938e+01 3.630678415298461914e+00 1.485056110202276347e-13 -7.360758324474053760e-14 2.246941070433838145e-14 -1.221370281388051149e-13
2.362000000000000000e+03 5.662185668945312500e+01 2.557540416717529297e+00 -1.960851457333961934e-13 -1.297874432709331116e-13 -9.776177805655150710e-14 1.467680821711295214e-13
2.363000000000000000e+03 5.016353988647460938e+01 2.538177013397216797e+00 -1.622752632138638185e-13 -1.152974878114790269e-13 -8.327182937336100044e-14 -3.034677222105717012e-15
2.364000000000000000e+03 2.760729217529296875e+01 1.908967971801757812e+00 -5.190604009434017507e-14 -2.224544502868897738e-14 -2.224544502868897738e-14 3.567452390895904657e-14
2.365000000000000000e+03 3.076122093200683594e+01 1.132899165153503418e+00 -4.304438478829747394e-15 -1.844759408572245116e-15 -1.844759408572245116e-15 1.075447646518498668e-13
2.366000000000000000e+03 3.016934776306152344e+01 1.810224413871765137e+00 6.367595930785799330e-14 -3.158424314187585624e-13 -7.564993553463295051e-14 1.614636565725954820e-13
2.367000000000000000e+03 2.625681304931640625e+01 4.980492115020751953e+00 -1.125606294912102900e-13 -2.312440603585708132e-13 -1.031414062773079732e-13 9.987191839321268166e-15
2.368000000000000000e+03 4.501819229125976562e+01 2.858681917190551758e+00 -1.145711130134952072e-13 -2.622642873001661962e-14 -4.223925964314152737e-14 1.440480222082707318e-13
2.369000000000000000e+03 4.719687271118164062e+01 1.835781216621398926e+00 -9.328337256288288248e-14 5.152330995118921397e-14 -1.252801963054104781e-14 1.500968403386759853e-13
2.370000000000000000e+03 2.885392951965332031e+01 1.806222558021545410e+00 -5.194551182968222547e-14 -1.823906829604218793e-13 -7.030086148634984156e-14 1.867379135437469140e-13
2.371000000000000000e+03 3.216816329956054688e+01 1.182146191596984863e+00 3.272084548298394291e-14 1.402321997672623111e-14 1.402321997672623111e-14 5.585398612259311057e-14
2.372000000000000000e+03 3.295407867431640625e+01 1.916545748710632324e+00 -1.184291244715404701e-13 -1.880081919140852431e-13 -9.193119627094042956e-14 -1.573253415835130370e-14
2.373000000000000000e+03 5.963377380371093750e+01 2.702693223953247070e+00 -2.856270450192488486e-13 -1.681625487730958879e-13 -1.361368835587142834e-13 8.091801968063139228e-14
2.374000000000000000e+03 7.087122344970703125e+01 1.744037032127380371e+00 -2.362372992538441796e-13 3.600828538336334206e-14 -6.006871025978147149e-14 -2.298481500614957262e-14
2.375000000000000000e+03 3.367243194580078125e+01 1.945369958877563477e+00 -1.248245078263807151e-13 -1.449981221245469354e-13 -8.094678491952014832e-14 -3.318173643837574183e-14
2.376000000000000000e+03 3.730232620239257812e+01 1.415808677673339844e+00 -9.164161264693312936e-14 -3.927497975279858888e-14 -3.927497975279858888e-14 -1.144914512588718347e-13
2.377000000000000000e+03 3.512971878051757812e+01 2.057104587554931641e+00 -3.267778910420911231e-14 7.749713143347797262e-14 1.344580269878065809e-14 1.332929263925947128e-13
2.378000000000000000e+03 7.227236938476562500e+01 4.920171260833740234e+00 -1.944389473648028277e-13 -1.470455464477275070e-14 -6.274305077227926297e-14 2.275033426349295368e-14
2.379000000000000000e+03 3.661078643798828125e+01 2.132350444793701172e+00 1.332381470778298826e-14 5.146115467351969341e-14 1.943549115320398341e-14 2.225440833133682239e-14
2.380000000000000000e+03 6.703120422363281250e+01 2.397631883621215820e+00 -2.338018017036813667e-13 3.705207391986944931e-14 -5.902492172327536424e-14 1.929455164704444586e-14
2.381000000000000000e+03 6.245318984985351562e+01 3.465928077697753906e+00 -1.946063752852889017e-13 -3.765178341092086101e-14 -6.967745201343425454e-14 -1.583464669064824082e-13
2.382000000000000000e+03 6.416522979736328125e+01 3.462561368942260742e+00 -1.295699523151325194e-13 1.045983436041668380e-13 -7.491482105069936087e-15 3.031359139941437741e-14
2.383000000000000000e+03 6.338815689086914062e+01 1.862810492515563965e+00 -2.452088553907272317e-13 -5.933855430672110853e-14 -9.136421952110271305e-14 8.255997610822490840e-14
2.384000000000000000e+03 5.522981643676757812e+01 3.240389823913574219e+00 -1.837271654259176046e-13 -7.874020988181407166e-14 -7.874020988181407166e-14 6.522869944918310847e-14
2.385000000000000000e+03 5.800410079956054688e+01 3.632001161575317383e+00 -1.293304927128119397e-13 -9.676405286578298320e-15 -4.170206795986106107e-14 2.101497212467391684e-14
2.386000000000000000e+03 5.664631271362304688e+01 1.836462855339050293e+00 -2.066009310245503494e-13 -4.279230778319459416e-14 -7.481797299757619868e-14 5.702773323013055062e-14
2.387000000000000000e+03 7.149025726318359375e+01 3.702072858810424805e+00 -1.268668465637459719e-13 1.286322936187855870e-13 5.296319142262216617e-16 -3.359241528065430582e-14
2.388000000000000000e+03 6.180896377563476562e+01 2.615843772888183594e+00 -2.307761458059803816e-13 -7.402161633749022862e-15 -7.145349036844633739e-14 -1.658777282198542480e-13
2.389000000000000000e+03 6.415633392333984375e+01 2.632476329803466797e+00 -2.257095470812112148e-13 -1.196081401240098319e-13 -1.035953007405554516e-13 2.834339615223266384e-14
2.390000000000000000e+03 6.335521316528320312e+01 2.660394191741943359e+00 -2.176675994395443903e-13 -9.328611694963198642e-14 -9.328611694963198642e-14 3.260603186104951701e-14
2.391000000000000000e+03 5.736044311523437500e+01 2.642559528350830078e+00 -1.526299025318353375e-13 2.608908233761933482e-14 -3.796224809114387422e-14 7.943994041140906015e-14
2.392000000000000000e+03 3.804953765869140625e+01 1.447288632392883301e+00 -8.132005539871617339e-14 -1.721043012964384999e-13 -7.602730565329368639e-14 1.825076683748330653e-13
2.393000000000000000e+03 3.439902114868164062e+01 1.994826912879943848e+00 -5.117654821511045948e-14 -1.134347065064045257e-13 -4.938337607764131665e-14 8.869649264185708315e-14
2.394000000000000000e+03 5.517007446289062500e+01 2.527645111083984375e+00 -2.108624012160317807e-13 1.132297126747077234e-15 -6.291903033740081641e-14 8.178733975879384777e-14
2.395000000000000000e+03 6.916114807128906250e+01 2.518621921539306641e+00 -1.927453151511632212e-13 1.461496125943623214e-13 -1.397871008941391213e-14 -5.400779988702121559e-14
2.396000000000000000e+03 6.779971313476562500e+01 1.701258301734924316e+00 -1.811765120525096751e-13 1.053567159187661362e-13 -2.274593985656259837e-14 6.219871351905575940e-14
2.397000000000000000e+03 5.441556167602539062e+01 1.813259720802307129e+00 -2.167483586276025553e-13 4.436069092898960176e-14 -5.171630132602342278e-14 9.831381314519965775e-14
2.398000000000000000e+03 6.841753387451171875e+01 2.462756156921386719e+00 -1.720707452392000736e-13 1.550101328762557018e-13 -5.118181337191059221e-15 1.608791530170131795e-14
2.399000000000000000e+03 5.445662689208984375e+01 2.578562021255493164e+00 -9.270106790483165216e-14 -1.541063961553804096e-13 -7.404223989568997633e-14 4.203299695608973818e-14
2.400000000000000000e+03 5.369318771362304688e+01 1.828035950660705566e+00 -1.321710346420881810e-13 -1.938975781150265032e-13 -9.782058247188168965e-14 1.712752390001931468e-13
2.401000000000000000e+03 3.590269470214843750e+01 2.895212888717651367e+00 -1.021531153395059677e-13 -6.665538075916604965e-14 -5.064254815197524739e-14 -3.251012401449780709e-14
2.402000000000000000e+03 4.185734558105468750e+01 2.385795116424560547e+00 -7.883572809321004460e-14 1.196420739579427336e-14 -2.006145697155438390e-14 -9.248737843289833727e-14
2.403000000000000000e+03 5.012035369873046875e+01 1.755828619003295898e+00 -1.569674159531894708e-13 -4.439627647716964942e-14 -6.040910908436045168e-14 1.532637677794518316e-13
2.404000000000000000e+03 4.110231781005859375e+01 2.356805086135864258e+00 -2.134489958914576047e-13 -1.601045684918034340e-13 -1.120660638939674492e-13 8.089912068151225433e-14
2.405000000000000000e+03 4.947706604003906250e+01 2.500772237777709961e+00 -1.507820696642139802e-13 -1.789982550202962042e-13 -9.893409876060577091e-14 8.460076985749437339e-14
2.406000000000000000e+03 5.086326599121093750e+01 2.558473348617553711e+00 -1.781848323403889545e-13 -9.924040620312366001e-14 -8.322757359593285775e-14 1.639125982296971151e-13
2.407000000000000000e+03 4.035094070434570312e+01 2.321292400360107422e+00 -6.043787432324920772e-14 -9.452836869381156526e-14 -4.648987087223915848e-14 -2.645073321884492540e-14
2.408000000000000000e+03 4.493672943115234375e+01 1.918923377990722656e+00 -1.376243276242014590e-13 -1.504837514364545936e-13 -8.643242100769138458e-14 3.772078949106777435e-14
2.409000000000000000e+03 4.189416503906250000e+01 3.150564432144165039e+00 -2.044564739950641141e-14 -1.231397931756098019e-13 -4.307563013965579057e-14 -1.077902144711734289e-13
2.410000000000000000e+03 4.948020553588867188e+01 3.281229019165039062e+00 -2.087215085011875915e-13 -4.370112670175341218e-14 -7.572679191613501670e-14 -3.379114276260732075e-14
2.411000000000000000e+03 7.184875488281250000e+01 1.683591651916503906e+01 -6.878496389009849943e-14 1.627167909960813841e-14 -1.575398442070757160e-14 -1.615651378959401252e-13
2.412000000000000000e+03 7.281871795654296875e+01 1.173206996917724609e+01 4.243060777405806283e-14 8.681097019621469846e-14 3.877247237464229168e-14 -4.953136967418558800e-14
2.413000000000000000e+03 7.205971527099609375e+01 9.148051261901855469e+00 7.080804448637498250e-14 9.897273023926414504e-14 5.093423241769173826e-14 4.594899628970403049e-14
2.414000000000000000e+03 7.319619750976562500e+01 4.213265419006347656e+00 -1.880794104442903847e-13 1.481492879762402737e-13 -1.197903809566774891e-14 -2.762517489339911397e-14
2.415000000000000000e+03 7.308490753173828125e+01 4.989151954650878906e+00 -2.319942198417135337e-13 -1.451770425880613558e-13 -1.131513773736797512e-13 5.905111875826804524e-14
2.416000000000000000e+03 7.298536682128906250e+01 2.788227319717407227e+00 -3.155961006851698558e-13 2.307521307278598277e-13 -2.545318929312711392e-14 1.142743262213044564e-13
2.417000000000000000e+03 7.151847076416015625e+01 5.068112373352050781e+00 -1.858321439437982114e-13 5.761049867410508729e-14 -3.846649696903972626e-14 2.783784114953214567e-14
2.418000000000000000e+03 6.108949661254882812e+01 2.584154844284057617e+00 -1.932903029256902161e-13 -8.283870415798019748e-14 -8.283870415798019748e-14 1.580403390349493370e-14
2.419000000000000000e+03 6.037220382690429688e+01 1.863880634307861328e+00 -1.345586375612814467e-13 7.958485758428890389e-14 -1.649213297665822614e-14 6.113380336897691891e-14
2.420000000000000000e+03 7.120500183105468750e+01 1.176116180419921875e+01 -4.598212798343588245e-15 1.581576530981440576e-13 4.606783501220380883e-14 -5.767413456536640837e-14
2.421000000000000000e+03 8.035195350646972656e+00 2.518473434448242188e+01 4.668790717530721390e-14 2.000910355915049010e-14 2.000910355915049010e-14 7.124054628550660628e-14
2.422000000000000000e+03 7.311582183837890625e+01 2.196005582809448242e+00 -1.753396689993524937e-13 1.307336942694969917e-13 -1.338179072489075611e-14 8.279976774746081181e-14
2.423000000000000000e+03 7.133865356445312500e+01 1.936909866333007812e+01 9.332465356060026807e-14 1.772491252079524959e-13 8.117213634107126041e-14 1.720156542163106539e-14
2.424000000000000000e+03 2.280944252014160156e+01 1.039736652374267578e+01 -6.375866360482790318e-14 -3.475817723919139013e-13 -1.234021294437698257e-13 1.992166011284069241e-15
2.425000000000000000e+03 2.344100570678710938e+01 1.135192966461181641e+01 -6.278515169788959072e-14 -3.014136249618326602e-13 -1.092596268992794550e-13 -6.723868152796325104e-14
2.426000000000000000e+03 7.303772735595703125e+01 5.817873477935791016e+00 -9.197447626641333529e-14 7.495973920789225642e-14 -5.104421710479386740e-15 -9.880409614386118089e-14
2.427000000000000000e+03 7.244447326660156250e+01 1.522497749328613281e+01 -5.987659641108061814e-14 1.573424008270707386e-13 2.923973996954432053e-14 -8.922123294081291123e-14
2.428000000000000000e+03 7.202551269531250000e+01 1.086087894439697266e+01 2.167651163274310344e-14 -1.358554111222098904e-14 2.427291071453339596e-15 2.363957316844304130e-14
2.429000000000000000e+03 7.200673675537109375e+01 2.012372970581054688e+01 -4.416833313479993917e-14 2.539194542290883899e-14 -5.632916482973919503e-15 -1.262272214920881486e-13
2.430000000000000000e+03 7.100331115722656250e+01 1.676571273803710938e+01 5.709901952297147254e-14 -2.127994097123400707e-14 1.074572254908170293e-14 1.329346128211813041e-14
2.431000000000000000e+03 9.154923439025878906e+00 2.582299613952636719e+01 1.667523947699797726e-14 3.002200538951976805e-14 1.400917362936191304e-14 -9.124203671252717474e-14
2.432000000000000000e+03 7.144534587860107422e+00 2.780813598632812500e+01 -6.483362973005654672e-14 -4.910368156329321040e-15 -2.092319949297070242e-14 6.435649268273641033e-14
2.433000000000000000e+03 9.555404663085937500e+00 2.453084754943847656e+01 -4.506968715199460504e-15 -1.391843996827180074e-13 -4.310741081583677192e-14 -1.315077519402135450e-14
2.434000000000000000e+03 9.837002754211425781e+00 2.381535530090332031e+01 6.516155345338836558e-14 -1.550774211735855834e-13 -2.697475862199327085e-14 2.381277785362938965e-14
2.435000000000000000e+03 7.217157745361328125e+01 7.458858489990234375e+00 6.385256228922872590e-14 1.188672776744961745e-13 5.481595402199654354e-14 1.374688801377213498e-13
2.436000000000000000e+03 2.392313385009765625e+01 8.721621513366699219e+00 -7.326084183745251721e-14 -3.139750219256602637e-14 -3.139750219256602637e-14 -1.019029492407320936e-13
2.437000000000000000e+03 8.997101783752441406e+00 2.310408592224121094e+01 -2.399405645686896599e-14 -1.028316717394854932e-14 -1.028316717394854932e-14 5.983484107491277015e-14
2.438000000000000000e+03 1.050994300842285156e+01 2.374194717407226562e+01 6.873174311595661723e-14 7.520741164166941384e-14 4.318174642728780932e-14 5.239673983321174733e-14
2.439000000000000000e+03 2.329401016235351562e+01 2.147688865661621094e+00 -1.327205083031038346e-14 -5.143896918656520878e-14 -1.941330566624949877e-14 -7.650382606062822166e-14
2.440000000000000000e+03 4.733577346801757812e+01 2.637079477310180664e+00 -1.763504435797064174e-13 -3.500844633717165033e-13 -1.579304720854268762e-13 -2.455521239629315094e-14
2.441000000000000000e+03 4.261365127563476562e+01 2.439567565917968750e+00 -6.192298057780196152e-14 -1.180403160199600121e-13 -5.398898897932859209e-14 5.010803309280810469e-14
2.442000000000000000e+03 7.209677124023437500e+01 8.295658111572265625e+00 -7.735135367512371851e-14 -7.890152561255275865e-14 -4.687586378630294315e-14 -2.039966621596471172e-15
2.443000000000000000e+03 7.201764678955078125e+01 1.258967590332031250e+01 1.720133333460351771e-14 1.675003180861417418e-13 5.541049661206970400e-14 -4.287518148675395491e-14
2.444000000000000000e+03 2.492950057983398438e+01 6.946247100830078125e+00 -4.604172606863764228e-14 -1.341095339163836386e-13 -5.404538104482499439e-14 6.345777293800770533e-15
2.445000000000000000e+03 2.420932769775390625e+01 4.458014965057373047e+00 -1.146410050901049485e-14 4.083776231674635104e-14 8.812098796430641034e-15 3.697694209744799287e-14
2.446000000000000000e+03 5.301224517822265625e+01 2.667987108230590820e+00 -1.517946602832068170e-13 3.571570749788749791e-15 -4.446692580123423610e-14 2.228684291695308406e-14
2.447000000000000000e+03 7.574609756469726562e+00 2.358039283752441406e+01 -1.693756219263084506e-14 6.136746926593827922e-14 1.332897144436587245e-14 1.239650743167786118e-13
2.448000000000000000e+03 2.720285415649414062e+01 2.679836988449096680e+00 -9.236955276180347507e-14 -1.768397982302577498e-13 -8.076280258711293625e-14 2.099128908346868660e-14
2.449000000000000000e+03 2.254063415527343750e+01 1.349579715728759766e+01 1.344055109450768143e-14 -8.574166225107371364e-14 -2.169033351637639911e-14 3.799099638937368517e-14
2.450000000000000000e+03 7.235485076904296875e+01 1.321672821044921875e+01 3.529737274831517592e-15 1.101712511909595793e-13 3.411029461273737406e-14 -6.301271218136714203e-14
2.451000000000000000e+03 2.288849639892578125e+01 1.287586784362792969e+01 -2.445758507285851480e-14 3.526912716413956039e-14 3.243462373274429503e-15 1.093037467279195634e-15
2.452000000000000000e+03 2.215514564514160156e+01 1.268274402618408203e+01 1.674564078981560789e-13 -1.569877176388692619e-13 3.140606527214629372e-15 -1.444062561585870985e-13
2.453000000000000000e+03 7.532256603240966797e+00 2.685859680175781250e+01 3.660209613697007480e-14 -3.045700356415353971e-13 -8.039037914086416547e-14 1.688705192392017662e-13
2.454000000000000000e+03 8.543972015380859375e+00 3.028693771362304688e+01 -5.033254086954375150e-14 -2.274503556418810968e-13 -8.333486895342745449e-14 8.002202145276221534e-14
2.455000000000000000e+03 2.329197883605957031e+01 1.390679359436035156e+00 -5.433710257999116444e-14 -1.605401738196537975e-13 -6.446318495277256200e-14 -6.047958391963790398e-15
2.456000000000000000e+03 8.215970039367675781e+00 2.597769737243652344e+01 9.116383863083665773e-14 -2.354354775371825248e-13 -4.328149302715647573e-14 2.342625605219333940e-13
2.457000000000000000e+03 8.197268486022949219e+00 2.814438629150390625e+01 2.238864611281768391e-14 -1.962841374896287516e-13 -5.216864741304332032e-14 3.728517738695383277e-14
2.458000000000000000e+03 1.594465637207031250e+01 2.480244255065917969e+01 2.964185700279203806e-14 -1.245491882372051773e-13 -2.847219937032394177e-14 1.113408071794740051e-13
2.459000000000000000e+03 2.442654991149902344e+01 2.589010000228881836e+00 4.032806532293375934e-14 -7.421844307750960490e-14 -1.016711264874639586e-14 1.026901816619102403e-13
2.460000000000000000e+03 2.590454673767089844e+01 2.327028751373291016e+00 4.259719882599224960e-14 -1.605726964966965736e-14 7.961979261116546025e-15 5.618867255697580776e-14
2.461000000000000000e+03 1.141332626342773438e+01 3.189550971984863281e+01 9.401409263988611681e-15 -1.103481997617727917e-13 -3.028403672581878037e-14 4.653302211870408156e-14
2.462000000000000000e+03 7.283170318603515625e+01 8.316972851753234863e-01 -3.369915295165643032e-13 1.758317070502807278e-13 -4.834794945039050384e-14 7.780083679078189651e-14
2.463000000000000000e+03 7.271858215332031250e+01 1.433446693420410156e+01 -1.052660020782469896e-14 4.123954731307874488e-14 9.213884639795982129e-15 -9.549183140186365271e-14
2.464000000000000000e+03 6.529209136962890625e+00 8.521162033081054688e+00 -1.060358533833474781e-13 -6.831941425349680186e-14 -5.230658164630599960e-14 2.011136076467481826e-13
2.465000000000000000e+03 7.193505859375000000e+01 1.777448844909667969e+01 3.741728403353940247e-14 1.532888264021634028e-13 5.721183075901858928e-14 2.306359923463958961e-14
2.466000000000000000e+03 2.107910156250000000e+01 1.879940032958984375e+01 -8.960420025318910353e-14 -2.900320229207858924e-13 -1.138908710179506456e-13 -5.032145490233008722e-14
2.467000000000000000e+03 2.379424667358398438e+01 9.620672225952148438e+00 -1.383272565502052798e-13 -2.194114302137700756e-13 -1.073216087396980378e-13 9.151653637380977035e-14
2.468000000000000000e+03 7.118008422851562500e+01 2.747721099853515625e+01 -1.053873395479411681e-14 4.123434991891439250e-14 9.208684704532787979e-15 -5.901192484973269425e-14
2.469000000000000000e+03 7.022921752929687500e+01 3.124534416198730469e+01 -5.772766704763288015e-14 3.183916888818694169e-13 7.819920655027096101e-14 -1.154742669757027884e-13
2.470000000000000000e+03 2.319074821472167969e+01 1.214676952362060547e+01 1.293819448821599549e-14 -8.595695769747502268e-14 -2.190562896277770816e-14 -4.379375483673335345e-14
2.471000000000000000e+03 1.807885360717773438e+01 2.378032302856445312e+01 -6.048666342101105542e-14 -1.403002334535857765e-13 -6.023607041763176517e-14 2.205088833696824263e-14
2.472000000000000000e+03 1.655228424072265625e+01 2.320832252502441406e+01 -1.320137711169691586e-13 -2.281433776705338312e-13 -1.080471500572617594e-13 9.570455864436888671e-14
2.473000000000000000e+03 7.230676269531250000e+01 2.388920021057128906e+01 5.699123627449925733e-14 1.388021913118625550e-13 5.873802827590854370e-14 -8.237426582860529756e-14
2.474000000000000000e+03 7.125214385986328125e+01 2.091506004333496094e+01 9.467563723015298693e-14 4.057527019452403239e-14 4.057527019452403239e-14 -5.801350339788152732e-14
2.475000000000000000e+03 1.902533721923828125e+01 2.298459434509277344e+01 4.099873245804255828e-14 -1.425574339564833481e-13 -3.046760909427952135e-14 -7.687062520810722388e-14
2.476000000000000000e+03 2.402459907531738281e+01 1.721050643920898438e+01 -6.952105585005322053e-14 -1.441721091469116978e-13 -6.410794611095768647e-14 -8.989292329172199336e-14
2.477000000000000000e+03 2.198579025268554688e+01 1.759157943725585938e+01 -7.967813624057233646e-15 -9.491667570188724867e-14 -3.086534527312403964e-14 -4.338007749782150924e-14
2.478000000000000000e+03 1.985021972656250000e+01 2.217201995849609375e+01 -7.312015982930894498e-14 -1.685900632422340784e-13 -7.251306759908926480e-14 7.372985414474259036e-14
2.479000000000000000e+03 1.257350826263427734e+01 2.440068244934082031e+01 1.154813142898239442e-13 -1.106363264891108145e-13 1.453494879082104906e-15 9.656324676497740622e-14
2.480000000000000000e+03 7.114614868164062500e+01 2.367683219909667969e+01 -1.025335839046877598e-14 2.472359339825147551e-13 7.109476852715235218e-14 -8.641822473549540251e-14
2.481000000000000000e+03 6.939192199707031250e+01 3.312063598632812500e+01 -2.097074006416829728e-14 2.655182389059429493e-13 7.336424761965332220e-14 -9.818187251707174990e-14
2.482000000000000000e+03 1.480262374877929688e+01 2.507350349426269531e+01 1.210014889934524218e-13 -1.997724360068564575e-13 -2.363128410402121071e-14 -4.428742257905210478e-14
2.483000000000000000e+03 1.560215854644775391e+01 2.361879730224609375e+01 1.695417488041875420e-13 -2.247204158867255330e-13 -1.655360046357457621e-14 3.551650144231928430e-14
2.484000000000000000e+03 9.933977127075195312e+00 3.442630767822265625e+01 3.029264596869467308e-14 -9.892911143061233759e-15 6.119920617096621246e-15 4.141290785232738803e-14
2.485000000000000000e+03 2.645142936706542969e+01 2.123754501342773438e+00 -1.145795968954949062e-13 -3.693621743097036392e-13 -1.451825313615595636e-13 -2.245722867649097010e-14
2.486000000000000000e+03 2.658867263793945312e+01 3.241568565368652344e+00 -1.114986195819428483e-13 -1.164115462012893509e-13 -6.837304837971694416e-14 -2.617873908102030800e-14
2.487000000000000000e+03 7.213359069824218750e+01 1.433836221694946289e+00 -2.302929711078122166e-13 3.588125077006593111e-13 3.855585216871147691e-14 -1.084733431550022331e-13
2.488000000000000000e+03 2.835836029052734375e+01 2.500738382339477539e+00 -7.771374825127699837e-14 -2.620606368627237392e-13 -1.019323175670792947e-13 1.550761065784514448e-13
2.489000000000000000e+03 3.085080337524414062e+01 1.837496161460876465e+00 -8.070624111502708309e-14 -2.633431396125568424e-13 -1.032148135406488199e-13 -1.362315615134265800e-13
2.490000000000000000e+03 2.691092300415039062e+01 5.140805244445800781e+00 1.103226786590720196e-14 -4.527813670870961538e-13 -1.325247284958072647e-13 -5.746987087607013933e-14
2.491000000000000000e+03 3.154562187194824219e+01 1.867642045021057129e+00 -3.453302165165768323e-14 -1.978036603868943422e-13 -6.970100630563150212e-14 7.903222618444588621e-14
2.492000000000000000e+03 3.224773025512695312e+01 1.893901705741882324e+00 -7.593808259076170741e-14 -1.240467960555297067e-13 -5.999546562676649764e-14 -8.980312424678588146e-14
2.493000000000000000e+03 6.256113815307617188e+01 2.652288436889648438e+00 -2.121118629046583881e-13 -9.090508700610941406e-14 -9.090508700610941406e-14 8.864637709049983522e-15
2.494000000000000000e+03 5.971001815795898438e+01 3.543743133544921875e+00 -1.929994927979752917e-13 1.460406773810818404e-13 -1.408764530269439319e-14 -1.991868787422877707e-14
2.495000000000000000e+03 5.589100265502929688e+01 2.516401529312133789e+00 -2.190808569713792453e-13 -2.311446390193538925e-13 -1.350676569287362350e-13 6.740642115657391464e-14
2.496000000000000000e+03 5.157190704345703125e+01 2.608275890350341797e+00 -1.424719175101285540e-13 -3.355650989283337493e-13 -1.434111076420441222e-13 -8.332828073116371054e-15
2.497000000000000000e+03 2.896754074096679688e+01 2.471459865570068359e+00 2.781889302250206697e-14 -2.625833036250246888e-13 -7.042932589126221776e-14 6.682033280234729936e-15
2.498000000000000000e+03 3.161976814270019531e+01 2.602729082107543945e+00 -7.881271590209903977e-14 -2.167806678523426234e-13 -8.867801377107978333e-14 -3.054797219218322035e-14
2.499000000000000000e+03 3.024766349792480469e+01 2.517601251602172852e+00 -1.320076318221674594e-13 -3.310804050620647088e-13 -1.389264137757750817e-13 -3.255322316843647402e-15
2.500000000000000000e+03 7.192861175537109375e+01 2.012675046920776367e+00 -2.884438022633661891e-13 2.423888184350381225e-13 -1.381649735078408284e-14 -4.127635936496641678e-14
2.501000000000000000e+03 7.226505279541015625e+01 6.636601448059082031e+00 -1.068471212114369129e-13 -9.154257077847657853e-14 -5.951690556409497401e-14 -9.881499237569466021e-14
2.502000000000000000e+03 3.514744949340820312e+01 2.825572490692138672e+00 -2.955145148226569207e-14 -1.956687036789445111e-13 -6.756604282141809303e-14 1.625692175278789509e-13
2.503000000000000000e+03 6.896900177001953125e+01 3.289044857025146484e+00 -2.168920425205111968e-13 1.129255380611510207e-13 -3.118994862730262163e-14 1.896795437730802725e-14
2.504000000000000000e+03 6.566379547119140625e+01 2.474882364273071289e+00 -1.695697889828734484e-13 -7.267276380283280157e-14 -7.267276380283280157e-14 5.050804609621484254e-14
2.505000000000000000e+03 6.230692291259765625e+01 4.284181118011474609e+00 -1.471076678440791374e-13 5.580278467499748263e-15 -4.245821766000676400e-14 -9.034519145171074350e-14
2.506000000000000000e+03 3.735881423950195312e+01 2.158157348632812500e+00 -6.400290047297099716e-14 6.407208612410272841e-14 2.075449923635362383e-17 -2.506577505777783654e-14
2.507000000000000000e+03 3.372025299072265625e+01 2.639374494552612305e+00 -6.451240773140340390e-14 -7.339912504828946527e-14 -4.137345983390786075e-14 6.265855076546117397e-14
2.508000000000000000e+03 6.394121551513671875e+01 5.131456851959228516e+00 -1.765653866604016686e-13 9.589518171508257249e-14 -2.420106114478254994e-14 5.049475784333831707e-14
2.509000000000000000e+03 5.887177276611328125e+01 2.762407302856445312e+00 -2.496668507784988167e-13 -6.124912859881148641e-14 -9.327479381319309093e-14 -9.257694030860921797e-14
2.510000000000000000e+03 5.590347290039062500e+01 3.821116685867309570e+00 -2.433093602895869401e-13 7.872835142055251145e-14 -4.937430604884211760e-14 4.184707661229920828e-14
2.511000000000000000e+03 6.330139160156250000e+01 3.477074861526489258e+00 -1.492953303301389201e-13 -1.823276196634329022e-14 -5.025842548665900023e-14 6.327319175330678447e-14
2.512000000000000000e+03 6.978712463378906250e+01 3.336100578308105469e+00 -2.459928148765971878e-13 1.004537707356700782e-13 -4.366171595278356410e-14 -4.004668097785588077e-14
2.513000000000000000e+03 5.589144134521484375e+01 3.193132400512695312e+00 -1.545880936280885631e-13 7.100080885637932715e-14 -2.507618509269959189e-14 3.899286018312249358e-14
2.514000000000000000e+03 6.920755767822265625e+01 5.195872306823730469e+00 -1.254848818171144798e-13 2.207264590287777439e-13 2.857247113061990584e-14 1.271101144261974070e-13
2.515000000000000000e+03 6.636882019042968750e+01 1.710224628448486328e+00 -2.381244344502181365e-13 2.182033037329694780e-13 -5.976341756273439304e-15 6.167097133533486208e-14
2.516000000000000000e+03 3.810183715820312500e+01 2.193326711654663086e+00 -2.314664403885429572e-14 5.870643055884416928e-14 1.066793612540355152e-14 1.539290206799617811e-13
2.517000000000000000e+03 3.507882690429687500e+01 3.656987905502319336e+00 -8.690475029600290557e-15 -3.724488995888357648e-15 -3.724488995888357648e-15 4.424793729118289831e-14
2.518000000000000000e+03 4.118892669677734375e+01 4.045708656311035156e+00 -1.395401145570492399e-14 -7.460671620426739814e-14 -2.656821838269499136e-14 -1.526296179287650601e-13
2.519000000000000000e+03 3.884740829467773438e+01 2.235902309417724609e+00 -4.325594651346728603e-14 -4.141373794461569724e-14 -2.540090533742489498e-14 5.469929386823710327e-14
2.520000000000000000e+03 3.302465438842773438e+01 2.633795738220214844e+00 -5.438513612436406131e-14 2.244303240429498802e-14 -9.582631116020721984e-15 -1.326165604198167869e-13
2.521000000000000000e+03 4.886784744262695312e+01 3.189987182617187500e+00 -1.188679146432725098e-13 4.055850910656376429e-14 -2.349281962813355024e-14 1.269794816169400598e-13
2.522000000000000000e+03 4.877904129028320312e+01 2.488636493682861328e+00 -1.720978367409850551e-13 1.774568075222238833e-14 -4.630564798247492619e-14 7.506771219174465659e-14
2.523000000000000000e+03 4.418540573120117188e+01 2.759068489074707031e+00 -5.917187855149219633e-14 -1.397367464794907477e-13 -5.967259021980031442e-14 2.583488944421421379e-14
2.524000000000000000e+03 4.261785125732421875e+01 3.183533668518066406e+00 -8.665205326278263565e-14 1.001162518231117626e-13 4.039260415131685350e-15 1.290738620585846208e-13
2.525000000000000000e+03 3.959858703613281250e+01 2.278809309005737305e+00 2.800950084662270217e-14 1.263814492511242116e-13 4.631728282703841126e-14 1.455356424566109363e-13
2.526000000000000000e+03 5.087033843994140625e+01 3.357244253158569336e+00 -7.601374634987403955e-14 -1.240792137004870233e-13 -6.002789004798739225e-14 9.976471282121049389e-14
2.527000000000000000e+03 5.016618347167968750e+01 3.409312963485717773e+00 -4.619228109281441064e-14 -8.842311784032844124e-14 -4.038462001875603447e-14 1.072242338320816835e-13
2.528000000000000000e+03 4.330707168579101562e+01 3.257281541824340820e+00 -7.888209128861095598e-14 -7.955756279459658131e-14 -4.753189419208318778e-14 5.557349624430753254e-14
2.529000000000000000e+03 7.039147949218750000e+01 1.556964397430419922e+01 9.698669547596877605e-14 7.587893936225262315e-14 5.185969045146641976e-14 -4.127702343879706415e-14
2.530000000000000000e+03 4.659802246093750000e+01 2.737050771713256836e+00 -1.275746137419445092e-13 -7.755031155003838661e-14 -6.153747894284758435e-14 1.046541325822047952e-13
2.531000000000000000e+03 9.190293312072753906e+00 2.388132858276367188e+01 3.399877764303366190e-14 1.457090470415728367e-14 1.457090470415728367e-14 3.230652101090039641e-14
2.532000000000000000e+03 7.120259857177734375e+01 1.086943912506103516e+01 -7.733068607121071358e-14 1.498620699107514054e-13 2.175941752355445985e-14 -1.222474947876542317e-13
2.533000000000000000e+03 7.237065887451171875e+01 4.009698867797851562e+00 -2.045583618942234394e-13 1.868378227739414532e-13 -5.316159194985754094e-15 8.576261445805699601e-14
2.534000000000000000e+03 8.831182479858398438e+00 2.493437957763671875e+01 5.425719010361540473e-14 5.756629033052199085e-14 3.354704480786757648e-14 -3.542796955867226483e-14
2.535000000000000000e+03 7.093066406250000000e+01 5.385610580444335938e+00 -2.149845785334031367e-13 1.823694461503683195e-13 -9.784540900756571319e-15 5.662863163417505841e-14
2.536000000000000000e+03 7.124891662597656250e+01 1.269334030151367188e+01 -9.027638527133938218e-14 9.856296958070040470e-14 2.485975208105012033e-15 -9.469998434518886454e-14
2.537000000000000000e+03 6.708147430419921875e+01 1.694124937057495117e+00 -1.734698810377383049e-13 2.459123941804530755e-13 2.173275631450668349e-14 -7.497823163119671230e-14
2.538000000000000000e+03 6.771636199951171875e+01 2.406353712081909180e+00 -2.226090405760272617e-13 1.333508634461869069e-13 -2.677745415539164314e-14 -8.293641787877545357e-14
2.539000000000000000e+03 7.230915832519531250e+01 5.802584171295166016e+00 -7.527951108613969988e-14 1.736166278017842179e-13 2.950113433706699761e-14 7.727795996431002790e-14
2.540000000000000000e+03 7.157859039306640625e+01 6.594133377075195312e+00 1.238858360786288665e-14 1.196867583340421870e-13 3.962260546248354276e-14 1.116585394023844602e-13
2.541000000000000000e+03 7.159144592285156250e+01 1.489686870574951172e+01 -1.043024428084389152e-14 6.967632884774619534e-15 -1.038783418820781596e-15 -1.569319489896220388e-13
2.542000000000000000e+03 7.201583862304687500e+01 2.154759216308593750e+01 5.920225654111252456e-14 3.456290429641045714e-13 1.214493864634333398e-13 -1.283827509362608921e-13
2.543000000000000000e+03 6.970519256591796875e+01 1.865099525451660156e+01 2.047406027268910966e-14 1.002764969042051202e-13 3.622516647544191115e-14 -8.660278982657032554e-14
2.544000000000000000e+03 8.530564308166503906e+00 2.413762855529785156e+01 -3.406119041871914777e-14 -1.459765231056567997e-14 -1.459765231056567997e-14 3.546513736439778353e-14
2.545000000000000000e+03 6.102125930786132812e+01 3.295805215835571289e+00 -1.388423610023531429e-13 3.199802822337859121e-14 -3.205329881725282881e-14 -8.286865524299510954e-14
2.546000000000000000e+03 5.656457901000976562e+01 3.244504213333129883e+00 -1.828962870910333383e-13 -3.263317418481133381e-14 -6.465883601106114931e-14 1.262720668044475802e-13
2.547000000000000000e+03 7.193193817138671875e+01 1.396950054168701172e+01 5.231209413672673059e-15 1.852457396462822703e-13 5.714308556501943026e-14 -9.308208365329737055e-14
2.548000000000000000e+03 7.112312316894531250e+01 1.365997695922851562e+01 -1.864573287977712435e-14 3.446708564242809310e-15 -4.559707527594355006e-15 -6.269020946889775070e-14
2.549000000000000000e+03 9.940445899963378906e+00 2.724162292480468750e+01 4.985716565075390405e-14 -1.473392669806491972e-13 -2.924462904371587235e-14 6.329497744071016507e-14
2.550000000000000000e+03 7.845801830291748047e+00 2.742792320251464844e+01 3.526086689883793646e-14 -3.063915020675746226e-14 1.386514901745023853e-15 1.399602954149301026e-13
2.551000000000000000e+03 8.247304916381835938e+00 2.679614257812500000e+01 -1.621437223852870146e-14 -5.269996407580163078e-14 -2.067430055548592077e-14 4.256136425012570917e-15
2.552000000000000000e+03 2.431561660766601562e+01 1.153149986267089844e+01 -4.253725938651274630e-14 -1.783585757385297565e-13 -6.626874748819414074e-14 -4.430687045552106351e-14
2.553000000000000000e+03 2.403258705139160156e+01 1.240262699127197266e+01 -6.627202042350233135e-14 -1.542174049053157692e-13 -6.614682895389814576e-14 -4.977131039122020817e-14
2.554000000000000000e+03 2.473408126831054688e+01 8.776792526245117188e+00 -6.550396482825002198e-14 -5.094860148460896021e-14 -3.493577226554994697e-14 3.781192684806054805e-14
2.555000000000000000e+03 6.037077713012695312e+01 2.616834878921508789e+00 -2.265583689620501162e-13 -1.428473902749874402e-13 -1.108217318368694138e-13 -9.048220750125859912e-14
2.556000000000000000e+03 7.125691986083984375e+01 1.580749225616455078e+01 3.008054553057040725e-14 2.759596208230102876e-13 9.181204922844785066e-14 -8.333835872917014220e-14
2.557000000000000000e+03 2.555748939514160156e+01 5.786529064178466797e+00 -4.585232272536800269e-14 -2.484057339165179901e-13 -8.827742139713712355e-14 -1.960498922221314694e-14
2.558000000000000000e+03 5.526166534423828125e+01 4.995090961456298828e+00 -1.843711002012110578e-13 -4.670893307415690740e-15 -5.671259631617048269e-14 6.951676647520832475e-14
2.559000000000000000e+03 5.228447341918945312e+01 2.659958124160766602e+00 -2.113593181767361995e-13 -2.049599368263849142e-13 -1.248957805666944809e-13 1.231375027985204262e-13
2.560000000000000000e+03 4.114456176757812500e+01 3.158636093139648438e+00 -7.675913534345782385e-14 1.958579647206790120e-13 3.572964881316635644e-14 -8.382682568919275212e-14
2.561000000000000000e+03 2.484399986267089844e+01 7.868869781494140625e+00 2.461047790796970502e-14 -8.095455051758057574e-14 -1.690322178288326121e-14 -7.653502397814149205e-14
2.562000000000000000e+03 5.455513000488281250e+01 3.367529869079589844e+00 -1.667671670245798876e-13 -7.147164397857189155e-14 -7.147164397857189155e-14 1.855949205084583831e-13
2.563000000000000000e+03 4.601102066040039062e+01 3.738446712493896484e+00 -9.285301883930549560e-14 -6.266962318014768218e-14 -4.665679396108866894e-14 9.360916853945119853e-14
2.564000000000000000e+03 6.997854614257812500e+01 2.361581230163574219e+01 1.167541574759265594e-14 1.193811217416185233e-13 3.931696209379630103e-14 -1.041701582849344221e-13
2.565000000000000000e+03 2.264932250976562500e+01 1.657225608825683594e+01 -4.547144334920679223e-15 -3.222054242336958030e-13 -9.802576773302457136e-14 -8.517765858688085973e-15
2.566000000000000000e+03 2.581179809570312500e+01 3.192327260971069336e+00 -1.925181883485546641e-14 -8.250779379647635997e-15 -8.250779379647635997e-15 -4.770989308375099547e-14
2.567000000000000000e+03 2.699162101745605469e+01 4.570289134979248047e+00 -1.961032925672581695e-13 -3.585499681445919462e-13 -1.663959768583023191e-13 1.668042196338245797e-13
2.568000000000000000e+03 2.563743591308593750e+01 4.617928028106689453e+00 5.967931227326972454e-14 -3.289930177244326792e-13 -8.079410892484345519e-14 -6.540295784335584117e-14
2.569000000000000000e+03 1.375945949554443359e+01 2.515043067932128906e+01 1.292629875750475610e-13 -1.047298979852707979e-13 7.359926029900081684e-15 1.566686911496154022e-13
2.570000000000000000e+03 4.752416229248046875e+01 3.435437679290771484e+00 -4.908738210828919590e-14 -1.811657648984749125e-13 -6.907594342440287472e-14 1.040376552269295374e-13
2.571000000000000000e+03 7.036808013916015625e+01 9.995352745056152344e+00 -1.114658631238066300e-13 4.373081351248878090e-14 -2.032051691627442813e-14 -1.402246510096363807e-13
2.572000000000000000e+03 7.126869201660156250e+01 8.254220008850097656e+00 -5.441263949591964525e-16 -9.173509797925569198e-14 -2.768376585642658844e-14 -2.603755224124017220e-14
2.573000000000000000e+03 2.448297309875488281e+01 1.061805343627929688e+01 -7.074766120163111793e-14 -2.133242177739316792e-13 -8.522156369266883913e-14 -7.447674069257712026e-14
2.574000000000000000e+03 1.173391246795654297e+01 2.475721740722656250e+01 1.136229172272844312e-13 -1.343082546220730755e-13 -6.205603081909077251e-15 3.571202375159988895e-14
2.575000000000000000e+03 1.090085792541503906e+01 2.450691986083984375e+01 3.400144622033398657e-15 -9.004469126707922988e-14 -2.599336422644780986e-14 2.205877251964128566e-14
2.576000000000000000e+03 7.060971832275390625e+01 1.876993370056152344e+01 -8.194339033273240203e-15 3.167447857818639356e-13 9.256513605745628204e-14 -8.049336479472313233e-14
2.577000000000000000e+03 2.262719535827636719e+01 1.580133342742919922e+01 8.780716903361227010e-14 -2.139985779726905069e-13 -3.785742268172347103e-14 -6.615806399891052680e-14
2.578000000000000000e+03 2.336276626586914062e+01 1.631322479248046875e+01 -7.990597793898837620e-14 -2.333335347853848774e-13 -9.397185449493833387e-14 -8.939610797497124506e-14
2.579000000000000000e+03 1.532146549224853516e+01 2.269687461853027344e+01 9.767798278114553368e-14 -2.326437111531409752e-13 -4.048971647871955903e-14 8.010721941472884189e-14
2.580000000000000000e+03 1.419429588317871094e+01 2.697925758361816406e+01 5.559212080475176010e-14 -9.055217919896538237e-14 -1.048801701004431833e-14 4.272530408893498999e-14
2.581000000000000000e+03 1.042119121551513672e+01 3.071422386169433594e+01 -4.334281990660358158e-15 -1.276726527233915109e-13 -3.960208354823746557e-14 4.795472287495716746e-14
2.582000000000000000e+03 7.077168273925781250e+01 1.461104393005371094e+01 -6.225545117399464146e-14 2.020738313008099696e-13 4.194551539329731404e-14 -3.902880063810744080e-15
2.583000000000000000e+03 6.800152587890625000e+01 2.781460189819335938e+01 1.344543593351449698e-14 8.582648751854354829e-14 2.978157678150752941e-14 -3.869175691103253489e-14
2.584000000000000000e+03 2.461243438720703125e+01 9.692351341247558594e+00 -2.393573146218692937e-14 -3.313364529576243167e-14 -1.712081268857162941e-14 -9.521089429018192440e-14
2.585000000000000000e+03 7.049588012695312500e+01 2.181634712219238281e+01 3.948862941418338282e-15 2.304471175516853432e-13 7.031879147977732059e-14 -1.383411343380130942e-13
2.586000000000000000e+03 7.284612274169921875e+01 2.198896789550781250e+01 -3.723039807218900266e-14 1.670479076246178529e-13 3.894525354335501288e-14 -8.924839220523367311e-14
2.587000000000000000e+03 6.995069122314453125e+01 1.944954299926757812e+01 6.093336826860223931e-14 1.290539398436651997e-13 5.699618972317480048e-14 -3.409746036952057691e-14
2.588000000000000000e+03 7.054751586914062500e+01 2.017434120178222656e+01 -9.677980937266780770e-14 1.872776835953188224e-13 2.714936091154258879e-14 -9.709816501182744197e-14
2.589000000000000000e+03 9.126883506774902344e+00 2.682505798339843750e+01 2.353991296593499483e-14 -1.500397841993489356e-13 -3.794996272527689785e-14 2.973861188229100228e-14
2.590000000000000000e+03 9.437669754028320312e+00 2.875509262084960938e+01 3.447003966983164247e-14 -1.224799748384894360e-13 -2.640297919534462245e-14 1.007414570058755288e-13
2.591000000000000000e+03 2.066412925720214844e+01 2.293374824523925781e+01 8.850045533654454788e-14 -7.644860628873081931e-14 3.615556323706718353e-15 -1.334378842230560247e-13
2.592000000000000000e+03 1.704161262512207031e+01 2.439644050598144531e+01 6.148657565084938992e-14 -1.223391911863921933e-13 -1.825578601591555661e-14 2.630782012591828534e-14
2.593000000000000000e+03 9.023404121398925781e+00 3.148121070861816406e+01 4.214438178865367868e-14 -7.344001979898290289e-14 -9.388691064285588361e-15 3.031772830832876742e-14
2.594000000000000000e+03 1.236244487762451172e+01 3.360923385620117188e+01 -3.555667790907345027e-14 -2.096801058519906502e-13 -7.357103885526419806e-14 4.884445644714845158e-14
2.595000000000000000e+03 6.979287719726562500e+01 2.487754631042480469e+01 -1.007343419291185926e-14 2.244375610924512210e-13 6.430923502054319840e-14 -3.373069171522767584e-14
2.596000000000000000e+03 3.232545089721679688e+01 2.627864360809326172e+00 2.237296247723610289e-17 -1.601187308826815259e-13 -4.802890940860948810e-14 4.179535000427628266e-14
2.597000000000000000e+03 2.959682273864746094e+01 2.481893539428710938e+00 -7.389668575403379736e-14 -3.519266583880409360e-13 -1.277470018873697044e-13 1.122998111060917459e-13
2.598000000000000000e+03 5.699746322631835938e+01 4.069567680358886719e+00 -1.279797394362208740e-13 2.521569819537595319e-14 -3.082921423572596020e-14 9.624409830297914192e-14
2.599000000000000000e+03 6.167717742919921875e+01 3.407376527786254883e+00 -1.367573860145548936e-13 1.001611716743705527e-14 -3.802238065413535151e-14 -6.688419485140553733e-14
2.600000000000000000e+03 3.028656387329101562e+01 3.249699831008911133e+00 -3.028558849017815024e-14 -5.873048629454619141e-14 -2.670482277423048140e-14 6.453607129085084729e-15
2.601000000000000000e+03 3.441960906982421875e+01 2.705446958541870117e+00 -1.493048713092567925e-13 -1.554897026022003526e-13 -9.143837217343714352e-14 -5.081489140465423812e-15
2.602000000000000000e+03 3.376897811889648438e+01 3.296459436416625977e+00 -1.186389853545521955e-13 -5.094332277528167141e-15 -3.711999579784387715e-14 -1.003655573364112263e-13
2.603000000000000000e+03 7.138594055175781250e+01 7.383466720581054688e+00 -4.876218583104753590e-14 2.485286993835367914e-14 -7.172795276027925382e-15 -9.727651626920130745e-14
2.604000000000000000e+03 7.006964874267578125e+01 4.805594444274902344e+00 -1.185868487825827988e-13 -7.369841228174051073e-14 -5.768557967454970847e-14 -4.752802240448128837e-15
2.605000000000000000e+03 5.226204299926757812e+01 3.598155975341796875e+00 -2.941874174822167731e-14 3.314291861246897175e-14 1.117252974570893606e-15 3.182197327232473213e-15
2.606000000000000000e+03 3.092276000976562500e+01 2.562805414199829102e+00 -1.086463140590951393e-13 -3.668193407444647614e-13 -1.426396977963206858e-13 -2.694177007682950487e-14
2.607000000000000000e+03 2.905023193359375000e+01 3.123180627822875977e+00 1.108917746853437664e-14 -2.697531868017799539e-13 -7.759920229175390483e-14 1.092024623397351568e-13
2.608000000000000000e+03 3.436005401611328125e+01 3.372410774230957031e+00 2.901738026836291062e-14 5.818696896921563000e-14 2.616130544889991999e-14 8.702419210596112897e-14
2.609000000000000000e+03 2.701980590820312500e+01 2.001685619354248047e+00 2.823475570641782728e-14 5.785155747463008313e-14 2.582589395431437312e-14 3.635529106493090579e-14
2.610000000000000000e+03 7.062702178955078125e+01 3.449225664138793945e+00 -2.066241871611501635e-13 2.317034097139986093e-13 7.523767612887480999e-15 -4.060187211126550094e-15
2.611000000000000000e+03 7.035776519775390625e+01 4.168519496917724609e+00 -2.835914825454616262e-13 -3.003730958081075875e-14 -9.408863662144217876e-14 -7.414017045691972951e-14
2.612000000000000000e+03 2.777331161499023438e+01 2.570435523986816406e+00 4.601301842798929953e-14 -2.090348835866173705e-13 -4.890655751470934787e-14 -3.140451520185281835e-15
2.613000000000000000e+03 3.665798950195312500e+01 2.895176172256469727e+00 -1.001188471320621498e-13 -2.259118727591241660e-13 -9.780921867786132595e-14 -1.079973254617218933e-15
2.614000000000000000e+03 3.593654251098632812e+01 3.770055770874023438e+00 -7.929879084107860354e-14 -2.856154169509489416e-13 -1.094742582718501167e-13 4.779842157926622592e-14
2.615000000000000000e+03 6.959598541259765625e+01 4.044806003570556641e+00 -1.559177320673704736e-13 2.076838050493745591e-13 1.552982223341440454e-14 1.325784642659810775e-13
2.616000000000000000e+03 6.635747528076171875e+01 2.420923709869384766e+00 -1.962733496780125209e-13 -8.411714792593005807e-14 -8.411714792593005807e-14 3.947472028615651995e-14
2.617000000000000000e+03 6.321963119506835938e+01 4.278833389282226562e+00 -1.878968714560252939e-13 3.385014030144947728e-14 -4.621401934637274500e-14 2.978969982747169815e-15
2.618000000000000000e+03 6.220326232910156250e+01 5.087800502777099609e+00 -1.909505404273578733e-13 1.469187998256321626e-13 -1.320952285814407101e-14 -1.031217076790866272e-13
2.619000000000000000e+03 5.725207519531250000e+01 3.395882844924926758e+00 -1.515925243406740508e-13 -1.107191730876158631e-13 -7.869351464949783659e-14 1.264465420390548100e-13
2.620000000000000000e+03 5.687363052368164062e+01 5.195241928100585938e+00 -1.112523498347263440e-13 7.527609584929637054e-14 -1.079287517918945533e-14 5.362672992844687292e-14
2.621000000000000000e+03 3.740316009521484375e+01 2.913085222244262695e+00 -8.145660388607714464e-14 1.084097563916518528e-14 -2.118468872818347198e-14 -3.022906767567376529e-14
2.622000000000000000e+03 6.697609710693359375e+01 3.117870092391967773e+00 -2.404874801902046055e-13 3.418678168787443739e-14 -6.189021056713858715e-14 4.310169164937691089e-14
2.623000000000000000e+03 6.822223663330078125e+01 3.214368820190429688e+00 -2.074519213097342218e-13 7.122035302004406376e-14 -4.086947184215976303e-14 -3.576111778122274820e-14
2.624000000000000000e+03 5.646475601196289062e+01 4.492531299591064453e+00 -1.025858678603899787e-13 1.390384254127199903e-13 1.093576624925946678e-14 8.111971516603158627e-14
2.625000000000000000e+03 3.524744415283203125e+01 5.044431686401367188e+00 -7.934283655433582716e-14 -1.941323892005325513e-13 -8.204256772646051354e-14 5.754675436262651766e-14
2.626000000000000000e+03 3.845680999755859375e+01 4.461459636688232422e+00 -1.432444522156059441e-13 -2.157999256721665482e-13 -1.077133174320898945e-13 4.821849909912752363e-14
2.627000000000000000e+03 4.507455444335937500e+01 5.170291900634765625e+00 5.062006535645627650e-16 6.312450020161397557e-14 1.908920883777337485e-14 2.137710242654765336e-14
2.628000000000000000e+03 7.043839263916015625e+01 1.269425201416015625e+01 6.768089371280219813e-14 9.763252082880050087e-14 4.959402300722809409e-14 5.525045566591663473e-15
2.629000000000000000e+03 7.034464263916015625e+01 1.181763076782226562e+01 -1.080744312944269259e-13 4.518428478052748110e-14 -1.886704395416983343e-14 -9.655925554572994396e-14
2.630000000000000000e+03 4.195699691772460938e+01 3.901010274887084961e+00 -1.224844878300324069e-13 3.900854384517385420e-14 -2.504278319545756581e-14 1.248596088717149333e-13
2.631000000000000000e+03 4.059483718872070312e+01 5.418231010437011719e+00 -5.856450171820223871e-14 -4.225567514165931571e-14 -3.024605238033210852e-14 -2.043558295402713582e-14
2.632000000000000000e+03 4.038600540161132812e+01 3.122711181640625000e+00 -6.186162151110286000e-14 2.022426144740116505e-13 4.211429856649899495e-14 5.387337575829195813e-14
2.633000000000000000e+03 4.394891357421875000e+01 3.536825656890869141e+00 -5.724703344830647800e-14 2.499712405384241221e-13 5.781726280466165102e-14 -3.704504693453902764e-14
2.634000000000000000e+03 4.944843673706054688e+01 4.623218536376953125e+00 -1.258801548241483825e-13 -1.912014925727067993e-13 -9.512449692956198577e-14 -1.240873706277690822e-14
2.635000000000000000e+03 4.822516632080078125e+01 3.296089410781860352e+00 -2.414275918939667864e-13 -1.720953972860969627e-13 -1.240568926882609779e-13 4.512860422270677241e-14
2.636000000000000000e+03 6.758782196044921875e+01 3.085876703262329102e+00 -3.151280777123621757e-13 -8.930394401404639915e-14 -1.213296092284280037e-13 -5.261041914074969517e-14
2.637000000000000000e+03 7.163957977294921875e+01 5.843873023986816406e+00 -1.546314075048793590e-13 7.098224189417551289e-14 -2.509474697270572263e-14 1.648127570834032052e-14
2.638000000000000000e+03 7.096797943115234375e+01 6.467924594879150391e+00 4.868262910850962299e-14 1.581168328863499783e-13 6.203983724320516480e-14 -4.416479931334399422e-14
2.639000000000000000e+03 7.036518096923828125e+01 1.347452640533447266e+01 -1.651659901511989825e-13 2.071647093779792337e-14 -4.333485610283349665e-14 7.212961578386724304e-15
2.640000000000000000e+03 5.374083328247070312e+01 2.637220144271850586e+00 -9.943626732558316639e-14 2.090146767686276719e-13 3.287352147766063604e-14 1.912472865619671558e-13
2.641000000000000000e+03 1.084631347656250000e+01 2.645528984069824219e+01 6.249358940491750447e-14 -4.184345469941674889e-14 6.195041004573289753e-15 2.542283163229751980e-14
2.642000000000000000e+03 9.115444183349609375e+00 2.778726959228515625e+01 5.096819589777779394e-15 -1.808194436195287302e-13 -5.271678615013410119e-14 2.638569972322063473e-14
2.643000000000000000e+03 7.052353668212890625e+01 6.120016098022460938e+00 -1.792520531963479047e-13 1.061814888401665935e-13 -2.192116693516214104e-14 5.049553372551800201e-14
2.644000000000000000e+03 6.875175476074218750e+01 4.069351196289062500e+00 -2.066876807508763458e-13 -1.995400914812928139e-14 -6.799250696970168817e-14 -1.375650217653665019e-13
2.645000000000000000e+03 4.583491897583007812e+01 2.802157878875732422e+00 -1.639706165984522457e-13 -9.314859268031577821e-14 -7.713576007312497596e-14 -8.509081568693066533e-14
2.646000000000000000e+03 4.524246215820312500e+01 3.819874048233032227e+00 -1.059494153651460713e-13 -1.597842680649969038e-13 -7.972010502904289253e-14 1.296803037675008097e-14
2.647000000000000000e+03 5.030009841918945312e+01 4.384459495544433594e+00 -1.262581348065311415e-13 -9.986157950905849567e-14 -6.783591429467689116e-14 1.601859514173756271e-13
2.648000000000000000e+03 1.016227149963378906e+01 2.532761955261230469e+01 5.836384977739306201e-14 -8.364542511320877116e-14 -7.584472770151302196e-15 1.077647153913292855e-13
2.649000000000000000e+03 6.499444580078125000e+01 3.367970466613769531e+00 -2.005050314148049129e-13 5.571166934086133754e-15 -5.848016434171002254e-14 5.827498585683071886e-14
2.650000000000000000e+03 2.582058715820312500e+01 7.062080860137939453e+00 3.612736466322014062e-14 3.835862901727278562e-14 2.234579810414787787e-14 3.141810542197503997e-14
2.651000000000000000e+03 6.951766204833984375e+01 7.283342838287353516e+00 -5.270333187879991388e-14 2.316380662043156236e-14 -8.861856899884147654e-15 9.756019099136856165e-14
2.652000000000000000e+03 7.121967315673828125e+01 1.000173664093017578e+01 1.929277965411878987e-14 -1.460714077364082264e-14 1.405691621791742806e-15 1.518095307936288135e-14
2.653000000000000000e+03 4.601183700561523438e+01 7.444783687591552734e+00 -9.415202348501700708e-15 1.884038782731974060e-14 2.827555431887175154e-15 -4.134635477959572314e-14
2.654000000000000000e+03 2.568172645568847656e+01 7.960520267486572266e+00 -1.354117420407016659e-13 -1.952864546505075904e-13 -9.920945900736277689e-14 3.714118178592060171e-14
2.655000000000000000e+03 2.606545639038085938e+01 6.294168472290039062e+00 -5.865250505329017150e-14 -1.623896329905338831e-13 -6.631264412365264760e-14 -5.758622609796856806e-14
2.656000000000000000e+03 3.312467193603515625e+01 3.370965719223022461e+00 -8.578889280821261343e-14 -2.197704637631886504e-13 -9.166780968192581036e-14 2.504711153381803529e-14
2.657000000000000000e+03 3.813707351684570312e+01 2.954498291015625000e+00 -1.044444749871004108e-13 -4.476191688357680776e-14 -4.476191688357680776e-14 3.110231459857969172e-14
2.658000000000000000e+03 7.087875366210937500e+01 1.780314826965332031e+01 1.126238638888546126e-14 1.420795854014875181e-13 4.600258975834270458e-14 -2.043220600307302237e-13
2.659000000000000000e+03 6.951483917236328125e+01 1.527336406707763672e+01 -5.249349810084250056e-14 3.469147102290286167e-14 -5.340607953975302219e-15 -1.074225953958014845e-13
2.660000000000000000e+03 2.541835975646972656e+01 9.749450683593750000e+00 -1.027305410877810132e-13 -1.584047427732535041e-13 -7.834058651356307079e-14 3.568688720185717034e-14
2.661000000000000000e+03 2.494888877868652344e+01 1.273568344116210938e+01 2.354106154261147166e-14 -2.415411891765889552e-13 -6.540003727375370834e-14 -3.481020132518539145e-14
2.662000000000000000e+03 2.594260597229003906e+01 4.076192855834960938e+00 2.053632227650998426e-14 -8.270061745878701243e-14 -1.864928872408969790e-14 3.816225289878134863e-14
2.663000000000000000e+03 2.626533508300781250e+01 3.637095689773559570e+00 1.030529760376146242e-13 -2.074646606852609265e-13 -3.132350539429389069e-14 -5.220640814183191702e-14
2.664000000000000000e+03 2.492997550964355469e+01 3.134779691696166992e+00 1.167189717272976157e-14 5.075319098367739312e-14 1.872752576929578860e-14 1.359156690460775613e-14
2.665000000000000000e+03 2.620116996765136719e+01 2.866195678710937500e+00 -9.066343189438955119e-14 -3.885575604214812351e-14 -3.885575604214812351e-14 -4.006538346533125572e-14
2.666000000000000000e+03 4.718465423583984375e+01 4.448736190795898438e+00 -1.009268420248433940e-13 -7.756757069337164023e-14 -5.354832517071722586e-14 -1.545196974116636729e-14
2.667000000000000000e+03 2.436688804626464844e+01 1.363359546661376953e+01 -7.005624514744637765e-14 -1.043694007629193676e-13 -5.232769309548336578e-14 3.967016128027418820e-14
2.668000000000000000e+03 2.848400878906250000e+01 3.138974428176879883e+00 3.784905060807280952e-14 -4.412884716930437490e-13 -1.210318195492277038e-13 -2.389991382697933403e-14
2.669000000000000000e+03 2.374720001220703125e+01 1.440585422515869141e+01 -1.133540317003762371e-14 -8.492218836779127922e-14 -2.887727763075526033e-14 -2.354609291831816220e-14
2.670000000000000000e+03 2.361383438110351562e+01 1.320403194427490234e+01 -4.259869976837478422e-14 -4.300151272389196588e-13 -1.417841538620123742e-13 -7.470558188987092008e-14
2.671000000000000000e+03 6.997810363769531250e+01 1.430995368957519531e+01 7.586709445351821901e-14 7.826541742169193516e-14 4.623975220731033065e-14 -8.020119941429260102e-14
2.672000000000000000e+03 1.333851146697998047e+01 2.807052612304687500e+01 6.595544694166372013e-14 -1.440143035207064326e-13 -2.341765561846009813e-14 7.797155797536689525e-14
2.673000000000000000e+03 7.105472564697265625e+01 2.495294380187988281e+01 1.120022094682057365e-14 1.420529411330986869e-13 4.597594887808566233e-14 -1.094072410250633565e-13
2.674000000000000000e+03 2.190163421630859375e+01 2.350154495239257812e+01 -4.627641518139928578e-14 -1.284912524686723789e-13 -5.243029927858196271e-14 4.802175706240287278e-14
2.675000000000000000e+03 2.206682014465332031e+01 1.918837165832519531e+01 6.084302712257988466e-14 -1.683659451006541685e-13 -3.225687471579592736e-14 4.377713266217643506e-14
2.676000000000000000e+03 2.337780189514160156e+01 2.131521606445312500e+01 -2.127724063019816036e-14 -1.749660122731325207e-13 -5.887297756506509883e-14 -7.321957439226228770e-14
2.677000000000000000e+03 2.554610443115234375e+01 8.845889091491699219e+00 6.941741289862718434e-14 -1.075025282009679783e-13 -1.142553425188905930e-14 -5.510481258580099406e-14
2.678000000000000000e+03 5.537820434570312500e+01 3.909106731414794922e+00 -1.671689316921215473e-13 6.560901724250028932e-14 -3.046797501251273521e-14 9.597409808071236115e-14
2.679000000000000000e+03 5.306757354736328125e+01 3.558927059173583984e+00 -1.123604518888515758e-13 8.909836572961599144e-14 -6.978623984298191335e-15 2.206808276698432603e-13
2.680000000000000000e+03 3.962694168090820312e+01 3.067098140716552734e+00 -7.219648056472349751e-14 -1.910696671410597181e-13 -7.897984566698768027e-14 1.833190039655582804e-13
2.681000000000000000e+03 7.125125122070312500e+01 9.141157150268554688e+00 -1.151584524353849170e-13 8.789922457431986746e-14 -8.177768527726104325e-15 -1.315994703618081352e-13
2.682000000000000000e+03 2.763172912597656250e+01 1.198055171966552734e+01 -8.597616162845517218e-14 7.181157524096398737e-14 -4.249375831544060719e-15 -8.269190318382566018e-14
2.683000000000000000e+03 2.436299133300781250e+01 2.035251998901367188e+01 -2.583440832950017335e-14 -1.940756854269115594e-13 -6.597303134564871940e-14 -2.756244363332546049e-14
2.684000000000000000e+03 2.293869781494140625e+01 1.748247146606445312e+01 -9.624007828461147301e-15 -1.413774154170044373e-13 -4.530042993825499076e-14 1.896452389387164733e-14
2.685000000000000000e+03 6.140154647827148438e+01 4.248177051544189453e+00 -2.355594831606605544e-13 -3.232764601260491866e-14 -8.036614044604553642e-14 -1.240555391296112656e-14
2.686000000000000000e+03 9.760362625122070312e+00 2.979146575927734375e+01 1.261370463645234558e-14 -8.609602695488702273e-14 -2.204469652612381370e-14 1.571318961990190999e-14
2.687000000000000000e+03 6.807045745849609375e+01 2.609592819213867188e+01 1.523834125560525471e-14 1.895345181799831802e-13 6.143185732245676212e-14 -5.109762507321709279e-14
2.688000000000000000e+03 2.268972396850585938e+01 1.836771011352539062e+01 -1.143970443547026594e-13 -2.148744913553143898e-13 -9.878146342351054598e-14 -2.503672690988469757e-14
2.689000000000000000e+03 2.277870368957519531e+01 1.999224281311035156e+01 -6.602747862349822583e-14 -2.113012862554539129e-13 -8.319863217419107282e-14 4.728441149368621532e-15
2.690000000000000000e+03 1.879701042175292969e+01 2.510177040100097656e+01 7.086698442697672573e-14 -6.113033392202496530e-14 2.920994600914112414e-15 -3.077086044192371694e-14
2.691000000000000000e+03 1.988828277587890625e+01 2.408182907104492188e+01 -4.649884942148005407e-14 -1.343054492489517693e-13 -5.424128960112954700e-14 6.109513123273707658e-14
2.692000000000000000e+03 6.868446350097656250e+01 1.760604476928710938e+01 1.744869914245376907e-14 7.610443986160245200e-14 2.806594034596415072e-14 -8.683694361450930432e-14
2.693000000000000000e+03 2.535763359069824219e+01 1.558522224426269531e+01 -2.057016632495047709e-14 -1.460686362446048103e-13 -4.999164060145999677e-14 2.122369798353632153e-14
2.694000000000000000e+03 2.656950950622558594e+01 1.938161849975585938e+01 -1.263013961672792076e-14 -1.426657593060418061e-13 -4.658877043916057059e-14 2.055046772672913108e-15
2.695000000000000000e+03 6.966587066650390625e+01 2.092063713073730469e+01 9.852412126160753347e-14 1.394453942506895805e-13 7.139085058793098737e-14 -5.679109932972201125e-14
2.696000000000000000e+03 1.289075851440429688e+01 2.536466026306152344e+01 4.605146694753106673e-14 -1.632674572794867718e-13 -3.516479642196035371e-14 9.627339209042698465e-15
2.697000000000000000e+03 1.089031410217285156e+01 2.953582954406738281e+01 4.654108587236194250e-14 -1.630576099490022024e-13 -3.495495925587115138e-14 9.011160686991231961e-14
2.698000000000000000e+03 7.147060394287109375e+01 2.250084114074707031e+01 -1.578277507058474527e-14 1.876774831464228521e-13 5.156841276156461096e-14 -6.731170932054372780e-14
2.699000000000000000e+03 6.874006652832031250e+01 2.170379829406738281e+01 6.951285995925558792e-15 2.377654822159624981e-13 7.341502893890711201e-14 -5.955359903137003030e-14
2.700000000000000000e+03 6.833194732666015625e+01 2.966508674621582031e+01 -1.844574501279859502e-14 2.437249078772463218e-13 6.758374919814749693e-14 -7.243196927658734907e-14
2.701000000000000000e+03 6.597224426269531250e+01 2.778537940979003906e+01 3.400807806479451412e-14 2.547673714787396237e-13 8.663263249136798905e-14 -3.721046230474242544e-14
2.702000000000000000e+03 1.629146003723144531e+01 2.619630813598632812e+01 1.014185344863291482e-13 -1.738519132257407285e-13 -2.173001531588936858e-14 3.328124925715096605e-14
2.703000000000000000e+03 1.048048210144042969e+01 2.827417564392089844e+01 2.197738112373961994e-14 -8.208302202002137893e-14 -1.803169159125816989e-14 -1.637804610899254443e-14
2.704000000000000000e+03 1.307746887207031250e+01 3.570347213745117188e+01 3.550585593223819225e-14 -5.340962860780201771e-14 -5.371131633262558186e-15 2.008383727608673702e-14
2.705000000000000000e+03 6.280904388427734375e+01 3.343996429443359375e+01 4.158900939019334608e-14 6.357481002142867377e-14 3.154914480704706925e-14 -3.593675853316539992e-14
2.706000000000000000e+03 6.693977355957031250e+01 3.226407241821289062e+01 2.781247928902545741e-14 2.177989098751595409e-13 7.368341641044232060e-14 -4.834245051249692893e-14
2.707000000000000000e+03 3.167843627929687500e+01 3.364691972732543945e+00 2.549591194092072632e-14 -8.057507975721064919e-14 -1.652375102251333466e-14 8.281538703500818110e-14
2.708000000000000000e+03 2.964866447448730469e+01 3.176341772079467773e+00 2.440569075231203283e-14 -3.529136686120266930e-14 -3.265702493854012040e-15 -4.155229220599576667e-14
2.709000000000000000e+03 3.096513557434082031e+01 3.315242767333984375e+00 -7.158566816579947645e-14 -7.643052044124104549e-14 -4.440485861499122999e-14 -5.752977304609996345e-14
2.710000000000000000e+03 2.834890174865722656e+01 4.604928493499755859e+00 -2.229542641002738024e-13 -3.014311077218639889e-13 -1.573156074808831906e-13 6.008619301981280025e-14
2.711000000000000000e+03 6.634712982177734375e+01 3.148999214172363281e+00 -1.536688934737281964e-13 -1.116090455732104969e-13 -7.958338713509247042e-14 3.877524725457749677e-14
2.712000000000000000e+03 5.478225326538085938e+01 4.180079460144042969e+00 -1.414092096457125747e-13 1.681507987320515762e-13 8.022475201242395410e-15 8.771213871319391564e-14
2.713000000000000000e+03 3.240822219848632812e+01 3.390552997589111328e+00 -5.558147529467066805e-14 -1.839489525328266706e-13 -7.185913105875463280e-14 -1.149792609213273753e-13
2.714000000000000000e+03 2.906421089172363281e+01 3.739382982254028320e+00 2.581707972946524488e-14 -4.006940721064389255e-13 -1.124630987295316409e-13 1.073268840608935376e-14
2.715000000000000000e+03 6.979204559326171875e+01 5.467650890350341797e+00 -9.497505321261201505e-14 -4.070359229790126987e-14 -4.070359229790126987e-14 -1.552757081984060261e-13
2.716000000000000000e+03 4.334448623657226562e+01 3.953999996185302734e+00 -1.471087249411973108e-13 -2.460503860119561681e-13 -1.179477387069569061e-13 8.534585391921714614e-14
2.717000000000000000e+03 6.977819061279296875e+01 1.308996486663818359e+01 -4.237474425712074722e-14 7.334129641491451967e-14 9.289965139118363385e-15 -4.135979888653454339e-14
2.718000000000000000e+03 6.866929626464843750e+01 1.196675872802734375e+01 -1.273797555064945519e-13 -8.840376144341778597e-15 -4.086603966465748861e-14 -5.175017586765001676e-14
2.719000000000000000e+03 3.672023773193359375e+01 3.646582841873168945e+00 -1.054030181277948452e-13 4.632917516961786164e-14 -1.772215356507945289e-14 -7.770085979795157693e-14
2.720000000000000000e+03 3.402021408081054688e+01 3.893436670303344727e+00 -1.270034966950606137e-13 -1.916829189948718315e-13 -9.560592335172701794e-14 1.123599961851259529e-14
2.721000000000000000e+03 6.331938552856445312e+01 5.646081447601318359e+00 -9.725141698890826802e-14 4.982271851485496617e-14 -1.422861021984234836e-14 1.060267867426800681e-13
2.722000000000000000e+03 6.599763488769531250e+01 3.781195878982543945e+00 -1.152402554892989484e-13 -1.637660547535585431e-13 -8.370189171760453184e-14 3.544771220260686806e-14
2.723000000000000000e+03 5.761343002319335938e+01 4.502942562103271484e+00 -5.104792456800399947e-14 4.102987277731541538e-14 -3.005416045426343580e-15 1.274009652114937996e-13
2.724000000000000000e+03 3.619518280029296875e+01 4.721714973449707031e+00 -7.264079339127163526e-14 -1.569468838745480266e-13 -6.887630114686682514e-14 -1.369207329303010964e-14
2.725000000000000000e+03 4.912216186523437500e+01 3.820488452911376953e+00 -1.634662728528663012e-13 -2.301852827270300939e-13 -1.180954748054852121e-13 1.055101034211185229e-13
2.726000000000000000e+03 4.861162185668945312e+01 4.817592620849609375e+00 -1.570642081021381142e-13 -6.731323397984878554e-14 -6.731323397984878554e-14 4.775035754170722790e-14
2.727000000000000000e+03 4.262997436523437500e+01 3.942726612091064453e+00 -1.201791351981493228e-13 -1.430072423327932718e-13 -7.895591190403006276e-14 -6.865915578050871271e-14
2.728000000000000000e+03 4.451218414306640625e+01 4.249465465545654297e+00 -1.422852314485537062e-13 -1.524812855190418870e-13 -8.842995509027867795e-14 6.024525225478000179e-14
2.729000000000000000e+03 4.776973724365234375e+01 4.147881984710693359e+00 -2.430675289950140483e-13 -1.041718049169838844e-13 -1.041718049169838844e-13 4.113750694798891383e-14
2.730000000000000000e+03 4.228079986572265625e+01 4.550516605377197266e+00 -9.397316909007247254e-14 2.342314710246373721e-13 4.207749329087490109e-14 1.390943549982271918e-14
2.731000000000000000e+03 4.146885299682617188e+01 4.945571422576904297e+00 -1.240704858729985149e-13 -3.276787478509457507e-13 -1.355247701171832797e-13 -2.153082704801304731e-14
2.732000000000000000e+03 5.152438354492187500e+01 3.471309661865234375e+00 -1.262054154758940339e-13 1.517912314938363316e-13 7.675744805382689329e-15 5.800232933924134859e-14
2.733000000000000000e+03 5.903504562377929688e+01 4.623563289642333984e+00 -2.502511544343055672e-13 -1.072504986297101448e-13 -1.072504986297101448e-13 4.054045375226009162e-14
2.734000000000000000e+03 5.996054077148437500e+01 4.411686420440673828e+00 -1.268890456032276126e-13 -1.001319727546128024e-13 -6.810630754023119793e-14 -6.943688788015045521e-14
2.735000000000000000e+03 7.001371002197265625e+01 6.614151000976562500e+00 -5.699448210475313581e-14 -7.017715401846924550e-14 -3.815149219221943000e-14 -1.250075889157320486e-13
2.736000000000000000e+03 7.060890960693359375e+01 5.009174823760986328e+00 -1.533211085218491587e-13 -8.858452166249364268e-14 -7.257168905530284042e-14 -5.264618087178277173e-15
2.737000000000000000e+03 7.034489440917968750e+01 1.088028144836425781e+01 -2.653097264993832527e-14 1.258824316487106021e-13 2.980543600556578854e-14 -1.044653695958432799e-14
2.738000000000000000e+03 7.106620788574218750e+01 4.467718601226806641e+00 -2.682091202778347228e-13 9.665137884907332166e-14 -5.146731768524391570e-14 6.957486615912639172e-14
2.739000000000000000e+03 2.961377143859863281e+01 3.896754026412963867e+00 -6.822907988373802524e-14 -3.037467196168042172e-13 -1.115927418830417461e-13 1.681760335376161763e-13
2.740000000000000000e+03 3.887655258178710938e+01 3.009938001632690430e+00 -6.635408775169590601e-14 -1.199393638877041535e-13 -5.588803684707273345e-14 5.419513308176776567e-14
2.741000000000000000e+03 3.886325836181640625e+01 3.817771196365356445e+00 -1.497676765591093861e-13 -1.843519945260527898e-14 -5.046086297292098899e-14 1.330949917334803279e-13
2.742000000000000000e+03 7.043199920654296875e+01 9.142836570739746094e+00 2.509645628519328181e-14 -8.074627528024611034e-14 -1.669494485148290130e-14 5.775437230239391373e-14
2.743000000000000000e+03 2.665657997131347656e+01 2.737123966217041016e+00 9.748574018343669767e-14 -2.684681937750819231e-14 2.119167674999831996e-14 8.059504262971153854e-14
2.744000000000000000e+03 3.331377792358398438e+01 4.139685153961181641e+00 -2.631942617136156376e-14 -5.703070123357772969e-14 -2.500503940732791419e-14 -7.039010233657371288e-15
2.745000000000000000e+03 5.886347579956054688e+01 3.700215816497802734e+00 -4.235504904703119022e-14 9.622520608012358201e-14 1.616104812636725424e-14 8.823041615076219341e-15
2.746000000000000000e+03 6.070251846313476562e+01 3.951949357986450195e+00 -1.437866346170116327e-13 5.847339485439556617e-14 -2.559397294522435667e-14 3.532880910560309839e-14
2.747000000000000000e+03 2.593076515197753906e+01 1.479042530059814453e+01 -1.085034568703430180e-13 -4.650148199988012043e-14 -4.650148199988012043e-14 5.893611201282164536e-14
2.748000000000000000e+03 3.994499206542968750e+01 4.641315460205078125e+00 -8.365996019858365496e-14 -2.302957900334606789e-13 -9.418672981299780478e-14 1.460143854783990669e-13
2.749000000000000000e+03 2.692955398559570312e+01 5.735531330108642578e+00 -4.857459175015323150e-14 -2.038214838876936663e-13 -7.571882303016724824e-14 8.179228812527170739e-15
2.750000000000000000e+03 7.005101776123046875e+01 1.660185050964355469e+01 -4.379001433923827846e-14 3.842153646019946800e-14 -1.610543046074287919e-15 -1.022298971821086755e-13
2.751000000000000000e+03 6.867658996582031250e+01 1.487534523010253906e+01 6.915369427269724145e-14 2.641109173810024524e-13 9.997938485136262377e-14 1.472908133079344623e-15
2.752000000000000000e+03 6.981404113769531250e+01 1.766825485229492188e+01 3.953559315594389750e-15 1.846981768915956224e-13 5.659552281033278232e-14 -5.064248038933946705e-14
2.753000000000000000e+03 6.904837036132812500e+01 1.637711143493652344e+01 1.441065284680034808e-14 5.192694147934662219e-14 1.990127965309680669e-14 -7.779541577991946899e-14
2.754000000000000000e+03 2.580869293212890625e+01 1.330385112762451172e+01 -6.856121166675180345e-14 -6.507903211553506262e-15 -2.252073581874430852e-14 4.504607949672168044e-14
2.755000000000000000e+03 2.532975769042968750e+01 1.069745635986328125e+01 -3.975002293467311265e-14 2.871522328728656759e-14 -3.310439809512668793e-15 -3.717822084263813776e-14
2.756000000000000000e+03 2.619257926940917969e+01 9.791795730590820312e+00 3.945554346023068260e-14 -5.965955861790680700e-15 1.004687632188364793e-14 -5.009944756685473510e-14
2.757000000000000000e+03 6.924243164062500000e+01 1.390535736083984375e+01 -1.374123660994805429e-13 -7.421197005172668754e-15 -4.345006952431902658e-14 -5.218141389362433713e-14
2.758000000000000000e+03 3.961109924316406250e+01 3.891683340072631836e+00 -4.360134960869864462e-14 7.281560743905776678e-14 8.764276163261610492e-15 8.229266436853271277e-15
2.759000000000000000e+03 6.875971984863281250e+01 5.770553588867187500e+00 -1.156995235295638080e-13 -7.246098523722849238e-14 -5.644815263003769013e-14 -1.513350059959180094e-14
2.760000000000000000e+03 2.706762695312500000e+01 3.641877174377441406e+00 3.800469121806489270e-15 -2.728769087859822529e-13 -8.072293782848335986e-14 6.301678471577754070e-14
2.761000000000000000e+03 2.513679313659667969e+01 1.417177677154541016e+01 -4.865915613147531182e-14 -2.724841294439450667e-13 -9.634299109363697600e-14 -6.901926675583619497e-14
2.762000000000000000e+03 5.383535003662109375e+01 3.495073795318603516e+00 -9.235921218358339457e-14 -1.670704387010148173e-14 -3.271987647729228399e-14 4.360368403150127747e-14
2.763000000000000000e+03 1.193880939483642578e+01 2.584146881103515625e+01 7.006789354453701879e-14 -1.300992191581584745e-13 -1.800939937815233122e-14 8.112144988950756308e-14
2.764000000000000000e+03 5.399607467651367188e+01 4.435077667236328125e+00 -7.077134424283634817e-14 3.829584693522229688e-14 -9.742650039317162641e-15 1.568000015852305529e-13
2.765000000000000000e+03 1.511870479583740234e+01 2.636896324157714844e+01 5.568532831026762331e-14 -1.705763893848633028e-13 -3.446731900000506166e-14 8.793776118528814911e-14
2.766000000000000000e+03 1.253663444519042969e+01 2.696526908874511719e+01 6.105641843891576603e-14 -4.245938656547397494e-14 5.579110409065484583e-15 4.297168564450053185e-14
2.767000000000000000e+03 2.636330413818359375e+01 8.947073936462402344e+00 -1.958432602287146773e-13 -2.440611460759883888e-13 -1.319713246019163511e-13 5.993479773895235563e-14
2.768000000000000000e+03 2.526827812194824219e+01 1.171815299987792969e+01 -1.104115307211731012e-13 -2.531985038300987867e-13 -1.090830103653815664e-13 -4.606082835566412126e-14
2.769000000000000000e+03 5.153647994995117188e+01 4.999090671539306641e+00 -1.314040293676904669e-13 -3.344053888507982075e-14 -4.945337149227062301e-14 -6.484083289823999730e-14
2.770000000000000000e+03 5.109908676147460938e+01 4.107314109802246094e+00 -5.517656305269701134e-14 2.210384991902826501e-14 -9.921813601287444995e-15 9.917835595753959899e-14
2.771000000000000000e+03 6.806475067138671875e+01 1.604133987426757812e+01 -5.171524761703703843e-14 6.933821870619069627e-14 5.286892089075749881e-15 -7.218110691673083196e-15
2.772000000000000000e+03 5.829670715332031250e+01 5.110267639160156250e+00 -1.514695080516784143e-13 -1.106664537569787554e-13 -7.864078854259715090e-14 1.016718295248101797e-14
2.773000000000000000e+03 6.041464996337890625e+01 3.340152025222778320e+00 -1.652067019427758132e-13 -2.505192268095843972e-14 -5.707758620127414972e-14 7.295247441080690565e-14
2.774000000000000000e+03 2.653880500793457031e+01 8.107739448547363281e+00 2.617197128777174614e-14 -8.028534027914105420e-14 -1.623400985037784516e-14 -8.649225541508542836e-14
2.775000000000000000e+03 1.513073635101318359e+01 2.766474151611328125e+01 5.988632034931509751e-14 -1.573382266487066694e-13 -2.923557256744382937e-14 4.231736285714195189e-14
2.776000000000000000e+03 6.963223266601562500e+01 2.258252525329589844e+01 1.797733071076928341e-14 1.449574103329701047e-13 4.888042485422065819e-14 -1.079589773155843757e-13
2.777000000000000000e+03 4.582117080688476562e+01 4.597376346588134766e+00 -1.246564564896454619e-13 -9.917514400860361068e-14 -6.714947879422200616e-14 5.799122304323695021e-14
2.778000000000000000e+03 4.678947830200195312e+01 3.659371852874755859e+00 -1.637297475333074348e-13 -1.616717827321312306e-13 -9.762045907963159963e-14 1.028754760483527493e-15
2.779000000000000000e+03 2.482729339599609375e+01 2.560371780395507812e+01 1.741658134715978051e-14 -1.183508586272141727e-13 -3.028028267579654931e-14 -3.298662663414045002e-15
2.780000000000000000e+03 2.064947891235351562e+01 2.825474548339843750e+01 8.259254283098094174e-14 -2.047956801972533603e-13 -3.666094120988172556e-14 -5.838549993952488193e-14
2.781000000000000000e+03 6.892294311523437500e+01 2.340161705017089844e+01 5.446398980955575314e-15 2.082134378106337280e-13 6.409795112218008573e-14 -7.820931673552938834e-14
2.782000000000000000e+03 1.151713085174560547e+01 2.769131469726562500e+01 5.281627525198680229e-14 -1.603682464601519087e-13 -3.226559237888906861e-14 5.678982200403755176e-14
2.783000000000000000e+03 1.216634559631347656e+01 2.908684349060058594e+01 5.046124244368135892e-14 -4.700017772977377328e-14 1.038319880040396680e-15 3.520984502222712642e-14
2.784000000000000000e+03 2.477439880371093750e+01 1.639973068237304688e+01 -1.147979823180877990e-13 -2.436406653684441981e-13 -1.075315983717177459e-13 -7.301976270813678727e-14
2.785000000000000000e+03 2.449556541442871094e+01 2.263150596618652344e+01 9.700382248216225800e-16 -1.025239057062324322e-13 -3.046615897387382199e-14 -3.535079130465024200e-14
2.786000000000000000e+03 3.026291275024414062e+01 4.023725032806396484e+00 -6.713118288256131327e-14 -2.117742965582550263e-13 -8.367164925325576430e-14 -4.125515982436253615e-14
2.787000000000000000e+03 2.689850616455078125e+01 6.461351871490478516e+00 3.900916387329124435e-14 -6.157261641059853449e-15 9.855570542614475182e-15 6.329014935291081556e-15
2.788000000000000000e+03 3.016827964782714844e+01 4.861836910247802734e+00 -4.331917244078213602e-14 -3.616974883664803020e-13 -1.215049924823546901e-13 8.419451252720047685e-14
2.789000000000000000e+03 2.827471542358398438e+01 7.365300655364990234e+00 4.140946889856153557e-14 -2.800403409598112292e-14 4.021630271367534343e-15 4.637554852941414008e-14
2.790000000000000000e+03 3.249325561523437500e+01 4.173103809356689453e+00 -5.586269023315909577e-14 -1.611940019397711810e-13 -6.511700629662636741e-14 -7.199805801463149413e-14
2.791000000000000000e+03 2.941175079345703125e+01 4.664399147033691406e+00 1.949909443369683519e-15 -3.651719226484273495e-13 -1.089666009333745134e-13 1.078232826374342368e-13
2.792000000000000000e+03 6.977290344238281250e+01 8.299728393554687500e+00 6.959548802326024491e-15 9.448456014977957285e-14 3.043323310914815283e-14 9.659533237301939912e-14
2.793000000000000000e+03 6.655743408203125000e+01 4.382815837860107422e+00 -1.458760548337170726e-13 1.891119097256754866e-13 1.297075358767550354e-14 1.225936127786930729e-13
2.794000000000000000e+03 4.282815551757812500e+01 5.269487857818603516e+00 -1.135950938890330220e-13 -1.401855113112096540e-13 -7.613418088244644499e-14 -1.462281596536271072e-14
2.795000000000000000e+03 7.038934326171875000e+01 5.559450149536132812e+00 -3.968420508653966450e-14 -6.275846677191929124e-14 -3.073280155753768672e-14 2.246249383329110283e-14
2.796000000000000000e+03 6.301559066772460938e+01 6.590096950531005859e+00 -1.159497844960277746e-13 1.333110325688752207e-13 5.208372134865276240e-15 -1.077859928589643135e-13
2.797000000000000000e+03 5.097765350341796875e+01 6.647362709045410156e+00 -6.478625009511893018e-14 -5.064100994014303359e-14 -3.462817733295223133e-14 2.770282409773981019e-14
2.798000000000000000e+03 4.636177062988281250e+01 6.288271903991699219e+00 -1.266720018808231707e-13 -1.457899014185859432e-13 -8.173857098982273417e-14 3.409559350890482843e-14
2.799000000000000000e+03 2.794822502136230469e+01 3.216863632202148438e+00 -1.368429295659639999e-13 -1.043979152800557364e-13 -7.237225006567413188e-14 4.096130376616928526e-14
2.800000000000000000e+03 3.467911529541015625e+01 4.373951435089111328e+00 -6.718617903776064049e-14 -2.861431523584062608e-13 -1.059988007741027860e-13 4.470147261246074089e-14
2.801000000000000000e+03 3.741673660278320312e+01 3.688279867172241211e+00 -8.668589392309133945e-14 -1.286529883277529041e-13 -6.460166467525327305e-14 9.912963462241353163e-14
2.802000000000000000e+03 3.704544830322265625e+01 4.305898666381835938e+00 -1.457014982839469064e-13 -3.312303231174651419e-13 -1.430795450651708989e-13 -2.442426279671353062e-14
2.803000000000000000e+03 5.061194992065429688e+01 5.448069572448730469e+00 -1.308587027799845703e-13 -1.018332485935684317e-13 -6.980758337918682721e-14 1.899716007332935552e-13
2.804000000000000000e+03 3.433732986450195312e+01 5.069062709808349609e+00 -1.808701131304334825e-14 -9.925347083930211034e-14 -3.520214379867069032e-14 8.279585106711270792e-14
2.805000000000000000e+03 3.342246246337890625e+01 4.977760791778564453e+00 -6.377202639660378702e-14 -2.103346658085744614e-13 -8.223200495104804331e-14 -5.226666945383137697e-14
2.806000000000000000e+03 2.743651962280273438e+01 3.319265604019165039e+00 1.954325779983043243e-13 -2.364998117048572324e-13 -1.232017129781199857e-14 2.144942548771601454e-14
2.807000000000000000e+03 4.199480438232421875e+01 5.797811508178710938e+00 -9.853087042013125574e-15 3.103150332181559001e-13 9.013858317521647456e-14 -6.370081210156338172e-15
2.808000000000000000e+03 6.723048400878906250e+01 3.685473203659057617e+00 -1.102263557663761551e-13 8.027635325957068607e-15 -3.065961791089491517e-14 -5.479404636184875832e-14
2.809000000000000000e+03 6.790777587890625000e+01 4.002216339111328125e+00 -1.616956080748715996e-13 2.852717248622710366e-13 3.707283977960433574e-14 4.837431928010442472e-14
2.810000000000000000e+03 6.516365814208984375e+01 4.221010208129882812e+00 -1.268115522529492112e-13 3.715408717990496823e-14 -2.689723986072645179e-14 -4.994481323200399003e-14
2.811000000000000000e+03 6.571814727783203125e+01 3.181897163391113281e+00 -1.335943752541271512e-13 -5.725473128373112508e-14 -5.725473128373112508e-14 1.024233933885794479e-14
2.812000000000000000e+03 6.207636642456054688e+01 5.807181835174560547e+00 5.068102377657132673e-14 9.034685841255093997e-14 4.230836397911032221e-14 -1.454108406221624877e-14
2.813000000000000000e+03 6.855654144287109375e+01 1.337339973449707031e+01 -2.327609269605138143e-14 3.577548007187639212e-14 3.749816551560682110e-15 4.406345351527091170e-14
2.814000000000000000e+03 6.943813323974609375e+01 1.089134597778320312e+01 -9.505872651527358386e-14 -4.073945567288801695e-14 -4.073945567288801695e-14 -9.810589027357125014e-14
2.815000000000000000e+03 2.668932151794433594e+01 1.257522392272949219e+01 -9.272683803521891699e-14 -1.827117829863306175e-13 -8.263158766171757597e-14 1.744335775268838346e-14
2.816000000000000000e+03 2.583776855468750000e+01 1.652532196044921875e+01 -7.189284974631893199e-14 -1.223131161241439169e-13 -5.826179247164428587e-14 1.297515477086943689e-14
2.817000000000000000e+03 6.417602539062500000e+01 4.336128711700439453e+00 -1.435986881704112705e-13 7.084129561175239731e-15 -4.095436826039716705e-14 4.446072213192854561e-14
2.818000000000000000e+03 2.669233703613281250e+01 7.271299362182617188e+00 -6.665452017369163928e-14 -1.200681264482139632e-13 -5.601679263131896513e-14 -7.689003242699471441e-14
2.819000000000000000e+03 2.751963233947753906e+01 5.423205852508544922e+00 -1.962555687623837586e-14 -9.991284871928990396e-14 -3.586152167865848395e-14 1.187860167216683860e-13
2.820000000000000000e+03 6.958274078369140625e+01 9.080198287963867188e+00 -1.394776492653210243e-13 -1.402518848129565010e-14 -4.605085369567725462e-14 -7.934211827039655551e-14
2.821000000000000000e+03 3.253679656982421875e+01 4.978750228881835938e+00 -6.095090523874219235e-14 1.962913135527578901e-14 -1.239653216503992100e-14 -3.204333432166132922e-14
2.822000000000000000e+03 6.789198303222656250e+01 1.434696006774902344e+01 2.786021975999860428e-14 -3.238113783728992223e-14 -1.356275084374216483e-15 -8.615161942128121697e-14
2.823000000000000000e+03 6.458413696289062500e+01 5.701764106750488281e+00 -1.799267386557584780e-13 1.973942385415095035e-13 5.240250219835191833e-15 2.158153044023568973e-14
2.824000000000000000e+03 6.121947097778320312e+01 5.145644664764404297e+00 -3.992120829331320675e-14 5.766384735022200489e-15 -1.024644744865212814e-14 1.693019131192383814e-14
2.825000000000000000e+03 6.789495849609375000e+01 1.267584514617919922e+01 -4.562295975577869422e-14 4.907372793717945658e-14 1.035230433244405026e-15 -3.981640660081532668e-14
2.826000000000000000e+03 6.919735717773437500e+01 1.259017753601074219e+01 -2.172848049218894378e-14 7.933025980913499531e-14 1.728053260923768930e-14 -9.458768810517367842e-14
2.827000000000000000e+03 5.286290359497070312e+01 5.288384437561035156e+00 -9.666504657271021705e-14 5.007401963777816101e-14 -1.397730740285325901e-14 7.619427278785645408e-14
2.828000000000000000e+03 6.860868835449218750e+01 1.886111259460449219e+01 -1.992047003154980012e-14 1.744664525696326685e-13 4.636379510023803940e-14 -3.898766278895814119e-14
2.829000000000000000e+03 5.315506362915039062e+01 4.477575302124023438e+00 -8.908155381967888808e-14 -1.296797006800423646e-13 -6.562837702754273361e-14 -1.408225902018280309e-14
2.830000000000000000e+03 2.715645980834960938e+01 1.123143482208251953e+01 -4.587154359700709727e-14 -1.569120809848112419e-13 -6.083508534166642834e-14 2.127521452738832808e-15
2.831000000000000000e+03 1.343552780151367188e+01 2.615937042236328125e+01 1.492221195784418364e-13 -2.169870863934567073e-13 -2.032949038331764019e-14 1.063444512029547429e-13
2.832000000000000000e+03 2.649085044860839844e+01 1.404477024078369141e+01 -9.250171023036588003e-14 -2.626794723577241530e-13 -1.065543527435479365e-13 -2.053575645850121839e-14
2.833000000000000000e+03 6.897363281250000000e+01 1.997779464721679688e+01 -1.059888938767516997e-14 2.356500953572260304e-13 6.751536314611797374e-14 -1.175201429226557792e-13
2.834000000000000000e+03 2.781685066223144531e+01 9.572755813598632812e+00 -1.029858368180834594e-13 1.614160723792011035e-15 -3.041150501998518552e-14 2.555812142869887116e-14
2.835000000000000000e+03 5.435062026977539062e+01 5.357026576995849609e+00 -8.065916641195047809e-14 1.118273395162450862e-14 -2.084292956869120139e-14 1.459139883572269092e-13
2.836000000000000000e+03 5.206386947631835938e+01 6.065332412719726562e+00 -7.336503366622837419e-14 -1.229440540258947001e-13 -5.889272359713149108e-14 1.027987509569575075e-13
2.837000000000000000e+03 5.910432052612304688e+01 5.554458141326904297e+00 1.027502634029248824e-14 1.874073812802024008e-13 5.930472042267598276e-14 2.006577683958538083e-14
2.838000000000000000e+03 6.845378875732421875e+01 2.461375427246093750e+01 -1.064251581962350271e-14 -7.318750233674745087e-14 -2.514900451517504409e-14 -3.115587418590047564e-14
2.839000000000000000e+03 6.905847930908203125e+01 8.023714065551757812e+00 -6.512138376289777764e-14 -5.033689800702442763e-15 -2.104652240789324502e-14 -5.616721551835596182e-14
2.840000000000000000e+03 3.766469573974609375e+01 4.994761466979980469e+00 -8.801302514484937722e-14 5.378202833712826536e-14 -1.026929955053610191e-14 -8.763124198453344643e-15
2.841000000000000000e+03 4.668990325927734375e+01 5.196087837219238281e+00 -8.201105132455907554e-14 -3.514759487686751338e-14 -3.514759487686751338e-14 1.385591572305045621e-14
2.842000000000000000e+03 2.363277435302734375e+01 1.921854209899902344e+01 -6.873515835279994657e-14 -9.808434853165667877e-14 -5.004585409821606101e-14 -7.688737613167212492e-14
2.843000000000000000e+03 4.369464492797851562e+01 4.758262634277343750e+00 -1.246496260159588032e-13 4.951836263624755097e-14 -2.253938070797927018e-14 9.549184326032491427e-15
2.844000000000000000e+03 5.599752807617187500e+01 5.821353912353515625e+00 -1.192291708071446799e-13 1.647890672659343969e-13 1.366797012348304127e-14 8.544799254012885870e-14
2.845000000000000000e+03 4.783664703369140625e+01 4.807440280914306641e+00 -5.068005815901145683e-14 6.978187423517176469e-14 5.730543806408555652e-15 1.155602306554537329e-13
2.846000000000000000e+03 6.948454284667968750e+01 1.180677509307861328e+01 -5.651768048248011211e-14 9.015551028163440450e-14 1.009134893974628772e-14 3.027584083502114776e-14
2.847000000000000000e+03 6.946003723144531250e+01 9.960966110229492188e+00 2.856912704454414587e-14 1.494967615412595707e-13 5.341976589811475717e-14 6.475566881759126092e-14
2.848000000000000000e+03 6.718941497802734375e+01 1.919448471069335938e+01 6.902844605188558982e-15 -8.479374937386732064e-15 -4.729591631869229686e-16 -7.267712094031347769e-14
2.849000000000000000e+03 2.612627983093261719e+01 1.786734771728515625e+01 -7.755452638598392401e-14 -2.162414534543841138e-13 -8.813879259685769574e-14 1.055401951136026792e-14
2.850000000000000000e+03 2.474059867858886719e+01 1.841566467285156250e+01 -3.772395400615871641e-14 -2.277655603184769451e-13 -7.964685361976434064e-14 -2.467026996371638609e-14
2.851000000000000000e+03 1.318847465515136719e+01 3.058553886413574219e+01 1.805689759770256336e-14 -1.509599330306102272e-13 -3.987091147690524640e-14 6.309602634205907501e-14
2.852000000000000000e+03 2.222288322448730469e+01 2.641435050964355469e+01 -3.952692800889348601e-15 -1.618223377563079990e-13 -4.973250611784059416e-14 1.795247876409684223e-14
2.853000000000000000e+03 2.758344841003417969e+01 3.921782493591308594e+00 -1.992294946639300290e-13 -1.768859716902784762e-13 -1.128346412615152672e-13 7.223311982188992952e-14
2.854000000000000000e+03 2.811841011047363281e+01 3.871912479400634766e+00 1.488458743195350542e-13 -3.022165037756124883e-13 -4.601118544869144122e-14 -1.239337002164123125e-13
2.855000000000000000e+03 2.894989395141601562e+01 6.816879272460937500e+00 -5.517436754329772819e-14 -1.380235308641106218e-13 -5.795936782815661048e-14 -1.705435617759595152e-14
2.856000000000000000e+03 6.814647674560546875e+01 5.277605056762695312e+00 -2.773938847719370493e-13 1.756386377484153716e-13 -3.052657275180378771e-14 -3.167645385901939059e-14
2.857000000000000000e+03 3.822531127929687500e+01 7.227309703826904297e+00 -4.993583807089488347e-14 -1.568220515469134768e-14 -1.968541330648904825e-14 8.819569965838602865e-14
2.858000000000000000e+03 3.428665161132812500e+01 5.920984745025634766e+00 -1.058068292269370714e-13 -2.741005393578493932e-13 -1.139722132859413706e-13 1.124808660926332471e-13
2.859000000000000000e+03 3.171742248535156250e+01 4.145985603332519531e+00 -8.577001413788420958e-14 -8.250952682588644227e-14 -5.048386161150483775e-14 -2.014232828922643548e-14
2.860000000000000000e+03 2.674989128112792969e+01 4.049852371215820312e+00 8.035537296322003975e-14 -1.885978623706457968e-13 -3.247274614460136932e-14 -2.505846685750892644e-14
2.861000000000000000e+03 6.878977203369140625e+01 4.755602359771728516e+00 -9.103155918952984815e-14 -1.305154308196485036e-13 -6.646409361462171650e-14 3.415069469618961517e-14
2.862000000000000000e+03 6.939844512939453125e+01 6.168391704559326172e+00 -1.620242433058791121e-13 7.925162804657548410e-14 -2.483178390016473058e-14 1.363321127945951380e-14
2.863000000000000000e+03 6.405434417724609375e+01 7.008266448974609375e+00 -6.659047093035205811e-14 6.296312348450308627e-14 -1.088204826677754630e-15 -3.383240343153397223e-14
2.864000000000000000e+03 6.046249008178710938e+01 6.522046566009521484e+00 -1.143243485990375063e-13 -9.474709970584693774e-14 -6.272143449146533323e-14 -5.108673900577898053e-14
2.865000000000000000e+03 3.250999450683593750e+01 5.833596706390380859e+00 -1.162750722528277381e-13 -3.014623869545401957e-13 -1.253212350517049489e-13 7.599389867385397679e-14
2.866000000000000000e+03 6.736126708984375000e+01 4.863801479339599609e+00 -1.508541555561571101e-13 -1.904668913907392458e-13 -1.023963154393216224e-13 -5.073145273011905876e-14
2.867000000000000000e+03 3.976759719848632812e+01 6.016778945922851562e+00 -7.588762653215966325e-14 -2.098081907861426565e-13 -8.570874316261162251e-14 1.643745903279203446e-13
2.868000000000000000e+03 3.813051986694335938e+01 3.745810985565185547e+00 -9.196008348257359022e-14 -8.516241368789617683e-14 -5.313674847351457231e-14 7.711293084113057805e-15
2.869000000000000000e+03 2.765336036682128906e+01 4.660816192626953125e+00 1.262822108710238977e-14 -3.605955052783660353e-13 -1.043901835633131991e-13 2.949854283976487308e-15
2.870000000000000000e+03 6.558766937255859375e+01 5.087973594665527344e+00 -1.729373073780862691e-13 -1.427424123996365313e-13 -9.470391457806412450e-14 1.034490571140802076e-14
2.871000000000000000e+03 5.764034271240234375e+01 5.990087032318115234e+00 -5.176122456541400185e-14 1.150694665420781693e-13 1.899247089893335572e-14 7.828763678996430997e-14
2.872000000000000000e+03 6.642342376708984375e+01 1.296031665802001953e+01 1.345053930702170414e-14 5.764516603857031130e-15 5.764516603857031130e-15 -1.438400010808204427e-14
2.873000000000000000e+03 6.269758605957031250e+01 6.072925090789794922e+00 -1.991566362779390031e-13 5.190000244349214642e-14 -4.417698981152087812e-14 -1.900355280038887318e-13
2.874000000000000000e+03 3.505591201782226562e+01 6.879599094390869141e+00 -5.968294435054755098e-14 -2.543331485086591792e-13 -9.420482921301473467e-14 5.115283468071912809e-14
2.875000000000000000e+03 2.754660224914550781e+01 1.740364646911621094e+01 -6.350918190867541058e-14 -2.559729771894891925e-13 -9.584464434131759192e-14 -1.036225972243136687e-14
2.876000000000000000e+03 3.525743103027343750e+01 5.980609893798828125e+00 -3.669233902717054796e-14 -1.529781347171105255e-13 -5.690113907396571191e-14 1.716558176796580820e-14
2.877000000000000000e+03 5.251576232910156250e+01 8.092108726501464844e+00 -1.343316327314172942e-13 -1.490725945463289293e-13 -8.502127089382929825e-14 7.577362944998639049e-14
2.878000000000000000e+03 2.821967124938964844e+01 6.018647193908691406e+00 1.138071350348509800e-14 -1.781263531857105176e-13 -5.002368894005231048e-14 5.647056850995382793e-14
2.879000000000000000e+03 5.585022354125976562e+01 7.235889911651611328e+00 -1.664184198432727690e-13 -1.413349519612926847e-14 -5.416557502004037961e-14 1.481463165846613056e-14
2.880000000000000000e+03 6.869260406494140625e+01 8.894443511962890625e+00 -3.950932666424954165e-14 -1.693256978043972821e-14 -1.693256978043972821e-14 6.659254446700693664e-14
2.881000000000000000e+03 6.718190002441406250e+01 1.203826332092285156e+01 -8.955915673512001435e-15 4.191269794878889343e-14 9.887035275506130677e-15 1.729895049364278681e-14
2.882000000000000000e+03 3.913132476806640625e+01 5.186173915863037109e+00 -1.306997722940253515e-13 8.123865892061682414e-14 -1.483833502846209490e-14 4.358792921868234749e-14
2.883000000000000000e+03 3.833288574218750000e+01 5.797904968261718750e+00 -2.537705797182789741e-14 -2.081768459873123422e-13 -7.006617237358819805e-14 1.060302765184227558e-13
2.884000000000000000e+03 5.579537963867187500e+01 4.418749809265136719e+00 -1.653994595365165798e-13 2.061641771200235090e-14 -4.343491102269496362e-14 9.013621825922774056e-14
2.885000000000000000e+03 6.743334960937500000e+01 1.748680114746093750e+01 -8.085080253406908002e-15 1.681010202998073355e-13 4.800478252213989661e-14 -3.843242252763758027e-14
2.886000000000000000e+03 4.517966461181640625e+01 7.000627994537353516e+00 -1.349897841076974636e-13 3.364913260680245377e-14 -3.040219782196075526e-14 -1.357711122857167742e-15
2.887000000000000000e+03 2.531403923034667969e+01 1.972286796569824219e+01 -5.214020065854273189e-14 -9.097222622564057892e-14 -4.293372501593638313e-14 -3.219777214486831129e-14
2.888000000000000000e+03 5.356548690795898438e+01 5.869998455047607422e+00 -6.575530322062289601e-14 -2.532140960125918439e-14 -2.732301283012508741e-14 1.111287982209080427e-13
2.889000000000000000e+03 5.293453598022460938e+01 6.843048095703125000e+00 -1.271461370433782379e-13 -3.021384945822692090e-15 -3.905025852376023399e-14 7.807030846448959061e-14
2.890000000000000000e+03 1.804032135009765625e+01 2.754181289672851562e+01 1.173843194954976576e-13 -1.670094455525489296e-13 -1.488753409017041368e-14 -2.680768984347683265e-14
2.891000000000000000e+03 2.686166381835937500e+01 1.053359031677246094e+01 1.382654485560441335e-14 5.167660936211508627e-14 1.965094753586527077e-14 -6.138880094368193152e-14
2.892000000000000000e+03 2.732794761657714844e+01 1.345643615722656250e+01 -7.348076886000941277e-15 9.407158754227984421e-14 2.601705404391661813e-14 -6.852843487982485104e-14
2.893000000000000000e+03 4.335393524169921875e+01 6.136691093444824219e+00 -1.135015255474816284e-14 1.323884984928344610e-13 3.631150284968964748e-14 4.993915166378454229e-14
2.894000000000000000e+03 4.419107055664062500e+01 5.613752365112304688e+00 -1.336474333979431606e-13 -6.871520903282621329e-14 -6.070878934109902314e-14 2.052453157788420440e-14
2.895000000000000000e+03 5.528008270263671875e+01 6.542718410491943359e+00 -1.223448968003248982e-13 -1.839675059425033288e-13 -9.189371675709032128e-14 5.453991614888173411e-14
2.896000000000000000e+03 5.438991546630859375e+01 6.233977317810058594e+00 -8.937754101276743079e-14 5.319723679034389641e-14 -1.085409194435341812e-14 1.431658204530464329e-13
2.897000000000000000e+03 4.116395568847656250e+01 6.298699855804443359e+00 -5.025165599934454386e-14 -2.153642424172850373e-14 -2.153642424172850373e-14 1.180625828220774332e-13
2.898000000000000000e+03 2.738031005859375000e+01 1.016628265380859375e+01 -3.356031273195336784e-14 -6.013393857298363065e-14 -2.810827674673381515e-14 -6.952843520108969999e-14
2.899000000000000000e+03 4.863289260864257812e+01 5.764380931854248047e+00 -8.732982869838479267e-14 -6.030254556333228266e-14 -4.428970956800969139e-14 8.741997333276338433e-14
2.900000000000000000e+03 4.963117599487304688e+01 5.688525199890136719e+00 -9.411524023224954183e-14 9.691774699406227600e-14 8.407513509174624478e-16 6.487515128513095253e-15
2.901000000000000000e+03 4.252715301513671875e+01 6.672613143920898438e+00 -1.861836558406451680e-13 -2.113269682944146632e-13 -1.192531858852652338e-13 9.386777828615977710e-16
2.902000000000000000e+03 5.947169113159179688e+01 7.245191097259521484e+00 -7.069409483804675598e-14 1.183931154068867952e-13 1.430970684827836958e-14 -6.882348017227604697e-14
2.903000000000000000e+03 6.790108489990234375e+01 2.271803855895996094e+01 2.121601370063883052e-14 1.481144681458445439e-14 1.080823781575380657e-14 -7.661901745925712298e-15
2.904000000000000000e+03 2.336259460449218750e+01 2.442892646789550781e+01 4.453897442372768689e-14 -1.753533977093615914e-13 -3.924432732450335026e-14 -5.024863378578874051e-14
2.905000000000000000e+03 1.963973236083984375e+01 2.658414840698242188e+01 -1.598706417086943193e-14 -2.127308745825118308e-13 -6.861538111779461047e-14 1.940120664763091834e-14
2.906000000000000000e+03 2.534264183044433594e+01 2.110370635986328125e+01 5.166165330136541708e-15 -1.121633032763122428e-13 -3.209914024035823155e-14 -1.292702297067465853e-14
2.907000000000000000e+03 3.095767974853515625e+01 4.880251407623291016e+00 -9.456320546486624012e-14 -4.052708757235241877e-14 -4.052708757235241877e-14 -4.195194945556465771e-14
2.908000000000000000e+03 2.844338226318359375e+01 8.331514358520507812e+00 -1.089477747790888393e-14 -2.105484569244614468e-13 -6.643297023600780449e-14 -3.114934525594303949e-14
2.909000000000000000e+03 2.859697723388671875e+01 3.738791704177856445e+00 -1.319054728724650127e-13 -2.395347104260786564e-13 -1.114320563448158163e-13 8.306000337391164501e-14
2.910000000000000000e+03 6.766811370849609375e+01 7.141911983489990234e+00 -1.289356804917013433e-13 -1.010090990884171536e-13 -6.898343387403554905e-14 -9.069174354713505255e-16
2.911000000000000000e+03 3.337730026245117188e+01 5.870983600616455078e+00 -8.876025219992870335e-15 -9.530591105807312280e-14 -3.125458062930991376e-14 -1.132389538041622679e-13
2.912000000000000000e+03 3.154507446289062500e+01 6.651201725006103516e+00 -1.389560667051925602e-13 -2.196809222162685038e-13 -1.075911007421964660e-13 5.273802634831945002e-14
2.913000000000000000e+03 3.618407821655273438e+01 6.301362514495849609e+00 -9.810477219008087446e-14 -1.335467923312821936e-13 -6.949546867878256262e-14 7.243129842649312367e-14
2.914000000000000000e+03 2.889240264892578125e+01 5.352521419525146484e+00 -8.903481115351760677e-14 -8.247900653473097532e-14 -5.145414462884821682e-14 -2.749846088207223878e-15
2.915000000000000000e+03 3.420226287841796875e+01 6.825808525085449219e+00 -6.242505427508926452e-14 -3.878120867246027254e-15 -1.989095262740388226e-14 5.878910775075976702e-14
2.916000000000000000e+03 6.132707214355468750e+01 5.948492050170898438e+00 -1.818088187595032212e-13 1.358383434083227162e-14 -5.046749354683209565e-14 1.218775124903594478e-14
2.917000000000000000e+03 6.375337219238281250e+01 6.246188640594482422e+00 -2.796439803624730519e-14 3.376620611264015415e-14 1.740542380566207324e-15 5.700863771936764968e-14
2.918000000000000000e+03 6.715496826171875000e+01 6.517936229705810547e+00 -1.444492718797804609e-13 1.210969665472669266e-13 -7.005692192677123384e-15 6.583516148689003145e-14
2.919000000000000000e+03 4.168703079223632812e+01 7.176604270935058594e+00 -6.035696573612747695e-14 -1.173691677701371727e-13 -5.331784072950575271e-14 -4.089692926217795843e-14
2.920000000000000000e+03 4.035461425781250000e+01 6.843960285186767578e+00 -9.162960510787285240e-14 -8.502078300285167978e-14 -5.299511778847007526e-14 -8.182691483215546319e-15
2.921000000000000000e+03 6.848254394531250000e+01 9.885857582092285156e+00 -8.962622480388360985e-15 1.105362478523268244e-13 3.047208820450460209e-14 -7.279180242510813192e-14
2.922000000000000000e+03 6.845474243164062500e+01 1.098192214965820312e+01 3.562758134302221324e-14 8.389538792407530421e-14 3.585689010250289743e-14 4.734257894024006263e-14
2.923000000000000000e+03 6.426629638671875000e+01 8.874773025512695312e+00 -1.522207923945750885e-13 -1.948653505267142205e-14 -5.151220026705302657e-14 4.081793158138523336e-14
2.924000000000000000e+03 6.575910949707031250e+01 1.217211914062500000e+01 4.282872003553116202e-14 4.123063991460541866e-14 2.521780730741461640e-14 -2.082502837438392901e-14
2.925000000000000000e+03 2.771024322509765625e+01 6.726682662963867188e+00 -7.263178773697642754e-14 -2.141317044469445707e-13 -8.602905036568173069e-14 5.500623827953132761e-14
2.926000000000000000e+03 5.676481628417968750e+01 6.738040924072265625e+00 -1.073906588655582084e-13 -1.489642014341346909e-13 -7.690645808990786980e-14 -1.069623719023721220e-14
2.927000000000000000e+03 6.511092376708984375e+01 1.805773162841796875e+01 1.240731214160138967e-15 1.149091130407675632e-13 3.484495339294534089e-14 -1.070501516207619797e-13
2.928000000000000000e+03 6.627772521972656250e+01 1.688331222534179688e+01 4.092327876310114521e-14 4.041402222642112574e-14 2.440118961923032348e-14 -1.485253468878986599e-14
2.929000000000000000e+03 3.243312835693359375e+01 6.755880832672119141e+00 -4.845605457138267569e-14 -1.808952022463311549e-13 -6.880537399599553905e-14 -3.089145082855841717e-14
2.930000000000000000e+03 4.765230560302734375e+01 5.618977546691894531e+00 -1.682657783724436640e-13 -1.636157978849792083e-13 -9.956447423247957729e-14 5.494907371998702938e-14
2.931000000000000000e+03 4.973729705810546875e+01 6.862349033355712891e+00 -9.076499453289713082e-14 5.260261288510779953e-14 -1.144871415552362048e-14 9.477024064596592523e-14
2.932000000000000000e+03 4.741248321533203125e+01 6.675004005432128906e+00 -2.946884882924945270e-14 1.474988208828575953e-13 3.540898924439019047e-14 3.568993313233549680e-14
2.933000000000000000e+03 2.744961929321289062e+01 8.289426803588867188e+00 -1.294399700271786635e-13 -1.469761676730838018e-13 -8.292484402058417081e-14 5.949856899485281292e-14
2.934000000000000000e+03 4.305184936523437500e+01 7.594031333923339844e+00 -6.317820209046989821e-14 1.101764756901782438e-13 1.409948089406637753e-14 -7.135503803492107555e-15
2.935000000000000000e+03 4.112136459350585938e+01 8.498280525207519531e+00 -4.363704357709594084e-14 -1.559544323109091080e-13 -5.987744344402787244e-14 -2.467768870178491288e-15
2.936000000000000000e+03 3.010274314880371094e+01 1.979676818847656250e+01 8.882935314776570918e-15 -2.249477730822957433e-13 -6.481945378665129875e-14 -5.266602050098983558e-16
2.937000000000000000e+03 3.691638183593750000e+01 6.974636077880859375e+00 -4.913595436561654650e-14 -2.187166599091142083e-13 -8.035578631529829985e-14 3.005086210796682755e-14
2.938000000000000000e+03 3.897866058349609375e+01 6.626816749572753906e+00 -7.018632230309032605e-14 1.567109547055516028e-14 -1.635456974382644424e-14 3.078522612070914988e-14
2.939000000000000000e+03 5.114403533935546875e+01 8.027457237243652344e+00 -1.776094055898694291e-13 -1.218692708597826635e-13 -8.984359886913748094e-14 4.226171618063913338e-14
2.940000000000000000e+03 3.026092338562011719e+01 5.690773010253906250e+00 -4.688261972109024345e-14 -6.584350306735459180e-14 -3.381783785297298728e-14 1.022376288988512127e-13
2.941000000000000000e+03 3.095640182495117188e+01 5.636065006256103516e+00 -6.770223894307300649e-14 -3.035209345143841109e-13 -1.113669567806216398e-13 1.391206892525573280e-13
2.942000000000000000e+03 5.498570251464843750e+01 7.380301952362060547e+00 -1.676472952431493080e-13 -3.222416992666949156e-15 -5.126091269665698780e-14 1.808072598976154244e-13
2.943000000000000000e+03 4.362068939208984375e+01 8.564074516296386719e+00 -1.010093633626966969e-13 -1.119161526148305941e-13 -6.387765479325818729e-14 1.360406318167859882e-14
2.944000000000000000e+03 6.015787887573242188e+01 5.427358627319335938e+00 -1.143697224599560247e-13 1.111127249237009451e-13 -9.770972915249215122e-16 -3.927075814058947345e-14
2.945000000000000000e+03 6.887535095214843750e+01 6.876630306243896484e+00 -2.074138658134799806e-13 -1.489397797801994550e-13 -1.069060950333565463e-13 2.368975394133722781e-15
2.946000000000000000e+03 6.825909423828125000e+01 6.437967777252197266e+00 -1.913865658835500749e-13 6.666777454525027458e-14 -3.741563740148994011e-14 4.961878347434223180e-14
2.947000000000000000e+03 6.680791473388671875e+01 2.180745887756347656e+01 -1.220247268165922452e-14 2.235251100966145765e-13 6.339679080097013197e-14 -4.761601472814090685e-14
2.948000000000000000e+03 6.601785278320312500e+01 6.022831916809082031e+00 -1.993973427127579412e-13 9.754779042902075870e-14 -3.055486365224208134e-14 7.130293534426956903e-14
2.949000000000000000e+03 2.686018753051757812e+01 1.491724014282226562e+01 -5.266618440186512928e-14 -4.544669558758686334e-14 -2.943386298039606108e-14 -7.701731776204451263e-14
2.950000000000000000e+03 2.839937782287597656e+01 1.552526760101318359e+01 -8.793088327775644419e-14 -9.487334827256929670e-14 -5.484127014272408007e-14 -4.134809289120348896e-14
2.951000000000000000e+03 3.683549880981445312e+01 5.596765518188476562e+00 -7.800569679127303258e-14 -1.249329144911021094e-13 -6.088158406233890041e-14 1.983301387974579361e-14
2.952000000000000000e+03 3.029734420776367188e+01 9.869910240173339844e+00 -1.804437675667625030e-14 -3.060877899340071207e-14 -1.459594638620990981e-14 4.831161173695329436e-14
2.953000000000000000e+03 2.783671188354492188e+01 1.069210624694824219e+01 -6.828894139618638115e-14 6.509464462681885388e-14 -9.582897719640870275e-16 -2.823023932674306735e-14
2.954000000000000000e+03 5.863047409057617188e+01 6.548351764678955078e+00 -2.343148461717015074e-13 -1.463762379534661040e-14 -7.468574776637801338e-14 3.264156658725272941e-14
2.955000000000000000e+03 6.711503601074218750e+01 2.401730346679687500e+01 -3.077669141673261555e-14 1.926892618988457206e-13 4.857376843412850032e-14 -1.845153363596013091e-14
2.956000000000000000e+03 5.723806762695312500e+01 7.858805179595947266e+00 -1.771905105280024983e-13 -9.881426053922823249e-14 -8.280142793203743024e-14 6.535387736626013799e-14
2.957000000000000000e+03 2.841612625122070312e+01 1.128975772857666016e+01 -1.605463029500601296e-14 -3.271371888657892413e-13 -1.029575459176451657e-13 -3.400351509830765520e-15
2.958000000000000000e+03 1.754964828491210938e+01 2.582257461547851562e+01 -1.297723508378789345e-15 -1.721222312898659790e-13 -5.202598334780317302e-14 3.133518767270242200e-14
2.959000000000000000e+03 6.462201690673828125e+01 2.436786651611328125e+01 1.729843719167675070e-14 1.561042012885108243e-13 5.202079272990239867e-14 -1.048663312761509425e-13
2.960000000000000000e+03 6.593824768066406250e+01 2.303791809082031250e+01 6.630041974415787354e-14 -4.021195743465592887e-14 7.826537845817636146e-15 -3.665574381571737317e-14
2.961000000000000000e+03 6.555902862548828125e+01 1.390027236938476562e+01 1.479238010294176009e-14 -3.083305298904291669e-14 -4.812202543456704784e-15 -5.344102811915673462e-15
2.962000000000000000e+03 6.318935775756835938e+01 8.141003608703613281e+00 -1.722557914449890371e-13 -5.094843546615129837e-14 -6.696126807334210063e-14 9.790642079075644044e-16
2.963000000000000000e+03 2.824090194702148438e+01 1.279272842407226562e+01 -9.914580956357429975e-14 -1.111174818607327253e-13 -6.307898403916031849e-14 6.564749286709636866e-15
2.964000000000000000e+03 2.958638381958007812e+01 1.478843116760253906e+01 -1.251233546026991883e-13 -1.794394033317533999e-13 -9.136882738033577644e-14 8.366621299580028620e-15
2.965000000000000000e+03 6.715689086914062500e+01 1.550263118743896484e+01 5.908735742178998517e-17 1.587239318928332366e-13 4.763490356286467775e-14 -4.632026777114453542e-14
2.966000000000000000e+03 1.847934341430664062e+01 2.974196434020996094e+01 -4.049947853343666485e-15 -1.961772216028945248e-13 -6.006815460616807267e-14 2.678531843279042569e-15
2.967000000000000000e+03 1.645119285583496094e+01 2.786334037780761719e+01 5.101152586819458767e-14 -1.382662430729486580e-13 -2.617641482261304220e-14 7.692436097828103669e-14
2.968000000000000000e+03 2.707165336608886719e+01 2.279924774169921875e+01 -2.085246461857844305e-15 -1.381465200480519462e-13 -4.206953118117071067e-14 -6.330066272585213594e-14
2.969000000000000000e+03 2.958028984069824219e+01 6.124481678009033203e+00 1.935400488961222520e-14 -1.289582725544705100e-13 -3.288128029945748543e-14 1.402332162067990162e-13
2.970000000000000000e+03 3.051939773559570312e+01 7.656949996948242188e+00 -6.781296308993808863e-14 -2.578174490303758448e-13 -9.768912295846782223e-14 7.002123219353867389e-14
2.971000000000000000e+03 2.846904754638671875e+01 9.292701721191406250e+00 -1.135428522849781657e-14 1.800935194430728498e-14 1.996519972391193158e-15 1.184732514999606301e-13
2.972000000000000000e+03 3.169548797607421875e+01 5.758104801177978516e+00 -6.769731937571535352e-14 -1.205150345837124881e-13 -5.646370415494927908e-14 -5.853858251001625712e-14
2.973000000000000000e+03 3.331897354125976562e+01 6.798099517822265625e+00 -1.635899803207468972e-13 -4.361175862718086327e-13 -1.799122645567557965e-13 -1.222268881701134291e-14
2.974000000000000000e+03 2.910291481018066406e+01 1.199167060852050781e+01 -3.509025752260197528e-14 1.212594325487479849e-14 -6.889294619131331940e-15 -1.222810559270903416e-14
2.975000000000000000e+03 6.504418945312500000e+01 9.192338943481445312e+00 -1.064588684134698537e-13 1.145030928796988978e-13 2.413266111670939705e-15 -1.989483373236820146e-14
2.976000000000000000e+03 6.312321853637695312e+01 7.293467998504638672e+00 -3.593299770687959083e-14 1.676039407087770439e-13 3.950128323938241481e-14 6.346212753438953968e-14
2.977000000000000000e+03 3.573341751098632812e+01 7.741698741912841797e+00 -3.967135051453213324e-14 -1.542548505378479873e-13 -5.817786167096675176e-14 -1.786134648930175206e-14
2.978000000000000000e+03 3.499161911010742188e+01 7.775705337524414062e+00 -7.410946043038407760e-14 5.974069844502313820e-14 -4.310629019124755448e-15 3.138013124088373518e-14
2.979000000000000000e+03 6.500992584228515625e+01 6.560520172119140625e+00 -1.556491074266100338e-13 -2.095581195550588749e-14 -5.298147716988749201e-14 -4.278999368918269541e-14
2.980000000000000000e+03 6.426918792724609375e+01 1.202724456787109375e+01 -5.170696024668110236e-14 -5.647333661362545498e-14 -3.245409109097104061e-14 4.404247420323331719e-14
2.981000000000000000e+03 3.416081619262695312e+01 7.788307666778564453e+00 -7.505671431595750676e-14 -2.151709528868533949e-13 -8.706830558185413294e-14 5.498612632923172150e-14
2.982000000000000000e+03 3.758097076416015625e+01 6.390557289123535156e+00 -1.172701665592620901e-13 4.124325392925592970e-14 -2.280807480544138482e-14 3.756453901735366807e-15
2.983000000000000000e+03 6.656213378906250000e+01 1.135131454467773438e+01 -4.597463767108331267e-14 1.404249031508944534e-13 2.833507998275652112e-14 3.116482901821884810e-14
2.984000000000000000e+03 6.744295501708984375e+01 1.100269508361816406e+01 -2.602254451148072051e-14 1.172295547175730354e-14 -4.289876288400551463e-15 4.140574872985719468e-15
2.985000000000000000e+03 4.854061126708984375e+01 6.884536743164062500e+00 -9.534101887967091904e-14 -6.373590891173286366e-14 -4.772307969267385042e-14 2.698904806781345089e-14
2.986000000000000000e+03 5.839440155029296875e+01 7.615974426269531250e+00 1.627157914972036240e-14 9.847543380779935629e-14 3.442410337903614725e-14 8.363417651566923405e-14
2.987000000000000000e+03 5.745349502563476562e+01 9.116784095764160156e+00 -1.180425386344136074e-13 -2.771418619769427938e-14 -4.372701880488508164e-14 1.291874051310981653e-13
2.988000000000000000e+03 2.968820190429687500e+01 7.476073741912841797e+00 -1.719239036074640681e-14 -2.018097060990653446e-13 -6.570062554981173641e-14 5.313360428721436435e-14
2.989000000000000000e+03 2.933588027954101562e+01 9.499224662780761719e+00 4.704209230813570508e-15 -6.661033215889927694e-14 -1.857183772545865919e-14 -2.098445691571613342e-14
2.990000000000000000e+03 6.768044281005859375e+01 5.982037067413330078e+00 -7.727556963733287626e-15 -3.121307194913630623e-13 -9.595748268241902079e-14 -4.740944033296452809e-14
2.991000000000000000e+03 6.635932922363281250e+01 7.001751899719238281e+00 -1.102087578098639997e-13 -9.298327217780247289e-14 -6.095760696342086837e-14 5.957631306688360162e-14
2.992000000000000000e+03 2.949086570739746094e+01 1.820510864257812500e+01 -7.471243269234831286e-14 -1.692724600895964548e-13 -7.319547122271521933e-14 2.598749937032102109e-14
2.993000000000000000e+03 6.427288818359375000e+01 7.928062915802001953e+00 -5.740105791943519997e-14 4.402596722515722538e-14 -4.012527631799866004e-15 1.282902041164438872e-14
2.994000000000000000e+03 5.378487396240234375e+01 8.310067176818847656e+00 -1.188940574681565665e-13 4.054730116660569539e-14 -2.350402587402572463e-14 1.388072735095460808e-13
2.995000000000000000e+03 5.400899505615234375e+01 7.205324172973632812e+00 -1.231040822665535606e-13 -7.563436368093062745e-14 -5.962153785000340322e-14 9.435778303449812721e-14
2.996000000000000000e+03 3.237469100952148438e+01 9.959326744079589844e+00 -4.884099038832828699e-14 -2.268111235935107994e-13 -8.269563690505715714e-14 -7.034195274868704217e-14
2.997000000000000000e+03 3.959387207031250000e+01 7.469923019409179688e+00 2.097644737216689675e-14 -8.251199338582884679e-14 -1.846066295706563776e-14 7.571451332653161836e-14
2.998000000000000000e+03 5.371235656738281250e+01 9.547527313232421875e+00 -8.951513982098299738e-14 7.387317381348391249e-15 -2.463834698600026601e-14 7.666636829507453288e-14
2.999000000000000000e+03 5.235398483276367188e+01 1.090106582641601562e+01 -7.341159337327304857e-14 -3.146211386578258440e-14 -3.146211386578258440e-14 1.716200220673071153e-14
3.000000000000000000e+03 6.832675933837890625e+01 7.650885105133056641e+00 -9.551867218189624698e-14 6.772193076503077447e-14 -8.339021578026694498e-15 6.497017144115393994e-14
3.001000000000000000e+03 6.213755416870117188e+01 8.290534019470214844e+00 -9.263960719417888012e-14 -1.083291103847437709e-13 -6.029061256317136408e-14 -4.221965930074206286e-14
3.002000000000000000e+03 2.789080429077148438e+01 1.441963577270507812e+01 -1.158006118296209253e-13 -1.640062055347640824e-13 -8.394204249881007107e-14 7.698325644965304908e-16
3.003000000000000000e+03 4.131652832031250000e+01 9.549863815307617188e+00 -1.078705470758910268e-13 -1.606076111947823959e-13 -8.054344815882838460e-14 8.985080881358450955e-14
3.004000000000000000e+03 4.251837158203125000e+01 9.130597114562988281e+00 -9.532955344169688483e-14 -1.798004968652996971e-14 -3.399288229372077197e-14 -1.552539055703437004e-14
3.005000000000000000e+03 6.774767303466796875e+01 8.570076942443847656e+00 -7.297129209476310718e-14 -6.558662169137488562e-14 -4.156737278058868224e-14 -5.038091322709555009e-14
3.006000000000000000e+03 6.174385070800781250e+01 6.430531024932861328e+00 -3.323520928952272691e-13 -5.093472030866935674e-14 -1.149860507374325658e-13 -5.958336715726833543e-14
3.007000000000000000e+03 6.220529174804687500e+01 7.379870891571044922e+00 -1.291726328764980503e-13 5.901767112124686743e-14 -2.104648852657535485e-14 -5.438906635723932126e-14
3.008000000000000000e+03 4.533433914184570312e+01 8.558658599853515625e+00 -1.650385828434047797e-13 -7.073082218663970244e-14 -7.073082218663970244e-14 -1.179694379969996668e-14
3.009000000000000000e+03 4.706714630126953125e+01 7.944460391998291016e+00 -5.730515346101527907e-14 -1.160612540318864405e-13 -5.200992021499144247e-14 8.236853988588185849e-14
3.010000000000000000e+03 6.536630249023437500e+01 2.152384567260742188e+01 2.031229730855427240e-14 4.301848252077043744e-14 1.899923360998423405e-14 -7.198273688268155834e-14
3.011000000000000000e+03 6.536255645751953125e+01 1.586323451995849609e+01 -1.260957513907624405e-15 1.595879054990326229e-13 4.749808741309237414e-14 -6.963794639677431397e-14
3.012000000000000000e+03 6.456948089599609375e+01 1.482817459106445312e+01 3.709747149771049080e-14 1.531517561425069229e-13 5.707476727562568741e-14 -6.827589708879866492e-14
3.013000000000000000e+03 6.378171920776367188e+01 2.815630912780761719e+01 3.686915546084398865e-14 9.586523063006766043e-14 3.982031650489985253e-14 -5.857774253723371793e-14
3.014000000000000000e+03 1.633591842651367188e+01 3.424662780761718750e+01 -1.347546494556055643e-14 -2.345299518827226315e-13 -7.440162581081460891e-14 3.820160943764257244e-14
3.015000000000000000e+03 2.366382980346679688e+01 2.772922134399414062e+01 6.761182579925013522e-15 -1.572306737931961074e-13 -4.514084554286049156e-14 -5.113219756999222432e-14
3.016000000000000000e+03 6.544985198974609375e+01 1.961550140380859375e+01 3.345307836083097341e-14 1.287144083808242079e-13 4.865024534487019658e-14 -2.811426696373679757e-14
3.017000000000000000e+03 3.327910614013671875e+01 7.785643100738525391e+00 -6.152721967979044027e-14 6.513308637009704305e-14 1.081760811773280727e-15 -3.731857759012996434e-14
3.018000000000000000e+03 3.133954238891601562e+01 1.001886653900146484e+01 -4.581748934244511684e-14 2.611488126712680630e-14 -5.910782253188903712e-15 1.392594925416238902e-14
3.019000000000000000e+03 3.075876998901367188e+01 6.329220771789550781e+00 -5.118669566981856600e-14 -1.591900033017304428e-13 -6.311300765858562922e-14 7.526141168612276999e-14
3.020000000000000000e+03 6.537413787841796875e+01 7.550651550292968750e+00 -1.199043983676414959e-13 5.155203453249650181e-14 -2.050571050579621385e-14 -2.051625437192363538e-14
3.021000000000000000e+03 3.138622093200683594e+01 8.800956726074218750e+00 -3.847199251880151216e-14 -1.994917902745085847e-13 -7.138913619324574467e-14 5.079738916286512251e-14
3.022000000000000000e+03 3.748579788208007812e+01 7.780378818511962891e+00 -8.529731554320768572e-14 -1.368051722253071922e-14 -2.969334982972152148e-14 -1.385614526897916213e-14
3.023000000000000000e+03 6.691732788085937500e+01 7.918745040893554688e+00 -1.047049782759625763e-14 1.327654891407348270e-13 3.668849688572180245e-14 4.787147647690101482e-14
3.024000000000000000e+03 2.900798034667968750e+01 1.045971775054931641e+01 -1.007072029934885649e-13 -8.891117822453636910e-14 -5.688551301015476458e-14 5.436656577402845802e-14
3.025000000000000000e+03 6.517015075683593750e+01 1.135872364044189453e+01 -2.302797472294396824e-14 3.588181658807469698e-14 3.856152220726039720e-15 -5.564443694770597471e-14
3.026000000000000000e+03 2.890410423278808594e+01 1.372014045715332031e+01 -4.952128998211326183e-14 1.160294326981239910e-13 1.995244383124275545e-14 -6.961727201659773101e-14
3.027000000000000000e+03 3.799711990356445312e+01 8.697331428527832031e+00 -6.863517458370604896e-14 -5.229054900668037020e-14 -3.627771639948956794e-14 8.796250132361155272e-14
3.028000000000000000e+03 4.973188018798828125e+01 9.512837409973144531e+00 -9.511606048140733294e-14 -1.788855149350166568e-14 -3.390138240662657343e-14 7.503528777052376197e-14
3.029000000000000000e+03 4.835927581787109375e+01 8.202136039733886719e+00 -8.209867518888663840e-14 4.487901410633703125e-14 -1.116589832476488214e-14 4.445843175483916998e-14
3.030000000000000000e+03 4.087831497192382812e+01 7.631426334381103516e+00 -4.123083642624918166e-14 2.808059062781986109e-14 -3.945073739528796170e-15 8.104049386854078607e-14
3.031000000000000000e+03 4.212315368652343750e+01 8.112180709838867188e+00 -1.011504654991821073e-13 -3.191246095504696179e-14 -3.991887725864236292e-14 2.103374237478507214e-14
3.032000000000000000e+03 3.142021751403808594e+01 7.674098968505859375e+00 -2.215996373420149428e-15 -1.382025597478422907e-13 -4.212556749282926616e-14 2.275080860194341609e-14
3.033000000000000000e+03 3.021525382995605469e+01 6.862041473388671875e+00 -5.570477957486837106e-14 -1.621986101202690933e-13 -6.537101453684898700e-14 7.039382504637689553e-14
3.034000000000000000e+03 6.547860717773437500e+01 9.985546112060546875e+00 -8.088290508277001800e-14 5.683779456203824632e-14 -7.213532478593173702e-15 -1.638089891595889691e-14
3.035000000000000000e+03 2.946086883544921875e+01 8.437030792236328125e+00 -7.545093700213681420e-14 -5.521158955913187116e-14 -3.919875695194106890e-14 8.923166838672308421e-14
3.036000000000000000e+03 6.113446807861328125e+01 9.549465179443359375e+00 -6.226423998785535208e-14 -3.809200337426786598e-15 -1.982203294461758886e-14 -5.307394267454156045e-14
3.037000000000000000e+03 6.487081909179687500e+01 1.297938251495361328e+01 -6.451851314488721290e-14 -6.196400407750338180e-14 -3.794475516671717841e-14 -6.199861045559640349e-14
3.038000000000000000e+03 5.863772201538085938e+01 8.827926635742187500e+00 -1.037940349987720445e-13 -1.588605278140392540e-13 -7.879637155434882079e-14 2.786912546440603600e-14
3.039000000000000000e+03 3.067776489257812500e+01 1.390396690368652344e+01 -1.619326248341722979e-14 1.303128747487738992e-13 3.423588588189266368e-14 1.508860785338732302e-14
3.040000000000000000e+03 6.592707061767578125e+01 8.582379341125488281e+00 -2.972666871773471664e-14 3.872981579541856512e-14 2.700944758579864984e-15 4.144499684850116994e-14
3.041000000000000000e+03 6.740169525146484375e+01 9.747784614562988281e+00 1.523825147011284575e-14 5.228162805567988791e-14 2.025596453536417790e-14 5.910016535404585825e-14
3.042000000000000000e+03 3.071548271179199219e+01 1.190819835662841797e+01 -8.474605294860743099e-14 5.518216024641246775e-14 -8.869167641251899520e-15 1.217623837721686433e-15
3.043000000000000000e+03 3.156466865539550781e+01 1.503210353851318359e+01 -2.718207671209733889e-14 -1.717777802596673342e-13 -5.968795878559529644e-14 -4.367131114201006081e-14
3.044000000000000000e+03 4.970436477661132812e+01 1.088526630401611328e+01 -8.433190127124512436e-14 -5.901771855509191367e-14 -4.300488594790111141e-14 6.303566253907299730e-15
3.045000000000000000e+03 3.883089828491210938e+01 8.120713233947753906e+00 -6.695105624413000278e-14 1.705763927729950918e-14 -1.496802593708209533e-14 -2.300204365629672509e-14
3.046000000000000000e+03 4.607755279541015625e+01 1.190965747833251953e+01 -1.116782786581872744e-13 -5.929985506542695406e-14 -5.129343876183155293e-14 2.644163777905730872e-14
3.047000000000000000e+03 6.342992782592773438e+01 1.005964183807373047e+01 -7.151216603476853728e-14 3.797835188153707298e-14 -1.006014339893649204e-14 2.407746887338278047e-14
3.048000000000000000e+03 6.101243209838867188e+01 8.304726600646972656e+00 -1.659353535653218525e-13 -4.823967831094067016e-14 -6.425251091813147242e-14 -3.562723575357973349e-14
3.049000000000000000e+03 1.479072761535644531e+01 3.211906051635742188e+01 5.101772953750027817e-14 -1.525607575382850745e-13 -3.046290636735636548e-14 4.117749367936289484e-14
3.050000000000000000e+03 4.370400238037109375e+01 1.041371440887451172e+01 -6.049475427972322850e-14 -1.403036893480105740e-13 -6.023953308832014075e-14 -5.951793555615883524e-14
3.051000000000000000e+03 6.387176132202148438e+01 1.375892257690429688e+01 -5.045629238313760478e-14 -4.467519849746985974e-15 -1.647714388162361404e-14 2.661760379165170609e-14
3.052000000000000000e+03 2.855215454101562500e+01 2.472791671752929688e+01 -9.291153526343361169e-15 -1.641102482857412226e-13 -5.202042003540560677e-14 -4.620780551267168745e-14
3.053000000000000000e+03 2.985796737670898438e+01 1.102772140502929688e+01 -4.948439746209560078e-15 -2.080000261655071125e-13 -6.388453947705347025e-14 -1.309777888361049469e-14
3.054000000000000000e+03 3.419956970214843750e+01 8.803040504455566406e+00 -3.873069670968370959e-14 1.206539750921165055e-13 2.457698453116937548e-14 2.711709742658167249e-14
3.055000000000000000e+03 5.982695007324218750e+01 8.478367805480957031e+00 -1.313928214277323980e-13 -7.918668433644360238e-14 -6.317385172925280012e-14 -4.209930608333259383e-14
3.056000000000000000e+03 3.343993759155273438e+01 1.114655494689941406e+01 -8.956606344177192591e-14 -1.070118792840732413e-13 -5.897338146250083457e-14 4.503375686140502487e-14
3.057000000000000000e+03 6.422272491455078125e+01 1.690621566772460938e+01 3.129225665480378504e-14 3.628644083884628724e-14 2.027360992572137949e-14 -3.592337541259878197e-14
3.058000000000000000e+03 6.327375411987304688e+01 1.266438102722167969e+01 -2.869300053088240376e-14 -5.804794714564867619e-14 -2.602228531939886069e-14 -3.485877697064453107e-14
3.059000000000000000e+03 3.592759704589843750e+01 8.557894706726074219e+00 -1.123425896580598771e-13 -1.396487228156120808e-13 -7.559739238684887175e-14 -1.096339392290006029e-14
3.060000000000000000e+03 6.633501434326171875e+01 9.680272102355957031e+00 -9.312118269414262905e-14 -6.278455538669472369e-14 -4.677171939137213241e-14 1.478586303144558550e-14
3.061000000000000000e+03 6.221519470214843750e+01 9.320461273193359375e+00 -6.045711213554724739e-14 4.271623067200400192e-14 -5.322265455502510345e-15 2.571753980563570852e-14
3.062000000000000000e+03 4.269818878173828125e+01 1.021981334686279297e+01 -1.175210644945023919e-13 -7.324164468273594575e-14 -5.722881207554514349e-14 7.365278769906960510e-14
3.063000000000000000e+03 5.624721527099609375e+01 9.374804496765136719e+00 -1.499547963015532281e-13 -1.100172944824666377e-13 -7.799162926808503316e-14 -4.699315413257514062e-14
3.064000000000000000e+03 3.043605232238769531e+01 8.685693740844726562e+00 2.107771524320883189e-14 -8.246859141761153644e-14 -1.841726268291422192e-14 5.597257666443934340e-15
3.065000000000000000e+03 3.236512756347656250e+01 7.757956981658935547e+00 -2.678624296925235376e-14 -1.029817168498280144e-13 -3.893038642106480540e-14 -6.773118438822129089e-16
3.066000000000000000e+03 6.598732757568359375e+01 1.064678001403808594e+01 7.884317351281640990e-15 2.911390136676843265e-14 1.109946553071172737e-14 -1.107101284698050817e-14
3.067000000000000000e+03 6.377981948852539062e+01 1.105630874633789062e+01 -1.251558857500714370e-14 1.090135468874431357e-13 2.894938723962091343e-14 2.105864853156613759e-14
3.068000000000000000e+03 3.226829528808593750e+01 1.201718616485595703e+01 -1.271483596578318331e-13 -5.449215365505195863e-14 -5.449215365505195863e-14 1.542748371272713998e-14
3.069000000000000000e+03 3.524671936035156250e+01 9.736626625061035156e+00 1.794206195291150885e-14 5.344040300884166095e-14 2.141473948852595094e-14 -2.199094254474163491e-15
3.070000000000000000e+03 3.096908569335937500e+01 1.730223464965820312e+01 -1.338173990291392085e-14 -2.861050629808341295e-14 -1.259767369089261069e-14 -3.849837928917437813e-14
3.071000000000000000e+03 3.242484283447265625e+01 1.628953933715820312e+01 -1.024805715006509022e-13 -7.823345378639434688e-14 -5.421420826373993251e-14 2.009391019189548516e-14
3.072000000000000000e+03 4.708008193969726562e+01 1.005645751953125000e+01 -9.217508077337746575e-14 -8.525455732003028864e-14 -5.322889210564868412e-14 1.331527932618009613e-13
3.073000000000000000e+03 5.885049438476562500e+01 1.012484264373779297e+01 -8.364121705352681180e-14 -2.440849781949923358e-14 -3.241491412309463471e-14 2.259867640241886022e-14
3.074000000000000000e+03 5.101591110229492188e+01 1.088738727569580078e+01 -1.006581225163928617e-13 -2.026372166309513279e-14 -3.627655427028593504e-14 8.437909117080255594e-14
3.075000000000000000e+03 5.108147430419921875e+01 9.468939781188964844e+00 -1.034136765478733955e-13 1.430801913513096539e-15 -3.059486393614321842e-14 -6.749264402840671889e-15
3.076000000000000000e+03 5.636878204345703125e+01 1.065981864929199219e+01 -5.901246017455535897e-14 4.333537109886542726e-14 -4.703126722706979512e-15 9.161805157847230374e-14
3.077000000000000000e+03 3.673090744018554688e+01 8.244926452636718750e+00 -7.906599908211880967e-14 -1.711382771607539155e-13 -7.506128151760910194e-14 8.573623446394770808e-14
3.078000000000000000e+03 3.850692749023437500e+01 9.731993675231933594e+00 -2.667929150713434228e-14 -1.029358822029861897e-13 -3.888455177422298070e-14 -3.238352308206939034e-14
3.079000000000000000e+03 4.014904785156250000e+01 1.017798709869384766e+01 -5.598129856269722093e-14 -6.974293782465237901e-14 -3.771726922213898547e-14 -4.030066550115597723e-14
3.080000000000000000e+03 2.680472755432128906e+01 2.108385658264160156e+01 -5.627759407577856421e-14 -1.728095477045860084e-13 -6.872614592224116081e-14 -2.289292887203142612e-15
3.081000000000000000e+03 3.193348884582519531e+01 2.452502059936523438e+01 -1.077072526761875537e-14 -1.189933974922105508e-13 -3.892923784438832857e-14 -6.208388973272596645e-14
3.082000000000000000e+03 5.499740982055664062e+01 9.527577400207519531e+00 -6.430295342420636051e-14 -1.419357795358344720e-13 -6.187162327614403878e-14 1.428975617305192070e-13
3.083000000000000000e+03 5.370555114746093750e+01 1.089275550842285156e+01 -4.268982357284040186e-14 -1.097975334783674040e-13 -4.574620643773598394e-14 1.443679296117897359e-13
3.084000000000000000e+03 2.639649009704589844e+01 2.651831245422363281e+01 -9.641206832455145870e-15 -1.413847879917773387e-13 -4.530779912489610317e-14 -2.968861999774405347e-14
3.085000000000000000e+03 6.355995178222656250e+01 2.239498519897460938e+01 3.291977286471250985e-14 4.842168536251488520e-14 2.440243814579457632e-14 -3.559955132873167394e-14
3.086000000000000000e+03 6.395531463623046875e+01 1.922177314758300781e+01 6.574700907400338190e-14 -1.614394144896450639e-14 1.488092215098414661e-14 -2.015035138530282821e-14
3.087000000000000000e+03 3.160771369934082031e+01 1.294887924194335938e+01 -3.459985255119604752e-14 -1.492219162905344954e-13 -5.514653065251916286e-14 -2.612129838873520488e-14
3.088000000000000000e+03 4.833989715576171875e+01 9.614027976989746094e+00 -5.079408234623904173e-14 -1.818972083416151020e-13 -6.980738686754306421e-14 -7.026615346430314935e-14
3.089000000000000000e+03 6.257087707519531250e+01 2.056652450561523438e+01 2.081220260149660439e-14 4.895159595058075352e-14 2.092913888799684957e-14 -5.713242650241118215e-14
3.090000000000000000e+03 6.057709884643554688e+01 2.689669609069824219e+01 6.191477854601546132e-16 2.314082322844076417e-14 7.127991468282909165e-15 -6.599767661628203053e-14
3.091000000000000000e+03 6.058891677856445312e+01 1.246811008453369141e+01 -7.336537247940727591e-14 2.870910389775912890e-15 -2.114833746221910643e-14 -2.101786389515584302e-14
3.092000000000000000e+03 3.951374435424804688e+01 9.071942329406738281e+00 -4.231074583575800130e-14 -1.782614989865108357e-13 -6.617167073617521988e-14 8.004819815896416224e-14
3.093000000000000000e+03 3.900181579589843750e+01 1.092100334167480469e+01 -1.060681693843511242e-13 -1.369596845874135327e-13 -7.290835415865032365e-14 5.309009051064801643e-14
3.094000000000000000e+03 3.711079788208007812e+01 9.165586471557617188e+00 1.429284453988090460e-15 4.636350033277239491e-14 1.433783511839079039e-14 1.778375827133325815e-14
3.095000000000000000e+03 3.446611404418945312e+01 1.108931064605712891e+01 1.195272332309539956e-14 5.122595649395675008e-15 5.122595649395675008e-15 -5.601545431926230334e-14
3.096000000000000000e+03 6.243305969238281250e+01 1.042288589477539062e+01 -2.452541716534053368e-14 2.380231869079669355e-14 -2.169295979496892028e-16 -2.440603803582040709e-14
3.097000000000000000e+03 3.329069900512695312e+01 8.835916519165039062e+00 -1.004595644410292976e-13 -1.116805216014316038e-13 -6.364202377985919701e-14 -2.820722713563206252e-14
3.098000000000000000e+03 3.507696533203125000e+01 8.722041130065917969e+00 -5.480061594938766267e-14 -2.293652464138706826e-13 -8.524975972541704028e-14 1.456872952354873463e-15
3.099000000000000000e+03 4.171281433105468750e+01 1.057490634918212891e+01 -9.651983124423293980e-14 2.726078131949031397e-14 -2.077771650208209281e-14 -1.402035192316682805e-14
3.100000000000000000e+03 3.430702590942382812e+01 9.884496688842773438e+00 -1.346465256998885529e-13 -8.058113096058583391e-14 -6.456829835339503165e-14 -6.607906631811780174e-14
3.101000000000000000e+03 6.468412017822265625e+01 1.053495121002197266e+01 -4.592399526523287256e-14 1.175711410823440661e-13 2.149414205106746356e-14 2.411989167151306485e-14
3.102000000000000000e+03 4.332194519042968750e+01 1.168497467041015625e+01 -1.431354627922168388e-13 -1.070947191063147119e-13 -7.506905389193310740e-14 2.194333886958946961e-14
3.103000000000000000e+03 5.226310729980468750e+01 1.389492321014404297e+01 -4.207238398813706315e-14 5.059540229813107304e-14 2.556904688316903075e-15 6.000534287796443003e-15
3.104000000000000000e+03 4.823556137084960938e+01 1.208861255645751953e+01 -1.022120688326348670e-13 -8.955612266310294944e-14 -5.753045744872134493e-14 4.812260459334473297e-16
3.105000000000000000e+03 4.848371505737304688e+01 1.090409278869628906e+01 -4.232217739241414534e-14 4.737398522785835758e-15 -1.127543408440496650e-14 6.513056560004601425e-14
3.106000000000000000e+03 2.847183799743652344e+01 2.062108802795410156e+01 -7.792202348861146377e-14 -2.392744205895191989e-13 -9.515893390106555660e-14 -2.009071518361844194e-14
3.107000000000000000e+03 4.457357788085937500e+01 1.198729515075683594e+01 -8.735965781065530011e-14 -1.746926984579760811e-13 -7.861570959109484558e-14 -4.445529773293432907e-14
3.108000000000000000e+03 4.593481826782226562e+01 1.042282199859619141e+01 -7.413966223715137693e-14 1.397680680638143172e-14 -1.804885756096722554e-14 -1.067982372459849727e-13
3.109000000000000000e+03 3.234440994262695312e+01 8.836124420166015625e+00 -3.333072275753419522e-14 -1.286619736532573777e-13 -4.859780722917157736e-14 -2.617099889394829820e-14
3.110000000000000000e+03 5.650259017944335938e+01 1.204757213592529297e+01 -7.271276408673393865e-14 -1.226645060482464689e-13 -5.861318239574683786e-14 3.714989267275016493e-14
3.111000000000000000e+03 4.234052658081054688e+01 1.126282787322998047e+01 -6.331646497251611216e-14 -2.444526243754185924e-13 -9.233073154776491598e-14 1.866284125124576670e-14
3.112000000000000000e+03 6.325476837158203125e+01 9.071898460388183594e+00 -4.005918996042093227e-14 -1.716822451076124162e-14 -1.716822451076124162e-14 -8.293792559742156623e-15
3.113000000000000000e+03 6.137614440917968750e+01 1.078079223632812500e+01 -5.262133231324211957e-14 3.234751592323984685e-16 -1.568935750089796299e-14 1.521688929918309230e-14
3.114000000000000000e+03 6.275765609741210938e+01 1.449602222442626953e+01 3.167388565512331555e-14 2.501225951617030985e-14 1.700584490664080323e-14 -4.073927610190319903e-14
3.115000000000000000e+03 6.343722534179687500e+01 1.571594524383544922e+01 7.363438675532345268e-15 6.034444320103526938e-14 2.031236507119005275e-14 1.660257929671660887e-14
3.116000000000000000e+03 5.523023986816406250e+01 1.373615074157714844e+01 -2.922039034889724329e-14 -3.539849958837139321e-14 -1.938566698118059095e-14 1.191525651473950009e-14
3.117000000000000000e+03 5.763689422607421875e+01 1.041471290588378906e+01 -8.101241980853698954e-14 -5.759508267446505902e-14 -4.158225006727425677e-14 5.248196828836447503e-14
3.118000000000000000e+03 5.231166076660156250e+01 1.236069869995117188e+01 -1.060133477179389314e-14 -7.316985017012667125e-14 -2.513135573668605349e-14 1.122164901691362349e-13
3.119000000000000000e+03 5.092114639282226562e+01 1.233550357818603516e+01 -7.435476117190892298e-14 -5.474180136966211307e-14 -3.872896876247131082e-14 3.548615733401684624e-14
3.120000000000000000e+03 3.274800109863281250e+01 1.390988349914550781e+01 -7.869402286926618917e-14 3.446635931167582254e-15 -2.257421578496805054e-14 4.246863108306030837e-15
3.121000000000000000e+03 5.958573532104492188e+01 2.468616867065429688e+01 4.791687405474205630e-14 -2.521514423582844888e-14 6.810519284487261127e-15 1.439834037587905957e-14
3.122000000000000000e+03 6.165238952636718750e+01 2.360589218139648438e+01 2.471350421941014008e-14 7.921792291153834098e-14 3.117942847809772322e-14 -1.035056168921001662e-13
3.123000000000000000e+03 2.868811988830566406e+01 2.257199859619140625e+01 -5.479578108532473513e-15 -9.385028832634839668e-14 -2.979896128571697667e-14 5.305965153465548589e-14
3.124000000000000000e+03 6.250151824951171875e+01 3.126101112365722656e+01 -2.502233370252847887e-15 4.467856206530340657e-14 1.265289854498769656e-14 -5.496320900581080915e-14
3.125000000000000000e+03 6.158714294433593750e+01 2.914399337768554688e+01 2.642301321861308117e-14 1.199826506594406372e-13 4.392170085748201003e-14 -1.883923416844558024e-14
3.126000000000000000e+03 3.618909072875976562e+01 9.505587577819824219e+00 -5.017792347535195152e-14 4.712159820869678273e-14 -9.168973894141375057e-16 4.082962063605734271e-14
3.127000000000000000e+03 3.647839736938476562e+01 1.055009174346923828e+01 -5.719419892118854376e-14 -9.313822499704138558e-14 -4.509972717546897880e-14 -2.093625629409439064e-16
3.128000000000000000e+03 4.739641952514648438e+01 1.132606601715087891e+01 -4.742417870624675291e-14 4.830177599036977742e-14 2.632790423000975046e-16 -8.029227917304496143e-14
3.129000000000000000e+03 3.246014404296875000e+01 1.104772949218750000e+01 -2.951613698462876578e-14 1.932294927363409354e-13 4.911400604788729307e-14 -2.832362809730964298e-14
3.130000000000000000e+03 3.335934829711914062e+01 9.947800636291503906e+00 -2.256295532896725187e-14 -9.669838240138235730e-15 -9.669838240138235730e-15 9.706448698184461099e-14
3.131000000000000000e+03 5.372322463989257812e+01 1.232752227783203125e+01 -2.695696754196914152e-14 7.994891234501880217e-14 1.589758361032148765e-14 3.577810248588109143e-14
3.132000000000000000e+03 6.001626586914062500e+01 9.816858291625976562e+00 -1.004489528122660957e-13 -4.304954830114393616e-14 -4.304954830114393616e-14 -1.179967378688896729e-14
3.133000000000000000e+03 5.782535171508789062e+01 1.179080486297607422e+01 -7.844309105270799720e-14 -3.361847001411184810e-14 -3.361847001411184810e-14 5.829631753457437116e-14
3.134000000000000000e+03 5.874077606201171875e+01 1.634844970703125000e+01 -9.302535108055617202e-15 4.176414869863122326e-14 9.738484331282565992e-15 1.974558102134783659e-15
3.135000000000000000e+03 4.398557662963867188e+01 1.352244186401367188e+01 -5.816447855040013382e-14 1.510444736950097844e-14 -1.291800969308292552e-14 -7.849588153411267422e-15
3.136000000000000000e+03 4.630586242675781250e+01 1.473848438262939453e+01 -6.745348230712336357e-14 6.259326146588681250e-14 -1.458066210019317958e-15 2.190177665693359560e-14
3.137000000000000000e+03 4.262228012084960938e+01 1.302802753448486328e+01 -5.531782104324471649e-14 -1.609604783443449594e-13 -6.488348947746372386e-14 -1.966632287792383083e-14
3.138000000000000000e+03 3.239042282104492188e+01 2.020735740661621094e+01 2.106594995557146965e-14 -1.339434476960860154e-13 -3.386324898334118483e-14 -1.167296766355641340e-16
3.139000000000000000e+03 6.217499923706054688e+01 1.655957984924316406e+01 5.467268348116616217e-14 6.918210036961636167e-14 3.715643515523475715e-14 -6.758851968770643315e-14
3.140000000000000000e+03 5.973340988159179688e+01 1.431595611572265625e+01 -8.468983706596405758e-14 -3.629564639291704697e-14 -3.629564639291704697e-14 -1.456097408988367425e-14
3.141000000000000000e+03 3.804191589355468750e+01 1.294480037689208984e+01 -1.021612604083267650e-13 -6.665887053490873737e-14 -5.064603792771793511e-14 3.458058424571190670e-14
3.142000000000000000e+03 6.497567749023437500e+01 3.307120895385742188e+01 -8.000059321326257605e-15 8.807330000937599324e-14 2.402197296874457322e-14 -2.581659861475120443e-15
3.143000000000000000e+03 5.830401611328125000e+01 2.806034851074218750e+01 4.763690933688377593e-14 4.901016319668570487e-14 2.899412074363130754e-14 1.480413353211786076e-14
3.144000000000000000e+03 6.432139587402343750e+01 9.717226028442382812e+00 -3.899517088900260331e-14 2.903873227489729703e-14 -2.986931245418412983e-15 5.489368792963196519e-14
3.145000000000000000e+03 2.800697326660156250e+01 1.890778923034667969e+01 -3.909418904053663102e-14 -1.082565501543501785e-13 -4.420522311371875845e-14 -1.064188647414369276e-14
3.146000000000000000e+03 6.078284454345703125e+01 1.734074592590332031e+01 3.469997523369329484e-14 9.493558147726996466e-14 3.889066735210215675e-14 -5.446505537700339905e-14
3.147000000000000000e+03 6.019726562500000000e+01 1.579964447021484375e+01 5.102800574121636734e-14 5.618235707932107970e-14 3.216310816853487631e-14 -2.531465874866956761e-14
3.148000000000000000e+03 5.079351806640625000e+01 1.384973049163818359e+01 -3.850307185170216695e-14 -5.063579052312205259e-15 -1.306999535590760639e-14 1.025280392270150331e-13
3.149000000000000000e+03 4.072530746459960938e+01 1.134911346435546875e+01 -3.334409232557365710e-14 -2.659205321220436957e-13 -8.977939377173560498e-14 9.933565336397651158e-14
3.150000000000000000e+03 3.470721817016601562e+01 1.252200984954833984e+01 -1.272627294345018978e-13 -2.375449554940789465e-13 -1.094423081890796845e-13 5.002117494626485972e-14
3.151000000000000000e+03 6.637189483642578125e+01 3.009173774719238281e+01 2.908778903507047708e-15 4.699756886829623004e-14 1.497190365391462552e-14 -3.145613381317496904e-14
3.152000000000000000e+03 6.579071807861328125e+01 3.581975173950195312e+01 3.685832021538271164e-14 1.530492719321527306e-13 5.697227628900791707e-14 -3.692925753064936478e-14
3.153000000000000000e+03 4.956171417236328125e+01 1.227129936218261719e+01 -6.967678793960360717e-14 2.732720394914810169e-14 -1.270487587476300945e-14 7.438750407751798521e-14
3.154000000000000000e+03 4.934246063232421875e+01 1.371205902099609375e+01 -6.100128675844487813e-14 -1.062075706786784479e-13 -5.016265655351064001e-14 1.936536190736901086e-14
3.155000000000000000e+03 3.370085906982421875e+01 2.380327033996582031e+01 3.810041949363178471e-14 -8.661088746154607665e-14 -1.455313903512157198e-14 2.886804497163018846e-14
3.156000000000000000e+03 4.519597625732421875e+01 1.417903423309326172e+01 -1.932638822739994600e-14 -1.455355882465023121e-13 -4.945859260335749852e-14 1.950303864261572484e-14
3.157000000000000000e+03 4.033373641967773438e+01 1.361086559295654297e+01 -2.165736021780568371e-14 -1.694100453452848654e-13 -5.732022387121282758e-14 4.710744937034584690e-14
3.158000000000000000e+03 3.580858230590820312e+01 1.197902297973632812e+01 -6.309133039139949717e-14 -4.163667955743187085e-15 -2.017650098645046297e-14 -3.324344448264911211e-14
3.159000000000000000e+03 3.674410247802734375e+01 1.165628719329833984e+01 1.550878151148813409e-15 6.646620420896803740e-16 6.646620420896803740e-16 5.954394709093606755e-15
3.160000000000000000e+03 5.908025741577148438e+01 1.147888469696044922e+01 -6.574828301155605237e-14 -3.961557508902133207e-14 -3.160915878542593094e-14 2.857976239022987086e-14
3.161000000000000000e+03 5.375037765502929688e+01 1.385741615295410156e+01 -6.113893130643959645e-15 -7.124666525151757135e-14 -2.320816742994516457e-14 8.678602676998395382e-14
3.162000000000000000e+03 5.513088989257812500e+01 1.222223281860351562e+01 -3.714129359426963928e-14 -8.454412029398200579e-14 -3.650562247240959901e-14 8.888244686696550323e-14
3.163000000000000000e+03 6.153330993652343750e+01 1.517976951599121094e+01 -3.882358911894319420e-14 -1.663867984092858715e-14 -1.663867984092858715e-14 -2.725057626654179416e-14
3.164000000000000000e+03 3.389337539672851562e+01 1.513710308074951172e+01 -4.806651089520400100e-15 -1.049996271569944573e-13 -3.294188381276763611e-14 -1.123032026260125521e-14
3.165000000000000000e+03 6.100830841064453125e+01 1.381682777404785156e+01 2.180657862399168478e-14 5.509662347126693949e-14 2.307096164501712399e-14 -2.168192586734195293e-14
3.166000000000000000e+03 5.936664199829101562e+01 1.287734127044677734e+01 -1.362724223828021275e-14 -4.015345795118675787e-14 -1.613421073446644899e-14 5.497711389867293574e-15
3.167000000000000000e+03 3.166558647155761719e+01 1.872091293334960938e+01 -1.146661704389678738e-13 -7.201812253108605399e-14 -5.600528653576346272e-14 -1.470467322938536631e-14
3.168000000000000000e+03 6.026188659667968750e+01 1.113635158538818359e+01 -1.626529077711994647e-14 -5.272178703265469057e-14 -2.069612351233898057e-14 -3.215807340469639675e-14
3.169000000000000000e+03 3.092965316772460938e+01 2.116641807556152344e+01 -1.052917789848978325e-13 1.206363720534066666e-14 -2.796844346560339173e-14 7.959683801829486871e-15
3.170000000000000000e+03 3.953448867797851562e+01 1.224583148956298828e+01 -4.205521971249390201e-14 -1.095255613633994152e-13 -4.547423432276799515e-14 -6.819597105989574914e-14
3.171000000000000000e+03 3.547529602050781250e+01 1.084055042266845703e+01 -1.012273151044205954e-13 -5.482087358935419652e-14 -4.681445728575879539e-14 6.609089767432504980e-14
3.172000000000000000e+03 3.339060974121093750e+01 1.253653526306152344e+01 -4.059768268630838117e-14 -8.602543184093106032e-14 -3.798693401935865355e-14 -8.260054559826660037e-14
3.173000000000000000e+03 3.661104202270507812e+01 1.286860847473144531e+01 -7.721460867611898427e-14 -2.046580271789291694e-13 -8.456179278939351951e-14 -2.872968044563030399e-14
3.174000000000000000e+03 5.717657470703125000e+01 1.680663681030273438e+01 8.518050631164952868e-14 5.938140739758859810e-14 4.336857479039779584e-14 3.656117428122232504e-14
3.175000000000000000e+03 3.782986450195312500e+01 1.144295883178710938e+01 -4.594466286914587749e-14 -1.455056778190688682e-13 -5.743510186765124481e-14 1.500206480310045665e-14
3.176000000000000000e+03 4.166713333129882812e+01 1.455569648742675781e+01 -2.388364401812847343e-14 -3.311132089540459733e-14 -1.709848998227968958e-14 2.495421573642676166e-14
3.177000000000000000e+03 4.151645660400390625e+01 1.232791042327880859e+01 -2.279385142819109061e-14 -4.049924559937616991e-15 -8.053132711735317556e-15 4.514667651766939016e-14
3.178000000000000000e+03 5.378631973266601562e+01 1.551667022705078125e+01 -3.815529367608670730e-14 -5.066547902792331581e-14 -2.664623181120300693e-14 4.932056689053651577e-14
3.179000000000000000e+03 5.220384216308593750e+01 1.555321979522705078e+01 -3.995432050528727186e-14 -6.287423245888643097e-14 -3.084856385637303744e-14 7.014317783288898100e-14
3.180000000000000000e+03 4.764160919189453125e+01 1.500625324249267578e+01 -5.496527237807032062e-14 -2.355654530488728027e-14 -2.355654530488728027e-14 3.852853027396484220e-15
3.181000000000000000e+03 4.634648132324218750e+01 1.338585662841796875e+01 -9.769539777854108209e-14 -8.762040843313806393e-14 -5.559473983062467040e-14 -3.460272907508492313e-14
3.182000000000000000e+03 3.856903457641601562e+01 1.467991924285888672e+01 -4.269827696165399977e-14 -6.405021234527283336e-14 -3.202454713089122884e-14 -5.314200007778754897e-14
3.183000000000000000e+03 3.549945068359375000e+01 1.401457405090332031e+01 -1.482457413120100154e-14 2.795982236426623746e-14 3.940574724029454953e-15 7.104484609930707822e-15
3.184000000000000000e+03 5.990261840820312500e+01 1.980417823791503906e+01 -2.596412126097680240e-14 -5.408612417662087349e-15 -9.411820145943314286e-15 -2.052811791538287911e-14
3.185000000000000000e+03 5.835303878784179688e+01 1.475679492950439453e+01 1.920022266990641796e-14 -6.039775884286724406e-14 -1.235926017426189003e-14 2.050223936477836573e-14
3.186000000000000000e+03 3.392955017089843750e+01 1.927691459655761719e+01 -7.732278494787872547e-14 1.261261365801628204e-14 -1.941305155636532248e-14 -3.344521111881687547e-14
3.187000000000000000e+03 6.154177474975585938e+01 1.893469429016113281e+01 2.310319124866015011e-14 4.421457774558823495e-14 2.019533052886792607e-14 -7.196799850939933352e-14
3.188000000000000000e+03 5.384020996093750000e+01 1.732994461059570312e+01 -1.218071409931015606e-14 -5.220305982059142078e-15 -5.220305982059142078e-15 5.062910065690463812e-14
3.189000000000000000e+03 5.688642120361328125e+01 1.511820316314697266e+01 -2.333831743042257684e-14 -3.287761095272997980e-14 -1.686477834553917754e-14 5.010602731878900651e-14
3.190000000000000000e+03 4.518624496459960938e+01 1.765189170837402344e+01 6.536744259891041561e-15 7.142788286838494538e-14 2.338938843494432762e-14 3.342333056372340239e-14
3.191000000000000000e+03 4.582837677001953125e+01 1.614341163635253906e+01 -1.223597114065723759e-14 -2.811946266383525544e-14 -1.210663005664445319e-14 3.232323466501561826e-14
3.192000000000000000e+03 4.786891174316406250e+01 1.344569683074951172e+01 -3.894376276536784531e-14 7.481171173003009489e-14 1.076038553643162213e-14 1.880495643913609322e-14
3.193000000000000000e+03 3.158869934082031250e+01 2.255862045288085938e+01 1.169571065700886897e-14 -1.322403964760729411e-13 -3.616340760919170561e-14 2.107242128728849251e-14
3.194000000000000000e+03 4.422185897827148438e+01 1.923506927490234375e+01 -4.668152308798375824e-15 -9.350253725578724917e-14 -2.945120682702404014e-14 2.454235104802204165e-14
3.195000000000000000e+03 3.726499176025390625e+01 1.737439918518066406e+01 -2.014234861801716958e-14 -3.150791124317472991e-14 -1.549507694191803314e-14 -4.347217369611057480e-14
3.196000000000000000e+03 3.553108596801757812e+01 1.831249618530273438e+01 -1.095746469226928019e-14 -2.757153060278360462e-14 -1.155869884262574962e-14 9.586481050172582230e-14
3.197000000000000000e+03 4.724819564819335938e+01 1.661741638183593750e+01 -1.367728579183694407e-14 1.701377991129068151e-14 1.000948468770181728e-15 -1.308426362590410508e-14
3.198000000000000000e+03 5.756729507446289062e+01 1.861206626892089844e+01 -2.677394574492411583e-14 -8.010097169970989417e-14 -3.206247387813748739e-14 4.778257867502078149e-14
3.199000000000000000e+03 5.043390274047851562e+01 1.724906158447265625e+01 1.635817471604995854e-14 -4.427090543658064592e-15 3.579325336420862910e-15 6.953404594733231248e-14
3.200000000000000000e+03 5.063678359985351562e+01 1.548105430603027344e+01 -2.069773118087286923e-14 3.688049214981004020e-14 4.854828205977856567e-15 6.837312291861630253e-14
3.201000000000000000e+03 5.808506774902343750e+01 2.053897094726562500e+01 5.925328180585512361e-14 2.539426459911842127e-14 2.539426459911842127e-14 5.955511013814793198e-14
3.202000000000000000e+03 5.553236770629882812e+01 1.714109992980957031e+01 -2.949286560143590114e-15 2.161149507777775786e-14 5.598662470586955597e-15 3.862154465596873143e-14
3.203000000000000000e+03 4.836532592773437500e+01 1.880702400207519531e+01 2.299266869563651450e-14 9.854000990563212964e-15 9.854000990563212964e-15 2.920101362319585392e-14
3.204000000000000000e+03 3.539929199218750000e+01 2.277931976318359375e+01 -3.271877575797732703e-15 -5.859092236989299485e-14 -1.855883915785009469e-14 1.693764350779378147e-14
3.205000000000000000e+03 3.306233978271484375e+01 2.186610031127929688e+01 -7.567662723686682802e-14 -7.818379055063093275e-14 -4.615812533624932823e-14 -4.141008215041534768e-14
3.206000000000000000e+03 3.655362701416015625e+01 1.560081100463867188e+01 -6.785031385478021426e-14 -6.339191866745752524e-14 -3.937266975667132185e-14 5.609672882461724797e-14
3.207000000000000000e+03 5.666920471191406250e+01 1.353413581848144531e+01 1.880982349045101643e-15 -4.494481501381153432e-14 -1.291914895239698255e-14 8.714813674306695623e-14
3.208000000000000000e+03 5.805374145507812500e+01 1.324164199829101562e+01 -4.504422280050129901e-14 -4.218014351968675524e-14 -2.616730921843005847e-14 5.147624625954092328e-15
3.209000000000000000e+03 3.921048736572265625e+01 1.661831665039062500e+01 -8.689372192702965458e-14 -3.724016605613673925e-14 -3.724016605613673925e-14 1.420224483705140057e-15
3.210000000000000000e+03 4.596384811401367188e+01 2.009124565124511719e+01 -5.698786847150097423e-14 -9.304979475734803662e-14 -4.501129693577562985e-14 5.386199163548086033e-14
3.211000000000000000e+03 4.139232635498046875e+01 1.843313026428222656e+01 -2.189557129356201060e-14 -7.801023688787031563e-14 -2.997174245442969787e-14 5.842966084926293213e-14
3.212000000000000000e+03 4.879090499877929688e+01 1.699412727355957031e+01 -3.864439082862207442e-14 -2.799961936026003351e-14 -1.999320305666463238e-14 -2.529941512023430560e-15
3.213000000000000000e+03 4.115730285644531250e+01 1.640257835388183594e+01 1.264102568416603303e-14 -6.320883757810619175e-14 -1.517034483873146850e-14 1.565407349644713786e-14
3.214000000000000000e+03 3.782048034667968750e+01 1.909945297241210938e+01 -2.647825331930121762e-14 1.152765169697709050e-14 -4.485180063180764509e-15 3.243532084085988532e-14
3.215000000000000000e+03 5.392097473144531250e+01 1.930331039428710938e+01 -4.036144858545094583e-14 -2.873550125604383554e-14 -2.072908495244843441e-14 1.729406480760302400e-14
3.216000000000000000e+03 5.203772735595703125e+01 1.933255577087402344e+01 3.741552898127269156e-14 2.747296476684341071e-14 1.946654846324800958e-14 2.194645425676947093e-14
3.217000000000000000e+03 6.072137451171875000e+01 2.165057945251464844e+01 6.707622060867987623e-14 2.302808314316121679e-14 2.703129129495891736e-14 -4.463844319678965389e-14
3.218000000000000000e+03 5.016534805297851562e+01 1.915937042236328125e+01 1.971884019120301833e-15 6.947151458703421101e-14 2.143302015359359325e-14 4.292083317447917268e-14
3.219000000000000000e+03 3.695428466796875000e+01 2.164010429382324219e+01 -1.727446954740124302e-14 -9.890523865402692238e-14 -3.485391500152729138e-14 1.577578196657221377e-14
3.220000000000000000e+03 3.620282363891601562e+01 1.999106407165527344e+01 -3.304631619890051331e-14 -3.703818257953447879e-14 -2.102534827827778202e-14 -2.444400205251634484e-14
3.221000000000000000e+03 4.273971557617187500e+01 1.652310371398925781e+01 -1.613786822273269306e-14 -6.410491712113830509e-14 -2.407283390909540494e-14 7.845316735664853436e-14
3.222000000000000000e+03 3.955390930175781250e+01 1.857077980041503906e+01 -3.521031258441401079e-14 -7.227881894346019354e-14 -3.224674081361497691e-14 -2.940642250103681077e-14
3.223000000000000000e+03 4.323788070678710938e+01 2.115909385681152344e+01 2.100585805016146057e-14 -9.393712614410090755e-14 -2.187937941174229739e-14 1.785827853596679698e-14
3.224000000000000000e+03 5.577760696411132812e+01 1.905540084838867188e+01 -3.341054968358228225e-15 -9.293377834862850961e-14 -2.888245130799708960e-14 2.216299145347145477e-14
3.225000000000000000e+03 4.781660079956054688e+01 2.073517417907714844e+01 1.336512852802707995e-15 -3.374041904159394423e-14 -9.721172671906582602e-15 -9.708605244068170548e-15
3.226000000000000000e+03 4.668885040283203125e+01 1.829820823669433594e+01 -1.212601355860942060e-14 -5.094781204990211920e-14 -1.892214683552051468e-14 -1.300629932530703026e-14
3.227000000000000000e+03 5.611670303344726562e+01 2.112652015686035156e+01 -1.901791576866887490e-14 1.472493933968137270e-14 -1.287892843992955935e-15 2.198037115004342762e-14
3.228000000000000000e+03 3.834098052978515625e+01 2.064381980895996094e+01 -1.481418273100408578e-14 -1.207263049295484447e-13 -4.066214528172622245e-14 -3.998849997877487739e-14
3.229000000000000000e+03 5.732588577270507812e+01 2.568180656433105469e+01 4.087913140589025107e-15 3.606517550423272989e-14 1.204592659344652650e-14 7.717318029466877644e-15
3.230000000000000000e+03 4.980599594116210938e+01 2.121484947204589844e+01 -4.885706368553538459e-15 -3.640708543558961174e-14 -1.238783737183635561e-14 6.354110488639153065e-14
3.231000000000000000e+03 5.190818023681640625e+01 2.150926780700683594e+01 -2.859876642143446834e-14 -3.513208739766918165e-14 -1.911925648454427390e-14 -8.299693838285677333e-15
3.232000000000000000e+03 5.422020339965820312e+01 2.396173095703125000e+01 -1.355226796398694561e-14 2.850509812999529879e-14 4.485848795692621779e-15 3.102635310738639969e-15
3.233000000000000000e+03 5.403781127929687500e+01 2.148856925964355469e+01 3.322889245661528324e-14 -3.150999494422497549e-14 5.156688937280897410e-16 3.670066366697616322e-14
3.234000000000000000e+03 5.262968826293945312e+01 2.775591659545898438e+01 -5.215885740623895511e-15 -3.654859075975791516e-14 -1.252934269600465902e-14 -9.565698080372161266e-15
3.235000000000000000e+03 4.930534362792968750e+01 2.340132141113281250e+01 -1.834950512933156141e-14 -5.361502393311581849e-14 -2.158935871873421397e-14 -1.374998959431509606e-15
3.236000000000000000e+03 1.947974014282226562e+01 3.222191619873046875e+01 7.485322989697271168e-14 -1.537832768029254171e-13 -2.367901271653309603e-14 -2.843558721821182189e-14
3.237000000000000000e+03 5.723266220092773438e+01 3.193379211425781250e+01 5.108567513239722913e-14 7.908254671777636968e-14 3.905046519979936404e-14 9.197566550067128033e-15
3.238000000000000000e+03 5.488214874267578125e+01 2.660848426818847656e+01 4.756055439888648428e-14 -2.492380047735675425e-15 1.352045171242217958e-14 2.946108323118902528e-14
3.239000000000000000e+03 4.543021011352539062e+01 2.773677444458007812e+01 -1.294449471927767298e-14 -5.129858872215085908e-14 -1.927292520183514907e-14 1.227775866407708125e-14
3.240000000000000000e+03 2.537104797363281250e+01 2.890192413330078125e+01 -1.348681010485608053e-14 -1.430329108192268661e-13 -4.695591517608205256e-14 -1.131384533449705451e-14
3.241000000000000000e+03 3.019594955444335938e+01 2.479858207702636719e+01 -5.291061778165198626e-14 -1.370533461025891242e-13 -5.698918984289869094e-14 6.852534490363326736e-14
3.242000000000000000e+03 5.170193099975585938e+01 2.394612121582031250e+01 3.366687964111332587e-14 -1.988454905832263975e-14 4.134699428947090014e-15 3.460588342578049814e-14
3.243000000000000000e+03 4.063641357421875000e+01 2.256885147094726562e+01 1.209486900417182723e-14 -8.345894911580484243e-14 -2.140922360997343094e-14 6.493753526169623175e-15
3.244000000000000000e+03 3.448429107666015625e+01 2.599931144714355469e+01 -2.439306149106847121e-14 -1.362692781965019195e-13 -4.819870224508429613e-14 -2.297583984504046606e-14
3.245000000000000000e+03 3.001327705383300781e+01 3.006061553955078125e+01 -2.332189346157531595e-14 -1.300913315873536424e-13 -4.602396886993140313e-14 -1.579517732699844274e-14
3.246000000000000000e+03 6.740326690673828125e+01 4.083241271972656250e+01 1.881410947716412319e-14 1.967858520449464188e-13 6.467999150595177271e-14 3.264351476303141431e-14
3.247000000000000000e+03 4.110364532470703125e+01 2.580495834350585938e+01 -2.899522188646273813e-14 -7.676379741279951152e-14 -3.172770612859185380e-14 -2.561086786439029095e-14
3.248000000000000000e+03 4.291658401489257812e+01 3.740168762207031250e+01 3.982931877106327123e-14 -8.586993014434232685e-14 -1.381218256495076943e-14 -1.074864396571678302e-14
3.249000000000000000e+03 6.249029922485351562e+01 3.643339538574218750e+01 2.846541633048232933e-14 6.366927791197005138e-14 2.764040793392253531e-14 -1.471379238609550610e-14
3.250000000000000000e+03 3.284245681762695312e+01 4.062438964843750000e+01 1.693293739273883658e-14 -1.585902226599114617e-13 -4.249718456371225084e-14 -3.653133500455645055e-14
3.251000000000000000e+03 3.356728744506835938e+01 3.669585037231445312e+01 5.569090517519234562e-14 -1.305419260102386181e-13 -2.245530421763480833e-14 -2.150311551811067562e-14
3.252000000000000000e+03 2.451753997802734375e+01 3.638964080810546875e+01 5.410745500733157853e-14 -1.369394100067880538e-13 -2.484958683865012147e-14 1.559540460638851600e-14
3.253000000000000000e+03 1.332869148254394531e+01 3.821237945556640625e+01 6.216660144123416481e-16 -2.399260532002372992e-13 -7.179131421286566450e-14 3.423305001558525629e-14
3.254000000000000000e+03 4.232769775390625000e+01 2.343359947204589844e+01 -1.995713131157286074e-14 -8.553056639402489142e-15 -8.553056639402489142e-15 1.698156724830660047e-14
3.255000000000000000e+03 4.514394760131835938e+01 2.207851409912109375e+01 -8.942830708542817003e-15 -3.814585434092250538e-14 -1.412660543013630199e-14 2.860792792979197086e-14
3.256000000000000000e+03 5.099209976196289062e+01 2.625600624084472656e+01 2.238795832206451342e-14 -3.043724126905456018e-14 -2.414784629987129852e-15 -3.910459314622775559e-15
3.257000000000000000e+03 3.234052658081054688e+01 2.690118217468261719e+01 5.691496011056606033e-15 -1.119381619189320498e-13 -3.187399888297803852e-14 1.819385943714179471e-14
3.258000000000000000e+03 3.773885345458984375e+01 2.657669067382812500e+01 1.668947810084132205e-14 -1.758511549267496865e-13 -4.774850423361863549e-14 -2.765407396349353619e-14
3.259000000000000000e+03 6.806983184814453125e+01 3.794698333740234375e+01 2.368159786108811615e-14 1.702775832661262978e-13 5.818775501579068199e-14 -6.432224629364597171e-15
3.260000000000000000e+03 2.746075630187988281e+01 2.974424552917480469e+01 5.549388192352920635e-14 -8.487541182031210774e-14 -8.814458630221691515e-15 -1.911216343064396639e-14
3.261000000000000000e+03 2.378572082519531250e+01 3.162519073486328125e+01 5.600738717747265338e-14 -1.200408316585216406e-13 -1.921003469956741178e-14 -7.434417495413413873e-15
3.262000000000000000e+03 3.941849136352539062e+01 2.457600212097167969e+01 -9.734751118270837389e-14 -6.531069223847732474e-14 -4.879745967110299398e-14 -1.286343281919248918e-14
3.263000000000000000e+03 3.922314071655273438e+01 2.175790023803710938e+01 -7.901420809959189273e-14 2.046601854188787734e-14 -1.756445635909143627e-14 -4.824124532189309061e-15
3.264000000000000000e+03 2.630765342712402344e+01 3.280184173583984375e+01 -1.361572174316460701e-14 -1.774013607454966168e-13 -5.730512635596096693e-14 6.751182085433255625e-15
3.265000000000000000e+03 5.452504730224609375e+01 3.327394104003906250e+01 5.656930714061526172e-15 2.424398877454939788e-15 2.424398877454939788e-15 1.398288850294271760e-14
3.266000000000000000e+03 5.944757843017578125e+01 3.042513275146484375e+01 2.264995238891384655e-14 -2.460608858323703324e-14 -5.868409959398099372e-16 -4.300595659754644084e-14
3.267000000000000000e+03 5.917082595825195312e+01 3.475864791870117188e+01 1.987648361059888430e-14 8.518493459989777417e-15 8.518493459989777417e-15 -3.537239064480522666e-14
3.268000000000000000e+03 3.977629089355468750e+01 3.306957626342773438e+01 5.953746474779073039e-14 -8.314244339660201155e-14 -7.081493171126910721e-15 1.655166245219125837e-14
3.269000000000000000e+03 3.703177642822265625e+01 3.106480789184570312e+01 -1.558539775914965370e-15 -1.722339989813220784e-13 -5.213776459178642853e-14 -1.085128487716621737e-14
3.270000000000000000e+03 5.350270080566406250e+01 3.034890937805175781e+01 3.833582689033269986e-14 1.642964057987569837e-14 1.642964057987569837e-14 2.042364825980032272e-14
3.271000000000000000e+03 4.448078155517578125e+01 3.071098518371582031e+01 3.329907083036119653e-14 -4.291765510686107454e-14 -2.885575918224673846e-15 -1.438545700475132166e-14
3.272000000000000000e+03 3.285257339477539062e+01 2.965686798095703125e+01 5.463912234173005228e-15 -1.349111658976651085e-13 -3.883417703078387295e-14 -2.521698737952167424e-14
3.273000000000000000e+03 5.046984863281250000e+01 2.845211029052734375e+01 -2.189974886005786880e-15 -2.381403485052311503e-14 -7.801203090365260023e-15 1.494915912521495305e-14
3.274000000000000000e+03 5.116531753540039062e+01 3.409024429321289062e+01 1.965772379944330517e-14 -8.731866988633766452e-15 3.277756831484624801e-15 2.079548894738138254e-14
3.275000000000000000e+03 4.740287017822265625e+01 3.758929061889648438e+01 2.506405558089491031e-14 -6.414867653725935676e-15 5.594756378150692391e-15 7.874263917230679699e-15
3.276000000000000000e+03 4.165938186645507812e+01 2.976086425781250000e+01 -1.290923019658463469e-14 -7.415894748329446284e-14 -2.612045474391973959e-14 -1.954655750137975628e-14
3.277000000000000000e+03 5.070161437988281250e+01 3.106540107727050781e+01 8.041646097937601989e-15 -5.374226522245235949e-14 -1.371018624557419560e-14 -6.532393898673943475e-15
3.278000000000000000e+03 4.759961700439453125e+01 3.116338920593261719e+01 -3.501045516050935863e-15 -4.725139753753403171e-14 -1.522573232315242719e-14 3.229184701212216291e-14
3.279000000000000000e+03 2.964188385009765625e+01 3.326390075683593750e+01 3.296238201009119018e-14 -1.345638552842365332e-13 -3.048043994936452949e-14 -2.111156098571521922e-14
3.280000000000000000e+03 4.309621429443359375e+01 2.688405036926269531e+01 1.391040810540440393e-15 -5.373309016156770090e-14 -1.570261526058838730e-14 -3.820070311238901034e-15
3.281000000000000000e+03 1.915087127685546875e+01 -3.202865839004516602e+00 8.381494012287687978e-14 1.731735414789437044e-13 7.709653905953531283e-14 -7.918699265643640295e-15
3.282000000000000000e+03 6.785908508300781250e+01 3.428566741943359375e+01 -2.370052396526156624e-14 1.156577410883416479e-13 2.758716513692402450e-14 -4.057445365476287924e-15
3.283000000000000000e+03 5.682111263275146484e+00 1.760876655578613281e+01 1.141299104919293872e-13 -1.340909805067069804e-13 -5.988318802147615111e-15 1.825983347815071656e-13
3.284000000000000000e+03 6.086141586303710938e+01 3.251618957519531250e+01 6.109469755186808237e-14 7.193438824205228288e-14 3.990872641580246738e-14 3.970740637775614385e-16
3.285000000000000000e+03 1.500007152557373047e+01 1.825887298583984375e+01 -4.898695449393093704e-14 -1.582472624076999845e-13 -6.217026676455517098e-14 4.827866554343689109e-14
3.286000000000000000e+03 3.467596054077148438e+00 3.754116439819335938e+01 2.911228183977328243e-14 -1.476516256265422711e-13 -3.556180415247023330e-14 1.245985211301191622e-14
3.287000000000000000e+03 1.036698246002197266e+01 2.064724159240722656e+01 7.463174094566107919e-14 2.149888204744029863e-13 8.688617316940372426e-14 2.110632632210118764e-13
3.288000000000000000e+03 1.028288745880126953e+01 2.192373085021972656e+01 8.582301807159159468e-14 3.112869933607348427e-13 1.191330020744452156e-13 -3.129171455371754229e-14
3.289000000000000000e+03 7.565278625488281250e+01 3.408404159545898438e+01 -1.140961934984309825e-14 6.013102342439236025e-13 1.769701870940262878e-13 6.725795322157918088e-14
3.290000000000000000e+03 7.623119354248046875e+01 3.470959854125976562e+01 8.114310682790296103e-14 1.262775149203643199e-13 6.222618449160111087e-14 -1.106253065904670360e-14
3.291000000000000000e+03 3.553800964355468750e+01 2.841723823547363281e+01 8.114916988973940731e-15 -1.108995504477995608e-13 -3.083539079997733856e-14 -1.827103938522971205e-14
3.292000000000000000e+03 3.942614746093750000e+01 2.832918167114257812e+01 1.468775459329690891e-14 -6.233167058672037242e-14 -1.429317445921386015e-14 1.002213533652729707e-14
3.293000000000000000e+03 2.126486968994140625e+01 -5.231910347938537598e-01 -6.831495547206245522e-14 6.222405674483760807e-14 -1.827269237002627882e-15 2.890903797814550757e-14
3.294000000000000000e+03 1.607621765136718750e+01 1.843148040771484375e+01 -1.031678269289987293e-13 -9.568460254813157539e-14 -5.965573087601816482e-14 1.176056034648360546e-14
3.295000000000000000e+03 1.296108150482177734e+01 2.041058158874511719e+01 2.055290887568311797e-13 -2.779237072685764032e-13 -2.171838555352356703e-14 8.801089062182229639e-14
3.296000000000000000e+03 1.263642215728759766e+01 2.107189369201660156e+01 -2.575945268993174581e-14 -1.482926059509157013e-13 -5.221562047216625480e-14 1.173134939885800421e-13
3.297000000000000000e+03 1.119311618804931641e+01 2.367152786254882812e+01 1.303694023395418622e-13 1.012165239046725757e-14 4.214731591078296757e-14 4.641783241414107475e-14
3.298000000000000000e+03 2.175176239013671875e+01 1.662026596069335938e+01 -3.144119892824898121e-14 -1.736031159322096173e-13 -6.151329445813757957e-14 -3.742311839648009009e-14
3.299000000000000000e+03 2.579763984680175781e+01 2.376813697814941406e+01 1.811414686054158701e-14 -1.523651132562600652e-13 -4.027529178218802741e-14 -1.508277518451252991e-14
3.300000000000000000e+03 3.723372459411621094e+00 1.270617771148681641e+01 -7.775890569527749326e-16 4.541769656760466511e-14 1.339203220025600785e-14 2.336706064645470426e-14
3.301000000000000000e+03 4.137598800659179688e+01 2.050636672973632812e+01 -3.676784693222058531e-14 7.117826225882910307e-15 -8.895006381307891952e-15 3.564626350170685409e-14
3.302000000000000000e+03 3.463052749633789062e+01 2.097503089904785156e+01 -1.956491524644559873e-15 -9.234039449962719304e-14 -2.828906576492987851e-14 5.325697971817963672e-14
3.303000000000000000e+03 3.972335815429687500e+01 2.028408050537109375e+01 -3.417352731631580209e-14 -3.752127257440791841e-14 -2.150843996721711615e-14 -1.797537745279291499e-14
3.304000000000000000e+03 2.075861549377441406e+01 2.169104957580566406e+01 -5.553690780911793579e-14 -2.296808034561725886e-13 -8.556530999145536831e-14 -2.940248888002976180e-14
3.305000000000000000e+03 1.455432510375976562e+01 2.378848266601562500e+01 2.131657006400507204e-14 -1.509926488311649773e-13 -3.890282396896115047e-14 7.624740547057182183e-14
3.306000000000000000e+03 4.299454116821289062e+01 1.800525856018066406e+01 -1.543622509274280435e-14 -2.377213043655655028e-14 -1.176250682819639584e-14 2.826679726874656295e-14
3.307000000000000000e+03 2.183101272583007812e+01 2.021785354614257812e+01 -1.235556931289752414e-13 -2.588317201627360342e-13 -1.147162199217552359e-13 3.813321999748126023e-14
3.308000000000000000e+03 1.597655868530273438e+01 2.089304542541503906e+01 6.617169106496595399e-14 -2.347086555058025548e-13 -5.056109068750369584e-14 1.143423751542209724e-14
3.309000000000000000e+03 6.832375526428222656e+00 2.876142692565917969e+01 3.433962031287700334e-14 1.471697892404307678e-14 1.471697892404307678e-14 6.574652795928934146e-14
3.310000000000000000e+03 9.048481941223144531e+00 1.000126552581787109e+01 -1.530886013659596423e-13 2.718038467908190370e-13 3.561457769321596523e-14 -2.135445818654893579e-13
3.311000000000000000e+03 2.452013206481933594e+01 1.496836376190185547e+01 -1.282073405772798935e-13 -1.006969505066949988e-13 -6.867128529231339429e-14 -1.304393469321943333e-14
3.312000000000000000e+03 3.028045654296875000e+01 1.598619365692138672e+01 -7.745591142213278935e-14 -7.894634381985787819e-14 -4.692067521734448465e-14 4.645426160713658770e-14
3.313000000000000000e+03 6.172574234008789062e+01 1.202322483062744141e+01 -3.410508366604586561e-14 8.259009998796106033e-15 -7.753821761361748971e-15 -3.053997958929292877e-14
3.314000000000000000e+03 6.218548583984375000e+01 1.326356887817382812e+01 -8.869031268947391577e-14 -1.513465934066364482e-14 -3.114749194785444708e-14 2.348465973623617593e-15
3.315000000000000000e+03 4.394747161865234375e+01 1.692473983764648438e+01 1.690409083868714413e-14 -3.850633801074677953e-14 -6.480674490431069523e-15 -3.096879510103810185e-14
3.316000000000000000e+03 8.101756095886230469e+00 7.823890686035156250e+00 -4.466246843930557486e-14 3.468665242187252140e-13 9.066122283246311198e-14 -1.527261661322248942e-13
3.317000000000000000e+03 2.392486953735351562e+01 1.569833278656005859e+01 -7.917061103923650478e-14 -7.396234097184137268e-14 -4.593988560332336324e-14 -2.070401785940739064e-14
3.318000000000000000e+03 7.511099815368652344e+00 7.951070785522460938e+00 -5.657182621660039601e-14 -6.999601771676480788e-14 -3.797035250238320336e-14 1.043951099069344302e-13
3.319000000000000000e+03 7.477770233154296875e+01 2.959879636764526367e+00 -2.091803157555291448e-13 9.335508576032922057e-14 -3.474757170906540849e-14 1.400504688484289009e-14
3.320000000000000000e+03 7.951086044311523438e+00 8.401076316833496094e+00 1.526005748630696046e-14 2.352947752002482185e-13 7.516644912834019587e-14 -7.938326374284238041e-14
3.321000000000000000e+03 6.278959655761718750e+01 1.155139923095703125e+01 -7.153546960521339759e-14 4.940610027755025502e-14 -6.638810883002237498e-15 -1.264478312232005311e-15
3.322000000000000000e+03 2.985604286193847656e+01 1.286637783050537109e+01 -5.049814597512733427e-14 -2.275213437791245852e-13 -8.340584353814378682e-14 3.995162694051500318e-14
3.323000000000000000e+03 5.505261230468750000e+01 1.082021903991699219e+01 -4.518633460025983650e-14 -1.936557197153992993e-14 -1.936557197153992993e-14 4.688131529035147183e-14
3.324000000000000000e+03 4.475960540771484375e+01 1.052597999572753906e+01 -1.176277228832206534e-13 -9.616283057388777533e-14 -6.413716535950617081e-14 7.668452190520008704e-14
3.325000000000000000e+03 2.408513641357421875e+01 5.249304294586181641e+00 2.094476325774190240e-14 -2.655293790832652379e-13 -7.337538102071203272e-14 -6.730550480420509005e-15
3.326000000000000000e+03 2.471517562866210938e+01 5.304179668426513672e+00 -4.871093017334328368e-14 -1.123780091877822629e-13 -4.832668214715084287e-14 1.005873241145295582e-13
3.327000000000000000e+03 2.687615203857421875e+01 9.864717483520507812e+00 -3.929448183937617189e-14 -6.259143865098432125e-14 -3.056577682473450575e-14 1.771347486550188532e-14
3.328000000000000000e+03 3.155884361267089844e+01 1.119929218292236328e+01 -3.515551971712202461e-14 -2.438214018705975317e-13 -8.369307579868950908e-14 6.654767713179087635e-15
3.329000000000000000e+03 2.486723709106445312e+01 6.056997776031494141e+00 -2.360476858464036209e-14 -2.159955970592458696e-13 -7.188011037079222731e-14 7.942072292790175458e-14
3.330000000000000000e+03 2.645505523681640625e+01 4.432262420654296875e+00 -3.777386796367451782e-14 -2.906944975532288478e-13 -9.854050626693922066e-14 -1.085005430770044632e-13
3.331000000000000000e+03 6.124830245971679688e+01 7.201516151428222656e+00 -6.674164259451442760e-14 7.433607223696070410e-14 2.278330163283303830e-15 4.067957383164892693e-14
3.332000000000000000e+03 4.025228118896484375e+01 8.272562980651855469e+00 -7.530417668556374511e-14 -9.397744999458789578e-15 -2.541057675961664458e-14 2.255218615207586069e-14
3.333000000000000000e+03 7.270866394042968750e+01 1.255596733093261719e+01 -5.939677596338358012e-14 1.117970868875009516e-13 1.572009293842203254e-14 -8.717326312841430780e-14
3.334000000000000000e+03 7.271972656250000000e+01 3.316166639328002930e+00 -2.331708502494034274e-13 -8.428464869124959596e-15 -7.247979614492111589e-14 5.021789326606698745e-14
3.335000000000000000e+03 2.832162857055664062e+01 1.004748153686523438e+01 -7.640383720933664052e-15 -1.405272924935585532e-13 -4.445030362667731771e-14 3.106045084219459518e-14
3.336000000000000000e+03 4.636844253540039062e+01 9.179685592651367188e+00 -6.630426866187019708e-14 -8.400074018798889958e-15 -2.241130255009084193e-14 -2.968901979729515750e-14
3.337000000000000000e+03 4.388706970214843750e+01 6.995841503143310547e+00 -1.970214356245003628e-13 -1.301887064949699968e-13 -9.816304805685197032e-14 2.446410892061826742e-14
3.338000000000000000e+03 2.719430732727050781e+01 9.137317657470703125e+00 -2.358515596026316240e-15 -1.840145874218435118e-13 -5.591192995244888275e-14 -6.015943765282777411e-14
3.339000000000000000e+03 6.236878967285156250e+01 6.647938251495361328e+00 -3.566711745286825497e-14 -8.391232858302039022e-14 -3.587383414957977246e-14 -8.535491378362097814e-14
3.340000000000000000e+03 6.697364044189453125e+01 5.755421638488769531e+00 -5.929981440784548585e-14 2.033674267941203151e-14 -1.168892084090367850e-14 1.286500067717785689e-13
3.341000000000000000e+03 6.311590194702148438e+01 5.026733875274658203e+00 -1.524236601735742824e-13 1.634303179983212506e-13 3.301998067402095623e-15 8.708132278418753702e-15
3.342000000000000000e+03 4.541051864624023438e+01 6.111914634704589844e+00 -5.837870334715611342e-14 -1.165213487763078204e-13 -5.247001495941282234e-14 -2.121256627654350552e-14
3.343000000000000000e+03 2.750584411621093750e+01 7.445301532745361328e+00 3.241006570650455110e-14 1.389002828093522865e-14 1.389002828093522865e-14 4.843798566455184695e-14
3.344000000000000000e+03 7.064201354980468750e+01 7.102692604064941406e+00 -1.224801916789239331e-13 1.305122866333482956e-13 2.409628952195429739e-15 1.599330206030619150e-13
3.345000000000000000e+03 4.462565612792968750e+01 6.418200492858886719e+00 -1.425421941396963488e-14 5.107973573737108197e-14 1.104765506642702358e-14 -2.514687846247743580e-14
3.346000000000000000e+03 5.646509170532226562e+01 3.872921228408813477e+00 -9.458248393474574800e-14 5.096654841869538433e-14 -1.308478116303487745e-14 1.843349861044719235e-14
3.347000000000000000e+03 2.885594558715820312e+01 4.241702079772949219e+00 -4.456430748511416851e-14 -2.936046859195601266e-13 -1.014506946332704995e-13 -1.008414272224422703e-13
3.348000000000000000e+03 3.580744934082031250e+01 7.039476394653320312e+00 -6.261842173255205424e-14 -4.971194015788125975e-14 -3.369910755069045749e-14 4.472086627882107535e-15
3.349000000000000000e+03 4.844178009033203125e+01 4.028098106384277344e+00 -8.955931428324820365e-14 7.368386194977257636e-15 -2.465727817237139963e-14 7.744500841403573199e-14
3.350000000000000000e+03 5.236801910400390625e+01 4.559668540954589844e+00 -1.083180650751115748e-13 -9.217298013166827508e-14 -6.014731491728667057e-14 1.504779509548317962e-13
3.351000000000000000e+03 4.037496185302734375e+01 3.973357439041137695e+00 -9.118396413366341990e-14 -3.907884419166417211e-14 -3.907884419166417211e-14 2.515649093117605650e-13
3.352000000000000000e+03 7.047834777832031250e+01 8.321517944335937500e+00 -1.574682224891876814e-13 9.264193822884972396e-14 -1.944788832741999735e-14 5.015366783987437738e-15
3.353000000000000000e+03 7.016349792480468750e+01 7.703247547149658203e+00 -8.995108396201226264e-14 5.295143460531427648e-14 -1.109989412938303804e-14 -4.491020863571851263e-14
3.354000000000000000e+03 7.105516815185546875e+01 5.921883583068847656e+00 -1.066335266071936905e-13 -2.287038830886545249e-13 -1.006012222311281068e-13 -1.269198657440464076e-14
3.355000000000000000e+03 6.946095275878906250e+01 4.660136222839355469e+00 -2.576908955317924743e-13 2.681389690091431216e-14 -6.926309704816460688e-14 -1.375417791812938439e-13
3.356000000000000000e+03 3.173054313659667969e+01 4.937199592590332031e+00 1.936013740815034634e-14 -1.289556433642022326e-13 -3.287865110918920808e-14 -1.433891254429969786e-14
3.357000000000000000e+03 3.097137260437011719e+01 4.095491886138916016e+00 -6.108529887428534866e-14 -2.091832159963405435e-13 -8.108055513881412546e-14 5.867340982642840763e-14
3.358000000000000000e+03 1.846056747436523438e+01 -4.945625782012939453e+00 5.185725438471011639e-14 1.137264382059660628e-13 4.967510777720285375e-14 1.202928137959344279e-13
3.359000000000000000e+03 1.842424201965332031e+01 -4.400094985961914062e+00 -1.010982679408405083e-13 -4.332782911750307497e-14 -4.332782911750307497e-14 4.224384717358385666e-14
3.360000000000000000e+03 1.890230941772460938e+01 -5.274003505706787109e+00 -2.413585316037112488e-14 -5.609488568092402261e-14 -2.406922216060831260e-14 -5.642862343840579498e-14
3.361000000000000000e+03 1.978090286254882812e+01 -5.504072189331054688e+00 6.764277723017575461e-14 2.898976021801884240e-14 2.898976021801884240e-14 -3.916295117519473512e-14
3.362000000000000000e+03 1.992575454711914062e+01 -4.778149127960205078e+00 4.043028864714019732e-14 6.307821832137600060e-14 3.105254971886260706e-14 1.398275107184702559e-15
3.363000000000000000e+03 1.905274772644042969e+01 -4.549341678619384766e+00 4.491797423377894005e-14 -2.650038967834476150e-14 5.525275112520369389e-15 -6.354790147876029915e-14
3.364000000000000000e+03 1.856564521789550781e+01 -4.401691913604736328e+00 -1.108785711357619663e-13 -4.751938859764992529e-14 -4.751938859764992529e-14 2.307457169943832181e-14
3.365000000000000000e+03 1.422477436065673828e+01 2.043068706989288330e-01 7.704299302474168498e-14 3.301842509801332370e-14 3.301842509801332370e-14 4.481580173154933733e-14
3.366000000000000000e+03 1.503262138366699219e+01 1.745680570602416992e-01 -4.079460598808374444e-15 -9.325023663398629425e-14 -2.919890959335487424e-14 -5.794660388867443543e-15
3.367000000000000000e+03 1.344024467468261719e+01 9.767450094223022461e-01 5.347484675660880982e-14 6.866874419347163139e-14 3.664307559095823785e-14 1.194678901026693593e-14
3.368000000000000000e+03 1.423887538909912109e+01 9.489779472351074219e-01 7.857583297400400763e-15 3.367535759388239416e-15 3.367535759388239416e-15 9.122784721659477070e-14
3.369000000000000000e+03 1.341634368896484375e+01 2.355489134788513184e-01 1.015095600349728844e-13 8.925504649606730290e-14 5.722938128168569838e-14 4.265936172695829545e-15
3.370000000000000000e+03 1.503692245483398438e+01 9.227139353752136230e-01 8.505802534747655685e-14 -1.007994076119948790e-13 -4.722414086432433558e-15 -2.329967917550062467e-14
3.371000000000000000e+03 1.113503360748291016e+01 3.384475409984588623e-01 9.890998203853154647e-14 -4.911190540617810241e-14 1.493942332851921212e-14 2.779248507630551965e-15
3.372000000000000000e+03 1.115649890899658203e+01 1.078244447708129883e+00 -5.620125544316550720e-16 -2.408625271092492597e-16 -2.408625271092492597e-16 -2.885300844275053012e-14
3.373000000000000000e+03 1.038435840606689453e+01 3.729175329208374023e-01 7.974980539230541732e-14 -5.732340871509450375e-14 6.727917478503969012e-15 -2.517272651989584803e-14
3.374000000000000000e+03 1.188578510284423828e+01 3.038018345832824707e-01 1.606822043042493986e-13 2.311285081239063816e-14 5.513851433270634816e-14 -8.375913251011408295e-15
3.375000000000000000e+03 1.263660717010498047e+01 2.689834535121917725e-01 1.852231475835131036e-13 -1.212054765500078859e-14 5.193078023266357868e-14 -2.263054347596046151e-14
3.376000000000000000e+03 1.266393947601318359e+01 1.008509635925292969e+00 -7.316596737109645754e-14 6.014505842151518511e-14 -3.906273277797444807e-15 -3.888372507006646051e-15
3.377000000000000000e+03 1.040289020538330078e+01 1.112849831581115723e+00 1.259007275603712950e-13 5.395745224863641998e-14 5.395745224863641998e-14 9.134267100292456365e-14
3.378000000000000000e+03 1.191018390655517578e+01 1.043463349342346191e+00 1.146143591276502227e-13 -1.796343022247848253e-13 -1.950598292914038079e-14 -1.768381854795261776e-14
3.379000000000000000e+03 9.624112129211425781e+00 3.901334404945373535e-01 1.328735434397501636e-13 -8.030704465138149839e-14 1.576995099176331516e-14 6.320706219704874673e-14
3.380000000000000000e+03 8.869701385498046875e+00 1.130295276641845703e+00 -1.538906187472321128e-15 -4.641048016815890742e-14 -1.438481664784319741e-14 -3.112624158527373119e-14
3.381000000000000000e+03 9.640521049499511719e+00 1.130133390426635742e+00 4.560908196797087977e-14 6.529769536493465476e-14 3.327203353868483926e-14 -7.185835856470673688e-14
3.382000000000000000e+03 6.555309772491455078e+00 1.130333185195922852e+00 -3.543251981966491493e-14 -1.524382155877399003e-13 -5.636121994459508677e-14 -5.404979916867787282e-14
3.383000000000000000e+03 7.314301967620849609e+00 3.903205394744873047e-01 -1.263342457990396239e-13 -1.456451468760319723e-13 -8.159381644726876326e-14 2.302864218490640463e-14
3.384000000000000000e+03 5.011874198913574219e+00 1.130439519882202148e+00 -4.729652067670016280e-14 -2.490246778317356524e-13 -8.889635853609120786e-14 5.072928771390587677e-14
3.385000000000000000e+03 5.003341674804687500e+00 3.904395103454589844e-01 -3.028912231163409519e-14 -1.298105266128116858e-14 -1.298105266128116858e-14 5.294322855012127682e-14
3.386000000000000000e+03 2.698155403137207031e+00 1.130406737327575684e+00 -3.431731624130990310e-14 -1.519602721650539778e-13 -5.588327313377737526e-14 -1.147955801326493858e-14
3.387000000000000000e+03 3.462841272354125977e+00 3.904723227024078369e-01 -3.836965399811424760e-14 -1.644413670173500847e-14 -1.644413670173500847e-14 2.852344147550103792e-14
3.388000000000000000e+03 1.923750996589660645e+00 3.903100788593292236e-01 -1.870846413985077783e-14 -8.017913928821431002e-15 -8.017913928821431002e-15 1.820772706055424212e-14
3.389000000000000000e+03 2.693560838699340820e+00 3.904067575931549072e-01 1.842836559078683129e-14 1.451507235803242701e-13 4.907372454904766756e-14 -2.370390023858932188e-14
3.390000000000000000e+03 1.155955553054809570e+00 1.130243778228759766e+00 -1.494562869189079712e-14 -5.215621974564120522e-14 -2.013055453125960070e-14 -1.460817584790236739e-14
3.391000000000000000e+03 1.153986573219299316e+00 3.902437984943389893e-01 -1.284933395578544135e-13 -9.317625847043899817e-15 -4.134329190845845159e-14 -2.968210800844556241e-14
3.392000000000000000e+03 3.854793012142181396e-01 1.130119919776916504e+00 -2.970964674362669422e-14 7.876919196113732480e-14 1.471786322644001027e-14 3.577578500373740367e-14
3.393000000000000000e+03 3.848229348659515381e-01 3.901198804378509521e-01 -6.237614998084659024e-14 -1.182345372866336342e-13 -5.418320346973863610e-14 2.828284939012997920e-15
3.394000000000000000e+03 3.468748569488525391e+00 1.130472302436828613e+00 -7.521907528535310555e-15 -1.862274711609407385e-13 -5.812481030341432042e-14 3.272928870740217377e-14
3.395000000000000000e+03 5.773429393768310547e+00 3.904067873954772949e-01 -8.271538971338712742e-14 -3.544945031421463388e-14 -3.544945031421463388e-14 1.095484312529752813e-14
3.396000000000000000e+03 6.544151782989501953e+00 3.903332352638244629e-01 -1.364519527100385710e-13 -1.499813050446704987e-13 -8.592997461590728969e-14 -5.546984143442023479e-15
3.397000000000000000e+03 5.783274650573730469e+00 1.130406856536865234e+00 -7.103202032641975361e-14 1.530865346055683418e-14 -1.671701005975887583e-14 2.446346686964424866e-14
3.398000000000000000e+03 8.084676742553710938e+00 3.903390169143676758e-01 3.917346454813605550e-14 -7.471327294903198912e-14 -1.066194252026878009e-14 8.596580749770793561e-14
3.399000000000000000e+03 8.854605674743652344e+00 3.902952671051025391e-01 4.481923052091982274e-14 1.107101403282663432e-13 4.665880989950313418e-14 -1.055482944426443248e-13
3.400000000000000000e+03 8.098460197448730469e+00 1.130339026451110840e+00 -2.631465229367083852e-14 -1.942815076568307764e-13 -6.617884679930435832e-14 -1.765792305668915929e-14
3.401000000000000000e+03 1.927032828330993652e+00 1.130310058593750000e+00 -6.987556285540166834e-14 -1.214485733118039756e-13 -5.739724288304076660e-14 3.232498632915054015e-14
3.402000000000000000e+03 4.233315467834472656e+00 3.904743492603302002e-01 4.843059530208705318e-15 2.075596850764486502e-15 2.075596850764486502e-15 -3.916353054573065706e-14
3.403000000000000000e+03 4.240535736083984375e+00 1.130474328994750977e+00 -8.696792201320913129e-14 -1.287738633174578817e-13 -6.472253966495825073e-14 -1.836108237565463319e-14
3.404000000000000000e+03 7.326772689819335938e+00 1.130320549011230469e+00 -1.160850658220996534e-13 -2.785054901543321249e-13 -1.183771640824241023e-13 4.313461073783900201e-14
3.405000000000000000e+03 2.161028480529785156e+01 -7.562343597412109375e+00 -1.761411519028352468e-13 1.601283260719080226e-14 -4.803849782157240678e-14 1.441154866884536423e-13
3.406000000000000000e+03 2.198939895629882812e+01 -6.602661609649658203e+00 -8.006416303595401129e-15 8.807057595141762341e-14 2.401924891078620339e-14 -1.601283260719080226e-14
3.407000000000000000e+03 2.017908668518066406e+01 -7.334498882293701172e+00 -1.160930347080674219e-13 -3.242598518252842732e-13 -1.321058605389946461e-13 9.607699564314481355e-14
3.408000000000000000e+03 2.080974578857421875e+01 -7.023960590362548828e+00 -6.405133042876320904e-14 -5.764619467538145692e-13 -1.921539912862896271e-13 -5.604491073703601889e-14
3.409000000000000000e+03 2.267049980163574219e+01 -7.551240444183349609e+00 5.404330750817011586e-14 2.061652172764827373e-13 7.806255641895631925e-14 -1.601283260719080226e-14
3.410000000000000000e+03 2.208179283142089844e+01 -7.513494014739990234e+00 -1.361090737729900302e-13 -1.040834085586084257e-13 -7.205774334422682115e-14 2.001604042017532392e-13
3.411000000000000000e+03 2.132117271423339844e+01 -7.201099872589111328e+00 1.120898214740720378e-13 4.803849782157240678e-14 4.803849782157240678e-14 -2.001604075898850282e-14
3.412000000000000000e+03 2.069529914855957031e+01 -7.414793014526367188e+00 2.802245536851800944e-14 1.200962445539310169e-14 1.200962445539310169e-14 1.601283260719080226e-14
3.413000000000000000e+03 2.270368385314941406e+01 -6.806661605834960938e+00 -9.207378240914942946e-14 -2.682149478645118323e-13 -1.080866150163402317e-13 5.604491073703601889e-14
3.414000000000000000e+03 2.025844573974609375e+01 -6.964794158935546875e+00 4.003208151797700565e-15 2.762213472274482884e-13 8.406736949368581735e-14 7.205774334422682115e-14
3.415000000000000000e+03 2.080090522766113281e+01 -6.566174030303955078e+00 1.521218996039172544e-13 8.807057595141762341e-14 7.205774334422682115e-14 -2.602085213965210642e-13
3.416000000000000000e+03 2.170322608947753906e+01 -6.963099956512451172e+00 -3.753007494079578510e-14 2.326864558237912162e-13 5.854691731421723944e-14 1.090874217129708668e-13
3.417000000000000000e+03 2.042775535583496094e+01 -6.257863998413085938e+00 3.162534253572935050e-13 3.642919299551294898e-13 2.041636038832214672e-13 4.003208151797700565e-14
3.418000000000000000e+03 2.117828750610351562e+01 -7.519701480865478516e+00 1.000802021008766196e-13 -1.401122870069854143e-13 -1.200962445539310169e-14 -6.405133042876320904e-14
3.419000000000000000e+03 2.135000610351562500e+01 -6.483869552612304688e+00 1.601283260719080226e-14 -1.761411519028352468e-13 -4.803849782157240678e-14 6.805453688649501509e-14
3.420000000000000000e+03 2.030765342712402344e+01 -6.605210304260253906e+00 -6.805453688649501509e-14 -2.121700303512122354e-13 -8.406736949368581735e-14 1.200962343895356499e-13
3.421000000000000000e+03 2.420496749877929688e+01 -7.839685440063476562e+00 -1.721379386688398627e-13 -3.482791041242022656e-13 -1.561251128379126385e-13 -1.521218996039172544e-13
3.422000000000000000e+03 2.323200035095214844e+01 -7.725643157958984375e+00 -1.100882216333379238e-13 -2.301844695754007297e-13 -1.020818019416107336e-13 -7.205774334422682115e-14
3.423000000000000000e+03 2.370853614807128906e+01 -7.828961372375488281e+00 -8.406736949368581735e-14 -3.562855034871387216e-13 -1.321058605389946461e-13 1.361090737729900302e-13
3.424000000000000000e+03 2.468257713317871094e+01 -7.368336677551269531e+00 -8.006416303595401129e-15 -2.321860694161348437e-13 -7.205774334422682115e-14 -1.841475648182988589e-13
3.425000000000000000e+03 2.472906303405761719e+01 -7.873993396759033203e+00 6.004811719476782494e-14 -2.001604075898850282e-14 1.200962445539310169e-14 -1.361090737729900302e-13
3.426000000000000000e+03 2.580098152160644531e+01 -7.467123031616210938e+00 -8.406736949368581735e-14 -3.602887167211341057e-14 -3.602887167211341057e-14 -4.003208151797700565e-14
3.427000000000000000e+03 2.578915023803710938e+01 -7.965201377868652344e+00 -2.001604042017532392e-13 -3.602887302736612618e-13 -1.681347389873716347e-13 8.807057595141762341e-14
3.428000000000000000e+03 2.524130821228027344e+01 -7.410986900329589844e+00 4.003208151797700565e-15 -4.403528797570881170e-14 -1.200962445539310169e-14 -4.803849782157240678e-14
3.429000000000000000e+03 2.581375503540039062e+01 -6.977677345275878906e+00 -4.003208151797700565e-14 1.200962343895356499e-13 2.401924891078620339e-14 4.803849782157240678e-14
3.430000000000000000e+03 2.412354087829589844e+01 -7.345324039459228516e+00 -9.207378240914942946e-14 -2.682149478645118323e-13 -1.080866150163402317e-13 -2.401924891078620339e-14
3.431000000000000000e+03 2.355137825012207031e+01 -7.392238616943359375e+00 -1.200962343895356499e-13 4.003208151797700565e-14 -2.401924891078620339e-14 -1.120898214740720378e-13
3.432000000000000000e+03 2.341629219055175781e+01 -6.857781887054443359e+00 4.003208151797700565e-15 2.762213472274482884e-13 8.406736949368581735e-14 -8.006416303595401129e-14
3.433000000000000000e+03 2.525821113586425781e+01 -7.916387557983398438e+00 -6.405133042876320904e-14 -2.562053217150528361e-13 -9.607699564314481355e-14 -4.003208151797700565e-14
3.434000000000000000e+03 2.404914283752441406e+01 -6.845455646514892578e+00 5.604491073703601889e-14 2.401924891078620339e-14 2.401924891078620339e-14 1.200962343895356499e-13
3.435000000000000000e+03 2.522790336608886719e+01 -6.925042152404785156e+00 -2.522020949285302960e-13 -4.283432603838926989e-13 -2.041636038832214672e-13 -8.006416303595401129e-14
3.436000000000000000e+03 2.464120101928710938e+01 -6.879473209381103516e+00 -1.120898214740720378e-13 -4.803849782157240678e-14 -4.803849782157240678e-14 -4.003208151797700565e-14
3.437000000000000000e+03 2.812482261657714844e+01 -7.698260784149169922e+00 -7.205774334422682115e-14 1.521218996039172544e-13 2.401924891078620339e-14 1.641315257533762506e-13
3.438000000000000000e+03 2.766465759277343750e+01 -7.901652336120605469e+00 7.205774334422682115e-14 8.006416303595401129e-15 2.401924891078620339e-14 1.721379386688398627e-13
3.439000000000000000e+03 2.637593269348144531e+01 -7.981890678405761719e+00 6.004811719476782494e-14 -2.001604075898850282e-14 1.200962445539310169e-14 -5.204170427930421283e-14
3.440000000000000000e+03 2.882809638977050781e+01 -8.062239646911621094e+00 1.601283260719080226e-14 1.441154866884536423e-13 4.803849782157240678e-14 8.006416303595401129e-15
3.441000000000000000e+03 2.794121932983398438e+01 -7.027332782745361328e+00 5.204170427930421283e-14 6.805453688649501509e-14 3.602887167211341057e-14 1.761411519028352468e-13
3.442000000000000000e+03 2.829154014587402344e+01 -8.091706275939941406e+00 1.841475648182988589e-13 5.364298957290236647e-13 2.161732300326804634e-13 6.405133042876320904e-14
3.443000000000000000e+03 2.781402587890625000e+01 -8.144261360168457031e+00 -1.240994476235310340e-13 -2.361892690976030718e-13 -1.080866150163402317e-13 2.722181475459800604e-13
3.444000000000000000e+03 2.739005088806152344e+01 -8.127884864807128906e+00 -2.001604075898850282e-14 -1.000802021008766196e-13 -3.602887167211341057e-14 -1.601283260719080226e-13
3.445000000000000000e+03 2.871807479858398438e+01 -7.073960781097412109e+00 1.781427517435693608e-13 -1.981587908084919691e-13 -6.004812227696550847e-15 -5.604491073703601889e-14
3.446000000000000000e+03 2.874732589721679688e+01 -7.575088024139404297e+00 2.041636038832214672e-13 3.162534253572935050e-13 1.561251128379126385e-13 -1.040834085586084257e-13
3.447000000000000000e+03 2.694342422485351562e+01 -8.030225753784179688e+00 1.240994476235310340e-13 -2.441956955655938399e-13 -3.602887167211341057e-14 2.481988952470620680e-13
3.448000000000000000e+03 2.647570419311523438e+01 -6.999818325042724609e+00 -1.261010474642651480e-13 -5.404330750817011586e-14 -5.404330750817011586e-14 -1.040834085586084257e-13
3.449000000000000000e+03 2.733021163940429688e+01 -7.689054489135742188e+00 4.803849782157240678e-14 1.120898214740720378e-13 4.803849782157240678e-14 -8.606896933441993136e-14
3.450000000000000000e+03 2.645584678649902344e+01 -7.476023674011230469e+00 -2.161732300326804634e-13 -1.841475648182988589e-13 -1.200962343895356499e-13 0.000000000000000000e+00
3.451000000000000000e+03 2.720449638366699219e+01 -6.987918853759765625e+00 -2.281828697346666157e-13 -3.722983564231202580e-13 -1.801443651368306309e-13 -1.601283260719080226e-14
3.452000000000000000e+03 2.773531723022460938e+01 -7.412687778472900391e+00 -1.761411519028352468e-13 -1.441154866884536423e-13 -9.607699564314481355e-14 2.802245740139708285e-13
3.453000000000000000e+03 2.714646339416503906e+01 -7.387560844421386719e+00 1.661331391466375207e-13 -3.863095824133133682e-13 -6.605293026949732305e-14 -4.803849782157240678e-14
3.454000000000000000e+03 3.077419090270996094e+01 -8.042713165283203125e+00 3.602887167211341057e-14 -2.361892690976030718e-13 -6.004811719476782494e-14 -1.200962445539310169e-14
3.455000000000000000e+03 3.051352691650390625e+01 -7.564971923828125000e+00 2.401924891078620339e-14 5.604491073703601889e-14 2.401924891078620339e-14 -2.802245536851800944e-14
3.456000000000000000e+03 2.938335227966308594e+01 -8.071820259094238281e+00 3.923143819355157103e-13 4.883913911311876799e-13 2.642117210779892922e-13 -1.281026608575264181e-13
3.457000000000000000e+03 3.131127548217773438e+01 -8.014439582824707031e+00 4.003208151797700565e-14 -1.200962343895356499e-13 -2.401924891078620339e-14 4.803849782157240678e-14
3.458000000000000000e+03 3.176654052734375000e+01 -7.039753437042236328e+00 1.961571909677578551e-13 -2.361892690976030718e-13 -1.200962445539310169e-14 2.001604042017532392e-13
3.459000000000000000e+03 3.186294937133789062e+01 -8.022302627563476562e+00 7.606094980195862720e-14 -1.961571909677578551e-13 -3.602887167211341057e-14 1.681347389873716347e-13
3.460000000000000000e+03 3.104741668701171875e+01 -7.038761138916015625e+00 6.004811719476782494e-14 3.002405995263662808e-13 1.080866150163402317e-13 -1.441154866884536423e-13
3.461000000000000000e+03 2.988008689880371094e+01 -8.118181228637695312e+00 2.361892690976030718e-13 -3.562855034871387216e-13 -3.602887167211341057e-14 1.361090737729900302e-13
3.462000000000000000e+03 2.951737403869628906e+01 -7.092164516448974609e+00 1.040834085586084257e-13 1.361090737729900302e-13 7.205774334422682115e-14 -4.003208151797700565e-14
3.463000000000000000e+03 3.181154632568359375e+01 -7.519514560699462891e+00 3.803047490097931360e-14 6.204972381176551699e-14 3.002405859738391247e-14 2.882309733769072846e-13
3.464000000000000000e+03 3.003648757934570312e+01 -7.777633666992187500e+00 2.682149478645118323e-13 9.207378240914942946e-14 1.080866150163402317e-13 1.901523778930283570e-13
3.465000000000000000e+03 2.947258377075195312e+01 -7.598599910736083984e+00 1.401122870069854143e-13 -2.602085213965210642e-13 -3.602887167211341057e-14 -1.281026608575264181e-13
3.466000000000000000e+03 3.030132484436035156e+01 -7.076805114746093750e+00 1.060850151756061177e-13 -3.662935297958636038e-13 -7.806255641895631925e-14 6.405133042876320904e-14
3.467000000000000000e+03 3.030789566040039062e+01 -8.111415863037109375e+00 1.881507780522942430e-13 4.923945908126559079e-13 2.041636038832214672e-13 -1.040834085586084257e-13
3.468000000000000000e+03 3.116872596740722656e+01 -7.504656791687011719e+00 1.921539912862896271e-13 -1.921539912862896271e-13 0.000000000000000000e+00 -2.401924891078620339e-14
3.469000000000000000e+03 3.396832656860351562e+01 -7.119606494903564453e+00 3.722983564231202580e-13 6.805453688649501509e-14 1.321058605389946461e-13 1.200962445539310169e-14
3.470000000000000000e+03 3.336275863647460938e+01 -7.962528705596923828e+00 2.542037218743187221e-13 -7.405934996122451319e-14 5.404330750817011586e-14 0.000000000000000000e+00
3.471000000000000000e+03 3.240351104736328125e+01 -8.027446746826171875e+00 1.281026608575264181e-13 1.921539912862896271e-13 9.607699564314481355e-14 1.281026608575264181e-13
3.472000000000000000e+03 3.483544921875000000e+01 -7.551630020141601562e+00 2.802245536851800944e-14 1.200962445539310169e-14 1.200962445539310169e-14 -7.205774334422682115e-14
3.473000000000000000e+03 3.446851730346679688e+01 -7.930575370788574219e+00 1.641315257533762506e-13 1.160930347080674219e-13 8.406736949368581735e-14 -6.405133042876320904e-14
3.474000000000000000e+03 3.392239379882812500e+01 -7.860927581787109375e+00 2.021620040424873532e-13 -1.421138868477195283e-13 1.801443583605670529e-14 -2.401924891078620339e-14
3.475000000000000000e+03 3.303454589843750000e+01 -7.608377933502197266e+00 1.401122870069854143e-13 -2.602085213965210642e-13 -3.602887167211341057e-14 8.006416303595401129e-14
3.476000000000000000e+03 3.474344635009765625e+01 -7.041528701782226562e+00 1.321058605389946461e-13 -1.721379386688398627e-13 -1.200962445539310169e-14 -1.521218996039172544e-13
3.477000000000000000e+03 3.243773269653320312e+01 -7.540225505828857422e+00 2.161732300326804634e-13 -1.361090737729900302e-13 2.401924891078620339e-14 -5.604491073703601889e-14
3.478000000000000000e+03 3.247917175292968750e+01 -7.044778823852539062e+00 2.662133209187234062e-13 1.140914348673333079e-13 1.140914348673333079e-13 -6.405133042876320904e-14
3.479000000000000000e+03 3.290063858032226562e+01 -8.038592338562011719e+00 2.962373998448980528e-13 -5.604491073703601889e-14 7.205774334422682115e-14 1.521218996039172544e-13
3.480000000000000000e+03 3.320488739013671875e+01 -7.086707592010498047e+00 3.522823038056704936e-13 -3.202566521438160452e-14 9.607699564314481355e-14 0.000000000000000000e+00
3.481000000000000000e+03 3.491727447509765625e+01 -7.984769344329833984e+00 1.401122870069854143e-13 6.004811719476782494e-14 6.004811719476782494e-14 0.000000000000000000e+00
3.482000000000000000e+03 3.603971099853515625e+01 -7.531908512115478516e+00 4.803849782157240678e-14 1.120898214740720378e-13 4.803849782157240678e-14 8.006416303595401129e-14
3.483000000000000000e+03 3.636923599243164062e+01 -7.884554862976074219e+00 -1.921539912862896271e-13 -1.281026608575264181e-13 -9.607699564314481355e-14 -7.205774334422682115e-14
3.484000000000000000e+03 3.541361999511718750e+01 -7.953798770904541016e+00 1.561251128379126385e-13 2.041636038832214672e-13 1.080866150163402317e-13 -1.040834085586084257e-13
3.485000000000000000e+03 3.692642593383789062e+01 -7.780535221099853516e+00 3.602887167211341057e-14 -7.606094980195862720e-14 -1.200962445539310169e-14 -1.441154866884536423e-13
3.486000000000000000e+03 3.696899032592773438e+01 -7.039016246795654297e+00 -6.405133042876320904e-14 6.405133042876320904e-14 0.000000000000000000e+00 -2.401924891078620339e-14
3.487000000000000000e+03 3.747089767456054688e+01 -7.847674369812011719e+00 1.040834085586084257e-13 -2.401924891078620339e-14 2.401924891078620339e-14 -4.403528797570881170e-14
3.488000000000000000e+03 3.774300003051757812e+01 -6.957482814788818359e+00 -6.004811719476782494e-14 2.001604075898850282e-14 -1.200962445539310169e-14 -6.405133042876320904e-14
3.489000000000000000e+03 3.783582305908203125e+01 -7.467091083526611328e+00 -1.761411519028352468e-13 1.601283260719080226e-14 -4.803849782157240678e-14 4.003208151797700565e-14
3.490000000000000000e+03 3.544355773925781250e+01 -7.466486454010009766e+00 2.481988952470620680e-13 1.521218996039172544e-13 1.200962343895356499e-13 8.006416303595401129e-14
3.491000000000000000e+03 3.548065948486328125e+01 -6.970884799957275391e+00 1.461170865291877563e-13 1.541235129971785245e-13 9.007218256841531545e-14 2.401924891078620339e-14
3.492000000000000000e+03 3.590913391113281250e+01 -7.962690830230712891e+00 1.681347389873716347e-13 7.205774334422682115e-14 7.205774334422682115e-14 1.120898214740720378e-13
3.493000000000000000e+03 3.620616912841796875e+01 -7.009551525115966797e+00 1.841475648182988589e-13 2.161732300326804634e-13 1.200962343895356499e-13 -8.406736949368581735e-14
3.494000000000000000e+03 3.791819763183593750e+01 -7.899921417236328125e+00 -1.281026608575264181e-13 -1.921539912862896271e-13 -9.607699564314481355e-14 4.803849782157240678e-14
3.495000000000000000e+03 3.842388916015625000e+01 -7.862449645996093750e+00 -1.281026608575264181e-13 1.281026608575264181e-13 0.000000000000000000e+00 -4.803849782157240678e-14
3.496000000000000000e+03 3.964090347290039062e+01 -7.567595958709716797e+00 -7.280834328450211390e-14 -9.757819552369539906e-15 -2.476984885106149614e-14 8.982198258832355120e-14
3.497000000000000000e+03 4.087260055541992188e+01 -7.798892498016357422e+00 7.606094980195862720e-14 1.240994476235310340e-13 6.004811719476782494e-14 -3.202566521438160452e-14
3.498000000000000000e+03 4.001160430908203125e+01 -6.858866214752197266e+00 -2.141716301919463494e-13 -4.603689120457471473e-14 -7.806255641895631925e-14 8.006416303595401129e-14
3.499000000000000000e+03 4.015028381347656250e+01 -7.357616901397705078e+00 4.003208151797700565e-14 -1.200962343895356499e-13 -2.401924891078620339e-14 2.441956955655938399e-13
3.500000000000000000e+03 3.986138916015625000e+01 -7.895720958709716797e+00 7.205774334422682115e-14 1.681347389873716347e-13 7.205774334422682115e-14 1.761411519028352468e-13
3.501000000000000000e+03 3.943793106079101562e+01 -7.907177448272705078e+00 -1.401122870069854143e-13 -6.004811719476782494e-14 -6.004811719476782494e-14 6.405133042876320904e-14
3.502000000000000000e+03 4.076073455810546875e+01 -6.817092418670654297e+00 8.606896933441993136e-14 1.741395520621011328e-13 7.806255641895631925e-14 6.405133042876320904e-14
3.503000000000000000e+03 3.912237930297851562e+01 -7.384586334228515625e+00 -2.481988952470620680e-13 1.681347389873716347e-13 -2.401924891078620339e-14 -1.000802021008766196e-13
3.504000000000000000e+03 3.845976257324218750e+01 -7.365600109100341797e+00 -1.261010474642651480e-13 -5.404330750817011586e-14 -5.404330750817011586e-14 -1.681347389873716347e-13
3.505000000000000000e+03 3.848582839965820312e+01 -6.876397609710693359e+00 -9.407538902614712151e-14 2.341876692568689577e-13 4.203368474684290867e-14 4.803849782157240678e-14
3.506000000000000000e+03 4.081164932250976562e+01 -7.304547309875488281e+00 -1.961571909677578551e-13 2.361892690976030718e-13 1.200962445539310169e-14 1.601283260719080226e-14
3.507000000000000000e+03 4.033607482910156250e+01 -7.826457977294921875e+00 -1.681347389873716347e-13 2.481988952470620680e-13 2.401924891078620339e-14 2.642117210779892922e-13
3.508000000000000000e+03 3.896096038818359375e+01 -7.862457275390625000e+00 1.040834085586084257e-13 4.563657394693332314e-13 1.681347389873716347e-13 -2.001604042017532392e-13
3.509000000000000000e+03 3.923566818237304688e+01 -6.879106998443603516e+00 -2.782229470681824024e-13 1.801443583605670529e-14 -7.806255641895631925e-14 -1.281026608575264181e-13
3.510000000000000000e+03 4.203152084350585938e+01 -7.369239807128906250e+00 8.006416303595401129e-15 -8.807057595141762341e-14 -2.401924891078620339e-14 -1.841475648182988589e-13
3.511000000000000000e+03 4.291724014282226562e+01 -7.627080917358398438e+00 6.004811719476782494e-14 -1.801443651368306309e-13 -3.602887167211341057e-14 -4.403528797570881170e-14
3.512000000000000000e+03 4.140662765502929688e+01 -7.790925979614257812e+00 -1.240994476235310340e-13 8.406736949368581735e-14 -1.200962445539310169e-14 2.481988952470620680e-13
3.513000000000000000e+03 4.296477508544921875e+01 -6.885932922363281250e+00 -6.805453688649501509e-14 -2.121700303512122354e-13 -8.406736949368581735e-14 -7.205774334422682115e-14
3.514000000000000000e+03 4.346078872680664062e+01 -7.699509620666503906e+00 8.406736949368581735e-14 -2.842277736954390566e-13 -6.004811719476782494e-14 -6.004811719476782494e-14
3.515000000000000000e+03 4.373932266235351562e+01 -6.812235355377197266e+00 1.661331391466375207e-13 2.542037218743187221e-13 1.261010474642651480e-13 1.601283260719080226e-14
3.516000000000000000e+03 4.382804870605468750e+01 -7.321794986724853516e+00 4.403528797570881170e-14 -1.641315257533762506e-13 -3.602887167211341057e-14 4.003208151797700565e-14
3.517000000000000000e+03 4.143775177001953125e+01 -7.302633285522460938e+00 -8.807057595141762341e-14 8.006416303595401129e-15 -2.401924891078620339e-14 1.120898214740720378e-13
3.518000000000000000e+03 4.147703933715820312e+01 -6.808522701263427734e+00 1.120898214740720378e-13 4.803849782157240678e-14 4.803849782157240678e-14 8.006416303595401129e-15
3.519000000000000000e+03 4.220143127441406250e+01 -6.851060867309570312e+00 5.204170427930421283e-14 6.805453688649501509e-14 3.602887167211341057e-14 2.001604075898850282e-14
3.520000000000000000e+03 4.235940551757812500e+01 -7.726855754852294922e+00 1.120898214740720378e-13 -2.722181475459800604e-13 -4.803849782157240678e-14 -1.601283260719080226e-14
3.521000000000000000e+03 4.190016555786132812e+01 -7.802019596099853516e+00 -8.807057595141762341e-14 8.006416303595401129e-15 -2.401924891078620339e-14 -2.962373998448980528e-13
3.522000000000000000e+03 4.390563964843750000e+01 -7.757088184356689453e+00 7.606094980195862720e-14 -1.961571909677578551e-13 -3.602887167211341057e-14 -9.607699564314481355e-14
3.523000000000000000e+03 4.542309188842773438e+01 -7.781549453735351562e+00 3.002405995263662808e-13 2.201764432666758475e-13 1.561251128379126385e-13 1.441154866884536423e-13
3.524000000000000000e+03 4.441030883789062500e+01 -7.725368499755859375e+00 1.881507780522942430e-13 -1.481186999224490264e-13 1.200962445539310169e-14 1.761411519028352468e-13
3.525000000000000000e+03 4.685781478881835938e+01 -7.688785552978515625e+00 1.240994476235310340e-13 2.361892690976030718e-13 1.080866150163402317e-13 -1.361090737729900302e-13
3.526000000000000000e+03 4.600733184814453125e+01 -6.739470481872558594e+00 2.962373998448980528e-13 2.642117210779892922e-13 1.681347389873716347e-13 -4.803849782157240678e-14
3.527000000000000000e+03 4.632141113281250000e+01 -7.710592746734619141e+00 2.001604042017532392e-13 4.003208151797700565e-14 7.205774334422682115e-14 1.281026608575264181e-13
3.528000000000000000e+03 4.584637069702148438e+01 -7.774772167205810547e+00 3.963175816169839383e-13 -1.961571909677578551e-13 6.004811719476782494e-14 1.521218996039172544e-13
3.529000000000000000e+03 4.511298751831054688e+01 -7.255678653717041016e+00 1.721379386688398627e-13 2.802245536851800944e-14 6.004811719476782494e-14 1.281026608575264181e-13
3.530000000000000000e+03 4.675674438476562500e+01 -6.705836772918701172e+00 2.421940957248597259e-13 -5.824667462760169112e-13 -1.020818019416107336e-13 3.202566521438160452e-14
3.531000000000000000e+03 4.562938308715820312e+01 -7.444530963897705078e+00 -1.133408281507944371e-13 -1.043336085387001899e-13 -6.530233032922203029e-14 1.133408281507944371e-13
3.532000000000000000e+03 4.445092010498046875e+01 -7.229085445404052734e+00 1.781427517435693608e-13 1.220978477827969200e-13 9.007218256841531545e-14 -3.202566521438160452e-14
3.533000000000000000e+03 4.448170852661132812e+01 -6.740068912506103516e+00 4.003208151797700565e-15 -4.403528797570881170e-14 -1.200962445539310169e-14 -1.601283260719080226e-14
3.534000000000000000e+03 4.614069366455078125e+01 -7.239958286285400391e+00 3.162534253572935050e-13 -2.762213472274482884e-13 1.200962445539310169e-14 4.403528797570881170e-14
3.535000000000000000e+03 4.680229568481445312e+01 -7.193895339965820312e+00 3.883111822540474822e-13 2.121700303512122354e-13 1.801443651368306309e-13 1.281026608575264181e-13
3.536000000000000000e+03 4.494691848754882812e+01 -7.731472015380859375e+00 6.004811719476782494e-14 -2.001604075898850282e-14 1.200962445539310169e-14 3.202566521438160452e-14
3.537000000000000000e+03 4.523137664794921875e+01 -6.751179695129394531e+00 1.140914348673333079e-13 1.861491782115601290e-13 9.007218256841531545e-14 7.205774334422682115e-14
3.538000000000000000e+03 4.890422439575195312e+01 -7.539724826812744141e+00 2.922341730583755126e-13 1.481186999224490264e-13 1.321058605389946461e-13 -2.001604042017532392e-13
3.539000000000000000e+03 4.739176177978515625e+01 -7.686565876007080078e+00 3.722983564231202580e-13 3.883111822540474822e-13 2.281828697346666157e-13 2.081668171172168513e-13
3.540000000000000000e+03 4.895989227294921875e+01 -6.799163341522216797e+00 1.661331391466375207e-13 2.542037218743187221e-13 1.261010474642651480e-13 -1.361090737729900302e-13
3.541000000000000000e+03 4.944707870483398438e+01 -7.618389606475830078e+00 3.362694779747432694e-13 1.441154866884536423e-13 1.441154866884536423e-13 7.205774334422682115e-14
3.542000000000000000e+03 4.973527526855468750e+01 -6.734337806701660156e+00 2.542037218743187221e-13 -7.405934996122451319e-14 5.404330750817011586e-14 1.441154866884536423e-13
3.543000000000000000e+03 4.981847381591796875e+01 -7.244846820831298828e+00 3.682951296365977178e-13 1.120898214740720378e-13 1.441154866884536423e-13 8.006416303595401129e-14
3.544000000000000000e+03 4.742830276489257812e+01 -7.198554515838623047e+00 1.961571909677578551e-13 8.406736949368581735e-14 8.406736949368581735e-14 4.803849782157240678e-14
3.545000000000000000e+03 4.747306060791015625e+01 -6.705062389373779297e+00 5.504410946141624628e-13 5.104090435893715583e-13 3.182550251980276190e-13 8.006416303595401129e-14
3.546000000000000000e+03 4.788520812988281250e+01 -7.703125476837158203e+00 2.401924687790712998e-13 2.401924687790712998e-13 1.441154866884536423e-13 -1.200962343895356499e-13
3.547000000000000000e+03 4.834524917602539062e+01 -7.633170604705810547e+00 1.281026608575264181e-13 8.326672684688674053e-13 2.882309733769072846e-13 -4.003208151797700565e-14
3.548000000000000000e+03 4.819692230224609375e+01 -6.755653381347656250e+00 4.443560862148199231e-13 -8.406736949368581735e-14 1.080866150163402317e-13 -1.361090737729900302e-13
3.549000000000000000e+03 4.802130126953125000e+01 -7.271632671356201172e+00 4.403528865333516951e-13 2.802245740139708285e-13 2.161732300326804634e-13 7.205774334422682115e-14
3.550000000000000000e+03 4.989132308959960938e+01 -7.681065082550048828e+00 1.921539912862896271e-13 1.281026608575264181e-13 9.607699564314481355e-14 8.006416303595401129e-14
3.551000000000000000e+03 5.122813415527343750e+01 -6.688962936401367188e+00 4.763817378766743715e-13 -1.160930347080674219e-13 1.080866150163402317e-13 8.006416303595401129e-14
3.552000000000000000e+03 5.213293075561523438e+01 -7.186955928802490234e+00 2.922341730583755126e-13 -3.322662782932750414e-13 -1.200962445539310169e-14 0.000000000000000000e+00
3.553000000000000000e+03 5.039657592773437500e+01 -7.654674053192138672e+00 3.763015561045884860e-13 2.401924891078620339e-14 1.200962343895356499e-13 -9.607699564314481355e-14
3.554000000000000000e+03 5.284614562988281250e+01 -7.643604755401611328e+00 4.563657394693332314e-13 -5.364298957290236647e-13 -2.401924891078620339e-14 -9.607699564314481355e-14
3.555000000000000000e+03 5.200433349609375000e+01 -6.685343742370605469e+00 3.883111822540474822e-13 -1.080866150163402317e-13 8.406736949368581735e-14 -2.401924687790712998e-13
3.556000000000000000e+03 5.230917358398437500e+01 -7.659672737121582031e+00 3.562855034871387216e-13 -7.165742608658542956e-13 -1.080866150163402317e-13 3.202566521438160452e-14
3.557000000000000000e+03 5.183319473266601562e+01 -7.718743801116943359e+00 3.402726776562114974e-13 -5.404330954104918927e-13 -6.004811719476782494e-14 -1.761411519028352468e-13
3.558000000000000000e+03 5.140958023071289062e+01 -7.721112728118896484e+00 1.200962343895356499e-13 -4.003208151797700565e-14 2.401924891078620339e-14 1.281026608575264181e-13
3.559000000000000000e+03 5.275413894653320312e+01 -6.659631252288818359e+00 3.262614516660183872e-13 9.407538902614712151e-14 1.261010474642651480e-13 1.361090737729900302e-13
3.560000000000000000e+03 5.161942291259765625e+01 -7.385964870452880859e+00 5.886592211942764941e-13 -2.277450146873083447e-13 1.082742700836067384e-13 -1.047714568097948828e-13
3.561000000000000000e+03 5.044251251220703125e+01 -7.158713817596435547e+00 4.363496868518834670e-13 4.003208151797700565e-15 1.321058605389946461e-13 9.607699564314481355e-14
3.562000000000000000e+03 5.047846984863281250e+01 -6.670187950134277344e+00 4.603689391508014594e-13 6.004811719476782494e-14 1.561251128379126385e-13 -4.803849782157240678e-14
3.563000000000000000e+03 5.279520797729492188e+01 -7.148065090179443359e+00 3.763015561045884860e-13 -2.962373998448980528e-13 2.401924891078620339e-14 1.281026608575264181e-13
3.564000000000000000e+03 5.093357086181640625e+01 -7.666182041168212891e+00 3.763015561045884860e-13 2.401924891078620339e-14 1.200962343895356499e-13 -4.803849782157240678e-14
3.565000000000000000e+03 5.110466766357421875e+01 -7.191886425018310547e+00 2.882309733769072846e-13 3.202566521438160452e-14 9.607699564314481355e-14 4.003208151797700565e-15
3.566000000000000000e+03 5.387446594238281250e+01 -7.666744232177734375e+00 1.601283260719080226e-13 -1.601283260719080226e-13 0.000000000000000000e+00 -1.921539912862896271e-13
3.567000000000000000e+03 5.419412612915039062e+01 -6.721642017364501953e+00 3.843079825725792542e-13 2.562053217150528361e-13 1.921539912862896271e-13 -1.200962445539310169e-14
3.568000000000000000e+03 5.338057708740234375e+01 -7.646340847015380859e+00 1.361090737729900302e-13 -2.161732300326804634e-13 -2.401924891078620339e-14 1.200962343895356499e-13
3.569000000000000000e+03 5.489592361450195312e+01 -7.511123180389404297e+00 1.521218996039172544e-13 2.481988952470620680e-13 1.200962343895356499e-13 -1.841475648182988589e-13
3.570000000000000000e+03 5.543885421752929688e+01 -7.593979835510253906e+00 4.163336342344337027e-13 -4.163336342344337027e-13 0.000000000000000000e+00 -1.321058605389946461e-13
3.571000000000000000e+03 5.573310089111328125e+01 -6.712111949920654297e+00 2.782229470681824024e-13 3.022421993671003948e-13 1.741395520621011328e-13 8.006416303595401129e-15
3.572000000000000000e+03 5.581307601928710938e+01 -7.223299026489257812e+00 1.761411519028352468e-13 -1.601283260719080226e-14 4.803849782157240678e-14 2.401924687790712998e-13
3.573000000000000000e+03 5.495701599121093750e+01 -6.771010875701904297e+00 2.742197473867141744e-13 -2.942358000041639388e-13 -6.004812227696550847e-15 -9.207378240914942946e-14
3.574000000000000000e+03 5.401419830322265625e+01 -7.236363410949707031e+00 2.722181475459800604e-13 -1.120898214740720378e-13 4.803849782157240678e-14 -4.003208151797700565e-15
3.575000000000000000e+03 5.342140960693359375e+01 -7.158651828765869141e+00 4.083272077664429345e-13 -8.006416303595401129e-15 1.200962343895356499e-13 -8.006416303595401129e-15
3.576000000000000000e+03 5.347052001953125000e+01 -6.665469169616699219e+00 4.143320343936995886e-13 -2.341876692568689577e-13 5.404330750817011586e-14 -6.405133042876320904e-14
3.577000000000000000e+03 5.588322067260742188e+01 -7.660030841827392578e+00 -2.001604075898850282e-14 2.201764432666758475e-13 6.004811719476782494e-14 3.202566521438160452e-14
3.578000000000000000e+03 5.433560180664062500e+01 -7.600301265716552734e+00 2.321860694161348437e-13 -3.122502256758252770e-13 -2.401924891078620339e-14 1.521218996039172544e-13
3.579000000000000000e+03 5.773078155517578125e+01 -7.184003353118896484e+00 8.006416303595401129e-15 -8.807057595141762341e-14 -2.401924891078620339e-14 5.604491073703601889e-14
3.580000000000000000e+03 5.823317718505859375e+01 -7.680148601531982422e+00 2.281828697346666157e-13 3.722983564231202580e-13 1.801443651368306309e-13 -2.401924891078620339e-14
3.581000000000000000e+03 5.642696762084960938e+01 -7.638667583465576172e+00 2.081668171172168513e-13 -4.803849782157240678e-14 4.803849782157240678e-14 -8.006416303595401129e-15
3.582000000000000000e+03 5.881925964355468750e+01 -7.697557926177978516e+00 2.121700303512122354e-13 -9.207378240914942946e-14 3.602887167211341057e-14 1.120898214740720378e-13
3.583000000000000000e+03 5.829034805297851562e+01 -7.256721973419189453e+00 6.805453688649501509e-14 -4.283432603838926989e-13 -1.080866150163402317e-13 2.401924891078620339e-14
3.584000000000000000e+03 5.711069869995117188e+01 -7.144662380218505859e+00 2.642117210779892922e-13 -2.401924891078620339e-14 7.205774334422682115e-14 4.803849782157240678e-14
3.585000000000000000e+03 5.886812210083007812e+01 -6.952060222625732422e+00 -6.805453688649501509e-14 -2.121700303512122354e-13 -8.406736949368581735e-14 0.000000000000000000e+00
3.586000000000000000e+03 5.883442687988281250e+01 -7.316585063934326172e+00 -4.003208151797700565e-15 3.642919299551294898e-13 1.080866150163402317e-13 3.202566521438160452e-14
3.587000000000000000e+03 5.704363632202148438e+01 -7.640797615051269531e+00 2.041636038832214672e-13 -4.003208151797700565e-15 6.004811719476782494e-14 -1.200962343895356499e-13
3.588000000000000000e+03 5.647704315185546875e+01 -6.651003837585449219e+00 3.262614516660183872e-13 -2.261812563414053456e-13 3.002405859738391247e-14 -8.006416303595401129e-14
3.589000000000000000e+03 5.842281723022460938e+01 -6.817153453826904297e+00 4.003208151797700565e-15 1.160930347080674219e-13 3.602887167211341057e-14 1.601283260719080226e-13
3.590000000000000000e+03 5.881550598144531250e+01 -6.593036651611328125e+00 7.606094980195862720e-14 1.240994476235310340e-13 6.004811719476782494e-14 -6.405133042876320904e-14
3.591000000000000000e+03 5.645099258422851562e+01 -7.141427993774414062e+00 3.202566521438160452e-13 3.202566521438160452e-13 1.921539912862896271e-13 -1.040834085586084257e-13
3.592000000000000000e+03 5.764594650268554688e+01 -7.657019138336181641e+00 1.240994476235310340e-13 -4.043240080849747065e-13 -8.406736949368581735e-14 1.361090737729900302e-13
3.593000000000000000e+03 5.788750457763671875e+01 -6.675097942352294922e+00 -2.802245536851800944e-14 -3.322662782932750414e-13 -1.080866150163402317e-13 -1.000802021008766196e-13
3.594000000000000000e+03 5.719490432739257812e+01 -6.652043819427490234e+00 4.003208151797700565e-15 2.762213472274482884e-13 8.406736949368581735e-14 -1.601283260719080226e-13
3.595000000000000000e+03 5.986449813842773438e+01 -7.127045154571533203e+00 3.640417164225105695e-14 -3.954418986273217085e-13 -1.077113184343343744e-13 7.756215645877279075e-14
3.596000000000000000e+03 6.015413665771484375e+01 -6.685479640960693359e+00 2.241796429481440756e-13 9.607699564314481355e-14 9.607699564314481355e-14 2.441956955655938399e-13
3.597000000000000000e+03 6.182209014892578125e+01 -7.325203895568847656e+00 2.281828697346666157e-13 -2.682149478645118323e-13 -1.200962445539310169e-14 6.405133042876320904e-14
3.598000000000000000e+03 5.946179962158203125e+01 -6.605583667755126953e+00 -1.361090737729900302e-13 -1.040834085586084257e-13 -7.205774334422682115e-14 -9.607699564314481355e-14
3.599000000000000000e+03 5.938911056518554688e+01 -6.973796844482421875e+00 -1.801443651368306309e-13 -2.602085213965210642e-13 -1.321058605389946461e-13 -3.202566521438160452e-14
3.600000000000000000e+03 5.938769531250000000e+01 -7.312313079833984375e+00 1.641315257533762506e-13 -2.041636038832214672e-13 -1.200962445539310169e-14 3.202566521438160452e-14
3.601000000000000000e+03 6.085380172729492188e+01 -6.737061500549316406e+00 1.641315257533762506e-13 -2.041636038832214672e-13 -1.200962445539310169e-14 -6.004811719476782494e-14
3.602000000000000000e+03 6.129128265380859375e+01 -7.278045177459716797e+00 6.405133042876320904e-14 -6.405133042876320904e-14 0.000000000000000000e+00 -5.604491073703601889e-14
3.603000000000000000e+03 6.177258682250976562e+01 -7.701846122741699219e+00 2.201764432666758475e-13 -1.801443651368306309e-13 1.200962445539310169e-14 6.405133042876320904e-14
3.604000000000000000e+03 6.113271331787109375e+01 -7.683442592620849609e+00 2.161732300326804634e-13 2.401924891078620339e-14 7.205774334422682115e-14 4.003208151797700565e-14
3.605000000000000000e+03 6.186265945434570312e+01 -6.958425045013427734e+00 2.121700303512122354e-13 -9.207378240914942946e-14 3.602887167211341057e-14 -8.006416303595401129e-14
3.606000000000000000e+03 6.181358337402343750e+01 -6.595067024230957031e+00 4.203368339159019307e-13 1.801443651368306309e-13 1.801443651368306309e-13 4.803849782157240678e-14
3.607000000000000000e+03 5.946020507812500000e+01 -7.684099674224853516e+00 -4.003208151797700565e-14 -2.001604042017532392e-13 -7.205774334422682115e-14 1.120898214740720378e-13
3.608000000000000000e+03 6.015249252319335938e+01 -7.578995704650878906e+00 1.441154866884536423e-13 -4.643721388322696875e-13 -9.607699564314481355e-14 2.401924687790712998e-13
3.609000000000000000e+03 6.077606582641601562e+01 -7.366417884826660156e+00 7.405934996122451319e-14 -1.401122768425900472e-14 1.801443583605670529e-14 1.601283260719080226e-14
3.610000000000000000e+03 6.140932083129882812e+01 -6.836910247802734375e+00 3.082470259943570490e-13 2.922341730583755126e-13 1.801443651368306309e-13 -5.204170427930421283e-14
3.611000000000000000e+03 6.237298965454101562e+01 -7.706356525421142578e+00 3.162534253572935050e-13 4.403528797570881170e-14 1.080866150163402317e-13 4.803849782157240678e-14
3.612000000000000000e+03 6.239781570434570312e+01 -7.338798522949218750e+00 3.402726776562114974e-13 -2.201764432666758475e-13 3.602887167211341057e-14 4.803849782157240678e-14
3.613000000000000000e+03 6.345523834228515625e+01 -7.482425212860107422e+00 2.882309733769072846e-13 3.202566521438160452e-14 9.607699564314481355e-14 1.361090737729900302e-13
3.614000000000000000e+03 6.478013610839843750e+01 -7.513781547546386719e+00 4.943961906533900219e-13 -1.541235129971785245e-13 1.020818019416107336e-13 7.606094980195862720e-14
3.615000000000000000e+03 6.420616912841796875e+01 -7.590750217437744141e+00 1.661331391466375207e-13 2.542037218743187221e-13 1.261010474642651480e-13 -8.006416303595401129e-15
3.616000000000000000e+03 6.393452072143554688e+01 -6.699462890625000000e+00 5.964779993712643336e-13 1.641315257533762506e-13 2.281828697346666157e-13 -6.405133042876320904e-14
3.617000000000000000e+03 6.377638626098632812e+01 -7.725888252258300781e+00 4.643721388322696875e-13 3.362694779747432694e-13 2.401924687790712998e-13 -2.001604075898850282e-14
3.618000000000000000e+03 6.288182449340820312e+01 -7.720316410064697266e+00 5.124106434301056723e-13 1.281026608575264181e-13 1.921539912862896271e-13 1.120898214740720378e-13
3.619000000000000000e+03 6.471804046630859375e+01 -6.773710727691650391e+00 3.823063556267908281e-13 1.180946345488015359e-13 1.501202997631831404e-13 -6.805453688649501509e-14
3.620000000000000000e+03 6.243394470214843750e+01 -6.968184471130371094e+00 3.002405995263662808e-13 -4.203368339159019307e-13 -3.602887167211341057e-14 8.006416303595401129e-15
3.621000000000000000e+03 6.247207641601562500e+01 -6.595813751220703125e+00 1.501202997631831404e-13 -2.101684169579509653e-13 -1.801443583605670529e-14 -4.003208151797700565e-14
3.622000000000000000e+03 6.335919952392578125e+01 -7.753684043884277344e+00 3.923143819355157103e-13 1.681347389873716347e-13 1.681347389873716347e-13 1.601283260719080226e-13
3.623000000000000000e+03 6.295146179199218750e+01 -7.373824596405029297e+00 3.562855034871387216e-13 -7.606094980195862720e-14 8.406736949368581735e-14 1.441154866884536423e-13
3.624000000000000000e+03 6.318838882446289062e+01 -6.615761280059814453e+00 4.383512866926175811e-13 -1.781427517435693608e-13 7.806255641895631925e-14 1.681347389873716347e-13
3.625000000000000000e+03 6.371765136718750000e+01 -7.167850494384765625e+00 3.562855034871387216e-13 2.441956955655938399e-13 1.801443651368306309e-13 9.607699564314481355e-14
3.626000000000000000e+03 6.307009124755859375e+01 -7.009057044982910156e+00 4.163336342344337027e-13 -9.607699564314481355e-14 9.607699564314481355e-14 2.081668171172168513e-13
3.627000000000000000e+03 6.548448944091796875e+01 -6.782761096954345703e+00 4.423544863740858091e-13 -2.221780431074099615e-13 6.605293026949732305e-14 1.080866150163402317e-13
3.628000000000000000e+03 6.593862915039062500e+01 -7.608039855957031250e+00 4.243400607024244708e-13 1.361090737729900302e-13 1.681347389873716347e-13 -8.006416303595401129e-15
3.629000000000000000e+03 6.542160797119140625e+01 -7.522765159606933594e+00 3.202566521438160452e-13 1.601283260719080226e-13 1.441154866884536423e-13 -8.006416303595401129e-15
3.630000000000000000e+03 6.686466217041015625e+01 -7.665997982025146484e+00 3.402726776562114974e-13 1.000802021008766196e-13 1.321058605389946461e-13 -8.006416303595401129e-14
3.631000000000000000e+03 6.638185119628906250e+01 -7.677884578704833984e+00 4.403528865333516951e-13 -4.003208151797700565e-14 1.200962343895356499e-13 4.803849782157240678e-14
3.632000000000000000e+03 6.745617675781250000e+01 -6.819326400756835938e+00 2.842277736954390566e-13 2.361892690976030718e-13 1.561251128379126385e-13 2.401924687790712998e-13
3.633000000000000000e+03 6.786242675781250000e+01 -7.315988540649414062e+00 2.682149478645118323e-13 5.724587470723463412e-13 2.522020949285302960e-13 8.807057595141762341e-14
3.634000000000000000e+03 6.786176300048828125e+01 -7.699328899383544922e+00 8.807057595141762341e-14 -3.282630515067525012e-13 -7.205774334422682115e-14 -1.120898214740720378e-13
3.635000000000000000e+03 6.736142730712890625e+01 -7.680311203002929688e+00 3.322662782932750414e-13 -1.321058605389946461e-13 6.004811719476782494e-14 1.521218996039172544e-13
3.636000000000000000e+03 6.788413238525390625e+01 -6.953980445861816406e+00 2.922341730583755126e-13 -3.322662782932750414e-13 -1.200962445539310169e-14 -1.441154866884536423e-13
3.637000000000000000e+03 6.630273437500000000e+01 -7.260465145111083984e+00 2.121700303512122354e-13 2.281828697346666157e-13 1.321058605389946461e-13 0.000000000000000000e+00
3.638000000000000000e+03 6.782114410400390625e+01 -6.597324848175048828e+00 6.805453553124229948e-13 2.001604042017532392e-13 2.642117210779892922e-13 -8.807057595141762341e-14
3.639000000000000000e+03 6.692522430419921875e+01 -6.693024635314941406e+00 3.442758773376797254e-13 5.604491073703601889e-14 1.200962343895356499e-13 2.401924891078620339e-14
3.640000000000000000e+03 6.622295379638671875e+01 -6.735270023345947266e+00 4.243400607024244708e-13 1.361090737729900302e-13 1.681347389873716347e-13 -1.441154866884536423e-13
3.641000000000000000e+03 6.686277770996093750e+01 -7.206372261047363281e+00 3.362694779747432694e-13 -1.761411519028352468e-13 4.803849782157240678e-14 -8.006416303595401129e-14
3.642000000000000000e+03 6.737166595458984375e+01 -7.254789352416992188e+00 5.204170427930421283e-13 4.003208151797700565e-14 1.681347389873716347e-13 8.006416303595401129e-14
3.643000000000000000e+03 6.977419281005859375e+01 -7.720037460327148438e+00 6.004811990527325616e-13 1.200962343895356499e-13 2.161732300326804634e-13 7.205774334422682115e-14
3.644000000000000000e+03 6.993555450439453125e+01 -6.697297573089599609e+00 4.483592858962881511e-13 -1.281026608575264181e-13 9.607699564314481355e-14 -1.120898214740720378e-13
3.645000000000000000e+03 6.837388610839843750e+01 -7.708182811737060547e+00 1.240994476235310340e-13 2.361892690976030718e-13 1.080866150163402317e-13 6.405133042876320904e-14
3.646000000000000000e+03 6.945429992675781250e+01 -7.472129821777343750e+00 5.444362950919601207e-13 4.163336342344337027e-13 2.882309733769072846e-13 -8.807057595141762341e-14
3.647000000000000000e+03 7.078099822998046875e+01 -7.512984752655029297e+00 2.842277736954390566e-13 -8.406736949368581735e-14 6.004811719476782494e-14 8.006416303595401129e-14
3.648000000000000000e+03 7.020510864257812500e+01 -7.585648059844970703e+00 2.662133209187234062e-13 1.140914348673333079e-13 1.140914348673333079e-13 -1.521218996039172544e-13
3.649000000000000000e+03 6.918972778320312500e+01 -6.614968776702880859e+00 5.524426944548965768e-13 3.282630515067525012e-13 2.642117210779892922e-13 9.607699564314481355e-14
3.650000000000000000e+03 6.888378143310546875e+01 -7.719757080078125000e+00 5.084074437486374443e-13 -1.481186999224490264e-13 1.080866150163402317e-13 -1.441154866884536423e-13
3.651000000000000000e+03 7.071834564208984375e+01 -6.772953510284423828e+00 3.362694779747432694e-13 1.441154866884536423e-13 1.441154866884536423e-13 3.202566521438160452e-14
3.652000000000000000e+03 6.843503570556640625e+01 -6.967602252960205078e+00 4.763817378766743715e-13 2.041636038832214672e-13 2.041636038832214672e-13 -3.202566521438160452e-14
3.653000000000000000e+03 6.847245025634765625e+01 -6.597388744354248047e+00 3.182550251980276190e-13 -1.381106736137241442e-13 5.404330750817011586e-14 -6.405133042876320904e-14
3.654000000000000000e+03 6.839909362792968750e+01 -7.338427066802978516e+00 2.562053217150528361e-13 -2.562053217150528361e-13 0.000000000000000000e+00 -1.921539912862896271e-13
3.655000000000000000e+03 6.907270812988281250e+01 -7.003568649291992188e+00 4.563657394693332314e-13 1.040834085586084257e-13 1.681347389873716347e-13 2.401924891078620339e-14
3.656000000000000000e+03 6.935970306396484375e+01 -7.750711917877197266e+00 3.082470259943570490e-13 1.321058605389946461e-13 1.321058605389946461e-13 0.000000000000000000e+00
3.657000000000000000e+03 6.895433807373046875e+01 -7.368448734283447266e+00 4.603689391508014594e-13 6.004811719476782494e-14 1.561251128379126385e-13 1.521218996039172544e-13
3.658000000000000000e+03 6.971762847900390625e+01 -7.158562660217285156e+00 4.443560862148199231e-13 3.963175816169839383e-13 2.522020949285302960e-13 -4.003208151797700565e-15
3.659000000000000000e+03 7.224012756347656250e+01 -6.784319877624511719e+00 2.642117210779892922e-13 -2.401924891078620339e-14 7.205774334422682115e-14 4.803849782157240678e-14
3.660000000000000000e+03 7.149011993408203125e+01 -6.784518241882324219e+00 2.341876692568689577e-13 1.461170865291877563e-13 1.140914348673333079e-13 -1.681347389873716347e-13
3.661000000000000000e+03 7.149024200439453125e+01 -7.524518489837646484e+00 1.961571909677578551e-13 8.406736949368581735e-14 8.406736949368581735e-14 -8.406736949368581735e-14
3.662000000000000000e+03 7.298977661132812500e+01 -7.522904396057128906e+00 2.281828697346666157e-13 5.204170427930421283e-14 8.406736949368581735e-14 -7.606094980195862720e-14
3.663000000000000000e+03 7.373952484130859375e+01 -7.521630287170410156e+00 9.207378240914942946e-14 -5.204170427930421283e-14 1.200962445539310169e-14 -7.606094980195862720e-14
3.664000000000000000e+03 7.373976135253906250e+01 -6.781629562377929688e+00 9.807859548387892756e-14 4.203368474684290867e-14 4.203368474684290867e-14 -5.604491073703601889e-14
3.665000000000000000e+03 7.224012756347656250e+01 -7.524320125579833984e+00 1.301042606982605321e-13 1.000802037949425141e-14 4.203368474684290867e-14 -1.120898214740720378e-13
3.666000000000000000e+03 7.298989105224609375e+01 -6.782904148101806641e+00 2.001604042017532392e-13 4.003208151797700565e-14 7.205774334422682115e-14 -2.001604075898850282e-14
3.667000000000000000e+03 7.523990631103515625e+01 -6.784496307373046875e+00 8.006416303595401129e-15 -8.807057595141762341e-14 -2.401924891078620339e-14 -1.200962445539310169e-14
3.668000000000000000e+03 7.598918914794921875e+01 -7.525149822235107422e+00 -7.005614350349270714e-14 -3.002405859738391247e-14 -3.002405859738391247e-14 -5.204170427930421283e-14
3.669000000000000000e+03 7.448987579345703125e+01 -6.782615661621093750e+00 -5.004010105043830980e-14 7.005614350349270714e-14 6.004812227696550847e-15 2.401924891078620339e-14
3.670000000000000000e+03 7.673957061767578125e+01 -6.785940170288085938e+00 -1.220978477827969200e-13 -9.807859548387892756e-14 -6.605293026949732305e-14 -4.003208151797700565e-15
3.671000000000000000e+03 7.448954010009765625e+01 -7.522616386413574219e+00 2.001604042017532392e-13 4.003208151797700565e-14 7.205774334422682115e-14 -5.604491073703601889e-14
3.672000000000000000e+03 7.673899078369140625e+01 -7.525940418243408203e+00 1.000802037949425141e-14 5.004010105043830980e-14 1.801443583605670529e-14 8.807057595141762341e-14
3.673000000000000000e+03 7.523948669433593750e+01 -7.524496555328369141e+00 4.003208151797700565e-15 2.762213472274482884e-13 8.406736949368581735e-14 -4.003208151797700565e-15
3.674000000000000000e+03 7.598968505859375000e+01 -6.785149574279785156e+00 -1.481186999224490264e-13 2.802245536851800944e-14 -3.602887167211341057e-14 5.604491073703601889e-14
3.675000000000000000e+03 7.891832733154296875e+01 -6.777493953704833984e+00 -4.803849782157240678e-14 -1.120898214740720378e-13 -4.803849782157240678e-14 -4.003208151797700565e-14
3.676000000000000000e+03 7.891809082031250000e+01 -7.523739337921142578e+00 6.405133042876320904e-14 -6.405133042876320904e-14 0.000000000000000000e+00 -3.202566521438160452e-14
3.677000000000000000e+03 7.747486877441406250e+01 -7.525915145874023438e+00 -5.604491073703601889e-14 -2.401924891078620339e-14 -2.401924891078620339e-14 1.601283260719080226e-14
3.678000000000000000e+03 7.963942718505859375e+01 -7.522047519683837891e+00 -1.881507780522942430e-13 -1.721379386688398627e-13 -1.080866150163402317e-13 -6.004811719476782494e-14
3.679000000000000000e+03 7.963950347900390625e+01 -6.773303508758544922e+00 6.004811719476782494e-14 -2.001604075898850282e-14 1.200962445539310169e-14 -4.403528797570881170e-14
3.680000000000000000e+03 7.747541046142578125e+01 -6.784666061401367188e+00 9.407538902614712151e-14 8.606896933441993136e-14 5.404330750817011586e-14 3.602887167211341057e-14
3.681000000000000000e+03 7.819657897949218750e+01 -7.524978637695312500e+00 -5.604491073703601889e-14 -2.401924891078620339e-14 -2.401924891078620339e-14 -6.805453688649501509e-14
3.682000000000000000e+03 7.819696807861328125e+01 -6.781230926513671875e+00 -3.803047490097931360e-14 -6.204972381176551699e-14 -3.002405859738391247e-14 -1.000802021008766196e-13
3.683000000000000000e+03 1.845484352111816406e+01 -6.891071796417236328e+00 3.502807175174635357e-14 -2.502005052521915490e-14 3.002406113848275424e-15 1.170938346284344789e-13
3.684000000000000000e+03 1.901154327392578125e+01 -6.736179351806640625e+00 -7.405934996122451319e-14 -3.062454261536229350e-13 -1.140914348673333079e-13 -1.601283260719080226e-14
3.685000000000000000e+03 1.959094619750976562e+01 -7.223549365997314453e+00 7.205774334422682115e-14 -1.521218996039172544e-13 -2.401924891078620339e-14 5.604491073703601889e-14
3.686000000000000000e+03 1.966169548034667969e+01 -6.863755226135253906e+00 -5.604491073703601889e-14 -2.401924891078620339e-14 -2.401924891078620339e-14 5.604491073703601889e-14
3.687000000000000000e+03 1.896313095092773438e+01 -7.086604595184326172e+00 1.601283260719080226e-14 -1.761411519028352468e-13 -4.803849782157240678e-14 1.601283260719080226e-14
3.688000000000000000e+03 1.916676902770996094e+01 -6.298660278320312500e+00 -3.803047490097931360e-14 -1.421138868477195283e-13 -5.404330750817011586e-14 4.003208151797700565e-14
3.689000000000000000e+03 1.851347160339355469e+01 -6.047008037567138672e+00 -3.002405859738391247e-14 1.000802037949425141e-14 -6.004812227696550847e-15 0.000000000000000000e+00
3.690000000000000000e+03 1.805909919738769531e+01 -6.703030109405517578e+00 -1.601283260719080226e-14 1.601283260719080226e-14 0.000000000000000000e+00 -7.806255641895631925e-14
3.691000000000000000e+03 1.974099540710449219e+01 -6.125893592834472656e+00 -1.521218996039172544e-13 7.205774334422682115e-14 -2.401924891078620339e-14 7.205774334422682115e-14
3.692000000000000000e+03 1.974506759643554688e+01 -6.509677410125732422e+00 -5.204170427930421283e-14 2.522020949285302960e-13 6.004811719476782494e-14 9.607699564314481355e-14
3.693000000000000000e+03 1.111242771148681641e+01 -4.403275847434997559e-01 -6.004812227696550847e-15 -9.407538902614712151e-14 -3.002405859738391247e-14 1.601283260719080226e-14
3.694000000000000000e+03 1.260764503479003906e+01 -5.095726251602172852e-01 2.001604075898850282e-15 1.381106736137241442e-13 4.203368474684290867e-14 0.000000000000000000e+00
3.695000000000000000e+03 1.185993289947509766e+01 -4.741277396678924561e-01 -5.004010105043830980e-14 7.005614350349270714e-14 6.004812227696550847e-15 1.200962445539310169e-14
3.696000000000000000e+03 1.109096240997314453e+01 -1.180124521255493164e+00 -3.602887167211341057e-14 7.606094980195862720e-14 1.200962445539310169e-14 -8.006416303595401129e-15
3.697000000000000000e+03 1.036482620239257812e+01 -4.067706167697906494e-01 -1.421138868477195283e-13 1.220978477827969200e-13 -6.004812227696550847e-15 8.406736949368581735e-14
3.698000000000000000e+03 1.034629440307617188e+01 -1.146702885627746582e+00 -1.220978477827969200e-13 -9.807859548387892756e-14 -6.605293026949732305e-14 8.006416303595401129e-15
3.699000000000000000e+03 1.258031177520751953e+01 -1.249099493026733398e+00 -1.261010474642651480e-13 2.662133209187234062e-13 4.203368474684290867e-14 -8.006416303595401129e-14
3.700000000000000000e+03 1.183553314208984375e+01 -1.213789224624633789e+00 -8.406736949368581735e-14 -3.602887167211341057e-14 -3.602887167211341057e-14 -4.003208151797700565e-15
3.701000000000000000e+03 1.418479251861572266e+01 -1.305087447166442871e+00 2.201764398785440585e-14 -8.206576287668812530e-14 -1.801443583605670529e-14 -2.401924891078620339e-14
3.702000000000000000e+03 1.338981437683105469e+01 -5.390486121177673340e-01 -4.003208151797700565e-14 1.200962343895356499e-13 2.401924891078620339e-14 -6.004811719476782494e-14
3.703000000000000000e+03 1.336326122283935547e+01 -1.280161738395690918e+00 8.006416303595401129e-15 -8.807057595141762341e-14 -2.401924891078620339e-14 -7.205774334422682115e-14
3.704000000000000000e+03 1.501021480560302734e+01 -1.329233884811401367e+00 -4.003208151797700565e-15 4.403528797570881170e-14 1.200962445539310169e-14 6.405133042876320904e-14
3.705000000000000000e+03 1.502777862548828125e+01 -5.815086364746093750e-01 -6.204972381176551699e-14 -1.180946345488015359e-13 -5.404330750817011586e-14 3.202566521438160452e-14
3.706000000000000000e+03 1.420685100555419922e+01 -5.606682896614074707e-01 -1.401122870069854143e-13 -6.004811719476782494e-14 -6.004811719476782494e-14 8.006416303595401129e-15
3.707000000000000000e+03 8.742120742797851562e+00 -3.898820579051971436e-01 -1.741395520621011328e-13 1.541235129971785245e-13 -6.004812227696550847e-15 -3.602887167211341057e-14
3.708000000000000000e+03 9.574714660644531250e+00 -3.899039328098297119e-01 -2.742197473867141744e-13 -2.602085213965210642e-14 -9.007218256841531545e-14 -5.204170427930421283e-14
3.709000000000000000e+03 7.909134387969970703e+00 -3.897335529327392578e-01 -1.080866150163402317e-13 -9.207378240914942946e-14 -6.004811719476782494e-14 1.601283260719080226e-14
3.710000000000000000e+03 7.076364517211914062e+00 -3.895142078399658203e-01 -1.240994476235310340e-13 8.406736949368581735e-14 -1.200962445539310169e-14 -2.001604075898850282e-14
3.711000000000000000e+03 5.410517692565917969e+00 -3.894017040729522705e-01 -1.981587908084919691e-13 9.807859548387892756e-14 -3.002405859738391247e-14 5.604491073703601889e-14
3.712000000000000000e+03 4.578235626220703125e+00 -3.893415629863739014e-01 -4.803849782157240678e-14 -1.120898214740720378e-13 -4.803849782157240678e-14 -2.802245536851800944e-14
3.713000000000000000e+03 3.745703697204589844e+00 -3.893280625343322754e-01 1.000802021008766196e-13 1.801443651368306309e-13 8.406736949368581735e-14 -7.606094980195862720e-14
3.714000000000000000e+03 2.913138151168823242e+00 -3.893369138240814209e-01 -8.006416303595401129e-15 -2.321860694161348437e-13 -7.205774334422682115e-14 1.200962445539310169e-14
3.715000000000000000e+03 2.080621719360351562e+00 -3.893802762031555176e-01 -1.481186999224490264e-13 2.802245536851800944e-14 -3.602887167211341057e-14 8.807057595141762341e-14
3.716000000000000000e+03 1.248418450355529785e+00 -3.895316421985626221e-01 -7.405934996122451319e-14 1.401122768425900472e-14 -1.801443583605670529e-14 4.003208151797700565e-15
3.717000000000000000e+03 4.162248969078063965e-01 -3.898245394229888916e-01 3.202566521438160452e-14 -3.202566521438160452e-14 0.000000000000000000e+00 2.401924891078620339e-14
3.718000000000000000e+03 4.155138731002807617e-01 -1.129824519157409668e+00 2.201764398785440585e-14 -8.206576287668812530e-14 -1.801443583605670529e-14 3.602887167211341057e-14
3.719000000000000000e+03 9.558361053466796875e+00 -1.129903912544250488e+00 -8.606896933441993136e-14 1.461170865291877563e-13 1.801443583605670529e-14 1.601283260719080226e-14
3.720000000000000000e+03 8.727190017700195312e+00 -1.129882097244262695e+00 -4.403528797570881170e-14 -1.561251128379126385e-13 -6.004811719476782494e-14 -1.561251128379126385e-13
3.721000000000000000e+03 7.895625114440917969e+00 -1.129733562469482422e+00 -6.405133042876320904e-14 6.405133042876320904e-14 0.000000000000000000e+00 -8.006416303595401129e-15
3.722000000000000000e+03 7.064276695251464844e+00 -1.129514217376708984e+00 -7.806255641895631925e-14 5.804651735403371093e-14 -6.004812227696550847e-15 -9.607699564314481355e-14
3.723000000000000000e+03 5.401274204254150391e+00 -1.129401683807373047e+00 4.803849782157240678e-14 -2.081668171172168513e-13 -4.803849782157240678e-14 6.004811719476782494e-14
3.724000000000000000e+03 4.570414543151855469e+00 -1.129341602325439453e+00 4.003208151797700565e-15 2.762213472274482884e-13 8.406736949368581735e-14 -1.120898214740720378e-13
3.725000000000000000e+03 3.739304304122924805e+00 -1.129328012466430664e+00 6.004812227696550847e-15 9.407538902614712151e-14 3.002405859738391247e-14 -8.406736949368581735e-14
3.726000000000000000e+03 2.908160686492919922e+00 -1.129336953163146973e+00 5.204170427930421283e-14 3.883111822540474822e-13 1.321058605389946461e-13 1.000802021008766196e-13
3.727000000000000000e+03 2.077066421508789062e+00 -1.129380345344543457e+00 -5.604491073703601889e-14 -2.401924891078620339e-14 -2.401924891078620339e-14 8.807057595141762341e-14
3.728000000000000000e+03 6.232748985290527344e+00 -1.129483222961425781e+00 -3.002405859738391247e-14 1.701363388281057487e-13 4.203368474684290867e-14 1.120898214740720378e-13
3.729000000000000000e+03 1.246285319328308105e+00 -1.129531621932983398e+00 -1.020818019416107336e-13 2.001604075898850282e-15 -3.002405859738391247e-14 1.200962445539310169e-14
3.730000000000000000e+03 6.243414402008056641e+00 -3.894832432270050049e-01 5.004010105043830980e-14 -7.005614350349270714e-14 -6.004812227696550847e-15 5.604491073703601889e-14
3.731000000000000000e+03 1.772315216064453125e+01 -7.405601024627685547e+00 7.005614350349270714e-14 -5.004010105043830980e-14 6.004812227696550847e-15 2.001604075898850282e-15
3.732000000000000000e+03 1.885577392578125000e+01 -7.600108623504638672e+00 2.401924891078620339e-14 5.604491073703601889e-14 2.401924891078620339e-14 8.006416303595401129e-14
3.733000000000000000e+03 2.214840507507324219e+01 -8.101767539978027344e+00 -6.004811719476782494e-14 3.402726776562114974e-13 8.406736949368581735e-14 1.200962343895356499e-13
3.734000000000000000e+03 1.950540351867675781e+01 -7.698971271514892578e+00 1.200962445539310169e-14 -1.321058605389946461e-13 -3.602887167211341057e-14 -1.601283260719080226e-14
3.735000000000000000e+03 1.830774307250976562e+01 -9.138024330139160156e+00 -1.801443583605670529e-14 -4.203368474684290867e-14 -1.801443583605670529e-14 -2.401924891078620339e-14
3.736000000000000000e+03 2.377280044555664062e+01 -1.366480255126953125e+01 3.202566521438160452e-14 2.882309733769072846e-13 9.607699564314481355e-14 -1.120898214740720378e-13
3.737000000000000000e+03 3.026626014709472656e+01 -2.012749099731445312e+01 -1.601283260719080226e-14 -6.405133042876320904e-14 -2.401924891078620339e-14 5.804651735403371093e-14
3.738000000000000000e+03 3.722195816040039062e+01 -2.636143684387207031e+01 -5.304250758780305885e-14 1.030826086382413687e-13 1.501202929869195624e-14 1.200962445539310169e-14
3.739000000000000000e+03 4.668107223510742188e+01 -3.719643020629882812e+01 -7.455974992140804170e-14 9.957980214069309111e-14 7.506014649345978118e-15 3.102486190588275849e-14
3.740000000000000000e+03 5.207272338867187500e+01 -4.078850555419921875e+01 -9.407538902614712151e-14 1.541235129971785245e-13 1.801443583605670529e-14 1.401122768425900472e-14
3.741000000000000000e+03 5.117695617675781250e+01 -3.735261154174804688e+01 -1.095878216731543953e-13 1.646319257135597791e-13 1.651323256737433076e-14 3.002406113848275424e-15
3.742000000000000000e+03 6.190207672119140625e+01 -4.054653930664062500e+01 -1.035830085984248972e-13 9.857899544406245607e-14 -1.501203056924137712e-15 1.301042606982605321e-14
3.743000000000000000e+03 5.694029617309570312e+01 -4.057429504394531250e+01 -8.356696953350228885e-14 1.185950345089850644e-13 1.050842118671072717e-14 -1.200962445539310169e-14
3.744000000000000000e+03 5.595969390869140625e+01 -2.931066131591796875e+01 -6.542743370739970143e-14 7.418444656313860630e-14 2.627105296677681792e-15 1.673215860874580855e-15
3.745000000000000000e+03 5.710493087768554688e+01 -1.520499992370605469e+01 1.761411519028352468e-13 -1.601283260719080226e-14 4.803849782157240678e-14 6.405133042876320904e-14
3.746000000000000000e+03 6.096168899536132812e+01 -8.130050659179687500e+00 1.180946345488015359e-13 -4.983993903348582499e-13 -1.140914348673333079e-13 -5.604491073703601889e-14
3.747000000000000000e+03 6.022961807250976562e+01 -8.131684303283691406e+00 6.805453688649501509e-14 -1.080866150163402317e-13 -1.200962445539310169e-14 1.200962343895356499e-13
3.748000000000000000e+03 5.537734222412109375e+01 -8.609586715698242188e+00 1.681347389873716347e-13 7.205774334422682115e-14 7.205774334422682115e-14 1.281026608575264181e-13
3.749000000000000000e+03 5.537092590332031250e+01 -8.130905151367187500e+00 4.803849782157240678e-14 1.120898214740720378e-13 4.803849782157240678e-14 -2.161732300326804634e-13
3.750000000000000000e+03 5.436834335327148438e+01 -8.124273300170898438e+00 2.361892690976030718e-13 2.842277736954390566e-13 1.561251128379126385e-13 -3.602887302736612618e-13
3.751000000000000000e+03 5.287666702270507812e+01 -8.126257896423339844e+00 1.801443651368306309e-13 -7.005614079298727592e-13 -1.561251128379126385e-13 1.120898214740720378e-13
3.752000000000000000e+03 4.938418579101562500e+01 -8.160967826843261719e+00 2.481988952470620680e-13 -1.681347389873716347e-13 2.401924891078620339e-14 -4.803849782157240678e-14
3.753000000000000000e+03 4.790634155273437500e+01 -8.173533439636230469e+00 2.401924687790712998e-13 5.604491480279416571e-13 2.401924687790712998e-13 -6.405133042876320904e-14
3.754000000000000000e+03 4.041087341308593750e+01 -8.294817924499511719e+00 1.721379386688398627e-13 6.685357562680183108e-13 2.522020949285302960e-13 1.601283260719080226e-14
3.755000000000000000e+03 4.190068817138671875e+01 -8.255348205566406250e+00 -6.405133042876320904e-14 3.843079825725792542e-13 9.607699564314481355e-14 8.807057595141762341e-14
3.756000000000000000e+03 3.941471862792968750e+01 -8.322243690490722656e+00 2.802245536851800944e-14 3.322662782932750414e-13 1.080866150163402317e-13 1.361090737729900302e-13
3.757000000000000000e+03 3.441440963745117188e+01 -8.458412170410156250e+00 4.403528797570881170e-14 -1.641315257533762506e-13 -3.602887167211341057e-14 -1.601283260719080226e-13
3.758000000000000000e+03 3.691866302490234375e+01 -8.390540122985839844e+00 1.120898214740720378e-13 4.803849782157240678e-14 4.803849782157240678e-14 -7.205774334422682115e-14
3.759000000000000000e+03 3.355594253540039062e+01 -2.587073707580566406e+01 -9.007217918028352643e-15 -6.104892389139845998e-14 -2.101684237342145434e-14 2.602085213965210642e-14
3.760000000000000000e+03 3.594590377807617188e+01 -2.117253875732421875e+01 4.203368474684290867e-14 1.801443583605670529e-14 1.801443583605670529e-14 2.802245536851800944e-14
3.761000000000000000e+03 4.394448852539062500e+01 -2.638610267639160156e+01 -8.306656957331876034e-14 1.130906281707026728e-13 9.007217918028352643e-15 2.001604075898850282e-14
3.762000000000000000e+03 4.752125549316406250e+01 -3.055368995666503906e+01 -2.552045048540268340e-14 8.056456299613753980e-14 1.651323256737433076e-14 8.006416303595401129e-15
3.763000000000000000e+03 4.184338378906250000e+01 -2.985758018493652344e+01 -8.206576287668812530e-14 1.020818019416107336e-13 6.004812227696550847e-15 6.905533680686207210e-14
3.764000000000000000e+03 1.019286251068115234e+01 -1.851751518249511719e+01 -5.264218423152444704e-13 2.602085213965210642e-14 -1.501202997631831404e-13 6.405133042876320904e-14
3.765000000000000000e+03 9.187211990356445312e+00 -1.829659652709960938e+01 -8.887121724296398462e-13 -4.723785381952061435e-13 -4.083272077664429345e-13 1.761411519028352468e-13
3.766000000000000000e+03 8.397387504577636719e+00 -1.809098052978515625e+01 -1.188952799061060439e-12 -3.722983564231202580e-13 -4.683753385137379155e-13 7.165742608658542956e-13
3.767000000000000000e+03 1.112924098968505859e+01 -2.212066841125488281e+01 -1.501202929869195624e-14 -7.506014988159157020e-14 -2.702165375408505793e-14 1.361090737729900302e-13
3.768000000000000000e+03 6.455537796020507812e+00 -3.049604988098144531e+01 8.807057595141762341e-14 2.321860694161348437e-13 9.607699564314481355e-14 -2.602085213965210642e-14
3.769000000000000000e+03 6.078110218048095703e+00 -3.975713348388671875e+01 5.404330750817011586e-14 4.603689120457471473e-14 3.002405859738391247e-14 1.701363422162375377e-14
3.770000000000000000e+03 9.688053131103515625e+00 -3.648037338256835938e+01 4.753809447325708926e-14 1.751403587587317678e-14 1.951563910473907981e-14 0.000000000000000000e+00
3.771000000000000000e+03 2.238857078552246094e+01 -4.093953323364257812e+01 3.502807175174635357e-14 1.501202929869195624e-14 1.501202929869195624e-14 5.004010189747125706e-15
3.772000000000000000e+03 1.437021541595458984e+01 -3.804317855834960938e+01 8.757017599123409490e-14 -2.502005094873562853e-15 2.552045048540268340e-14 -1.501202929869195624e-14
3.773000000000000000e+03 1.816418075561523438e+01 -2.889375114440917969e+01 4.653729455289003225e-14 2.852285871683332696e-14 2.251804564210382886e-14 6.004812227696550847e-15
3.774000000000000000e+03 1.606255912780761719e+01 -2.255199813842773438e+01 -6.605293026949732305e-14 8.606896933441993136e-14 6.004812227696550847e-15 9.607699564314481355e-14
3.775000000000000000e+03 1.295494174957275391e+01 -1.724405670166015625e+01 -2.241796429481440756e-13 6.405133042876320904e-14 -4.803849782157240678e-14 -6.805453688649501509e-14
3.776000000000000000e+03 1.546920394897460938e+01 -1.167443943023681641e+01 -3.202566521438160452e-14 -1.281026608575264181e-13 -4.803849782157240678e-14 -1.661331391466375207e-13
3.777000000000000000e+03 1.457865047454833984e+01 -1.299496173858642578e+01 7.706175649858926224e-14 -8.706977603105056640e-14 -3.002406113848275424e-15 -4.128308141843582690e-14
3.778000000000000000e+03 1.305559253692626953e+01 -1.481893825531005859e+01 6.755413692631148659e-14 -2.502005094873562853e-15 1.951563910473907981e-14 -1.692606422859163628e-13
3.779000000000000000e+03 1.200437259674072266e+01 -1.596609306335449219e+01 -2.001604075898850282e-14 6.004811719476782494e-14 1.200962445539310169e-14 -5.854691731421723944e-14
3.780000000000000000e+03 1.514766311645507812e+01 -1.448706245422363281e+01 -9.357498906596359300e-14 -1.115894215138885093e-13 -6.154932385158198849e-14 -6.129912387149022424e-14
3.781000000000000000e+03 8.311955451965332031e+00 -1.961008071899414062e+01 -2.381908689383371858e-13 -9.027234255248872685e-13 -3.422742774969456114e-13 2.642117210779892922e-13
3.782000000000000000e+03 7.781674385070800781e+00 -1.757345008850097656e+01 -9.607698751162851991e-13 -1.921539750232570398e-12 -8.646929201307218538e-13 7.085678072928092153e-13
3.783000000000000000e+03 3.681935966014862061e-01 -1.634601211547851562e+01 -9.007218256841531545e-14 1.471178972915765382e-12 4.143320343936995886e-13 8.006416303595401129e-15
3.784000000000000000e+03 3.487921655178070068e-01 -1.313393115997314453e+01 1.401122870069854143e-13 1.341074712217504850e-12 4.443560862148199231e-13 -8.006416303595401129e-15
3.785000000000000000e+03 7.155354499816894531e+00 -1.731639289855957031e+01 -7.686159651451585084e-13 -1.473180518546390871e-12 -6.725389559494865388e-13 6.204972516701823260e-13
3.786000000000000000e+03 1.072042703628540039e+00 -2.116785049438476562e+01 1.281026608575264181e-13 8.326672684688674053e-13 2.882309733769072846e-13 -1.361090737729900302e-13
3.787000000000000000e+03 3.660205900669097900e-01 -2.279407310485839844e+01 -1.200962343895356499e-13 1.000801980351184728e-12 2.642117210779892922e-13 -2.802245536851800944e-14
3.788000000000000000e+03 1.200380682945251465e+00 -2.759906768798828125e+01 1.240994476235310340e-13 2.361892690976030718e-13 1.080866150163402317e-13 -6.405133042876320904e-14
3.789000000000000000e+03 1.218683958053588867e+00 -3.480671310424804688e+01 2.001604075898850282e-14 1.000802021008766196e-13 3.602887167211341057e-14 -1.401122870069854143e-13
3.790000000000000000e+03 1.888569235801696777e+00 -4.098607254028320312e+01 -3.002405859738391247e-14 1.000802037949425141e-14 -6.004812227696550847e-15 6.805453688649501509e-14
3.791000000000000000e+03 4.021245241165161133e-01 -3.642508316040039062e+01 1.941555911270237411e-13 -5.404330750817011586e-14 4.203368474684290867e-14 2.001604075898850282e-14
3.792000000000000000e+03 7.119731426239013672e+00 -1.571137142181396484e+01 -3.903127820947815962e-13 -1.951563910473907981e-12 -7.025630077706068732e-13 8.406736949368581735e-14
3.793000000000000000e+03 8.334309577941894531e+00 -1.264026069641113281e+01 -1.881507780522942430e-13 -6.525229033320367744e-13 -2.522020949285302960e-13 -2.612093213168881212e-13
3.794000000000000000e+03 1.204709720611572266e+01 -7.524239540100097656e+00 -3.602887167211341057e-14 -8.406736949368581735e-14 -3.602887167211341057e-14 -1.000802037949425141e-15
3.795000000000000000e+03 1.295373725891113281e+01 -6.257778167724609375e+00 5.604491073703601889e-14 -1.361090737729900302e-13 -2.401924891078620339e-14 6.004811719476782494e-14
3.796000000000000000e+03 1.156833553314208984e+01 -2.486851453781127930e+00 -1.200962343895356499e-13 -2.802245740139708285e-13 -1.200962343895356499e-13 8.006416303595401129e-15
3.797000000000000000e+03 1.173875045776367188e+01 -1.889998078346252441e+00 6.004812227696550847e-15 4.143320343936995886e-13 1.261010474642651480e-13 -1.080866150163402317e-13
3.798000000000000000e+03 1.251131916046142578e+01 -6.897938728332519531e+00 6.605293026949732305e-14 -6.004812227696550847e-15 1.801443583605670529e-14 -2.001604075898850282e-14
3.799000000000000000e+03 4.560532569885253906e+00 -1.798163175582885742e+00 1.020818019416107336e-13 -2.001604075898850282e-15 3.002405859738391247e-14 -8.006416303595401129e-15
3.800000000000000000e+03 3.467808663845062256e-01 -9.130405426025390625e+00 -5.004010105043830980e-14 7.105694071335433293e-13 1.981587908084919691e-13 5.604491073703601889e-14
3.801000000000000000e+03 6.514921188354492188e+00 -1.458041667938232422e+01 -1.331066604593617031e-13 -1.017815606102479009e-12 -3.452767043631010946e-13 1.160930347080674219e-13
3.802000000000000000e+03 2.189949798583984375e+01 -3.773564147949218750e+01 5.504411081666896188e-14 -4.503609128420765773e-14 3.002406113848275424e-15 2.902325867701685547e-14
3.803000000000000000e+03 2.099268150329589844e+01 -3.438401794433593750e+01 3.502807175174635357e-14 1.501202929869195624e-14 1.501202929869195624e-14 2.902325867701685547e-14
3.804000000000000000e+03 2.278326606750488281e+01 -2.274726676940917969e+01 -2.001604075898850282e-14 2.001604075898850282e-14 0.000000000000000000e+00 -3.002405859738391247e-14
3.805000000000000000e+03 2.027519798278808594e+01 -1.811724090576171875e+01 -2.802245536851800944e-14 -1.200962445539310169e-14 -1.200962445539310169e-14 -4.003208151797700565e-15
3.806000000000000000e+03 2.729254150390625000e+01 -4.058547210693359375e+01 3.202566521438160452e-14 8.006416303595401129e-15 1.200962445539310169e-14 1.200962445539310169e-14
3.807000000000000000e+03 3.227095031738281250e+01 -3.010954284667968750e+01 6.004811719476782494e-14 1.000802021008766196e-13 4.803849782157240678e-14 6.305052373213257400e-14
3.808000000000000000e+03 2.941509437561035156e+01 -2.621771240234375000e+01 4.003208151797700565e-15 1.160930347080674219e-13 3.602887167211341057e-14 0.000000000000000000e+00
3.809000000000000000e+03 4.235656738281250000e+01 -4.078289413452148438e+01 -5.604491073703601889e-14 9.607699564314481355e-14 1.200962445539310169e-14 3.302646513474866152e-14
3.810000000000000000e+03 3.745945739746093750e+01 -4.077585601806640625e+01 0.000000000000000000e+00 4.003208151797700565e-14 1.200962445539310169e-14 9.007217918028352643e-15
3.811000000000000000e+03 4.107872390747070312e+01 -3.380607604980468750e+01 -3.002405859738391247e-14 9.007218256841531545e-14 1.801443583605670529e-14 6.305052373213257400e-14
3.812000000000000000e+03 6.162199020385742188e+01 -3.700221633911132812e+01 -9.857899544406245607e-14 1.235990476633475055e-13 7.506014649345978118e-15 1.501202929869195624e-14
3.813000000000000000e+03 6.543173217773437500e+01 -3.726829910278320312e+01 -8.556856937423640286e-14 1.005806020610601481e-13 4.503608959014176322e-15 -2.101684237342145434e-14
3.814000000000000000e+03 6.607570648193359375e+01 -2.864027023315429688e+01 -7.230794332431858540e-14 1.476182931860019198e-14 -1.726383420171551802e-14 -3.702967498061225660e-14
3.815000000000000000e+03 6.449218750000000000e+01 -2.889175224304199219e+01 -5.004010105043830980e-14 7.005614350349270714e-14 6.004812227696550847e-15 -4.003208151797700565e-14
3.816000000000000000e+03 6.475169372558593750e+01 -1.415641498565673828e+01 9.607699564314481355e-14 -9.607699564314481355e-14 0.000000000000000000e+00 -1.080866150163402317e-13
3.817000000000000000e+03 6.430406188964843750e+01 -8.611681938171386719e+00 2.642117210779892922e-13 2.962373998448980528e-13 1.681347389873716347e-13 1.841475648182988589e-13
3.818000000000000000e+03 6.434356689453125000e+01 -8.132390975952148438e+00 2.722181475459800604e-13 -1.120898214740720378e-13 4.803849782157240678e-14 7.205774334422682115e-14
3.819000000000000000e+03 7.054521179199218750e+01 -3.585075378417968750e+01 -8.106496295632106830e-14 1.100882199392720293e-14 -2.101684237342145434e-14 -1.701363422162375377e-14
3.820000000000000000e+03 7.182650756835937500e+01 -3.160673522949218750e+01 -6.805453688649501509e-14 -5.204170427930421283e-14 -3.602887167211341057e-14 -1.901523745048965680e-14
3.821000000000000000e+03 7.263467407226562500e+01 -2.333527755737304688e+01 7.005614350349270714e-14 3.002405859738391247e-14 3.002405859738391247e-14 -1.681347389873716347e-13
3.822000000000000000e+03 7.342568206787109375e+01 -1.978431510925292969e+01 -2.001604042017532392e-13 -4.003208151797700565e-14 -7.205774334422682115e-14 -6.405133042876320904e-14
3.823000000000000000e+03 7.451313781738281250e+01 -8.220027923583984375e+00 8.406736949368581735e-14 3.602887167211341057e-14 3.602887167211341057e-14 4.003208151797700565e-14
3.824000000000000000e+03 7.227941894531250000e+01 -8.183736801147460938e+00 3.202566521438160452e-14 -3.202566521438160452e-14 0.000000000000000000e+00 -1.601283260719080226e-13
3.825000000000000000e+03 6.988246154785156250e+01 -8.162060737609863281e+00 4.523625126828106913e-13 4.683753385137379155e-13 2.762213472274482884e-13 -1.040834085586084257e-13
3.826000000000000000e+03 6.785906982421875000e+01 -8.135646820068359375e+00 1.441154866884536423e-13 1.601283260719080226e-14 4.803849782157240678e-14 -1.601283260719080226e-14
3.827000000000000000e+03 6.735697937011718750e+01 -8.133931159973144531e+00 2.321860694161348437e-13 8.006416303595401129e-15 7.205774334422682115e-14 8.006416303595401129e-14
3.828000000000000000e+03 7.846587371826171875e+01 -3.711764907836914062e+01 -1.401122768425900472e-14 -6.004812227696550847e-15 -6.004812227696550847e-15 -4.803849782157240678e-14
3.829000000000000000e+03 7.816105651855468750e+01 -3.799784469604492188e+01 -6.805453688649501509e-14 -2.121700303512122354e-13 -8.406736949368581735e-14 -4.803849782157240678e-14
3.830000000000000000e+03 7.867853546142578125e+01 -3.240478515625000000e+01 4.003208151797700565e-14 -1.200962343895356499e-13 -2.401924891078620339e-14 -6.004811719476782494e-14
3.831000000000000000e+03 7.889098358154296875e+01 -2.510428428649902344e+01 -1.441154866884536423e-13 -3.362694779747432694e-13 -1.441154866884536423e-13 1.200962445539310169e-14
3.832000000000000000e+03 7.823257446289062500e+01 -1.777518081665039062e+01 1.361090737729900302e-13 1.040834085586084257e-13 7.205774334422682115e-14 -1.200962343895356499e-13
3.833000000000000000e+03 7.529959106445312500e+01 -8.916443824768066406e+00 1.361090737729900302e-13 1.040834085586084257e-13 7.205774334422682115e-14 -1.321058605389946461e-13
3.834000000000000000e+03 7.964698028564453125e+01 -1.229110527038574219e+01 2.602085213965210642e-14 -1.261010474642651480e-13 -3.002405859738391247e-14 -4.003208151797700565e-15
3.835000000000000000e+03 7.600841522216796875e+01 -8.245237350463867188e+00 -4.003208151797700565e-14 1.200962343895356499e-13 2.401924891078620339e-14 4.003208151797700565e-14
3.836000000000000000e+03 7.455435943603515625e+01 -8.879632949829101562e+00 7.205774334422682115e-14 -1.521218996039172544e-13 -2.401924891078620339e-14 -9.207378240914942946e-14
3.837000000000000000e+03 3.139212036132812500e+01 -8.520674705505371094e+00 1.401122870069854143e-13 -2.602085213965210642e-13 -3.602887167211341057e-14 1.441154866884536423e-13
3.838000000000000000e+03 2.834190559387207031e+01 -8.526618003845214844e+00 -7.606094980195862720e-14 -1.240994476235310340e-13 -6.004811719476782494e-14 1.040834085586084257e-13
3.839000000000000000e+03 2.525231933593750000e+01 -8.417310714721679688e+00 -6.004811719476782494e-14 -3.002405995263662808e-13 -1.080866150163402317e-13 4.003208151797700565e-14
3.840000000000000000e+03 2.260734367370605469e+01 -8.658764839172363281e+00 6.004811719476782494e-14 -2.001604075898850282e-14 1.200962445539310169e-14 4.003208151797700565e-14
3.841000000000000000e+03 3.039268875122070312e+01 -9.001101493835449219e+00 -8.807057595141762341e-14 8.006416303595401129e-15 -2.401924891078620339e-14 8.006416303595401129e-15
3.842000000000000000e+03 2.993241119384765625e+01 -1.469883251190185547e+01 1.200962445539310169e-14 -1.321058605389946461e-13 -3.602887167211341057e-14 4.003208151797700565e-14
3.843000000000000000e+03 4.385931015014648438e+01 -8.665696144104003906e+00 2.722181475459800604e-13 -1.120898214740720378e-13 4.803849782157240678e-14 5.604491073703601889e-14
3.844000000000000000e+03 4.536382675170898438e+01 -8.204886436462402344e+00 3.963175816169839383e-13 -1.961571909677578551e-13 6.004811719476782494e-14 2.401924891078620339e-14
3.845000000000000000e+03 5.534318161010742188e+01 -1.574271583557128906e+01 6.004811719476782494e-14 -2.001604075898850282e-14 1.200962445539310169e-14 4.803849782157240678e-14
3.846000000000000000e+03 4.338766098022460938e+01 -8.221023559570312500e+00 4.803849782157240678e-14 -2.081668171172168513e-13 -4.803849782157240678e-14 -4.003208151797700565e-14
3.847000000000000000e+03 4.175841140747070312e+01 -1.640860557556152344e+01 1.000802021008766196e-13 2.001604075898850282e-14 3.602887167211341057e-14 2.201764398785440585e-14
3.848000000000000000e+03 4.280492401123046875e+01 -2.382994079589843750e+01 -9.757819552369539906e-14 7.255814330441034965e-14 -7.506014649345978118e-15 6.605293026949732305e-14
3.849000000000000000e+03 5.166725158691406250e+01 -2.278773117065429688e+01 3.853087824929463112e-14 1.651323256737433076e-14 1.651323256737433076e-14 3.202566521438160452e-14
3.850000000000000000e+03 5.026013565063476562e+01 -3.086648368835449219e+01 -7.556054984177509870e-14 1.506206997233666689e-13 2.251804564210382886e-14 5.604491073703601889e-14
3.851000000000000000e+03 5.050333023071289062e+01 -3.404104614257812500e+01 -6.154932385158198849e-14 1.165934346682509504e-13 1.651323256737433076e-14 2.902325867701685547e-14
3.852000000000000000e+03 5.095155334472656250e+01 -9.094624519348144531e+00 1.681347389873716347e-13 -2.481988952470620680e-13 -2.401924891078620339e-14 8.006416303595401129e-14
3.853000000000000000e+03 5.188158035278320312e+01 -8.132441520690917969e+00 2.522020949285302960e-13 -2.121700303512122354e-13 1.200962445539310169e-14 0.000000000000000000e+00
3.854000000000000000e+03 5.761837005615234375e+01 -8.147143363952636719e+00 1.921539912862896271e-13 1.281026608575264181e-13 9.607699564314481355e-14 8.006416303595401129e-15
3.855000000000000000e+03 3.607878112792968750e+01 -1.512153244018554688e+01 -1.120898214740720378e-13 1.120898214740720378e-13 0.000000000000000000e+00 -1.361090737729900302e-13
3.856000000000000000e+03 4.955085754394531250e+01 -1.468409252166748047e+01 1.921539912862896271e-13 1.281026608575264181e-13 9.607699564314481355e-14 1.801443651368306309e-13
3.857000000000000000e+03 4.910582351684570312e+01 -2.362005043029785156e+01 6.004812227696550847e-15 -6.605293026949732305e-14 -1.801443583605670529e-14 2.001604075898850282e-15
3.858000000000000000e+03 6.333306884765625000e+01 -8.140102386474609375e+00 2.001604042017532392e-13 4.003208151797700565e-14 7.205774334422682115e-14 8.006416303595401129e-15
3.859000000000000000e+03 7.039774322509765625e+01 -8.171671867370605469e+00 2.321860694161348437e-13 8.006416303595401129e-15 7.205774334422682115e-14 7.205774334422682115e-14
3.860000000000000000e+03 1.474794578552246094e+01 -2.267357635498046875e+01 -7.606094980195862720e-14 -2.041636038832214672e-13 -8.406736949368581735e-14 7.806255641895631925e-14
3.861000000000000000e+03 7.821269035339355469e+00 -2.404997825622558594e+01 3.142518255165593910e-13 -1.741395520621011328e-13 4.203368474684290867e-14 -4.803849782157240678e-14
3.862000000000000000e+03 6.024388885498046875e+01 -1.731055831909179688e+01 1.341074739322559162e-13 4.603689120457471473e-14 5.404330750817011586e-14 -1.200962445539310169e-14
3.863000000000000000e+03 7.316752624511718750e+01 -1.718174934387207031e+01 1.541235129971785245e-13 6.605293026949732305e-14 6.605293026949732305e-14 -2.682149478645118323e-13
3.864000000000000000e+03 4.436814880371093750e+01 -1.454957294464111328e+01 1.050842084789754827e-13 4.503609128420765773e-14 4.503609128420765773e-14 9.607699564314481355e-14
3.865000000000000000e+03 7.964459991455078125e+01 -1.792107963562011719e+01 1.000802037949425141e-14 -1.100882216333379238e-13 -3.002405859738391247e-14 -4.803849782157240678e-14
3.866000000000000000e+03 4.139758646488189697e-01 -3.004890632629394531e+01 1.301042606982605321e-13 1.701363388281057487e-13 9.007218256841531545e-14 0.000000000000000000e+00
3.867000000000000000e+03 1.449702835083007812e+01 -3.275965881347656250e+01 6.905533680686207210e-14 -7.906335633932337625e-14 -3.002406113848275424e-15 1.901523745048965680e-14
3.868000000000000000e+03 5.821624755859375000e+00 -3.134117507934570312e+01 1.055846084391590112e-13 5.954771723458429644e-14 4.953969770212299228e-14 -3.627907165220517482e-14
3.869000000000000000e+03 6.577205657958984375e+01 -2.672543334960937500e+01 -4.303448466720996568e-14 7.305854326459387815e-14 9.007217918028352643e-15 -1.200962445539310169e-14
3.870000000000000000e+03 7.373823547363281250e+01 -2.612581634521484375e+01 -9.732799554360363481e-14 -1.203464411458909922e-13 -6.530233032922203029e-14 -5.229190425939597708e-14
3.871000000000000000e+03 7.888419342041015625e+01 -2.590864181518554688e+01 1.521218996039172544e-13 -2.321860694161348437e-13 -2.401924891078620339e-14 -8.807057595141762341e-14
3.872000000000000000e+03 2.433093643188476562e+01 -3.359643554687500000e+01 4.203368474684290867e-14 -4.203368474684290867e-14 0.000000000000000000e+00 3.602887167211341057e-14
3.873000000000000000e+03 2.706049537658691406e+01 -3.251326370239257812e+01 1.751403460532375590e-15 7.506015284620688559e-16 7.506015284620688559e-16 3.202566521438160452e-14
3.874000000000000000e+03 6.465409088134765625e+01 -3.187793159484863281e+01 -6.605293026949732305e-14 8.606896933441993136e-14 6.004812227696550847e-15 -2.401924891078620339e-14
3.875000000000000000e+03 7.336252593994140625e+01 -3.169937324523925781e+01 -4.253408470702643718e-14 -1.326062604991781746e-13 -5.254210423948774134e-14 -1.160930347080674219e-13
3.876000000000000000e+03 7.872363281250000000e+01 -3.158275413513183594e+01 -6.204972381176551699e-14 -1.180946345488015359e-13 -5.404330750817011586e-14 -4.803849782157240678e-14
3.877000000000000000e+03 1.669904899597167969e+01 -9.649475097656250000e+00 -1.611291259922750796e-13 -1.090874217129708668e-13 -8.106496295632106830e-14 1.000802037949425141e-15
3.878000000000000000e+03 1.681937980651855469e+01 -1.074330806732177734e+01 -9.607699564314481355e-14 -2.241796429481440756e-13 -9.607699564314481355e-14 -7.205774334422682115e-14
3.879000000000000000e+03 1.627884864807128906e+01 -1.031716537475585938e+01 7.906335633932337625e-14 -2.902325867701685547e-14 1.501202929869195624e-14 -6.505213034913026604e-14
3.880000000000000000e+03 1.409692001342773438e+01 -1.362914276123046875e+01 -7.068164260668917051e-15 -6.986848843622620042e-14 -2.308099559731029843e-14 -9.176103073996882964e-14
3.881000000000000000e+03 1.358412265777587891e+01 -1.524129867553710938e+01 -2.057899071419497239e-13 -5.316760757784894098e-14 -7.768725306068688385e-14 -2.314354559233323949e-14
3.882000000000000000e+03 1.358735275268554688e+01 -1.423821640014648438e+01 -1.997850940672202258e-13 -3.915637819952404175e-14 -7.168244676222096379e-14 1.751403460532375590e-15
3.883000000000000000e+03 1.252016162872314453e+01 -1.538429641723632812e+01 -1.637562291713703932e-13 -1.152173246133508799e-13 -8.369206613541638196e-14 2.289334561224147524e-14
3.884000000000000000e+03 1.150233459472656250e+01 -1.655957603454589844e+01 -1.701363388281057487e-13 -1.301042606982605321e-13 -9.007218256841531545e-14 -6.705373696612795809e-14
3.885000000000000000e+03 1.048351097106933594e+01 -1.766915130615234375e+01 -2.662133209187234062e-13 -1.140914348673333079e-13 -1.140914348673333079e-13 -1.701363388281057487e-13
3.886000000000000000e+03 7.237243175506591797e+00 -1.486038589477539062e+01 -5.004010105043830980e-14 -1.531227076558006051e-12 -4.743801380359402575e-13 -2.481988952470620680e-13
3.887000000000000000e+03 7.550056934356689453e+00 -1.405842399597167969e+01 -1.761411519028352468e-13 -1.265013701429174020e-12 -4.323464600653609269e-13 -2.882309733769072846e-13
3.888000000000000000e+03 7.920908927917480469e+00 -1.332929992675781250e+01 -2.001604042017532392e-13 -8.406736678318038614e-13 -3.122502256758252770e-13 -3.442758773376797254e-13
3.889000000000000000e+03 9.660284042358398438e+00 -1.065778064727783203e+01 -5.004010105043830980e-14 -3.302646513474866152e-13 -1.140914348673333079e-13 -2.962373998448980528e-13
3.890000000000000000e+03 1.059943389892578125e+01 -9.382656097412109375e+00 -1.251002475438980910e-13 -3.452767043631010946e-13 -1.411130869273524713e-13 -2.892317732972743416e-13
3.891000000000000000e+03 1.156815242767333984e+01 -8.142337799072265625e+00 -5.104090097080536681e-14 4.103288143834406265e-14 -3.002406113848275424e-15 -1.371098736933570872e-13
3.892000000000000000e+03 1.098873424530029297e+01 -1.854173541069030762e+00 -1.441154866884536423e-13 -1.761411519028352468e-13 -9.607699564314481355e-14 1.200962343895356499e-13
3.893000000000000000e+03 1.301932907104492188e+01 -4.716257095336914062e+00 2.001604075898850282e-14 -2.201764432666758475e-13 -6.004811719476782494e-14 9.607699564314481355e-14
3.894000000000000000e+03 1.231799125671386719e+01 -4.525773048400878906e+00 4.003208151797700565e-15 -4.403528797570881170e-14 -1.200962445539310169e-14 6.605293026949732305e-14
3.895000000000000000e+03 1.491049671173095703e+01 -2.070896625518798828e+00 7.005614350349270714e-14 3.002405859738391247e-14 3.002405859738391247e-14 4.003208151797700565e-15
3.896000000000000000e+03 1.408608055114746094e+01 -2.013983964920043945e+00 4.203368474684290867e-14 -1.421138868477195283e-13 -3.002405859738391247e-14 -4.403528797570881170e-14
3.897000000000000000e+03 1.327312469482421875e+01 -1.968691825866699219e+00 -9.607699564314481355e-14 9.607699564314481355e-14 0.000000000000000000e+00 -2.802245536851800944e-14
3.898000000000000000e+03 1.373285007476806641e+01 -4.912831783294677734e+00 6.805453688649501509e-14 -1.080866150163402317e-13 -1.200962445539310169e-14 2.401924891078620339e-14
3.899000000000000000e+03 9.457263946533203125e+00 -1.803628921508789062e+00 -3.402726844324750755e-14 -4.263416605431585849e-13 -1.381106736137241442e-13 -4.403528797570881170e-14
3.900000000000000000e+03 1.023793983459472656e+01 -1.821439385414123535e+00 8.006416303595401129e-15 7.205774334422682115e-14 2.401924891078620339e-14 6.004811719476782494e-14
3.901000000000000000e+03 8.644376754760742188e+00 -1.804341197013854980e+00 -9.607699564314481355e-14 9.607699564314481355e-14 0.000000000000000000e+00 -9.207378240914942946e-14
3.902000000000000000e+03 6.186561584472656250e+00 -1.819849371910095215e+00 8.006416303595401129e-15 -8.807057595141762341e-14 -2.401924891078620339e-14 -1.080866150163402317e-13
3.903000000000000000e+03 3.757722377777099609e+00 -1.791427850723266602e+00 -2.001604075898850282e-14 2.201764432666758475e-13 6.004811719476782494e-14 -1.921539912862896271e-13
3.904000000000000000e+03 1.079347014427185059e+00 -6.722162723541259766e+00 -2.401924891078620339e-14 5.844683461167510252e-13 1.681347389873716347e-13 -4.003208151797700565e-15
3.905000000000000000e+03 1.054555296897888184e+00 -8.319014549255371094e+00 -1.020818019416107336e-13 4.823865916089853378e-13 1.140914348673333079e-13 -1.601283260719080226e-14
3.906000000000000000e+03 4.532922744750976562e+00 -2.408730745315551758e+00 -1.200962445539310169e-14 -1.881507780522942430e-13 -6.004811719476782494e-14 -4.003208151797700565e-14
3.907000000000000000e+03 3.798866748809814453e+00 -2.377027750015258789e+00 -6.004811719476782494e-14 2.001604075898850282e-14 -1.200962445539310169e-14 -1.200962343895356499e-13
3.908000000000000000e+03 8.672907352447509766e-01 -2.340988397598266602e+00 5.054050101062183831e-14 -1.155926347478838934e-13 -1.951563910473907981e-14 4.403528797570881170e-14
3.909000000000000000e+03 3.313192427158355713e-01 -1.897929787635803223e+00 -2.802245536851800944e-14 -1.200962445539310169e-14 -1.200962445539310169e-14 2.401924891078620339e-14
3.910000000000000000e+03 4.545170664787292480e-01 -4.204470062255859375e+01 3.202566521438160452e-14 -3.202566521438160452e-14 0.000000000000000000e+00 -1.601283260719080226e-14
3.911000000000000000e+03 5.765736103057861328e-01 -4.118855667114257812e+01 -5.204170427930421283e-14 9.207378240914942946e-14 1.200962445539310169e-14 -6.805453688649501509e-14
3.912000000000000000e+03 5.841168761253356934e-01 -4.038982009887695312e+01 -3.502807175174635357e-14 -1.501202929869195624e-14 -1.501202929869195624e-14 -3.602887167211341057e-14
3.913000000000000000e+03 5.021290779113769531e-01 -3.879558563232421875e+01 1.601283260719080226e-14 1.441154866884536423e-13 4.803849782157240678e-14 0.000000000000000000e+00
3.914000000000000000e+03 5.497092008590698242e-01 -3.959179687500000000e+01 -4.803849782157240678e-14 -1.120898214740720378e-13 -4.803849782157240678e-14 -1.200962445539310169e-14
3.915000000000000000e+03 4.220427870750427246e-01 -3.721290588378906250e+01 -1.341074739322559162e-13 3.402726844324750755e-14 -3.002405859738391247e-14 -4.403528797570881170e-14
3.916000000000000000e+03 3.948270976543426514e-01 -3.563420486450195312e+01 -1.341074739322559162e-13 3.402726844324750755e-14 -3.002405859738391247e-14 -5.204170427930421283e-14
3.917000000000000000e+03 3.983273208141326904e-01 -3.484133148193359375e+01 1.220978477827969200e-13 9.807859548387892756e-14 6.605293026949732305e-14 6.805453688649501509e-14
3.918000000000000000e+03 4.021632671356201172e-01 -3.404968643188476562e+01 1.801443583605670529e-14 -3.803047490097931360e-14 -6.004812227696550847e-15 -5.204170427930421283e-14
3.919000000000000000e+03 4.034433662891387939e-01 -3.325503540039062500e+01 1.401122768425900472e-14 6.004812227696550847e-15 6.004812227696550847e-15 -2.001604075898850282e-14
3.920000000000000000e+03 4.047512710094451904e-01 -3.245651245117187500e+01 4.003208151797700565e-15 -4.403528797570881170e-14 -1.200962445539310169e-14 3.202566521438160452e-14
3.921000000000000000e+03 1.230564475059509277e+00 -3.403767013549804688e+01 5.204170427930421283e-14 6.805453688649501509e-14 3.602887167211341057e-14 1.080866150163402317e-13
3.922000000000000000e+03 4.083027243614196777e-01 -3.165663909912109375e+01 0.000000000000000000e+00 -1.601283260719080226e-13 -4.803849782157240678e-14 4.003208151797700565e-15
3.923000000000000000e+03 4.115434587001800537e-01 -2.923988151550292969e+01 3.602887167211341057e-14 2.441956955655938399e-13 8.406736949368581735e-14 -4.003208151797700565e-14
3.924000000000000000e+03 4.066532850265502930e-01 -2.842983055114746094e+01 1.000802021008766196e-13 1.801443651368306309e-13 8.406736949368581735e-14 -5.204170427930421283e-14
3.925000000000000000e+03 4.003086090087890625e-01 -2.762042617797851562e+01 -1.801443583605670529e-14 3.582871304329271478e-13 1.020818019416107336e-13 -4.003208151797700565e-14
3.926000000000000000e+03 3.939899504184722900e-01 -2.681281661987304688e+01 1.781427517435693608e-13 4.423544863740858091e-13 1.861491782115601290e-13 4.003208151797700565e-15
3.927000000000000000e+03 3.882759511470794678e-01 -2.600684547424316406e+01 -1.461170865291877563e-13 4.863897912904535659e-13 1.020818019416107336e-13 -8.406736949368581735e-14
3.928000000000000000e+03 3.829155564308166504e-01 -2.520230293273925781e+01 -2.401924891078620339e-14 5.844683461167510252e-13 1.681347389873716347e-13 3.602887167211341057e-14
3.929000000000000000e+03 1.182402133941650391e+00 -2.678411865234375000e+01 1.200962445539310169e-14 5.084074437486374443e-13 1.561251128379126385e-13 -1.120898214740720378e-13
3.930000000000000000e+03 3.773358166217803955e-01 -2.439890480041503906e+01 -5.404330750817011586e-14 7.546047120499110861e-13 2.101684169579509653e-13 2.401924891078620339e-14
3.931000000000000000e+03 3.618414402008056641e-01 -2.199144554138183594e+01 8.606896933441993136e-14 1.134909440730913488e-12 3.662935297958636038e-13 -5.604491073703601889e-14
3.932000000000000000e+03 3.593589365482330322e-01 -2.118752288818359375e+01 -7.205774334422682115e-14 1.112891788272729610e-12 3.122502256758252770e-13 4.003208151797700565e-15
3.933000000000000000e+03 3.590952455997467041e-01 -2.038195800781250000e+01 1.000802021008766196e-13 1.140914294463224454e-12 3.722983564231202580e-13 1.601283260719080226e-14
3.934000000000000000e+03 3.604140579700469971e-01 -1.957506179809570312e+01 -7.806255641895631925e-14 1.178944745647281245e-12 3.302646513474866152e-13 3.602887167211341057e-14
3.935000000000000000e+03 1.070101976394653320e+00 -2.036160659790039062e+01 -5.404330750817011586e-14 9.147330245692919526e-13 2.582069215557869502e-13 -1.160930347080674219e-13
3.936000000000000000e+03 3.620471656322479248e-01 -1.795999908447265625e+01 -7.806255641895631925e-14 1.339073058166662111e-12 3.783031559453226000e-13 5.604491073703601889e-14
3.937000000000000000e+03 3.708657026290893555e-01 -1.554143619537353516e+01 -2.001604075898850282e-14 1.341074712217504850e-12 3.963175816169839383e-13 1.160930347080674219e-13
3.938000000000000000e+03 3.689574897289276123e-01 -1.473725318908691406e+01 -4.603689120457471473e-14 1.307047460714916287e-12 3.783031559453226000e-13 1.601283260719080226e-14
3.939000000000000000e+03 3.606659173965454102e-01 -1.393473815917968750e+01 -7.405934996122451319e-14 1.295037753250294355e-12 3.662935297958636038e-13 8.406736949368581735e-14
3.940000000000000000e+03 1.115173339843750000e+00 -1.467449188232421875e+01 1.009741958682895111e-28 9.607698751162851991e-13 2.882309733769072846e-13 2.121700303512122354e-13
3.941000000000000000e+03 3.354465067386627197e-01 -1.153307533264160156e+01 1.060850151756061177e-13 9.147330245692919526e-13 3.062454261536229350e-13 -1.200962445539310169e-14
3.942000000000000000e+03 3.380995988845825195e-01 -1.073404216766357422e+01 -4.803849782157240678e-14 8.486801214048489417e-13 2.401924687790712998e-13 -3.202566521438160452e-14
3.943000000000000000e+03 3.506140410900115967e-01 -8.327385902404785156e+00 -4.003208151797700565e-15 6.845485549938912229e-13 2.041636038832214672e-13 3.602887167211341057e-14
3.944000000000000000e+03 3.539123237133026123e-01 -7.525146484375000000e+00 5.204170427930421283e-14 7.085678072928092153e-13 2.281828697346666157e-13 2.802245536851800944e-14
3.945000000000000000e+03 3.559412658214569092e-01 -6.723919868469238281e+00 9.607699564314481355e-14 5.444362950919601207e-13 1.921539912862896271e-13 3.602887167211341057e-14
3.946000000000000000e+03 3.544607162475585938e-01 -5.924110412597656250e+00 -5.204170427930421283e-14 5.724587470723463412e-13 1.561251128379126385e-13 -1.200962445539310169e-14
3.947000000000000000e+03 3.482442200183868408e-01 -5.127813816070556641e+00 -4.803849782157240678e-14 5.284234421559785844e-13 1.441154866884536423e-13 1.040834085586084257e-13
3.948000000000000000e+03 3.411439061164855957e-01 -4.332109451293945312e+00 3.602887167211341057e-14 5.644523477094098851e-13 1.801443651368306309e-13 1.160930347080674219e-13
3.949000000000000000e+03 3.170945048332214355e-01 -2.687327623367309570e+00 1.040834085586084257e-13 1.361090737729900302e-13 7.205774334422682115e-14 2.401924891078620339e-14
3.950000000000000000e+03 7.957102966308593750e+01 -4.204555130004882812e+01 -6.004811719476782494e-14 -1.401122870069854143e-13 -6.004811719476782494e-14 -4.003208151797700565e-15
3.951000000000000000e+03 7.951631927490234375e+01 -4.119924163818359375e+01 4.003208151797700565e-15 -3.642919299551294898e-13 -1.080866150163402317e-13 3.602887167211341057e-14
3.952000000000000000e+03 7.494905090332031250e+01 -3.806578063964843750e+01 -8.506816941405287436e-14 -2.251804564210382886e-13 -9.307458910578006450e-14 -2.301844560228735737e-14
3.953000000000000000e+03 3.240559768676757812e+01 -4.053947448730468750e+01 8.256616283687165381e-15 9.257418745153064149e-15 5.254210593355363584e-15 1.200962445539310169e-14
3.954000000000000000e+03 1.324746894836425781e+01 -4.097034454345703125e+01 4.553649124439118623e-14 1.951563910473907981e-14 1.951563910473907981e-14 -2.201764398785440585e-14
3.955000000000000000e+03 1.830687403678894043e+00 -4.014996719360351562e+01 -1.901523745048965680e-14 1.291034607778934751e-13 3.302646513474866152e-14 -1.200962445539310169e-14
3.956000000000000000e+03 1.576042890548706055e+00 -4.196227264404296875e+01 -7.005613842129502361e-15 -3.002406113848275424e-15 -3.002406113848275424e-15 -1.200962445539310169e-14
3.957000000000000000e+03 7.964271545410156250e+01 -8.293863296508789062e+00 7.405934996122451319e-14 -1.401122768425900472e-14 1.801443583605670529e-14 -4.003208151797700565e-15
3.958000000000000000e+03 7.893933868408203125e+01 -9.065818786621093750e+00 9.007218256841531545e-14 1.301042606982605321e-13 6.605293026949732305e-14 -8.807057595141762341e-14
3.959000000000000000e+03 7.820758819580078125e+01 -8.276693344116210938e+00 8.006416303595401129e-14 8.006416303595401129e-14 4.803849782157240678e-14 -8.006416303595401129e-15
3.960000000000000000e+03 7.964952087402343750e+01 -9.889385223388671875e+00 9.807859548387892756e-14 4.203368474684290867e-14 4.203368474684290867e-14 1.200962445539310169e-14
3.961000000000000000e+03 7.964857482910156250e+01 -1.148955917358398438e+01 -4.803849782157240678e-14 -1.120898214740720378e-13 -4.803849782157240678e-14 -4.003208151797700565e-15
3.962000000000000000e+03 7.964463043212890625e+01 -1.389654731750488281e+01 3.602887167211341057e-14 -7.606094980195862720e-14 -1.200962445539310169e-14 2.802245536851800944e-14
3.963000000000000000e+03 7.964447784423828125e+01 -1.470014858245849609e+01 -8.206576287668812530e-14 -5.804651735403371093e-14 -4.203368474684290867e-14 4.003208151797700565e-14
3.964000000000000000e+03 7.964453125000000000e+01 -1.550447177886962891e+01 1.060850151756061177e-13 1.140914348673333079e-13 6.605293026949732305e-14 1.601283260719080226e-14
3.965000000000000000e+03 7.893392944335937500e+01 -1.542843818664550781e+01 6.004812227696550847e-15 -6.605293026949732305e-14 -1.801443583605670529e-14 -4.403528797570881170e-14
3.966000000000000000e+03 7.964476013183593750e+01 -1.711536979675292969e+01 -7.405934996122451319e-14 -1.461170865291877563e-13 -6.605293026949732305e-14 3.602887167211341057e-14
3.967000000000000000e+03 7.964306640625000000e+01 -1.953257751464843750e+01 7.205774334422682115e-14 -3.122502256758252770e-13 -7.205774334422682115e-14 1.601283260719080226e-14
3.968000000000000000e+03 7.964199829101562500e+01 -2.033751678466796875e+01 -9.007218256841531545e-14 -4.503609128420765773e-13 -1.621299259126421366e-13 8.006416303595401129e-15
3.969000000000000000e+03 7.964053344726562500e+01 -2.114261054992675781e+01 3.602887167211341057e-14 -5.564458941363648048e-13 -1.561251128379126385e-13 -4.003208151797700565e-14
3.970000000000000000e+03 7.963883972167968750e+01 -2.194770050048828125e+01 -5.004010105043830980e-14 -4.103288347122313606e-13 -1.381106736137241442e-13 4.003208151797700565e-15
3.971000000000000000e+03 7.891854095458984375e+01 -2.188195037841796875e+01 -3.402726844324750755e-14 -4.263416605431585849e-13 -1.381106736137241442e-13 -1.601283260719080226e-14
3.972000000000000000e+03 7.963485717773437500e+01 -2.355778121948242188e+01 5.004010105043830980e-14 -3.903127820947815962e-13 -1.020818019416107336e-13 2.401924891078620339e-14
3.973000000000000000e+03 7.962781524658203125e+01 -2.597204208374023438e+01 -1.661331391466375207e-13 -4.143320343936995886e-13 -1.741395520621011328e-13 7.606094980195862720e-14
3.974000000000000000e+03 7.962565612792968750e+01 -2.677614593505859375e+01 2.582069215557869502e-13 -2.782229470681824024e-13 -6.004812227696550847e-15 -5.204170427930421283e-14
3.975000000000000000e+03 7.962321472167968750e+01 -2.758020401000976562e+01 -1.060850151756061177e-13 -2.742197473867141744e-13 -1.140914348673333079e-13 -4.003208151797700565e-15
3.976000000000000000e+03 7.887876129150390625e+01 -2.671139907836914062e+01 -1.180946345488015359e-13 -4.623705389915355735e-13 -1.741395520621011328e-13 -3.602887167211341057e-14
3.977000000000000000e+03 7.961289978027343750e+01 -2.919117355346679688e+01 -3.803047490097931360e-14 -3.823063556267908281e-13 -1.261010474642651480e-13 -2.401924891078620339e-14
3.978000000000000000e+03 7.957303619384765625e+01 -3.162236404418945312e+01 1.801443583605670529e-14 -3.803047490097931360e-14 -6.004812227696550847e-15 3.602887167211341057e-14
3.979000000000000000e+03 7.956015777587890625e+01 -3.243200302124023438e+01 5.004010105043830980e-14 -7.005614350349270714e-14 -6.004812227696550847e-15 6.405133042876320904e-14
3.980000000000000000e+03 7.955106353759765625e+01 -3.323992919921875000e+01 -8.206576287668812530e-14 -3.783031559453226000e-13 -1.381106736137241442e-13 -2.401924891078620339e-14
3.981000000000000000e+03 7.954390716552734375e+01 -3.485176086425781250e+01 7.806255641895631925e-14 -2.181748434259417335e-13 -4.203368474684290867e-14 4.003208151797700565e-14
3.982000000000000000e+03 7.948062896728515625e+01 -3.725807571411132812e+01 -2.281828697346666157e-13 -3.722983564231202580e-13 -1.801443651368306309e-13 2.401924891078620339e-14
3.983000000000000000e+03 7.940282440185546875e+01 -3.811548995971679688e+01 1.140914348673333079e-13 -2.942358000041639388e-13 -5.404330750817011586e-14 1.601283260719080226e-14
3.984000000000000000e+03 7.950970458984375000e+01 -3.893116760253906250e+01 -1.801443583605670529e-14 -1.220978477827969200e-13 -4.203368474684290867e-14 2.001604075898850282e-14
3.985000000000000000e+03 7.955510711669921875e+01 -4.041021347045898438e+01 -4.603689120457471473e-14 -2.942358000041639388e-13 -1.020818019416107336e-13 4.003208151797700565e-14
3.986000000000000000e+03 7.964760589599609375e+01 -9.090681076049804688e+00 -1.421138868477195283e-13 -3.803047490097931360e-14 -5.404330750817011586e-14 -8.006416303595401129e-15
3.987000000000000000e+03 7.748657226562500000e+01 -8.267436981201171875e+00 -2.401924891078620339e-14 2.642117210779892922e-13 7.205774334422682115e-14 8.006416303595401129e-15
3.988000000000000000e+03 7.526145935058593750e+01 -8.233153343200683594e+00 1.981587908084919691e-13 -9.807859548387892756e-14 3.002405859738391247e-14 -3.202566521438160452e-14
3.989000000000000000e+03 7.301947021484375000e+01 -8.193984031677246094e+00 1.461170865291877563e-13 1.541235129971785245e-13 9.007218256841531545e-14 -1.281026608575264181e-13
3.990000000000000000e+03 7.155225372314453125e+01 -8.179372787475585938e+00 3.142518255165593910e-13 -9.407538902614712151e-14 6.605293026949732305e-14 -7.606094980195862720e-14
3.991000000000000000e+03 6.991233825683593750e+01 -8.693536758422851562e+00 1.681347389873716347e-13 -2.481988952470620680e-13 -2.401924891078620339e-14 -7.205774334422682115e-14
3.992000000000000000e+03 6.886756896972656250e+01 -8.146288871765136719e+00 3.082470259943570490e-13 1.321058605389946461e-13 1.321058605389946461e-13 -2.481988952470620680e-13
3.993000000000000000e+03 6.836248779296875000e+01 -8.139729499816894531e+00 2.361892690976030718e-13 -3.562855034871387216e-13 -3.602887167211341057e-14 1.601283260719080226e-14
3.994000000000000000e+03 6.484661102294921875e+01 -8.131162643432617188e+00 8.006416303595401129e-15 2.321860694161348437e-13 7.205774334422682115e-14 -1.601283260719080226e-14
3.995000000000000000e+03 6.585108947753906250e+01 -8.131312370300292969e+00 2.321860694161348437e-13 8.006416303595401129e-15 7.205774334422682115e-14 -1.601283260719080226e-14
3.996000000000000000e+03 6.635295867919921875e+01 -8.131870269775390625e+00 4.123304345529654746e-13 -5.204170427930421283e-14 1.080866150163402317e-13 5.604491073703601889e-14
3.997000000000000000e+03 6.685502624511718750e+01 -8.132863044738769531e+00 3.923143819355157103e-13 -1.521218996039172544e-13 7.205774334422682115e-14 4.003208151797700565e-14
3.998000000000000000e+03 6.426719665527343750e+01 -9.089933395385742188e+00 -3.202566521438160452e-14 3.522823038056704936e-13 9.607699564314481355e-14 8.006416303595401129e-14
3.999000000000000000e+03 6.383942413330078125e+01 -8.135468482971191406e+00 2.081668171172168513e-13 2.722181475459800604e-13 1.441154866884536423e-13 -2.401924891078620339e-14
4.000000000000000000e+03 6.282264709472656250e+01 -8.144051551818847656e+00 3.843079825725792542e-13 -6.405133042876320904e-14 9.607699564314481355e-14 -4.803849782157240678e-14
4.001000000000000000e+03 6.230198669433593750e+01 -8.142653465270996094e+00 3.162534253572935050e-13 4.403528797570881170e-14 1.080866150163402317e-13 -6.405133042876320904e-14
4.002000000000000000e+03 5.949978637695312500e+01 -8.138368606567382812e+00 1.040834085586084257e-13 -5.044041898570605920e-13 -1.200962343895356499e-13 2.241796429481440756e-13
4.003000000000000000e+03 5.702076721191406250e+01 -8.142922401428222656e+00 1.361090737729900302e-13 -2.161732300326804634e-13 -2.401924891078620339e-14 -1.281026608575264181e-13
4.004000000000000000e+03 5.642969512939453125e+01 -8.138660430908203125e+00 6.805453688649501509e-14 -1.080866150163402317e-13 -1.200962445539310169e-14 -1.681347389873716347e-13
4.005000000000000000e+03 5.587978744506835938e+01 -8.135107994079589844e+00 1.521218996039172544e-13 -3.923143819355157103e-13 -7.205774334422682115e-14 5.604491073703601889e-14
4.006000000000000000e+03 5.337304306030273438e+01 -8.124115943908691406e+00 4.963977904941241359e-13 -1.601283260719080226e-14 1.441154866884536423e-13 -3.202566521438160452e-14
4.007000000000000000e+03 5.387027740478515625e+01 -8.123550415039062500e+00 2.321860694161348437e-13 -3.122502256758252770e-13 -2.401924891078620339e-14 3.042437992078345088e-13
4.008000000000000000e+03 5.486802291870117188e+01 -8.126723289489746094e+00 1.921539912862896271e-13 -1.921539912862896271e-13 0.000000000000000000e+00 1.681347389873716347e-13
4.009000000000000000e+03 5.237969970703125000e+01 -8.129295349121093750e+00 4.243400607024244708e-13 -5.044041898570605920e-13 -2.401924891078620339e-14 2.001604042017532392e-13
4.010000000000000000e+03 5.088508605957031250e+01 -8.140722274780273438e+00 2.161732300326804634e-13 -1.361090737729900302e-13 2.401924891078620339e-14 -2.401924891078620339e-14
4.011000000000000000e+03 5.138341140747070312e+01 -8.136193275451660156e+00 3.002405995263662808e-13 -1.000802021008766196e-13 6.004811719476782494e-14 -5.604491073703601889e-14
4.012000000000000000e+03 5.038557434082031250e+01 -8.145754814147949219e+00 1.441154866884536423e-13 1.601283260719080226e-14 4.803849782157240678e-14 -3.202566521438160452e-14
4.013000000000000000e+03 4.686964035034179688e+01 -8.271130561828613281e+00 2.762213472274482884e-13 1.641315257533762506e-13 1.321058605389946461e-13 6.004811719476782494e-14
4.014000000000000000e+03 4.739734649658203125e+01 -8.248498916625976562e+00 2.161732300326804634e-13 1.841475648182988589e-13 1.200962343895356499e-13 8.006416303595401129e-15
4.015000000000000000e+03 5.041268157958984375e+01 -8.624254226684570312e+00 2.562053217150528361e-13 6.405133042876320904e-14 9.607699564314481355e-14 -3.202566521438160452e-14
4.016000000000000000e+03 4.888504791259765625e+01 -8.164510726928710938e+00 3.602887302736612618e-13 5.204170427930421283e-13 2.642117210779892922e-13 -2.722181475459800604e-13
4.017000000000000000e+03 4.585570526123046875e+01 -8.211398124694824219e+00 1.641315257533762506e-13 1.160930347080674219e-13 8.406736949368581735e-14 2.962373998448980528e-13
4.018000000000000000e+03 4.487228775024414062e+01 -8.203970909118652344e+00 2.401924891078620339e-14 -2.642117210779892922e-13 -7.205774334422682115e-14 8.807057595141762341e-14
4.019000000000000000e+03 4.437865829467773438e+01 -8.206519126892089844e+00 1.361090737729900302e-13 -2.161732300326804634e-13 -2.401924891078620339e-14 -1.040834085586084257e-13
4.020000000000000000e+03 4.239641189575195312e+01 -8.242999076843261719e+00 1.601283260719080226e-13 -1.601283260719080226e-13 0.000000000000000000e+00 -1.361090737729900302e-13
4.021000000000000000e+03 4.140459823608398438e+01 -8.267691612243652344e+00 2.001604075898850282e-14 -2.201764432666758475e-13 -6.004811719476782494e-14 -2.401924687790712998e-13
4.022000000000000000e+03 4.288311004638671875e+01 -8.680000305175781250e+00 2.441956955655938399e-13 -1.240994476235310340e-13 3.602887167211341057e-14 -1.601283260719080226e-13
4.023000000000000000e+03 4.289203262329101562e+01 -8.231358528137207031e+00 7.606094980195862720e-14 -1.961571909677578551e-13 -3.602887167211341057e-14 4.003208151797700565e-14
4.024000000000000000e+03 3.841735839843750000e+01 -8.348753929138183594e+00 -2.682149478645118323e-13 6.805453688649501509e-14 -6.004811719476782494e-14 -1.361090737729900302e-13
4.025000000000000000e+03 3.991295242309570312e+01 -8.308685302734375000e+00 -6.004811719476782494e-14 2.001604075898850282e-14 -1.200962445539310169e-14 3.682951296365977178e-13
4.026000000000000000e+03 3.491664886474609375e+01 -8.445846557617187500e+00 1.921539912862896271e-13 1.281026608575264181e-13 9.607699564314481355e-14 -8.807057595141762341e-14
4.027000000000000000e+03 3.591799163818359375e+01 -8.418615341186523438e+00 -6.805453688649501509e-14 1.080866150163402317e-13 1.200962445539310169e-14 4.803849782157240678e-14
4.028000000000000000e+03 3.641846084594726562e+01 -8.404706954956054688e+00 1.240994476235310340e-13 2.361892690976030718e-13 1.080866150163402317e-13 7.205774334422682115e-14
4.029000000000000000e+03 3.891621017456054688e+01 -8.335620880126953125e+00 1.160930347080674219e-13 4.003208151797700565e-15 3.602887167211341057e-14 0.000000000000000000e+00
4.030000000000000000e+03 3.541785430908203125e+01 -8.432555198669433594e+00 2.001604042017532392e-13 4.003208151797700565e-14 7.205774334422682115e-14 5.604491073703601889e-14
4.031000000000000000e+03 3.340933609008789062e+01 -8.482885360717773438e+00 6.004811719476782494e-14 -2.001604075898850282e-14 1.200962445539310169e-14 -6.405133042876320904e-14
4.032000000000000000e+03 3.290616607666015625e+01 -8.494454383850097656e+00 3.242598518252842732e-13 -4.403528797570881170e-14 8.406736949368581735e-14 -8.807057595141762341e-14
4.033000000000000000e+03 3.240329742431640625e+01 -8.505831718444824219e+00 -1.601283260719080226e-14 -1.441154866884536423e-13 -4.803849782157240678e-14 2.161732300326804634e-13
4.034000000000000000e+03 2.936452293395996094e+01 -8.538563728332519531e+00 8.807057595141762341e-14 -3.282630515067525012e-13 -7.205774334422682115e-14 1.441154866884536423e-13
4.035000000000000000e+03 2.987195396423339844e+01 -8.535237312316894531e+00 4.003208151797700565e-15 -4.403528797570881170e-14 -1.200962445539310169e-14 -1.200962343895356499e-13
4.036000000000000000e+03 3.037913894653320312e+01 -8.531058311462402344e+00 1.401122870069854143e-13 -2.602085213965210642e-13 -3.602887167211341057e-14 1.120898214740720378e-13
4.037000000000000000e+03 2.782943153381347656e+01 -8.516391754150390625e+00 4.403528797570881170e-14 1.561251128379126385e-13 6.004811719476782494e-14 8.006416303595401129e-15
4.038000000000000000e+03 2.680340194702148438e+01 -8.493004798889160156e+00 1.200962343895356499e-13 -4.003208151797700565e-14 2.401924891078620339e-14 8.006416303595401129e-14
4.039000000000000000e+03 2.628899765014648438e+01 -8.479146957397460938e+00 6.805453688649501509e-14 -1.080866150163402317e-13 -1.200962445539310169e-14 -2.401924891078620339e-14
4.040000000000000000e+03 2.266205596923828125e+01 -8.180606842041015625e+00 -1.361090737729900302e-13 -1.040834085586084257e-13 -7.205774334422682115e-14 2.401924891078620339e-14
4.041000000000000000e+03 2.317932701110839844e+01 -8.244060516357421875e+00 -5.604491073703601889e-14 -3.442758773376797254e-13 -1.200962343895356499e-13 -3.202566521438160452e-14
4.042000000000000000e+03 2.369754409790039062e+01 -8.291754722595214844e+00 -1.641315257533762506e-13 -4.363496868518834670e-13 -1.801443651368306309e-13 -1.281026608575264181e-13
4.043000000000000000e+03 2.421529388427734375e+01 -8.336311340332031250e+00 -4.803849782157240678e-14 -1.120898214740720378e-13 -4.803849782157240678e-14 8.006416303595401129e-15
4.044000000000000000e+03 2.163824272155761719e+01 -8.021033287048339844e+00 5.204170427930421283e-14 -2.522020949285302960e-13 -6.004811719476782494e-14 6.405133042876320904e-14
4.045000000000000000e+03 2.112887191772460938e+01 -7.940774440765380859e+00 -1.441154866884536423e-13 3.042437992078345088e-13 4.803849782157240678e-14 -3.202566521438160452e-14
4.046000000000000000e+03 2.061559295654296875e+01 -7.863229751586914062e+00 5.604491073703601889e-14 2.401924891078620339e-14 2.401924891078620339e-14 8.006416303595401129e-14
4.047000000000000000e+03 2.009231185913085938e+01 -7.788477897644042969e+00 6.405133042876320904e-14 -6.405133042876320904e-14 0.000000000000000000e+00 1.200962343895356499e-13
4.048000000000000000e+03 1.816830825805664062e+01 -8.335430145263671875e+00 4.003208151797700565e-15 -4.403528797570881170e-14 -1.200962445539310169e-14 -2.401924891078620339e-14
4.049000000000000000e+03 1.820623588562011719e+01 -7.506633758544921875e+00 -3.602887167211341057e-14 -2.441956955655938399e-13 -8.406736949368581735e-14 -1.040834085586084257e-13
4.050000000000000000e+03 5.289443206787109375e+01 -8.594031333923339844e+00 3.122502256758252770e-13 -2.321860694161348437e-13 2.401924891078620339e-14 -2.001604042017532392e-13
4.051000000000000000e+03 4.388329315185546875e+01 -8.212308883666992188e+00 1.681347389873716347e-13 -2.481988952470620680e-13 -2.401924891078620339e-14 -2.401924891078620339e-14
4.052000000000000000e+03 4.434650039672851562e+01 -8.669466018676757812e+00 3.442758773376797254e-13 5.604491073703601889e-14 1.200962343895356499e-13 4.803849782157240678e-14
4.053000000000000000e+03 4.482850646972656250e+01 -8.680807113647460938e+00 1.601283260719080226e-13 -1.601283260719080226e-13 0.000000000000000000e+00 1.601283260719080226e-14
4.054000000000000000e+03 4.577765274047851562e+01 -8.720705032348632812e+00 2.361892690976030718e-13 2.842277736954390566e-13 1.561251128379126385e-13 3.202566521438160452e-14
4.055000000000000000e+03 4.754896163940429688e+01 -8.791590690612792969e+00 1.321058605389946461e-13 3.082470259943570490e-13 1.321058605389946461e-13 -7.005614350349270714e-14
4.056000000000000000e+03 4.635350036621093750e+01 -8.228944778442382812e+00 9.207378240914942946e-14 2.682149478645118323e-13 1.080866150163402317e-13 1.601283260719080226e-14
4.057000000000000000e+03 4.334767150878906250e+01 -9.115940093994140625e+00 1.961571909677578551e-13 -2.361892690976030718e-13 -1.200962445539310169e-14 6.405133042876320904e-14
4.058000000000000000e+03 4.090811920166015625e+01 -8.280856132507324219e+00 3.602887167211341057e-14 -7.606094980195862720e-14 -1.200962445539310169e-14 2.962373998448980528e-13
4.059000000000000000e+03 4.239469528198242188e+01 -8.694253921508789062e+00 -5.604491073703601889e-14 -2.401924891078620339e-14 -2.401924891078620339e-14 4.003208151797700565e-14
4.060000000000000000e+03 4.382353210449218750e+01 -9.118845939636230469e+00 1.881507780522942430e-13 -1.481186999224490264e-13 1.200962445539310169e-14 1.200962343895356499e-13
4.061000000000000000e+03 4.337104415893554688e+01 -8.669816970825195312e+00 1.321058605389946461e-13 1.481186999224490264e-13 8.406736949368581735e-14 -6.405133042876320904e-14
4.062000000000000000e+03 4.141485977172851562e+01 -8.727479934692382812e+00 2.401924891078620339e-14 5.604491073703601889e-14 2.401924891078620339e-14 -1.601283260719080226e-13
4.063000000000000000e+03 4.673188781738281250e+01 -8.886456489562988281e+00 1.721379386688398627e-13 3.482791041242022656e-13 1.561251128379126385e-13 -3.602887167211341057e-14
4.064000000000000000e+03 4.940404129028320312e+01 -8.655152320861816406e+00 3.202566521438160452e-13 3.202566521438160452e-13 1.921539912862896271e-13 -1.521218996039172544e-13
4.065000000000000000e+03 5.045281600952148438e+01 -9.104465484619140625e+00 2.321860694161348437e-13 3.282630515067525012e-13 1.681347389873716347e-13 -1.200962343895356499e-13
4.066000000000000000e+03 4.988548660278320312e+01 -8.152728080749511719e+00 2.842277736954390566e-13 7.606094980195862720e-14 1.080866150163402317e-13 2.401924891078620339e-14
4.067000000000000000e+03 4.839482498168945312e+01 -8.157529830932617188e+00 2.401924891078620339e-14 5.604491073703601889e-14 2.401924891078620339e-14 -2.802245740139708285e-13
4.068000000000000000e+03 4.888317489624023438e+01 -8.674118995666503906e+00 2.802245536851800944e-14 1.200962445539310169e-14 1.200962445539310169e-14 -1.200962343895356499e-13
4.069000000000000000e+03 4.991133880615234375e+01 -8.637362480163574219e+00 8.807057595141762341e-14 -8.006416303595401129e-15 2.401924891078620339e-14 8.006416303595401129e-15
4.070000000000000000e+03 4.092295455932617188e+01 -8.744077682495117188e+00 -8.006416303595401129e-14 -8.006416303595401129e-14 -4.803849782157240678e-14 2.802245740139708285e-13
4.071000000000000000e+03 3.993353271484375000e+01 -8.775724411010742188e+00 5.604491073703601889e-14 3.442758773376797254e-13 1.200962343895356499e-13 1.441154866884536423e-13
4.072000000000000000e+03 3.791823196411132812e+01 -8.362235069274902344e+00 -1.601283260719080226e-14 1.761411519028352468e-13 4.803849782157240678e-14 5.604491073703601889e-14
4.073000000000000000e+03 3.996069717407226562e+01 -9.245537757873535156e+00 2.281828697346666157e-13 -2.682149478645118323e-13 -1.200962445539310169e-14 8.006416303595401129e-14
4.074000000000000000e+03 4.042924118041992188e+01 -8.760031700134277344e+00 1.521218996039172544e-13 -3.923143819355157103e-13 -7.205774334422682115e-14 1.281026608575264181e-13
4.075000000000000000e+03 3.741853332519531250e+01 -8.376276016235351562e+00 -9.607699564314481355e-14 -2.241796429481440756e-13 -9.607699564314481355e-14 -8.006416303595401129e-14
4.076000000000000000e+03 3.943666076660156250e+01 -8.790633201599121094e+00 -3.202566521438160452e-14 -2.882309733769072846e-13 -9.607699564314481355e-14 2.241796429481440756e-13
4.077000000000000000e+03 3.843997573852539062e+01 -8.818041801452636719e+00 1.921539912862896271e-13 1.281026608575264181e-13 9.607699564314481355e-14 -1.200962343895356499e-13
4.078000000000000000e+03 5.338544082641601562e+01 -8.590939521789550781e+00 2.802245740139708285e-13 -8.406736678318038614e-13 -1.681347389873716347e-13 5.604491073703601889e-14
4.079000000000000000e+03 5.190584182739257812e+01 -8.602273941040039062e+00 3.282630515067525012e-13 -8.807057595141762341e-14 7.205774334422682115e-14 -4.803849782157240678e-14
4.080000000000000000e+03 5.240169525146484375e+01 -8.598126411437988281e+00 1.240994476235310340e-13 -8.406736949368581735e-14 1.200962445539310169e-14 1.841475648182988589e-13
4.081000000000000000e+03 5.091253280639648438e+01 -8.615324974060058594e+00 2.882309733769072846e-13 3.522823038056704936e-13 1.921539912862896271e-13 -1.200962343895356499e-13
4.082000000000000000e+03 5.387815475463867188e+01 -8.590297698974609375e+00 4.003208084035064784e-13 8.006416303595401129e-14 1.441154866884536423e-13 -1.601283260719080226e-13
4.083000000000000000e+03 5.590737915039062500e+01 -9.113005638122558594e+00 1.200962343895356499e-13 -4.003208151797700565e-14 2.401924891078620339e-14 4.003208151797700565e-14
4.084000000000000000e+03 5.437220001220703125e+01 -8.592057228088378906e+00 2.922341730583755126e-13 -3.322662782932750414e-13 -1.200962445539310169e-14 6.405133042876320904e-14
4.085000000000000000e+03 5.589935684204101562e+01 -8.625512123107910156e+00 1.801443651368306309e-13 -6.004811719476782494e-14 3.602887167211341057e-14 -1.681347389873716347e-13
4.086000000000000000e+03 6.168237304687500000e+01 -8.135086059570312500e+00 3.102486258350911630e-13 -5.004010105043830980e-14 7.806255641895631925e-14 1.361090737729900302e-13
4.087000000000000000e+03 6.327596664428710938e+01 -8.632252693176269531e+00 2.722181475459800604e-13 2.081668171172168513e-13 1.441154866884536423e-13 1.040834085586084257e-13
4.088000000000000000e+03 6.531902313232421875e+01 -8.606404304504394531e+00 1.401122870069854143e-13 6.004811719476782494e-14 6.004811719476782494e-14 -8.006416303595401129e-14
4.089000000000000000e+03 6.274751281738281250e+01 -8.642528533935546875e+00 2.441956955655938399e-13 -1.240994476235310340e-13 3.602887167211341057e-14 1.200962343895356499e-13
4.090000000000000000e+03 6.481244659423828125e+01 -8.606959342956542969e+00 1.080866150163402317e-13 9.207378240914942946e-14 6.004811719476782494e-14 1.040834085586084257e-13
4.091000000000000000e+03 6.219568252563476562e+01 -8.641640663146972656e+00 1.561251128379126385e-13 -4.363496868518834670e-13 -8.406736949368581735e-14 1.200962343895356499e-13
4.092000000000000000e+03 6.534905242919921875e+01 -8.130968093872070312e+00 3.562855034871387216e-13 -7.606094980195862720e-14 8.406736949368581735e-14 4.803849782157240678e-14
4.093000000000000000e+03 6.633029174804687500e+01 -8.609657287597656250e+00 2.241796429481440756e-13 9.607699564314481355e-14 9.607699564314481355e-14 1.040834085586084257e-13
4.094000000000000000e+03 6.582480621337890625e+01 -8.607622146606445312e+00 2.962373998448980528e-13 -5.604491073703601889e-14 7.205774334422682115e-14 1.601283260719080226e-14
4.095000000000000000e+03 6.734207916259765625e+01 -8.615990638732910156e+00 2.682149478645118323e-13 -6.805453688649501509e-14 6.004811719476782494e-14 -6.405133042876320904e-14
4.096000000000000000e+03 6.835684204101562500e+01 -8.632020950317382812e+00 2.642117210779892922e-13 -2.401924891078620339e-14 7.205774334422682115e-14 -5.604491073703601889e-14
4.097000000000000000e+03 7.045286560058593750e+01 -8.719132423400878906e+00 7.205774334422682115e-14 1.681347389873716347e-13 7.205774334422682115e-14 5.604491073703601889e-14
4.098000000000000000e+03 7.376500701904296875e+01 -8.206618309020996094e+00 1.761411519028352468e-13 -1.601283260719080226e-14 4.803849782157240678e-14 -1.281026608575264181e-13
4.099000000000000000e+03 7.092547607421875000e+01 -8.178018569946289062e+00 1.441154866884536423e-13 3.362694779747432694e-13 1.441154866884536423e-13 -2.161732300326804634e-13
4.100000000000000000e+03 6.937386322021484375e+01 -8.153882980346679688e+00 3.843079825725792542e-13 -6.405133042876320904e-14 9.607699564314481355e-14 -1.521218996039172544e-13
4.101000000000000000e+03 6.887063598632812500e+01 -8.650197029113769531e+00 4.083272077664429345e-13 -8.006416303595401129e-15 1.200962343895356499e-13 -2.161732300326804634e-13
4.102000000000000000e+03 3.794140243530273438e+01 -8.831232070922851562e+00 -2.401924687790712998e-13 8.006416303595401129e-14 -4.803849782157240678e-14 -5.604491073703601889e-14
4.103000000000000000e+03 3.694325256347656250e+01 -8.859162330627441406e+00 1.281026608575264181e-13 1.921539912862896271e-13 9.607699564314481355e-14 8.807057595141762341e-14
4.104000000000000000e+03 3.644259262084960938e+01 -8.872954368591308594e+00 1.561251128379126385e-13 2.041636038832214672e-13 1.080866150163402317e-13 -1.841475648182988589e-13
4.105000000000000000e+03 3.744271850585937500e+01 -8.844992637634277344e+00 1.080866150163402317e-13 9.207378240914942946e-14 6.004811719476782494e-14 -1.841475648182988589e-13
4.106000000000000000e+03 3.797142028808593750e+01 -9.303495407104492188e+00 4.003208151797700565e-15 -4.403528797570881170e-14 -1.200962445539310169e-14 -8.006416303595401129e-15
4.107000000000000000e+03 3.391213226318359375e+01 -8.470846176147460938e+00 2.161732300326804634e-13 1.841475648182988589e-13 1.200962343895356499e-13 1.281026608575264181e-13
4.108000000000000000e+03 3.544133377075195312e+01 -8.899735450744628906e+00 7.205774334422682115e-14 1.681347389873716347e-13 7.205774334422682115e-14 -1.521218996039172544e-13
4.109000000000000000e+03 3.494017028808593750e+01 -8.913169860839843750e+00 2.441956955655938399e-13 -1.240994476235310340e-13 3.602887167211341057e-14 4.003208151797700565e-14
4.110000000000000000e+03 3.189872741699218750e+01 -8.514687538146972656e+00 5.604491073703601889e-14 2.401924891078620339e-14 2.401924891078620339e-14 -8.807057595141762341e-14
4.111000000000000000e+03 3.594133377075195312e+01 -8.886179924011230469e+00 1.521218996039172544e-13 2.481988952470620680e-13 1.200962343895356499e-13 2.001604042017532392e-13
4.112000000000000000e+03 3.242255020141601562e+01 -8.972517013549804688e+00 1.120898214740720378e-13 -2.722181475459800604e-13 -4.803849782157240678e-14 1.841475648182988589e-13
4.113000000000000000e+03 3.393511581420898438e+01 -8.939237594604492188e+00 -2.802245536851800944e-14 -1.200962445539310169e-14 -1.200962445539310169e-14 -1.281026608575264181e-13
4.114000000000000000e+03 3.343087387084960938e+01 -8.950906753540039062e+00 5.604491073703601889e-14 2.401924891078620339e-14 2.401924891078620339e-14 -9.607699564314481355e-14
4.115000000000000000e+03 2.885437965393066406e+01 -8.535717964172363281e+00 8.406736949368581735e-14 3.562855034871387216e-13 1.321058605389946461e-13 -8.006416303595401129e-14
4.116000000000000000e+03 2.990286254882812500e+01 -9.477372169494628906e+00 -6.405133042876320904e-14 6.405133042876320904e-14 0.000000000000000000e+00 -9.607699564314481355e-14
4.117000000000000000e+03 3.088570976257324219e+01 -8.526134490966796875e+00 0.000000000000000000e+00 0.000000000000000000e+00 0.000000000000000000e+00 1.281026608575264181e-13
4.118000000000000000e+03 3.191723060607910156e+01 -8.982119560241699219e+00 0.000000000000000000e+00 -3.202566521438160452e-13 -9.607699564314481355e-14 1.441154866884536423e-13
4.119000000000000000e+03 3.292612457275390625e+01 -8.961746215820312500e+00 8.006416303595401129e-15 -8.807057595141762341e-14 -2.401924891078620339e-14 4.803849782157240678e-14
4.120000000000000000e+03 2.988309478759765625e+01 -9.004460334777832031e+00 -5.604491073703601889e-14 -3.442758773376797254e-13 -1.200962343895356499e-13 -1.120898214740720378e-13
4.121000000000000000e+03 3.140911674499511719e+01 -8.989782333374023438e+00 6.405133042876320904e-14 -6.405133042876320904e-14 0.000000000000000000e+00 9.607699564314481355e-14
4.122000000000000000e+03 2.577173233032226562e+01 -8.454075813293457031e+00 -5.204170427930421283e-14 -6.805453688649501509e-14 -3.602887167211341057e-14 -7.205774334422682115e-14
4.123000000000000000e+03 2.834574890136718750e+01 -8.999666213989257812e+00 -8.006416303595401129e-15 8.807057595141762341e-14 2.401924891078620339e-14 -2.401924891078620339e-14
4.124000000000000000e+03 2.731672668457031250e+01 -8.505240440368652344e+00 1.281026608575264181e-13 -1.281026608575264181e-13 0.000000000000000000e+00 9.607699564314481355e-14
4.125000000000000000e+03 2.731363296508789062e+01 -8.981620788574218750e+00 -8.406736949368581735e-14 -3.602887167211341057e-14 -3.602887167211341057e-14 -1.441154866884536423e-13
4.126000000000000000e+03 2.679619598388671875e+01 -8.969236373901367188e+00 6.805453688649501509e-14 -4.283432603838926989e-13 -1.080866150163402317e-13 1.281026608575264181e-13
4.127000000000000000e+03 2.627646827697753906e+01 -8.953929901123046875e+00 -1.601283260719080226e-13 -4.803849375581425996e-13 -1.921539912862896271e-13 -1.601283260719080226e-14
4.128000000000000000e+03 2.208869361877441406e+01 -8.588906288146972656e+00 -2.201764432666758475e-13 -1.401122870069854143e-13 -1.080866150163402317e-13 1.601283260719080226e-14
4.129000000000000000e+03 2.157967948913574219e+01 -8.515317916870117188e+00 -1.000802021008766196e-13 1.401122870069854143e-13 1.200962445539310169e-14 -4.003208151797700565e-14
4.130000000000000000e+03 2.056511306762695312e+01 -8.375042915344238281e+00 4.003208151797700565e-15 2.762213472274482884e-13 8.406736949368581735e-14 -7.205774334422682115e-14
4.131000000000000000e+03 2.313022804260253906e+01 -8.722846031188964844e+00 -1.240994476235310340e-13 -2.361892690976030718e-13 -1.080866150163402317e-13 -4.003208151797700565e-14
4.132000000000000000e+03 2.107575416564941406e+01 -8.441382408142089844e+00 0.000000000000000000e+00 0.000000000000000000e+00 0.000000000000000000e+00 -3.202566521438160452e-14
4.133000000000000000e+03 2.473349380493164062e+01 -8.378064155578613281e+00 -1.961571909677578551e-13 -4.043240080849747065e-13 -1.801443651368306309e-13 -2.241796429481440756e-13
4.134000000000000000e+03 2.469970512390136719e+01 -8.870218276977539062e+00 8.006416303595401129e-15 -8.807057595141762341e-14 -2.401924891078620339e-14 -2.241796429481440756e-13
4.135000000000000000e+03 2.365217208862304688e+01 -8.779860496520996094e+00 0.000000000000000000e+00 0.000000000000000000e+00 0.000000000000000000e+00 2.401924891078620339e-14
4.136000000000000000e+03 2.417476844787597656e+01 -8.829085350036621094e+00 -2.001604042017532392e-13 -3.602887302736612618e-13 -1.681347389873716347e-13 -8.006416303595401129e-14
4.137000000000000000e+03 5.822021102905273438e+01 -8.149216651916503906e+00 3.602887167211341057e-14 -3.963175816169839383e-13 -1.080866150163402317e-13 -5.604491073703601889e-14
4.138000000000000000e+03 5.882950210571289062e+01 -8.146371841430664062e+00 4.003208151797700565e-15 -3.642919299551294898e-13 -1.080866150163402317e-13 5.604491073703601889e-14
4.139000000000000000e+03 5.644942092895507812e+01 -8.641249656677246094e+00 2.441956955655938399e-13 -1.240994476235310340e-13 3.602887167211341057e-14 0.000000000000000000e+00
4.140000000000000000e+03 5.885384368896484375e+01 -8.661825180053710938e+00 7.205774334422682115e-14 -4.723785381952061435e-13 -1.200962343895356499e-13 8.807057595141762341e-14
4.141000000000000000e+03 5.702898406982421875e+01 -8.655161857604980469e+00 1.281026608575264181e-13 -1.281026608575264181e-13 0.000000000000000000e+00 -1.841475648182988589e-13
4.142000000000000000e+03 5.762400817871093750e+01 -8.665637969970703125e+00 2.522020949285302960e-13 -2.121700303512122354e-13 1.200962445539310169e-14 -1.040834085586084257e-13
4.143000000000000000e+03 1.751719284057617188e+01 -8.212660789489746094e+00 -1.401122870069854143e-13 -6.004811719476782494e-14 -6.004811719476782494e-14 -6.204972381176551699e-14
4.144000000000000000e+03 1.946012687683105469e+01 -8.298566818237304688e+00 -7.606094980195862720e-14 -1.240994476235310340e-13 -6.004811719476782494e-14 8.006416303595401129e-15
4.145000000000000000e+03 7.675344085693359375e+01 -8.256784439086914062e+00 5.204170427930421283e-14 6.805453688649501509e-14 3.602887167211341057e-14 -3.602887167211341057e-14
4.146000000000000000e+03 1.336333084106445312e+01 -5.597064495086669922e+00 6.004812227696550847e-15 -1.461170865291877563e-13 -4.203368474684290867e-14 8.606896933441993136e-14
4.147000000000000000e+03 1.309927845001220703e+01 -2.606580018997192383e+00 -3.803047490097931360e-14 -6.204972381176551699e-14 -3.002405859738391247e-14 2.401924891078620339e-14
4.148000000000000000e+03 1.249092769622802734e+01 -1.928351044654846191e+00 1.401122768425900472e-14 6.004812227696550847e-15 6.004812227696550847e-15 -4.803849782157240678e-14
4.149000000000000000e+03 1.468722152709960938e+01 -2.794140100479125977e+00 -4.203368474684290867e-14 -1.801443583605670529e-14 -1.801443583605670529e-14 4.003208151797700565e-15
4.150000000000000000e+03 9.901145935058593750e+00 -2.966529607772827148e+00 9.607699564314481355e-14 2.241796429481440756e-13 9.607699564314481355e-14 1.841475648182988589e-13
4.151000000000000000e+03 7.893872833251953125e+01 -1.222579669952392578e+01 -5.204170427930421283e-14 -6.805453688649501509e-14 -3.602887167211341057e-14 -5.204170427930421283e-14
4.152000000000000000e+03 7.307373809814453125e+01 -8.805072784423828125e+00 -2.001604075898850282e-14 -1.000802021008766196e-13 -3.602887167211341057e-14 -1.120898214740720378e-13
4.153000000000000000e+03 7.235159301757812500e+01 -8.774820327758789062e+00 2.381908689383371858e-13 -2.181748434259417335e-13 6.004812227696550847e-15 -2.722181475459800604e-13
4.154000000000000000e+03 7.102304840087890625e+01 -8.740972518920898438e+00 3.722983564231202580e-13 -2.522020949285302960e-13 3.602887167211341057e-14 -6.405133042876320904e-14
4.155000000000000000e+03 7.165617370605468750e+01 -8.755425453186035156e+00 -5.004010105043830980e-14 7.005614350349270714e-14 6.004812227696550847e-15 6.405133042876320904e-14
4.156000000000000000e+03 7.532490539550781250e+01 -9.607070922851562500e+00 9.807859548387892756e-14 4.203368474684290867e-14 4.203368474684290867e-14 3.202566521438160452e-14
4.157000000000000000e+03 7.822576904296875000e+01 -9.040354728698730469e+00 -4.803849782157240678e-14 2.081668171172168513e-13 4.803849782157240678e-14 1.601283260719080226e-14
4.158000000000000000e+03 7.677854919433593750e+01 -8.982706069946289062e+00 -8.006416303595401129e-15 8.807057595141762341e-14 2.401924891078620339e-14 3.202566521438160452e-14
4.159000000000000000e+03 6.021112823486328125e+01 -8.625658988952636719e+00 1.080866150163402317e-13 -2.281828697346666157e-13 -3.602887167211341057e-14 1.361090737729900302e-13
4.160000000000000000e+03 5.951574707031250000e+01 -8.642667770385742188e+00 6.605293026949732305e-14 -2.461972954063279539e-13 -5.404330750817011586e-14 9.607699564314481355e-14
4.161000000000000000e+03 6.322529220581054688e+01 -9.118268013000488281e+00 1.521218996039172544e-13 -3.923143819355157103e-13 -7.205774334422682115e-14 1.841475648182988589e-13
4.162000000000000000e+03 1.099094772338867188e+01 -1.712710952758789062e+01 -1.641315257533762506e-13 -1.160930347080674219e-13 -8.406736949368581735e-14 -1.160930347080674219e-13
4.163000000000000000e+03 7.016406059265136719e+00 -1.801616859436035156e+01 -6.845485549938912229e-13 -1.116894987954197838e-12 -5.404330954104918927e-13 -2.001604075898850282e-14
4.164000000000000000e+03 7.197957992553710938e+00 -1.652218246459960938e+01 -8.006416303595401129e-14 -2.161732381641967571e-12 -6.725389559494865388e-13 5.204170427930421283e-13
4.165000000000000000e+03 5.897344112396240234e+00 -1.415813446044921875e+01 -1.200962343895356499e-13 -6.004811990527325616e-13 -2.161732300326804634e-13 5.204170427930421283e-14
4.166000000000000000e+03 3.613621890544891357e-01 -1.876765441894531250e+01 5.604491073703601889e-14 1.144917494144692682e-12 3.602887302736612618e-13 8.006416303595401129e-15
4.167000000000000000e+03 3.388279080390930176e-01 -1.233294486999511719e+01 -2.061652172764827373e-13 1.146919148195535421e-12 2.822261738547049426e-13 4.003208151797700565e-14
4.168000000000000000e+03 1.260131263732910156e+01 -1.634270477294921875e+01 -1.120898214740720378e-13 -4.803849782157240678e-14 -4.803849782157240678e-14 -2.502005052521915490e-14
4.169000000000000000e+03 1.184447002410888672e+01 -1.757103157043457031e+01 -2.401924687790712998e-13 -2.401924687790712998e-13 -1.441154866884536423e-13 -1.361090737729900302e-13
4.170000000000000000e+03 8.766861915588378906e+00 -1.197073650360107422e+01 -2.682149478645118323e-13 -5.724587470723463412e-13 -2.522020949285302960e-13 -2.952365999245309958e-13
4.171000000000000000e+03 1.088081479072570801e+00 -1.386992263793945312e+01 1.261010474642651480e-13 1.014813233446432150e-12 3.422742774969456114e-13 7.606094980195862720e-14
4.172000000000000000e+03 1.005556297302246094e+01 -2.411478757858276367e+00 1.381106736137241442e-13 -7.806255641895631925e-14 1.801443583605670529e-14 -4.003208151797700565e-14
4.173000000000000000e+03 1.587870311737060547e+01 -1.099553298950195312e+01 -1.160930347080674219e-13 -4.003208151797700565e-15 -3.602887167211341057e-14 -8.406736949368581735e-14
4.174000000000000000e+03 2.103310966491699219e+01 -8.945072174072265625e+00 -6.004811719476782494e-14 2.001604075898850282e-14 -1.200962445539310169e-14 -5.604491073703601889e-14
4.175000000000000000e+03 1.047987079620361328e+01 -3.539933681488037109e+00 1.521218996039172544e-13 2.481988952470620680e-13 1.200962343895356499e-13 5.604491073703601889e-14
4.176000000000000000e+03 1.306912422180175781e+01 -1.578312301635742188e+01 1.801443583605670529e-14 4.203368474684290867e-14 1.801443583605670529e-14 -2.146720301521298779e-13
4.177000000000000000e+03 1.406950092315673828e+01 -4.210398197174072266e+00 -1.281026608575264181e-13 -3.202566521438160452e-14 -4.803849782157240678e-14 -5.204170427930421283e-14
4.178000000000000000e+03 1.130100536346435547e+01 -1.898335838317871094e+01 -3.402726776562114974e-13 -2.602085213965210642e-13 -1.801443651368306309e-13 -8.006416303595401129e-15
4.179000000000000000e+03 1.503535652160644531e+01 -1.234189319610595703e+01 -1.351082687704252897e-14 -1.916535777735789425e-13 -6.154932385158198849e-14 -5.504411081666896188e-14
4.180000000000000000e+03 1.410424900054931641e+01 -1.466205120086669922e+01 3.502807175174635357e-14 1.501202929869195624e-14 1.501202929869195624e-14 -6.204972381176551699e-14
4.181000000000000000e+03 1.509977149963378906e+01 -1.340870857238769531e+01 -6.705373696612795809e-14 1.701363422162375377e-14 -1.501202929869195624e-14 -1.000802021008766196e-13
4.182000000000000000e+03 1.438997936248779297e+01 -3.502410173416137695e+00 4.403528797570881170e-14 -1.641315257533762506e-13 -3.602887167211341057e-14 -5.604491073703601889e-14
4.183000000000000000e+03 1.388698101043701172e+01 -2.688359022140502930e+00 4.603689120457471473e-14 1.341074739322559162e-13 5.404330750817011586e-14 8.006416303595401129e-15
4.184000000000000000e+03 1.599704074859619141e+01 -1.207585048675537109e+01 -2.271820562617724026e-13 -1.431146867680865853e-13 -1.110890215537049808e-13 3.202566521438160452e-14
4.185000000000000000e+03 9.208379745483398438e+00 -1.130996894836425781e+01 -3.112494257554582200e-13 -4.593681121253800903e-13 -2.311852694957677867e-13 -3.092478259147241060e-13
4.186000000000000000e+03 8.160554885864257812e+00 -1.167212104797363281e+01 -2.191756433463087905e-13 -5.514419216395838319e-13 -2.311852694957677867e-13 -1.040834085586084257e-13
4.187000000000000000e+03 1.556045246124267578e+01 -1.274827194213867188e+01 -7.405934996122451319e-14 -3.062454261536229350e-13 -1.140914348673333079e-13 -1.240994476235310340e-13
4.188000000000000000e+03 1.108230590820312500e+01 -8.759216308593750000e+00 -2.211772431870429045e-13 -2.491996951674291250e-13 -1.411130869273524713e-13 -1.541235129971785245e-13
4.189000000000000000e+03 1.012462615966796875e+01 -1.001544475555419922e+01 -2.662133209187234062e-13 -5.144122432708397863e-13 -2.341876692568689577e-13 -2.201764432666758475e-13
4.190000000000000000e+03 9.510202407836914062e+00 -9.704391479492187500e+00 -1.050842084789754827e-13 -3.652927298754965468e-13 -1.411130869273524713e-13 -1.841475648182988589e-13
4.191000000000000000e+03 1.153286170959472656e+01 -1.821579170227050781e+01 -2.461972954063279539e-13 3.062454261536229350e-13 1.801443583605670529e-14 1.601283260719080226e-14
4.192000000000000000e+03 1.219997119903564453e+01 -1.694771575927734375e+01 -1.421138868477195283e-13 2.021620040424873532e-13 1.801443583605670529e-14 -2.201764432666758475e-13
4.193000000000000000e+03 9.979944229125976562e+00 -9.073352813720703125e+00 -6.004811719476782494e-14 -3.002405995263662808e-13 -1.080866150163402317e-13 -1.281026608575264181e-13
4.194000000000000000e+03 1.723510742187500000e+01 -1.010896015167236328e+01 1.901523745048965680e-14 -1.291034607778934751e-13 -3.302646513474866152e-14 -1.521218996039172544e-13
4.195000000000000000e+03 1.138694381713867188e+01 -7.237871646881103516e+00 2.602085213965210642e-14 -1.261010474642651480e-13 -3.002405859738391247e-14 -1.361090737729900302e-13
4.196000000000000000e+03 1.092517566680908203e+01 -7.844243526458740234e+00 8.907137587178468041e-14 -4.193360339955348737e-13 -9.907939540424598457e-14 -2.441956955655938399e-13
4.197000000000000000e+03 1.225808048248291016e+01 -6.006748676300048828e+00 3.302646513474866152e-14 -1.230986477031639770e-13 -2.702165375408505793e-14 -1.761411519028352468e-13
4.198000000000000000e+03 8.598890304565429688e+00 -1.100299167633056641e+01 -9.507618894651417851e-14 -3.152526254369264480e-13 -1.230986477031639770e-13 -2.161732300326804634e-13
4.199000000000000000e+03 4.556428492069244385e-01 -3.800334167480468750e+01 1.461170865291877563e-13 1.541235129971785245e-13 9.007218256841531545e-14 -2.401924891078620339e-14
4.200000000000000000e+03 1.273620009422302246e+00 -3.706799316406250000e+01 9.407538902614712151e-14 8.606896933441993136e-14 5.404330750817011586e-14 -4.803849782157240678e-14
4.201000000000000000e+03 1.106686592102050781e+00 -1.629573822021484375e+01 1.801443583605670529e-14 1.082867736451609275e-12 3.302646513474866152e-13 1.521218996039172544e-13
4.202000000000000000e+03 1.097422122955322266e+00 -2.276779174804687500e+01 -1.000802037949425141e-14 9.107298248878237246e-13 2.702165477052459464e-13 -8.807057595141762341e-14
4.203000000000000000e+03 1.220536708831787109e+00 -3.632530593872070312e+01 -6.004812227696550847e-15 2.261812563414053456e-13 6.605293026949732305e-14 -2.802245536851800944e-14
4.204000000000000000e+03 1.068303942680358887e+00 -7.520030021667480469e+00 1.060850151756061177e-13 5.944763995305302196e-13 2.101684169579509653e-13 1.200962343895356499e-13
4.205000000000000000e+03 1.236816644668579102e+00 -2.924552154541015625e+01 1.721379386688398627e-13 2.802245536851800944e-14 6.004811719476782494e-14 -1.200962445539310169e-14
4.206000000000000000e+03 1.665482878684997559e+00 -3.935308074951171875e+01 -2.401924891078620339e-14 -5.604491073703601889e-14 -2.401924891078620339e-14 4.003208151797700565e-15
4.207000000000000000e+03 2.930184125900268555e+00 -3.708591079711914062e+01 6.505213034913026604e-14 1.651323256737433076e-13 6.905533680686207210e-14 1.200962445539310169e-14
4.208000000000000000e+03 1.505905032157897949e+00 -3.857468414306640625e+01 1.080866150163402317e-13 9.207378240914942946e-14 6.004811719476782494e-14 -3.202566521438160452e-14
4.209000000000000000e+03 1.198797583580017090e+00 -3.557338714599609375e+01 1.240994476235310340e-13 -8.406736949368581735e-14 1.200962445539310169e-14 6.405133042876320904e-14
4.210000000000000000e+03 1.224774241447448730e+00 -3.325920867919921875e+01 -7.005614350349270714e-14 -3.002405859738391247e-14 -3.002405859738391247e-14 4.003208151797700565e-15
4.211000000000000000e+03 1.222491860389709473e+00 -3.247217178344726562e+01 1.321058605389946461e-13 1.481186999224490264e-13 8.406736949368581735e-14 0.000000000000000000e+00
4.212000000000000000e+03 4.126670956611633301e-01 -3.085484123229980469e+01 -2.401924891078620339e-14 1.040834085586084257e-13 2.401924891078620339e-14 -8.006416303595401129e-15
4.213000000000000000e+03 1.233138084411621094e+00 -3.168218421936035156e+01 -1.401122768425900472e-14 -1.661331391466375207e-13 -5.404330750817011586e-14 6.004811719476782494e-14
4.214000000000000000e+03 1.245557785034179688e+00 -3.088332176208496094e+01 1.000802021008766196e-13 3.402726776562114974e-13 1.321058605389946461e-13 8.807057595141762341e-14
4.215000000000000000e+03 1.929010033607482910e+00 -2.511720085144042969e+01 9.207378240914942946e-14 4.283432603838926989e-13 1.561251128379126385e-13 -8.006416303595401129e-14
4.216000000000000000e+03 1.151334762573242188e+00 -2.516814613342285156e+01 -8.606896933441993136e-14 7.866303637117655345e-13 2.101684169579509653e-13 -5.604491073703601889e-14
4.217000000000000000e+03 1.166413426399230957e+00 -2.597411727905273438e+01 1.040834085586084257e-13 4.563657394693332314e-13 1.681347389873716347e-13 2.001604075898850282e-14
4.218000000000000000e+03 3.714660406112670898e-01 -2.359623336791992188e+01 1.681347389873716347e-13 1.032827686223147801e-12 3.602887302736612618e-13 -9.207378240914942946e-14
4.219000000000000000e+03 1.082127928733825684e+00 -2.196932029724121094e+01 -1.200962445539310169e-14 7.726191648266267364e-13 2.281828697346666157e-13 -1.120898214740720378e-13
4.220000000000000000e+03 1.116066694259643555e+00 -2.356553077697753906e+01 -6.805453688649501509e-14 7.485999125277087440e-13 2.041636038832214672e-13 1.601283260719080226e-14
4.221000000000000000e+03 1.770347833633422852e+00 -2.113939285278320312e+01 -1.080866150163402317e-13 5.484394947734283488e-13 1.321058605389946461e-13 -8.406736949368581735e-14
4.222000000000000000e+03 2.507594347000122070e+00 -1.867080688476562500e+01 -1.481186999224490264e-13 5.084074437486374443e-13 1.080866150163402317e-13 -6.805453688649501509e-14
4.223000000000000000e+03 1.075792789459228516e+00 -1.954984092712402344e+01 5.404330750817011586e-14 1.006806834083495694e-12 3.182550251980276190e-13 -1.200962343895356499e-13
4.224000000000000000e+03 1.079787135124206543e+00 -1.873550033569335938e+01 -4.803849782157240678e-14 1.008808379714121184e-12 2.882309733769072846e-13 -4.803849782157240678e-14
4.225000000000000000e+03 3.644151389598846436e-01 -1.715225219726562500e+01 -1.601283260719080226e-14 1.457167719820517959e-12 4.323464600653609269e-13 -4.803849782157240678e-14
4.226000000000000000e+03 4.367749214172363281e+00 -1.678100013732910156e+01 -4.363496868518834670e-13 -3.242598518252842732e-13 -2.281828697346666157e-13 -2.401924891078620339e-14
4.227000000000000000e+03 2.670832872390747070e+00 -1.539433288574218750e+01 -1.301042606982605321e-13 4.703769383544720295e-13 1.020818019416107336e-13 5.604491073703601889e-14
4.228000000000000000e+03 6.926959514617919922e+00 -1.380040550231933594e+01 -4.203368474684290867e-14 -9.787843278930008495e-13 -3.062454261536229350e-13 -1.361090737729900302e-13
4.229000000000000000e+03 7.736063957214355469e+00 -1.235670566558837891e+01 -8.206576287668812530e-14 -5.384314955697577787e-13 -1.861491782115601290e-13 -2.081668171172168513e-13
4.230000000000000000e+03 1.046615004539489746e+00 -1.307624530792236328e+01 -2.181748434259417335e-13 9.587683294856597094e-13 2.221780431074099615e-13 2.361892690976030718e-13
4.231000000000000000e+03 1.883404731750488281e+00 -1.459158515930175781e+01 -3.002405859738391247e-14 6.505213034913026604e-13 1.861491782115601290e-13 1.561251128379126385e-13
4.232000000000000000e+03 1.012089848518371582e+00 -1.228620624542236328e+01 5.804651735403371093e-14 1.122899841686508804e-12 3.542839036464046076e-13 1.200962343895356499e-13
4.233000000000000000e+03 1.003618955612182617e+00 -1.150100135803222656e+01 -1.120898214740720378e-13 5.924747996897961055e-13 1.441154866884536423e-13 6.004811719476782494e-14
4.234000000000000000e+03 1.041149616241455078e+00 -9.119997978210449219e+00 5.004010105043830980e-14 5.704571472316122271e-13 1.861491782115601290e-13 5.204170427930421283e-14
4.235000000000000000e+03 3.425165414810180664e-01 -9.933071136474609375e+00 1.140914348673333079e-13 8.266624689466650633e-13 2.822261738547049426e-13 1.200962445539310169e-14
4.236000000000000000e+03 5.370065689086914062e+00 -1.812459826469421387e+00 1.401122768425900472e-14 6.004812227696550847e-15 6.004812227696550847e-15 4.003208151797700565e-14
4.237000000000000000e+03 2.963352441787719727e+00 -1.811264634132385254e+00 -1.541235129971785245e-13 -6.605293026949732305e-14 -6.605293026949732305e-14 4.003208151797700565e-14
4.238000000000000000e+03 3.814907312393188477e+00 -2.940509796142578125e+00 6.204972381176551699e-14 1.180946345488015359e-13 5.404330750817011586e-14 -4.003208151797700565e-14
4.239000000000000000e+03 2.524504661560058594e+00 -4.247482776641845703e+00 5.404330750817011586e-14 2.061652172764827373e-13 7.806255641895631925e-14 7.806255641895631925e-14
4.240000000000000000e+03 3.625395298004150391e-01 -3.506075382232666016e+00 -8.006416303595401129e-15 2.481988952470620680e-13 7.205774334422682115e-14 0.000000000000000000e+00
4.241000000000000000e+03 1.454123616218566895e+00 -1.957605004310607910e+00 1.000802021008766196e-13 1.000802021008766196e-13 6.004811719476782494e-14 1.240994476235310340e-13
4.242000000000000000e+03 7.953577423095703125e+01 -3.644958877563476562e+01 1.741395520621011328e-13 -1.541235129971785245e-13 6.004812227696550847e-15 -4.003208151797700565e-14
4.243000000000000000e+03 7.954403686523437500e+01 -3.565011596679687500e+01 -1.120898214740720378e-13 -3.682951296365977178e-13 -1.441154866884536423e-13 -1.200962445539310169e-14
4.244000000000000000e+03 7.958817291259765625e+01 -3.081101226806640625e+01 0.000000000000000000e+00 0.000000000000000000e+00 0.000000000000000000e+00 1.601283260719080226e-14
4.245000000000000000e+03 7.960237884521484375e+01 -2.999993324279785156e+01 8.406736949368581735e-14 -2.842277736954390566e-13 -6.004811719476782494e-14 -3.202566521438160452e-14
4.246000000000000000e+03 7.963014984130859375e+01 -2.516753196716308594e+01 1.421138868477195283e-13 -2.822261738547049426e-13 -4.203368474684290867e-14 -2.802245536851800944e-14
4.247000000000000000e+03 7.963259124755859375e+01 -2.436265373229980469e+01 0.000000000000000000e+00 -3.202566521438160452e-13 -9.607699564314481355e-14 3.202566521438160452e-14
4.248000000000000000e+03 7.893264007568359375e+01 -1.382344055175781250e+01 -7.606094980195862720e-14 -1.240994476235310340e-13 -6.004811719476782494e-14 -6.405133042876320904e-14
4.249000000000000000e+03 7.964541625976562500e+01 -1.309356212615966797e+01 -9.407538902614712151e-14 -8.606896933441993136e-14 -5.404330750817011586e-14 -6.405133042876320904e-14
4.250000000000000000e+03 7.893161010742187500e+01 -1.946521949768066406e+01 -6.805453688649501509e-14 -3.722983564231202580e-13 -1.321058605389946461e-13 -1.521218996039172544e-13
4.251000000000000000e+03 7.964394378662109375e+01 -1.872705268859863281e+01 -2.301844695754007297e-13 -3.502807039649363796e-13 -1.741395520621011328e-13 -3.602887167211341057e-14
4.252000000000000000e+03 7.964963531494140625e+01 -1.068899631500244141e+01 -8.606896933441993136e-14 1.461170865291877563e-13 1.801443583605670529e-14 -2.001604075898850282e-14
4.253000000000000000e+03 7.604136657714843750e+01 -8.950601577758789062e+00 5.804651735403371093e-14 -1.581267126786467525e-13 -3.002405859738391247e-14 6.805453688649501509e-14
4.254000000000000000e+03 7.893453979492187500e+01 -1.302378749847412109e+01 -2.802245536851800944e-14 -1.200962445539310169e-14 -1.200962445539310169e-14 -6.805453688649501509e-14
4.255000000000000000e+03 7.893535614013671875e+01 -1.623480796813964844e+01 5.604491073703601889e-14 2.401924891078620339e-14 2.401924891078620339e-14 -2.401924891078620339e-14
4.256000000000000000e+03 7.964465332031250000e+01 -1.630968284606933594e+01 3.602887167211341057e-14 8.406736949368581735e-14 3.602887167211341057e-14 -4.403528797570881170e-14
4.257000000000000000e+03 7.893637847900390625e+01 -1.704256629943847656e+01 1.140914348673333079e-13 2.602085213965210642e-14 4.203368474684290867e-14 -1.841475648182988589e-13
4.258000000000000000e+03 7.822489929199218750e+01 -1.939215469360351562e+01 4.203368474684290867e-14 -3.022421993671003948e-13 -7.806255641895631925e-14 2.401924891078620339e-14
4.259000000000000000e+03 7.891260528564453125e+01 -2.268757820129394531e+01 -5.204170427930421283e-14 -3.883111822540474822e-13 -1.321058605389946461e-13 -4.003208151797700565e-14
4.260000000000000000e+03 7.963695526123046875e+01 -2.275276184082031250e+01 8.006416303595401129e-14 -2.401924687790712998e-13 -4.803849782157240678e-14 1.361090737729900302e-13
4.261000000000000000e+03 7.890580749511718750e+01 -2.349326324462890625e+01 4.603689120457471473e-14 -3.462775042834681516e-13 -9.007218256841531545e-14 -3.602887167211341057e-14
4.262000000000000000e+03 7.889850616455078125e+01 -2.429867935180664062e+01 8.206576287668812530e-14 -4.223384337566360447e-13 -1.020818019416107336e-13 -1.240994476235310340e-13
4.263000000000000000e+03 7.886559295654296875e+01 -2.831648826599121094e+01 -1.361090737729900302e-13 -4.243400607024244708e-13 -1.681347389873716347e-13 -5.604491073703601889e-14
4.264000000000000000e+03 7.887386322021484375e+01 -2.751347541809082031e+01 1.060850151756061177e-13 -2.061652172764827373e-13 -3.002405859738391247e-14 -8.006416303595401129e-14
4.265000000000000000e+03 7.961943817138671875e+01 -2.838486862182617188e+01 3.202566521438160452e-14 -5.124106434301056723e-13 -1.441154866884536423e-13 -8.006416303595401129e-15
4.266000000000000000e+03 7.884912872314453125e+01 -2.912334442138671875e+01 5.004010105043830980e-14 -2.301844695754007297e-13 -5.404330750817011586e-14 -7.606094980195862720e-14
4.267000000000000000e+03 7.881932830810546875e+01 -2.993679809570312500e+01 -7.005614350349270714e-14 -3.502807039649363796e-13 -1.261010474642651480e-13 -2.001604075898850282e-14
4.268000000000000000e+03 7.863015747070312500e+01 -3.403996658325195312e+01 1.601283260719080226e-14 -3.362694779747432694e-13 -9.607699564314481355e-14 -9.607699564314481355e-14
4.269000000000000000e+03 7.864763641357421875e+01 -3.322245025634765625e+01 -1.140914348673333079e-13 -1.861491782115601290e-13 -9.007218256841531545e-14 -7.205774334422682115e-14
4.270000000000000000e+03 7.954591369628906250e+01 -3.404729461669921875e+01 1.801443583605670529e-14 -3.582871304329271478e-13 -1.020818019416107336e-13 6.004811719476782494e-14
4.271000000000000000e+03 7.861849212646484375e+01 -3.485050201416015625e+01 -2.001604075898850282e-15 -2.982389996856321668e-13 -9.007218256841531545e-14 8.006416303595401129e-15
4.272000000000000000e+03 7.862125396728515625e+01 -3.564195632934570312e+01 7.205774334422682115e-14 -1.521218996039172544e-13 -2.401924891078620339e-14 -6.405133042876320904e-14
4.273000000000000000e+03 7.787469482421875000e+01 -3.906769180297851562e+01 2.401924891078620339e-14 -4.243400607024244708e-13 -1.200962343895356499e-13 2.201764398785440585e-14
4.274000000000000000e+03 7.886070251464843750e+01 -3.939080047607421875e+01 -3.702967498061225660e-14 -1.531227130768114675e-13 -5.704571743366665393e-14 5.204170427930421283e-14
4.275000000000000000e+03 7.960962677001953125e+01 -3.965455627441406250e+01 3.002405859738391247e-14 -1.701363388281057487e-13 -4.203368474684290867e-14 -8.006416303595401129e-15
4.276000000000000000e+03 7.868314361572265625e+01 -4.019548034667968750e+01 -9.007218256841531545e-14 -1.301042606982605321e-13 -6.605293026949732305e-14 3.202566521438160452e-14
4.277000000000000000e+03 7.845481872558593750e+01 -4.092861938476562500e+01 -1.230986477031639770e-13 -3.272622515863854442e-13 -1.351082738526229732e-13 4.003208151797700565e-14
4.278000000000000000e+03 7.847814178466796875e+01 -4.188209915161132812e+01 1.801443583605670529e-14 -1.180946345488015359e-13 -3.002405859738391247e-14 -1.601283260719080226e-14
4.279000000000000000e+03 7.750684356689453125e+01 -9.012771606445312500e+00 4.003208151797700565e-15 -4.403528797570881170e-14 -1.200962445539310169e-14 -1.200962445539310169e-14
4.280000000000000000e+03 1.232664966583251953e+01 -2.540648937225341797e+00 4.403528797570881170e-14 1.561251128379126385e-13 6.004811719476782494e-14 -8.406736949368581735e-14
4.281000000000000000e+03 7.826883316040039062e+00 -1.811612129211425781e+00 9.407538902614712151e-14 8.606896933441993136e-14 5.404330750817011586e-14 -1.481186999224490264e-13
4.282000000000000000e+03 1.073447227478027344e+01 -6.958481311798095703e+00 2.762213472274482884e-13 -3.162534253572935050e-13 -1.200962445539310169e-14 -2.321860694161348437e-13
4.283000000000000000e+03 8.504486083984375000e+00 -2.410367488861083984e+00 4.003208151797700565e-15 -4.403528797570881170e-14 -1.200962445539310169e-14 -2.882309733769072846e-13
4.284000000000000000e+03 1.080171227455139160e+00 -5.925959587097167969e+00 -4.003208151797700565e-14 4.403528865333516951e-13 1.200962343895356499e-13 1.160930347080674219e-13
4.285000000000000000e+03 2.188346385955810547e+00 -1.866108655929565430e+00 -8.206576287668812530e-14 1.020818019416107336e-13 6.004812227696550847e-15 8.807057595141762341e-14
4.286000000000000000e+03 1.063079237937927246e+00 -5.141546726226806641e+00 2.401924891078620339e-14 6.965582082484045312e-13 2.161732300326804634e-13 -1.160930347080674219e-13
4.287000000000000000e+03 1.029154658317565918e+00 -4.373817920684814453e+00 -9.607699564314481355e-14 9.607699564314481355e-14 0.000000000000000000e+00 3.602887167211341057e-14
4.288000000000000000e+03 1.183294486999511719e+01 -6.627573966979980469e+00 1.000802021008766196e-13 -1.401122870069854143e-13 -1.200962445539310169e-14 -1.200962343895356499e-13
4.289000000000000000e+03 7.006968021392822266e+00 -1.818207740783691406e+00 -2.802245536851800944e-14 -1.200962445539310169e-14 -1.200962445539310169e-14 -2.401924891078620339e-14
4.290000000000000000e+03 6.097683906555175781e+00 -2.473811864852905273e+00 3.202566521438160452e-14 -3.202566521438160452e-14 0.000000000000000000e+00 8.006416303595401129e-15
4.291000000000000000e+03 5.300979614257812500e+00 -2.455005407333374023e+00 7.005614350349270714e-14 3.002405859738391247e-14 3.002405859738391247e-14 1.601283260719080226e-14
4.292000000000000000e+03 7.892636871337890625e+01 -8.285115242004394531e+00 -1.200962343895356499e-13 4.003208151797700565e-14 -2.401924891078620339e-14 -6.805453688649501509e-14
4.293000000000000000e+03 3.631472587585449219e+00 -4.185355377197265625e+01 2.652125379390152943e-14 -1.150922280114367868e-14 4.503608959014176322e-15 -4.003208151797700565e-15
4.294000000000000000e+03 5.486985015869140625e+01 -8.597687721252441406e+00 8.006416303595401129e-14 8.006416303595401129e-14 4.803849782157240678e-14 -2.962373998448980528e-13
4.295000000000000000e+03 5.140966033935546875e+01 -8.607941627502441406e+00 4.043240080849747065e-13 3.602887167211341057e-14 1.321058605389946461e-13 6.405133042876320904e-14
4.296000000000000000e+03 5.292426300048828125e+01 -9.074882507324218750e+00 2.962373998448980528e-13 -5.604491073703601889e-14 7.205774334422682115e-14 -8.006416303595401129e-15
4.297000000000000000e+03 4.429742050170898438e+01 -9.138935089111328125e+00 3.282630515067525012e-13 -8.807057595141762341e-14 7.205774334422682115e-14 -2.481988952470620680e-13
4.298000000000000000e+03 4.331791305541992188e+01 -9.556757926940917969e+00 5.044041898570605920e-13 2.161732300326804634e-13 2.161732300326804634e-13 1.521218996039172544e-13
4.299000000000000000e+03 5.194134140014648438e+01 -9.081492424011230469e+00 3.002405995263662808e-13 2.201764432666758475e-13 1.561251128379126385e-13 3.202566521438160452e-14
4.300000000000000000e+03 4.045359039306640625e+01 -9.227413177490234375e+00 6.805453688649501509e-14 -1.080866150163402317e-13 -1.200962445539310169e-14 3.763015561045884860e-13
4.301000000000000000e+03 4.530414962768554688e+01 -8.698181152343750000e+00 2.081668171172168513e-13 -4.803849782157240678e-14 4.803849782157240678e-14 1.441154866884536423e-13
4.302000000000000000e+03 4.798586273193359375e+01 -8.616774559020996094e+00 2.762213472274482884e-13 1.641315257533762506e-13 1.321058605389946461e-13 -1.601283260719080226e-13
4.303000000000000000e+03 4.239447021484375000e+01 -9.144107818603515625e+00 2.401924891078620339e-14 -2.642117210779892922e-13 -7.205774334422682115e-14 8.807057595141762341e-14
4.304000000000000000e+03 4.145053863525390625e+01 -9.648947715759277344e+00 -1.481186999224490264e-13 -2.922341730583755126e-13 -1.321058605389946461e-13 8.807057595141762341e-14
4.305000000000000000e+03 4.190547180175781250e+01 -8.710589408874511719e+00 -1.040834085586084257e-13 -4.563657394693332314e-13 -1.681347389873716347e-13 -1.601283260719080226e-14
4.306000000000000000e+03 4.142973327636718750e+01 -9.187969207763671875e+00 -3.202566521438160452e-14 3.202566521438160452e-14 0.000000000000000000e+00 3.202566521438160452e-14
4.307000000000000000e+03 4.840391921997070312e+01 -8.619124412536621094e+00 1.721379386688398627e-13 3.482791041242022656e-13 1.561251128379126385e-13 -2.882309733769072846e-13
4.308000000000000000e+03 4.995442962646484375e+01 -9.121433258056640625e+00 -4.003208151797700565e-15 4.403528797570881170e-14 1.200962445539310169e-14 -3.202566521438160452e-14
4.309000000000000000e+03 4.945196151733398438e+01 -9.150058746337890625e+00 1.200962343895356499e-13 -4.003208151797700565e-14 2.401924891078620339e-14 -2.401924891078620339e-14
4.310000000000000000e+03 4.893695831298828125e+01 -9.199695587158203125e+00 2.321860694161348437e-13 3.282630515067525012e-13 1.681347389873716347e-13 2.001604075898850282e-14
4.311000000000000000e+03 4.715393447875976562e+01 -9.162944793701171875e+00 3.202566521438160452e-13 3.202566521438160452e-13 1.921539912862896271e-13 0.000000000000000000e+00
4.312000000000000000e+03 4.094300079345703125e+01 -9.208663940429687500e+00 -1.200962445539310169e-14 -1.881507780522942430e-13 -6.004811719476782494e-14 6.405133042876320904e-14
4.313000000000000000e+03 3.850680160522460938e+01 -9.767762184143066406e+00 -4.803849782157240678e-14 -1.120898214740720378e-13 -4.803849782157240678e-14 1.601283260719080226e-14
4.314000000000000000e+03 3.893896484375000000e+01 -8.804803848266601562e+00 -2.401924687790712998e-13 8.006416303595401129e-14 -4.803849782157240678e-14 -1.761411519028352468e-13
4.315000000000000000e+03 3.846923446655273438e+01 -9.290308952331542969e+00 -1.801443651368306309e-13 6.004811719476782494e-14 -3.602887167211341057e-14 -1.040834085586084257e-13
4.316000000000000000e+03 5.243481063842773438e+01 -9.078200340270996094e+00 3.722983564231202580e-13 3.883111822540474822e-13 2.281828697346666157e-13 8.807057595141762341e-14
4.317000000000000000e+03 5.487908554077148438e+01 -9.068728446960449219e+00 3.042437992078345088e-13 -1.441154866884536423e-13 4.803849782157240678e-14 -1.601283260719080226e-13
4.318000000000000000e+03 5.645623397827148438e+01 -9.148397445678710938e+00 2.201764432666758475e-13 -1.801443651368306309e-13 1.200962445539310169e-14 -2.321860694161348437e-13
4.319000000000000000e+03 6.784805297851562500e+01 -8.621232986450195312e+00 2.081668171172168513e-13 -4.803849782157240678e-14 4.803849782157240678e-14 -1.601283260719080226e-14
4.320000000000000000e+03 6.834989929199218750e+01 -9.123843193054199219e+00 2.241796429481440756e-13 9.607699564314481355e-14 9.607699564314481355e-14 -8.006416303595401129e-15
4.321000000000000000e+03 6.379285430908203125e+01 -8.620639801025390625e+00 9.207378240914942946e-14 -5.204170427930421283e-14 1.200962445539310169e-14 8.006416303595401129e-14
4.322000000000000000e+03 6.477920532226562500e+01 -9.082478523254394531e+00 4.563657394693332314e-13 4.243400607024244708e-13 2.642117210779892922e-13 1.040834085586084257e-13
4.323000000000000000e+03 6.993399047851562500e+01 -9.220174789428710938e+00 9.207378240914942946e-14 2.682149478645118323e-13 1.080866150163402317e-13 -1.120898214740720378e-13
4.324000000000000000e+03 6.938839721679687500e+01 -8.671402931213378906e+00 1.601283260719080226e-13 1.601283260719080226e-13 9.607699564314481355e-14 -7.205774334422682115e-14
4.325000000000000000e+03 7.049082183837890625e+01 -9.258499145507812500e+00 3.763015561045884860e-13 2.401924891078620339e-14 1.200962343895356499e-13 -9.607699564314481355e-14
4.326000000000000000e+03 6.939694976806640625e+01 -9.184955596923828125e+00 3.122502256758252770e-13 8.807057595141762341e-14 1.200962343895356499e-13 -1.040834085586084257e-13
4.327000000000000000e+03 6.886593627929687500e+01 -9.654544830322265625e+00 2.602085213965210642e-13 2.001604075898850282e-14 8.406736949368581735e-14 -2.161732300326804634e-13
4.328000000000000000e+03 6.886956024169921875e+01 -9.151133537292480469e+00 1.921539912862896271e-13 1.281026608575264181e-13 9.607699564314481355e-14 -1.841475648182988589e-13
4.329000000000000000e+03 3.701561355590820312e+01 -9.808157920837402344e+00 -9.607699564314481355e-14 -2.241796429481440756e-13 -9.607699564314481355e-14 -1.681347389873716347e-13
4.330000000000000000e+03 3.647396850585937500e+01 -9.344346046447753906e+00 1.000802021008766196e-13 -1.401122870069854143e-13 -1.200962445539310169e-14 0.000000000000000000e+00
4.331000000000000000e+03 3.551318740844726562e+01 -9.847060203552246094e+00 1.801443651368306309e-13 -6.004811719476782494e-14 3.602887167211341057e-14 2.401924891078620339e-14
4.332000000000000000e+03 3.747440338134765625e+01 -9.317444801330566406e+00 2.802245536851800944e-14 3.322662782932750414e-13 1.080866150163402317e-13 -8.807057595141762341e-14
4.333000000000000000e+03 3.443774795532226562e+01 -8.926373481750488281e+00 5.604491073703601889e-14 3.442758773376797254e-13 1.200962343895356499e-13 -8.006416303595401129e-14
4.334000000000000000e+03 3.547241210937500000e+01 -9.370601654052734375e+00 2.562053217150528361e-13 6.405133042876320904e-14 9.607699564314481355e-14 8.006416303595401129e-15
4.335000000000000000e+03 3.396545410156250000e+01 -9.410314559936523438e+00 -2.401924891078620339e-14 2.642117210779892922e-13 7.205774334422682115e-14 -1.281026608575264181e-13
4.336000000000000000e+03 3.345978164672851562e+01 -9.421485900878906250e+00 -1.160930347080674219e-13 -3.242598518252842732e-13 -1.321058605389946461e-13 -3.202566521438160452e-14
4.337000000000000000e+03 3.295411300659179688e+01 -9.432181358337402344e+00 1.921539912862896271e-13 1.281026608575264181e-13 9.607699564314481355e-14 4.003208151797700565e-14
4.338000000000000000e+03 3.245024490356445312e+01 -9.443352699279785156e+00 9.607699564314481355e-14 -9.607699564314481355e-14 0.000000000000000000e+00 1.921539912862896271e-13
4.339000000000000000e+03 6.158363342285156250e+01 -8.628993034362792969e+00 2.001604042017532392e-13 -6.004811990527325616e-13 -1.200962343895356499e-13 7.205774334422682115e-14
4.340000000000000000e+03 6.268460464477539062e+01 -9.130665779113769531e+00 2.001604042017532392e-13 4.003208151797700565e-14 7.205774334422682115e-14 -1.200962343895356499e-13
4.341000000000000000e+03 7.108276367187500000e+01 -9.298193931579589844e+00 1.561251128379126385e-13 2.041636038832214672e-13 1.080866150163402317e-13 -1.361090737729900302e-13
4.342000000000000000e+03 3.497217178344726562e+01 -9.384506225585937500e+00 1.160930347080674219e-13 3.242598518252842732e-13 1.321058605389946461e-13 -1.441154866884536423e-13
4.343000000000000000e+03 3.090112113952636719e+01 -8.996179580688476562e+00 1.641315257533762506e-13 -2.041636038832214672e-13 -1.200962445539310169e-14 1.681347389873716347e-13
4.344000000000000000e+03 3.092481422424316406e+01 -9.468954086303710938e+00 -1.200962445539310169e-14 -1.881507780522942430e-13 -6.004811719476782494e-14 1.200962343895356499e-13
4.345000000000000000e+03 2.937332916259765625e+01 -9.006324768066406250e+00 2.201764432666758475e-13 1.401122870069854143e-13 1.080866150163402317e-13 1.120898214740720378e-13
4.346000000000000000e+03 3.041422080993652344e+01 -9.473936080932617188e+00 -1.881507780522942430e-13 -4.923945908126559079e-13 -2.041636038832214672e-13 1.441154866884536423e-13
4.347000000000000000e+03 2.782992172241210938e+01 -8.991759300231933594e+00 -4.403528797570881170e-14 -4.763817378766743715e-13 -1.561251128379126385e-13 2.321860694161348437e-13
4.348000000000000000e+03 2.939130973815917969e+01 -9.479534149169921875e+00 -7.205774334422682115e-14 -4.883913911311876799e-13 -1.681347389873716347e-13 -3.202566521438160452e-14
4.349000000000000000e+03 3.143556785583496094e+01 -9.462436676025390625e+00 -1.000802021008766196e-13 -1.801443651368306309e-13 -8.406736949368581735e-14 4.003208151797700565e-14
4.350000000000000000e+03 2.732008552551269531e+01 -9.460490226745605469e+00 -1.080866150163402317e-13 -4.123304345529654746e-13 -1.561251128379126385e-13 0.000000000000000000e+00
4.351000000000000000e+03 2.784045791625976562e+01 -9.469761848449707031e+00 2.001604075898850282e-14 1.000802021008766196e-13 3.602887167211341057e-14 2.001604042017532392e-13
4.352000000000000000e+03 2.886082649230957031e+01 -9.004850387573242188e+00 -6.805453688649501509e-14 -2.121700303512122354e-13 -8.406736949368581735e-14 2.401924891078620339e-14
4.353000000000000000e+03 2.679854011535644531e+01 -9.448890686035156250e+00 -1.321058605389946461e-13 -1.481186999224490264e-13 -8.406736949368581735e-14 3.202566521438160452e-14
4.354000000000000000e+03 2.522636413574218750e+01 -8.904554367065429688e+00 -1.240994476235310340e-13 -2.361892690976030718e-13 -1.080866150163402317e-13 -4.803849782157240678e-14
4.355000000000000000e+03 2.627505111694335938e+01 -9.435520172119140625e+00 8.406736949368581735e-14 -2.842277736954390566e-13 -6.004811719476782494e-14 2.401924891078620339e-14
4.356000000000000000e+03 5.539593887329101562e+01 -9.548799514770507812e+00 2.361892690976030718e-13 -3.562855034871387216e-13 -3.602887167211341057e-14 3.202566521438160452e-14
4.357000000000000000e+03 2.410741806030273438e+01 -9.842184066772460938e+00 -2.001604075898850282e-14 -1.000802021008766196e-13 -3.602887167211341057e-14 -6.405133042876320904e-14
4.358000000000000000e+03 2.152804374694824219e+01 -9.017399787902832031e+00 -1.881507780522942430e-13 -1.721379386688398627e-13 -1.080866150163402317e-13 3.202566521438160452e-14
4.359000000000000000e+03 2.003379249572753906e+01 -8.325984954833984375e+00 6.805453688649501509e-14 -1.080866150163402317e-13 -1.200962445539310169e-14 -4.003208151797700565e-14
4.360000000000000000e+03 2.467467689514160156e+01 -9.367716789245605469e+00 -1.601283260719080226e-14 -1.441154866884536423e-13 -4.803849782157240678e-14 -2.081668171172168513e-13
4.361000000000000000e+03 2.575295448303222656e+01 -8.932835578918457031e+00 5.204170427930421283e-14 -2.522020949285302960e-13 -6.004811719476782494e-14 8.006416303595401129e-15
4.362000000000000000e+03 2.308362007141113281e+01 -9.209394454956054688e+00 -5.204170427930421283e-14 -6.805453688649501509e-14 -3.602887167211341057e-14 3.202566521438160452e-14
4.363000000000000000e+03 2.360716629028320312e+01 -9.275771141052246094e+00 -7.606094980195862720e-14 -1.240994476235310340e-13 -6.004811719476782494e-14 -2.481988952470620680e-13
4.364000000000000000e+03 2.521284294128417969e+01 -9.397190093994140625e+00 8.006416303595401129e-14 8.006416303595401129e-14 4.803849782157240678e-14 -9.607699564314481355e-14
4.365000000000000000e+03 5.341119003295898438e+01 -9.071529388427734375e+00 4.523625126828106913e-13 1.481186999224490264e-13 1.801443651368306309e-13 -1.841475648182988589e-13
4.366000000000000000e+03 5.389954376220703125e+01 -9.069395065307617188e+00 4.403528865333516951e-13 -3.602887302736612618e-13 2.401924891078620339e-14 -2.401924891078620339e-14
4.367000000000000000e+03 2.836021804809570312e+01 -9.476378440856933594e+00 -7.205774334422682115e-14 -4.883913911311876799e-13 -1.681347389873716347e-13 -7.205774334422682115e-14
4.368000000000000000e+03 5.823020553588867188e+01 -8.669713973999023438e+00 5.604491073703601889e-14 2.401924891078620339e-14 2.401924891078620339e-14 -8.006416303595401129e-15
4.369000000000000000e+03 2.255989646911621094e+01 -9.142817497253417969e+00 -1.601283260719080226e-13 -1.601283260719080226e-13 -9.607699564314481355e-14 1.040834085586084257e-13
4.370000000000000000e+03 2.413778114318847656e+01 -9.328756332397460938e+00 -6.004811719476782494e-14 2.001604075898850282e-14 -1.200962445539310169e-14 -8.006416303595401129e-15
4.371000000000000000e+03 5.887174224853515625e+01 -9.174201965332031250e+00 2.522020949285302960e-13 1.080866150163402317e-13 1.080866150163402317e-13 1.040834085586084257e-13
4.372000000000000000e+03 5.703384780883789062e+01 -9.173139572143554688e+00 1.841475648182988589e-13 -4.243400607024244708e-13 -7.205774334422682115e-14 -5.604491073703601889e-14
4.373000000000000000e+03 5.590377807617187500e+01 -9.599604606628417969e+00 1.080866150163402317e-13 -2.281828697346666157e-13 -3.602887167211341057e-14 -8.006416303595401129e-14
4.374000000000000000e+03 4.845699310302734375e+01 -9.338616371154785156e+00 -1.200962445539310169e-14 -1.881507780522942430e-13 -6.004811719476782494e-14 -2.241796429481440756e-13
4.375000000000000000e+03 4.568857955932617188e+01 -9.237273216247558594e+00 2.642117210779892922e-13 -2.401924891078620339e-14 7.205774334422682115e-14 6.405133042876320904e-14
4.376000000000000000e+03 4.476566696166992188e+01 -9.176028251647949219e+00 3.883111822540474822e-13 -1.080866150163402317e-13 8.406736949368581735e-14 2.481988952470620680e-13
4.377000000000000000e+03 4.522847366333007812e+01 -9.216714859008789062e+00 2.361892690976030718e-13 2.842277736954390566e-13 1.561251128379126385e-13 -1.040834085586084257e-13
4.378000000000000000e+03 6.528897094726562500e+01 -9.081803321838378906e+00 2.682149478645118323e-13 2.522020949285302960e-13 1.561251128379126385e-13 1.441154866884536423e-13
4.379000000000000000e+03 6.579843902587890625e+01 -9.084064483642578125e+00 2.041636038832214672e-13 3.162534253572935050e-13 1.561251128379126385e-13 -1.841475648182988589e-13
4.380000000000000000e+03 6.090880966186523438e+01 -8.620370864868164062e+00 2.461972954063279539e-13 1.401122768425900472e-14 7.806255641895631925e-14 1.361090737729900302e-13
4.381000000000000000e+03 6.211724090576171875e+01 -9.133215904235839844e+00 3.442758773376797254e-13 -2.642117210779892922e-13 2.401924891078620339e-14 2.241796429481440756e-13
4.382000000000000000e+03 7.381015777587890625e+01 -8.841485977172851562e+00 1.641315257533762506e-13 1.160930347080674219e-13 8.406736949368581735e-14 -1.881507780522942430e-13
4.383000000000000000e+03 6.683619689941406250e+01 -8.612472534179687500e+00 3.803047557860567141e-13 -3.402726776562114974e-13 1.200962445539310169e-14 1.441154866884536423e-13
4.384000000000000000e+03 1.883873558044433594e+01 -8.300368309020996094e+00 -7.606094980195862720e-14 -4.443560862148199231e-13 -1.561251128379126385e-13 0.000000000000000000e+00
4.385000000000000000e+03 1.771030807495117188e+01 -9.509557723999023438e+00 6.930553678695383635e-14 -6.179952383167375274e-14 2.251804479507088161e-15 -7.906335633932337625e-14
4.386000000000000000e+03 1.319483852386474609e+01 -1.665893173217773438e+01 -5.204170427930421283e-14 -6.805453688649501509e-14 -3.602887167211341057e-14 -2.401924687790712998e-13
4.387000000000000000e+03 1.139017200469970703e+01 -3.064022064208984375e+00 9.807859548387892756e-14 3.622903301143953758e-13 1.381106736137241442e-13 1.401122870069854143e-13
4.388000000000000000e+03 1.081269645690917969e+01 -2.443302869796752930e+00 8.006416303595401129e-15 2.321860694161348437e-13 7.205774334422682115e-14 7.205774334422682115e-14
4.389000000000000000e+03 1.265567684173583984e+01 -5.370523929595947266e+00 1.020818019416107336e-13 -2.001604075898850282e-15 3.002405859738391247e-14 -7.205774334422682115e-14
4.390000000000000000e+03 1.288297843933105469e+01 -3.247080087661743164e+00 -2.001604075898850282e-15 2.201764398785440585e-14 6.004812227696550847e-15 5.604491073703601889e-14
4.391000000000000000e+03 9.288023948669433594e+00 -2.397964715957641602e+00 4.003208151797700565e-15 2.762213472274482884e-13 8.406736949368581735e-14 8.006416303595401129e-14
4.392000000000000000e+03 1.334662437438964844e+01 -4.044860363006591797e+00 2.001604075898850282e-15 -1.821459649775647449e-13 -5.404330750817011586e-14 8.807057595141762341e-14
4.393000000000000000e+03 7.311702728271484375e+01 -9.428887367248535156e+00 2.001604042017532392e-13 4.003208151797700565e-14 7.205774334422682115e-14 -2.321860694161348437e-13
4.394000000000000000e+03 7.240731811523437500e+01 -9.378683090209960938e+00 3.202566521438160452e-14 2.882309733769072846e-13 9.607699564314481355e-14 -2.161732300326804634e-13
4.395000000000000000e+03 7.894332122802734375e+01 -1.143077945709228516e+01 0.000000000000000000e+00 0.000000000000000000e+00 0.000000000000000000e+00 -1.561251128379126385e-13
4.396000000000000000e+03 7.458322143554687500e+01 -9.546586036682128906e+00 1.501202997631831404e-13 1.100882216333379238e-13 7.806255641895631925e-14 -1.601283260719080226e-13
4.397000000000000000e+03 7.894509124755859375e+01 -9.851040840148925781e+00 -9.207378240914942946e-14 5.204170427930421283e-14 -1.200962445539310169e-14 -2.401924891078620339e-14
4.398000000000000000e+03 5.952527618408203125e+01 -9.149632453918457031e+00 2.602085213965210642e-13 2.001604075898850282e-14 8.406736949368581735e-14 4.803849782157240678e-14
4.399000000000000000e+03 6.019519805908203125e+01 -9.127567291259765625e+00 1.561251128379126385e-13 2.041636038832214672e-13 1.080866150163402317e-13 1.601283260719080226e-14
4.400000000000000000e+03 7.172377014160156250e+01 -9.336766242980957031e+00 2.922341730583755126e-13 -1.200962445539310169e-14 8.406736949368581735e-14 -2.562053217150528361e-13
4.401000000000000000e+03 1.158318042755126953e+01 -5.766365528106689453e+00 7.405934996122451319e-14 -9.407538902614712151e-14 -6.004812227696550847e-15 -1.120898214740720378e-13
4.402000000000000000e+03 1.641420745849609375e+01 -1.140273094177246094e+01 5.504411081666896188e-14 -2.051644173561156803e-13 -4.503609128420765773e-14 -5.204170427930421283e-14
4.403000000000000000e+03 2.098161697387695312e+01 -9.471314430236816406e+00 -1.401122870069854143e-13 -6.004811719476782494e-14 -6.004811719476782494e-14 -1.601283260719080226e-14
4.404000000000000000e+03 1.196891307830810547e+01 -5.152719974517822266e+00 -4.403528797570881170e-14 -3.162534253572935050e-13 -1.080866150163402317e-13 -1.220978477827969200e-13
4.405000000000000000e+03 1.363768100738525391e+01 -3.365271329879760742e+00 -6.204972381176551699e-14 -1.180946345488015359e-13 -5.404330750817011586e-14 -4.403528797570881170e-14
4.406000000000000000e+03 1.095566177368164062e+01 -4.193191528320312500e+00 1.921539912862896271e-13 2.882309733769072846e-13 1.441154866884536423e-13 8.006416303595401129e-15
4.407000000000000000e+03 1.694962120056152344e+01 -1.182351303100585938e+01 -1.631307258330091936e-13 -7.005613842129502361e-15 -5.104090097080536681e-14 -1.301042606982605321e-14
4.408000000000000000e+03 1.010044670104980469e+01 -6.682950973510742188e+00 8.406736949368581735e-14 -4.443560862148199231e-13 -1.080866150163402317e-13 -1.301042606982605321e-13
4.409000000000000000e+03 7.971305847167968750e+00 -1.874613189697265625e+01 -5.424346952512260067e-13 -9.988004347205592381e-13 -4.623705389915355735e-13 1.776423517833858323e-13
4.410000000000000000e+03 9.220305442810058594e+00 -2.063034057617187500e+01 -1.781427517435693608e-13 -6.024827988934666756e-13 -2.341876692568689577e-13 1.881507780522942430e-13
4.411000000000000000e+03 1.802373886108398438e+00 -1.707409477233886719e+01 -6.004812227696550847e-15 8.666945199714559678e-13 2.582069215557869502e-13 -3.602887167211341057e-14
4.412000000000000000e+03 1.715724945068359375e+01 -8.971421241760253906e+00 -1.801443583605670529e-14 -4.203368474684290867e-14 -1.801443583605670529e-14 -8.907137587178468041e-14
4.413000000000000000e+03 1.262298202514648438e+01 -3.888766288757324219e+00 2.802245536851800944e-14 1.200962445539310169e-14 1.200962445539310169e-14 -1.361090737729900302e-13
4.414000000000000000e+03 1.028269004821777344e+01 -7.550620555877685547e+00 2.001604075898850282e-15 -4.223384337566360447e-13 -1.261010474642651480e-13 -1.591275125990138095e-13
4.415000000000000000e+03 1.045352745056152344e+01 -8.453905105590820312e+00 1.010810020212436766e-13 -2.311852694957677867e-13 -3.903127820947815962e-14 -1.120898214740720378e-13
4.416000000000000000e+03 2.313024044036865234e+00 -1.148774719238281250e+01 -6.805453688649501509e-14 5.884716000083278775e-13 1.561251128379126385e-13 9.207378240914942946e-14
4.417000000000000000e+03 9.048958778381347656e+00 -1.034730720520019531e+01 -1.601283260719080226e-13 -4.803849375581425996e-13 -1.921539912862896271e-13 -1.321058605389946461e-13
4.418000000000000000e+03 7.980294704437255859e+00 -1.068892860412597656e+01 -1.681347389873716347e-13 -3.923143819355157103e-13 -1.681347389873716347e-13 -2.101684237342145434e-14
4.419000000000000000e+03 2.072793006896972656e+00 -3.326166152954101562e+01 1.120898214740720378e-13 4.803849782157240678e-14 4.803849782157240678e-14 4.003208151797700565e-15
4.420000000000000000e+03 2.097158908843994141e+00 -3.092535400390625000e+01 -1.401122768425900472e-14 1.541235129971785245e-13 4.203368474684290867e-14 -8.807057595141762341e-14
4.421000000000000000e+03 3.617564916610717773e+00 -3.625445938110351562e+01 -5.554451077685249039e-14 3.052446194569922999e-14 -7.506014649345978118e-15 -6.605293026949732305e-14
4.422000000000000000e+03 2.158541202545166016e+00 -3.689397811889648438e+01 -4.003208151797700565e-15 -1.160930347080674219e-13 -3.602887167211341057e-14 4.803849782157240678e-14
4.423000000000000000e+03 2.013074636459350586e+00 -3.553803634643554688e+01 -1.581267126786467525e-13 -2.201764398785440585e-14 -5.404330750817011586e-14 -1.521218996039172544e-13
4.424000000000000000e+03 5.651088714599609375e+00 -1.904332160949707031e+01 -1.080866150163402317e-13 -2.522020949285302960e-13 -1.080866150163402317e-13 -9.607699564314481355e-14
4.425000000000000000e+03 1.219671368598937988e+00 -2.842053031921386719e+01 9.407538902614712151e-14 2.461972954063279539e-13 1.020818019416107336e-13 -4.003208151797700565e-14
4.426000000000000000e+03 2.750489711761474609e+00 -2.586441040039062500e+01 8.606896933441993136e-14 3.342678781340091554e-13 1.261010474642651480e-13 -7.205774334422682115e-14
4.427000000000000000e+03 3.423267841339111328e+00 -6.824564933776855469e+00 2.021620040424873532e-13 1.781427517435693608e-13 1.140914348673333079e-13 1.080866150163402317e-13
4.428000000000000000e+03 1.761676073074340820e+00 -8.320872306823730469e+00 1.441154866884536423e-13 3.362694779747432694e-13 1.441154866884536423e-13 1.361090737729900302e-13
4.429000000000000000e+03 1.951516151428222656e+00 -2.592612838745117188e+01 -1.801443583605670529e-14 6.785437554716888808e-13 1.981587908084919691e-13 -1.200962343895356499e-13
4.430000000000000000e+03 1.763077497482299805e+00 -2.034224319458007812e+01 9.207378240914942946e-14 5.884716000083278775e-13 2.041636038832214672e-13 8.006416303595401129e-14
4.431000000000000000e+03 6.281844139099121094e+00 -1.589783859252929688e+01 -1.991596042813861822e-13 -1.091874962839967100e-12 -3.873103823336804252e-13 3.042437992078345088e-13
4.432000000000000000e+03 1.119749903678894043e+00 -1.548583793640136719e+01 -7.005614350349270714e-14 1.090874135814545731e-12 3.062454261536229350e-13 1.120898214740720378e-13
4.433000000000000000e+03 4.047234058380126953e+00 -1.317401790618896484e+01 -7.606094980195862720e-14 1.961571909677578551e-13 3.602887167211341057e-14 2.522020949285302960e-13
4.434000000000000000e+03 1.089671134948730469e+00 -1.710735702514648438e+01 -1.200962343895356499e-13 1.321058605389946461e-12 3.602887302736612618e-13 8.006416303595401129e-14
4.435000000000000000e+03 5.939762115478515625e+00 -1.523894977569580078e+01 -2.782229470681824024e-13 -8.626913202899877398e-13 -3.422742774969456114e-13 1.471179000020819694e-13
4.436000000000000000e+03 7.353874206542968750e+00 -1.036346244812011719e+01 2.001604075898850282e-15 -4.223384337566360447e-13 -1.261010474642651480e-13 -7.405934996122451319e-14
4.437000000000000000e+03 1.134573698043823242e+00 -2.436555099487304688e+01 2.802245536851800944e-14 6.525229033320367744e-13 2.041636038832214672e-13 -2.001604075898850282e-14
4.438000000000000000e+03 1.795243144035339355e+00 -2.193194580078125000e+01 -6.004811719476782494e-14 5.004009901755923639e-13 1.321058605389946461e-13 -1.240994476235310340e-13
4.439000000000000000e+03 1.028534412384033203e+00 -9.920631408691406250e+00 -8.807057595141762341e-14 6.485197036505685464e-13 1.681347389873716347e-13 2.802245536851800944e-14
4.440000000000000000e+03 1.246713519096374512e+00 -3.006890296936035156e+01 -1.060850151756061177e-13 4.603689120457471473e-14 -1.801443583605670529e-14 -1.240994476235310340e-13
4.441000000000000000e+03 2.066212892532348633e+00 -2.924139213562011719e+01 4.403528797570881170e-14 -4.003208151797700565e-15 1.200962445539310169e-14 -1.040834085586084257e-13
4.442000000000000000e+03 2.506117820739746094e+00 -3.824156951904296875e+01 -2.001604075898850282e-14 6.004811719476782494e-14 1.200962445539310169e-14 5.204170427930421283e-14
4.443000000000000000e+03 1.363028287887573242e+00 -3.781915664672851562e+01 -8.006416303595401129e-14 -8.006416303595401129e-14 -4.803849782157240678e-14 2.001604075898850282e-14
4.444000000000000000e+03 2.050725936889648438e+00 -3.249687576293945312e+01 -3.202566521438160452e-14 3.202566521438160452e-14 0.000000000000000000e+00 4.003208151797700565e-15
4.445000000000000000e+03 2.969315052032470703e+00 -3.098512458801269531e+01 1.401122870069854143e-13 2.201764432666758475e-13 1.080866150163402317e-13 1.200962445539310169e-14
4.446000000000000000e+03 2.032019615173339844e+00 -2.839673614501953125e+01 2.421940957248597259e-13 2.181748434259417335e-13 1.381106736137241442e-13 -1.200962445539310169e-14
4.447000000000000000e+03 1.866915464401245117e+00 -2.351552772521972656e+01 1.200962445539310169e-14 5.084074437486374443e-13 1.561251128379126385e-13 -1.761411519028352468e-13
4.448000000000000000e+03 1.974630951881408691e+00 -2.674035072326660156e+01 9.607699564314481355e-14 3.843079825725792542e-13 1.441154866884536423e-13 -2.802245536851800944e-14
4.449000000000000000e+03 2.629251956939697266e+00 -2.343548393249511719e+01 -4.603689120457471473e-14 5.064057896977947060e-13 1.381106736137241442e-13 -2.321860694161348437e-13
4.450000000000000000e+03 1.901322245597839355e+00 -2.431356620788574219e+01 -7.205774334422682115e-14 7.926351632339678766e-13 2.161732300326804634e-13 -8.807057595141762341e-14
4.451000000000000000e+03 1.791701555252075195e+00 -1.870502853393554688e+01 3.402726844324750755e-14 7.465983126869746300e-13 2.341876692568689577e-13 0.000000000000000000e+00
4.452000000000000000e+03 2.473651170730590820e+00 -1.784813308715820312e+01 -8.006416303595401129e-14 5.604491480279416571e-13 1.441154866884536423e-13 -1.601283260719080226e-14
4.453000000000000000e+03 1.081231951713562012e+00 -1.792141151428222656e+01 2.201764398785440585e-14 8.787041732259692761e-13 2.702165477052459464e-13 1.120898214740720378e-13
4.454000000000000000e+03 1.015107631683349609e+00 -1.071565151214599609e+01 4.203368474684290867e-14 8.186560153736199830e-13 2.582069215557869502e-13 7.606094980195862720e-14
4.455000000000000000e+03 1.715760350227355957e+00 -9.915831565856933594e+00 1.441154866884536423e-13 6.565261030135050024e-13 2.401924687790712998e-13 1.881507780522942430e-13
4.456000000000000000e+03 7.124376296997070312e+00 -1.206009960174560547e+01 4.003208151797700565e-15 -5.244202424745103563e-13 -1.561251128379126385e-13 -9.007217918028352643e-15
4.457000000000000000e+03 1.663448810577392578e+00 -1.147436332702636719e+01 3.602887167211341057e-14 8.847089727481716182e-13 2.762213472274482884e-13 2.401924687790712998e-13
4.458000000000000000e+03 1.697319626808166504e+00 -1.070953464508056641e+01 3.202566521438160452e-14 6.084875984156690176e-13 1.921539912862896271e-13 8.406736949368581735e-14
4.459000000000000000e+03 1.796877026557922363e+00 -7.526602745056152344e+00 8.006416303595401129e-15 5.524426944548965768e-13 1.681347389873716347e-13 4.003208151797700565e-15
4.460000000000000000e+03 3.098699331283569336e+00 -2.429642200469970703e+00 -4.403528797570881170e-14 3.242598518252842732e-13 8.406736949368581735e-14 0.000000000000000000e+00
4.461000000000000000e+03 2.442543745040893555e+00 -2.575223445892333984e+00 -4.003208151797700565e-14 -4.003208151797700565e-14 -2.401924891078620339e-14 1.180946345488015359e-13
4.462000000000000000e+03 2.123490095138549805e+00 -3.403370285034179688e+01 -3.202566521438160452e-14 -1.281026608575264181e-13 -4.803849782157240678e-14 -2.401924891078620339e-14
4.463000000000000000e+03 2.107445240020751953e+00 -3.480701065063476562e+01 1.000802021008766196e-13 1.801443651368306309e-13 8.406736949368581735e-14 1.521218996039172544e-13
4.464000000000000000e+03 2.085371017456054688e+00 -3.620598220825195312e+01 1.261010474642651480e-13 5.404330750817011586e-14 5.404330750817011586e-14 -2.401924891078620339e-14
4.465000000000000000e+03 9.819780349731445312e+00 -8.150191307067871094e+00 1.080866150163402317e-13 -3.883111822540474822e-13 -8.406736949368581735e-14 -1.491194998428160834e-13
4.466000000000000000e+03 7.894598388671875000e+01 -1.063930606842041016e+01 2.802245536851800944e-14 1.200962445539310169e-14 1.200962445539310169e-14 -2.001604075898850282e-14
4.467000000000000000e+03 7.864976501464843750e+01 -3.639921951293945312e+01 -5.604491073703601889e-14 -3.442758773376797254e-13 -1.200962343895356499e-13 1.200962445539310169e-14
4.468000000000000000e+03 7.778322601318359375e+01 -4.018032455444335938e+01 -1.040834085586084257e-13 -2.962373998448980528e-13 -1.200962343895356499e-13 1.601283260719080226e-14
4.469000000000000000e+03 7.747407531738281250e+01 -2.253805541992187500e+01 6.405133042876320904e-14 -3.843079825725792542e-13 -9.607699564314481355e-14 -1.761411519028352468e-13
4.470000000000000000e+03 7.877492523193359375e+01 -3.075796508789062500e+01 -3.803047490097931360e-14 -6.204972381176551699e-14 -3.002405859738391247e-14 2.401924891078620339e-14
4.471000000000000000e+03 7.788419342041015625e+01 -3.151325225830078125e+01 1.060850151756061177e-13 -4.603689120457471473e-14 1.801443583605670529e-14 8.006416303595401129e-15
4.472000000000000000e+03 7.893276214599609375e+01 -1.462493228912353516e+01 6.805453688649501509e-14 5.204170427930421283e-14 3.602887167211341057e-14 2.001604075898850282e-14
4.473000000000000000e+03 7.893621826171875000e+01 -1.785020256042480469e+01 1.361090737729900302e-13 -5.604491073703601889e-14 2.401924891078620339e-14 0.000000000000000000e+00
4.474000000000000000e+03 7.892375183105468750e+01 -2.107624053955078125e+01 -1.200962343895356499e-13 -4.403528865333516951e-13 -1.681347389873716347e-13 -1.521218996039172544e-13
4.475000000000000000e+03 7.820233917236328125e+01 -2.181017875671386719e+01 8.006416303595401129e-15 -4.083272077664429345e-13 -1.200962343895356499e-13 -1.641315257533762506e-13
4.476000000000000000e+03 7.823474121093750000e+01 -9.809883117675781250e+00 1.020818019416107336e-13 -2.001604075898850282e-15 3.002405859738391247e-14 2.802245536851800944e-14
4.477000000000000000e+03 7.822637176513671875e+01 -1.215342807769775391e+01 -7.405934996122451319e-14 1.401122768425900472e-14 -1.801443583605670529e-14 -1.120898214740720378e-13
4.478000000000000000e+03 7.459388732910156250e+01 -1.160412311553955078e+01 1.641315257533762506e-13 1.160930347080674219e-13 8.406736949368581735e-14 -5.604491073703601889e-14
4.479000000000000000e+03 7.821825408935546875e+01 -1.454424571990966797e+01 6.405133042876320904e-14 -6.405133042876320904e-14 0.000000000000000000e+00 -1.721379386688398627e-13
4.480000000000000000e+03 7.821643066406250000e+01 -1.374440670013427734e+01 -2.001604075898850282e-15 -1.381106736137241442e-13 -4.203368474684290867e-14 -1.120898214740720378e-13
4.481000000000000000e+03 7.893439483642578125e+01 -1.865839576721191406e+01 3.002405859738391247e-14 -1.701363388281057487e-13 -4.203368474684290867e-14 9.607699564314481355e-14
4.482000000000000000e+03 7.821125030517578125e+01 -2.100407218933105469e+01 7.205774334422682115e-14 -1.521218996039172544e-13 -2.401924891078620339e-14 -1.040834085586084257e-13
4.483000000000000000e+03 7.822871398925781250e+01 -1.615572738647460938e+01 1.601283260719080226e-14 -1.761411519028352468e-13 -4.803849782157240678e-14 -1.200962343895356499e-13
4.484000000000000000e+03 7.751278686523437500e+01 -2.011973190307617188e+01 -4.003208151797700565e-15 -2.762213472274482884e-13 -8.406736949368581735e-14 3.202566521438160452e-14
4.485000000000000000e+03 7.823220062255859375e+01 -1.696582603454589844e+01 1.821459649775647449e-13 7.806255641895631925e-14 7.806255641895631925e-14 1.200962445539310169e-14
4.486000000000000000e+03 7.821881103515625000e+01 -2.019791984558105469e+01 -7.005614350349270714e-14 -3.502807039649363796e-13 -1.261010474642651480e-13 -1.641315257533762506e-13
4.487000000000000000e+03 7.892825317382812500e+01 -2.027050209045410156e+01 1.421138868477195283e-13 -2.822261738547049426e-13 -4.203368474684290867e-14 -5.604491073703601889e-14
4.488000000000000000e+03 7.816527557373046875e+01 -2.422924232482910156e+01 -3.202566521438160452e-14 -2.882309733769072846e-13 -9.607699564314481355e-14 -6.004811719476782494e-14
4.489000000000000000e+03 7.748971557617187500e+01 -2.173251914978027344e+01 8.006416303595401129e-14 -4.003208084035064784e-13 -9.607699564314481355e-14 -1.361090737729900302e-13
4.490000000000000000e+03 7.817922210693359375e+01 -2.342257690429687500e+01 1.461170865291877563e-13 -1.661331391466375207e-13 -6.004812227696550847e-15 -2.041636038832214672e-13
4.491000000000000000e+03 7.813996887207031250e+01 -2.584257507324218750e+01 -2.161732300326804634e-13 -5.044041898570605920e-13 -2.161732300326804634e-13 -1.601283260719080226e-14
4.492000000000000000e+03 7.806603240966796875e+01 -2.985407066345214844e+01 3.202566521438160452e-14 -3.202566521438160452e-14 0.000000000000000000e+00 -5.604491073703601889e-14
4.493000000000000000e+03 7.813210296630859375e+01 -2.744588279724121094e+01 -1.140914348673333079e-13 -5.064057896977947060e-13 -1.861491782115601290e-13 -7.606094980195862720e-14
4.494000000000000000e+03 7.812791442871093750e+01 -2.824462699890136719e+01 -5.404330750817011586e-14 -2.061652172764827373e-13 -7.806255641895631925e-14 -1.601283260719080226e-14
4.495000000000000000e+03 7.811018371582031250e+01 -2.904581642150878906e+01 -9.207378240914942946e-14 -2.682149478645118323e-13 -1.080866150163402317e-13 -3.202566521438160452e-14
4.496000000000000000e+03 7.724047851562500000e+01 -3.055778503417968750e+01 2.401924891078620339e-14 -2.642117210779892922e-13 -7.205774334422682115e-14 -1.601283260719080226e-14
4.497000000000000000e+03 7.679528045654296875e+01 -3.401644897460937500e+01 -8.206576287668812530e-14 -2.181748434259417335e-13 -9.007218256841531545e-14 -1.401122870069854143e-13
4.498000000000000000e+03 7.766934967041015625e+01 -3.569185256958007812e+01 -1.801443583605670529e-14 -1.220978477827969200e-13 -4.203368474684290867e-14 1.601283260719080226e-14
4.499000000000000000e+03 7.778675079345703125e+01 -3.235566711425781250e+01 -1.220978477827969200e-13 -9.807859548387892756e-14 -6.605293026949732305e-14 -4.403528797570881170e-14
4.500000000000000000e+03 7.772843170166015625e+01 -3.319347763061523438e+01 -5.804651735403371093e-14 -3.222582519845501592e-13 -1.140914348673333079e-13 -2.802245536851800944e-14
4.501000000000000000e+03 7.766655731201171875e+01 -3.486049652099609375e+01 -6.805453688649501509e-14 -2.121700303512122354e-13 -8.406736949368581735e-14 -4.803849782157240678e-14
4.502000000000000000e+03 9.352260589599609375e+00 -8.762332916259765625e+00 6.505213034913026604e-14 -4.353488598264620979e-13 -1.110890215537049808e-13 -1.100882199392720293e-14
4.503000000000000000e+03 8.886968612670898438e+00 -9.388793945312500000e+00 1.701363422162375377e-14 -3.873103823336804252e-13 -1.110890215537049808e-13 -9.007218256841531545e-14
4.504000000000000000e+03 1.461290264129638672e+01 -1.404840373992919922e+01 -1.045838085187919542e-13 -9.057258252859884395e-14 -5.854691731421723944e-14 -6.405133042876320904e-14
4.505000000000000000e+03 1.609269905090332031e+01 -1.316811943054199219e+01 -8.606896933441993136e-14 -9.407538902614712151e-14 -5.404330750817011586e-14 -2.952365863720038397e-14
4.506000000000000000e+03 1.652895927429199219e+01 -1.249118709564208984e+01 -1.961571909677578551e-13 -2.441956955655938399e-13 -1.321058605389946461e-13 -4.903929774193946378e-14
4.507000000000000000e+03 6.001861572265625000e+00 -3.156294584274291992e+00 -2.602085213965210642e-14 -1.941555911270237411e-13 -6.605293026949732305e-14 6.004811719476782494e-14
4.508000000000000000e+03 3.281236171722412109e+00 -3.004268169403076172e+00 -5.204170427930421283e-14 -6.805453688649501509e-14 -3.602887167211341057e-14 -7.205774334422682115e-14
4.509000000000000000e+03 4.744178771972656250e+00 -4.589560031890869141e+00 1.641315257533762506e-13 -1.240994476235310340e-13 1.200962445539310169e-14 1.080866150163402317e-13
4.510000000000000000e+03 2.191392660140991211e+00 -3.489583015441894531e+00 4.403528797570881170e-14 1.561251128379126385e-13 6.004811719476782494e-14 6.004811719476782494e-14
4.511000000000000000e+03 1.847247719764709473e+00 -2.769110918045043945e+00 1.040834085586084257e-13 1.361090737729900302e-13 7.205774334422682115e-14 7.405934996122451319e-14
4.512000000000000000e+03 1.830737709999084473e+00 -5.128429412841796875e+00 9.007218256841531545e-14 4.503609128420765773e-13 1.621299259126421366e-13 4.803849782157240678e-14
4.513000000000000000e+03 7.709862232208251953e+00 -2.438694477081298828e+00 1.200962343895356499e-13 -4.003208151797700565e-14 2.401924891078620339e-14 -1.601283260719080226e-14
4.514000000000000000e+03 1.066311168670654297e+01 -4.759791851043701172e+00 -4.003208151797700565e-14 -2.001604042017532392e-13 -7.205774334422682115e-14 1.601283260719080226e-14
4.515000000000000000e+03 4.452834606170654297e+00 -3.045245409011840820e+00 4.003208151797700565e-15 -4.403528797570881170e-14 -1.200962445539310169e-14 2.401924891078620339e-14
4.516000000000000000e+03 9.059239387512207031e+00 -3.495865583419799805e+00 8.807057595141762341e-14 -3.282630515067525012e-13 -7.205774334422682115e-14 -2.401924891078620339e-14
4.517000000000000000e+03 6.906069278717041016e+00 -2.463678359985351562e+00 -7.806255641895631925e-14 -2.622101212372551782e-13 -1.020818019416107336e-13 -7.205774334422682115e-14
4.518000000000000000e+03 5.196457386016845703e+00 -3.134753465652465820e+00 -3.602887167211341057e-14 -2.441956955655938399e-13 -8.406736949368581735e-14 1.200962445539310169e-14
4.519000000000000000e+03 1.116964054107666016e+01 -6.366460800170898438e+00 6.405133042876320904e-14 -2.241796429481440756e-13 -4.803849782157240678e-14 -1.501202997631831404e-13
4.520000000000000000e+03 7.325759887695312500e+00 -1.306314563751220703e+01 -8.606896933441993136e-14 -8.146528156921517549e-13 -2.702165477052459464e-13 -1.281026608575264181e-13
4.521000000000000000e+03 7.545289039611816406e+00 -1.136605167388916016e+01 2.201764398785440585e-14 -4.823865916089853378e-13 -1.381106736137241442e-13 -1.060850151756061177e-13
4.522000000000000000e+03 1.272659206390380859e+01 -1.788099861145019531e+01 -2.021620040424873532e-13 3.022421993671003948e-13 3.002405859738391247e-14 -1.641315257533762506e-13
4.523000000000000000e+03 1.359393596649169922e+01 -1.619886016845703125e+01 -1.220978477827969200e-13 -1.801443583605670529e-14 -4.203368474684290867e-14 -3.552847171192988207e-14
4.524000000000000000e+03 1.412784290313720703e+01 -1.570974254608154297e+01 -9.007218256841531545e-14 -5.004010105043830980e-14 -4.203368474684290867e-14 -8.481796943396111010e-14
4.525000000000000000e+03 1.563415431976318359e+01 -1.383863735198974609e+01 -1.501202929869195624e-14 -3.552847035667716646e-13 -1.110890215537049808e-13 -6.204972381176551699e-14
4.526000000000000000e+03 3.441125154495239258e+00 -1.448840045928955078e+01 -1.401122870069854143e-13 4.203368339159019307e-13 8.406736949368581735e-14 2.041636038832214672e-13
4.527000000000000000e+03 1.250874996185302734e+01 -1.855831336975097656e+01 -2.121700303512122354e-13 -2.281828697346666157e-13 -1.321058605389946461e-13 -7.205774334422682115e-14
4.528000000000000000e+03 9.178785324096679688e+00 -1.950347518920898438e+01 -3.062454261536229350e-13 -3.142518255165593910e-13 -1.861491782115601290e-13 3.963175816169839383e-13
4.529000000000000000e+03 1.233109569549560547e+01 -1.932217216491699219e+01 -2.672141479441447753e-13 -2.301844560228735737e-14 -8.706977603105056640e-14 4.003208151797700565e-15
4.530000000000000000e+03 1.026470303535461426e+00 -3.615126848220825195e+00 2.401924891078620339e-14 2.161732300326804634e-13 7.205774334422682115e-14 7.606094980195862720e-14
4.531000000000000000e+03 1.611168861389160156e+00 -3.658941745758056641e+00 -2.401924891078620339e-14 -5.604491073703601889e-14 -2.401924891078620339e-14 1.200962445539310169e-14
4.532000000000000000e+03 7.345066547393798828e+00 -1.909569740295410156e+01 -3.362694779747432694e-13 -7.846287638710314205e-13 -3.362694779747432694e-13 2.401924891078620339e-14
4.533000000000000000e+03 7.492024421691894531e+00 -1.820143508911132812e+01 -5.234194696591976115e-13 -7.275830328848376105e-13 -3.753007561842214290e-13 1.501202997631831404e-13
4.534000000000000000e+03 3.821715831756591797e+00 -3.878123855590820312e+01 5.404330750817011586e-14 4.603689120457471473e-14 3.002405859738391247e-14 -1.200962445539310169e-14
4.535000000000000000e+03 5.490515136718750000e+01 -9.544144630432128906e+00 3.562855034871387216e-13 -7.606094980195862720e-14 8.406736949368581735e-14 -1.200962343895356499e-13
4.536000000000000000e+03 6.262702560424804688e+01 -9.620805740356445312e+00 2.321860694161348437e-13 -3.122502256758252770e-13 -2.401924891078620339e-14 8.807057595141762341e-14
4.537000000000000000e+03 6.317632675170898438e+01 -9.607650756835937500e+00 3.722983564231202580e-13 6.805453688649501509e-14 1.321058605389946461e-13 -8.006416303595401129e-15
4.538000000000000000e+03 7.111892700195312500e+01 -9.859527587890625000e+00 2.782229470681824024e-13 -1.801443583605670529e-14 7.806255641895631925e-14 -1.601283260719080226e-13
4.539000000000000000e+03 7.051681518554687500e+01 -9.803768157958984375e+00 1.721379386688398627e-13 2.802245536851800944e-14 6.004811719476782494e-14 -8.006416303595401129e-14
4.540000000000000000e+03 5.538455581665039062e+01 -9.082774162292480469e+00 1.200962343895356499e-13 -4.003208151797700565e-14 2.401924891078620339e-14 -1.441154866884536423e-13
4.541000000000000000e+03 5.586207199096679688e+01 -1.008626747131347656e+01 3.442758773376797254e-13 -5.844683461167510252e-13 -7.205774334422682115e-14 8.006416303595401129e-14
4.542000000000000000e+03 4.377242660522460938e+01 -9.565106391906738281e+00 4.003208084035064784e-13 8.006416303595401129e-14 1.441154866884536423e-13 -1.921539912862896271e-13
4.543000000000000000e+03 4.191368103027343750e+01 -9.165638923645019531e+00 1.200962445539310169e-14 -1.321058605389946461e-13 -3.602887167211341057e-14 6.405133042876320904e-14
4.544000000000000000e+03 4.370738220214843750e+01 -9.996172904968261719e+00 1.120898214740720378e-13 -2.722181475459800604e-13 -4.803849782157240678e-14 4.003208151797700565e-14
4.545000000000000000e+03 4.328651809692382812e+01 -9.992560386657714844e+00 7.205774334422682115e-14 -4.723785381952061435e-13 -1.200962343895356499e-13 -8.006416303595401129e-14
4.546000000000000000e+03 5.438705444335937500e+01 -9.066952705383300781e+00 2.602085213965210642e-13 2.001604075898850282e-14 8.406736949368581735e-14 -7.205774334422682115e-14
4.547000000000000000e+03 4.960927200317382812e+01 -1.012056922912597656e+01 2.401924891078620339e-14 5.604491073703601889e-14 2.401924891078620339e-14 -8.006416303595401129e-14
4.548000000000000000e+03 5.050537490844726562e+01 -9.588999748229980469e+00 2.121700303512122354e-13 2.281828697346666157e-13 1.321058605389946461e-13 0.000000000000000000e+00
4.549000000000000000e+03 3.896835708618164062e+01 -9.277117729187011719e+00 5.204170427930421283e-14 -2.522020949285302960e-13 -6.004811719476782494e-14 9.607699564314481355e-14
4.550000000000000000e+03 4.048549270629882812e+01 -9.698306083679199219e+00 1.240994476235310340e-13 -4.043240080849747065e-13 -8.406736949368581735e-14 8.807057595141762341e-14
4.551000000000000000e+03 5.100119018554687500e+01 -9.580235481262207031e+00 3.282630515067525012e-13 2.321860694161348437e-13 1.681347389873716347e-13 -8.006416303595401129e-15
4.552000000000000000e+03 3.999588775634765625e+01 -9.719822883605957031e+00 1.561251128379126385e-13 -1.160930347080674219e-13 1.200962445539310169e-14 3.682951296365977178e-13
4.553000000000000000e+03 4.648413467407226562e+01 -9.405946731567382812e+00 2.161732300326804634e-13 1.841475648182988589e-13 1.200962343895356499e-13 9.607699564314481355e-14
4.554000000000000000e+03 4.426544189453125000e+01 -1.061862850189208984e+01 1.110890215537049808e-13 -3.813055557064237711e-13 -8.106496295632106830e-14 -4.603689120457471473e-14
4.555000000000000000e+03 4.239732360839843750e+01 -9.592234611511230469e+00 3.202566521438160452e-14 -3.522823038056704936e-13 -9.607699564314481355e-14 -1.040834085586084257e-13
4.556000000000000000e+03 4.287215423583984375e+01 -9.125979423522949219e+00 1.681347389873716347e-13 3.923143819355157103e-13 1.681347389873716347e-13 -3.202566521438160452e-14
4.557000000000000000e+03 4.820467376708984375e+01 -8.958916664123535156e+00 2.221780431074099615e-13 5.184154429523080143e-13 2.221780431074099615e-13 -9.807859548387892756e-14
4.558000000000000000e+03 5.001416015625000000e+01 -9.606897354125976562e+00 1.000802021008766196e-13 1.801443651368306309e-13 8.406736949368581735e-14 -1.681347389873716347e-13
4.559000000000000000e+03 4.952846527099609375e+01 -9.639761924743652344e+00 1.321058605389946461e-13 1.481186999224490264e-13 8.406736949368581735e-14 6.405133042876320904e-14
4.560000000000000000e+03 4.782792282104492188e+01 -9.192149162292480469e+00 2.662133209187234062e-13 1.941555911270237411e-13 1.381106736137241442e-13 -1.421138868477195283e-13
4.561000000000000000e+03 4.858755874633789062e+01 -9.821750640869140625e+00 1.100882216333379238e-13 2.301844695754007297e-13 1.020818019416107336e-13 5.604491073703601889e-14
4.562000000000000000e+03 4.096999740600585938e+01 -9.675069808959960938e+00 9.207378240914942946e-14 2.682149478645118323e-13 1.080866150163402317e-13 6.405133042876320904e-14
4.563000000000000000e+03 3.950207901000976562e+01 -9.738608360290527344e+00 2.001604075898850282e-14 -2.201764432666758475e-13 -6.004811719476782494e-14 1.441154866884536423e-13
4.564000000000000000e+03 3.946541595458984375e+01 -9.262256622314453125e+00 -1.561251128379126385e-13 1.160930347080674219e-13 -1.200962445539310169e-14 5.604491073703601889e-14
4.565000000000000000e+03 3.904919052124023438e+01 -1.023744201660156250e+01 -1.080866150163402317e-13 -9.207378240914942946e-14 -6.004811719476782494e-14 6.405133042876320904e-14
4.566000000000000000e+03 5.248079681396484375e+01 -9.573512077331542969e+00 3.122502256758252770e-13 8.807057595141762341e-14 1.200962343895356499e-13 1.521218996039172544e-13
4.567000000000000000e+03 5.198880004882812500e+01 -9.573179244995117188e+00 2.081668171172168513e-13 2.722181475459800604e-13 1.441154866884536423e-13 1.601283260719080226e-14
4.568000000000000000e+03 5.144752502441406250e+01 -9.087278366088867188e+00 2.882309733769072846e-13 3.202566521438160452e-14 9.607699564314481355e-14 -2.001604042017532392e-13
4.569000000000000000e+03 3.597220230102539062e+01 -9.357071876525878906e+00 1.601283260719080226e-14 -1.761411519028352468e-13 -4.803849782157240678e-14 -2.401924891078620339e-14
4.570000000000000000e+03 3.751432037353515625e+01 -9.795173645019531250e+00 -1.160930347080674219e-13 -3.242598518252842732e-13 -1.321058605389946461e-13 -6.405133042876320904e-14
4.571000000000000000e+03 3.855188369750976562e+01 -1.025195121765136719e+01 -1.160930347080674219e-13 -3.242598518252842732e-13 -1.321058605389946461e-13 -2.562053217150528361e-13
4.572000000000000000e+03 6.783782958984375000e+01 -9.108492851257324219e+00 3.923143819355157103e-13 1.681347389873716347e-13 1.681347389873716347e-13 4.803849782157240678e-14
4.573000000000000000e+03 6.940002441406250000e+01 -9.700170516967773438e+00 1.401122870069854143e-13 6.004811719476782494e-14 6.004811719476782494e-14 -2.722181475459800604e-13
4.574000000000000000e+03 6.312797164916992188e+01 -1.010508823394775391e+01 2.201764432666758475e-13 -1.801443651368306309e-13 1.200962445539310169e-14 1.601283260719080226e-14
4.575000000000000000e+03 6.375011062622070312e+01 -9.103541374206542969e+00 3.042437992078345088e-13 1.761411519028352468e-13 1.441154866884536423e-13 -1.361090737729900302e-13
4.576000000000000000e+03 6.833689880371093750e+01 -1.012362194061279297e+01 3.763015561045884860e-13 2.401924891078620339e-14 1.200962343895356499e-13 -8.807057595141762341e-14
4.577000000000000000e+03 6.834304046630859375e+01 -9.619058609008789062e+00 1.321058605389946461e-13 1.481186999224490264e-13 8.406736949368581735e-14 7.205774334422682115e-14
4.578000000000000000e+03 3.697535705566406250e+01 -9.331277847290039062e+00 -5.604491073703601889e-14 -2.401924891078620339e-14 -2.401924891078620339e-14 -9.607699564314481355e-14
4.579000000000000000e+03 6.630767059326171875e+01 -9.087036132812500000e+00 3.963175816169839383e-13 1.240994476235310340e-13 1.561251128379126385e-13 2.401924891078620339e-14
4.580000000000000000e+03 3.501351165771484375e+01 -9.861176490783691406e+00 -1.681347389873716347e-13 -7.205774334422682115e-14 -7.205774334422682115e-14 -8.807057595141762341e-14
4.581000000000000000e+03 3.299311447143554688e+01 -9.908247947692871094e+00 2.241796429481440756e-13 -2.241796429481440756e-13 0.000000000000000000e+00 2.401924687790712998e-13
4.582000000000000000e+03 3.349850082397460938e+01 -9.896751403808593750e+00 -4.003208151797700565e-15 3.642919299551294898e-13 1.080866150163402317e-13 -2.241796429481440756e-13
4.583000000000000000e+03 3.400490951538085938e+01 -9.885699272155761719e+00 8.807057595141762341e-14 -8.006416303595401129e-15 2.401924891078620339e-14 -5.604491073703601889e-14
4.584000000000000000e+03 3.446956634521484375e+01 -9.397885322570800781e+00 8.006416303595401129e-14 8.006416303595401129e-14 4.803849782157240678e-14 -3.202566521438160452e-14
4.585000000000000000e+03 3.601263427734375000e+01 -9.833168983459472656e+00 1.361090737729900302e-13 1.040834085586084257e-13 7.205774334422682115e-14 -8.006416303595401129e-15
4.586000000000000000e+03 3.451060104370117188e+01 -9.874115943908691406e+00 1.601283260719080226e-13 1.601283260719080226e-13 9.607699564314481355e-14 -5.604491073703601889e-14
4.587000000000000000e+03 2.942172622680664062e+01 -9.959529876708984375e+00 -1.200962343895356499e-13 4.003208151797700565e-14 -2.401924891078620339e-14 -4.803849782157240678e-14
4.588000000000000000e+03 3.044665145874023438e+01 -9.951894760131835938e+00 2.401924891078620339e-14 5.604491073703601889e-14 2.401924891078620339e-14 -4.803849782157240678e-14
4.589000000000000000e+03 2.993418884277343750e+01 -9.956192016601562500e+00 -2.361892690976030718e-13 -6.044843987342007896e-13 -2.522020949285302960e-13 4.803849782157240678e-14
4.590000000000000000e+03 3.194490051269531250e+01 -9.453929901123046875e+00 2.241796429481440756e-13 9.607699564314481355e-14 9.607699564314481355e-14 2.081668171172168513e-13
4.591000000000000000e+03 6.681750488281250000e+01 -9.091405868530273438e+00 2.401924687790712998e-13 2.401924687790712998e-13 1.441154866884536423e-13 1.601283260719080226e-13
4.592000000000000000e+03 6.782762908935546875e+01 -9.596583366394042969e+00 3.362694779747432694e-13 -1.761411519028352468e-13 4.803849782157240678e-14 -1.200962343895356499e-13
4.593000000000000000e+03 5.763076782226562500e+01 -9.185715675354003906e+00 1.000802021008766196e-13 -1.401122870069854143e-13 -1.200962445539310169e-14 -2.161732300326804634e-13
4.594000000000000000e+03 3.198337554931640625e+01 -9.931590080261230469e+00 1.761411519028352468e-13 3.042437992078345088e-13 1.441154866884536423e-13 3.362694779747432694e-13
4.595000000000000000e+03 2.681537628173828125e+01 -9.934603691101074219e+00 -1.200962445539310169e-14 -1.881507780522942430e-13 -6.004811719476782494e-14 1.361090737729900302e-13
4.596000000000000000e+03 2.733972358703613281e+01 -9.944194793701171875e+00 -2.001604075898850282e-14 -1.000802021008766196e-13 -3.602887167211341057e-14 -8.807057595141762341e-14
4.597000000000000000e+03 3.095949363708496094e+01 -9.946667671203613281e+00 -4.003208151797700565e-14 1.200962343895356499e-13 2.401924891078620339e-14 2.081668171172168513e-13
4.598000000000000000e+03 2.887775230407714844e+01 -9.479649543762207031e+00 1.200962343895356499e-13 -4.003208151797700565e-14 2.401924891078620339e-14 1.361090737729900302e-13
4.599000000000000000e+03 5.296866989135742188e+01 -9.573598861694335938e+00 4.523625126828106913e-13 4.683753385137379155e-13 2.762213472274482884e-13 -2.401924891078620339e-14
4.600000000000000000e+03 5.345466613769531250e+01 -9.572443962097167969e+00 2.882309733769072846e-13 3.202566521438160452e-14 9.607699564314481355e-14 -1.521218996039172544e-13
4.601000000000000000e+03 4.750360870361328125e+01 -9.511707305908203125e+00 9.307458910578006450e-14 4.973986175195455051e-13 1.771419518232023038e-13 -5.204170427930421283e-14
4.602000000000000000e+03 2.466336441040039062e+01 -9.873373985290527344e+00 -1.681347389873716347e-13 -7.205774334422682115e-14 -7.205774334422682115e-14 -2.401924687790712998e-13
4.603000000000000000e+03 2.303583717346191406e+01 -9.702363014221191406e+00 -4.003208151797700565e-14 -2.001604042017532392e-13 -7.205774334422682115e-14 -4.003208151797700565e-14
4.604000000000000000e+03 2.203760147094726562e+01 -9.081660270690917969e+00 -2.802245536851800944e-14 -1.200962445539310169e-14 -1.200962445539310169e-14 -1.120898214740720378e-13
4.605000000000000000e+03 2.409343338012695312e+01 -1.037185096740722656e+01 -1.120898214740720378e-13 -4.803849782157240678e-14 -4.803849782157240678e-14 -1.040834085586084257e-13
4.606000000000000000e+03 2.003908920288085938e+01 -8.859857559204101562e+00 -2.802245536851800944e-14 -1.200962445539310169e-14 -1.200962445539310169e-14 -1.040834085586084257e-13
4.607000000000000000e+03 2.052614402770996094e+01 -9.362727165222167969e+00 -4.003208151797700565e-14 -2.001604042017532392e-13 -7.205774334422682115e-14 0.000000000000000000e+00
4.608000000000000000e+03 1.774405479431152344e+01 -1.059396171569824219e+01 -3.602887167211341057e-14 -2.441956955655938399e-13 -8.406736949368581735e-14 -1.261010474642651480e-13
4.609000000000000000e+03 2.148124694824218750e+01 -9.543107986450195312e+00 1.761411519028352468e-13 -1.601283260719080226e-14 4.803849782157240678e-14 1.521218996039172544e-13
4.610000000000000000e+03 2.574712181091308594e+01 -9.419200897216796875e+00 -4.403528797570881170e-14 -1.561251128379126385e-13 -6.004811719476782494e-14 2.401924891078620339e-14
4.611000000000000000e+03 2.890658760070800781e+01 -9.960561752319335938e+00 8.406736949368581735e-14 -6.044843987342007896e-13 -1.561251128379126385e-13 1.120898214740720378e-13
4.612000000000000000e+03 6.525894927978515625e+01 -9.560632705688476562e+00 1.321058605389946461e-13 -1.721379386688398627e-13 -1.200962445539310169e-14 -1.601283260719080226e-13
4.613000000000000000e+03 4.513812255859375000e+01 -9.784193992614746094e+00 3.843079825725792542e-13 -6.405133042876320904e-14 9.607699564314481355e-14 1.200962343895356499e-13
4.614000000000000000e+03 4.563908767700195312e+01 -9.797286033630371094e+00 -1.080866150163402317e-13 -9.207378240914942946e-14 -6.004811719476782494e-14 4.003208151797700565e-14
4.615000000000000000e+03 2.786360168457031250e+01 -9.952344894409179688e+00 -6.004811719476782494e-14 -6.204972516701823260e-13 -2.041636038832214672e-13 1.120898214740720378e-13
4.616000000000000000e+03 4.612409591674804688e+01 -9.252395629882812500e+00 7.205774334422682115e-14 1.681347389873716347e-13 7.205774334422682115e-14 -8.006416303595401129e-14
4.617000000000000000e+03 2.575725555419921875e+01 -9.912548065185546875e+00 1.601283260719080226e-14 -1.761411519028352468e-13 -4.803849782157240678e-14 4.003208151797700565e-14
4.618000000000000000e+03 6.150975799560546875e+01 -9.124704360961914062e+00 1.080866150163402317e-13 -2.281828697346666157e-13 -3.602887167211341057e-14 2.401924891078620339e-14
4.619000000000000000e+03 6.205229949951171875e+01 -9.626260757446289062e+00 2.722181475459800604e-13 -1.120898214740720378e-13 4.803849782157240678e-14 2.401924891078620339e-14
4.620000000000000000e+03 2.521481513977050781e+01 -9.895902633666992188e+00 2.401924891078620339e-14 -2.642117210779892922e-13 -7.205774334422682115e-14 -7.205774334422682115e-14
4.621000000000000000e+03 2.252179908752441406e+01 -9.626014709472656250e+00 -1.681347389873716347e-13 -7.205774334422682115e-14 -7.205774334422682115e-14 1.521218996039172544e-13
4.622000000000000000e+03 2.200002288818359375e+01 -9.585197448730468750e+00 -7.606094980195862720e-14 -1.240994476235310340e-13 -6.004811719476782494e-14 -8.807057595141762341e-14
4.623000000000000000e+03 5.824180984497070312e+01 -9.187373161315917969e+00 1.040834085586084257e-13 -1.841475648182988589e-13 -2.401924891078620339e-14 8.807057595141762341e-14
4.624000000000000000e+03 5.825960922241210938e+01 -9.702420234680175781e+00 1.761411519028352468e-13 -1.601283260719080226e-14 4.803849782157240678e-14 -5.604491073703601889e-14
4.625000000000000000e+03 6.628572845458984375e+01 -9.566926956176757812e+00 1.361090737729900302e-13 1.040834085586084257e-13 7.205774334422682115e-14 -8.006416303595401129e-15
4.626000000000000000e+03 3.370540380477905273e+00 -1.327430915832519531e+01 -4.503609128420765773e-14 2.552045217946857791e-13 6.305052373213257400e-14 2.361892690976030718e-13
4.627000000000000000e+03 5.764256286621093750e+01 -9.708130836486816406e+00 1.641315257533762506e-13 -2.041636038832214672e-13 -1.200962445539310169e-14 -1.120898214740720378e-13
4.628000000000000000e+03 6.086289215087890625e+01 -9.118835449218750000e+00 2.321860694161348437e-13 -3.122502256758252770e-13 -2.401924891078620339e-14 2.161732300326804634e-13
4.629000000000000000e+03 5.645025253295898438e+01 -9.666052818298339844e+00 6.805453688649501509e-14 -4.283432603838926989e-13 -1.080866150163402317e-13 -1.601283260719080226e-14
4.630000000000000000e+03 5.703694152832031250e+01 -9.699024200439453125e+00 1.441154866884536423e-13 -3.042437992078345088e-13 -4.803849782157240678e-14 -1.441154866884536423e-13
4.631000000000000000e+03 6.731375122070312500e+01 -9.581769943237304688e+00 3.362694779747432694e-13 1.441154866884536423e-13 1.441154866884536423e-13 -7.205774334422682115e-14
4.632000000000000000e+03 6.732792663574218750e+01 -9.098947525024414062e+00 5.844683461167510252e-13 -2.401924891078620339e-14 1.681347389873716347e-13 -1.841475648182988589e-13
4.633000000000000000e+03 1.374747371673583984e+01 -1.740434074401855469e+01 -3.202566521438160452e-14 3.202566521438160452e-14 0.000000000000000000e+00 -1.761411519028352468e-13
4.634000000000000000e+03 1.382091236114501953e+01 -1.674448966979980469e+01 -2.021620040424873532e-13 -1.781427517435693608e-13 -1.140914348673333079e-13 -1.080866150163402317e-13
4.635000000000000000e+03 1.885396718978881836e+00 -1.543134212493896484e+01 -8.807057595141762341e-14 6.485197036505685464e-13 1.681347389873716347e-13 2.481988952470620680e-13
4.636000000000000000e+03 6.405071735382080078e+00 -1.665177345275878906e+01 -7.085678072928092153e-13 -1.172940000335187527e-12 -5.644523477094098851e-13 1.321058605389946461e-13
4.637000000000000000e+03 1.064649868011474609e+01 -3.002700090408325195e+00 8.606896933441993136e-14 -1.461170865291877563e-13 -1.801443583605670529e-14 -1.441154866884536423e-13
4.638000000000000000e+03 1.162919425964355469e+01 -4.349418640136718750e+00 0.000000000000000000e+00 -3.202566521438160452e-13 -9.607699564314481355e-14 -4.003208151797700565e-14
4.639000000000000000e+03 9.154471397399902344e+00 -2.963338136672973633e+00 -1.120898214740720378e-13 -4.803849782157240678e-14 -4.803849782157240678e-14 -2.241796429481440756e-13
4.640000000000000000e+03 8.396963119506835938e+00 -3.000574350357055664e+00 1.941555911270237411e-13 -5.404330750817011586e-14 4.203368474684290867e-14 -3.202566521438160452e-14
4.641000000000000000e+03 1.190400505065917969e+01 -3.748888492584228516e+00 -2.802245536851800944e-14 1.481186999224490264e-13 3.602887167211341057e-14 3.202566521438160452e-14
4.642000000000000000e+03 1.119126033782958984e+01 -3.630012273788452148e+00 1.040834085586084257e-13 -3.442758773376797254e-13 -7.205774334422682115e-14 -1.240994476235310340e-13
4.643000000000000000e+03 6.577219390869140625e+01 -9.563740730285644531e+00 2.281828697346666157e-13 5.204170427930421283e-14 8.406736949368581735e-14 -8.006416303595401129e-15
4.644000000000000000e+03 7.606262969970703125e+01 -9.663872718811035156e+00 9.407538902614712151e-14 8.606896933441993136e-14 5.404330750817011586e-14 -2.001604075898850282e-14
4.645000000000000000e+03 6.144990921020507812e+01 -9.620627403259277344e+00 2.121700303512122354e-13 -9.207378240914942946e-14 3.602887167211341057e-14 3.122502256758252770e-13
4.646000000000000000e+03 5.889056015014648438e+01 -9.681327819824218750e+00 1.200962343895356499e-13 -3.602887302736612618e-13 -7.205774334422682115e-14 2.962373998448980528e-13
4.647000000000000000e+03 5.953359985351562500e+01 -9.651058197021484375e+00 1.160930347080674219e-13 4.003208151797700565e-15 3.602887167211341057e-14 -1.761411519028352468e-13
4.648000000000000000e+03 1.130284595489501953e+01 -4.948013305664062500e+00 1.601283260719080226e-14 -1.761411519028352468e-13 -4.803849782157240678e-14 3.803047490097931360e-14
4.649000000000000000e+03 7.384432220458984375e+01 -9.485798835754394531e+00 6.805453688649501509e-14 -1.080866150163402317e-13 -1.200962445539310169e-14 -5.604491073703601889e-14
4.650000000000000000e+03 7.749806213378906250e+01 -1.286134338378906250e+01 2.802245536851800944e-14 -1.481186999224490264e-13 -3.602887167211341057e-14 -1.040834085586084257e-13
4.651000000000000000e+03 7.386780548095703125e+01 -1.013919067382812500e+01 1.321058605389946461e-13 1.481186999224490264e-13 8.406736949368581735e-14 -2.802245740139708285e-13
4.652000000000000000e+03 1.735207939147949219e+01 -1.118370532989501953e+01 -1.701363388281057487e-13 -1.301042606982605321e-13 -9.007218256841531545e-14 -1.581267126786467525e-13
4.653000000000000000e+03 2.011485481262207031e+01 -9.365745544433593750e+00 8.006416303595401129e-14 -2.401924687790712998e-13 -4.803849782157240678e-14 -1.200962445539310169e-14
4.654000000000000000e+03 7.460068511962890625e+01 -1.022278022766113281e+01 9.407538902614712151e-14 8.606896933441993136e-14 5.404330750817011586e-14 -4.003208151797700565e-15
4.655000000000000000e+03 7.751871490478515625e+01 -1.129328250885009766e+01 -5.204170427930421283e-14 -6.805453688649501509e-14 -3.602887167211341057e-14 -1.641315257533762506e-13
4.656000000000000000e+03 1.029662513732910156e+01 -4.064927101135253906e+00 4.403528797570881170e-14 -1.641315257533762506e-13 -3.602887167211341057e-14 -3.602887167211341057e-14
4.657000000000000000e+03 6.018209838867187500e+01 -9.625080108642578125e+00 2.562053217150528361e-13 -2.562053217150528361e-13 0.000000000000000000e+00 2.321860694161348437e-13
4.658000000000000000e+03 9.514224052429199219e+00 -4.454863548278808594e+00 1.240994476235310340e-13 -7.245806602287907516e-13 -1.801443651368306309e-13 -1.361090737729900302e-13
4.659000000000000000e+03 2.054144287109375000e+01 -8.877652168273925781e+00 -8.006416303595401129e-15 -2.321860694161348437e-13 -7.205774334422682115e-14 -3.202566521438160452e-14
4.660000000000000000e+03 1.894023895263671875e+01 -8.999527931213378906e+00 1.160930347080674219e-13 1.641315257533762506e-13 8.406736949368581735e-14 -3.202566521438160452e-14
4.661000000000000000e+03 7.176515960693359375e+01 -9.921626091003417969e+00 1.261010474642651480e-13 3.742999562638543720e-13 1.501202997631831404e-13 -9.607699564314481355e-14
4.662000000000000000e+03 7.244415283203125000e+01 -9.987360000610351562e+00 1.521218996039172544e-13 2.481988952470620680e-13 1.200962343895356499e-13 -3.122502256758252770e-13
4.663000000000000000e+03 6.714952945709228516e+00 -1.276690196990966797e+01 -1.100882216333379238e-13 -6.305052508738528960e-13 -2.221780431074099615e-13 -3.402726844324750755e-14
4.664000000000000000e+03 1.362372875213623047e+01 -1.807891845703125000e+01 -2.121700303512122354e-13 -6.805453688649501509e-14 -8.406736949368581735e-14 8.406736949368581735e-14
4.665000000000000000e+03 7.620673656463623047e+00 -3.061936378479003906e+00 -2.201764398785440585e-14 -2.381908689383371858e-13 -7.806255641895631925e-14 -1.521218996039172544e-13
4.666000000000000000e+03 7.751860046386718750e+01 -9.765048980712890625e+00 4.403528797570881170e-14 1.561251128379126385e-13 6.004811719476782494e-14 -4.003208151797700565e-15
4.667000000000000000e+03 1.846096754074096680e+00 -5.922482490539550781e+00 -1.601283260719080226e-14 4.963977904941241359e-13 1.441154866884536423e-13 -8.406736949368581735e-14
4.668000000000000000e+03 2.091541767120361328e+00 -3.008908653259277344e+01 1.541235129971785245e-13 6.605293026949732305e-14 6.605293026949732305e-14 3.602887167211341057e-14
4.669000000000000000e+03 3.590986967086791992e+00 -2.662392616271972656e+01 4.203368474684290867e-14 1.801443583605670529e-14 1.801443583605670529e-14 -2.001604075898850282e-14
4.670000000000000000e+03 1.848168730735778809e+00 -1.625801277160644531e+01 -1.621299259126421366e-13 9.827875275744690775e-13 2.461972954063279539e-13 6.004811719476782494e-14
4.671000000000000000e+03 3.066182136535644531e+00 -9.885883331298828125e+00 3.602887167211341057e-14 2.441956955655938399e-13 8.406736949368581735e-14 1.921539912862896271e-13
4.672000000000000000e+03 1.834038734436035156e+00 -1.376845550537109375e+01 -5.604491073703601889e-14 6.164940519887140979e-13 1.681347389873716347e-13 1.441154866884536423e-13
4.673000000000000000e+03 2.419475078582763672e+00 -9.123375892639160156e+00 1.441154866884536423e-13 3.362694779747432694e-13 1.441154866884536423e-13 7.205774334422682115e-14
4.674000000000000000e+03 1.733853101730346680e+00 -9.117094993591308594e+00 -3.602887167211341057e-14 3.963175816169839383e-13 1.080866150163402317e-13 8.807057595141762341e-14
4.675000000000000000e+03 1.669075489044189453e+00 -1.222311782836914062e+01 -1.441154866884536423e-13 6.245004513516505540e-13 1.441154866884536423e-13 2.161732300326804634e-13
4.676000000000000000e+03 1.745086789131164551e+00 -1.298404979705810547e+01 1.240994476235310340e-13 1.036830885904616029e-12 3.482791041242022656e-13 1.401122870069854143e-13
4.677000000000000000e+03 5.345996379852294922e+00 -9.323998451232910156e+00 6.004811719476782494e-14 -2.001604075898850282e-14 1.200962445539310169e-14 2.081668171172168513e-13
4.678000000000000000e+03 2.543541193008422852e+00 -7.558189868927001953e+00 2.321860694161348437e-13 3.282630515067525012e-13 1.681347389873716347e-13 1.120898214740720378e-13
4.679000000000000000e+03 5.808456897735595703e+00 -7.442759513854980469e+00 1.110890215537049808e-13 -2.211772431870429045e-13 -3.302646513474866152e-14 3.903127820947815962e-14
4.680000000000000000e+03 2.678507566452026367e+00 -1.448497962951660156e+01 -7.205774334422682115e-14 3.122502256758252770e-13 7.205774334422682115e-14 2.522020949285302960e-13
4.681000000000000000e+03 1.787443876266479492e+00 -1.788694953918457031e+01 -1.801443651368306309e-13 8.606897204492536257e-13 2.041636038832214672e-13 -1.000802021008766196e-13
4.682000000000000000e+03 5.254473209381103516e+00 -1.568870544433593750e+01 -3.607891166813176342e-13 -1.546239129573620530e-13 -1.546239129573620530e-13 1.701363388281057487e-13
4.683000000000000000e+03 3.585975885391235352e+00 -5.130800247192382812e+00 7.606094980195862720e-14 1.240994476235310340e-13 6.004811719476782494e-14 1.040834085586084257e-13
4.684000000000000000e+03 1.780639886856079102e+00 -1.952926826477050781e+01 -3.402726844324750755e-14 8.546849209270512837e-13 2.461972954063279539e-13 -1.200962343895356499e-13
4.685000000000000000e+03 3.144490242004394531e+00 -2.100401115417480469e+01 3.602887167211341057e-14 2.441956955655938399e-13 8.406736949368581735e-14 -2.602085213965210642e-13
4.686000000000000000e+03 3.615556001663208008e+00 -1.681395339965820312e+01 -1.895268745546671574e-14 8.337931446623578213e-14 1.932798911967025662e-14 -2.201764398785440585e-14
4.687000000000000000e+03 7.099879264831542969e+00 -1.853626441955566406e+01 -3.763015561045884860e-13 -9.847891816253118158e-13 -4.083272077664429345e-13 1.841475648182988589e-13
4.688000000000000000e+03 1.829042673110961914e+00 -2.272322654724121094e+01 8.006416303595401129e-14 7.205774605473225236e-13 2.401924687790712998e-13 -1.401122870069854143e-13
4.689000000000000000e+03 3.199006795883178711e+00 -3.903737306594848633e+00 4.165838477670526230e-14 9.720289216542596367e-14 4.165838477670526230e-14 1.676343424153198952e-14
4.690000000000000000e+03 1.829185247421264648e+00 -6.728579521179199219e+00 2.001604075898850282e-14 4.203368339159019307e-13 1.321058605389946461e-13 8.406736949368581735e-14
4.691000000000000000e+03 2.684829711914062500e+00 -5.072304725646972656e+00 1.801443583605670529e-14 2.822261738547049426e-13 9.007218256841531545e-14 -8.807057595141762341e-14
4.692000000000000000e+03 2.500736236572265625e+00 -2.186768722534179688e+01 -4.003208151797700565e-15 3.642919299551294898e-13 1.080866150163402317e-13 -2.041636038832214672e-13
4.693000000000000000e+03 2.001133918762207031e+00 -2.756229591369628906e+01 1.401122768425900472e-14 1.661331391466375207e-13 5.404330750817011586e-14 -4.803849782157240678e-14
4.694000000000000000e+03 2.561355113983154297e+00 -2.264876747131347656e+01 4.803849782157240678e-14 4.323464600653609269e-13 1.441154866884536423e-13 -2.041636038832214672e-13
4.695000000000000000e+03 2.651604413986206055e+00 -5.927322387695312500e+00 7.806255641895631925e-14 4.223384337566360447e-13 1.501202997631831404e-13 9.207378240914942946e-14
4.696000000000000000e+03 1.747842788696289062e+00 -4.366797447204589844e+00 1.801443583605670529e-14 2.822261738547049426e-13 9.007218256841531545e-14 7.205774334422682115e-14
4.697000000000000000e+03 4.492307662963867188e+00 -1.831499290466308594e+01 -1.561251128379126385e-13 -2.041636038832214672e-13 -1.080866150163402317e-13 -1.841475648182988589e-13
4.698000000000000000e+03 2.077384948730468750e+00 -3.172678947448730469e+01 9.607699564314481355e-14 2.241796429481440756e-13 9.607699564314481355e-14 -2.401924891078620339e-14
4.699000000000000000e+03 2.944067955017089844e+00 -3.010481643676757812e+01 5.404330750817011586e-14 4.603689120457471473e-14 3.002405859738391247e-14 -6.004811719476782494e-14
4.700000000000000000e+03 2.774313926696777344e+00 -2.668413925170898438e+01 4.003208151797700565e-15 2.762213472274482884e-13 8.406736949368581735e-14 -1.040834085586084257e-13
4.701000000000000000e+03 2.842671871185302734e+00 -2.835491752624511719e+01 9.207378240914942946e-14 2.682149478645118323e-13 1.080866150163402317e-13 -3.602887167211341057e-14
4.702000000000000000e+03 2.803820371627807617e+00 -2.751069450378417969e+01 8.606896933441993136e-14 1.401122768425900472e-14 3.002405859738391247e-14 -4.803849782157240678e-14
4.703000000000000000e+03 2.869086265563964844e+00 -3.254718399047851562e+01 1.020818019416107336e-13 -2.001604075898850282e-15 3.002405859738391247e-14 1.200962343895356499e-13
4.704000000000000000e+03 2.898369073867797852e+00 -2.922152519226074219e+01 1.281026608575264181e-13 3.202566521438160452e-14 4.803849782157240678e-14 -4.003208151797700565e-15
4.705000000000000000e+03 2.921660423278808594e+00 -3.321342086791992188e+01 -3.402726844324750755e-14 5.404330750817011586e-14 6.004812227696550847e-15 6.805453688649501509e-14
4.706000000000000000e+03 3.096044063568115234e+00 -3.489938735961914062e+01 2.401924891078620339e-14 5.604491073703601889e-14 2.401924891078620339e-14 -1.521218996039172544e-13
4.707000000000000000e+03 3.119609832763671875e+00 -3.399675750732421875e+01 2.001604075898850282e-15 1.381106736137241442e-13 4.203368474684290867e-14 9.207378240914942946e-14
4.708000000000000000e+03 6.717731952667236328e+00 -1.002429008483886719e+01 1.220978477827969200e-13 -2.221780431074099615e-13 -3.002405859738391247e-14 2.401924891078620339e-14
4.709000000000000000e+03 7.822984313964843750e+01 -1.858453178405761719e+01 1.601283260719080226e-14 -3.362694779747432694e-13 -9.607699564314481355e-14 -1.120898214740720378e-13
4.710000000000000000e+03 7.675844573974609375e+01 -2.245409202575683594e+01 1.240994476235310340e-13 -8.406736949368581735e-14 1.200962445539310169e-14 -4.003208151797700565e-14
4.711000000000000000e+03 7.819182586669921875e+01 -2.261612319946289062e+01 2.001604075898850282e-14 -5.404330954104918927e-13 -1.561251128379126385e-13 -1.601283260719080226e-14
4.712000000000000000e+03 7.821945953369140625e+01 -1.294710445404052734e+01 -9.807859548387892756e-14 -4.203368474684290867e-14 -4.203368474684290867e-14 -1.160930347080674219e-13
4.713000000000000000e+03 7.749774169921875000e+01 -1.445797920227050781e+01 0.000000000000000000e+00 0.000000000000000000e+00 0.000000000000000000e+00 -8.006416303595401129e-14
4.714000000000000000e+03 7.750228118896484375e+01 -2.092633247375488281e+01 4.803849782157240678e-14 -3.682951296365977178e-13 -9.607699564314481355e-14 -1.881507780522942430e-13
4.715000000000000000e+03 7.740753173828125000e+01 -2.496518135070800781e+01 -1.140914348673333079e-13 -3.462775042834681516e-13 -1.381106736137241442e-13 -3.202566521438160452e-14
4.716000000000000000e+03 7.815133666992187500e+01 -2.503660392761230469e+01 1.561251128379126385e-13 -4.363496868518834670e-13 -8.406736949368581735e-14 -1.200962343895356499e-13
4.717000000000000000e+03 7.676823425292968750e+01 -1.276273918151855469e+01 1.401122768425900472e-14 6.004812227696550847e-15 6.004812227696550847e-15 -1.200962343895356499e-13
4.718000000000000000e+03 7.533805084228515625e+01 -1.030686569213867188e+01 1.120898214740720378e-13 4.803849782157240678e-14 4.803849782157240678e-14 -1.561251128379126385e-13
4.719000000000000000e+03 7.752875518798828125e+01 -1.850601959228515625e+01 3.202566521438160452e-14 -1.921539912862896271e-13 -4.803849782157240678e-14 2.401924891078620339e-14
4.720000000000000000e+03 7.751189422607421875e+01 -1.526387977600097656e+01 -2.401924891078620339e-14 -5.604491073703601889e-14 -2.401924891078620339e-14 -8.006416303595401129e-14
4.721000000000000000e+03 7.822325897216796875e+01 -1.534742355346679688e+01 7.606094980195862720e-14 1.240994476235310340e-13 6.004811719476782494e-14 -1.321058605389946461e-13
4.722000000000000000e+03 7.813387298583984375e+01 -2.664564895629882812e+01 -2.602085213965210642e-14 -1.941555911270237411e-13 -6.605293026949732305e-14 -1.040834085586084257e-13
4.723000000000000000e+03 7.740817260742187500e+01 -2.818228721618652344e+01 -1.120898214740720378e-13 -3.682951296365977178e-13 -1.441154866884536423e-13 -6.405133042876320904e-14
4.724000000000000000e+03 7.670733642578125000e+01 -2.815090370178222656e+01 2.802245536851800944e-14 -1.481186999224490264e-13 -3.602887167211341057e-14 -7.205774334422682115e-14
4.725000000000000000e+03 7.770564270019531250e+01 -3.402999496459960938e+01 -1.381106736137241442e-13 -2.421940957248597259e-13 -1.140914348673333079e-13 1.601283260719080226e-14
4.726000000000000000e+03 7.798773956298828125e+01 -3.067621040344238281e+01 -7.806255641895631925e-14 -2.622101212372551782e-13 -1.020818019416107336e-13 -1.401122870069854143e-13
4.727000000000000000e+03 7.682862854003906250e+01 -1.600043106079101562e+01 1.601283260719080226e-13 0.000000000000000000e+00 4.803849782157240678e-14 -1.721379386688398627e-13
4.728000000000000000e+03 7.753236389160156250e+01 -1.688735961914062500e+01 9.607699564314481355e-14 6.405133042876320904e-14 4.803849782157240678e-14 -1.401122870069854143e-13
4.729000000000000000e+03 7.738497924804687500e+01 -2.658614540100097656e+01 -2.401924891078620339e-14 -3.763015561045884860e-13 -1.200962343895356499e-13 -1.120898214740720378e-13
4.730000000000000000e+03 7.743086242675781250e+01 -2.415381813049316406e+01 1.781427517435693608e-13 -3.582871304329271478e-13 -5.404330750817011586e-14 -1.481186999224490264e-13
4.731000000000000000e+03 7.738957977294921875e+01 -2.577705383300781250e+01 8.006416303595401129e-14 -4.003208084035064784e-13 -9.607699564314481355e-14 -4.003208151797700565e-14
4.732000000000000000e+03 7.665003204345703125e+01 -3.481718826293945312e+01 -1.821459649775647449e-13 -2.381908689383371858e-13 -1.261010474642651480e-13 -4.003208151797700565e-14
4.733000000000000000e+03 7.690149688720703125e+01 -3.772524261474609375e+01 -4.003208151797700565e-15 -2.762213472274482884e-13 -8.406736949368581735e-14 -4.003208151797700565e-14
4.734000000000000000e+03 7.783767700195312500e+01 -3.655044555664062500e+01 -6.004811719476782494e-14 2.001604075898850282e-14 -1.200962445539310169e-14 -4.403528797570881170e-14
4.735000000000000000e+03 7.686972045898437500e+01 -3.227361679077148438e+01 -1.401122768425900472e-14 -1.661331391466375207e-13 -5.404330750817011586e-14 -8.406736949368581735e-14
4.736000000000000000e+03 7.679462432861328125e+01 -9.716420173645019531e+00 -6.004812227696550847e-15 -9.407538902614712151e-14 -3.002405859738391247e-14 -8.006416303595401129e-15
4.737000000000000000e+03 7.706386566162109375e+01 -3.139660072326660156e+01 -5.404330750817011586e-14 -4.603689120457471473e-14 -3.002405859738391247e-14 -6.405133042876320904e-14
4.738000000000000000e+03 7.667913055419921875e+01 -2.964841270446777344e+01 9.207378240914942946e-14 -5.204170427930421283e-14 1.200962445539310169e-14 -2.802245536851800944e-14
4.739000000000000000e+03 9.652869224548339844e+00 -7.257942676544189453e+00 2.301844695754007297e-13 -5.304250419967126984e-13 -9.007218256841531545e-14 -2.121700303512122354e-13
4.740000000000000000e+03 2.749861955642700195e+00 -3.899084854125976562e+01 1.601283260719080226e-14 1.441154866884536423e-13 4.803849782157240678e-14 -6.805453688649501509e-14
4.741000000000000000e+03 3.492428064346313477e+00 -3.778609466552734375e+01 2.602085213965210642e-14 3.402726844324750755e-14 1.801443583605670529e-14 -7.005614350349270714e-14
4.742000000000000000e+03 7.823672485351562500e+01 -1.058489131927490234e+01 8.406736949368581735e-14 3.602887167211341057e-14 3.602887167211341057e-14 -6.405133042876320904e-14
4.743000000000000000e+03 1.705792427062988281e+01 -1.290872383117675781e+01 -9.707779556351187056e-14 -1.331066604593617031e-13 -6.905533680686207210e-14 -4.403528797570881170e-14
4.744000000000000000e+03 8.428658485412597656e+00 -1.003024673461914062e+01 -4.003208151797700565e-14 -5.204170427930421283e-13 -1.681347389873716347e-13 -7.405934996122451319e-14
4.745000000000000000e+03 7.797988414764404297e+00 -9.702234268188476562e+00 -3.402726844324750755e-14 -3.462775042834681516e-13 -1.140914348673333079e-13 -5.104090097080536681e-14
4.746000000000000000e+03 9.191546440124511719e+00 -7.843838214874267578e+00 1.651323256737433076e-13 -4.153328343140666457e-13 -7.506014988159157020e-14 3.302646513474866152e-14
4.747000000000000000e+03 8.723892211914062500e+00 -8.445274353027343750e+00 3.402726844324750755e-14 -4.543641125235448053e-13 -1.261010474642651480e-13 -1.541235129971785245e-13
4.748000000000000000e+03 2.761264801025390625e+00 -3.252619028091430664e+00 -6.405133042876320904e-14 2.241796429481440756e-13 4.803849782157240678e-14 3.402726844324750755e-14
4.749000000000000000e+03 4.255889892578125000e+00 -3.687324523925781250e+00 6.805453688649501509e-14 -1.080866150163402317e-13 -1.200962445539310169e-14 3.602887167211341057e-14
4.750000000000000000e+03 3.464995861053466797e+00 -5.974789142608642578e+00 -6.004812227696550847e-15 2.261812563414053456e-13 6.605293026949732305e-14 -7.606094980195862720e-14
4.751000000000000000e+03 6.821543216705322266e+00 -3.119544982910156250e+00 8.006416303595401129e-15 -4.083272077664429345e-13 -1.200962343895356499e-13 2.802245536851800944e-14
4.752000000000000000e+03 7.407972335815429688e+00 -5.971614360809326172e+00 1.683849321911998209e-13 -6.212478448341940407e-13 -1.358588670166346879e-13 5.729591741375841818e-14
4.753000000000000000e+03 5.041753292083740234e+00 -3.854020357131958008e+00 1.401122768425900472e-14 6.004812227696550847e-15 6.004812227696550847e-15 -1.200962445539310169e-14
4.754000000000000000e+03 5.917273044586181641e+00 -3.863903522491455078e+00 9.207378240914942946e-14 -5.204170427930421283e-14 1.200962445539310169e-14 7.205774334422682115e-14
4.755000000000000000e+03 1.618142890930175781e+01 -1.427709197998046875e+01 -9.307458910578006450e-14 -1.771419518232023038e-13 -8.106496295632106830e-14 -2.802245536851800944e-14
4.756000000000000000e+03 2.447356700897216797e+00 -1.281729698181152344e+01 -1.601283260719080226e-14 4.963977904941241359e-13 1.441154866884536423e-13 2.802245740139708285e-13
4.757000000000000000e+03 1.464137172698974609e+01 -1.510459709167480469e+01 -1.190954344691685929e-13 -1.100882199392720293e-14 -3.903127820947815962e-14 -5.504410996963601463e-15
4.758000000000000000e+03 1.052877807617187500e+01 -6.112418651580810547e+00 2.582069215557869502e-13 -5.184154429523080143e-13 -7.806255641895631925e-14 -1.941555911270237411e-13
4.759000000000000000e+03 1.570244884490966797e+01 -1.494455814361572266e+01 -3.102486190588275849e-14 -5.904731727440076794e-14 -2.702165375408505793e-14 -9.407538902614712151e-14
4.760000000000000000e+03 1.519694995880126953e+01 -1.555984115600585938e+01 2.602085213965210642e-14 -1.261010474642651480e-13 -3.002405859738391247e-14 6.805453688649501509e-14
4.761000000000000000e+03 1.748031997680664062e+01 -1.224753093719482422e+01 -1.591275125990138095e-13 -2.512012950081632390e-13 -1.230986477031639770e-13 4.003208151797700565e-15
4.762000000000000000e+03 8.386614799499511719e+00 -2.062196731567382812e+01 -4.203368474684290867e-14 -3.382710778154773834e-13 -1.140914348673333079e-13 2.241796429481440756e-13
4.763000000000000000e+03 1.014445590972900391e+01 -1.965697669982910156e+01 -4.463576860555540371e-13 -5.344282958882895507e-13 -2.942358000041639388e-13 2.361892690976030718e-13
4.764000000000000000e+03 5.693832874298095703e+00 -1.684843826293945312e+01 -5.164138431115739003e-13 -7.245806602287907516e-13 -3.722983564231202580e-13 2.001604042017532392e-13
4.765000000000000000e+03 6.573296070098876953e+00 -1.874277114868164062e+01 -1.080866150163402317e-13 -5.724587470723463412e-13 -2.041636038832214672e-13 -7.205774334422682115e-14
4.766000000000000000e+03 1.345300483703613281e+01 -1.878092193603515625e+01 -1.981587908084919691e-13 -6.204972381176551699e-14 -7.806255641895631925e-14 5.204170427930421283e-14
4.767000000000000000e+03 1.458790874481201172e+01 -1.742981147766113281e+01 -1.140914348673333079e-13 -1.861491782115601290e-13 -9.007218256841531545e-14 2.401924891078620339e-14
4.768000000000000000e+03 1.331786537170410156e+01 -1.954609489440917969e+01 -1.661331391466375207e-13 -2.542037218743187221e-13 -1.261010474642651480e-13 4.803849782157240678e-14
4.769000000000000000e+03 3.199078559875488281e+00 -3.968466186523437500e+01 8.406736949368581735e-14 3.602887167211341057e-14 3.602887167211341057e-14 -1.000802037949425141e-14
4.770000000000000000e+03 7.646902465820312500e+01 -3.879003906250000000e+01 -1.281026608575264181e-13 -1.921539912862896271e-13 -9.607699564314481355e-14 -1.000802021008766196e-13
4.771000000000000000e+03 6.885221862792968750e+01 -1.068869113922119141e+01 2.201764432666758475e-13 1.401122870069854143e-13 1.080866150163402317e-13 -1.361090737729900302e-13
4.772000000000000000e+03 6.939804077148437500e+01 -1.022225952148437500e+01 2.041636038832214672e-13 -4.003208151797700565e-15 6.004811719476782494e-14 -2.882309733769072846e-13
4.773000000000000000e+03 6.198846054077148438e+01 -1.012676048278808594e+01 1.801443651368306309e-13 -6.004811719476782494e-14 3.602887167211341057e-14 1.601283260719080226e-13
4.774000000000000000e+03 6.256909179687500000e+01 -1.011964893341064453e+01 2.802245740139708285e-13 -2.001604042017532392e-13 2.401924891078620339e-14 8.006416303595401129e-14
4.775000000000000000e+03 6.419654083251953125e+01 -1.006718635559082031e+01 1.080866150163402317e-13 -2.281828697346666157e-13 -3.602887167211341057e-14 -1.601283260719080226e-14
4.776000000000000000e+03 6.370913314819335938e+01 -9.589989662170410156e+00 -1.120898214740720378e-13 -3.682951296365977178e-13 -1.441154866884536423e-13 -1.281026608575264181e-13
4.777000000000000000e+03 5.302686691284179688e+01 -1.009462356567382812e+01 5.204170427930421283e-14 -2.522020949285302960e-13 -6.004811719476782494e-14 -1.281026608575264181e-13
4.778000000000000000e+03 5.496675109863281250e+01 -1.003188610076904297e+01 3.682951296365977178e-13 -2.081668171172168513e-13 4.803849782157240678e-14 -7.205774334422682115e-14
4.779000000000000000e+03 5.582350158691406250e+01 -1.089578342437744141e+01 2.642117210779892922e-13 -2.401924891078620339e-14 7.205774334422682115e-14 -2.922341730583755126e-13
4.780000000000000000e+03 5.442220687866210938e+01 -9.555872917175292969e+00 2.922341730583755126e-13 -1.200962445539310169e-14 8.406736949368581735e-14 -1.040834085586084257e-13
4.781000000000000000e+03 5.448818588256835938e+01 -1.006594562530517578e+01 2.882309733769072846e-13 3.202566521438160452e-14 9.607699564314481355e-14 -4.803849782157240678e-14
4.782000000000000000e+03 6.474617004394531250e+01 -9.563581466674804688e+00 5.604491073703601889e-14 2.401924891078620339e-14 2.401924891078620339e-14 2.161732300326804634e-13
4.783000000000000000e+03 5.008186340332031250e+01 -1.009339904785156250e+01 2.522020949285302960e-13 4.283432603838926989e-13 2.041636038832214672e-13 -2.081668171172168513e-13
4.784000000000000000e+03 4.422285842895507812e+01 -9.604884147644042969e+00 2.161732300326804634e-13 -1.361090737729900302e-13 2.401924891078620339e-14 3.122502256758252770e-13
4.785000000000000000e+03 4.491550445556640625e+01 -1.033710193634033203e+01 1.711371387484728057e-13 7.906335633932337625e-14 7.506014988159157020e-14 -1.030826086382413687e-13
4.786000000000000000e+03 4.286091995239257812e+01 -9.568691253662109375e+00 -2.041636038832214672e-13 -3.162534253572935050e-13 -1.561251128379126385e-13 -2.081668171172168513e-13
4.787000000000000000e+03 4.411310195922851562e+01 -1.005166339874267578e+01 2.401924687790712998e-13 -8.006416303595401129e-14 4.803849782157240678e-14 -1.281026608575264181e-13
4.788000000000000000e+03 4.427623748779296875e+01 -1.121495342254638672e+01 6.705373696612795809e-14 -5.704571743366665393e-14 3.002406113848275424e-15 -1.401122870069854143e-13
4.789000000000000000e+03 5.056620788574218750e+01 -1.007740402221679688e+01 2.602085213965210642e-13 3.402726776562114974e-13 1.801443651368306309e-13 1.681347389873716347e-13
4.790000000000000000e+03 4.194530105590820312e+01 -1.007445526123046875e+01 1.561251128379126385e-13 -4.363496868518834670e-13 -8.406736949368581735e-14 1.921539912862896271e-13
4.791000000000000000e+03 4.192662811279296875e+01 -9.620273590087890625e+00 1.841475648182988589e-13 -1.040834085586084257e-13 2.401924891078620339e-14 3.202566521438160452e-14
4.792000000000000000e+03 4.147832489013671875e+01 -1.011097431182861328e+01 1.681347389873716347e-13 7.205774334422682115e-14 7.205774334422682115e-14 7.205774334422682115e-14
4.793000000000000000e+03 4.467117309570312500e+01 -9.679804801940917969e+00 2.441956955655938399e-13 -1.240994476235310340e-13 3.602887167211341057e-14 -1.441154866884536423e-13
4.794000000000000000e+03 3.900516510009765625e+01 -9.754116058349609375e+00 -9.607699564314481355e-14 -2.241796429481440756e-13 -9.607699564314481355e-14 -8.807057595141762341e-14
4.795000000000000000e+03 4.052547073364257812e+01 -1.017455101013183594e+01 -2.001604042017532392e-13 -4.003208151797700565e-14 -7.205774334422682115e-14 1.120898214740720378e-13
4.796000000000000000e+03 5.253755950927734375e+01 -1.008596611022949219e+01 3.803047557860567141e-13 3.002405995263662808e-13 2.041636038832214672e-13 8.807057595141762341e-14
4.797000000000000000e+03 5.149571228027343750e+01 -9.575329780578613281e+00 1.641315257533762506e-13 1.160930347080674219e-13 8.406736949368581735e-14 -1.281026608575264181e-13
4.798000000000000000e+03 3.801020050048828125e+01 -9.781360626220703125e+00 -1.481186999224490264e-13 2.802245536851800944e-14 -3.602887167211341057e-14 -2.321860694161348437e-13
4.799000000000000000e+03 4.003867340087890625e+01 -1.020006275177001953e+01 -1.441154866884536423e-13 -6.565261030135050024e-13 -2.401924687790712998e-13 1.841475648182988589e-13
4.800000000000000000e+03 3.651390838623046875e+01 -9.820345878601074219e+00 1.080866150163402317e-13 9.207378240914942946e-14 6.004811719476782494e-14 1.361090737729900302e-13
4.801000000000000000e+03 3.805593872070312500e+01 -1.026570415496826172e+01 -1.040834085586084257e-13 -1.361090737729900302e-13 -7.205774334422682115e-14 -8.006416303595401129e-15
4.802000000000000000e+03 6.423149108886718750e+01 -9.573419570922851562e+00 1.160930347080674219e-13 4.003208151797700565e-15 3.602887167211341057e-14 -1.040834085586084257e-13
4.803000000000000000e+03 4.328916549682617188e+01 -1.091038131713867188e+01 2.602085213965210642e-13 -3.002405995263662808e-13 -1.200962445539310169e-14 -8.006416303595401129e-14
4.804000000000000000e+03 4.905175018310546875e+01 -9.701015472412109375e+00 9.207378240914942946e-14 -5.204170427930421283e-14 1.200962445539310169e-14 -1.441154866884536423e-13
4.805000000000000000e+03 4.872660064697265625e+01 -1.025047111511230469e+01 1.200962445539310169e-14 -4.523625126828106913e-13 -1.321058605389946461e-13 -2.361892690976030718e-13
4.806000000000000000e+03 3.909749221801757812e+01 -1.072721576690673828e+01 -7.205774334422682115e-14 -4.883913911311876799e-13 -1.681347389873716347e-13 -5.604491073703601889e-14
4.807000000000000000e+03 5.105775833129882812e+01 -1.007052421569824219e+01 1.761411519028352468e-13 3.042437992078345088e-13 1.441154866884536423e-13 -8.006416303595401129e-14
4.808000000000000000e+03 3.760865402221679688e+01 -1.076858425140380859e+01 -1.521218996039172544e-13 -2.481988952470620680e-13 -1.200962343895356499e-13 -2.642117210779892922e-13
4.809000000000000000e+03 3.756023025512695312e+01 -1.027868270874023438e+01 4.403528797570881170e-14 1.561251128379126385e-13 6.004811719476782494e-14 -2.401924687790712998e-13
4.810000000000000000e+03 6.886115264892578125e+01 -1.016660976409912109e+01 2.962373998448980528e-13 2.642117210779892922e-13 1.681347389873716347e-13 -2.081668171172168513e-13
4.811000000000000000e+03 6.994886779785156250e+01 -9.751519203186035156e+00 2.882309733769072846e-13 3.202566521438160452e-14 9.607699564314481355e-14 -5.604491073703601889e-14
4.812000000000000000e+03 3.706227874755859375e+01 -1.029057121276855469e+01 -1.080866150163402317e-13 -4.123304345529654746e-13 -1.561251128379126385e-13 -1.921539912862896271e-13
4.813000000000000000e+03 3.556263732910156250e+01 -1.032990169525146484e+01 -1.601283260719080226e-13 -1.601283260719080226e-13 -9.607699564314481355e-14 1.040834085586084257e-13
4.814000000000000000e+03 3.248940658569335938e+01 -9.920501708984375000e+00 3.202566521438160452e-14 -3.202566521438160452e-14 0.000000000000000000e+00 1.521218996039172544e-13
4.815000000000000000e+03 3.354773712158203125e+01 -1.037867832183837891e+01 1.160930347080674219e-13 -3.162534253572935050e-13 -6.004811719476782494e-14 -1.601283260719080226e-13
4.816000000000000000e+03 3.405336761474609375e+01 -1.036678791046142578e+01 -4.003208151797700565e-15 4.403528797570881170e-14 1.200962445539310169e-14 -1.040834085586084257e-13
4.817000000000000000e+03 3.506220245361328125e+01 -1.034331989288330078e+01 5.204170427930421283e-14 -2.522020949285302960e-13 -6.004811719476782494e-14 -1.601283260719080226e-13
4.818000000000000000e+03 3.455895614624023438e+01 -1.035542297363281250e+01 -1.281026608575264181e-13 -1.921539912862896271e-13 -9.607699564314481355e-14 3.202566521438160452e-14
4.819000000000000000e+03 3.656191253662109375e+01 -1.030241203308105469e+01 -1.200962445539310169e-14 -1.881507780522942430e-13 -6.004811719476782494e-14 1.601283260719080226e-14
4.820000000000000000e+03 2.997814941406250000e+01 -1.044287395477294922e+01 1.601283260719080226e-13 1.601283260719080226e-13 9.607699564314481355e-14 -8.006416303595401129e-15
4.821000000000000000e+03 3.049129867553710938e+01 -1.043711280822753906e+01 -1.040834085586084257e-13 -1.361090737729900302e-13 -7.205774334422682115e-14 1.601283260719080226e-14
4.822000000000000000e+03 5.204474258422851562e+01 -1.007662010192871094e+01 2.562053217150528361e-13 6.405133042876320904e-14 9.607699564314481355e-14 -3.202566521438160452e-14
4.823000000000000000e+03 3.147261619567871094e+01 -9.940158843994140625e+00 -4.803849782157240678e-14 -1.120898214740720378e-13 -4.803849782157240678e-14 -5.604491073703601889e-14
4.824000000000000000e+03 3.253972625732421875e+01 -1.040498542785644531e+01 2.802245536851800944e-14 1.200962445539310169e-14 1.200962445539310169e-14 2.001604042017532392e-13
4.825000000000000000e+03 3.100556564331054688e+01 -1.043106746673583984e+01 -2.522020949285302960e-13 -1.080866150163402317e-13 -1.080866150163402317e-13 2.001604042017532392e-13
4.826000000000000000e+03 3.151987838745117188e+01 -1.042428016662597656e+01 4.003208151797700565e-14 -1.200962343895356499e-13 -2.401924891078620339e-14 6.405133042876320904e-14
4.827000000000000000e+03 2.628961181640625000e+01 -9.924637794494628906e+00 -1.441154866884536423e-13 -1.601283260719080226e-14 -4.803849782157240678e-14 0.000000000000000000e+00
4.828000000000000000e+03 2.737440681457519531e+01 -1.043473339080810547e+01 1.321058605389946461e-13 -4.923945908126559079e-13 -1.080866150163402317e-13 2.562053217150528361e-13
4.829000000000000000e+03 5.394017791748046875e+01 -9.567342758178710938e+00 4.443560862148199231e-13 2.361892690976030718e-13 2.041636038832214672e-13 -1.521218996039172544e-13
4.830000000000000000e+03 2.789997482299804688e+01 -1.044099807739257812e+01 -2.401924891078620339e-14 -5.604491073703601889e-14 -2.401924891078620339e-14 -9.607699564314481355e-14
4.831000000000000000e+03 2.838645362854003906e+01 -9.957992553710937500e+00 8.006416303595401129e-15 -8.807057595141762341e-14 -2.401924891078620339e-14 -9.607699564314481355e-14
4.832000000000000000e+03 4.816445922851562500e+01 -9.899308204650878906e+00 -4.403528797570881170e-14 -1.561251128379126385e-13 -6.004811719476782494e-14 -2.562053217150528361e-13
4.833000000000000000e+03 4.684692764282226562e+01 -9.682583808898925781e+00 -2.401924891078620339e-14 2.642117210779892922e-13 7.205774334422682115e-14 1.601283260719080226e-14
4.834000000000000000e+03 2.946475219726562500e+01 -1.044727230072021484e+01 -3.202566521438160452e-14 -2.882309733769072846e-13 -9.607699564314481355e-14 1.921539912862896271e-13
4.835000000000000000e+03 4.807251358032226562e+01 -9.525848388671875000e+00 1.000802021008766196e-13 3.402726776562114974e-13 1.321058605389946461e-13 -2.401924891078620339e-14
4.836000000000000000e+03 2.079848098754882812e+01 -1.075141906738281250e+01 -9.207378240914942946e-14 5.204170427930421283e-14 -1.200962445539310169e-14 -1.361090737729900302e-13
4.837000000000000000e+03 2.467354011535644531e+01 -1.038685035705566406e+01 8.006416303595401129e-15 -8.807057595141762341e-14 -2.401924891078620339e-14 -7.205774334422682115e-14
4.838000000000000000e+03 2.355923271179199219e+01 -9.789097785949707031e+00 -3.602887167211341057e-14 7.606094980195862720e-14 1.200962445539310169e-14 -9.607699564314481355e-14
4.839000000000000000e+03 2.348715782165527344e+01 -1.034332942962646484e+01 -1.761411519028352468e-13 -3.042437992078345088e-13 -1.441154866884536423e-13 -1.761411519028352468e-13
4.840000000000000000e+03 2.842491912841796875e+01 -1.044580745697021484e+01 1.321058605389946461e-13 -4.923945908126559079e-13 -1.080866150163402317e-13 2.241796429481440756e-13
4.841000000000000000e+03 2.632160377502441406e+01 -1.042146968841552734e+01 -1.561251128379126385e-13 -2.041636038832214672e-13 -1.080866150163402317e-13 1.120898214740720378e-13
4.842000000000000000e+03 2.894729995727539062e+01 -1.044828128814697266e+01 -1.841475648182988589e-13 1.040834085586084257e-13 -2.401924891078620339e-14 -4.003208151797700565e-14
4.843000000000000000e+03 2.523624610900878906e+01 -1.040054035186767578e+01 -6.004811719476782494e-14 -3.002405995263662808e-13 -1.080866150163402317e-13 -1.200962343895356499e-13
4.844000000000000000e+03 2.295473861694335938e+01 -1.020158767700195312e+01 -6.204972381176551699e-14 2.021620040424873532e-13 4.203368474684290867e-14 9.607699564314481355e-14
4.845000000000000000e+03 2.199932098388671875e+01 -1.010864543914794922e+01 -1.000802021008766196e-13 -1.801443651368306309e-13 -8.406736949368581735e-14 8.006416303595401129e-14
4.846000000000000000e+03 2.578508377075195312e+01 -1.041237640380859375e+01 -2.361892690976030718e-13 -2.842277736954390566e-13 -1.561251128379126385e-13 -5.604491073703601889e-14
4.847000000000000000e+03 5.828879165649414062e+01 -1.021379852294921875e+01 2.642117210779892922e-13 -3.442758773376797254e-13 -2.401924891078620339e-14 1.921539912862896271e-13
4.848000000000000000e+03 2.249977302551269531e+01 -1.009016990661621094e+01 8.006416303595401129e-14 -2.401924687790712998e-13 -4.803849782157240678e-14 -5.604491073703601889e-14
4.849000000000000000e+03 1.950996398925781250e+01 -8.907248497009277344e+00 1.000802021008766196e-13 -1.401122870069854143e-13 -1.200962445539310169e-14 1.120898214740720378e-13
4.850000000000000000e+03 5.891617202758789062e+01 -1.018239688873291016e+01 1.741395520621011328e-13 1.661331391466375207e-13 1.020818019416107336e-13 -8.006416303595401129e-15
4.851000000000000000e+03 6.730021667480468750e+01 -1.006672763824462891e+01 3.322662782932750414e-13 1.881507780522942430e-13 1.561251128379126385e-13 8.807057595141762341e-14
4.852000000000000000e+03 6.780664062500000000e+01 -1.058868598937988281e+01 2.281828697346666157e-13 5.204170427930421283e-14 8.406736949368581735e-14 -1.601283260719080226e-14
4.853000000000000000e+03 5.704724121093750000e+01 -1.023363780975341797e+01 2.401924687790712998e-13 -8.006416303595401129e-14 4.803849782157240678e-14 1.841475648182988589e-13
4.854000000000000000e+03 5.641403198242187500e+01 -1.021535873413085938e+01 7.606094980195862720e-14 1.240994476235310340e-13 6.004811719476782494e-14 -2.081668171172168513e-13
4.855000000000000000e+03 6.522987365722656250e+01 -1.004699420928955078e+01 -4.003208151797700565e-14 1.200962343895356499e-13 2.401924891078620339e-14 4.003208151797700565e-14
4.856000000000000000e+03 6.082412338256835938e+01 -9.615148544311523438e+00 2.401924891078620339e-14 5.604491073703601889e-14 2.401924891078620339e-14 4.003208151797700565e-14
4.857000000000000000e+03 6.139146423339843750e+01 -1.011905384063720703e+01 4.003208151797700565e-14 -1.200962343895356499e-13 -2.401924891078620339e-14 1.281026608575264181e-13
4.858000000000000000e+03 6.626498413085937500e+01 -1.004962253570556641e+01 3.402726776562114974e-13 1.000802021008766196e-13 1.321058605389946461e-13 1.921539912862896271e-13
4.859000000000000000e+03 6.679952239990234375e+01 -9.571518898010253906e+00 4.203368339159019307e-13 1.801443651368306309e-13 1.801443651368306309e-13 8.807057595141762341e-14
4.860000000000000000e+03 1.504929256439208984e+01 -1.945052528381347656e+01 4.003208151797700565e-15 -4.403528797570881170e-14 -1.200962445539310169e-14 -2.201764398785440585e-14
4.861000000000000000e+03 1.516492843627929688e+01 -1.656810379028320312e+01 -5.204170427930421283e-14 -2.281828697346666157e-13 -8.406736949368581735e-14 -4.803849782157240678e-14
4.862000000000000000e+03 6.311379909515380859e+00 -1.347733020782470703e+01 -2.001604075898850282e-15 -8.586881206085195117e-13 -2.582069215557869502e-13 1.741395520621011328e-13
4.863000000000000000e+03 9.767328262329101562e+00 -3.490647315979003906e+00 -1.020818019416107336e-13 -3.182550251980276190e-13 -1.261010474642651480e-13 0.000000000000000000e+00
4.864000000000000000e+03 8.337946891784667969e+00 -3.559892177581787109e+00 -8.606896933441993136e-14 -4.943961906533900219e-13 -1.741395520621011328e-13 -1.361090737729900302e-13
4.865000000000000000e+03 1.093198204040527344e+01 -5.537021636962890625e+00 3.803047490097931360e-14 -3.382710778154773834e-13 -9.007218256841531545e-14 -8.206576287668812530e-14
4.866000000000000000e+03 2.477456092834472656e+00 -1.952233695983886719e+01 8.606896933441993136e-14 4.943961906533900219e-13 1.741395520621011328e-13 -8.406736949368581735e-14
4.867000000000000000e+03 6.742800712585449219e+00 -1.928135299682617188e+01 -1.881507780522942430e-13 -4.923945908126559079e-13 -2.041636038832214672e-13 8.006416303595401129e-15
4.868000000000000000e+03 7.676829528808593750e+01 -1.436957836151123047e+01 6.004812227696550847e-15 9.407538902614712151e-14 3.002405859738391247e-14 -2.441956955655938399e-13
4.869000000000000000e+03 7.607270050048828125e+01 -1.038639545440673828e+01 1.841475648182988589e-13 2.161732300326804634e-13 1.200962343895356499e-13 1.401122870069854143e-13
4.870000000000000000e+03 7.749224090576171875e+01 -1.365766048431396484e+01 1.040834085586084257e-13 -2.401924891078620339e-14 2.401924891078620339e-14 -1.120898214740720378e-13
4.871000000000000000e+03 7.580637931823730469e+00 -3.664011716842651367e+00 5.604491073703601889e-14 -2.962373998448980528e-13 -7.205774334422682115e-14 8.006416303595401129e-15
4.872000000000000000e+03 7.314689636230468750e+01 -1.005988597869873047e+01 1.461170865291877563e-13 1.541235129971785245e-13 9.007218256841531545e-14 -8.006416303595401129e-15
4.873000000000000000e+03 7.460563659667968750e+01 -1.090926074981689453e+01 5.604491073703601889e-14 2.401924891078620339e-14 2.401924891078620339e-14 -2.722181475459800604e-13
4.874000000000000000e+03 1.213357162475585938e+01 -3.146364688873291016e+00 -1.000802037949425141e-14 -5.004010105043830980e-14 -1.801443583605670529e-14 -2.121700303512122354e-13
4.875000000000000000e+03 7.316093444824218750e+01 -1.069458007812500000e+01 1.321058605389946461e-13 1.481186999224490264e-13 8.406736949368581735e-14 -1.921539912862896271e-13
4.876000000000000000e+03 1.788471984863281250e+01 -1.162301731109619141e+01 -5.004010105043830980e-14 -2.502004950877961820e-13 -9.007218256841531545e-14 -2.001604075898850282e-14
4.877000000000000000e+03 1.953593826293945312e+01 -1.033213233947753906e+01 -9.857899544406245607e-14 3.502806921064751181e-15 -2.852285871683332696e-14 -8.006416303595401129e-14
4.878000000000000000e+03 1.936697769165039062e+01 -1.196031475067138672e+01 -7.606094980195862720e-14 -1.240994476235310340e-13 -6.004811719476782494e-14 -1.701363422162375377e-14
4.879000000000000000e+03 7.246273803710937500e+01 -1.059859561920166016e+01 8.206576287668812530e-14 -1.020818019416107336e-13 -6.004812227696550847e-15 -8.006416303595401129e-14
4.880000000000000000e+03 7.823342132568359375e+01 -1.136573982238769531e+01 3.803047490097931360e-14 6.204972381176551699e-14 3.002405859738391247e-14 -2.001604075898850282e-14
4.881000000000000000e+03 9.492418289184570312e+00 -6.405729293823242188e+00 2.682149478645118323e-13 -5.484394947734283488e-13 -8.406736949368581735e-14 -1.271018609371593611e-13
4.882000000000000000e+03 7.735129547119140625e+01 -2.975466537475585938e+01 -8.006416303595401129e-14 -2.401924687790712998e-13 -9.607699564314481355e-14 -1.281026608575264181e-13
4.883000000000000000e+03 7.591518402099609375e+01 -3.211843490600585938e+01 -1.541235129971785245e-13 -2.261812563414053456e-13 -1.140914348673333079e-13 -5.404330750817011586e-14
4.884000000000000000e+03 7.752230834960937500e+01 -1.052483940124511719e+01 2.802245536851800944e-14 1.200962445539310169e-14 1.200962445539310169e-14 6.405133042876320904e-14
4.885000000000000000e+03 7.676673889160156250e+01 -3.316819381713867188e+01 -9.007218256841531545e-14 -1.301042606982605321e-13 -6.605293026949732305e-14 -6.405133042876320904e-14
4.886000000000000000e+03 5.205190181732177734e+00 -3.064684867858886719e+01 1.054125997644941859e-13 4.517682750245985424e-14 4.517682750245985424e-14 -5.892222067248667483e-14
4.887000000000000000e+03 3.829329729080200195e+00 -3.104211044311523438e+01 2.001604075898850282e-14 1.000802021008766196e-13 3.602887167211341057e-14 -7.606094980195862720e-14
4.888000000000000000e+03 3.790725469589233398e+00 -3.011051177978515625e+01 1.481186999224490264e-13 1.321058605389946461e-13 8.406736949368581735e-14 1.200962445539310169e-14
4.889000000000000000e+03 3.570343255996704102e+00 -2.579574012756347656e+01 -5.004010105043830980e-14 2.301844695754007297e-13 5.404330750817011586e-14 -1.321058605389946461e-13
4.890000000000000000e+03 7.665579986572265625e+01 -2.488993453979492188e+01 2.021620040424873532e-13 -1.421138868477195283e-13 1.801443583605670529e-14 -1.801443651368306309e-13
4.891000000000000000e+03 7.669416046142578125e+01 -2.407113265991210938e+01 -3.602887167211341057e-14 -2.441956955655938399e-13 -8.406736949368581735e-14 -4.803849782157240678e-14
4.892000000000000000e+03 3.291392803192138672e+00 -2.252879714965820312e+01 1.080866150163402317e-13 2.522020949285302960e-13 1.080866150163402317e-13 -2.762213472274482884e-13
4.893000000000000000e+03 2.726049661636352539e+00 -2.504657745361328125e+01 -1.180946345488015359e-13 4.983993903348582499e-13 1.140914348673333079e-13 -2.642117210779892922e-13
4.894000000000000000e+03 2.427381277084350586e+00 -2.032692337036132812e+01 -1.200962445539310169e-14 4.523625126828106913e-13 1.321058605389946461e-13 -2.401924687790712998e-13
4.895000000000000000e+03 2.454613447189331055e+00 -2.109258651733398438e+01 1.281026608575264181e-13 3.522823038056704936e-13 1.441154866884536423e-13 -1.240994476235310340e-13
4.896000000000000000e+03 3.194907903671264648e+00 -2.176838493347167969e+01 2.642117210779892922e-13 2.962373998448980528e-13 1.681347389873716347e-13 -2.481988952470620680e-13
4.897000000000000000e+03 7.739458465576171875e+01 -2.738910293579101562e+01 -5.804651735403371093e-14 -1.621299259126421366e-13 -6.605293026949732305e-14 -2.401924891078620339e-14
4.898000000000000000e+03 2.608384609222412109e+00 -6.757494926452636719e+00 -1.401122768425900472e-14 3.142518255165593910e-13 9.007218256841531545e-14 -5.204170427930421283e-14
4.899000000000000000e+03 2.469802618026733398e+00 -8.342054367065429688e+00 6.605293026949732305e-14 3.943159817762498243e-13 1.381106736137241442e-13 9.207378240914942946e-14
4.900000000000000000e+03 2.397423028945922852e+00 -9.912032127380371094e+00 5.604491073703601889e-14 3.442758773376797254e-13 1.200962343895356499e-13 9.207378240914942946e-14
4.901000000000000000e+03 2.590014219284057617e+00 -1.625773429870605469e+01 -1.100882216333379238e-13 4.103288347122313606e-13 9.007218256841531545e-14 1.040834085586084257e-13
4.902000000000000000e+03 2.482764005661010742e+00 -1.706443023681640625e+01 -1.361090737729900302e-13 8.566865207677853977e-13 2.161732300326804634e-13 4.803849782157240678e-14
4.903000000000000000e+03 4.074926376342773438e+00 -1.638552474975585938e+01 -3.082470259943570490e-13 1.881507780522942430e-13 -3.602887167211341057e-14 -1.080866150163402317e-13
4.904000000000000000e+03 2.615729570388793945e+00 -1.360303401947021484e+01 1.040834085586084257e-13 6.164940519887140979e-13 2.161732300326804634e-13 1.601283260719080226e-13
4.905000000000000000e+03 6.925164699554443359e+00 -1.104712390899658203e+01 5.604491073703601889e-14 -1.361090737729900302e-13 -2.401924891078620339e-14 1.301042606982605321e-14
4.906000000000000000e+03 2.285315036773681641e+00 -1.213188648223876953e+01 6.004812227696550847e-15 7.345886594324613217e-13 2.221780431074099615e-13 1.521218996039172544e-13
4.907000000000000000e+03 3.431818485260009766e+00 -1.528736782073974609e+01 -1.180946345488015359e-13 1.781427517435693608e-13 1.801443583605670529e-14 1.961571909677578551e-13
4.908000000000000000e+03 2.404813528060913086e+00 -1.073626518249511719e+01 3.803047490097931360e-14 7.025630077706068732e-13 2.221780431074099615e-13 1.521218996039172544e-13
4.909000000000000000e+03 3.320009708404541016e+00 -7.640983104705810547e+00 -6.004812227696550847e-15 2.261812563414053456e-13 6.605293026949732305e-14 4.803849782157240678e-14
4.910000000000000000e+03 3.154224395751953125e+00 -1.251460838317871094e+01 5.204170427930421283e-14 3.883111822540474822e-13 1.321058605389946461e-13 2.522020949285302960e-13
4.911000000000000000e+03 5.531458377838134766e+00 -1.623044967651367188e+01 -6.285036510331187820e-13 -7.726191648266267364e-13 -4.203368339159019307e-13 2.121700303512122354e-13
4.912000000000000000e+03 4.896389007568359375e+00 -1.651882743835449219e+01 -1.991596042813861822e-13 -1.311050606186275891e-13 -9.907939540424598457e-14 -1.601283260719080226e-14
4.913000000000000000e+03 2.687600612640380859e+00 -2.423476791381835938e+01 6.004812227696550847e-15 4.143320343936995886e-13 1.261010474642651480e-13 -1.641315257533762506e-13
4.914000000000000000e+03 3.408658981323242188e+00 -2.331014251708984375e+01 7.606094980195862720e-14 2.842277736954390566e-13 1.080866150163402317e-13 -1.120898214740720378e-13
4.915000000000000000e+03 3.547092914581298828e+00 -2.496083259582519531e+01 8.606896933441993136e-14 1.741395520621011328e-13 7.806255641895631925e-14 -1.080866150163402317e-13
4.916000000000000000e+03 2.765968561172485352e+00 -3.574956512451171875e+01 1.521218996039172544e-13 -7.205774334422682115e-14 2.401924891078620339e-14 1.401122870069854143e-13
4.917000000000000000e+03 4.864812374114990234e+00 -1.178671169281005859e+01 1.140914348673333079e-13 1.060850151756061177e-13 6.605293026949732305e-14 1.991596042813861822e-13
4.918000000000000000e+03 2.960797548294067383e+00 -3.182062149047851562e+01 -5.404330750817011586e-14 1.140914348673333079e-13 1.801443583605670529e-14 4.403528797570881170e-14
4.919000000000000000e+03 3.735430240631103516e+00 -2.917975997924804688e+01 1.801443583605670529e-14 1.220978477827969200e-13 4.203368474684290867e-14 -1.281026608575264181e-13
4.920000000000000000e+03 7.673006439208984375e+01 -2.325967597961425781e+01 9.207378240914942946e-14 -3.722983564231202580e-13 -8.406736949368581735e-14 -2.802245740139708285e-13
4.921000000000000000e+03 7.752168273925781250e+01 -1.931343841552734375e+01 -2.802245536851800944e-14 -3.322662782932750414e-13 -1.080866150163402317e-13 -1.561251128379126385e-13
4.922000000000000000e+03 7.680847167968750000e+01 -2.003673934936523438e+01 5.004010105043830980e-14 -3.903127820947815962e-13 -1.020818019416107336e-13 -2.201764432666758475e-13
4.923000000000000000e+03 7.753295135498046875e+01 -1.769735527038574219e+01 1.441154866884536423e-13 1.601283260719080226e-14 4.803849782157240678e-14 -8.807057595141762341e-14
4.924000000000000000e+03 7.677909088134765625e+01 -2.165023612976074219e+01 4.003208151797700565e-14 -4.403528865333516951e-13 -1.200962343895356499e-13 -2.161732300326804634e-13
4.925000000000000000e+03 7.672184753417968750e+01 -2.890728759765625000e+01 -5.204170427930421283e-14 -3.883111822540474822e-13 -1.321058605389946461e-13 -1.361090737729900302e-13
4.926000000000000000e+03 7.745401763916015625e+01 -2.334487533569335938e+01 4.803849782157240678e-14 -2.081668171172168513e-13 -4.803849782157240678e-14 4.403528797570881170e-14
4.927000000000000000e+03 7.683524322509765625e+01 -1.761860656738281250e+01 1.621299259126421366e-13 1.381106736137241442e-13 9.007218256841531545e-14 -1.721379386688398627e-13
4.928000000000000000e+03 7.752518463134765625e+01 -1.607536697387695312e+01 -2.001604075898850282e-14 -1.000802021008766196e-13 -3.602887167211341057e-14 -4.003208151797700565e-14
4.929000000000000000e+03 7.680388641357421875e+01 -1.518595886230468750e+01 5.004010105043830980e-14 -2.301844695754007297e-13 -5.404330750817011586e-14 -3.602887167211341057e-14
4.930000000000000000e+03 7.655505371093750000e+01 -3.039880561828613281e+01 -1.841475648182988589e-13 -2.161732300326804634e-13 -1.200962343895356499e-13 -1.441154866884536423e-13
4.931000000000000000e+03 7.740096282958984375e+01 -2.896868896484375000e+01 -6.004811719476782494e-14 -1.401122870069854143e-13 -6.004811719476782494e-14 4.803849782157240678e-14
4.932000000000000000e+03 3.057223081588745117e+00 -2.029968070983886719e+01 -1.200962445539310169e-14 2.922341730583755126e-13 8.406736949368581735e-14 -1.000802021008766196e-13
4.933000000000000000e+03 7.593344879150390625e+01 -3.426038742065429688e+01 -1.761411519028352468e-13 -3.042437992078345088e-13 -1.441154866884536423e-13 4.003208151797700565e-15
4.934000000000000000e+03 7.750913238525390625e+01 -1.207209205627441406e+01 4.803849782157240678e-14 1.120898214740720378e-13 4.803849782157240678e-14 8.006416303595401129e-15
4.935000000000000000e+03 7.533930206298828125e+01 -1.101856517791748047e+01 1.080866150163402317e-13 9.207378240914942946e-14 6.004811719476782494e-14 2.401924891078620339e-14
4.936000000000000000e+03 7.679527282714843750e+01 -2.084404563903808594e+01 4.003208151797700565e-15 -3.642919299551294898e-13 -1.080866150163402317e-13 -1.961571909677578551e-13
4.937000000000000000e+03 7.683720397949218750e+01 -1.681083297729492188e+01 1.721379386688398627e-13 2.802245536851800944e-14 6.004811719476782494e-14 4.003208151797700565e-15
4.938000000000000000e+03 7.614490509033203125e+01 -1.673694229125976562e+01 1.881507780522942430e-13 1.721379386688398627e-13 1.080866150163402317e-13 -1.921539912862896271e-13
4.939000000000000000e+03 7.662382507324218750e+01 -2.654210281372070312e+01 3.202566521438160452e-14 -1.921539912862896271e-13 -4.803849782157240678e-14 -4.403528797570881170e-14
4.940000000000000000e+03 3.642432928085327148e+00 -2.829368209838867188e+01 9.407538902614712151e-14 8.606896933441993136e-14 5.404330750817011586e-14 -1.200962445539310169e-14
4.941000000000000000e+03 3.611334323883056641e+00 -2.745243453979492188e+01 6.805453688649501509e-14 2.121700303512122354e-13 8.406736949368581735e-14 -1.361090737729900302e-13
4.942000000000000000e+03 7.662625122070312500e+01 -2.571498298645019531e+01 -5.004010105043830980e-14 -4.103288347122313606e-13 -1.381106736137241442e-13 4.003208151797700565e-15
4.943000000000000000e+03 3.925619602203369141e+00 -3.202603912353515625e+01 9.707779556351187056e-14 1.331066604593617031e-13 6.905533680686207210e-14 -5.204170427930421283e-14
4.944000000000000000e+03 6.017193603515625000e+01 -1.011211204528808594e+01 1.200962343895356499e-13 -3.602887302736612618e-13 -7.205774334422682115e-14 4.803849782157240678e-14
4.945000000000000000e+03 7.517668151855468750e+01 -3.167928695678710938e+01 -1.901523745048965680e-14 -1.911531778133954140e-13 -6.305052373213257400e-14 5.804651735403371093e-14
4.946000000000000000e+03 7.113848876953125000e+01 -1.042845630645751953e+01 1.941555911270237411e-13 2.662133209187234062e-13 1.381106736137241442e-13 -1.120898214740720378e-13
4.947000000000000000e+03 7.178726196289062500e+01 -1.051133918762207031e+01 -2.001604075898850282e-15 1.821459649775647449e-13 5.404330750817011586e-14 -2.001604042017532392e-13
4.948000000000000000e+03 7.630241394042968750e+01 -3.120115280151367188e+01 2.001604075898850282e-14 -2.201764432666758475e-13 -6.004811719476782494e-14 4.003208151797700565e-14
4.949000000000000000e+03 4.490823745727539062e+00 -8.428227424621582031e+00 1.040834085586084257e-13 1.361090737729900302e-13 7.205774334422682115e-14 5.004010105043830980e-14
4.950000000000000000e+03 9.045314788818359375e+00 -6.960324764251708984e+00 2.612093213168881212e-13 -3.512815038853034366e-13 -2.702165375408505793e-14 -1.341074739322559162e-13
4.951000000000000000e+03 7.518594264984130859e+00 -1.983825683593750000e+01 -1.281026608575264181e-13 -5.124106434301056723e-13 -1.921539912862896271e-13 4.403528797570881170e-14
4.952000000000000000e+03 9.188438415527343750e+00 -2.166839408874511719e+01 9.007218256841531545e-14 -3.502807039649363796e-13 -7.806255641895631925e-14 1.401122870069854143e-13
4.953000000000000000e+03 8.257177352905273438e+00 -9.064064025878906250e+00 1.251002475438980910e-13 -2.952365999245309958e-13 -5.104090097080536681e-14 6.605293026949732305e-14
4.954000000000000000e+03 7.154856681823730469e+00 -9.358094215393066406e+00 1.401122768425900472e-14 -3.142518255165593910e-13 -9.007218256841531545e-14 5.204170427930421283e-14
4.955000000000000000e+03 8.100427627563476562e+00 -8.114738464355468750e+00 1.841475648182988589e-13 -4.243400607024244708e-13 -7.205774334422682115e-14 2.802245536851800944e-14
4.956000000000000000e+03 3.639583349227905273e+00 -3.429390430450439453e+00 -1.501202929869195624e-14 8.506816941405287436e-14 2.101684237342145434e-14 -2.401924891078620339e-14
4.957000000000000000e+03 8.796542167663574219e+00 -5.307721138000488281e+00 6.805453688649501509e-14 -2.682149478645118323e-13 -6.004811719476782494e-14 -2.552045217946857791e-13
4.958000000000000000e+03 6.780858039855957031e+00 -3.764789819717407227e+00 1.120898214740720378e-13 4.803849782157240678e-14 4.803849782157240678e-14 7.205774334422682115e-14
4.959000000000000000e+03 7.373460769653320312e+00 -5.158093452453613281e+00 1.401122768425900472e-14 -3.943159817762498243e-13 -1.140914348673333079e-13 7.606094980195862720e-14
4.960000000000000000e+03 6.428692817687988281e+00 -6.022726058959960938e+00 1.951563910473907981e-13 -1.851483647386659159e-13 3.002406113848275424e-15 -9.557658890669770702e-14
4.961000000000000000e+03 6.010328292846679688e+00 -6.539026260375976562e+00 9.607699564314481355e-14 -9.607699564314481355e-14 0.000000000000000000e+00 -4.003208151797700565e-14
4.962000000000000000e+03 1.031170654296875000e+01 -5.317113399505615234e+00 -5.204170427930421283e-14 -7.085678072928092153e-13 -2.281828697346666157e-13 -1.120898214740720378e-13
4.963000000000000000e+03 1.470130157470703125e+01 -1.611837959289550781e+01 -2.992397996059992238e-13 -1.110890215537049808e-13 -1.230986477031639770e-13 -7.906335633932337625e-14
4.964000000000000000e+03 6.059111118316650391e+00 -9.673824310302734375e+00 6.004811719476782494e-14 -1.801443651368306309e-13 -3.602887167211341057e-14 1.200962343895356499e-13
4.965000000000000000e+03 6.505095958709716797e+00 -1.174674987792968750e+01 -1.160930347080674219e-13 -4.843881914497194519e-13 -1.801443651368306309e-13 2.001604075898850282e-15
4.966000000000000000e+03 7.606770515441894531e+00 -4.245428085327148438e+00 3.402726844324750755e-14 -2.141716301919463494e-13 -5.404330750817011586e-14 -1.120898214740720378e-13
4.967000000000000000e+03 9.917325973510742188e+00 -5.860567569732666016e+00 -1.200962445539310169e-14 -1.881507780522942430e-13 -6.004811719476782494e-14 -1.701363388281057487e-13
4.968000000000000000e+03 1.662804412841796875e+01 -1.359074974060058594e+01 -1.060850151756061177e-13 -2.742197473867141744e-13 -1.140914348673333079e-13 -3.202566521438160452e-14
4.969000000000000000e+03 1.757743644714355469e+01 -1.331491851806640625e+01 -1.491194998428160834e-13 -2.011612041221202962e-13 -1.050842084789754827e-13 3.602887167211341057e-14
4.970000000000000000e+03 1.628096389770507812e+01 -1.542537212371826172e+01 3.953167816966168813e-14 -7.455974992140804170e-14 -1.050842118671072717e-14 8.006416303595401129e-15
4.971000000000000000e+03 1.674825859069824219e+01 -1.471210670471191406e+01 -4.003208151797700565e-14 -2.001604042017532392e-13 -7.205774334422682115e-14 -1.040834085586084257e-13
4.972000000000000000e+03 1.799710655212402344e+01 -1.267060565948486328e+01 -5.004010105043830980e-14 -2.502004950877961820e-13 -9.007218256841531545e-14 -6.004811719476782494e-14
4.973000000000000000e+03 1.860119819641113281e+01 -1.047690582275390625e+01 -6.004812227696550847e-15 -4.143320343936995886e-13 -1.261010474642651480e-13 -7.205774334422682115e-14
4.974000000000000000e+03 1.438481712341308594e+01 -1.895786666870117188e+01 -1.961571909677578551e-13 -8.406736949368581735e-14 -8.406736949368581735e-14 -8.006416303595401129e-15
4.975000000000000000e+03 1.223829460144042969e+01 -2.022203445434570312e+01 -2.061652172764827373e-13 -2.942358000041639388e-13 -1.501202997631831404e-13 -2.802245536851800944e-14
4.976000000000000000e+03 1.118323230743408203e+01 -1.993708229064941406e+01 -3.722983564231202580e-13 -2.281828697346666157e-13 -1.801443651368306309e-13 1.481186999224490264e-13
4.977000000000000000e+03 6.768661975860595703e+00 -1.997780418395996094e+01 -1.220978477827969200e-13 -7.385918591139295497e-13 -2.582069215557869502e-13 -1.200962445539310169e-14
4.978000000000000000e+03 3.800361156463623047e+00 -1.202096271514892578e+01 8.638172100360053118e-14 2.657754929764194474e-13 1.056471601282478467e-13 3.225084587409055015e-13
4.979000000000000000e+03 3.203443288803100586e+00 -1.853163909912109375e+01 -4.003208151797700565e-14 4.403528865333516951e-13 1.200962343895356499e-13 -4.403528797570881170e-14
4.980000000000000000e+03 5.758601665496826172e+00 -1.752325248718261719e+01 -5.424346952512260067e-13 -5.984795992119984476e-13 -3.422742774969456114e-13 6.004811719476782494e-14
4.981000000000000000e+03 1.550891208648681641e+01 -1.726056289672851562e+01 -3.202566521438160452e-14 3.202566521438160452e-14 0.000000000000000000e+00 -1.080866150163402317e-13
4.982000000000000000e+03 1.574976825714111328e+01 -1.607705307006835938e+01 -9.545149230478361391e-14 -4.090778144829818053e-14 -4.090778144829818053e-14 -1.476182999622654979e-13
4.983000000000000000e+03 1.459452152252197266e+01 -1.821127510070800781e+01 3.002405859738391247e-14 -1.000802037949425141e-14 6.004812227696550847e-15 -4.003208151797700565e-15
4.984000000000000000e+03 4.322424411773681641e+00 -1.558773708343505859e+01 -2.081668171172168513e-13 2.081668171172168513e-13 0.000000000000000000e+00 1.000802021008766196e-13
4.985000000000000000e+03 4.529751777648925781e+00 -1.482644557952880859e+01 -3.348933814723703550e-13 -3.415236843329338967e-14 -1.107137249716991234e-13 1.929045844503013418e-13
4.986000000000000000e+03 1.813427162170410156e+01 -1.009942913055419922e+01 -3.046191025661039442e-14 -1.770168586094199997e-14 -1.444907934348548667e-14 3.834322657015991342e-14
4.987000000000000000e+03 1.423839855194091797e+01 -1.965411376953125000e+01 -8.807057595141762341e-14 8.006416303595401129e-15 -2.401924891078620339e-14 1.761411519028352468e-13
4.988000000000000000e+03 7.638749694824218750e+01 -4.171254730224609375e+01 -4.853889778175593528e-14 -1.466175000418984409e-13 -5.854691731421723944e-14 1.401122768425900472e-14
4.989000000000000000e+03 4.286933898925781250e+00 -3.510958099365234375e+01 6.004811719476782494e-14 -2.001604075898850282e-14 1.200962445539310169e-14 7.005614350349270714e-14
4.990000000000000000e+03 7.526602935791015625e+01 -3.604910278320312500e+01 -8.006416303595401129e-14 -2.401924687790712998e-13 -9.607699564314481355e-14 -4.803849782157240678e-14
4.991000000000000000e+03 7.622522735595703125e+01 -4.015536117553710938e+01 -5.404330750817011586e-14 -2.061652172764827373e-13 -7.806255641895631925e-14 -4.403528797570881170e-14
4.992000000000000000e+03 6.191751861572265625e+01 -1.063966178894042969e+01 4.003208151797700565e-14 -1.200962343895356499e-13 -2.401924891078620339e-14 1.441154866884536423e-13
4.993000000000000000e+03 6.250886535644531250e+01 -1.062713336944580078e+01 1.240994476235310340e-13 -8.406736949368581735e-14 1.200962445539310169e-14 1.601283260719080226e-13
4.994000000000000000e+03 6.363058090209960938e+01 -1.059234142303466797e+01 1.040834085586084257e-13 -5.044041898570605920e-13 -1.200962343895356499e-13 0.000000000000000000e+00
4.995000000000000000e+03 5.833527374267578125e+01 -1.072471332550048828e+01 3.442758773376797254e-13 5.604491073703601889e-14 1.200962343895356499e-13 -1.361090737729900302e-13
4.996000000000000000e+03 5.541833496093750000e+01 -9.993636131286621094e+00 2.722181475459800604e-13 -1.120898214740720378e-13 4.803849782157240678e-14 -9.607699564314481355e-14
4.997000000000000000e+03 4.746142578125000000e+01 -1.068518638610839844e+01 4.003208151797700565e-15 -4.403528797570881170e-14 -1.200962445539310169e-14 1.200962343895356499e-13
4.998000000000000000e+03 4.782021331787109375e+01 -9.781440734863281250e+00 2.902325732176413986e-13 -1.501202997631831404e-13 4.203368474684290867e-14 1.681347389873716347e-13
4.999000000000000000e+03 5.400330734252929688e+01 -1.008892917633056641e+01 1.761411519028352468e-13 -1.601283260719080226e-14 4.803849782157240678e-14 -1.601283260719080226e-13
5.000000000000000000e+03 5.458890533447265625e+01 -1.059044742584228516e+01 2.081668171172168513e-13 -4.803849782157240678e-14 4.803849782157240678e-14 -2.001604075898850282e-14
5.001000000000000000e+03 6.781773376464843750e+01 -1.008976840972900391e+01 1.321058605389946461e-13 1.481186999224490264e-13 8.406736949368581735e-14 -1.601283260719080226e-13
5.002000000000000000e+03 6.468443298339843750e+01 -1.055947017669677734e+01 1.200962445539310169e-14 -1.321058605389946461e-13 -3.602887167211341057e-14 1.040834085586084257e-13
5.003000000000000000e+03 6.471417999267578125e+01 -1.005446338653564453e+01 2.401924687790712998e-13 -8.006416303595401129e-14 4.803849782157240678e-14 1.200962343895356499e-13
5.004000000000000000e+03 4.806027603149414062e+01 -1.035520362854003906e+01 2.522020949285302960e-13 1.080866150163402317e-13 1.080866150163402317e-13 5.604491073703601889e-14
5.005000000000000000e+03 4.450801086425781250e+01 -1.016663646697998047e+01 3.482791041242022656e-13 1.200962445539310169e-14 1.080866150163402317e-13 1.000802021008766196e-13
5.006000000000000000e+03 4.967825317382812500e+01 -1.059946918487548828e+01 9.607699564314481355e-14 2.241796429481440756e-13 9.607699564314481355e-14 -1.120898214740720378e-13
5.007000000000000000e+03 5.210009384155273438e+01 -1.058549022674560547e+01 2.001604042017532392e-13 4.003208151797700565e-14 7.205774334422682115e-14 -3.202566521438160452e-14
5.008000000000000000e+03 5.420093154907226562e+01 -1.120502471923828125e+01 1.801443651368306309e-13 -6.004811719476782494e-14 3.602887167211341057e-14 -5.204170427930421283e-14
5.009000000000000000e+03 5.309365844726562500e+01 -1.064529895782470703e+01 3.843079825725792542e-13 5.764619467538145692e-13 2.882309733769072846e-13 -4.803849782157240678e-14
5.010000000000000000e+03 6.366921615600585938e+01 -1.008530712127685547e+01 2.882309733769072846e-13 3.522823038056704936e-13 1.921539912862896271e-13 0.000000000000000000e+00
5.011000000000000000e+03 6.308070755004882812e+01 -1.060943317413330078e+01 1.761411519028352468e-13 -1.601283260719080226e-14 4.803849782157240678e-14 -8.006416303595401129e-14
5.012000000000000000e+03 4.100505828857421875e+01 -1.014484405517578125e+01 8.406736949368581735e-14 -2.842277736954390566e-13 -6.004811719476782494e-14 2.802245740139708285e-13
5.013000000000000000e+03 4.326681900024414062e+01 -1.043513488769531250e+01 1.441154866884536423e-13 1.601283260719080226e-14 4.803849782157240678e-14 4.803849782157240678e-14
5.014000000000000000e+03 4.104917907714843750e+01 -1.062110137939453125e+01 2.001604042017532392e-13 4.003208151797700565e-14 7.205774334422682115e-14 -8.006416303595401129e-14
5.015000000000000000e+03 4.364440536499023438e+01 -1.040300178527832031e+01 1.921539912862896271e-13 -1.921539912862896271e-13 0.000000000000000000e+00 -6.405133042876320904e-14
5.016000000000000000e+03 4.285343933105468750e+01 -1.001057624816894531e+01 8.006416303595401129e-14 -2.401924687790712998e-13 -4.803849782157240678e-14 -2.241796429481440756e-13
5.017000000000000000e+03 5.111859512329101562e+01 -1.056274509429931641e+01 1.521218996039172544e-13 2.481988952470620680e-13 1.200962343895356499e-13 -2.562053217150528361e-13
5.018000000000000000e+03 4.240509414672851562e+01 -1.003947257995605469e+01 1.000802021008766196e-13 -1.401122870069854143e-13 -1.200962445539310169e-14 -2.321860694161348437e-13
5.019000000000000000e+03 4.151463699340820312e+01 -1.057599925994873047e+01 2.481988952470620680e-13 -4.883913911311876799e-13 -7.205774334422682115e-14 2.081668171172168513e-13
5.020000000000000000e+03 4.922500610351562500e+01 -1.061979675292968750e+01 1.641315257533762506e-13 -2.041636038832214672e-13 -1.200962445539310169e-14 -1.040834085586084257e-13
5.021000000000000000e+03 5.014926528930664062e+01 -1.058020496368408203e+01 2.602085213965210642e-13 2.001604075898850282e-14 8.406736949368581735e-14 -1.281026608575264181e-13
5.022000000000000000e+03 4.197066116333007812e+01 -1.052785205841064453e+01 3.002405995263662808e-13 2.201764432666758475e-13 1.561251128379126385e-13 -4.003208151797700565e-14
5.023000000000000000e+03 6.883577728271484375e+01 -1.122766017913818359e+01 1.040834085586084257e-13 -1.841475648182988589e-13 -2.401924891078620339e-14 0.000000000000000000e+00
5.024000000000000000e+03 7.052926635742187500e+01 -1.035583686828613281e+01 2.562053217150528361e-13 6.405133042876320904e-14 9.607699564314481355e-14 -1.681347389873716347e-13
5.025000000000000000e+03 4.057318115234375000e+01 -1.065828037261962891e+01 8.006416303595401129e-15 -8.807057595141762341e-14 -2.401924891078620339e-14 -4.003208151797700565e-14
5.026000000000000000e+03 3.954584503173828125e+01 -1.022089958190917969e+01 5.604491073703601889e-14 -6.164940519887140979e-13 -1.681347389873716347e-13 2.401924891078620339e-14
5.027000000000000000e+03 5.155059432983398438e+01 -1.007047843933105469e+01 2.481988952470620680e-13 4.723785381952061435e-13 2.161732300326804634e-13 -1.120898214740720378e-13
5.028000000000000000e+03 4.915465164184570312e+01 -1.016475105285644531e+01 3.522823038056704936e-13 2.882309733769072846e-13 1.921539912862896271e-13 1.601283260719080226e-13
5.029000000000000000e+03 4.880899429321289062e+01 -1.063251113891601562e+01 4.323464600653609269e-13 3.682951296365977178e-13 2.401924687790712998e-13 9.607699564314481355e-14
5.030000000000000000e+03 3.864619445800781250e+01 -1.123686027526855469e+01 1.641315257533762506e-13 -2.041636038832214672e-13 -1.200962445539310169e-14 -1.681347389873716347e-13
5.031000000000000000e+03 5.063125610351562500e+01 -1.056712055206298828e+01 -1.601283260719080226e-14 1.761411519028352468e-13 4.803849782157240678e-14 5.604491073703601889e-14
5.032000000000000000e+03 3.810392761230468750e+01 -1.075606441497802734e+01 8.406736949368581735e-14 3.602887167211341057e-14 3.602887167211341057e-14 2.401924891078620339e-14
5.033000000000000000e+03 3.606193161010742188e+01 -1.031578636169433594e+01 -4.003208151797700565e-14 -5.204170427930421283e-13 -1.681347389873716347e-13 -2.161732300326804634e-13
5.034000000000000000e+03 3.661482620239257812e+01 -1.079136562347412109e+01 1.641315257533762506e-13 -2.041636038832214672e-13 -1.200962445539310169e-14 5.604491073703601889e-14
5.035000000000000000e+03 3.611567687988281250e+01 -1.080431652069091797e+01 3.202566521438160452e-14 2.882309733769072846e-13 9.607699564314481355e-14 -1.601283260719080226e-14
5.036000000000000000e+03 3.711268615722656250e+01 -1.077996826171875000e+01 1.601283260719080226e-14 1.441154866884536423e-13 4.803849782157240678e-14 -3.042437992078345088e-13
5.037000000000000000e+03 6.939180755615234375e+01 -1.075906658172607422e+01 3.722983564231202580e-13 6.805453688649501509e-14 1.321058605389946461e-13 -1.441154866884536423e-13
5.038000000000000000e+03 3.304357528686523438e+01 -1.039176273345947266e+01 4.003208151797700565e-15 2.762213472274482884e-13 8.406736949368581735e-14 -4.803849782157240678e-14
5.039000000000000000e+03 3.410889434814453125e+01 -1.085474586486816406e+01 6.004811719476782494e-14 -6.605293026949732305e-13 -1.801443651368306309e-13 -6.405133042876320904e-14
5.040000000000000000e+03 3.561583709716796875e+01 -1.081792545318603516e+01 1.321058605389946461e-13 -1.721379386688398627e-13 -1.200962445539310169e-14 -4.803849782157240678e-14
5.041000000000000000e+03 5.351495742797851562e+01 -1.009754180908203125e+01 3.002405995263662808e-13 2.201764432666758475e-13 1.561251128379126385e-13 -1.040834085586084257e-13
5.042000000000000000e+03 5.259629821777343750e+01 -1.061513042449951172e+01 2.481988952470620680e-13 1.521218996039172544e-13 1.200962343895356499e-13 8.807057595141762341e-14
5.043000000000000000e+03 3.203208541870117188e+01 -1.041595077514648438e+01 -6.805453688649501509e-14 -2.121700303512122354e-13 -8.406736949368581735e-14 6.405133042876320904e-14
5.044000000000000000e+03 3.310231399536132812e+01 -1.088224792480468750e+01 -7.606094980195862720e-14 -1.240994476235310340e-13 -6.004811719476782494e-14 -8.006416303595401129e-15
5.045000000000000000e+03 3.461259841918945312e+01 -1.084290790557861328e+01 3.202566521438160452e-14 -3.202566521438160452e-14 0.000000000000000000e+00 -2.001604042017532392e-13
5.046000000000000000e+03 3.003295516967773438e+01 -1.093782043457031250e+01 -4.003208151797700565e-14 -2.001604042017532392e-13 -7.205774334422682115e-14 0.000000000000000000e+00
5.047000000000000000e+03 3.106160926818847656e+01 -1.092352581024169922e+01 -7.205774334422682115e-14 1.521218996039172544e-13 2.401924891078620339e-14 8.807057595141762341e-14
5.048000000000000000e+03 5.160710525512695312e+01 -1.056824779510498047e+01 1.921539912862896271e-13 1.281026608575264181e-13 9.607699564314481355e-14 3.202566521438160452e-14
5.049000000000000000e+03 2.684921646118164062e+01 -1.042823314666748047e+01 -1.641315257533762506e-13 -1.160930347080674219e-13 -8.406736949368581735e-14 -4.003208151797700565e-14
5.050000000000000000e+03 3.061039733886718750e+01 -1.143282985687255859e+01 -6.805453688649501509e-14 -2.121700303512122354e-13 -8.406736949368581735e-14 -2.081668171172168513e-13
5.051000000000000000e+03 2.794980049133300781e+01 -1.093756198883056641e+01 1.040834085586084257e-13 -5.044041898570605920e-13 -1.200962343895356499e-13 1.361090737729900302e-13
5.052000000000000000e+03 3.360542678833007812e+01 -1.086793041229248047e+01 -8.006416303595401129e-14 -8.006416303595401129e-14 -4.803849782157240678e-14 -1.361090737729900302e-13
5.053000000000000000e+03 3.157625389099121094e+01 -1.091611099243164062e+01 -1.200962445539310169e-14 1.321058605389946461e-13 3.602887167211341057e-14 5.604491073703601889e-14
5.054000000000000000e+03 2.144783401489257812e+01 -1.010785293579101562e+01 -4.803849782157240678e-14 -1.120898214740720378e-13 -4.803849782157240678e-14 8.006416303595401129e-15
5.055000000000000000e+03 2.349826812744140625e+01 -1.094019222259521484e+01 -1.601283260719080226e-14 1.761411519028352468e-13 4.803849782157240678e-14 6.004811719476782494e-14
5.056000000000000000e+03 2.471510505676269531e+01 -1.090904426574707031e+01 -6.405133042876320904e-14 -2.562053217150528361e-13 -9.607699564314481355e-14 2.401924891078620339e-14
5.057000000000000000e+03 6.994876861572265625e+01 -1.083653926849365234e+01 1.080866150163402317e-13 9.207378240914942946e-14 6.004811719476782494e-14 -2.321860694161348437e-13
5.058000000000000000e+03 4.612889099121093750e+01 -9.696447372436523438e+00 1.200962343895356499e-13 -4.003208151797700565e-14 2.401924891078620339e-14 5.604491073703601889e-14
5.059000000000000000e+03 2.689835357666015625e+01 -1.092966270446777344e+01 7.606094980195862720e-14 -1.961571909677578551e-13 -3.602887167211341057e-14 1.601283260719080226e-13
5.060000000000000000e+03 1.916166877746582031e+01 -9.707442283630371094e+00 -1.000802037949425141e-14 -1.301042606982605321e-13 -4.203368474684290867e-14 5.204170427930421283e-14
5.061000000000000000e+03 2.951743507385253906e+01 -1.094250106811523438e+01 -6.405133042876320904e-14 6.405133042876320904e-14 0.000000000000000000e+00 0.000000000000000000e+00
5.062000000000000000e+03 2.847528839111328125e+01 -1.094132232666015625e+01 -4.003208151797700565e-14 1.200962343895356499e-13 2.401924891078620339e-14 -1.601283260719080226e-13
5.063000000000000000e+03 3.054710197448730469e+01 -1.093084239959716797e+01 5.204170427930421283e-14 6.805453688649501509e-14 3.602887167211341057e-14 0.000000000000000000e+00
5.064000000000000000e+03 2.208107757568359375e+01 -1.064735412597656250e+01 -1.561251128379126385e-13 -5.244202424745103563e-13 -2.041636038832214672e-13 -1.601283260719080226e-14
5.065000000000000000e+03 6.078679656982421875e+01 -1.010600090026855469e+01 1.401122870069854143e-13 6.004811719476782494e-14 6.004811719476782494e-14 1.761411519028352468e-13
5.066000000000000000e+03 6.120076370239257812e+01 -1.117216014862060547e+01 2.241796429481440756e-13 9.607699564314481355e-14 9.607699564314481355e-14 0.000000000000000000e+00
5.067000000000000000e+03 2.363250732421875000e+01 -1.154025554656982422e+01 -5.604491073703601889e-14 -1.841475648182988589e-13 -7.205774334422682115e-14 -5.604491073703601889e-14
5.068000000000000000e+03 6.678298187255859375e+01 -1.005449867248535156e+01 1.441154866884536423e-13 1.601283260719080226e-14 4.803849782157240678e-14 -9.607699564314481355e-14
5.069000000000000000e+03 6.728815460205078125e+01 -1.055682277679443359e+01 2.441956955655938399e-13 1.961571909677578551e-13 1.321058605389946461e-13 -4.803849782157240678e-14
5.070000000000000000e+03 2.742414855957031250e+01 -1.093359375000000000e+01 -8.006416303595401129e-15 8.807057595141762341e-14 2.401924891078620339e-14 -1.281026608575264181e-13
5.071000000000000000e+03 2.528062248229980469e+01 -1.091263484954833984e+01 -8.006416303595401129e-14 -8.006416303595401129e-14 -4.803849782157240678e-14 -1.681347389873716347e-13
5.072000000000000000e+03 6.574670410156250000e+01 -1.004754924774169922e+01 1.841475648182988589e-13 2.161732300326804634e-13 1.200962343895356499e-13 -2.241796429481440756e-13
5.073000000000000000e+03 5.766772079467773438e+01 -1.023043060302734375e+01 1.881507780522942430e-13 -1.481186999224490264e-13 1.200962445539310169e-14 -2.401924687790712998e-13
5.074000000000000000e+03 2.263337326049804688e+01 -1.053036880493164062e+01 -8.006416303595401129e-14 -2.401924687790712998e-13 -9.607699564314481355e-14 -1.000802021008766196e-13
5.075000000000000000e+03 2.285762596130371094e+01 -1.105291938781738281e+01 -8.006416303595401129e-14 -2.401924687790712998e-13 -9.607699564314481355e-14 -1.200962343895356499e-13
5.076000000000000000e+03 5.709373092651367188e+01 -1.077761840820312500e+01 -4.003208151797700565e-15 4.403528797570881170e-14 1.200962445539310169e-14 -2.321860694161348437e-13
5.077000000000000000e+03 5.558580017089843750e+01 -1.040935325622558594e+01 2.882309733769072846e-13 -1.281026608575264181e-13 4.803849782157240678e-14 2.041636038832214672e-13
5.078000000000000000e+03 6.832627105712890625e+01 -1.063282966613769531e+01 2.562053217150528361e-13 6.405133042876320904e-14 9.607699564314481355e-14 -2.001604042017532392e-13
5.079000000000000000e+03 5.525942993164062500e+01 -1.103332710266113281e+01 3.803047557860567141e-13 -2.001604075898850282e-14 1.080866150163402317e-13 8.406736949368581735e-14
5.080000000000000000e+03 5.895523452758789062e+01 -1.067942905426025391e+01 1.441154866884536423e-13 1.601283260719080226e-14 4.803849782157240678e-14 2.642117210779892922e-13
5.081000000000000000e+03 5.954562377929687500e+01 -1.014314937591552734e+01 1.281026608575264181e-13 -4.483592858962881511e-13 -9.607699564314481355e-14 1.921539912862896271e-13
5.082000000000000000e+03 6.520367431640625000e+01 -1.054604530334472656e+01 2.081668171172168513e-13 2.722181475459800604e-13 1.441154866884536423e-13 7.205774334422682115e-14
5.083000000000000000e+03 6.572463989257812500e+01 -1.053679275512695312e+01 3.602887167211341057e-14 -7.606094980195862720e-14 -1.200962445539310169e-14 -4.003208151797700565e-14
5.084000000000000000e+03 9.644779205322265625e+00 -3.987813234329223633e+00 9.607699564314481355e-14 -9.607699564314481355e-14 0.000000000000000000e+00 -1.120898214740720378e-13
5.085000000000000000e+03 6.205010414123535156e+00 -1.921930694580078125e+01 -2.481988952470620680e-13 -7.926351632339678766e-13 -3.122502256758252770e-13 1.601283260719080226e-14
5.086000000000000000e+03 1.917882537841796875e+01 -1.085146522521972656e+01 -3.803047490097931360e-14 -6.204972381176551699e-14 -3.002405859738391247e-14 1.401122768425900472e-14
5.087000000000000000e+03 3.434496641159057617e+00 -1.913758468627929688e+01 4.903929774193946378e-14 2.101684237342145434e-14 2.101684237342145434e-14 -1.761411519028352468e-13
5.088000000000000000e+03 5.122841835021972656e+00 -1.763935852050781250e+01 -3.502807039649363796e-13 -4.703769383544720295e-13 -2.461972954063279539e-13 -1.601283260719080226e-14
5.089000000000000000e+03 7.611669921875000000e+01 -1.513140583038330078e+01 1.401122768425900472e-14 -1.541235129971785245e-13 -4.203368474684290867e-14 -2.081668171172168513e-13
5.090000000000000000e+03 5.956719970703125000e+01 -1.062551116943359375e+01 2.562053217150528361e-13 6.405133042876320904e-14 9.607699564314481355e-14 1.120898214740720378e-13
5.091000000000000000e+03 1.841395759582519531e+01 -1.206716728210449219e+01 4.553649124439118623e-14 -3.007410130390769654e-13 -7.656135653840573374e-14 7.606094980195862720e-14
5.092000000000000000e+03 4.485821533203125000e+01 -1.107186985015869141e+01 3.377706643027666988e-13 3.277626650990961288e-13 1.996600042415697107e-13 1.200962445539310169e-14
5.093000000000000000e+03 7.459252166748046875e+01 -3.118175888061523438e+01 -2.031628039628544102e-13 -2.071660171968497943e-13 -1.230986477031639770e-13 -7.005614350349270714e-14
5.094000000000000000e+03 7.387789916992187500e+01 -1.079994392395019531e+01 1.601283260719080226e-13 1.601283260719080226e-13 9.607699564314481355e-14 -9.607699564314481355e-14
5.095000000000000000e+03 7.602949523925781250e+01 -1.429594326019287109e+01 9.207378240914942946e-14 -5.204170427930421283e-14 1.200962445539310169e-14 -1.401122870069854143e-13
5.096000000000000000e+03 7.680132293701171875e+01 -1.045884704589843750e+01 7.205774334422682115e-14 1.681347389873716347e-13 7.205774334422682115e-14 -1.321058605389946461e-13
5.097000000000000000e+03 7.571717834472656250e+01 -3.318611526489257812e+01 -8.006416303595401129e-14 -8.006416303595401129e-14 -4.803849782157240678e-14 4.003208151797700565e-15
5.098000000000000000e+03 7.548188018798828125e+01 -2.981169700622558594e+01 -1.618171742434615368e-13 -2.066030587713138522e-13 -1.105260699044326167e-13 -6.129912387149022424e-14
5.099000000000000000e+03 7.595085906982421875e+01 -3.019979095458984375e+01 1.301042606982605321e-13 1.000802037949425141e-14 4.203368474684290867e-14 6.405133042876320904e-14
5.100000000000000000e+03 4.390589714050292969e+00 -2.487421226501464844e+01 1.200962343895356499e-13 2.802245740139708285e-13 1.200962343895356499e-13 -1.921539912862896271e-13
5.101000000000000000e+03 4.418509960174560547e+00 -2.573090744018554688e+01 1.220978477827969200e-13 -6.204972381176551699e-14 1.801443583605670529e-14 -8.406736949368581735e-14
5.102000000000000000e+03 4.433735370635986328e+00 -2.822602653503417969e+01 8.206576287668812530e-14 2.181748434259417335e-13 9.007218256841531545e-14 -1.120898214740720378e-13
5.103000000000000000e+03 7.315744781494140625e+01 -1.133099555969238281e+01 2.001604042017532392e-13 4.003208151797700565e-14 7.205774334422682115e-14 -8.006416303595401129e-14
5.104000000000000000e+03 4.352964401245117188e+00 -2.398119735717773438e+01 1.941555911270237411e-13 -5.404330750817011586e-14 4.203368474684290867e-14 -8.807057595141762341e-14
5.105000000000000000e+03 3.501836061477661133e+00 -2.412407684326171875e+01 5.604491073703601889e-14 5.044041898570605920e-13 1.681347389873716347e-13 -1.681347389873716347e-13
5.106000000000000000e+03 4.490767955780029297e+00 -2.902339172363281250e+01 1.301042606982605321e-13 1.000802037949425141e-14 4.203368474684290867e-14 -7.606094980195862720e-14
5.107000000000000000e+03 1.434670734405517578e+01 -2.047948265075683594e+01 -8.406736949368581735e-14 -1.961571909677578551e-13 -8.406736949368581735e-14 7.606094980195862720e-14
5.108000000000000000e+03 7.656938171386718750e+01 -3.574825286865234375e+01 -1.220978477827969200e-13 6.204972381176551699e-14 -1.801443583605670529e-14 -1.481186999224490264e-13
5.109000000000000000e+03 7.523175811767578125e+01 -2.386694908142089844e+01 -4.803849782157240678e-14 -2.722181475459800604e-13 -9.607699564314481355e-14 2.802245536851800944e-14
5.110000000000000000e+03 7.675411987304687500e+01 -1.356037425994873047e+01 2.201764398785440585e-14 -8.206576287668812530e-14 -1.801443583605670529e-14 -2.802245536851800944e-14
5.111000000000000000e+03 3.218140125274658203e+00 -1.642169380187988281e+01 -6.405133042876320904e-14 3.843079825725792542e-13 9.607699564314481355e-14 5.204170427930421283e-14
5.112000000000000000e+03 6.048216342926025391e+00 -5.083543777465820312e+00 2.081668171172168513e-13 -3.682951296365977178e-13 -4.803849782157240678e-14 2.401924891078620339e-14
5.113000000000000000e+03 7.600962829589843750e+01 -2.316694831848144531e+01 2.001604075898850282e-14 -2.201764432666758475e-13 -6.004811719476782494e-14 5.204170427930421283e-14
5.114000000000000000e+03 7.595903778076171875e+01 -2.397723960876464844e+01 6.605293026949732305e-14 -2.461972954063279539e-13 -5.404330750817011586e-14 -1.881507780522942430e-13
5.115000000000000000e+03 5.428728580474853516e+00 -4.871640682220458984e+00 4.003208151797700565e-14 4.003208151797700565e-14 2.401924891078620339e-14 6.805453688649501509e-14
5.116000000000000000e+03 3.845353364944458008e+00 -1.773313522338867188e+01 -1.641315257533762506e-13 2.041636038832214672e-13 1.200962445539310169e-14 -3.042437992078345088e-13
5.117000000000000000e+03 7.665448760986328125e+01 -2.736233520507812500e+01 -3.002405859738391247e-14 -3.102486258350911630e-13 -1.020818019416107336e-13 -1.601283260719080226e-14
5.118000000000000000e+03 7.563508605957031250e+01 -3.087821197509765625e+01 -9.907939540424598457e-14 -2.712173476256130034e-13 -1.110890215537049808e-13 -5.604491073703601889e-14
5.119000000000000000e+03 3.169785976409912109e+00 -8.398572921752929688e+00 1.421138868477195283e-13 1.981587908084919691e-13 1.020818019416107336e-13 1.200962343895356499e-13
5.120000000000000000e+03 4.032285213470458984e+00 -7.895561695098876953e+00 5.204170427930421283e-14 6.805453688649501509e-14 3.602887167211341057e-14 3.602887167211341057e-14
5.121000000000000000e+03 4.205631256103515625e+00 -2.311747932434082031e+01 2.762213472274482884e-13 1.641315257533762506e-13 1.321058605389946461e-13 -3.242598518252842732e-13
5.122000000000000000e+03 3.114108085632324219e+00 -1.706474494934082031e+01 -1.601283260719080226e-13 4.803849375581425996e-13 9.607699564314481355e-14 1.481186999224490264e-13
5.123000000000000000e+03 4.070128917694091797e+00 -1.511471366882324219e+01 -2.722181475459800604e-13 -2.081668171172168513e-13 -1.441154866884536423e-13 4.803849782157240678e-14
5.124000000000000000e+03 7.614422607421875000e+01 -1.593582916259765625e+01 1.661331391466375207e-13 9.407538902614712151e-14 7.806255641895631925e-14 -1.040834085586084257e-13
5.125000000000000000e+03 4.005018711090087891e+00 -2.234324645996093750e+01 2.522020949285302960e-13 1.080866150163402317e-13 1.080866150163402317e-13 -1.921539912862896271e-13
5.126000000000000000e+03 5.296749114990234375e+00 -1.378038978576660156e+01 -1.321058605389946461e-13 -1.481186999224490264e-13 -8.406736949368581735e-14 1.461170865291877563e-13
5.127000000000000000e+03 3.098888874053955078e+00 -9.140163421630859375e+00 1.421138868477195283e-13 1.981587908084919691e-13 1.020818019416107336e-13 1.200962343895356499e-13
5.128000000000000000e+03 4.530667781829833984e+00 -7.399971961975097656e+00 5.854691731421723944e-14 1.366094737331735587e-13 5.854691731421723944e-14 1.331066604593617031e-13
5.129000000000000000e+03 4.349640369415283203e+00 -2.082713890075683594e+01 5.204170427930421283e-14 -9.207378240914942946e-14 -1.200962445539310169e-14 -3.002405995263662808e-13
5.130000000000000000e+03 5.688019275665283203e+00 -1.313520336151123047e+01 -3.402726844324750755e-14 -3.462775042834681516e-13 -1.140914348673333079e-13 -1.000802037949425141e-14
5.131000000000000000e+03 4.379779815673828125e+00 -1.247550678253173828e+01 -2.902325867701685547e-14 -1.210970478624298630e-13 -4.503609128420765773e-14 1.811451650571976879e-13
5.132000000000000000e+03 3.100298881530761719e+00 -1.066605758666992188e+01 1.080866150163402317e-13 4.123304345529654746e-13 1.561251128379126385e-13 1.761411519028352468e-13
5.133000000000000000e+03 2.812596082687377930e+00 -1.183312606811523438e+01 6.805453688649501509e-14 5.324266418374468124e-13 1.801443651368306309e-13 3.442758773376797254e-13
5.134000000000000000e+03 6.303782463073730469e+00 -1.071716499328613281e+01 4.203368474684290867e-14 -2.221780431074099615e-13 -5.404330750817011586e-14 8.006416303595401129e-15
5.135000000000000000e+03 3.161482334136962891e+00 -1.776838684082031250e+01 -1.220978477827969200e-13 5.424346952512260067e-13 1.261010474642651480e-13 -8.406736949368581735e-14
5.136000000000000000e+03 4.494033813476562500e+00 -1.772361564636230469e+01 -1.321058605389946461e-13 -1.481186999224490264e-13 -8.406736949368581735e-14 -1.761411519028352468e-13
5.137000000000000000e+03 3.925311326980590820e+00 -1.893808364868164062e+01 -1.281026608575264181e-13 -1.921539912862896271e-13 -9.607699564314481355e-14 -1.521218996039172544e-13
5.138000000000000000e+03 3.355643510818481445e+00 -1.139805412292480469e+01 7.005614350349270714e-14 4.303448602246268129e-13 1.501202997631831404e-13 2.321860694161348437e-13
5.139000000000000000e+03 3.898260354995727539e+00 -1.102324771881103516e+01 1.348580670962676309e-13 5.779631737394194668e-14 5.779631737394194668e-14 1.561251128379126385e-13
5.140000000000000000e+03 4.292199611663818359e+00 -3.379317092895507812e+01 5.004010105043830980e-14 1.000802037949425141e-14 1.801443583605670529e-14 -5.004010105043830980e-14
5.141000000000000000e+03 3.653758049011230469e+00 -3.285791778564453125e+01 -1.401122768425900472e-14 1.541235129971785245e-13 4.203368474684290867e-14 -1.901523745048965680e-14
5.142000000000000000e+03 5.397978305816650391e+00 -1.983563232421875000e+01 4.403528797570881170e-14 -4.843881914497194519e-13 -1.321058605389946461e-13 -2.161732300326804634e-13
5.143000000000000000e+03 7.603294372558593750e+01 -1.264367961883544922e+01 8.206576287668812530e-14 -1.020818019416107336e-13 -6.004812227696550847e-15 -1.040834085586084257e-13
5.144000000000000000e+03 7.681925964355468750e+01 -1.923049736022949219e+01 2.001604075898850282e-15 -1.821459649775647449e-13 -5.404330750817011586e-14 -8.807057595141762341e-14
5.145000000000000000e+03 7.536503601074218750e+01 -2.148250389099121094e+01 -5.204170427930421283e-14 -2.281828697346666157e-13 -8.406736949368581735e-14 -1.601283260719080226e-13
5.146000000000000000e+03 7.682821655273437500e+01 -1.842475700378417969e+01 6.004811719476782494e-14 -3.402726776562114974e-13 -8.406736949368581735e-14 -1.160930347080674219e-13
5.147000000000000000e+03 7.610572052001953125e+01 -1.995111846923828125e+01 5.404330750817011586e-14 -1.140914348673333079e-13 -1.801443583605670529e-14 -1.561251128379126385e-13
5.148000000000000000e+03 7.544846343994140625e+01 -1.665960884094238281e+01 2.522020949285302960e-13 -5.204170427930421283e-14 6.004811719476782494e-14 -1.441154866884536423e-13
5.149000000000000000e+03 7.589527130126953125e+01 -2.480529594421386719e+01 -7.405934996122451319e-14 -3.062454261536229350e-13 -1.140914348673333079e-13 0.000000000000000000e+00
5.150000000000000000e+03 7.589840698242187500e+01 -2.739997291564941406e+01 7.806255641895631925e-14 -2.181748434259417335e-13 -4.203368474684290867e-14 -1.200962445539310169e-14
5.151000000000000000e+03 7.611574554443359375e+01 -1.914562416076660156e+01 1.661331391466375207e-13 -3.863095824133133682e-13 -6.605293026949732305e-14 -1.561251128379126385e-13
5.152000000000000000e+03 4.937329292297363281e+00 -2.045040893554687500e+01 6.405133042876320904e-14 -6.405133042876320904e-14 0.000000000000000000e+00 -1.781427517435693608e-13
5.153000000000000000e+03 7.613538360595703125e+01 -1.753936576843261719e+01 1.481186999224490264e-13 -2.802245536851800944e-14 3.602887167211341057e-14 -6.405133042876320904e-14
5.154000000000000000e+03 7.612474822998046875e+01 -1.834219932556152344e+01 3.002405859738391247e-14 -1.701363388281057487e-13 -4.203368474684290867e-14 -8.807057595141762341e-14
5.155000000000000000e+03 4.437538146972656250e+00 -2.657434082031250000e+01 3.202566521438160452e-14 1.281026608575264181e-13 4.803849782157240678e-14 -1.601283260719080226e-13
5.156000000000000000e+03 7.583998107910156250e+01 -2.565672683715820312e+01 5.604491073703601889e-14 -1.361090737729900302e-13 -2.401924891078620339e-14 -1.000802021008766196e-13
5.157000000000000000e+03 7.550124359130859375e+01 -2.858218765258789062e+01 -1.761411519028352468e-13 -3.042437992078345088e-13 -1.441154866884536423e-13 2.001604075898850282e-15
5.158000000000000000e+03 4.438511848449707031e+00 -2.740849113464355469e+01 8.006416303595401129e-14 8.006416303595401129e-14 4.803849782157240678e-14 -1.481186999224490264e-13
5.159000000000000000e+03 8.465429306030273438e+00 -6.649436950683593750e+00 3.462775042834681516e-13 -2.061652172764827373e-13 4.203368474684290867e-14 -1.421138868477195283e-13
5.160000000000000000e+03 7.605884552001953125e+01 -1.187109851837158203e+01 2.602085213965210642e-14 -1.261010474642651480e-13 -3.002405859738391247e-14 -4.803849782157240678e-14
5.161000000000000000e+03 7.607171630859375000e+01 -1.112078762054443359e+01 8.807057595141762341e-14 -8.006416303595401129e-15 2.401924891078620339e-14 -2.161732300326804634e-13
5.162000000000000000e+03 6.016408920288085938e+01 -1.058384704589843750e+01 2.361892690976030718e-13 -3.602887167211341057e-14 6.004811719476782494e-14 5.604491073703601889e-14
5.163000000000000000e+03 2.097882080078125000e+01 -1.150319004058837891e+01 -2.802245536851800944e-14 -3.322662782932750414e-13 -1.080866150163402317e-13 0.000000000000000000e+00
5.164000000000000000e+03 3.891423225402832031e+00 -4.354921817779541016e+00 -1.000802037949425141e-14 2.702165477052459464e-13 7.806255641895631925e-14 2.802245536851800944e-14
5.165000000000000000e+03 6.808558940887451172e+00 -4.398516178131103516e+00 1.200962445539310169e-14 -1.321058605389946461e-13 -3.602887167211341057e-14 3.602887167211341057e-14
5.166000000000000000e+03 6.930884361267089844e+00 -6.451021194458007812e+00 2.051644071917203133e-14 -2.657129345110670338e-13 -7.355895000104098469e-14 3.202566521438160452e-14
5.167000000000000000e+03 7.114448547363281250e+01 -1.100718116760253906e+01 1.240994476235310340e-13 2.361892690976030718e-13 1.080866150163402317e-13 -2.081668171172168513e-13
5.168000000000000000e+03 7.179294586181640625e+01 -1.110686683654785156e+01 1.401122870069854143e-13 6.004811719476782494e-14 6.004811719476782494e-14 8.006416303595401129e-15
5.169000000000000000e+03 5.145110607147216797e+00 -7.988280773162841797e+00 1.526222995641007829e-13 -1.175942345886180074e-13 1.050842118671072717e-14 1.100882216333379238e-13
5.170000000000000000e+03 5.994667530059814453e+00 -4.498165130615234375e+00 9.007218256841531545e-14 -3.502807039649363796e-13 -7.806255641895631925e-14 -1.281026608575264181e-13
5.171000000000000000e+03 6.933729171752929688e+00 -5.575530529022216797e+00 2.026624040026708817e-13 -1.876503780921107145e-13 4.503608959014176322e-15 5.004010105043830980e-14
5.172000000000000000e+03 4.236596584320068359e+00 -6.054708957672119141e+00 2.021620040424873532e-13 1.801443583605670529e-14 6.605293026949732305e-14 1.120898214740720378e-13
5.173000000000000000e+03 4.180956840515136719e+00 -6.800494194030761719e+00 -8.006416303595401129e-14 -8.006416303595401129e-14 -4.803849782157240678e-14 -6.004811719476782494e-14
5.174000000000000000e+03 7.621687889099121094e+00 -8.723392486572265625e+00 1.240994476235310340e-13 -4.043240080849747065e-13 -8.406736949368581735e-14 -1.200962445539310169e-14
5.175000000000000000e+03 8.578522682189941406e+00 -7.528075695037841797e+00 2.702165477052459464e-13 -3.302646513474866152e-13 -1.801443583605670529e-14 -2.031628039628544102e-13
5.176000000000000000e+03 5.139425754547119141e+00 -5.508107662200927734e+00 2.702165477052459464e-13 -2.502004950877961820e-13 6.004812227696550847e-15 9.607699564314481355e-14
5.177000000000000000e+03 4.225038051605224609e+00 -1.055088806152343750e+01 1.441154866884536423e-13 1.601283260719080226e-14 4.803849782157240678e-14 9.607699564314481355e-14
5.178000000000000000e+03 6.073836517333984375e+01 -1.059294128417968750e+01 1.881507780522942430e-13 -1.481186999224490264e-13 1.200962445539310169e-14 -2.401924891078620339e-14
5.179000000000000000e+03 6.983069419860839844e+00 -8.355616569519042969e+00 7.305854326459387815e-14 -3.632911300347624328e-13 -8.706977603105056640e-14 -4.303448466720996568e-14
5.180000000000000000e+03 6.995335388183593750e+01 -1.028859901428222656e+01 1.721379386688398627e-13 2.802245536851800944e-14 6.004811719476782494e-14 -1.361090737729900302e-13
5.181000000000000000e+03 9.734103202819824219e+00 -5.100662708282470703e+00 9.007218256841531545e-14 -4.303448602246268129e-13 -1.020818019416107336e-13 -9.807859548387892756e-14
5.182000000000000000e+03 8.983926773071289062e+00 -4.487395763397216797e+00 1.100882216333379238e-13 -9.007218256841531545e-14 6.004812227696550847e-15 -1.040834085586084257e-13
5.183000000000000000e+03 7.990669250488281250e+00 -7.194355010986328125e+00 9.007217918028352643e-15 -4.593681121253800903e-13 -1.351082738526229732e-13 -7.956375629950690476e-14
5.184000000000000000e+03 2.087013244628906250e+01 -1.004655551910400391e+01 3.602887167211341057e-14 -2.361892690976030718e-13 -6.004811719476782494e-14 -9.607699564314481355e-14
5.185000000000000000e+03 9.000823974609375000e+00 -3.997656106948852539e+00 1.261010474642651480e-13 -5.864700001675937635e-13 -1.381106736137241442e-13 -1.761411519028352468e-13
5.186000000000000000e+03 6.091908454895019531e+00 -1.244800758361816406e+01 2.602085213965210642e-14 -3.662935297958636038e-13 -1.020818019416107336e-13 1.080866150163402317e-13
5.187000000000000000e+03 5.889903545379638672e+00 -1.142257213592529297e+01 2.602085213965210642e-14 -1.261010474642651480e-13 -3.002405859738391247e-14 9.607699564314481355e-14
5.188000000000000000e+03 3.734896421432495117e+00 -1.379844093322753906e+01 -8.907137587178468041e-14 9.907939540424598457e-14 3.002406113848275424e-15 1.841475648182988589e-13
5.189000000000000000e+03 1.716795349121093750e+01 -1.400032997131347656e+01 -1.070858150959731747e-13 -1.831467648979318019e-13 -8.706977603105056640e-14 -4.003208151797700565e-14
5.190000000000000000e+03 1.808086204528808594e+01 -1.369531536102294922e+01 7.606094980195862720e-14 -1.961571909677578551e-13 -3.602887167211341057e-14 4.003208151797700565e-15
5.191000000000000000e+03 1.734771728515625000e+01 -1.511682987213134766e+01 -2.802245536851800944e-14 -1.200962445539310169e-14 -1.200962445539310169e-14 -8.506816941405287436e-14
5.192000000000000000e+03 1.771718215942382812e+01 -1.437306785583496094e+01 -3.202566521438160452e-14 3.202566521438160452e-14 0.000000000000000000e+00 1.801443583605670529e-14
5.193000000000000000e+03 4.329050064086914062e+00 -1.142580509185791016e+01 1.301042606982605321e-13 1.000802037949425141e-14 4.203368474684290867e-14 1.321058605389946461e-13
5.194000000000000000e+03 8.361463546752929688e+00 -2.157737922668457031e+01 2.602085213965210642e-14 -7.666143110943157701e-13 -2.221780431074099615e-13 7.205774334422682115e-14
5.195000000000000000e+03 1.013529205322265625e+01 -2.076499176025390625e+01 -1.120898214740720378e-13 -2.081668171172168513e-13 -9.607699564314481355e-14 1.921539912862896271e-13
5.196000000000000000e+03 1.564838123321533203e+01 -1.813661003112792969e+01 -2.401924891078620339e-14 -2.161732300326804634e-13 -7.205774334422682115e-14 -1.601283260719080226e-14
5.197000000000000000e+03 1.329373073577880859e+01 -2.042336273193359375e+01 -1.060850151756061177e-13 4.603689120457471473e-14 -1.801443583605670529e-14 8.807057595141762341e-14
5.198000000000000000e+03 1.632382392883300781e+01 -1.670980072021484375e+01 -7.430954994131627744e-14 -1.233488409069921632e-13 -5.929751725449253219e-14 -9.307458910578006450e-14
5.199000000000000000e+03 4.682922840118408203e+00 -1.345148181915283203e+01 -1.000802021008766196e-13 -1.801443651368306309e-13 -8.406736949368581735e-14 1.481186999224490264e-13
5.200000000000000000e+03 4.909538269042968750e+00 -1.435093402862548828e+01 -8.406736949368581735e-14 -1.961571909677578551e-13 -8.406736949368581735e-14 1.130906281707026728e-13
5.201000000000000000e+03 5.059388637542724609e+00 -1.704589080810546875e+01 -3.042437992078345088e-13 -4.963977904941241359e-13 -2.401924687790712998e-13 6.004811719476782494e-14
5.202000000000000000e+03 4.632507801055908203e+00 -1.604395294189453125e+01 -3.202566521438160452e-13 0.000000000000000000e+00 -9.607699564314481355e-14 1.240994476235310340e-13
5.203000000000000000e+03 4.898555755615234375e+00 -1.522329235076904297e+01 -3.062454261536229350e-13 -3.943159817762498243e-13 -2.101684169579509653e-13 9.607699564314481355e-14
5.204000000000000000e+03 5.051163673400878906e+00 -1.895231056213378906e+01 2.001604075898850282e-14 -3.803047557860567141e-13 -1.080866150163402317e-13 -1.441154866884536423e-13
5.205000000000000000e+03 7.027920246124267578e+00 -4.151780700683593750e+01 3.002405859738391247e-14 7.005614350349270714e-14 3.002405859738391247e-14 1.100882199392720293e-14
5.206000000000000000e+03 4.555171489715576172e+00 -3.703019714355468750e+01 4.903929774193946378e-14 6.104892389139845998e-14 3.302646513474866152e-14 3.452766840343103605e-14
5.207000000000000000e+03 5.294661045074462891e+00 -3.824911117553710938e+01 -3.602887167211341057e-14 7.606094980195862720e-14 1.200962445539310169e-14 2.702165375408505793e-14
5.208000000000000000e+03 6.881666183471679688e+00 -3.696239089965820312e+01 6.292542713021848089e-14 -4.165838477670526230e-14 6.380112621350670851e-15 4.953969770212299228e-14
5.209000000000000000e+03 6.303141403198242188e+01 -1.112073898315429688e+01 1.561251128379126385e-13 -1.160930347080674219e-13 1.200962445539310169e-14 1.281026608575264181e-13
5.210000000000000000e+03 5.509225463867187500e+01 -1.052589797973632812e+01 2.121700303512122354e-13 -9.207378240914942946e-14 3.602887167211341057e-14 -1.481186999224490264e-13
5.211000000000000000e+03 5.472529602050781250e+01 -1.112835597991943359e+01 1.000802021008766196e-13 2.001604075898850282e-14 3.602887167211341057e-14 -1.481186999224490264e-13
5.212000000000000000e+03 5.263633346557617188e+01 -1.115943241119384766e+01 1.921539912862896271e-13 1.281026608575264181e-13 9.607699564314481355e-14 -7.205774334422682115e-14
5.213000000000000000e+03 6.416284942626953125e+01 -1.057479095458984375e+01 3.002405995263662808e-13 -1.000802021008766196e-13 6.004811719476782494e-14 1.601283260719080226e-14
5.214000000000000000e+03 6.465874481201171875e+01 -1.108290863037109375e+01 2.201764432666758475e-13 1.401122870069854143e-13 1.080866150163402317e-13 3.202566521438160452e-14
5.215000000000000000e+03 5.718926620483398438e+01 -1.133581256866455078e+01 2.441956955655938399e-13 -4.443560862148199231e-13 -6.004811719476782494e-14 2.401924891078620339e-14
5.216000000000000000e+03 5.644809722900390625e+01 -1.079902267456054688e+01 2.522020949285302960e-13 -2.121700303512122354e-13 1.200962445539310169e-14 2.401924891078620339e-14
5.217000000000000000e+03 6.937807464599609375e+01 -1.131630802154541016e+01 1.361090737729900302e-13 1.040834085586084257e-13 7.205774334422682115e-14 -3.763015561045884860e-13
5.218000000000000000e+03 6.413118743896484375e+01 -1.110222434997558594e+01 2.041636038832214672e-13 -4.003208151797700565e-15 6.004811719476782494e-14 1.761411519028352468e-13
5.219000000000000000e+03 4.457928466796875000e+01 -1.080605506896972656e+01 2.481988952470620680e-13 1.521218996039172544e-13 1.200962343895356499e-13 6.054852393121493148e-14
5.220000000000000000e+03 4.973348999023437500e+01 -1.107744503021240234e+01 2.321860694161348437e-13 8.006416303595401129e-15 7.205774334422682115e-14 -1.120898214740720378e-13
5.221000000000000000e+03 4.621670532226562500e+01 -1.016944503784179688e+01 6.004812227696550847e-15 9.407538902614712151e-14 3.002405859738391247e-14 -8.006416303595401129e-14
5.222000000000000000e+03 6.359192657470703125e+01 -1.111256599426269531e+01 3.682951296365977178e-13 1.120898214740720378e-13 1.441154866884536423e-13 -1.120898214740720378e-13
5.223000000000000000e+03 6.676862335205078125e+01 -1.054002475738525391e+01 2.481988952470620680e-13 1.521218996039172544e-13 1.200962343895356499e-13 1.281026608575264181e-13
5.224000000000000000e+03 6.778991699218750000e+01 -1.109001445770263672e+01 2.602085213965210642e-13 2.001604075898850282e-14 8.406736949368581735e-14 -1.040834085586084257e-13
5.225000000000000000e+03 4.156319046020507812e+01 -1.104528427124023438e+01 3.042437992078345088e-13 1.761411519028352468e-13 1.441154866884536423e-13 8.807057595141762341e-14
5.226000000000000000e+03 4.369649887084960938e+01 -1.077950859069824219e+01 -9.507618894651417851e-14 -3.152526254369264480e-13 -1.230986477031639770e-13 3.602887167211341057e-14
5.227000000000000000e+03 4.241849136352539062e+01 -1.048564815521240234e+01 1.361090737729900302e-13 -2.161732300326804634e-13 -2.401924891078620339e-14 -1.521218996039172544e-13
5.228000000000000000e+03 5.166055297851562500e+01 -1.106338691711425781e+01 1.160930347080674219e-13 4.003208151797700565e-15 3.602887167211341057e-14 -1.361090737729900302e-13
5.229000000000000000e+03 3.959391403198242188e+01 -1.070947170257568359e+01 1.841475648182988589e-13 -1.040834085586084257e-13 2.401924891078620339e-14 1.761411519028352468e-13
5.230000000000000000e+03 4.062665176391601562e+01 -1.115104866027832031e+01 1.120898214740720378e-13 -2.722181475459800604e-13 -4.803849782157240678e-14 8.006416303595401129e-15
5.231000000000000000e+03 4.427275466918945312e+01 -1.214033508300781250e+01 2.842277736954390566e-13 2.361892690976030718e-13 1.561251128379126385e-13 -1.801443583605670529e-14
5.232000000000000000e+03 4.413140487670898438e+01 -1.166099548339843750e+01 1.080866150163402317e-13 9.207378240914942946e-14 6.004811719476782494e-14 -2.401924891078620339e-14
5.233000000000000000e+03 4.285687637329101562e+01 -1.090507411956787109e+01 2.041636038832214672e-13 -3.242598518252842732e-13 -3.602887167211341057e-14 -1.120898214740720378e-13
5.234000000000000000e+03 3.860020065307617188e+01 -1.074241542816162109e+01 7.606094980195862720e-14 -1.961571909677578551e-13 -3.602887167211341057e-14 -1.281026608575264181e-13
5.235000000000000000e+03 4.110350036621093750e+01 -1.110689544677734375e+01 8.406736949368581735e-14 -2.842277736954390566e-13 -6.004811719476782494e-14 9.607699564314481355e-14
5.236000000000000000e+03 4.925622940063476562e+01 -1.108476161956787109e+01 1.801443651368306309e-13 2.602085213965210642e-13 1.321058605389946461e-13 4.003208151797700565e-14
5.237000000000000000e+03 3.666678237915039062e+01 -1.128737926483154297e+01 -4.403528797570881170e-14 1.641315257533762506e-13 3.602887167211341057e-14 -6.405133042876320904e-14
5.238000000000000000e+03 4.008693695068359375e+01 -1.068721008300781250e+01 -1.160930347080674219e-13 -4.003208151797700565e-15 -3.602887167211341057e-14 7.205774334422682115e-14
5.239000000000000000e+03 4.789817810058593750e+01 -1.086353397369384766e+01 5.204170427930421283e-14 6.805453688649501509e-14 3.602887167211341057e-14 -1.481186999224490264e-13
5.240000000000000000e+03 7.052973937988281250e+01 -1.091743278503417969e+01 2.121700303512122354e-13 2.281828697346666157e-13 1.321058605389946461e-13 8.006416303595401129e-14
5.241000000000000000e+03 4.285361099243164062e+01 -1.045697307586669922e+01 2.481988952470620680e-13 -1.681347389873716347e-13 2.401924891078620339e-14 -3.202566521438160452e-14
5.242000000000000000e+03 4.200589752197265625e+01 -1.097753334045410156e+01 3.082470259943570490e-13 -1.881507780522942430e-13 3.602887167211341057e-14 -1.521218996039172544e-13
5.243000000000000000e+03 4.018130874633789062e+01 -1.167709827423095703e+01 1.721379386688398627e-13 2.802245536851800944e-14 6.004811719476782494e-14 8.807057595141762341e-14
5.244000000000000000e+03 3.814941024780273438e+01 -1.125211238861083984e+01 -4.003208151797700565e-14 -2.001604042017532392e-13 -7.205774334422682115e-14 -1.040834085586084257e-13
5.245000000000000000e+03 3.616785049438476562e+01 -1.129826641082763672e+01 2.802245536851800944e-14 -3.082470259943570490e-13 -8.406736949368581735e-14 1.040834085586084257e-13
5.246000000000000000e+03 3.765546035766601562e+01 -1.126596069335937500e+01 3.082470259943570490e-13 1.321058605389946461e-13 1.321058605389946461e-13 -9.607699564314481355e-14
5.247000000000000000e+03 3.716250991821289062e+01 -1.127758407592773438e+01 1.481186999224490264e-13 -2.802245536851800944e-14 3.602887167211341057e-14 -1.601283260719080226e-13
5.248000000000000000e+03 3.566805267333984375e+01 -1.131097793579101562e+01 -1.601283260719080226e-14 1.761411519028352468e-13 4.803849782157240678e-14 -1.040834085586084257e-13
5.249000000000000000e+03 3.366666412353515625e+01 -1.136312961578369141e+01 -4.803849782157240678e-14 -4.323464600653609269e-13 -1.441154866884536423e-13 -8.006416303595401129e-14
5.250000000000000000e+03 3.259756851196289062e+01 -1.089591407775878906e+01 -1.160930347080674219e-13 -4.003208151797700565e-15 -3.602887167211341057e-14 1.040834085586084257e-13
5.251000000000000000e+03 3.316489791870117188e+01 -1.137810039520263672e+01 -6.805453688649501509e-14 1.080866150163402317e-13 1.200962445539310169e-14 8.006416303595401129e-14
5.252000000000000000e+03 5.118214035034179688e+01 -1.105326557159423828e+01 1.601283260719080226e-13 1.601283260719080226e-13 9.607699564314481355e-14 -7.205774334422682115e-14
5.253000000000000000e+03 3.511499786376953125e+01 -1.083089351654052734e+01 -2.121700303512122354e-13 -2.281828697346666157e-13 -1.321058605389946461e-13 -6.405133042876320904e-14
5.254000000000000000e+03 5.408848190307617188e+01 -1.063391113281250000e+01 2.001604042017532392e-13 4.003208151797700565e-14 7.205774334422682115e-14 -2.481988952470620680e-13
5.255000000000000000e+03 3.208887481689453125e+01 -1.090725517272949219e+01 1.200962343895356499e-13 -4.003208151797700565e-14 2.401924891078620339e-14 2.882309733769072846e-13
5.256000000000000000e+03 3.416738128662109375e+01 -1.134927368164062500e+01 2.081668171172168513e-13 -4.803849782157240678e-14 4.803849782157240678e-14 -1.681347389873716347e-13
5.257000000000000000e+03 3.009483528137207031e+01 -1.144047069549560547e+01 2.441956955655938399e-13 5.164138431115739003e-13 2.281828697346666157e-13 -2.401924891078620339e-14
5.258000000000000000e+03 3.266003799438476562e+01 -1.139252471923828125e+01 4.003208151797700565e-15 -4.403528797570881170e-14 -1.200962445539310169e-14 5.604491073703601889e-14
5.259000000000000000e+03 3.112495994567871094e+01 -1.142456436157226562e+01 -1.681347389873716347e-13 -7.205774334422682115e-14 -7.205774334422682115e-14 1.281026608575264181e-13
5.260000000000000000e+03 2.748573684692382812e+01 -1.143947601318359375e+01 2.281828697346666157e-13 -2.682149478645118323e-13 -1.200962445539310169e-14 2.321860694161348437e-13
5.261000000000000000e+03 2.636885070800781250e+01 -1.092501449584960938e+01 -1.641315257533762506e-13 -1.160930347080674219e-13 -8.406736949368581735e-14 -1.521218996039172544e-13
5.262000000000000000e+03 2.695919609069824219e+01 -1.143738651275634766e+01 -2.041636038832214672e-13 4.003208151797700565e-15 -6.004811719476782494e-14 -2.401924891078620339e-14
5.263000000000000000e+03 6.624704742431640625e+01 -1.053458690643310547e+01 1.641315257533762506e-13 1.160930347080674219e-13 8.406736949368581735e-14 4.803849782157240678e-14
5.264000000000000000e+03 2.479224777221679688e+01 -1.144320678710937500e+01 -6.805453688649501509e-14 1.080866150163402317e-13 1.200962445539310169e-14 -1.601283260719080226e-13
5.265000000000000000e+03 2.412698936462402344e+01 -1.091598987579345703e+01 -1.240994476235310340e-13 -2.361892690976030718e-13 -1.080866150163402317e-13 -2.161732300326804634e-13
5.266000000000000000e+03 2.899835586547851562e+01 -1.094349861145019531e+01 4.403528797570881170e-14 -1.641315257533762506e-13 -3.602887167211341057e-14 4.803849782157240678e-14
5.267000000000000000e+03 5.359046554565429688e+01 -1.065374374389648438e+01 8.807057595141762341e-14 -8.006416303595401129e-15 2.401924891078620339e-14 -1.681347389873716347e-13
5.268000000000000000e+03 5.315153503417968750e+01 -1.123841285705566406e+01 7.606094980195862720e-14 -1.961571909677578551e-13 -3.602887167211341057e-14 -8.006416303595401129e-14
5.269000000000000000e+03 2.010542297363281250e+01 -1.067838001251220703e+01 6.805453688649501509e-14 -1.080866150163402317e-13 -1.200962445539310169e-14 -2.401924891078620339e-14
5.270000000000000000e+03 2.957733345031738281e+01 -1.144577980041503906e+01 -2.802245536851800944e-14 -1.200962445539310169e-14 -1.200962445539310169e-14 -9.607699564314481355e-14
5.271000000000000000e+03 2.583075332641601562e+01 -1.091897964477539062e+01 4.803849782157240678e-14 1.120898214740720378e-13 4.803849782157240678e-14 8.807057595141762341e-14
5.272000000000000000e+03 2.435107040405273438e+01 -1.202670192718505859e+01 -7.606094980195862720e-14 1.961571909677578551e-13 3.602887167211341057e-14 -1.080866150163402317e-13
5.273000000000000000e+03 2.801092147827148438e+01 -1.144202804565429688e+01 -1.881507780522942430e-13 1.481186999224490264e-13 -1.200962445539310169e-14 -2.401924891078620339e-14
5.274000000000000000e+03 2.853512954711914062e+01 -1.144522762298583984e+01 1.321058605389946461e-13 -1.721379386688398627e-13 -1.200962445539310169e-14 -6.405133042876320904e-14
5.275000000000000000e+03 2.642928695678710938e+01 -1.143522930145263672e+01 -2.001604075898850282e-14 -1.000802021008766196e-13 -3.602887167211341057e-14 8.006416303595401129e-14
5.276000000000000000e+03 1.881445312500000000e+01 -1.147414016723632812e+01 -7.055654346367623564e-14 -3.047442127205451934e-13 -1.125902282105191443e-13 -1.401122870069854143e-13
5.277000000000000000e+03 2.534885215759277344e+01 -1.143501091003417969e+01 -7.205774334422682115e-14 -1.681347389873716347e-13 -7.205774334422682115e-14 -8.006416303595401129e-14
5.278000000000000000e+03 2.163108825683593750e+01 -1.134047222137451172e+01 -5.204170427930421283e-14 -2.281828697346666157e-13 -8.406736949368581735e-14 -2.001604075898850282e-14
5.279000000000000000e+03 5.771623992919921875e+01 -1.075560855865478516e+01 5.524426944548965768e-13 8.006416303595401129e-15 1.681347389873716347e-13 -1.601283260719080226e-14
5.280000000000000000e+03 2.303566741943359375e+01 -1.166741943359375000e+01 -2.001604075898850282e-14 6.004811719476782494e-14 1.200962445539310169e-14 -5.204170427930421283e-14
5.281000000000000000e+03 6.727417755126953125e+01 -1.104628562927246094e+01 2.321860694161348437e-13 8.006416303595401129e-15 7.205774334422682115e-14 -8.006416303595401129e-15
5.282000000000000000e+03 5.840547180175781250e+01 -1.124215412139892578e+01 3.242598518252842732e-13 -4.403528797570881170e-14 8.406736949368581735e-14 4.803849782157240678e-14
5.283000000000000000e+03 2.224433326721191406e+01 -1.121319198608398438e+01 -4.003208151797700565e-15 4.403528797570881170e-14 1.200962445539310169e-14 -2.001604075898850282e-14
5.284000000000000000e+03 2.422070503234863281e+01 -1.147180652618408203e+01 -3.602887167211341057e-14 -2.441956955655938399e-13 -8.406736949368581735e-14 -1.080866150163402317e-13
5.285000000000000000e+03 2.037486839294433594e+01 -9.801426887512207031e+00 -1.421138868477195283e-13 4.203368474684290867e-14 -3.002405859738391247e-14 -4.003208151797700565e-14
5.286000000000000000e+03 4.663816452026367188e+01 -1.020039272308349609e+01 2.842277736954390566e-13 -8.406736949368581735e-14 6.004811719476782494e-14 1.561251128379126385e-13
5.287000000000000000e+03 4.525826263427734375e+01 -1.066297721862792969e+01 2.379406892870361556e-13 -3.527827173183811782e-14 6.079872391130669573e-14 2.401924891078620339e-14
5.288000000000000000e+03 4.833402252197265625e+01 -1.099291896820068359e+01 4.403528797570881170e-14 -1.641315257533762506e-13 -3.602887167211341057e-14 6.405133042876320904e-14
5.289000000000000000e+03 5.543444442749023438e+01 -1.157221221923828125e+01 8.606896933441993136e-14 1.741395520621011328e-13 7.806255641895631925e-14 -1.521218996039172544e-13
5.290000000000000000e+03 5.599356460571289062e+01 -1.146714305877685547e+01 2.161732300326804634e-13 2.401924891078620339e-14 7.205774334422682115e-14 6.405133042876320904e-14
5.291000000000000000e+03 6.830764007568359375e+01 -1.114946079254150391e+01 2.001604042017532392e-13 3.602887302736612618e-13 1.681347389873716347e-13 -2.241796429481440756e-13
5.292000000000000000e+03 7.052185058593750000e+01 -1.149913024902343750e+01 3.602887167211341057e-14 2.441956955655938399e-13 8.406736949368581735e-14 -1.361090737729900302e-13
5.293000000000000000e+03 6.131825637817382812e+01 -1.062940502166748047e+01 9.607699564314481355e-14 2.241796429481440756e-13 9.607699564314481355e-14 2.882309733769072846e-13
5.294000000000000000e+03 6.297771453857421875e+01 -1.163405895233154297e+01 1.641315257533762506e-13 1.160930347080674219e-13 8.406736949368581735e-14 -1.200962343895356499e-13
5.295000000000000000e+03 6.571131896972656250e+01 -1.103272533416748047e+01 1.641315257533762506e-13 1.160930347080674219e-13 8.406736949368581735e-14 -8.006416303595401129e-15
5.296000000000000000e+03 6.623538208007812500e+01 -1.101920700073242188e+01 9.207378240914942946e-14 -5.204170427930421283e-14 1.200962445539310169e-14 1.361090737729900302e-13
5.297000000000000000e+03 4.451679229736328125e+01 -1.143923187255859375e+01 1.997850940672202258e-13 -5.879711814134195094e-15 5.817161395594780404e-14 -1.801443651368306309e-13
5.298000000000000000e+03 5.901622009277343750e+01 -1.117791557312011719e+01 2.682149478645118323e-13 -6.805453688649501509e-14 6.004811719476782494e-14 1.281026608575264181e-13
5.299000000000000000e+03 7.503916168212890625e+01 -3.044592094421386719e+01 2.902325867701685547e-14 -7.906335633932337625e-14 -1.501202929869195624e-14 3.602887167211341057e-14
5.300000000000000000e+03 1.826503753662109375e+01 -1.103877735137939453e+01 -7.606094980195862720e-14 -1.240994476235310340e-13 -6.004811719476782494e-14 -8.006416303595401129e-15
5.301000000000000000e+03 7.446689605712890625e+01 -3.335906982421875000e+01 -9.007218256841531545e-14 -2.902325732176413986e-13 -1.140914348673333079e-13 -2.802245536851800944e-14
5.302000000000000000e+03 1.665778732299804688e+01 -1.830293273925781250e+01 -1.100882216333379238e-13 -7.005614350349270714e-14 -5.404330750817011586e-14 -6.004811719476782494e-14
5.303000000000000000e+03 7.606008148193359375e+01 -2.887877464294433594e+01 4.003208151797700565e-14 -1.200962343895356499e-13 -2.401924891078620339e-14 3.202566521438160452e-14
5.304000000000000000e+03 7.678630828857421875e+01 -1.197910690307617188e+01 8.006416303595401129e-15 -8.807057595141762341e-14 -2.401924891078620339e-14 -1.681347389873716347e-13
5.305000000000000000e+03 1.849109458923339844e+01 -1.310319423675537109e+01 -1.005806020610601481e-13 -1.346078738924394447e-13 -7.055654346367623564e-14 -2.001604075898850282e-14
5.306000000000000000e+03 4.572890758514404297e+00 -3.023178863525390625e+01 7.005614350349270714e-14 3.502807039649363796e-13 1.261010474642651480e-13 -6.405133042876320904e-14
5.307000000000000000e+03 4.906263828277587891e+00 -2.959154129028320312e+01 4.003208151797700565e-15 -4.403528797570881170e-14 -1.200962445539310169e-14 -1.040834085586084257e-13
5.308000000000000000e+03 7.386913299560546875e+01 -1.146339416503906250e+01 1.801443583605670529e-14 -3.803047490097931360e-14 -6.004812227696550847e-15 -3.122502256758252770e-13
5.309000000000000000e+03 7.539334106445312500e+01 -1.436322402954101562e+01 7.606094980195862720e-14 -1.961571909677578551e-13 -3.602887167211341057e-14 -1.761411519028352468e-13
5.310000000000000000e+03 5.307912349700927734e+00 -2.567820358276367188e+01 4.203368474684290867e-14 -1.421138868477195283e-13 -3.002405859738391247e-14 -1.641315257533762506e-13
5.311000000000000000e+03 6.138018608093261719e+00 -2.471638488769531250e+01 2.622101212372551782e-13 -1.621299259126421366e-13 3.002405859738391247e-14 -5.204170427930421283e-14
5.312000000000000000e+03 8.915446281433105469e+00 -6.119129180908203125e+00 1.941555911270237411e-13 -4.543641125235448053e-13 -7.806255641895631925e-14 -1.271018609371593611e-13
5.313000000000000000e+03 5.213025093078613281e+00 -2.392103195190429688e+01 1.621299259126421366e-13 -2.201764398785440585e-14 4.203368474684290867e-14 -1.481186999224490264e-13
5.314000000000000000e+03 7.604460906982421875e+01 -2.236629486083984375e+01 8.006416303595401129e-14 -2.401924687790712998e-13 -4.803849782157240678e-14 -2.602085213965210642e-13
5.315000000000000000e+03 7.529540252685546875e+01 -2.306858444213867188e+01 -3.202566521438160452e-14 -1.281026608575264181e-13 -4.803849782157240678e-14 -1.441154866884536423e-13
5.316000000000000000e+03 5.348182678222656250e+00 -2.314312934875488281e+01 1.321058605389946461e-13 -3.322662782932750414e-13 -6.004811719476782494e-14 -1.521218996039172544e-13
5.317000000000000000e+03 7.603189086914062500e+01 -2.818840408325195312e+01 -6.405133042876320904e-14 -2.562053217150528361e-13 -9.607699564314481355e-14 -3.202566521438160452e-14
5.318000000000000000e+03 7.451157379150390625e+01 -2.373123741149902344e+01 -3.402726844324750755e-14 -1.060850151756061177e-13 -4.203368474684290867e-14 -8.807057595141762341e-14
5.319000000000000000e+03 5.644945144653320312e+00 -2.999194717407226562e+01 7.906335633932337625e-14 1.711371387484728057e-13 7.506014988159157020e-14 -6.805453688649501509e-14
5.320000000000000000e+03 7.607021331787109375e+01 -2.156590270996093750e+01 1.261010474642651480e-13 -2.662133209187234062e-13 -4.203368474684290867e-14 -1.561251128379126385e-13
5.321000000000000000e+03 4.470159053802490234e+00 -1.891806983947753906e+01 -2.121700303512122354e-13 9.207378240914942946e-14 -3.602887167211341057e-14 -2.321860694161348437e-13
5.322000000000000000e+03 3.568462371826171875e+00 -2.000080299377441406e+01 -5.504411081666896188e-14 -1.150922347877003649e-13 -5.104090097080536681e-14 -2.542037218743187221e-13
5.323000000000000000e+03 7.546496582031250000e+01 -1.510774421691894531e+01 1.000802021008766196e-13 -1.401122870069854143e-13 -1.200962445539310169e-14 -2.401924891078620339e-14
5.324000000000000000e+03 4.074055194854736328e+00 -1.459857749938964844e+01 -1.120898214740720378e-13 -4.803849782157240678e-14 -4.803849782157240678e-14 2.882309733769072846e-13
5.325000000000000000e+03 4.497541904449462891e+00 -1.719772911071777344e+01 -1.721379386688398627e-13 -2.802245536851800944e-14 -6.004811719476782494e-14 8.006416303595401129e-15
5.326000000000000000e+03 3.857695341110229492e+00 -1.837265396118164062e+01 -1.040834085586084257e-13 1.841475648182988589e-13 2.401924891078620339e-14 -3.282630515067525012e-13
5.327000000000000000e+03 3.835147619247436523e+00 -8.495108604431152344e+00 1.240994476235310340e-13 -8.406736949368581735e-14 1.200962445539310169e-14 6.405133042876320904e-14
5.328000000000000000e+03 3.995342016220092773e+00 -1.715644454956054688e+01 -2.762213472274482884e-13 1.561251128379126385e-13 -3.602887167211341057e-14 -2.161732300326804634e-13
5.329000000000000000e+03 4.011829853057861328e+00 -2.039590454101562500e+01 1.996600042415697107e-13 4.058252215180524480e-13 1.816455650173812164e-13 -2.081668171172168513e-13
5.330000000000000000e+03 7.513518524169921875e+01 -2.469342994689941406e+01 1.120898214740720378e-13 -1.120898214740720378e-13 0.000000000000000000e+00 -3.202566521438160452e-14
5.331000000000000000e+03 4.878924369812011719e+00 -2.277245903015136719e+01 1.331066604593617031e-13 5.704571743366665393e-14 5.704571743366665393e-14 -1.401122870069854143e-13
5.332000000000000000e+03 7.599100494384765625e+01 -1.345066261291503906e+01 5.804651735403371093e-14 1.621299259126421366e-13 6.605293026949732305e-14 -2.121700303512122354e-13
5.333000000000000000e+03 7.377722167968750000e+01 -1.277068138122558594e+01 1.381106736137241442e-13 -7.806255641895631925e-14 1.801443583605670529e-14 -1.441154866884536423e-13
5.334000000000000000e+03 7.546810913085937500e+01 -1.587310314178466797e+01 1.921539912862896271e-13 1.281026608575264181e-13 9.607699564314481355e-14 -1.120898214740720378e-13
5.335000000000000000e+03 5.260274410247802734e+00 -2.823634910583496094e+01 1.881507780522942430e-13 1.721379386688398627e-13 1.080866150163402317e-13 -4.403528797570881170e-14
5.336000000000000000e+03 5.326283931732177734e+00 -2.655208206176757812e+01 1.381106736137241442e-13 -7.806255641895631925e-14 1.801443583605670529e-14 -1.240994476235310340e-13
5.337000000000000000e+03 5.050803184509277344e+00 -1.280019760131835938e+01 -5.604491073703601889e-14 -3.442758773376797254e-13 -1.200962343895356499e-13 2.301844695754007297e-13
5.338000000000000000e+03 3.797775745391845703e+00 -9.163119316101074219e+00 1.561251128379126385e-13 2.041636038832214672e-13 1.080866150163402317e-13 8.006416303595401129e-14
5.339000000000000000e+03 4.685039997100830078e+00 -2.208184814453125000e+01 7.005614350349270714e-14 3.002405859738391247e-14 3.002405859738391247e-14 -2.642117210779892922e-13
5.340000000000000000e+03 7.584562683105468750e+01 -2.652093315124511719e+01 -9.207378240914942946e-14 -2.682149478645118323e-13 -1.080866150163402317e-13 0.000000000000000000e+00
5.341000000000000000e+03 7.474066925048828125e+01 -1.656831550598144531e+01 4.603689120457471473e-14 -2.602085213965210642e-14 6.004812227696550847e-15 -2.281828697346666157e-13
5.342000000000000000e+03 5.296499729156494141e+00 -1.109982776641845703e+01 1.251002475438980910e-13 -1.751403519824681898e-13 -1.501202929869195624e-14 2.401924891078620339e-14
5.343000000000000000e+03 3.706341505050659180e+00 -1.050817680358886719e+01 6.004811719476782494e-14 3.002405995263662808e-13 1.080866150163402317e-13 2.001604042017532392e-13
5.344000000000000000e+03 3.734183073043823242e+00 -9.857950210571289062e+00 1.541235129971785245e-13 6.605293026949732305e-14 6.605293026949732305e-14 9.607699564314481355e-14
5.345000000000000000e+03 7.533277130126953125e+01 -2.227763748168945312e+01 -4.003208151797700565e-15 -2.762213472274482884e-13 -8.406736949368581735e-14 5.204170427930421283e-14
5.346000000000000000e+03 7.609076690673828125e+01 -2.075941848754882812e+01 5.004010105043830980e-14 -3.903127820947815962e-13 -1.020818019416107336e-13 -1.281026608575264181e-13
5.347000000000000000e+03 7.501448059082031250e+01 -2.926329994201660156e+01 9.470089236450832115e-14 -4.591179121452883261e-14 1.463672932855430986e-14 2.001604075898850282e-14
5.348000000000000000e+03 7.542653656005859375e+01 -1.745814704895019531e+01 1.481186999224490264e-13 1.321058605389946461e-13 8.406736949368581735e-14 -2.922341730583755126e-13
5.349000000000000000e+03 5.185863018035888672e+00 -2.898286056518554688e+01 8.606896933441993136e-14 1.741395520621011328e-13 7.806255641895631925e-14 -1.120898214740720378e-13
5.350000000000000000e+03 4.533790111541748047e+00 -2.140693092346191406e+01 8.807057595141762341e-14 -8.006416303595401129e-15 2.401924891078620339e-14 -2.001604042017532392e-13
5.351000000000000000e+03 7.500615692138671875e+01 -2.559850883483886719e+01 -1.220978477827969200e-13 -2.582069215557869502e-13 -1.140914348673333079e-13 -1.200962445539310169e-14
5.352000000000000000e+03 7.503065490722656250e+01 -2.653957366943359375e+01 8.606896933441993136e-14 -1.461170865291877563e-13 -1.801443583605670529e-14 -2.401924891078620339e-14
5.353000000000000000e+03 7.540727233886718750e+01 -1.986737823486328125e+01 6.405133042876320904e-14 -2.241796429481440756e-13 -4.803849782157240678e-14 -2.121700303512122354e-13
5.354000000000000000e+03 7.541342926025390625e+01 -1.826033782958984375e+01 1.841475648182988589e-13 -2.642117210779892922e-13 -2.401924891078620339e-14 -1.761411519028352468e-13
5.355000000000000000e+03 7.540991973876953125e+01 -1.906326675415039062e+01 8.006416303595401129e-15 -2.481988952470620680e-13 -7.205774334422682115e-14 -1.401122870069854143e-13
5.356000000000000000e+03 7.434097290039062500e+01 -3.210551071166992188e+01 -9.407538902614712151e-14 -8.606896933441993136e-14 -5.404330750817011586e-14 6.405133042876320904e-14
5.357000000000000000e+03 5.309805393218994141e+00 -2.741335296630859375e+01 7.606094980195862720e-14 1.240994476235310340e-13 6.004811719476782494e-14 -1.040834085586084257e-13
5.358000000000000000e+03 7.246450042724609375e+01 -1.121275424957275391e+01 4.403528797570881170e-14 1.561251128379126385e-13 6.004811719476782494e-14 -3.042437992078345088e-13
5.359000000000000000e+03 7.313504028320312500e+01 -1.196748161315917969e+01 7.606094980195862720e-14 1.240994476235310340e-13 6.004811719476782494e-14 -1.641315257533762506e-13
5.360000000000000000e+03 6.184341049194335938e+01 -1.116079807281494141e+01 2.522020949285302960e-13 4.283432603838926989e-13 2.041636038832214672e-13 3.522823038056704936e-13
5.361000000000000000e+03 7.304513549804687500e+01 -1.324705600738525391e+01 2.481988952470620680e-13 -1.681347389873716347e-13 2.401924891078620339e-14 -2.241796429481440756e-13
5.362000000000000000e+03 7.491668701171875000e+00 -7.761556148529052734e+00 2.622101212372551782e-13 -2.421940957248597259e-13 6.004812227696550847e-15 -4.203368474684290867e-14
5.363000000000000000e+03 7.919993400573730469e+00 -6.321676731109619141e+00 1.666335391068210492e-13 -9.157338244896590096e-14 2.251804564210382886e-14 -2.051644071917203133e-14
5.364000000000000000e+03 4.418850421905517578e+00 -5.317766666412353516e+00 5.604491073703601889e-14 1.841475648182988589e-13 7.205774334422682115e-14 4.003208151797700565e-14
5.365000000000000000e+03 5.547158241271972656e+00 -6.285340309143066406e+00 3.002405995263662808e-13 -1.000802021008766196e-13 6.004811719476782494e-14 4.003208151797700565e-14
5.366000000000000000e+03 7.113842010498046875e+01 -1.159980487823486328e+01 1.721379386688398627e-13 2.802245536851800944e-14 6.004811719476782494e-14 -3.202566521438160452e-14
5.367000000000000000e+03 7.245098114013671875e+01 -1.183158111572265625e+01 2.081668171172168513e-13 -4.803849782157240678e-14 4.803849782157240678e-14 -1.761411519028352468e-13
5.368000000000000000e+03 8.371613502502441406e+00 -5.819798469543457031e+00 1.110890215537049808e-13 -5.414338682258046376e-13 -1.291034607778934751e-13 -1.661331391466375207e-13
5.369000000000000000e+03 8.254627227783203125e+00 -5.050235748291015625e+00 1.281026608575264181e-13 -6.084875984156690176e-13 -1.441154866884536423e-13 -7.205774334422682115e-14
5.370000000000000000e+03 4.936457633972167969e+00 -6.163362503051757812e+00 2.401924891078620339e-14 5.604491073703601889e-14 2.401924891078620339e-14 -8.006416303595401129e-15
5.371000000000000000e+03 5.493116855621337891e+00 -6.862230777740478516e+00 1.981587908084919691e-13 -9.807859548387892756e-14 3.002405859738391247e-14 8.006416303595401129e-15
5.372000000000000000e+03 6.490353107452392578e+00 -8.988844871520996094e+00 1.220978477827969200e-13 -1.421138868477195283e-13 -6.004812227696550847e-15 -1.000802037949425141e-15
5.373000000000000000e+03 5.961241912841796875e+01 -1.110290718078613281e+01 3.322662782932750414e-13 1.881507780522942430e-13 1.561251128379126385e-13 6.405133042876320904e-14
5.374000000000000000e+03 6.016144180297851562e+01 -1.102509212493896484e+01 2.161732300326804634e-13 1.841475648182988589e-13 1.200962343895356499e-13 9.607699564314481355e-14
5.375000000000000000e+03 2.081852149963378906e+01 -1.335524654388427734e+01 -9.207378240914942946e-14 -5.884716000083278775e-13 -2.041636038832214672e-13 1.601283260719080226e-14
5.376000000000000000e+03 7.582356929779052734e+00 -2.068753051757812500e+01 7.405934996122451319e-14 -6.545245031727708884e-13 -1.741395520621011328e-13 4.803849782157240678e-14
5.377000000000000000e+03 7.385019779205322266e+00 -2.314754295349121094e+01 1.361090737729900302e-13 -2.161732300326804634e-13 -2.401924891078620339e-14 -4.803849782157240678e-14
5.378000000000000000e+03 1.801216697692871094e+01 -1.545088195800781250e+01 3.602887167211341057e-14 -7.606094980195862720e-14 -1.200962445539310169e-14 7.205774334422682115e-14
5.379000000000000000e+03 1.690196037292480469e+01 -1.591025638580322266e+01 -8.206576287668812530e-14 -2.181748434259417335e-13 -9.007218256841531545e-14 -1.200962343895356499e-13
5.380000000000000000e+03 4.738366127014160156e+00 -1.079820919036865234e+01 9.407538902614712151e-14 8.606896933441993136e-14 5.404330750817011586e-14 1.120898214740720378e-13
5.381000000000000000e+03 5.682190418243408203e+00 -1.038943576812744141e+01 -2.401924891078620339e-14 -5.604491073703601889e-14 -2.401924891078620339e-14 8.006416303595401129e-14
5.382000000000000000e+03 6.792806625366210938e+00 -2.077251815795898438e+01 -1.000802037949425141e-14 -3.702967294773318319e-13 -1.140914348673333079e-13 -1.361090737729900302e-13
5.383000000000000000e+03 1.829248619079589844e+01 -1.467060565948486328e+01 5.604491073703601889e-14 2.401924891078620339e-14 2.401924891078620339e-14 -8.006416303595401129e-14
5.384000000000000000e+03 1.762116813659667969e+01 -1.633626365661621094e+01 1.000802037949425141e-14 -2.702165477052459464e-13 -7.806255641895631925e-14 -1.160930347080674219e-13
5.385000000000000000e+03 1.595869445800781250e+01 -1.902685165405273438e+01 -2.001604075898850282e-15 1.821459649775647449e-13 5.404330750817011586e-14 7.205774334422682115e-14
5.386000000000000000e+03 1.222876358032226562e+01 -2.125729942321777344e+01 -2.211772431870429045e-13 -4.903929774193946378e-14 -8.106496295632106830e-14 -2.802245536851800944e-14
5.387000000000000000e+03 1.114965629577636719e+01 -2.100220298767089844e+01 -9.807859548387892756e-14 -2.021620040424873532e-13 -9.007218256841531545e-14 1.200962343895356499e-13
5.388000000000000000e+03 5.466931343078613281e+00 -1.212021636962890625e+01 2.401924891078620339e-14 -4.243400607024244708e-13 -1.200962343895356499e-13 9.307458910578006450e-14
5.389000000000000000e+03 1.710890197753906250e+01 -1.728487205505371094e+01 -1.220978477827969200e-13 -9.807859548387892756e-14 -6.605293026949732305e-14 -1.391114735340912012e-13
5.390000000000000000e+03 7.679844665527343750e+01 -1.121210384368896484e+01 6.405133042876320904e-14 -6.405133042876320904e-14 0.000000000000000000e+00 -7.205774334422682115e-14
5.391000000000000000e+03 6.038231372833251953e+00 -2.000854301452636719e+01 -2.001604075898850282e-14 -4.203368339159019307e-13 -1.321058605389946461e-13 -2.001604075898850282e-14
5.392000000000000000e+03 1.538298511505126953e+01 -2.032621383666992188e+01 -1.120898214740720378e-13 -4.803849782157240678e-14 -4.803849782157240678e-14 5.404330750817011586e-14
5.393000000000000000e+03 1.005918025970458984e+01 -4.590917110443115234e+00 5.604491073703601889e-14 -4.563657394693332314e-13 -1.200962343895356499e-13 -8.807057595141762341e-14
5.394000000000000000e+03 4.886546611785888672e+00 -1.957311248779296875e+01 -1.801443651368306309e-13 -2.602085213965210642e-13 -1.321058605389946461e-13 -1.761411519028352468e-13
5.395000000000000000e+03 6.673618316650390625e+00 -3.438959121704101562e+01 1.326062689695076471e-14 -7.581074982186686295e-14 -1.876503747039789255e-14 2.752205540833448094e-14
5.396000000000000000e+03 5.605356693267822266e+00 -3.578749847412109375e+01 -2.552045048540268340e-14 8.056456299613753980e-14 1.651323256737433076e-14 -2.301844560228735737e-14
5.397000000000000000e+03 7.482128906250000000e+01 -3.474626541137695312e+01 -1.090874217129708668e-13 -1.000802037949425141e-15 -3.302646513474866152e-14 -3.202566521438160452e-14
5.398000000000000000e+03 1.166467571258544922e+01 -3.743702316284179688e+01 4.003208151797700565e-14 4.003208151797700565e-14 2.401924891078620339e-14 -2.001604075898850282e-15
5.399000000000000000e+03 8.269381523132324219e+00 -3.831216049194335938e+01 3.202566521438160452e-14 4.803849782157240678e-14 2.401924891078620339e-14 -4.703769451307356075e-14
5.400000000000000000e+03 6.410031127929687500e+01 -1.166065692901611328e+01 8.006416303595401129e-14 -2.401924687790712998e-13 -4.803849782157240678e-14 -6.405133042876320904e-14
5.401000000000000000e+03 6.244861602783203125e+01 -1.113849449157714844e+01 -1.200962445539310169e-14 1.321058605389946461e-13 3.602887167211341057e-14 -4.803849782157240678e-14
5.402000000000000000e+03 5.489355850219726562e+01 -1.168094253540039062e+01 3.682951296365977178e-13 1.120898214740720378e-13 1.441154866884536423e-13 2.802245536851800944e-14
5.403000000000000000e+03 5.214342880249023438e+01 -1.109095573425292969e+01 1.281026608575264181e-13 1.921539912862896271e-13 9.607699564314481355e-14 1.281026608575264181e-13
5.404000000000000000e+03 5.435248184204101562e+01 -1.179267787933349609e+01 2.001604075898850282e-14 -6.004811719476782494e-14 -1.200962445539310169e-14 -2.882309733769072846e-13
5.405000000000000000e+03 5.069855880737304688e+01 -1.105317878723144531e+01 5.604491073703601889e-14 2.401924891078620339e-14 2.401924891078620339e-14 -1.601283260719080226e-14
5.406000000000000000e+03 5.216329193115234375e+01 -1.156697082519531250e+01 8.006416303595401129e-15 2.321860694161348437e-13 7.205774334422682115e-14 1.200962343895356499e-13
5.407000000000000000e+03 6.518475341796875000e+01 -1.105795001983642578e+01 -8.006416303595401129e-15 -2.321860694161348437e-13 -7.205774334422682115e-14 1.361090737729900302e-13
5.408000000000000000e+03 6.934862518310546875e+01 -1.190404605865478516e+01 2.401924687790712998e-13 2.401924687790712998e-13 1.441154866884536423e-13 -1.200962343895356499e-13
5.409000000000000000e+03 6.993723297119140625e+01 -1.140606117248535156e+01 1.040834085586084257e-13 1.361090737729900302e-13 7.205774334422682115e-14 -3.202566521438160452e-14
5.410000000000000000e+03 6.464367675781250000e+01 -1.163872528076171875e+01 2.121700303512122354e-13 -9.207378240914942946e-14 3.602887167211341057e-14 4.003208151797700565e-14
5.411000000000000000e+03 4.415133285522460938e+01 -1.303344249725341797e+01 1.652574290519209788e-13 -6.642823362776675844e-14 2.964875862724626610e-14 -5.304250758780305885e-14
5.412000000000000000e+03 4.764265441894531250e+01 -1.018852519989013672e+01 2.602085213965210642e-14 1.941555911270237411e-13 6.605293026949732305e-14 -9.607699564314481355e-14
5.413000000000000000e+03 4.471795272827148438e+01 -1.178387928009033203e+01 2.764089955184512171e-13 2.695910375906211687e-14 9.101043079969353689e-14 5.354290754798658736e-14
5.414000000000000000e+03 4.394935607910156250e+01 -1.105582141876220703e+01 4.360994800955281248e-13 2.169238367492193342e-13 1.959069977639296689e-13 8.481796943396111010e-14
5.415000000000000000e+03 4.878512573242187500e+01 -1.106679248809814453e+01 4.803849782157240678e-14 -2.081668171172168513e-13 -4.803849782157240678e-14 -2.321860694161348437e-13
5.416000000000000000e+03 5.021436309814453125e+01 -1.106316280364990234e+01 4.003208151797700565e-14 -1.200962343895356499e-13 -2.401924891078620339e-14 -8.006416303595401129e-15
5.417000000000000000e+03 4.321362686157226562e+01 -1.144611072540283203e+01 4.403528865333516951e-13 1.200962343895356499e-13 1.681347389873716347e-13 -6.805453688649501509e-14
5.418000000000000000e+03 4.013676452636718750e+01 -1.118063354492187500e+01 3.202566521438160452e-14 -3.202566521438160452e-14 0.000000000000000000e+00 1.281026608575264181e-13
5.419000000000000000e+03 4.068117523193359375e+01 -1.165371799468994141e+01 1.601283260719080226e-14 -1.761411519028352468e-13 -4.803849782157240678e-14 0.000000000000000000e+00
5.420000000000000000e+03 4.206378555297851562e+01 -1.142296123504638672e+01 2.962373998448980528e-13 2.642117210779892922e-13 1.681347389873716347e-13 -2.321860694161348437e-13
5.421000000000000000e+03 4.117078018188476562e+01 -1.160711383819580078e+01 2.522020949285302960e-13 -2.121700303512122354e-13 1.200962445539310169e-14 5.604491073703601889e-14
5.422000000000000000e+03 4.072232437133789062e+01 -1.216040802001953125e+01 2.121700303512122354e-13 -9.207378240914942946e-14 3.602887167211341057e-14 -5.604491073703601889e-14
5.423000000000000000e+03 3.964162063598632812e+01 -1.120227241516113281e+01 3.602887167211341057e-14 2.441956955655938399e-13 8.406736949368581735e-14 -3.202566521438160452e-14
5.424000000000000000e+03 3.621252441406250000e+01 -1.179875564575195312e+01 1.160930347080674219e-13 3.242598518252842732e-13 1.321058605389946461e-13 -8.807057595141762341e-14
5.425000000000000000e+03 3.914447021484375000e+01 -1.122046470642089844e+01 1.080866150163402317e-13 -2.281828697346666157e-13 -3.602887167211341057e-14 5.604491073703601889e-14
5.426000000000000000e+03 5.171654891967773438e+01 -1.155850696563720703e+01 1.080866150163402317e-13 9.207378240914942946e-14 6.004811719476782494e-14 -1.601283260719080226e-14
5.427000000000000000e+03 3.516829299926757812e+01 -1.132419681549072266e+01 4.403528797570881170e-14 1.561251128379126385e-13 6.004811719476782494e-14 -4.803849782157240678e-14
5.428000000000000000e+03 3.571501541137695312e+01 -1.181055736541748047e+01 1.601283260719080226e-14 -1.761411519028352468e-13 -4.803849782157240678e-14 5.604491073703601889e-14
5.429000000000000000e+03 4.243532562255859375e+01 -1.092228507995605469e+01 1.240994476235310340e-13 2.361892690976030718e-13 1.080866150163402317e-13 6.405133042876320904e-14
5.430000000000000000e+03 4.163282775878906250e+01 -1.151955699920654297e+01 1.601283260719080226e-13 -1.601283260719080226e-13 0.000000000000000000e+00 1.361090737729900302e-13
5.431000000000000000e+03 3.968292617797851562e+01 -1.169403266906738281e+01 -3.602887167211341057e-14 -5.644523477094098851e-13 -1.801443651368306309e-13 3.202566521438160452e-14
5.432000000000000000e+03 4.827764892578125000e+01 -1.151879692077636719e+01 1.000802021008766196e-13 -1.401122870069854143e-13 -1.200962445539310169e-14 -2.562053217150528361e-13
5.433000000000000000e+03 4.978820419311523438e+01 -1.155052375793457031e+01 2.401924891078620339e-14 -2.642117210779892922e-13 -7.205774334422682115e-14 7.205774334422682115e-14
5.434000000000000000e+03 5.027936553955078125e+01 -1.153637409210205078e+01 1.000802021008766196e-13 -1.401122870069854143e-13 -1.200962445539310169e-14 -1.921539912862896271e-13
5.435000000000000000e+03 3.918544387817382812e+01 -1.171145248413085938e+01 -9.607699564314481355e-14 -2.241796429481440756e-13 -9.607699564314481355e-14 8.006416303595401129e-15
5.436000000000000000e+03 4.928809356689453125e+01 -1.155916786193847656e+01 -6.004811719476782494e-14 -3.002405995263662808e-13 -1.080866150163402317e-13 -3.202566521438160452e-13
5.437000000000000000e+03 3.720779800415039062e+01 -1.178553771972656250e+01 2.081668171172168513e-13 -4.803849782157240678e-14 4.803849782157240678e-14 -3.122502256758252770e-13
5.438000000000000000e+03 3.671171188354492188e+01 -1.179154300689697266e+01 2.001604075898850282e-14 1.000802021008766196e-13 3.602887167211341057e-14 -1.441154866884536423e-13
5.439000000000000000e+03 5.259848785400390625e+01 -1.170406055450439453e+01 9.407538902614712151e-14 -2.341876692568689577e-13 -4.203368474684290867e-14 1.441154866884536423e-13
5.440000000000000000e+03 5.076644515991210938e+01 -1.152980995178222656e+01 -5.604491073703601889e-14 -2.401924891078620339e-14 -2.401924891078620339e-14 -1.601283260719080226e-14
5.441000000000000000e+03 3.466812515258789062e+01 -1.133684158325195312e+01 -1.120898214740720378e-13 -3.682951296365977178e-13 -1.441154866884536423e-13 -1.841475648182988589e-13
5.442000000000000000e+03 3.521852493286132812e+01 -1.182442855834960938e+01 -4.003208151797700565e-14 1.200962343895356499e-13 2.401924891078620339e-14 -6.405133042876320904e-14
5.443000000000000000e+03 3.372609710693359375e+01 -1.186258411407470703e+01 -5.604491073703601889e-14 -2.401924891078620339e-14 -2.401924891078620339e-14 -2.001604042017532392e-13
5.444000000000000000e+03 3.422325515747070312e+01 -1.184904098510742188e+01 -7.606094980195862720e-14 -1.240994476235310340e-13 -6.004811719476782494e-14 1.601283260719080226e-14
5.445000000000000000e+03 3.163891601562500000e+01 -1.141567230224609375e+01 -1.881507780522942430e-13 -1.721379386688398627e-13 -1.080866150163402317e-13 -8.006416303595401129e-15
5.446000000000000000e+03 3.272449111938476562e+01 -1.189387035369873047e+01 1.200962445539310169e-14 5.084074437486374443e-13 1.561251128379126385e-13 -4.803849782157240678e-14
5.447000000000000000e+03 2.964191246032714844e+01 -1.195902347564697266e+01 1.761411519028352468e-13 -1.601283260719080226e-14 4.803849782157240678e-14 -8.006416303595401129e-14
5.448000000000000000e+03 3.067752075195312500e+01 -1.194325160980224609e+01 -2.001604075898850282e-14 2.201764432666758475e-13 6.004811719476782494e-14 8.006416303595401129e-14
5.449000000000000000e+03 4.573353195190429688e+01 -1.036006259918212891e+01 1.481186999224490264e-13 2.922341730583755126e-13 1.321058605389946461e-13 6.805453688649501509e-14
5.450000000000000000e+03 2.755438041687011719e+01 -1.194898700714111328e+01 -1.601283260719080226e-14 1.761411519028352468e-13 4.803849782157240678e-14 3.202566521438160452e-14
5.451000000000000000e+03 5.367916488647460938e+01 -1.125408554077148438e+01 7.606094980195862720e-14 1.240994476235310340e-13 6.004811719476782494e-14 -2.161732300326804634e-13
5.452000000000000000e+03 5.673218154907226562e+01 -1.197020149230957031e+01 4.283432603838926989e-13 -6.805453688649501509e-14 1.080866150163402317e-13 -5.604491073703601889e-14
5.453000000000000000e+03 5.658377838134765625e+01 -1.138702583312988281e+01 9.607699564314481355e-14 -9.607699564314481355e-14 0.000000000000000000e+00 -8.807057595141762341e-14
5.454000000000000000e+03 3.215114974975585938e+01 -1.140517139434814453e+01 -7.205774334422682115e-14 1.521218996039172544e-13 2.401924891078620339e-14 2.001604042017532392e-13
5.455000000000000000e+03 3.322746276855468750e+01 -1.187811183929443359e+01 1.801443651368306309e-13 -6.004811719476782494e-14 3.602887167211341057e-14 5.604491073703601889e-14
5.456000000000000000e+03 2.905744743347167969e+01 -1.144720268249511719e+01 4.003208151797700565e-15 -4.403528797570881170e-14 -1.200962445539310169e-14 1.361090737729900302e-13
5.457000000000000000e+03 3.022932815551757812e+01 -1.247617244720458984e+01 -6.004811719476782494e-14 2.001604075898850282e-14 -1.200962445539310169e-14 8.807057595141762341e-14
5.458000000000000000e+03 3.119173240661621094e+01 -1.193329429626464844e+01 -3.602887167211341057e-14 7.606094980195862720e-14 1.200962445539310169e-14 -4.803849782157240678e-14
5.459000000000000000e+03 2.589347648620605469e+01 -1.143381786346435547e+01 -1.321058605389946461e-13 -4.683753385137379155e-13 -1.801443651368306309e-13 -2.081668171172168513e-13
5.460000000000000000e+03 2.323780822753906250e+01 -1.227049636840820312e+01 -4.403528797570881170e-14 4.003208151797700565e-15 -1.200962445539310169e-14 5.204170427930421283e-14
5.461000000000000000e+03 6.675627899169921875e+01 -1.102223682403564453e+01 3.562855034871387216e-13 2.441956955655938399e-13 1.801443651368306309e-13 -4.803849782157240678e-14
5.462000000000000000e+03 6.775926971435546875e+01 -1.158729553222656250e+01 1.961571909677578551e-13 4.043240080849747065e-13 1.801443651368306309e-13 -1.601283260719080226e-14
5.463000000000000000e+03 2.650071144104003906e+01 -1.195124912261962891e+01 -8.006416303595401129e-14 -8.006416303595401129e-14 -4.803849782157240678e-14 3.202566521438160452e-14
5.464000000000000000e+03 3.016115760803222656e+01 -1.195235633850097656e+01 -9.207378240914942946e-14 -2.682149478645118323e-13 -1.080866150163402317e-13 -4.803849782157240678e-14
5.465000000000000000e+03 2.130056190490722656e+01 -1.214111900329589844e+01 -6.004811719476782494e-14 -1.401122870069854143e-13 -6.004811719476782494e-14 7.806255641895631925e-14
5.466000000000000000e+03 2.244521713256835938e+01 -1.182915592193603516e+01 -3.402726844324750755e-14 2.141716301919463494e-13 5.404330750817011586e-14 4.003208151797700565e-14
5.467000000000000000e+03 4.844672775268554688e+01 -1.052670001983642578e+01 -8.006416303595401129e-15 4.083272077664429345e-13 1.200962343895356499e-13 -8.006416303595401129e-14
5.468000000000000000e+03 2.807775115966796875e+01 -1.195197772979736328e+01 -4.003208151797700565e-15 4.403528797570881170e-14 1.200962445539310169e-14 -7.205774334422682115e-14
5.469000000000000000e+03 2.347620964050292969e+01 -1.280831909179687500e+01 -5.604491073703601889e-14 -3.442758773376797254e-13 -1.200962343895356499e-13 2.361892690976030718e-13
5.470000000000000000e+03 2.702850341796875000e+01 -1.194886684417724609e+01 -4.403528797570881170e-14 -1.561251128379126385e-13 -6.004811719476782494e-14 8.006416303595401129e-14
5.471000000000000000e+03 2.489741706848144531e+01 -1.198605537414550781e+01 -2.802245536851800944e-14 -3.322662782932750414e-13 -1.080866150163402317e-13 -1.281026608575264181e-13
5.472000000000000000e+03 2.543751907348632812e+01 -1.196741294860839844e+01 -1.401122870069854143e-13 -6.004811719476782494e-14 -6.004811719476782494e-14 1.040834085586084257e-13
5.473000000000000000e+03 6.991271209716796875e+01 -1.200747871398925781e+01 4.803849782157240678e-14 1.120898214740720378e-13 4.803849782157240678e-14 -9.607699564314481355e-14
5.474000000000000000e+03 2.379865264892578125e+01 -1.211290264129638672e+01 9.207378240914942946e-14 -2.121700303512122354e-13 -3.602887167211341057e-14 -4.003208151797700565e-14
5.475000000000000000e+03 7.532704925537109375e+01 -1.174482917785644531e+01 7.205774334422682115e-14 -1.521218996039172544e-13 -2.401924891078620339e-14 -2.121700303512122354e-13
5.476000000000000000e+03 5.779540252685546875e+01 -1.129261970520019531e+01 2.642117210779892922e-13 -2.401924891078620339e-14 7.205774334422682115e-14 -1.921539912862896271e-13
5.477000000000000000e+03 6.827246856689453125e+01 -1.167726993560791016e+01 2.962373998448980528e-13 -5.604491073703601889e-14 7.205774334422682115e-14 -2.001604042017532392e-13
5.478000000000000000e+03 9.341677665710449219e+00 -5.600985050201416016e+00 2.281828697346666157e-13 -5.884716000083278775e-13 -1.080866150163402317e-13 -1.050842084789754827e-13
5.479000000000000000e+03 9.222679138183593750e+00 -4.862713336944580078e+00 1.521218996039172544e-13 -5.524426944548965768e-13 -1.200962343895356499e-13 -7.856295637913984775e-14
5.480000000000000000e+03 5.790901565551757812e+01 -1.184736061096191406e+01 2.321860694161348437e-13 -3.122502256758252770e-13 -2.401924891078620339e-14 -1.080866150163402317e-13
5.481000000000000000e+03 5.561541366577148438e+01 -1.212919425964355469e+01 1.281026608575264181e-13 1.921539912862896271e-13 9.607699564314481355e-14 2.401924891078620339e-14
5.482000000000000000e+03 5.508703231811523438e+01 -1.223365497589111328e+01 4.803849782157240678e-14 -4.803849782157240678e-14 0.000000000000000000e+00 -4.803849782157240678e-14
5.483000000000000000e+03 6.518493652343750000e+01 -1.158260440826416016e+01 4.803849782157240678e-14 1.120898214740720378e-13 4.803849782157240678e-14 6.405133042876320904e-14
5.484000000000000000e+03 6.571656799316406250e+01 -1.152937984466552734e+01 7.606094980195862720e-14 -1.961571909677578551e-13 -3.602887167211341057e-14 2.401924891078620339e-14
5.485000000000000000e+03 5.850584793090820312e+01 -1.177149295806884766e+01 1.681347389873716347e-13 -2.481988952470620680e-13 -2.401924891078620339e-14 3.202566521438160452e-14
5.486000000000000000e+03 4.548978042602539062e+01 -1.110881423950195312e+01 1.521218996039172544e-13 2.481988952470620680e-13 1.200962343895356499e-13 4.003208151797700565e-14
5.487000000000000000e+03 7.112236022949218750e+01 -1.221376800537109375e+01 1.361090737729900302e-13 1.040834085586084257e-13 7.205774334422682115e-14 8.006416303595401129e-15
5.488000000000000000e+03 7.178464508056640625e+01 -1.171111392974853516e+01 -4.003208151797700565e-14 -2.001604042017532392e-13 -7.205774334422682115e-14 -1.521218996039172544e-13
5.489000000000000000e+03 6.064275360107421875e+01 -1.107940292358398438e+01 2.862293735361731706e-13 -1.060850151756061177e-13 5.404330750817011586e-14 1.361090737729900302e-13
5.490000000000000000e+03 6.239574813842773438e+01 -1.164440631866455078e+01 4.803849782157240678e-14 4.323464600653609269e-13 1.441154866884536423e-13 1.601283260719080226e-13
5.491000000000000000e+03 5.964942932128906250e+00 -2.921661949157714844e+01 8.807057595141762341e-14 1.521218996039172544e-13 7.205774334422682115e-14 4.003208151797700565e-15
5.492000000000000000e+03 7.383603668212890625e+01 -1.212256050109863281e+01 1.361090737729900302e-13 1.040834085586084257e-13 7.205774334422682115e-14 -1.240994476235310340e-13
5.493000000000000000e+03 7.446810913085937500e+01 -2.995000076293945312e+01 -9.157338244896590096e-14 -3.137514391089030186e-13 -1.215974478226133915e-13 3.202566521438160452e-14
5.494000000000000000e+03 6.262526512145996094e+00 -2.562549781799316406e+01 2.001604042017532392e-13 -2.802245740139708285e-13 -2.401924891078620339e-14 -1.441154866884536423e-13
5.495000000000000000e+03 5.999078750610351562e+00 -2.389541435241699219e+01 3.042437992078345088e-13 -1.441154866884536423e-13 4.803849782157240678e-14 -1.281026608575264181e-13
5.496000000000000000e+03 5.970628356933593750e+01 -1.157122135162353516e+01 2.041636038832214672e-13 -4.003208151797700565e-15 6.004811719476782494e-14 1.120898214740720378e-13
5.497000000000000000e+03 7.379515075683593750e+01 -2.354748916625976562e+01 -9.207378240914942946e-14 -2.682149478645118323e-13 -1.080866150163402317e-13 -1.361090737729900302e-13
5.498000000000000000e+03 7.461859893798828125e+01 -2.219270133972167969e+01 2.001604075898850282e-15 -1.821459649775647449e-13 -5.404330750817011586e-14 -2.041636038832214672e-13
5.499000000000000000e+03 9.079206466674804688e+00 -2.264953804016113281e+01 7.806255641895631925e-14 -3.783031559453226000e-13 -9.007218256841531545e-14 8.807057595141762341e-14
5.500000000000000000e+03 5.560912609100341797e+00 -3.317321014404296875e+01 7.656135653840573374e-14 2.386912824510478703e-13 9.457578898633065001e-14 1.000802037949425141e-14
5.501000000000000000e+03 7.482418823242187500e+01 -1.505216884613037109e+01 6.204972381176551699e-14 -2.021620040424873532e-13 -4.203368474684290867e-14 -2.201764432666758475e-13
5.502000000000000000e+03 7.459144592285156250e+01 -2.297043037414550781e+01 2.602085213965210642e-14 -1.261010474642651480e-13 -3.002405859738391247e-14 0.000000000000000000e+00
5.503000000000000000e+03 7.441243648529052734e+00 -6.836831092834472656e+00 1.758909586990070606e-13 -1.233488409069921632e-13 1.576263093303314350e-14 -1.073360150760649390e-13
5.504000000000000000e+03 4.848548412322998047e+00 -6.840973377227783203e+00 1.120898214740720378e-13 4.803849782157240678e-14 4.803849782157240678e-14 1.441154866884536423e-13
5.505000000000000000e+03 7.478821563720703125e+01 -1.578718280792236328e+01 2.021620040424873532e-13 -1.421138868477195283e-13 1.801443583605670529e-14 -1.521218996039172544e-13
5.506000000000000000e+03 7.499502563476562500e+01 -2.810612869262695312e+01 2.902325867701685547e-14 -3.993200084831394214e-13 -1.110890215537049808e-13 2.802245536851800944e-14
5.507000000000000000e+03 7.447412109375000000e+01 -2.870897865295410156e+01 0.000000000000000000e+00 0.000000000000000000e+00 0.000000000000000000e+00 -2.201764398785440585e-14
5.508000000000000000e+03 7.438159179687500000e+01 -2.451313591003417969e+01 -1.240994476235310340e-13 -2.361892690976030718e-13 -1.080866150163402317e-13 -7.606094980195862720e-14
5.509000000000000000e+03 4.563979625701904297e+00 -9.163226127624511719e+00 9.207378240914942946e-14 -2.121700303512122354e-13 -3.602887167211341057e-14 6.004811719476782494e-14
5.510000000000000000e+03 5.784058570861816406e+00 -8.572323799133300781e+00 3.102486190588275849e-14 -1.411130869273524713e-13 -3.302646513474866152e-14 2.101684237342145434e-14
5.511000000000000000e+03 7.402491760253906250e+01 -1.645288085937500000e+01 2.081668171172168513e-13 -4.803849782157240678e-14 4.803849782157240678e-14 -1.441154866884536423e-13
5.512000000000000000e+03 4.405813694000244141e+00 -9.911824226379394531e+00 1.461170865291877563e-13 1.541235129971785245e-13 9.007218256841531545e-14 2.081668171172168513e-13
5.513000000000000000e+03 5.055788040161132812e+00 -1.009973716735839844e+01 4.003208151797700565e-14 -2.802245740139708285e-13 -7.205774334422682115e-14 9.607699564314481355e-14
5.514000000000000000e+03 7.539329528808593750e+01 -2.067586708068847656e+01 -9.207378240914942946e-14 -4.283432603838926989e-13 -1.561251128379126385e-13 -1.281026608575264181e-13
5.515000000000000000e+03 5.367356777191162109e+00 -2.182208251953125000e+01 3.002405995263662808e-13 -1.000802021008766196e-13 6.004811719476782494e-14 -1.441154866884536423e-13
5.516000000000000000e+03 7.456923675537109375e+01 -2.758787155151367188e+01 -5.304250758780305885e-14 2.301844560228735737e-14 -9.007217918028352643e-15 0.000000000000000000e+00
5.517000000000000000e+03 7.518321228027343750e+01 -2.740864944458007812e+01 -3.602887167211341057e-14 -8.406736949368581735e-14 -3.602887167211341057e-14 -2.001604075898850282e-14
5.518000000000000000e+03 5.237936496734619141e+00 -2.107776260375976562e+01 5.604491073703601889e-14 -2.962373998448980528e-13 -7.205774334422682115e-14 -2.962373998448980528e-13
5.519000000000000000e+03 1.892906379699707031e+01 -1.255037021636962891e+01 5.704571743366665393e-14 -1.871499781319271860e-13 -3.903127820947815962e-14 -1.656327256339268361e-13
5.520000000000000000e+03 1.893626785278320312e+01 -1.358624649047851562e+01 -8.807057595141762341e-14 -3.122502256758252770e-13 -1.200962343895356499e-13 -1.481186999224490264e-13
5.521000000000000000e+03 7.466514587402343750e+01 -2.140019416809082031e+01 -7.205774334422682115e-14 -1.681347389873716347e-13 -7.205774334422682115e-14 -1.601283260719080226e-14
5.522000000000000000e+03 7.470122528076171875e+01 -1.737324523925781250e+01 2.261812563414053456e-13 -8.606896933441993136e-14 4.203368474684290867e-14 -1.881507780522942430e-13
5.523000000000000000e+03 7.468872070312500000e+01 -1.818459701538085938e+01 3.402726844324750755e-14 -5.404330750817011586e-14 -6.004812227696550847e-15 -1.761411519028352468e-13
5.524000000000000000e+03 7.423666381835937500e+01 -2.683493423461914062e+01 -1.301042606982605321e-14 -9.707779556351187056e-14 -3.302646513474866152e-14 -6.004811719476782494e-14
5.525000000000000000e+03 6.922861099243164062e+00 -7.376927375793457031e+00 1.673215873580075064e-13 -3.568484754652018198e-13 -5.685806236640014721e-14 4.694387036757209641e-14
5.526000000000000000e+03 6.141364574432373047e+00 -2.836753082275390625e+01 4.403528797570881170e-14 1.561251128379126385e-13 6.004811719476782494e-14 -3.602887167211341057e-14
5.527000000000000000e+03 7.470181274414062500e+01 -1.899355697631835938e+01 2.001604075898850282e-15 -1.821459649775647449e-13 -5.404330750817011586e-14 -2.041636038832214672e-13
5.528000000000000000e+03 7.529341888427734375e+01 -1.248527812957763672e+01 -2.602085213965210642e-14 -1.941555911270237411e-13 -6.605293026949732305e-14 -4.403528797570881170e-14
5.529000000000000000e+03 7.239257812500000000e+01 -1.309782886505126953e+01 -2.802245536851800944e-14 -1.200962445539310169e-14 -1.200962445539310169e-14 -2.882309733769072846e-13
5.530000000000000000e+03 6.423265457153320312e+00 -6.957509994506835938e+00 1.741395520621011328e-13 -2.341876692568689577e-13 -1.801443583605670529e-14 -4.703769451307356075e-14
5.531000000000000000e+03 7.521807861328125000e+01 -1.323639965057373047e+01 2.902325867701685547e-14 -7.906335633932337625e-14 -1.501202929869195624e-14 -7.205774334422682115e-14
5.532000000000000000e+03 7.176620483398437500e+01 -1.232987022399902344e+01 2.642117210779892922e-13 2.962373998448980528e-13 1.681347389873716347e-13 -1.040834085586084257e-13
5.533000000000000000e+03 7.242519378662109375e+01 -1.245829963684082031e+01 1.541235129971785245e-13 -2.542037218743187221e-13 -3.002405859738391247e-14 -8.006416303595401129e-14
5.534000000000000000e+03 1.879202461242675781e+01 -1.566173934936523438e+01 -1.801443583605670529e-14 -1.220978477827969200e-13 -4.203368474684290867e-14 -6.805453688649501509e-14
5.535000000000000000e+03 7.309539794921875000e+01 -1.260380649566650391e+01 1.301042606982605321e-13 1.000802037949425141e-14 4.203368474684290867e-14 -3.122502256758252770e-13
5.536000000000000000e+03 6.046800231933593750e+01 -1.185687255859375000e+01 1.661331391466375207e-13 -6.605293026949732305e-14 3.002405859738391247e-14 -4.803849782157240678e-14
5.537000000000000000e+03 6.029040145874023438e+01 -1.141781330108642578e+01 1.281026608575264181e-13 3.202566521438160452e-14 4.803849782157240678e-14 1.721379386688398627e-13
5.538000000000000000e+03 1.854542732238769531e+01 -1.402475547790527344e+01 -8.206576287668812530e-14 1.020818019416107336e-13 6.004812227696550847e-15 2.401924891078620339e-14
5.539000000000000000e+03 1.644386100769042969e+01 -1.998847198486328125e+01 -1.681347389873716347e-13 -2.321860694161348437e-13 -1.200962343895356499e-13 -2.401924891078620339e-14
5.540000000000000000e+03 1.950321388244628906e+01 -1.445628166198730469e+01 9.357498906596359300e-14 -1.886511780124777715e-13 -2.852285871683332696e-14 -2.001604075898850282e-15
5.541000000000000000e+03 1.845734596252441406e+01 -1.665986633300781250e+01 -5.004010105043830980e-14 -9.007218256841531545e-14 -4.203368474684290867e-14 -4.003208151797700565e-14
5.542000000000000000e+03 1.760954284667968750e+01 -1.982224082946777344e+01 -7.606094980195862720e-14 -1.240994476235310340e-13 -6.004811719476782494e-14 3.202566521438160452e-14
5.543000000000000000e+03 1.775053977966308594e+01 -1.872747993469238281e+01 -8.807057595141762341e-14 -7.205774334422682115e-14 -4.803849782157240678e-14 -1.000802037949425141e-14
5.544000000000000000e+03 8.263874053955078125e+00 -2.247594833374023438e+01 1.881507780522942430e-13 -3.082470259943570490e-13 -3.602887167211341057e-14 4.803849782157240678e-14
5.545000000000000000e+03 1.010167503356933594e+01 -2.185148429870605469e+01 -5.004010105043830980e-14 -4.103288347122313606e-13 -1.381106736137241442e-13 1.361090737729900302e-13
5.546000000000000000e+03 1.810367202758789062e+01 -1.766947937011718750e+01 -2.602085213965210642e-14 -1.140914348673333079e-13 -4.203368474684290867e-14 -4.603689120457471473e-14
5.547000000000000000e+03 1.335125255584716797e+01 -2.143988609313964844e+01 -9.407538902614712151e-14 -4.063256079257088205e-13 -1.501202997631831404e-13 1.601283260719080226e-13
5.548000000000000000e+03 1.451337337493896484e+01 -2.148475837707519531e+01 -7.806255641895631925e-14 -1.020818019416107336e-13 -5.404330750817011586e-14 4.403528797570881170e-14
5.549000000000000000e+03 1.567513561248779297e+01 -2.135553932189941406e+01 -1.421138868477195283e-13 -1.981587908084919691e-13 -1.020818019416107336e-13 4.803849782157240678e-14
5.550000000000000000e+03 7.393113708496093750e+01 -3.073686981201171875e+01 4.503608959014176322e-15 -8.957178260823178695e-14 -2.552045048540268340e-14 -1.200962445539310169e-14
5.551000000000000000e+03 8.088915824890136719e+00 -3.544237136840820312e+01 2.977385861729214822e-14 1.276022524270134170e-14 1.276022524270134170e-14 -1.901523745048965680e-14
5.552000000000000000e+03 8.545970916748046875e+00 -3.172410392761230469e+01 2.001604075898850282e-15 5.804651735403371093e-14 1.801443583605670529e-14 -8.006416303595401129e-14
5.553000000000000000e+03 7.196979522705078125e+01 -3.788004302978515625e+01 -8.669447267278113101e-14 -1.172189380066121500e-13 -6.117402049331255309e-14 1.000802037949425141e-14
5.554000000000000000e+03 7.312577056884765625e+01 -3.380693435668945312e+01 -1.361090737729900302e-13 -1.040834085586084257e-13 -7.205774334422682115e-14 -5.404330750817011586e-14
5.555000000000000000e+03 7.332586669921875000e+01 -3.518179321289062500e+01 -8.006416303595401129e-14 -2.401924687790712998e-13 -9.607699564314481355e-14 -5.804651735403371093e-14
5.556000000000000000e+03 4.938775539398193359e+00 -3.194604873657226562e+01 4.303448466720996568e-14 8.706977603105056640e-14 3.903127820947815962e-14 -8.006416303595401129e-15
5.557000000000000000e+03 6.347895812988281250e+01 -1.218213558197021484e+01 1.080866150163402317e-13 9.207378240914942946e-14 6.004811719476782494e-14 -3.202566521438160452e-14
5.558000000000000000e+03 5.456798553466796875e+01 -1.236489772796630859e+01 1.080866150163402317e-13 9.207378240914942946e-14 6.004811719476782494e-14 1.441154866884536423e-13
5.559000000000000000e+03 4.828120422363281250e+01 -1.209274291992187500e+01 6.805453688649501509e-14 2.121700303512122354e-13 8.406736949368581735e-14 8.807057595141762341e-14
5.560000000000000000e+03 5.308484649658203125e+01 -1.259757423400878906e+01 2.001604075898850282e-14 2.602085213965210642e-13 8.406736949368581735e-14 -9.207378240914942946e-14
5.561000000000000000e+03 6.179184722900390625e+01 -1.167581748962402344e+01 1.521218996039172544e-13 -7.205774334422682115e-14 2.401924891078620339e-14 2.401924891078620339e-14
5.562000000000000000e+03 5.315785980224609375e+01 -1.190820598602294922e+01 1.220978477827969200e-13 9.807859548387892756e-14 6.605293026949732305e-14 -1.601283260719080226e-13
5.563000000000000000e+03 6.465588378906250000e+01 -1.224602413177490234e+01 4.403528797570881170e-14 -1.641315257533762506e-13 -3.602887167211341057e-14 -1.681347389873716347e-13
5.564000000000000000e+03 5.688340759277343750e+01 -1.255900764465332031e+01 2.161732300326804634e-13 2.401924891078620339e-14 7.205774334422682115e-14 1.601283260719080226e-14
5.565000000000000000e+03 5.616065979003906250e+01 -1.204100799560546875e+01 1.921539912862896271e-13 -3.202566521438160452e-14 4.803849782157240678e-14 -1.481186999224490264e-13
5.566000000000000000e+03 6.770190429687500000e+01 -1.207362365722656250e+01 1.040834085586084257e-13 -1.841475648182988589e-13 -2.401924891078620339e-14 -1.681347389873716347e-13
5.567000000000000000e+03 5.229372406005859375e+01 -1.201912212371826172e+01 1.721379386688398627e-13 2.802245536851800944e-14 6.004811719476782494e-14 1.641315257533762506e-13
5.568000000000000000e+03 5.378890609741210938e+01 -1.191317558288574219e+01 1.801443651368306309e-13 -6.004811719476782494e-14 3.602887167211341057e-14 2.401924891078620339e-14
5.569000000000000000e+03 4.556059265136718750e+01 -1.195895290374755859e+01 8.406736949368581735e-14 3.602887167211341057e-14 3.602887167211341057e-14 -9.607699564314481355e-14
5.570000000000000000e+03 4.367560577392578125e+01 -1.160746002197265625e+01 7.606094980195862720e-14 -1.961571909677578551e-13 -3.602887167211341057e-14 -1.120898214740720378e-13
5.571000000000000000e+03 4.986054611206054688e+01 -1.202627563476562500e+01 -1.361090737729900302e-13 -1.040834085586084257e-13 -7.205774334422682115e-14 -8.006416303595401129e-14
5.572000000000000000e+03 4.291683578491210938e+01 -1.198104763031005859e+01 -1.301042606982605321e-13 -4.103288347122313606e-13 -1.621299259126421366e-13 -1.150922347877003649e-13
5.573000000000000000e+03 4.379758071899414062e+01 -1.257168102264404297e+01 6.004812227696550847e-15 9.407538902614712151e-14 3.002405859738391247e-14 -9.207378240914942946e-14
5.574000000000000000e+03 4.020980072021484375e+01 -1.216883754730224609e+01 -1.200962445539310169e-14 -5.084074437486374443e-13 -1.561251128379126385e-13 1.361090737729900302e-13
5.575000000000000000e+03 3.624534225463867188e+01 -1.230590915679931641e+01 0.000000000000000000e+00 0.000000000000000000e+00 0.000000000000000000e+00 -1.521218996039172544e-13
5.576000000000000000e+03 3.575369644165039062e+01 -1.232070922851562500e+01 1.441154866884536423e-13 1.601283260719080226e-14 4.803849782157240678e-14 -1.281026608575264181e-13
5.577000000000000000e+03 4.207170104980468750e+01 -1.229529380798339844e+01 2.041636038832214672e-13 -6.445165039691003184e-13 -1.321058605389946461e-13 -7.606094980195862720e-14
5.578000000000000000e+03 4.257865524291992188e+01 -1.169889736175537109e+01 3.687955431493084024e-13 6.655333022968085155e-14 1.306046606584440606e-13 -1.060850151756061177e-13
5.579000000000000000e+03 4.126219940185546875e+01 -1.213479328155517578e+01 6.004811719476782494e-14 -2.001604075898850282e-14 1.200962445539310169e-14 8.006416303595401129e-14
5.580000000000000000e+03 3.868703460693359375e+01 -1.173161029815673828e+01 8.807057595141762341e-14 -8.006416303595401129e-15 2.401924891078620339e-14 -7.205774334422682115e-14
5.581000000000000000e+03 4.281043243408203125e+01 -1.133860874176025391e+01 1.120898214740720378e-13 4.803849782157240678e-14 4.803849782157240678e-14 7.205774334422682115e-14
5.582000000000000000e+03 4.125797271728515625e+01 -1.268912029266357422e+01 2.041636038832214672e-13 -3.242598518252842732e-13 -3.602887167211341057e-14 6.004811719476782494e-14
5.583000000000000000e+03 3.818986129760742188e+01 -1.175371742248535156e+01 8.006416303595401129e-14 -2.401924687790712998e-13 -4.803849782157240678e-14 -1.200962343895356499e-13
5.584000000000000000e+03 3.971199798583984375e+01 -1.217730522155761719e+01 1.921539912862896271e-13 -1.921539912862896271e-13 0.000000000000000000e+00 -1.040834085586084257e-13
5.585000000000000000e+03 7.050277709960937500e+01 -1.210800743103027344e+01 4.603689120457471473e-14 -2.602085213965210642e-14 6.004812227696550847e-15 -6.405133042876320904e-14
5.586000000000000000e+03 5.124763870239257812e+01 -1.154062080383300781e+01 2.401924891078620339e-14 -2.642117210779892922e-13 -7.205774334422682115e-14 0.000000000000000000e+00
5.587000000000000000e+03 3.769794082641601562e+01 -1.177341079711914062e+01 1.601283260719080226e-13 -4.803849375581425996e-13 -9.607699564314481355e-14 -2.001604042017532392e-13
5.588000000000000000e+03 3.921924972534179688e+01 -1.219298648834228516e+01 -5.204170427930421283e-14 -6.805453688649501509e-14 -3.602887167211341057e-14 1.681347389873716347e-13
5.589000000000000000e+03 3.526262664794921875e+01 -1.233559322357177734e+01 -1.721379386688398627e-13 -3.482791041242022656e-13 -1.561251128379126385e-13 -8.006416303595401129e-15
5.590000000000000000e+03 4.882513809204101562e+01 -1.207317924499511719e+01 -8.807057595141762341e-14 -3.122502256758252770e-13 -1.200962343895356499e-13 -2.401924687790712998e-13
5.591000000000000000e+03 5.035197448730468750e+01 -1.200221443176269531e+01 7.606094980195862720e-14 -1.961571909677578551e-13 -3.602887167211341057e-14 -1.361090737729900302e-13
5.592000000000000000e+03 3.674459838867187500e+01 -1.230201721191406250e+01 1.921539912862896271e-13 1.281026608575264181e-13 9.607699564314481355e-14 -1.521218996039172544e-13
5.593000000000000000e+03 5.179161071777343750e+01 -1.205707740783691406e+01 1.521218996039172544e-13 -7.205774334422682115e-14 2.401924891078620339e-14 -6.405133042876320904e-14
5.594000000000000000e+03 3.724544906616210938e+01 -1.230814647674560547e+01 1.401122870069854143e-13 -2.602085213965210642e-13 -3.602887167211341057e-14 -4.803849782157240678e-14
5.595000000000000000e+03 3.328732681274414062e+01 -1.238137817382812500e+01 1.040834085586084257e-13 4.563657394693332314e-13 1.681347389873716347e-13 1.361090737729900302e-13
5.596000000000000000e+03 3.221651458740234375e+01 -1.190868473052978516e+01 0.000000000000000000e+00 0.000000000000000000e+00 0.000000000000000000e+00 1.601283260719080226e-14
5.597000000000000000e+03 3.278918075561523438e+01 -1.239886188507080078e+01 0.000000000000000000e+00 -3.202566521438160452e-13 -9.607699564314481355e-14 -2.401924891078620339e-14
5.598000000000000000e+03 3.472119903564453125e+01 -1.183711147308349609e+01 2.522020949285302960e-13 1.080866150163402317e-13 1.080866150163402317e-13 -3.362694779747432694e-13
5.599000000000000000e+03 3.377960586547851562e+01 -1.236483478546142578e+01 3.602887167211341057e-14 2.441956955655938399e-13 8.406736949368581735e-14 -1.841475648182988589e-13
5.600000000000000000e+03 3.382565307617187500e+01 -1.286865711212158203e+01 3.202566521438160452e-14 2.882309733769072846e-13 9.607699564314481355e-14 -1.521218996039172544e-13
5.601000000000000000e+03 3.170490646362304688e+01 -1.192188262939453125e+01 -8.006416303595401129e-14 2.401924687790712998e-13 4.803849782157240678e-14 1.921539912862896271e-13
5.602000000000000000e+03 2.859967041015625000e+01 -1.195714950561523438e+01 -2.081668171172168513e-13 -2.722181475459800604e-13 -1.441154866884536423e-13 1.281026608575264181e-13
5.603000000000000000e+03 3.228329849243164062e+01 -1.241595935821533203e+01 -1.601283260719080226e-14 4.963977904941241359e-13 1.441154866884536423e-13 8.006416303595401129e-14
5.604000000000000000e+03 2.912104797363281250e+01 -1.196060848236083984e+01 9.207378240914942946e-14 -3.722983564231202580e-13 -8.406736949368581735e-14 2.401924891078620339e-14
5.605000000000000000e+03 2.970717811584472656e+01 -1.248503494262695312e+01 1.120898214740720378e-13 -2.722181475459800604e-13 -4.803849782157240678e-14 4.803849782157240678e-14
5.606000000000000000e+03 3.074617576599121094e+01 -1.246356391906738281e+01 -7.606094980195862720e-14 -1.240994476235310340e-13 -6.004811719476782494e-14 -8.006416303595401129e-14
5.607000000000000000e+03 6.623532104492187500e+01 -1.149640178680419922e+01 2.722181475459800604e-13 -1.120898214740720378e-13 4.803849782157240678e-14 -6.405133042876320904e-14
5.608000000000000000e+03 2.449354362487792969e+01 -1.256884956359863281e+01 -6.805453688649501509e-14 -2.121700303512122354e-13 -8.406736949368581735e-14 -8.807057595141762341e-14
5.609000000000000000e+03 2.597120666503906250e+01 -1.195710277557373047e+01 -4.003208151797700565e-14 -2.001604042017532392e-13 -7.205774334422682115e-14 -4.803849782157240678e-14
5.610000000000000000e+03 2.658030128479003906e+01 -1.246910190582275391e+01 -2.401924891078620339e-14 -3.763015561045884860e-13 -1.200962343895356499e-13 4.003208151797700565e-14
5.611000000000000000e+03 2.710184288024902344e+01 -1.245821285247802734e+01 -1.841475648182988589e-13 -2.161732300326804634e-13 -1.200962343895356499e-13 1.200962343895356499e-13
5.612000000000000000e+03 4.508766937255859375e+01 -1.141444110870361328e+01 1.952033098964051083e-13 -9.934523500067585222e-14 2.875741908058698781e-14 -1.347329637180899597e-13
5.613000000000000000e+03 2.918308258056640625e+01 -1.248594951629638672e+01 1.921539912862896271e-13 1.281026608575264181e-13 9.607699564314481355e-14 -9.607699564314481355e-14
5.614000000000000000e+03 2.762346839904785156e+01 -1.245664310455322266e+01 -1.561251128379126385e-13 -2.041636038832214672e-13 -1.080866150163402317e-13 9.607699564314481355e-14
5.615000000000000000e+03 2.814226531982421875e+01 -1.246474838256835938e+01 -1.841475648182988589e-13 -2.161732300326804634e-13 -1.200962343895356499e-13 -6.405133042876320904e-14
5.616000000000000000e+03 2.186280822753906250e+01 -1.197149658203125000e+01 2.401924891078620339e-14 -1.040834085586084257e-13 -2.401924891078620339e-14 -7.606094980195862720e-14
5.617000000000000000e+03 2.397906875610351562e+01 -1.264697647094726562e+01 -1.321058605389946461e-13 -3.082470259943570490e-13 -1.321058605389946461e-13 -3.282630515067525012e-13
5.618000000000000000e+03 4.596059036254882812e+01 -1.090577888488769531e+01 6.805453688649501509e-14 -1.080866150163402317e-13 -1.200962445539310169e-14 1.200962445539310169e-14
5.619000000000000000e+03 2.606072044372558594e+01 -1.248624992370605469e+01 -2.602085213965210642e-13 -3.402726776562114974e-13 -1.801443651368306309e-13 -1.361090737729900302e-13
5.620000000000000000e+03 2.266277122497558594e+01 -1.251051044464111328e+01 2.602085213965210642e-14 -1.261010474642651480e-13 -3.002405859738391247e-14 -9.607699564314481355e-14
5.621000000000000000e+03 2.501647377014160156e+01 -1.253136157989501953e+01 -1.681347389873716347e-13 -7.205774334422682115e-14 -7.205774334422682115e-14 -2.001604075898850282e-14
5.622000000000000000e+03 6.721969604492187500e+01 -1.198379802703857422e+01 1.681347389873716347e-13 7.205774334422682115e-14 7.205774334422682115e-14 2.001604042017532392e-13
5.623000000000000000e+03 2.413663101196289062e+01 -1.315309333801269531e+01 -2.001604075898850282e-14 -4.203368339159019307e-13 -1.321058605389946461e-13 -1.120898214740720378e-13
5.624000000000000000e+03 2.206888961791992188e+01 -1.264694118499755859e+01 -2.401924687790712998e-13 -4.003208084035064784e-13 -1.921539912862896271e-13 -8.406736949368581735e-14
5.625000000000000000e+03 6.522789764404296875e+01 -1.210749435424804688e+01 1.841475648182988589e-13 -1.040834085586084257e-13 2.401924891078620339e-14 6.405133042876320904e-14
5.626000000000000000e+03 6.674631500244140625e+01 -1.149281024932861328e+01 2.121700303512122354e-13 -9.207378240914942946e-14 3.602887167211341057e-14 3.202566521438160452e-14
5.627000000000000000e+03 1.942179107666015625e+01 -1.312312793731689453e+01 -6.572063585615767201e-14 -2.569207325185673962e-13 -9.679240644665937365e-14 2.267441978262823427e-15
5.628000000000000000e+03 1.988390350341796875e+01 -1.249448680877685547e+01 1.651323256737433076e-14 -2.216776431472264330e-13 -6.154932385158198849e-14 -1.200962445539310169e-14
5.629000000000000000e+03 5.746774291992187500e+01 -1.250196075439453125e+01 3.642919299551294898e-13 -1.641315257533762506e-13 6.004811719476782494e-14 -9.207378240914942946e-14
5.630000000000000000e+03 5.731821823120117188e+01 -1.191010856628417969e+01 2.361892690976030718e-13 -3.602887167211341057e-14 6.004811719476782494e-14 -1.521218996039172544e-13
5.631000000000000000e+03 5.579207229614257812e+01 -1.269434070587158203e+01 1.761411519028352468e-13 -1.601283260719080226e-14 4.803849782157240678e-14 4.003208151797700565e-14
5.632000000000000000e+03 5.528846740722656250e+01 -1.277838993072509766e+01 1.841475648182988589e-13 -1.040834085586084257e-13 2.401924891078620339e-14 -2.481988952470620680e-13
5.633000000000000000e+03 6.819997406005859375e+01 -1.220533943176269531e+01 6.004812227696550847e-15 9.407538902614712151e-14 3.002405859738391247e-14 1.601283260719080226e-14
5.634000000000000000e+03 6.725312805175781250e+01 -1.152393150329589844e+01 2.481988952470620680e-13 1.521218996039172544e-13 1.200962343895356499e-13 1.601283260719080226e-14
5.635000000000000000e+03 7.047290802001953125e+01 -1.275447177886962891e+01 1.240994476235310340e-13 -8.406736949368581735e-14 1.200962445539310169e-14 8.807057595141762341e-14
5.636000000000000000e+03 6.575357055664062500e+01 -1.201247024536132812e+01 1.521218996039172544e-13 -7.205774334422682115e-14 2.401924891078620339e-14 -2.401924891078620339e-14
5.637000000000000000e+03 6.625231933593750000e+01 -1.195709419250488281e+01 1.200962445539310169e-14 -4.523625126828106913e-13 -1.321058605389946461e-13 7.205774334422682115e-14
5.638000000000000000e+03 5.864294815063476562e+01 -1.232045745849609375e+01 1.321058605389946461e-13 -1.721379386688398627e-13 -1.200962445539310169e-14 6.405133042876320904e-14
5.639000000000000000e+03 4.605649948120117188e+01 -1.148855972290039062e+01 8.006416303595401129e-14 8.006416303595401129e-14 4.803849782157240678e-14 2.281828697346666157e-13
5.640000000000000000e+03 4.679113006591796875e+01 -1.100130653381347656e+01 -8.006416303595401129e-15 -2.321860694161348437e-13 -7.205774334422682115e-14 4.003208151797700565e-14
5.641000000000000000e+03 6.363932609558105469e+00 -7.942075252532958984e+00 1.566255127980961670e-13 -3.818059692191344556e-13 -6.755413692631148659e-14 -5.354290754798658736e-14
5.642000000000000000e+03 5.922951507568359375e+01 -1.218728351593017578e+01 2.722181475459800604e-13 2.081668171172168513e-13 1.441154866884536423e-13 1.601283260719080226e-14
5.643000000000000000e+03 5.910690307617187500e+01 -1.167943572998046875e+01 1.881507780522942430e-13 -1.481186999224490264e-13 1.200962445539310169e-14 1.200962343895356499e-13
5.644000000000000000e+03 7.455591583251953125e+01 -1.229848289489746094e+01 1.741395520621011328e-13 -1.541235129971785245e-13 6.004812227696550847e-15 -2.081668171172168513e-13
5.645000000000000000e+03 7.500923919677734375e+01 -1.384874248504638672e+01 1.200962445539310169e-14 2.802245536851800944e-14 1.200962445539310169e-14 -1.761411519028352468e-13
5.646000000000000000e+03 6.655079364776611328e+00 -2.378644752502441406e+01 2.702165477052459464e-13 -2.502004950877961820e-13 6.004812227696550847e-15 -6.805453688649501509e-14
5.647000000000000000e+03 6.256042480468750000e+00 -2.656961631774902344e+01 1.941555911270237411e-13 -2.141716301919463494e-13 -6.004812227696550847e-15 -1.240994476235310340e-13
5.648000000000000000e+03 7.093934535980224609e+00 -2.857962036132812500e+01 1.861491782115601290e-13 3.402726844324750755e-14 6.605293026949732305e-14 -1.200962343895356499e-13
5.649000000000000000e+03 1.000025272369384766e+01 -2.290452384948730469e+01 8.506816941405287436e-14 -2.151724301123134064e-13 -3.903127820947815962e-14 1.120898214740720378e-13
5.650000000000000000e+03 7.392404174804687500e+01 -2.289314651489257812e+01 8.206576287668812530e-14 -1.020818019416107336e-13 -6.004812227696550847e-15 -2.602085213965210642e-13
5.651000000000000000e+03 7.360644531250000000e+01 -2.427052879333496094e+01 -1.801443583605670529e-14 3.803047490097931360e-14 6.004812227696550847e-15 -1.361090737729900302e-13
5.652000000000000000e+03 7.352550506591796875e+01 -2.740048599243164062e+01 4.753809362622414200e-15 4.778829445334885351e-14 1.576263093303314350e-14 -1.441154866884536423e-13
5.653000000000000000e+03 7.419685363769531250e+01 -2.536690139770507812e+01 9.007217918028352643e-15 -1.791435652164635739e-13 -5.104090097080536681e-14 -1.401122870069854143e-13
5.654000000000000000e+03 6.033961772918701172e+00 -2.314801979064941406e+01 1.240994476235310340e-13 -8.406736949368581735e-14 1.200962445539310169e-14 -1.801443651368306309e-13
5.655000000000000000e+03 7.410977935791015625e+01 -1.566250324249267578e+01 1.200962343895356499e-13 -4.003208151797700565e-14 2.401924891078620339e-14 -8.406736949368581735e-14
5.656000000000000000e+03 7.390607452392578125e+01 -2.936660385131835938e+01 -3.064956193574511212e-14 -1.313552605987193533e-14 -1.313552605987193533e-14 -9.357498906596359300e-14
5.657000000000000000e+03 7.398220062255859375e+01 -2.808970451354980469e+01 -1.220978477827969200e-13 -4.183352340751678167e-13 -1.621299259126421366e-13 -5.804651735403371093e-14
5.658000000000000000e+03 6.863945960998535156e+00 -2.955040168762207031e+01 9.807859548387892756e-14 4.203368474684290867e-14 4.203368474684290867e-14 1.601283260719080226e-14
5.659000000000000000e+03 7.471459197998046875e+01 -2.059664344787597656e+01 -3.602887167211341057e-14 -2.441956955655938399e-13 -8.406736949368581735e-14 -1.240994476235310340e-13
5.660000000000000000e+03 7.387982940673828125e+01 -2.212413978576660156e+01 -1.401122768425900472e-14 -1.661331391466375207e-13 -5.404330750817011586e-14 -9.607699564314481355e-14
5.661000000000000000e+03 7.331625366210937500e+01 -1.629772949218750000e+01 7.205774334422682115e-14 -1.521218996039172544e-13 -2.401924891078620339e-14 -1.521218996039172544e-13
5.662000000000000000e+03 6.089775085449218750e+00 -2.242061042785644531e+01 2.121700303512122354e-13 -4.123304345529654746e-13 -6.004811719476782494e-14 -1.761411519028352468e-13
5.663000000000000000e+03 5.453235149383544922e+00 -2.249945068359375000e+01 2.201764432666758475e-13 -1.801443651368306309e-13 1.200962445539310169e-14 -1.281026608575264181e-13
5.664000000000000000e+03 7.395308685302734375e+01 -1.728300285339355469e+01 -3.402726844324750755e-14 -1.060850151756061177e-13 -4.203368474684290867e-14 -1.281026608575264181e-13
5.665000000000000000e+03 6.806327819824218750e+00 -2.158125877380371094e+01 1.401122870069854143e-13 -5.804651464352827972e-13 -1.321058605389946461e-13 -1.120898214740720378e-13
5.666000000000000000e+03 6.074940204620361328e+00 -2.166113471984863281e+01 8.006416303595401129e-15 -2.481988952470620680e-13 -7.205774334422682115e-14 -1.481186999224490264e-13
5.667000000000000000e+03 6.005166530609130859e+00 -2.085496902465820312e+01 1.561251128379126385e-13 -4.363496868518834670e-13 -8.406736949368581735e-14 -4.003208151797700565e-14
5.668000000000000000e+03 6.226971149444580078e+00 -2.748400878906250000e+01 2.421940957248597259e-13 5.804651735403371093e-14 9.007218256841531545e-14 -4.803849782157240678e-14
5.669000000000000000e+03 7.472077178955078125e+01 -1.979481887817382812e+01 -2.602085213965210642e-14 -1.941555911270237411e-13 -6.605293026949732305e-14 -1.441154866884536423e-13
5.670000000000000000e+03 7.396712493896484375e+01 -2.130602264404296875e+01 -9.607699564314481355e-14 -2.241796429481440756e-13 -9.607699564314481355e-14 -1.681347389873716347e-13
5.671000000000000000e+03 7.336378479003906250e+01 -2.870314788818359375e+01 -1.418636800913641860e-13 -6.079872391130669573e-14 -6.079872391130669573e-14 -1.531227130768114675e-13
5.672000000000000000e+03 7.351177978515625000e+01 -2.503348350524902344e+01 -1.020818019416107336e-13 -3.182550251980276190e-13 -1.261010474642651480e-13 -8.807057595141762341e-14
5.673000000000000000e+03 7.394494628906250000e+01 -1.812583923339843750e+01 5.604491073703601889e-14 -1.361090737729900302e-13 -2.401924891078620339e-14 -1.160930347080674219e-13
5.674000000000000000e+03 7.399351501464843750e+01 -1.895683670043945312e+01 1.000802037949425141e-14 -1.100882216333379238e-13 -3.002405859738391247e-14 -7.606094980195862720e-14
5.675000000000000000e+03 7.408226013183593750e+01 -2.052298736572265625e+01 -8.807057595141762341e-14 8.006416303595401129e-15 -2.401924891078620339e-14 -1.160930347080674219e-13
5.676000000000000000e+03 7.447789001464843750e+01 -1.297002601623535156e+01 1.020818019416107336e-13 -2.001604075898850282e-15 3.002405859738391247e-14 -2.241796429481440756e-13
5.677000000000000000e+03 7.110097503662109375e+01 -1.285455608367919922e+01 -2.001604075898850282e-15 -1.381106736137241442e-13 -4.203368474684290867e-14 -2.161732300326804634e-13
5.678000000000000000e+03 6.355374145507812500e+01 -1.336074447631835938e+01 7.105694342385976414e-14 5.904731727440076794e-14 3.903127820947815962e-14 1.346078738924394447e-13
5.679000000000000000e+03 6.113963699340820312e+01 -1.172390842437744141e+01 2.542037218743187221e-13 -7.405934996122451319e-14 5.404330750817011586e-14 2.241796429481440756e-13
5.680000000000000000e+03 5.996045684814453125e+01 -1.252181339263916016e+01 2.582069215557869502e-13 5.224186426337762423e-13 2.341876692568689577e-13 1.761411519028352468e-13
5.681000000000000000e+03 7.571215152740478516e+00 -2.155099678039550781e+01 1.200962445539310169e-14 -4.523625126828106913e-13 -1.321058605389946461e-13 4.003208151797700565e-14
5.682000000000000000e+03 7.174336242675781250e+01 -1.296735382080078125e+01 1.301042606982605321e-13 -3.102486258350911630e-13 -5.404330750817011586e-14 -4.803849782157240678e-14
5.683000000000000000e+03 7.435771942138671875e+01 -1.360123920440673828e+01 8.006416303595401129e-14 -2.401924687790712998e-13 -4.803849782157240678e-14 -1.721379386688398627e-13
5.684000000000000000e+03 6.056134414672851562e+01 -1.236973190307617188e+01 3.642919299551294898e-13 1.561251128379126385e-13 1.561251128379126385e-13 7.205774334422682115e-14
5.685000000000000000e+03 1.981228637695312500e+01 -1.133849525451660156e+01 -1.060850151756061177e-13 -1.941555911270237411e-13 -9.007218256841531545e-14 -6.905533680686207210e-14
5.686000000000000000e+03 7.217304229736328125e+00 -2.382929992675781250e+01 2.441956955655938399e-13 -4.443560862148199231e-13 -6.004811719476782494e-14 -8.006416303595401129e-14
5.687000000000000000e+03 1.936835289001464844e+01 -1.690692138671875000e+01 -8.006416303595401129e-15 -7.205774334422682115e-14 -2.401924891078620339e-14 -9.407538902614712151e-14
5.688000000000000000e+03 1.961087989807128906e+01 -1.589080429077148438e+01 -3.002405859738391247e-14 -1.501202997631831404e-13 -5.404330750817011586e-14 -4.403528797570881170e-14
5.689000000000000000e+03 1.998238372802734375e+01 -1.502877044677734375e+01 -5.354290754798658736e-14 6.855493684667854359e-14 4.503608959014176322e-15 -1.381106736137241442e-13
5.690000000000000000e+03 1.225642395019531250e+01 -2.240615844726562500e+01 2.802245536851800944e-14 -3.082470259943570490e-13 -8.406736949368581735e-14 8.406736949368581735e-14
5.691000000000000000e+03 7.731931686401367188e+00 -3.306425094604492188e+01 8.006416303595401129e-14 8.006416303595401129e-14 4.803849782157240678e-14 -2.852285871683332696e-14
5.692000000000000000e+03 1.882207679748535156e+01 -2.000553894042968750e+01 -1.361090737729900302e-13 -1.040834085586084257e-13 -7.205774334422682115e-14 -7.205774334422682115e-14
5.693000000000000000e+03 1.916148948669433594e+01 -1.793628883361816406e+01 -1.200962445539310169e-14 -2.802245536851800944e-14 -1.200962445539310169e-14 -2.001604075898850282e-14
5.694000000000000000e+03 8.231181144714355469e+00 -2.673144340515136719e+01 1.661331391466375207e-13 -6.605293026949732305e-14 3.002405859738391247e-14 -1.721379386688398627e-13
5.695000000000000000e+03 1.723650550842285156e+01 -2.221566963195800781e+01 -1.090874217129708668e-13 -1.210970478624298630e-13 -6.905533680686207210e-14 3.502807175174635357e-14
5.696000000000000000e+03 1.771038246154785156e+01 -2.083773994445800781e+01 -1.321058605389946461e-13 -1.481186999224490264e-13 -8.406736949368581735e-14 8.006416303595401129e-15
5.697000000000000000e+03 7.246057128906250000e+01 -3.262232971191406250e+01 -5.704571743366665393e-14 -1.331066604593617031e-13 -5.704571743366665393e-14 -2.201764398785440585e-14
5.698000000000000000e+03 7.262230682373046875e+01 -3.088269424438476562e+01 -5.435605917735071568e-14 -1.376728321188930293e-13 -5.760866230667543997e-14 -1.551243095294137925e-14
5.699000000000000000e+03 1.116759967803955078e+01 -3.302200317382812500e+01 1.306046606584440606e-13 -3.552847171192988207e-14 2.852285871683332696e-14 -1.601283260719080226e-14
5.700000000000000000e+03 7.118988037109375000e+01 -3.332672882080078125e+01 -1.401122768425900472e-14 -6.004812227696550847e-15 -6.004812227696550847e-15 -4.003208151797700565e-14
5.701000000000000000e+03 4.777867889404296875e+01 -1.143198108673095703e+01 -1.601283260719080226e-14 -1.441154866884536423e-13 -4.803849782157240678e-14 1.481186999224490264e-13
5.702000000000000000e+03 4.892881011962890625e+01 -1.260640525817871094e+01 -1.240994476235310340e-13 8.406736949368581735e-14 -1.200962445539310169e-14 -6.405133042876320904e-14
5.703000000000000000e+03 6.388047027587890625e+01 -1.287606239318847656e+01 1.160930347080674219e-13 4.003208151797700565e-15 3.602887167211341057e-14 1.381106736137241442e-13
5.704000000000000000e+03 5.348836135864257812e+01 -1.333631801605224609e+01 4.603689120457471473e-14 2.942358000041639388e-13 1.020818019416107336e-13 -3.042437992078345088e-13
5.705000000000000000e+03 5.482005310058593750e+01 -1.289522171020507812e+01 1.361090737729900302e-13 2.642117210779892922e-13 1.200962343895356499e-13 8.006416303595401129e-15
5.706000000000000000e+03 6.880206298828125000e+01 -1.178985786437988281e+01 9.407538902614712151e-14 4.063256079257088205e-13 1.501202997631831404e-13 1.040834085586084257e-13
5.707000000000000000e+03 6.436278533935546875e+01 -1.325194931030273438e+01 2.006608041619367677e-13 -3.257610652583620148e-13 -3.753007494079578510e-14 -6.204972381176551699e-14
5.708000000000000000e+03 6.928703308105468750e+01 -1.253518390655517578e+01 5.004010105043830980e-14 2.502004950877961820e-13 9.007218256841531545e-14 1.040834085586084257e-13
5.709000000000000000e+03 6.846810150146484375e+01 -1.428581523895263672e+01 1.926543912464731556e-13 8.256616283687165381e-14 8.256616283687165381e-14 1.000802021008766196e-13
5.710000000000000000e+03 6.986811828613281250e+01 -1.265928459167480469e+01 6.405133042876320904e-14 -6.405133042876320904e-14 0.000000000000000000e+00 -1.801443651368306309e-13
5.711000000000000000e+03 6.482061767578125000e+01 -1.280605316162109375e+01 -6.805453688649501509e-14 -2.121700303512122354e-13 -8.406736949368581735e-14 7.205774334422682115e-14
5.712000000000000000e+03 6.872809600830078125e+01 -1.237009334564208984e+01 5.604491073703601889e-14 2.401924891078620339e-14 2.401924891078620339e-14 -9.207378240914942946e-14
5.713000000000000000e+03 5.083216857910156250e+01 -1.199092960357666016e+01 1.000802021008766196e-13 -1.401122870069854143e-13 -1.200962445539310169e-14 -3.202566521438160452e-14
5.714000000000000000e+03 5.183627700805664062e+01 -1.260121154785156250e+01 1.521218996039172544e-13 -7.205774334422682115e-14 2.401924891078620339e-14 -1.601283260719080226e-14
5.715000000000000000e+03 4.337919616699218750e+01 -1.222080135345458984e+01 1.921539912862896271e-13 -3.202566521438160452e-14 4.803849782157240678e-14 -5.804651735403371093e-14
5.716000000000000000e+03 4.300243377685546875e+01 -1.274671554565429688e+01 9.007217918028352643e-15 2.101684237342145434e-14 9.007217918028352643e-15 3.202566521438160452e-14
5.717000000000000000e+03 4.020987701416015625e+01 -1.265295505523681641e+01 3.682951296365977178e-13 1.120898214740720378e-13 1.441154866884536423e-13 -8.807057595141762341e-14
5.718000000000000000e+03 3.578724670410156250e+01 -1.285069942474365234e+01 -1.601283260719080226e-14 1.761411519028352468e-13 4.803849782157240678e-14 -1.361090737729900302e-13
5.719000000000000000e+03 3.626930618286132812e+01 -1.281701183319091797e+01 3.202566521438160452e-13 3.202566521438160452e-13 1.921539912862896271e-13 -1.601283260719080226e-13
5.720000000000000000e+03 4.256185913085937500e+01 -1.248688125610351562e+01 3.763015561045884860e-13 2.401924891078620339e-14 1.200962343895356499e-13 -2.201764398785440585e-14
5.721000000000000000e+03 4.217118835449218750e+01 -1.185942840576171875e+01 2.842277736954390566e-13 -2.441956955655938399e-13 1.200962445539310169e-14 0.000000000000000000e+00
5.722000000000000000e+03 3.972443389892578125e+01 -1.264849948883056641e+01 1.080866150163402317e-13 9.207378240914942946e-14 6.004811719476782494e-14 2.161732300326804634e-13
5.723000000000000000e+03 4.935142898559570312e+01 -1.205074024200439453e+01 1.200962343895356499e-13 -4.003208151797700565e-14 2.401924891078620339e-14 -4.003208151797700565e-14
5.724000000000000000e+03 5.089345550537109375e+01 -1.242387866973876953e+01 2.481988952470620680e-13 1.521218996039172544e-13 1.200962343895356499e-13 -8.006416303595401129e-14
5.725000000000000000e+03 3.476779937744140625e+01 -1.234473800659179688e+01 3.042437992078345088e-13 1.761411519028352468e-13 1.441154866884536423e-13 -3.602887302736612618e-13
5.726000000000000000e+03 3.529787445068359375e+01 -1.286632061004638672e+01 3.282630515067525012e-13 2.321860694161348437e-13 1.681347389873716347e-13 -9.607699564314481355e-14
5.727000000000000000e+03 4.159255599975585938e+01 -1.334178638458251953e+01 2.121700303512122354e-13 -2.522020949285302960e-13 -1.200962445539310169e-14 -4.003208151797700565e-14
5.728000000000000000e+03 3.872517013549804688e+01 -1.222031879425048828e+01 1.441154866884536423e-13 1.601283260719080226e-14 4.803849782157240678e-14 -2.001604042017532392e-13
5.729000000000000000e+03 4.071493911743164062e+01 -1.266727638244628906e+01 6.805453688649501509e-14 -1.080866150163402317e-13 -1.200962445539310169e-14 7.205774334422682115e-14
5.730000000000000000e+03 3.822896194458007812e+01 -1.225904750823974609e+01 1.961571909677578551e-13 8.406736949368581735e-14 8.406736949368581735e-14 0.000000000000000000e+00
5.731000000000000000e+03 3.773722839355468750e+01 -1.229667568206787109e+01 3.282630515067525012e-13 2.321860694161348437e-13 1.681347389873716347e-13 -2.802245740139708285e-13
5.732000000000000000e+03 3.675746536254882812e+01 -1.280435752868652344e+01 1.841475648182988589e-13 -1.040834085586084257e-13 2.401924891078620339e-14 1.601283260719080226e-14
5.733000000000000000e+03 5.132112121582031250e+01 -1.249878120422363281e+01 6.004812227696550847e-15 9.407538902614712151e-14 3.002405859738391247e-14 -4.003208151797700565e-14
5.734000000000000000e+03 5.130833816528320312e+01 -1.202035236358642578e+01 -1.841475648182988589e-13 1.040834085586084257e-13 -2.401924891078620339e-14 -6.405133042876320904e-14
5.735000000000000000e+03 3.726503753662109375e+01 -1.285583686828613281e+01 7.205774334422682115e-14 1.681347389873716347e-13 7.205774334422682115e-14 -2.241796429481440756e-13
5.736000000000000000e+03 3.924662399291992188e+01 -1.265853023529052734e+01 2.642117210779892922e-13 -2.401924891078620339e-14 7.205774334422682115e-14 -6.405133042876320904e-14
5.737000000000000000e+03 3.480191421508789062e+01 -1.286036872863769531e+01 8.006416303595401129e-14 8.006416303595401129e-14 4.803849782157240678e-14 -2.001604042017532392e-13
5.738000000000000000e+03 5.045295715332031250e+01 -1.247233200073242188e+01 -4.403528797570881170e-14 1.641315257533762506e-13 3.602887167211341057e-14 -1.361090737729900302e-13
5.739000000000000000e+03 3.427201843261718750e+01 -1.235272693634033203e+01 -5.204170427930421283e-14 2.522020949285302960e-13 6.004811719476782494e-14 -1.200962343895356499e-13
5.740000000000000000e+03 5.307817077636718750e+01 -1.379650783538818359e+01 -8.406736949368581735e-14 2.842277736954390566e-13 6.004811719476782494e-14 -2.321860694161348437e-13
5.741000000000000000e+03 4.996716690063476562e+01 -1.251456069946289062e+01 1.281026608575264181e-13 1.921539912862896271e-13 9.607699564314481355e-14 -1.120898214740720378e-13
5.742000000000000000e+03 3.334430313110351562e+01 -1.288829517364501953e+01 -8.006416303595401129e-15 8.807057595141762341e-14 2.401924891078620339e-14 1.601283260719080226e-14
5.743000000000000000e+03 3.430919647216796875e+01 -1.285755920410156250e+01 -2.001604075898850282e-14 2.201764432666758475e-13 6.004811719476782494e-14 -1.921539912862896271e-13
5.744000000000000000e+03 3.125958442687988281e+01 -1.244913005828857422e+01 -6.405133042876320904e-14 6.405133042876320904e-14 0.000000000000000000e+00 1.441154866884536423e-13
5.745000000000000000e+03 3.235087966918945312e+01 -1.292489528656005859e+01 -2.001604075898850282e-14 -1.000802021008766196e-13 -3.602887167211341057e-14 8.006416303595401129e-14
5.746000000000000000e+03 6.673878479003906250e+01 -1.194439888000488281e+01 1.160930347080674219e-13 4.003208151797700565e-15 3.602887167211341057e-14 -7.205774334422682115e-14
5.747000000000000000e+03 6.760216522216796875e+01 -1.254350090026855469e+01 2.602085213965210642e-14 1.941555911270237411e-13 6.605293026949732305e-14 3.202566521438160452e-14
5.748000000000000000e+03 2.923542404174804688e+01 -1.302904701232910156e+01 -1.200962445539310169e-14 1.321058605389946461e-13 3.602887167211341057e-14 8.006416303595401129e-14
5.749000000000000000e+03 3.029837989807128906e+01 -1.301457023620605469e+01 6.004811719476782494e-14 -2.001604075898850282e-14 1.200962445539310169e-14 7.205774334422682115e-14
5.750000000000000000e+03 3.081707191467285156e+01 -1.299487876892089844e+01 6.004811719476782494e-14 -2.001604075898850282e-14 1.200962445539310169e-14 2.401924891078620339e-14
5.751000000000000000e+03 2.717408370971679688e+01 -1.295629119873046875e+01 -8.406736949368581735e-14 -3.602887167211341057e-14 -3.602887167211341057e-14 1.200962343895356499e-13
5.752000000000000000e+03 5.545431900024414062e+01 -1.332457923889160156e+01 2.361892690976030718e-13 -3.602887167211341057e-14 6.004811719476782494e-14 4.403528797570881170e-14
5.753000000000000000e+03 5.632147216796875000e+01 -1.262098884582519531e+01 2.842277736954390566e-13 -8.406736949368581735e-14 6.004811719476782494e-14 -2.802245536851800944e-14
5.754000000000000000e+03 2.866125679016113281e+01 -1.247736549377441406e+01 -6.805453688649501509e-14 1.080866150163402317e-13 1.200962445539310169e-14 1.441154866884536423e-13
5.755000000000000000e+03 3.177227020263671875e+01 -1.243297958374023438e+01 -2.802245536851800944e-14 -1.200962445539310169e-14 -1.200962445539310169e-14 4.803849782157240678e-14
5.756000000000000000e+03 3.285333251953125000e+01 -1.290667819976806641e+01 1.281026608575264181e-13 5.124106434301056723e-13 1.921539912862896271e-13 -4.003208151797700565e-14
5.757000000000000000e+03 2.553987884521484375e+01 -1.250702190399169922e+01 -2.642117210779892922e-13 -6.164940519887140979e-13 -2.642117210779892922e-13 3.202566521438160452e-14
5.758000000000000000e+03 2.982566070556640625e+01 -1.358979511260986328e+01 1.000802021008766196e-13 1.801443651368306309e-13 8.406736949368581735e-14 3.202566521438160452e-14
5.759000000000000000e+03 2.299003982543945312e+01 -1.311129570007324219e+01 4.053248147816053415e-14 -1.656327256339268361e-13 -3.753007494079578510e-14 -2.001604075898850282e-14
5.760000000000000000e+03 2.616235923767089844e+01 -1.302134513854980469e+01 -4.803849782157240678e-14 -4.323464600653609269e-13 -1.441154866884536423e-13 -8.006416303595401129e-14
5.761000000000000000e+03 2.768346595764160156e+01 -1.295518016815185547e+01 -8.006416303595401129e-14 -8.006416303595401129e-14 -4.803849782157240678e-14 -1.040834085586084257e-13
5.762000000000000000e+03 4.529629135131835938e+01 -1.175296497344970703e+01 1.601283260719080226e-13 1.601283260719080226e-13 9.607699564314481355e-14 -1.040834085586084257e-13
5.763000000000000000e+03 2.819276237487792969e+01 -1.297886657714843750e+01 -6.405133042876320904e-14 6.405133042876320904e-14 0.000000000000000000e+00 1.601283260719080226e-14
5.764000000000000000e+03 4.878219604492187500e+01 -1.155387592315673828e+01 8.006416303595401129e-15 -8.807057595141762341e-14 -2.401924891078620339e-14 8.807057595141762341e-14
5.765000000000000000e+03 6.117264175415039062e+01 -1.225681304931640625e+01 3.002405995263662808e-13 2.201764432666758475e-13 1.561251128379126385e-13 1.921539912862896271e-13
5.766000000000000000e+03 6.235211563110351562e+01 -1.214457511901855469e+01 1.281026608575264181e-13 -1.281026608575264181e-13 0.000000000000000000e+00 2.401924891078620339e-14
5.767000000000000000e+03 2.666753196716308594e+01 -1.298326587677001953e+01 -9.207378240914942946e-14 5.204170427930421283e-14 -1.200962445539310169e-14 0.000000000000000000e+00
5.768000000000000000e+03 2.421730041503906250e+01 -1.366799926757812500e+01 -1.000802021008766196e-13 1.401122870069854143e-13 1.200962445539310169e-14 -1.120898214740720378e-13
5.769000000000000000e+03 2.462313461303710938e+01 -1.310899925231933594e+01 -2.722181475459800604e-13 -2.081668171172168513e-13 -1.441154866884536423e-13 -7.606094980195862720e-14
5.770000000000000000e+03 2.153370285034179688e+01 -1.267916870117187500e+01 -1.801443651368306309e-13 -1.000802021008766196e-13 -8.406736949368581735e-14 -8.006416303595401129e-15
5.771000000000000000e+03 2.338509941101074219e+01 -1.350388145446777344e+01 7.005614350349270714e-14 3.002405859738391247e-14 3.002405859738391247e-14 9.607699564314481355e-14
5.772000000000000000e+03 2.370396423339843750e+01 -1.324759292602539062e+01 -4.003208151797700565e-14 1.200962343895356499e-13 2.401924891078620339e-14 -5.604491073703601889e-14
5.773000000000000000e+03 6.806949615478515625e+01 -1.272170257568359375e+01 -1.801443651368306309e-13 6.004811719476782494e-14 -3.602887167211341057e-14 -9.607699564314481355e-14
5.774000000000000000e+03 6.716511535644531250e+01 -1.241835021972656250e+01 4.003208151797700565e-14 -1.200962343895356499e-13 -2.401924891078620339e-14 -1.761411519028352468e-13
5.775000000000000000e+03 4.770190048217773438e+01 -1.209659004211425781e+01 4.403528797570881170e-14 1.561251128379126385e-13 6.004811719476782494e-14 -2.201764432666758475e-13
5.776000000000000000e+03 4.562480545043945312e+01 -1.153355407714843750e+01 1.601283260719080226e-13 1.601283260719080226e-13 9.607699564314481355e-14 -1.681347389873716347e-13
5.777000000000000000e+03 2.079471206665039062e+01 -1.247046184539794922e+01 -1.651323256737433076e-14 -4.188356475878785012e-13 -1.306046606584440606e-13 -6.905533680686207210e-14
5.778000000000000000e+03 6.534179687500000000e+01 -1.259081363677978516e+01 1.120898214740720378e-13 -5.924747996897961055e-13 -1.441154866884536423e-13 -1.120898214740720378e-13
5.779000000000000000e+03 6.583042144775390625e+01 -1.247079563140869141e+01 6.405133042876320904e-14 -6.405133042876320904e-14 0.000000000000000000e+00 1.601283260719080226e-13
5.780000000000000000e+03 5.594920730590820312e+01 -1.328067684173583984e+01 1.601283260719080226e-14 -1.761411519028352468e-13 -4.803849782157240678e-14 -8.807057595141762341e-14
5.781000000000000000e+03 5.702220916748046875e+01 -1.315518856048583984e+01 1.441154866884536423e-13 -3.042437992078345088e-13 -4.803849782157240678e-14 -3.602887167211341057e-14
5.782000000000000000e+03 6.629073333740234375e+01 -1.239479923248291016e+01 3.602887167211341057e-14 -7.606094980195862720e-14 -1.200962445539310169e-14 -1.761411519028352468e-13
5.783000000000000000e+03 5.762143707275390625e+01 -1.312259483337402344e+01 1.921539912862896271e-13 -3.202566521438160452e-14 4.803849782157240678e-14 7.606094980195862720e-14
5.784000000000000000e+03 5.805667495727539062e+01 -1.242701911926269531e+01 1.721379386688398627e-13 -1.321058605389946461e-13 1.200962445539310169e-14 -1.321058605389946461e-13
5.785000000000000000e+03 2.037537193298339844e+01 -1.189233398437500000e+01 -1.841475648182988589e-13 -2.161732300326804634e-13 -1.200962343895356499e-13 -1.100882216333379238e-13
5.786000000000000000e+03 5.882777404785156250e+01 -1.290101432800292969e+01 1.641315257533762506e-13 1.160930347080674219e-13 8.406736949368581735e-14 9.207378240914942946e-14
5.787000000000000000e+03 7.044776916503906250e+01 -1.343598175048828125e+01 2.261812563414053456e-13 -8.606896933441993136e-14 4.203368474684290867e-14 -2.481988952470620680e-13
5.788000000000000000e+03 9.079795837402343750e+00 -2.575575828552246094e+01 1.000802021008766196e-13 -1.401122870069854143e-13 -1.200962445539310169e-14 -2.401924891078620339e-14
5.789000000000000000e+03 7.195368289947509766e+00 -2.760957717895507812e+01 1.220978477827969200e-13 -6.204972381176551699e-14 1.801443583605670529e-14 -1.721379386688398627e-13
5.790000000000000000e+03 7.484478759765625000e+01 -1.439108848571777344e+01 3.602887167211341057e-14 -7.606094980195862720e-14 -1.200962445539310169e-14 -1.681347389873716347e-13
5.791000000000000000e+03 7.243727207183837891e+00 -2.568379211425781250e+01 1.861491782115601290e-13 -2.862293735361731706e-13 -3.002405859738391247e-14 -1.841475648182988589e-13
5.792000000000000000e+03 7.222500801086425781e+00 -2.664606094360351562e+01 1.020818019416107336e-13 -3.222582519845501592e-13 -6.605293026949732305e-14 -2.121700303512122354e-13
5.793000000000000000e+03 7.460243225097656250e+00 -2.480477523803710938e+01 1.401122768425900472e-14 -3.943159817762498243e-13 -1.140914348673333079e-13 -1.321058605389946461e-13
5.794000000000000000e+03 7.280910491943359375e+01 -2.421970939636230469e+01 -1.040834085586084257e-13 -2.962373998448980528e-13 -1.200962343895356499e-13 8.006416303595401129e-15
5.795000000000000000e+03 8.510722160339355469e+00 -2.432368659973144531e+01 1.381106736137241442e-13 -1.581267126786467525e-13 -6.004812227696550847e-15 2.802245536851800944e-14
5.796000000000000000e+03 6.709106922149658203e+00 -2.310911560058593750e+01 4.483592858962881511e-13 -4.483592858962881511e-13 0.000000000000000000e+00 -6.805453688649501509e-14
5.797000000000000000e+03 4.728256225585937500e+01 -1.125805473327636719e+01 -7.205774334422682115e-14 1.521218996039172544e-13 2.401924891078620339e-14 -3.202566521438160452e-14
5.798000000000000000e+03 4.711406326293945312e+01 -1.193203830718994141e+01 2.822261738547049426e-13 -6.204972381176551699e-14 6.605293026949732305e-14 9.607699564314481355e-14
5.799000000000000000e+03 6.777994632720947266e+00 -2.237109756469726562e+01 7.405934996122451319e-14 -1.741395520621011328e-13 -3.002405859738391247e-14 -1.080866150163402317e-13
5.800000000000000000e+03 7.418077087402343750e+01 -1.492736434936523438e+01 2.121700303512122354e-13 -9.207378240914942946e-14 3.602887167211341057e-14 -1.601283260719080226e-13
5.801000000000000000e+03 7.345058441162109375e+01 -1.549713802337646484e+01 1.681347389873716347e-13 -8.807057595141762341e-14 2.401924891078620339e-14 -1.801443651368306309e-13
5.802000000000000000e+03 7.305352783203125000e+01 -2.671158790588378906e+01 -5.704571743366665393e-14 -1.331066604593617031e-13 -5.704571743366665393e-14 -1.130906281707026728e-13
5.803000000000000000e+03 7.318677520751953125e+01 -2.558972549438476562e+01 -5.004010189747125706e-15 -2.251804564210382886e-13 -6.905533680686207210e-14 -1.185950345089850644e-13
5.804000000000000000e+03 4.656550216674804688e+01 -1.162991523742675781e+01 1.601283260719080226e-13 4.803849375581425996e-13 1.921539912862896271e-13 -5.604491073703601889e-14
5.805000000000000000e+03 1.105550289154052734e+01 -2.325509834289550781e+01 -1.000802037949425141e-15 -3.893119821744145392e-13 -1.170938346284344789e-13 8.006416303595401129e-14
5.806000000000000000e+03 7.262358856201171875e+01 -1.606155395507812500e+01 1.441154866884536423e-13 1.601283260719080226e-14 4.803849782157240678e-14 -8.807057595141762341e-14
5.807000000000000000e+03 7.215453338623046875e+01 -2.862792778015136719e+01 -1.778925585397411746e-13 1.526223097284961500e-14 -4.878909776184769953e-14 -6.505213034913026604e-14
5.808000000000000000e+03 7.317385864257812500e+01 -1.810388565063476562e+01 -5.404330750817011586e-14 -2.061652172764827373e-13 -7.806255641895631925e-14 -1.040834085586084257e-13
5.809000000000000000e+03 7.289728546142578125e+01 -2.499916839599609375e+01 -1.120898214740720378e-13 -4.803849782157240678e-14 -4.803849782157240678e-14 -1.281026608575264181e-13
5.810000000000000000e+03 7.503029346466064453e+00 -2.238196372985839844e+01 2.001604042017532392e-13 -6.004811990527325616e-13 -1.200962343895356499e-13 -5.604491073703601889e-14
5.811000000000000000e+03 7.284889984130859375e+01 -2.799800872802734375e+01 -5.679551406544310066e-14 -1.158428279517120796e-13 -5.179150429921244858e-14 -1.000802021008766196e-13
5.812000000000000000e+03 7.405830383300781250e+01 -1.975290679931640625e+01 7.205774334422682115e-14 -1.521218996039172544e-13 -2.401924891078620339e-14 -2.361892690976030718e-13
5.813000000000000000e+03 7.311631011962890625e+01 -2.059544181823730469e+01 -1.421138868477195283e-13 1.220978477827969200e-13 -6.004812227696550847e-15 -7.205774334422682115e-14
5.814000000000000000e+03 7.328984832763671875e+01 -1.898809432983398438e+01 2.181748434259417335e-13 2.001604075898850282e-15 6.605293026949732305e-14 -2.602085213965210642e-13
5.815000000000000000e+03 7.264125061035156250e+01 -1.903154563903808594e+01 -1.681347389873716347e-13 8.807057595141762341e-14 -2.401924891078620339e-14 -1.721379386688398627e-13
5.816000000000000000e+03 1.994824218750000000e+01 -1.368606662750244141e+01 -1.230986477031639770e-13 -3.272622515863854442e-13 -1.351082738526229732e-13 -1.160930347080674219e-13
5.817000000000000000e+03 2.035691833496093750e+01 -1.299406337738037109e+01 -5.554451077685249039e-14 -6.955573676704560060e-14 -3.753007494079578510e-14 1.200962445539310169e-14
5.818000000000000000e+03 5.983183288574218750e+01 -1.203879928588867188e+01 1.921539912862896271e-13 -1.921539912862896271e-13 0.000000000000000000e+00 2.802245740139708285e-13
5.819000000000000000e+03 2.134320831298828125e+01 -1.712570190429687500e+01 1.000802021008766196e-13 2.001604075898850282e-14 3.602887167211341057e-14 -4.803849782157240678e-14
5.820000000000000000e+03 7.108307647705078125e+01 -1.351230621337890625e+01 1.040834085586084257e-13 -1.841475648182988589e-13 -2.401924891078620339e-14 -4.803849782157240678e-14
5.821000000000000000e+03 5.405629348754882812e+01 -1.254965019226074219e+01 4.503609128420765773e-14 1.050842084789754827e-13 4.503609128420765773e-14 -6.405133042876320904e-14
5.822000000000000000e+03 7.329889678955078125e+01 -3.009871482849121094e+01 -1.014563053795131120e-13 -1.349831704744453020e-13 -7.093184004568209300e-14 -9.107298248878237246e-14
5.823000000000000000e+03 6.233515930175781250e+01 -1.313907432556152344e+01 6.805453688649501509e-14 -1.080866150163402317e-13 -1.200962445539310169e-14 1.601283260719080226e-13
5.824000000000000000e+03 6.943840789794921875e+01 -3.197000885009765625e+01 -8.406736949368581735e-14 4.403528797570881170e-14 -1.200962445539310169e-14 -3.002405859738391247e-14
5.825000000000000000e+03 6.064455032348632812e+01 -1.289192008972167969e+01 1.180946345488015359e-13 1.421138868477195283e-13 7.806255641895631925e-14 1.361090737729900302e-13
5.826000000000000000e+03 7.172029876708984375e+01 -1.361738014221191406e+01 1.301042606982605321e-13 3.302646513474866152e-13 1.381106736137241442e-13 -3.442758773376797254e-13
5.827000000000000000e+03 7.298940277099609375e+01 -1.390571117401123047e+01 1.120898214740720378e-13 4.803849782157240678e-14 4.803849782157240678e-14 -2.481988952470620680e-13
5.828000000000000000e+03 8.171833992004394531e+00 -2.883910560607910156e+01 1.781427517435693608e-13 -3.803047490097931360e-14 4.203368474684290867e-14 -1.361090737729900302e-13
5.829000000000000000e+03 6.851524829864501953e+00 -2.440038871765136719e+01 3.092478259147241060e-13 -2.391916688587042428e-13 2.101684237342145434e-14 -1.381106736137241442e-13
5.830000000000000000e+03 1.897498703002929688e+01 -1.897527313232421875e+01 -9.607699564314481355e-14 -6.405133042876320904e-14 -4.803849782157240678e-14 1.601283260719080226e-14
5.831000000000000000e+03 2.020403861999511719e+01 -1.921031951904296875e+01 5.004010105043830980e-14 -7.005614350349270714e-14 -6.004812227696550847e-15 5.204170427930421283e-14
5.832000000000000000e+03 6.642516136169433594e+00 -3.218934631347656250e+01 3.415236843329338967e-14 1.463672932855430986e-14 1.463672932855430986e-14 1.301042606982605321e-14
5.833000000000000000e+03 1.674950599670410156e+01 -2.108639717102050781e+01 -6.605293026949732305e-14 -7.405934996122451319e-14 -4.203368474684290867e-14 3.402726844324750755e-14
5.834000000000000000e+03 2.006325912475585938e+01 -2.034566879272460938e+01 2.301844560228735737e-14 -1.301042606982605321e-14 3.002406113848275424e-15 -4.003208151797700565e-15
5.835000000000000000e+03 7.331819915771484375e+01 -2.304737663269042969e+01 -1.761411519028352468e-13 1.601283260719080226e-14 -4.803849782157240678e-14 -2.401924891078620339e-14
5.836000000000000000e+03 9.810263633728027344e+00 -2.389104652404785156e+01 7.606094980195862720e-14 -3.562855034871387216e-13 -8.406736949368581735e-14 4.003208151797700565e-15
5.837000000000000000e+03 1.864286422729492188e+01 -2.096641349792480469e+01 1.401122768425900472e-14 -1.541235129971785245e-13 -4.203368474684290867e-14 -6.805453688649501509e-14
5.838000000000000000e+03 1.346392345428466797e+01 -2.261309432983398438e+01 -4.203368474684290867e-14 -1.801443583605670529e-14 -1.801443583605670529e-14 1.381106736137241442e-13
5.839000000000000000e+03 1.683611106872558594e+01 -2.548468780517578125e+01 8.406736949368581735e-14 3.602887167211341057e-14 3.602887167211341057e-14 7.205774334422682115e-14
5.840000000000000000e+03 1.902137947082519531e+01 -1.415893840789794922e+01 8.006416303595401129e-14 -2.401924687790712998e-13 -4.803849782157240678e-14 -1.601283260719080226e-14
5.841000000000000000e+03 2.121492004394531250e+01 -1.463877201080322266e+01 4.003208151797700565e-15 -4.403528797570881170e-14 -1.200962445539310169e-14 -4.003208151797700565e-14
5.842000000000000000e+03 9.053223609924316406e+00 -3.389393997192382812e+01 1.851483749030612830e-14 -8.356696953350228885e-14 -1.951563910473907981e-14 -6.004812227696550847e-15
5.843000000000000000e+03 1.059493446350097656e+01 -3.465676879882812500e+01 4.203368474684290867e-14 1.801443583605670529e-14 1.801443583605670529e-14 2.101684237342145434e-14
5.844000000000000000e+03 1.007391166687011719e+01 -3.994242477416992188e+01 2.702165375408505793e-14 2.301844560228735737e-14 1.501202929869195624e-14 -1.000802037949425141e-14
5.845000000000000000e+03 7.200849151611328125e+01 -3.471112823486328125e+01 -1.034579052202472260e-13 -1.129655247925250017e-13 -6.492702697095259490e-14 2.602085213965210642e-14
5.846000000000000000e+03 4.908329772949218750e+01 -1.313322353363037109e+01 -1.361090737729900302e-13 -2.642117210779892922e-13 -1.200962343895356499e-13 -1.160930347080674219e-13
5.847000000000000000e+03 6.834819793701171875e+01 -1.347689819335937500e+01 -1.090874217129708668e-13 -1.000802037949425141e-15 -3.302646513474866152e-14 1.601283260719080226e-14
5.848000000000000000e+03 5.243770599365234375e+01 -1.256477069854736328e+01 9.607699564314481355e-14 2.241796429481440756e-13 9.607699564314481355e-14 -2.802245536851800944e-14
5.849000000000000000e+03 5.502567291259765625e+01 -1.336726474761962891e+01 -5.204170427930421283e-14 -6.805453688649501509e-14 -3.602887167211341057e-14 -6.405133042876320904e-14
5.850000000000000000e+03 7.165882873535156250e+01 -1.602169609069824219e+01 2.682149478645118323e-13 -6.805453688649501509e-14 6.004811719476782494e-14 -1.721379386688398627e-13
5.851000000000000000e+03 6.980043792724609375e+01 -1.338559532165527344e+01 1.020818019416107336e-13 -2.001604075898850282e-15 3.002405859738391247e-14 2.401924891078620339e-14
5.852000000000000000e+03 6.511510467529296875e+01 -1.319630622863769531e+01 4.503609128420765773e-14 -2.151724301123134064e-13 -5.104090097080536681e-14 6.805453688649501509e-14
5.853000000000000000e+03 5.367499160766601562e+01 -1.289481925964355469e+01 1.154675313697062222e-13 4.612446492455180014e-13 1.730136487635564047e-13 -5.854691731421723944e-14
5.854000000000000000e+03 5.302279663085937500e+01 -1.322128486633300781e+01 2.802245740139708285e-13 1.200962343895356499e-13 1.200962343895356499e-13 2.401924891078620339e-14
5.855000000000000000e+03 3.631351470947265625e+01 -1.332997035980224609e+01 1.401122870069854143e-13 -2.602085213965210642e-13 -3.602887167211341057e-14 1.761411519028352468e-13
5.856000000000000000e+03 3.583187484741210938e+01 -1.342347431182861328e+01 2.642117210779892922e-13 2.962373998448980528e-13 1.681347389873716347e-13 -1.521218996039172544e-13
5.857000000000000000e+03 4.267646026611328125e+01 -1.320980834960937500e+01 9.607699564314481355e-14 -2.562053217150528361e-13 -4.803849782157240678e-14 -1.401122870069854143e-13
5.858000000000000000e+03 4.458583831787109375e+01 -1.258520412445068359e+01 1.661331391466375207e-13 1.401122768425900472e-14 5.404330750817011586e-14 1.461170865291877563e-13
5.859000000000000000e+03 4.179456329345703125e+01 -1.279293632507324219e+01 1.040834085586084257e-13 -1.841475648182988589e-13 -2.401924891078620339e-14 8.006416303595401129e-14
5.860000000000000000e+03 4.064480972290039062e+01 -1.317991638183593750e+01 3.042437992078345088e-13 -1.441154866884536423e-13 4.803849782157240678e-14 -2.401924891078620339e-14
5.861000000000000000e+03 4.017364883422851562e+01 -1.313596534729003906e+01 -1.080866150163402317e-13 -9.207378240914942946e-14 -6.004811719476782494e-14 1.200962343895356499e-13
5.862000000000000000e+03 4.226508331298828125e+01 -1.298428535461425781e+01 2.101684169579509653e-13 1.701363388281057487e-13 1.140914348673333079e-13 -2.361892690976030718e-13
5.863000000000000000e+03 3.876747512817382812e+01 -1.269218063354492188e+01 1.361090737729900302e-13 -2.161732300326804634e-13 -2.401924891078620339e-14 3.202566521438160452e-14
5.864000000000000000e+03 5.132921600341796875e+01 -1.331915092468261719e+01 1.441154866884536423e-13 1.601283260719080226e-14 4.803849782157240678e-14 2.001604075898850282e-14
5.865000000000000000e+03 4.339243698120117188e+01 -1.306488037109375000e+01 6.505213034913026604e-15 4.853889778175593528e-14 1.651323256737433076e-14 -1.240994476235310340e-13
5.866000000000000000e+03 3.531510925292968750e+01 -1.343406200408935547e+01 8.006416303595401129e-15 -8.807057595141762341e-14 -2.401924891078620339e-14 -2.081668171172168513e-13
5.867000000000000000e+03 3.828165817260742188e+01 -1.275921344757080078e+01 1.200962343895356499e-13 -4.003208151797700565e-14 2.401924891078620339e-14 -1.040834085586084257e-13
5.868000000000000000e+03 4.112746047973632812e+01 -1.324520778656005859e+01 2.161732300326804634e-13 -1.361090737729900302e-13 2.401924891078620339e-14 2.001604042017532392e-13
5.869000000000000000e+03 5.060833358764648438e+01 -1.294593811035156250e+01 1.240994476235310340e-13 2.361892690976030718e-13 1.080866150163402317e-13 -1.601283260719080226e-13
5.870000000000000000e+03 3.778081512451171875e+01 -1.285282897949218750e+01 8.006416303595401129e-14 -2.401924687790712998e-13 -4.803849782157240678e-14 -1.441154866884536423e-13
5.871000000000000000e+03 4.009661102294921875e+01 -1.362055587768554688e+01 2.401924687790712998e-13 -8.006416303595401129e-14 4.803849782157240678e-14 -4.003208151797700565e-14
5.872000000000000000e+03 3.347236633300781250e+01 -1.395524978637695312e+01 -1.521218996039172544e-13 7.205774334422682115e-14 -2.401924891078620339e-14 -1.681347389873716347e-13
5.873000000000000000e+03 3.971488189697265625e+01 -1.311035442352294922e+01 3.562855034871387216e-13 -7.606094980195862720e-14 8.406736949368581735e-14 -8.807057595141762341e-14
5.874000000000000000e+03 3.685695648193359375e+01 -1.365116405487060547e+01 1.120898214740720378e-13 4.803849782157240678e-14 4.803849782157240678e-14 -2.241796429481440756e-13
5.875000000000000000e+03 3.792918014526367188e+01 -1.340123844146728516e+01 1.421138868477195283e-13 -1.220978477827969200e-13 6.004812227696550847e-15 -2.241796429481440756e-13
5.876000000000000000e+03 5.107921218872070312e+01 -1.282314395904541016e+01 -2.441956955655938399e-13 1.240994476235310340e-13 -3.602887167211341057e-14 -1.180946345488015359e-13
5.877000000000000000e+03 5.011071777343750000e+01 -1.301189804077148438e+01 1.401122870069854143e-13 6.004811719476782494e-14 6.004811719476782494e-14 -1.240994476235310340e-13
5.878000000000000000e+03 3.184120941162109375e+01 -1.294701385498046875e+01 0.000000000000000000e+00 3.202566521438160452e-13 9.607699564314481355e-14 -8.006416303595401129e-15
5.879000000000000000e+03 3.291642761230468750e+01 -1.341849994659423828e+01 -7.205774334422682115e-14 -1.681347389873716347e-13 -7.205774334422682115e-14 1.601283260719080226e-14
5.880000000000000000e+03 3.644461441040039062e+01 -1.384204578399658203e+01 2.141716301919463494e-13 4.603689120457471473e-14 7.806255641895631925e-14 -7.205774334422682115e-14
5.881000000000000000e+03 3.340164184570312500e+01 -1.340496540069580078e+01 -7.205774334422682115e-14 1.521218996039172544e-13 2.401924891078620339e-14 -4.803849782157240678e-14
5.882000000000000000e+03 3.132935333251953125e+01 -1.297177982330322266e+01 -4.003208151797700565e-14 -2.001604042017532392e-13 -7.205774334422682115e-14 -2.401924891078620339e-14
5.883000000000000000e+03 2.976870155334472656e+01 -1.302816200256347656e+01 2.081668171172168513e-13 2.722181475459800604e-13 1.441154866884536423e-13 -9.607699564314481355e-14
5.884000000000000000e+03 3.241899108886718750e+01 -1.343181228637695312e+01 -1.040834085586084257e-13 1.841475648182988589e-13 2.401924891078620339e-14 4.003208151797700565e-14
5.885000000000000000e+03 3.089375686645507812e+01 -1.354092979431152344e+01 2.401924687790712998e-13 -8.006416303595401129e-14 4.803849782157240678e-14 4.803849782157240678e-14
5.886000000000000000e+03 2.870907020568847656e+01 -1.301029682159423828e+01 4.803849782157240678e-14 1.120898214740720378e-13 4.803849782157240678e-14 2.401924891078620339e-14
5.887000000000000000e+03 3.044396209716796875e+01 -1.414906501770019531e+01 2.802245536851800944e-14 1.200962445539310169e-14 1.200962445539310169e-14 -4.003208151797700565e-14
5.888000000000000000e+03 2.565133476257324219e+01 -1.305779266357421875e+01 -2.922341730583755126e-13 1.200962445539310169e-14 -8.406736949368581735e-14 -4.003208151797700565e-15
5.889000000000000000e+03 2.628470039367675781e+01 -1.356330013275146484e+01 -1.561251128379126385e-13 1.160930347080674219e-13 -1.200962445539310169e-14 -6.004811719476782494e-14
5.890000000000000000e+03 3.140495872497558594e+01 -1.350138282775878906e+01 7.205774334422682115e-14 1.681347389873716347e-13 7.205774334422682115e-14 -5.604491073703601889e-14
5.891000000000000000e+03 4.592789077758789062e+01 -1.206869983673095703e+01 1.801443651368306309e-13 4.203368339159019307e-13 1.801443651368306309e-13 6.004811719476782494e-14
5.892000000000000000e+03 2.724547767639160156e+01 -1.343216419219970703e+01 -1.601283260719080226e-13 -1.601283260719080226e-13 -9.607699564314481355e-14 -1.361090737729900302e-13
5.893000000000000000e+03 2.927097320556640625e+01 -1.359930515289306641e+01 1.721379386688398627e-13 3.482791041242022656e-13 1.561251128379126385e-13 -8.807057595141762341e-14
5.894000000000000000e+03 2.513563537597656250e+01 -1.308520030975341797e+01 -1.561251128379126385e-13 -5.244202424745103563e-13 -2.041636038832214672e-13 4.003208151797700565e-15
5.895000000000000000e+03 2.771939468383789062e+01 -1.343266296386718750e+01 -1.240994476235310340e-13 8.406736949368581735e-14 -1.200962445539310169e-14 0.000000000000000000e+00
5.896000000000000000e+03 2.820736694335937500e+01 -1.349447345733642578e+01 -8.807057595141762341e-14 8.006416303595401129e-15 -2.401924891078620339e-14 -1.120898214740720378e-13
5.897000000000000000e+03 6.335679626464843750e+01 -1.269034290313720703e+01 -8.006416303595401129e-15 8.807057595141762341e-14 2.401924891078620339e-14 5.204170427930421283e-14
5.898000000000000000e+03 6.177334976196289062e+01 -1.218687915802001953e+01 7.606094980195862720e-14 -1.961571909677578551e-13 -3.602887167211341057e-14 2.321860694161348437e-13
5.899000000000000000e+03 2.202311134338378906e+01 -1.336456680297851562e+01 -1.281026608575264181e-13 -3.202566521438160452e-14 -4.803849782157240678e-14 -6.204972381176551699e-14
5.900000000000000000e+03 2.034065628051757812e+01 -1.707930946350097656e+01 1.401122768425900472e-14 6.004812227696550847e-15 6.004812227696550847e-15 1.200962445539310169e-14
5.901000000000000000e+03 3.037020111083984375e+01 -1.357011890411376953e+01 8.406736949368581735e-14 3.602887167211341057e-14 3.602887167211341057e-14 -8.807057595141762341e-14
5.902000000000000000e+03 6.673311614990234375e+01 -1.236863422393798828e+01 8.807057595141762341e-14 -8.006416303595401129e-15 2.401924891078620339e-14 -1.361090737729900302e-13
5.903000000000000000e+03 6.743486785888671875e+01 -1.298996448516845703e+01 -4.803849782157240678e-14 4.803849782157240678e-14 0.000000000000000000e+00 6.805453688649501509e-14
5.904000000000000000e+03 4.498024368286132812e+01 -1.214738750457763672e+01 1.671339390670045777e-13 -3.702967498061225660e-14 3.903127820947815962e-14 -9.507618894651417851e-14
5.905000000000000000e+03 4.494020843505859375e+01 -1.301899051666259766e+01 1.731387521417340758e-13 -2.301844560228735737e-14 4.503609128420765773e-14 -1.090874217129708668e-13
5.906000000000000000e+03 2.677272224426269531e+01 -1.349036026000976562e+01 8.807057595141762341e-14 -3.282630515067525012e-13 -7.205774334422682115e-14 1.120898214740720378e-13
5.907000000000000000e+03 5.543462753295898438e+01 -1.449232864379882812e+01 9.207378240914942946e-14 1.080866150163402317e-13 6.004811719476782494e-14 6.004811719476782494e-14
5.908000000000000000e+03 5.646866607666015625e+01 -1.321196937561035156e+01 1.601283260719080226e-13 0.000000000000000000e+00 4.803849782157240678e-14 1.481186999224490264e-13
5.909000000000000000e+03 2.471452140808105469e+01 -1.366162204742431641e+01 6.405133042876320904e-14 -3.843079825725792542e-13 -9.607699564314481355e-14 8.006416303595401129e-15
5.910000000000000000e+03 2.524396514892578125e+01 -1.365880966186523438e+01 -2.041636038832214672e-13 4.003208151797700565e-15 -6.004811719476782494e-14 -1.200962445539310169e-14
5.911000000000000000e+03 4.531549453735351562e+01 -1.247018527984619141e+01 2.722181475459800604e-13 2.081668171172168513e-13 1.441154866884536423e-13 -8.807057595141762341e-14
5.912000000000000000e+03 2.261585044860839844e+01 -1.367608642578125000e+01 4.403528797570881170e-14 -1.641315257533762506e-13 -3.602887167211341057e-14 -1.681347389873716347e-13
5.913000000000000000e+03 2.043701362609863281e+01 -1.612621116638183594e+01 4.003208151797700565e-15 -2.041636038832214672e-13 -6.004811719476782494e-14 -4.003208151797700565e-14
5.914000000000000000e+03 2.151375198364257812e+01 -1.315491962432861328e+01 3.602887167211341057e-14 -2.361892690976030718e-13 -6.004811719476782494e-14 -6.805453688649501509e-14
5.915000000000000000e+03 6.673694610595703125e+01 -1.275475502014160156e+01 3.442758773376797254e-13 5.604491073703601889e-14 1.200962343895356499e-13 -8.807057595141762341e-14
5.916000000000000000e+03 6.707295989990234375e+01 -1.280839824676513672e+01 1.721379386688398627e-13 3.482791041242022656e-13 1.561251128379126385e-13 6.405133042876320904e-14
5.917000000000000000e+03 5.441843032836914062e+01 -1.308368587493896484e+01 3.642919299551294898e-13 1.561251128379126385e-13 1.561251128379126385e-13 8.006416303595401129e-15
5.918000000000000000e+03 6.121759414672851562e+01 -1.279047107696533203e+01 1.941555911270237411e-13 -5.404330750817011586e-14 4.203368474684290867e-14 3.442758773376797254e-13
5.919000000000000000e+03 6.284577560424804688e+01 -1.262019729614257812e+01 2.081668171172168513e-13 -4.803849782157240678e-14 4.803849782157240678e-14 2.722181475459800604e-13
5.920000000000000000e+03 6.549585723876953125e+01 -1.301363182067871094e+01 -1.561251128379126385e-13 -5.244202424745103563e-13 -2.041636038832214672e-13 5.604491073703601889e-14
5.921000000000000000e+03 6.593942260742187500e+01 -1.291573047637939453e+01 4.003208151797700565e-15 -3.642919299551294898e-13 -1.080866150163402317e-13 3.202566521438160452e-14
5.922000000000000000e+03 2.113604927062988281e+01 -1.290320682525634766e+01 -5.516921080671484401e-14 -2.364394724658266250e-14 -2.364394724658266250e-14 9.057258252859884395e-14
5.923000000000000000e+03 5.661372375488281250e+01 -1.380981636047363281e+01 1.521218996039172544e-13 -2.321860694161348437e-13 -2.401924891078620339e-14 -4.403528797570881170e-14
5.924000000000000000e+03 5.711684799194335938e+01 -1.373314666748046875e+01 9.207378240914942946e-14 -5.204170427930421283e-14 1.200962445539310169e-14 1.601283260719080226e-13
5.925000000000000000e+03 5.842999267578125000e+01 -1.373292255401611328e+01 2.922341730583755126e-13 -1.200962445539310169e-14 8.406736949368581735e-14 4.803849782157240678e-14
5.926000000000000000e+03 7.370073699951171875e+01 -1.341332912445068359e+01 2.261812563414053456e-13 -8.606896933441993136e-14 4.203368474684290867e-14 -1.281026608575264181e-13
5.927000000000000000e+03 7.362297058105468750e+01 -1.407253551483154297e+01 2.682149478645118323e-13 -6.805453688649501509e-14 6.004811719476782494e-14 -1.521218996039172544e-13
5.928000000000000000e+03 8.189212799072265625e+00 -2.579711914062500000e+01 1.361090737729900302e-13 -3.763015561045884860e-13 -7.205774334422682115e-14 -2.201764432666758475e-13
5.929000000000000000e+03 8.256475448608398438e+00 -2.775643348693847656e+01 1.781427517435693608e-13 -1.981587908084919691e-13 -6.004812227696550847e-15 -2.522020949285302960e-13
5.930000000000000000e+03 8.876917839050292969e+00 -2.357619857788085938e+01 1.381106736137241442e-13 -2.381908689383371858e-13 -3.002405859738391247e-14 4.603689120457471473e-14
5.931000000000000000e+03 7.202047729492187500e+01 -2.442012977600097656e+01 -4.403528797570881170e-14 -1.561251128379126385e-13 -6.004811719476782494e-14 -1.281026608575264181e-13
5.932000000000000000e+03 4.571339035034179688e+01 -1.262911415100097656e+01 2.281828697346666157e-13 -4.283432603838926989e-13 -6.004811719476782494e-14 -2.802245536851800944e-14
5.933000000000000000e+03 4.636184310913085938e+01 -1.226577186584472656e+01 2.001604075898850282e-14 -2.201764432666758475e-13 -6.004811719476782494e-14 2.401924891078620339e-14
5.934000000000000000e+03 7.292312622070312500e+01 -1.458397674560546875e+01 2.121700303512122354e-13 -9.207378240914942946e-14 3.602887167211341057e-14 -1.681347389873716347e-13
5.935000000000000000e+03 7.046993255615234375e+01 -1.412803077697753906e+01 8.406736949368581735e-14 -2.842277736954390566e-13 -6.004811719476782494e-14 8.406736949368581735e-14
5.936000000000000000e+03 7.142758941650390625e+01 -1.742342376708984375e+01 -1.721379386688398627e-13 -3.482791041242022656e-13 -1.561251128379126385e-13 -1.160930347080674219e-13
5.937000000000000000e+03 7.237897491455078125e+01 -1.692753028869628906e+01 2.211772431870429045e-13 -2.712173476256130034e-13 -1.501202929869195624e-14 -1.641315257533762506e-13
5.938000000000000000e+03 7.235595703125000000e+01 -2.726039314270019531e+01 -1.606287260320915511e-13 -1.145918348275168364e-13 -8.256616283687165381e-14 -4.403528797570881170e-14
5.939000000000000000e+03 7.258824920654296875e+01 -2.601848983764648438e+01 -1.160930347080674219e-13 -1.641315257533762506e-13 -8.406736949368581735e-14 -7.706175649858926224e-14
5.940000000000000000e+03 7.270812988281250000e+01 -2.937899017333984375e+01 -9.570169567300716718e-15 -4.985244937130359211e-14 -1.782678585098788210e-14 -6.380113044867144478e-14
5.941000000000000000e+03 5.910437393188476562e+01 -1.352300071716308594e+01 1.481186999224490264e-13 -5.084074437486374443e-13 -1.080866150163402317e-13 1.701363388281057487e-13
5.942000000000000000e+03 7.247982025146484375e+01 -1.961123466491699219e+01 4.803849782157240678e-14 1.120898214740720378e-13 4.803849782157240678e-14 -2.642117210779892922e-13
5.943000000000000000e+03 7.223609161376953125e+01 -2.525404357910156250e+01 -1.000802037949425141e-14 -5.004010105043830980e-14 -1.801443583605670529e-14 -8.807057595141762341e-14
5.944000000000000000e+03 7.224759674072265625e+01 -2.159142494201660156e+01 -1.240994476235310340e-13 -7.606094980195862720e-14 -6.004811719476782494e-14 -1.521218996039172544e-13
5.945000000000000000e+03 7.291802215576171875e+01 -2.145392036437988281e+01 -1.180946345488015359e-13 -1.421138868477195283e-13 -7.806255641895631925e-14 -8.006416303595401129e-14
5.946000000000000000e+03 6.928794097900390625e+01 -1.435948371887207031e+01 1.240994476235310340e-13 -8.406736949368581735e-14 1.200962445539310169e-14 -4.003208151797700565e-14
5.947000000000000000e+03 7.245049285888671875e+01 -1.828652572631835938e+01 5.904731727440076794e-14 -2.491996951674291250e-13 -5.704571743366665393e-14 -1.441154866884536423e-13
5.948000000000000000e+03 7.247383117675781250e+01 -2.042579650878906250e+01 1.716375387086563342e-13 7.355895000104098469e-14 7.355895000104098469e-14 -3.162534253572935050e-13
5.949000000000000000e+03 2.056051063537597656e+01 -1.398521041870117188e+01 -1.120898214740720378e-13 -4.803849782157240678e-14 -4.803849782157240678e-14 1.601283260719080226e-14
5.950000000000000000e+03 6.291605758666992188e+01 -1.213709545135498047e+01 -7.606094980195862720e-14 1.961571909677578551e-13 3.602887167211341057e-14 2.161732300326804634e-13
5.951000000000000000e+03 6.232323455810546875e+01 -1.264266586303710938e+01 5.604491073703601889e-14 2.401924891078620339e-14 2.401924891078620339e-14 1.040834085586084257e-13
5.952000000000000000e+03 6.009680557250976562e+01 -1.347679519653320312e+01 1.361090737729900302e-13 1.040834085586084257e-13 7.205774334422682115e-14 1.521218996039172544e-13
5.953000000000000000e+03 6.009472656250000000e+01 -1.299679183959960938e+01 1.921539912862896271e-13 -1.921539912862896271e-13 0.000000000000000000e+00 1.441154866884536423e-13
5.954000000000000000e+03 7.108103942871093750e+01 -1.416990756988525391e+01 1.741395520621011328e-13 1.661331391466375207e-13 1.020818019416107336e-13 -3.202566521438160452e-13
5.955000000000000000e+03 6.182020568847656250e+01 -1.323673057556152344e+01 0.000000000000000000e+00 0.000000000000000000e+00 0.000000000000000000e+00 1.120898214740720378e-13
5.956000000000000000e+03 7.198731994628906250e+01 -3.009759330749511719e+01 -1.169061863374315502e-13 -5.010264935139535636e-14 -5.010264935139535636e-14 2.126704235351321859e-14
5.957000000000000000e+03 7.169732666015625000e+01 -1.426708030700683594e+01 2.321860694161348437e-13 3.282630515067525012e-13 1.681347389873716347e-13 5.604491073703601889e-14
5.958000000000000000e+03 7.235609436035156250e+01 -1.375093650817871094e+01 3.102486258350911630e-13 2.702165477052459464e-13 1.741395520621011328e-13 -5.604491073703601889e-14
5.959000000000000000e+03 2.302413940429687500e+01 -1.463193321228027344e+01 -1.160930347080674219e-13 -4.003208151797700565e-15 -3.602887167211341057e-14 -2.081668171172168513e-13
5.960000000000000000e+03 6.772948455810546875e+01 -3.184515190124511719e+01 -8.807057595141762341e-14 8.807057595141762341e-14 0.000000000000000000e+00 6.004812227696550847e-15
5.961000000000000000e+03 1.501371765136718750e+01 -2.404253768920898438e+01 -6.505213034913026604e-14 -8.506816941405287436e-14 -4.503609128420765773e-14 7.005614350349270714e-14
5.962000000000000000e+03 2.150427055358886719e+01 -1.937083053588867188e+01 -2.001604075898850282e-15 2.201764398785440585e-14 6.004812227696550847e-15 -4.003208151797700565e-14
5.963000000000000000e+03 2.142450523376464844e+01 -1.818576240539550781e+01 2.602085213965210642e-14 3.402726844324750755e-14 1.801443583605670529e-14 7.205774334422682115e-14
5.964000000000000000e+03 2.287292289733886719e+01 -1.932575798034667969e+01 -4.103288143834406265e-14 -1.090874217129708668e-13 -4.503609128420765773e-14 4.003208151797700565e-15
5.965000000000000000e+03 1.225042247772216797e+01 -2.365567970275878906e+01 1.090874217129708668e-13 -1.591275125990138095e-13 -1.501202929869195624e-14 7.205774334422682115e-14
5.966000000000000000e+03 1.658963012695312500e+01 -2.397164916992187500e+01 -6.805453688649501509e-14 -2.121700303512122354e-13 -8.406736949368581735e-14 1.200962445539310169e-14
5.967000000000000000e+03 2.186121368408203125e+01 -1.449670982360839844e+01 4.803849782157240678e-14 -2.081668171172168513e-13 -4.803849782157240678e-14 -1.321058605389946461e-13
5.968000000000000000e+03 1.972529220581054688e+01 -2.148738479614257812e+01 -8.807057595141762341e-14 -7.205774334422682115e-14 -4.803849782157240678e-14 4.803849782157240678e-14
5.969000000000000000e+03 1.814395332336425781e+01 -2.170340347290039062e+01 -4.791339444339473563e-14 2.164234401771675947e-14 -7.881315466516571749e-15 8.681957605095880215e-14
5.970000000000000000e+03 1.086681270599365234e+01 -2.430992698669433594e+01 1.230986477031639770e-13 -1.531227130768114675e-13 -9.007217918028352643e-15 1.601283260719080226e-14
5.971000000000000000e+03 7.117063140869140625e+01 -3.085791587829589844e+01 -1.468676932457266271e-13 -1.558749060815572962e-13 -9.082278250869060821e-14 -5.066560100066772043e-14
5.972000000000000000e+03 9.124694824218750000e+00 -3.040133857727050781e+01 1.120898214740720378e-13 -3.202566521438160452e-14 2.401924891078620339e-14 -5.604491073703601889e-14
5.973000000000000000e+03 7.406900882720947266e+00 -3.108672904968261719e+01 7.656135653840573374e-14 2.386912824510478703e-13 9.457578898633065001e-14 -2.802245536851800944e-14
5.974000000000000000e+03 7.903528690338134766e+00 -2.995334053039550781e+01 9.607699564314481355e-14 6.405133042876320904e-14 4.803849782157240678e-14 -1.841475648182988589e-13
5.975000000000000000e+03 9.423686027526855469e+00 -2.910282707214355469e+01 1.180946345488015359e-13 -1.781427517435693608e-13 -1.801443583605670529e-14 -1.040834085586084257e-13
5.976000000000000000e+03 7.081231689453125000e+01 -3.193363571166992188e+01 -4.603689120457471473e-14 2.602085213965210642e-14 -6.004812227696550847e-15 -4.403528797570881170e-14
5.977000000000000000e+03 7.297810363769531250e+01 -4.139327621459960938e+01 -7.606094980195862720e-14 -4.403528797570881170e-14 -3.602887167211341057e-14 -1.301042606982605321e-14
5.978000000000000000e+03 1.245131015777587891e+01 -3.518672943115234375e+01 8.106496295632106830e-14 -1.100882199392720293e-14 2.101684237342145434e-14 -2.101684237342145434e-14
5.979000000000000000e+03 6.482879638671875000e+01 -1.360553646087646484e+01 -1.321058605389946461e-13 -7.886319635524996485e-13 -2.762213472274482884e-13 1.321058605389946461e-13
5.980000000000000000e+03 4.838172912597656250e+01 -1.267858886718750000e+01 4.803849782157240678e-14 -4.803849782157240678e-14 0.000000000000000000e+00 -2.401924891078620339e-14
5.981000000000000000e+03 4.925806427001953125e+01 -1.364709758758544922e+01 8.006416303595401129e-14 2.401924687790712998e-13 9.607699564314481355e-14 1.080866150163402317e-13
5.982000000000000000e+03 5.248602294921875000e+01 -1.319958400726318359e+01 -9.607699564314481355e-14 4.163336342344337027e-13 9.607699564314481355e-14 3.202566521438160452e-14
5.983000000000000000e+03 5.443927383422851562e+01 -1.380992412567138672e+01 -5.004010189747125706e-15 4.153328343140666457e-13 1.230986477031639770e-13 6.505213034913026604e-14
5.984000000000000000e+03 6.529898071289062500e+01 -1.375270080566406250e+01 -1.761411519028352468e-13 1.601283260719080226e-14 -4.803849782157240678e-14 -6.405133042876320904e-14
5.985000000000000000e+03 4.118946838378906250e+01 -1.453960895538330078e+01 1.981587908084919691e-13 -1.781427517435693608e-13 6.004812227696550847e-15 -7.005614350349270714e-14
5.986000000000000000e+03 3.480832290649414062e+01 -1.337760162353515625e+01 1.481186999224490264e-13 -2.802245536851800944e-14 3.602887167211341057e-14 -2.401924891078620339e-14
5.987000000000000000e+03 3.597808456420898438e+01 -1.400446033477783203e+01 1.160930347080674219e-13 -3.162534253572935050e-13 -6.004811719476782494e-14 -9.207378240914942946e-14
5.988000000000000000e+03 4.097110748291015625e+01 -1.379631519317626953e+01 3.202566521438160452e-13 -1.601283260719080226e-13 4.803849782157240678e-14 -4.803849782157240678e-14
5.989000000000000000e+03 4.201849746704101562e+01 -1.346423721313476562e+01 1.641315257533762506e-13 -4.403528797570881170e-14 3.602887167211341057e-14 -3.202566521438160452e-14
5.990000000000000000e+03 4.374096298217773438e+01 -1.347242927551269531e+01 7.706175649858926224e-14 3.302646513474866152e-14 3.302646513474866152e-14 -8.106496295632106830e-14
5.991000000000000000e+03 3.926443481445312500e+01 -1.310503005981445312e+01 9.207378240914942946e-14 -3.722983564231202580e-13 -8.406736949368581735e-14 2.161732300326804634e-13
5.992000000000000000e+03 4.142397689819335938e+01 -1.392013835906982422e+01 1.561251128379126385e-13 4.403528797570881170e-14 6.004811719476782494e-14 2.081668171172168513e-13
5.993000000000000000e+03 3.675065612792968750e+01 -1.326098155975341797e+01 2.081668171172168513e-13 -4.803849782157240678e-14 4.803849782157240678e-14 -2.802245740139708285e-13
5.994000000000000000e+03 4.304216384887695312e+01 -1.349791908264160156e+01 -4.753809447325708926e-14 1.626303258728256651e-13 3.452766840343103605e-14 -6.405133042876320904e-14
5.995000000000000000e+03 3.882024383544921875e+01 -1.313322448730468750e+01 2.321860694161348437e-13 8.006416303595401129e-15 7.205774334422682115e-14 -2.161732300326804634e-13
5.996000000000000000e+03 4.052582931518554688e+01 -1.369774055480957031e+01 7.606094980195862720e-14 -1.961571909677578551e-13 -3.602887167211341057e-14 1.801443651368306309e-13
5.997000000000000000e+03 3.837958908081054688e+01 -1.323011589050292969e+01 1.581267126786467525e-13 -2.982389996856321668e-13 -4.203368474684290867e-14 -1.040834085586084257e-13
5.998000000000000000e+03 3.967522811889648438e+01 -1.356476497650146484e+01 1.361090737729900302e-13 -2.161732300326804634e-13 -2.401924891078620339e-14 1.521218996039172544e-13
5.999000000000000000e+03 5.204831314086914062e+01 -1.386434745788574219e+01 6.405133042876320904e-14 2.562053217150528361e-13 9.607699564314481355e-14 -1.281026608575264181e-13
6.000000000000000000e+03 3.386676025390625000e+01 -1.337398910522460938e+01 -1.200962445539310169e-14 1.321058605389946461e-13 3.602887167211341057e-14 -8.807057595141762341e-14
6.001000000000000000e+03 3.476163101196289062e+01 -1.388911533355712891e+01 -5.604491073703601889e-14 -2.401924891078620339e-14 -2.401924891078620339e-14 -2.161732300326804634e-13
6.002000000000000000e+03 3.715776062011718750e+01 -1.334316730499267578e+01 1.200962343895356499e-13 -4.003208151797700565e-14 2.401924891078620339e-14 -1.441154866884536423e-13
6.003000000000000000e+03 3.432969665527343750e+01 -1.335585308074951172e+01 -9.607699564314481355e-14 9.607699564314481355e-14 0.000000000000000000e+00 -1.120898214740720378e-13
6.004000000000000000e+03 3.887137603759765625e+01 -1.352590179443359375e+01 -5.204170427930421283e-14 -3.883111822540474822e-13 -1.321058605389946461e-13 1.441154866884536423e-13
6.005000000000000000e+03 5.042724609375000000e+01 -1.408271694183349609e+01 -8.006416303595401129e-15 -7.205774334422682115e-14 -2.401924891078620339e-14 -1.160930347080674219e-13
6.006000000000000000e+03 3.750659942626953125e+01 -1.368460464477539062e+01 6.905533680686207210e-14 1.210970478624298630e-13 5.704571743366665393e-14 -7.205774334422682115e-14
6.007000000000000000e+03 3.853643798828125000e+01 -1.363224029541015625e+01 4.043240080849747065e-13 1.961571909677578551e-13 1.801443651368306309e-13 -2.441956955655938399e-13
6.008000000000000000e+03 5.027359390258789062e+01 -1.352589130401611328e+01 1.721379386688398627e-13 1.881507780522942430e-13 1.080866150163402317e-13 -1.200962343895356499e-13
6.009000000000000000e+03 5.079359436035156250e+01 -1.345066356658935547e+01 -1.761411519028352468e-13 1.601283260719080226e-14 -4.803849782157240678e-14 -1.120898214740720378e-13
6.010000000000000000e+03 3.392845153808593750e+01 -1.388770294189453125e+01 3.202566521438160452e-14 2.882309733769072846e-13 9.607699564314481355e-14 -1.281026608575264181e-13
6.011000000000000000e+03 3.364973831176757812e+01 -1.531436634063720703e+01 2.602085213965210642e-14 -4.603689120457471473e-14 -6.004812227696550847e-15 -6.104892389139845998e-14
6.012000000000000000e+03 3.191419792175292969e+01 -1.345986557006835938e+01 -4.403528797570881170e-14 -1.561251128379126385e-13 -6.004811719476782494e-14 -1.601283260719080226e-14
6.013000000000000000e+03 2.692319869995117188e+01 -1.398946762084960938e+01 9.607699564314481355e-14 6.405133042876320904e-14 4.803849782157240678e-14 -6.405133042876320904e-14
6.014000000000000000e+03 2.988267898559570312e+01 -1.415820121765136719e+01 1.080866150163402317e-13 9.207378240914942946e-14 6.004811719476782494e-14 -1.281026608575264181e-13
6.015000000000000000e+03 6.318173980712890625e+01 -1.312469863891601562e+01 1.281026608575264181e-13 -1.281026608575264181e-13 0.000000000000000000e+00 3.362694779747432694e-13
6.016000000000000000e+03 2.872610092163085938e+01 -1.356799983978271484e+01 3.602887167211341057e-14 2.441956955655938399e-13 8.406736949368581735e-14 1.761411519028352468e-13
6.017000000000000000e+03 3.296834564208984375e+01 -1.393395423889160156e+01 4.003208151797700565e-15 2.762213472274482884e-13 8.406736949368581735e-14 1.601283260719080226e-14
6.018000000000000000e+03 3.098251724243164062e+01 -1.411346530914306641e+01 -6.004811719476782494e-14 2.001604075898850282e-14 -1.200962445539310169e-14 8.006416303595401129e-15
6.019000000000000000e+03 3.149744224548339844e+01 -1.403802108764648438e+01 1.321058605389946461e-13 -1.721379386688398627e-13 -1.200962445539310169e-14 -2.401924891078620339e-14
6.020000000000000000e+03 2.370035552978515625e+01 -1.417500019073486328e+01 -2.001604042017532392e-13 -4.003208151797700565e-14 -7.205774334422682115e-14 -1.281026608575264181e-13
6.021000000000000000e+03 2.929075050354003906e+01 -1.421311283111572266e+01 2.001604075898850282e-15 1.381106736137241442e-13 4.203368474684290867e-14 -6.405133042876320904e-14
6.022000000000000000e+03 2.577261161804199219e+01 -1.362795734405517578e+01 -8.006416303595401129e-14 -8.006416303595401129e-14 -4.803849782157240678e-14 1.601283260719080226e-14
6.023000000000000000e+03 4.482403945922851562e+01 -1.407789707183837891e+01 8.656937607086703790e-14 -1.916535777735789425e-13 -3.152526186606628700e-14 -1.240994476235310340e-13
6.024000000000000000e+03 2.732785224914550781e+01 -1.386472415924072266e+01 -5.604491073703601889e-14 -2.401924891078620339e-14 -2.401924891078620339e-14 6.405133042876320904e-14
6.025000000000000000e+03 2.868577766418457031e+01 -1.417673301696777344e+01 9.407538902614712151e-14 4.063256079257088205e-13 1.501202997631831404e-13 -1.681347389873716347e-13
6.026000000000000000e+03 5.470933532714843750e+01 -1.352262783050537109e+01 -2.201764398785440585e-14 8.206576287668812530e-14 1.801443583605670529e-14 4.003208151797700565e-14
6.027000000000000000e+03 6.636174011230468750e+01 -1.281270503997802734e+01 4.003208151797700565e-15 2.762213472274482884e-13 8.406736949368581735e-14 -1.601283260719080226e-14
6.028000000000000000e+03 2.770634651184082031e+01 -1.386576461791992188e+01 -2.121700303512122354e-13 9.207378240914942946e-14 -3.602887167211341057e-14 -1.281026608575264181e-13
6.029000000000000000e+03 4.448957061767578125e+01 -1.351902770996093750e+01 3.402726844324750755e-14 1.861491782115601290e-13 6.605293026949732305e-14 1.210970478624298630e-13
6.030000000000000000e+03 5.350619888305664062e+01 -1.376830196380615234e+01 1.481186999224490264e-13 -2.802245536851800944e-14 3.602887167211341057e-14 -1.801443651368306309e-13
6.031000000000000000e+03 2.644591903686523438e+01 -1.410497570037841797e+01 -1.040834085586084257e-13 2.401924891078620339e-14 -2.401924891078620339e-14 1.521218996039172544e-13
6.032000000000000000e+03 2.318133163452148438e+01 -1.398968219757080078e+01 -1.521218996039172544e-13 -2.481988952470620680e-13 -1.200962343895356499e-13 -2.401924891078620339e-14
6.033000000000000000e+03 2.129713630676269531e+01 -1.618605422973632812e+01 1.060850151756061177e-13 -4.603689120457471473e-14 1.801443583605670529e-14 -3.202566521438160452e-14
6.034000000000000000e+03 4.945786285400390625e+01 -1.255686759948730469e+01 8.406736949368581735e-14 3.602887167211341057e-14 3.602887167211341057e-14 -7.606094980195862720e-14
6.035000000000000000e+03 2.532902145385742188e+01 -1.426154136657714844e+01 4.803849782157240678e-14 -2.081668171172168513e-13 -4.803849782157240678e-14 7.606094980195862720e-14
6.036000000000000000e+03 6.804428863525390625e+01 -1.395114231109619141e+01 -6.805453688649501509e-14 -5.204170427930421283e-14 -3.602887167211341057e-14 -5.604491073703601889e-14
6.037000000000000000e+03 5.551632690429687500e+01 -1.389181804656982422e+01 -1.401122870069854143e-13 -6.004811719476782494e-14 -6.004811719476782494e-14 -5.604491073703601889e-14
6.038000000000000000e+03 5.608236694335937500e+01 -1.391707801818847656e+01 1.561251128379126385e-13 -1.160930347080674219e-13 1.200962445539310169e-14 2.241796429481440756e-13
6.039000000000000000e+03 2.166005134582519531e+01 -1.389009666442871094e+01 -2.001604075898850282e-15 -5.384314955697577787e-13 -1.621299259126421366e-13 -1.020818019416107336e-13
6.040000000000000000e+03 2.127233505249023438e+01 -1.535723304748535156e+01 1.281026608575264181e-13 -1.281026608575264181e-13 0.000000000000000000e+00 -9.207378240914942946e-14
6.041000000000000000e+03 6.546697235107421875e+01 -1.338570117950439453e+01 -3.202566521438160452e-14 -2.882309733769072846e-13 -9.607699564314481355e-14 1.641315257533762506e-13
6.042000000000000000e+03 6.583279418945312500e+01 -1.355262184143066406e+01 -2.401924891078620339e-14 -5.604491073703601889e-14 -2.401924891078620339e-14 1.180946345488015359e-13
6.043000000000000000e+03 5.190524673461914062e+01 -1.322128963470458984e+01 8.006416303595401129e-15 7.205774334422682115e-14 2.401924891078620339e-14 -1.040834085586084257e-13
6.044000000000000000e+03 6.611759185791015625e+01 -1.331062984466552734e+01 1.000802037949425141e-14 -2.702165477052459464e-13 -7.806255641895631925e-14 -2.081668171172168513e-13
6.045000000000000000e+03 5.409692001342773438e+01 -1.335029029846191406e+01 -5.804651735403371093e-14 1.581267126786467525e-13 3.002405859738391247e-14 -2.001604042017532392e-13
6.046000000000000000e+03 4.609852981567382812e+01 -1.279960632324218750e+01 2.331868693365019007e-13 2.371900690179701288e-13 1.411130869273524713e-13 1.040834085586084257e-13
6.047000000000000000e+03 4.808964157104492188e+01 -1.341593265533447266e+01 1.120898214740720378e-13 -2.722181475459800604e-13 -4.803849782157240678e-14 5.804651735403371093e-14
6.048000000000000000e+03 2.127676963806152344e+01 -1.358380603790283203e+01 -1.641315257533762506e-13 -1.160930347080674219e-13 -8.406736949368581735e-14 -4.403528797570881170e-14
6.049000000000000000e+03 5.150214385986328125e+01 -1.393602085113525391e+01 -1.681347389873716347e-13 -7.205774334422682115e-14 -7.205774334422682115e-14 -1.040834085586084257e-13
6.050000000000000000e+03 6.070564651489257812e+01 -1.343216896057128906e+01 2.662133209187234062e-13 1.140914348673333079e-13 1.140914348673333079e-13 2.241796429481440756e-13
6.051000000000000000e+03 6.319522857666015625e+01 -1.372847557067871094e+01 1.979085976046637829e-13 3.477786838352280030e-14 6.980593674713736485e-14 1.556247128777291100e-13
6.052000000000000000e+03 7.282281494140625000e+01 -1.529330444335937500e+01 1.281026608575264181e-13 -1.281026608575264181e-13 0.000000000000000000e+00 -7.205774334422682115e-14
6.053000000000000000e+03 5.764897918701171875e+01 -1.443060302734375000e+01 3.923143819355157103e-13 8.006416303595401129e-15 1.200962343895356499e-13 1.080866150163402317e-13
6.054000000000000000e+03 7.161045837402343750e+01 -1.669467353820800781e+01 4.003208151797700565e-15 1.160930347080674219e-13 3.602887167211341057e-14 -2.361892690976030718e-13
6.055000000000000000e+03 7.354615020751953125e+01 -1.476275444030761719e+01 9.607699564314481355e-14 -9.607699564314481355e-14 0.000000000000000000e+00 -8.006416303595401129e-14
6.056000000000000000e+03 4.574238967895507812e+01 -1.316214084625244141e+01 1.220978477827969200e-13 -2.221780431074099615e-13 -3.002405859738391247e-14 -4.803849782157240678e-14
6.057000000000000000e+03 8.924365997314453125e+00 -2.489679145812988281e+01 1.421138868477195283e-13 -4.423544863740858091e-13 -9.007218256841531545e-14 -1.200962445539310169e-14
6.058000000000000000e+03 9.284256935119628906e+00 -2.672694969177246094e+01 1.581267126786467525e-13 -2.982389996856321668e-13 -4.203368474684290867e-14 -5.204170427930421283e-14
6.059000000000000000e+03 7.067619323730468750e+01 -2.599435043334960938e+01 -1.561251128379126385e-13 -4.403528797570881170e-14 -6.004811719476782494e-14 -8.406736949368581735e-14
6.060000000000000000e+03 7.206520080566406250e+01 -1.571329307556152344e+01 1.601283260719080226e-13 -1.601283260719080226e-13 0.000000000000000000e+00 -2.882309733769072846e-13
6.061000000000000000e+03 7.121895599365234375e+01 -2.467307472229003906e+01 4.203368474684290867e-14 1.801443583605670529e-14 1.801443583605670529e-14 -2.401924891078620339e-14
6.062000000000000000e+03 7.189004516601562500e+01 -2.646566963195800781e+01 -4.603689120457471473e-14 -5.404330750817011586e-14 -3.002405859738391247e-14 -8.506816941405287436e-14
6.063000000000000000e+03 6.679747772216796875e+01 -1.493027496337890625e+01 -2.241796429481440756e-13 -9.607699564314481355e-14 -9.607699564314481355e-14 -1.641315257533762506e-13
6.064000000000000000e+03 7.204612731933593750e+01 -1.766232681274414062e+01 -4.003208151797700565e-14 1.200962343895356499e-13 2.401924891078620339e-14 -2.321860694161348437e-13
6.065000000000000000e+03 5.873028564453125000e+01 -1.445119380950927734e+01 2.942358000041639388e-13 -1.140914348673333079e-13 5.404330750817011586e-14 1.521218996039172544e-13
6.066000000000000000e+03 7.149093627929687500e+01 -2.559567070007324219e+01 -1.090874217129708668e-13 -1.000802037949425141e-15 -3.302646513474866152e-14 -5.604491073703601889e-14
6.067000000000000000e+03 7.001192474365234375e+01 -2.913436126708984375e+01 -8.850842422251231634e-14 7.818765471493630687e-15 -2.420689889585502658e-14 -6.204972381176551699e-14
6.068000000000000000e+03 7.163499450683593750e+01 -2.783103561401367188e+01 -6.655333022968085155e-14 -2.852285871683332696e-14 -2.852285871683332696e-14 4.803849782157240678e-14
6.069000000000000000e+03 7.180012512207031250e+01 -1.865653610229492188e+01 -8.306656957331876034e-14 1.931547912066566841e-13 3.302646513474866152e-14 -1.040834085586084257e-13
6.070000000000000000e+03 6.916319274902343750e+01 -1.321823978424072266e+01 -2.602085213965210642e-14 1.261010474642651480e-13 3.002405859738391247e-14 -1.200962343895356499e-13
6.071000000000000000e+03 7.098951721191406250e+01 -2.111070060729980469e+01 1.120898214740720378e-13 4.803849782157240678e-14 4.803849782157240678e-14 -1.601283260719080226e-13
6.072000000000000000e+03 7.206933593750000000e+01 -2.009882545471191406e+01 -1.501202997631831404e-13 -1.901523778930283570e-13 -1.020818019416107336e-13 -6.805453688649501509e-14
6.073000000000000000e+03 4.684489440917968750e+01 -1.259678554534912109e+01 6.004812227696550847e-15 9.407538902614712151e-14 3.002405859738391247e-14 -4.403528797570881170e-14
6.074000000000000000e+03 6.786610412597656250e+01 -1.321089076995849609e+01 -4.003208151797700565e-14 2.802245740139708285e-13 7.205774334422682115e-14 -7.205774334422682115e-14
6.075000000000000000e+03 6.759616088867187500e+01 -1.367049503326416016e+01 -1.561251128379126385e-13 -2.041636038832214672e-13 -1.080866150163402317e-13 5.204170427930421283e-14
6.076000000000000000e+03 7.001587677001953125e+01 -1.487008953094482422e+01 1.601283260719080226e-14 -1.761411519028352468e-13 -4.803849782157240678e-14 4.003208151797700565e-14
6.077000000000000000e+03 6.010895919799804688e+01 -1.405278205871582031e+01 2.081668171172168513e-13 -2.081668171172168513e-13 0.000000000000000000e+00 8.006416303595401129e-15
6.078000000000000000e+03 6.985228729248046875e+01 -1.415074348449707031e+01 3.602887167211341057e-14 -3.963175816169839383e-13 -1.080866150163402317e-13 -2.081668171172168513e-13
6.079000000000000000e+03 7.237309265136718750e+01 -2.243856239318847656e+01 -1.220978477827969200e-13 -9.807859548387892756e-14 -6.605293026949732305e-14 -1.281026608575264181e-13
6.080000000000000000e+03 7.185235595703125000e+01 -2.355723953247070312e+01 5.204170427930421283e-14 6.805453688649501509e-14 3.602887167211341057e-14 -1.401122870069854143e-13
6.081000000000000000e+03 7.160700225830078125e+01 -1.547254943847656250e+01 2.962373998448980528e-13 -3.763015561045884860e-13 -2.401924891078620339e-14 -8.006416303595401129e-14
6.082000000000000000e+03 7.227439880371093750e+01 -2.089962196350097656e+01 -1.000802021008766196e-13 -1.801443651368306309e-13 -8.406736949368581735e-14 -1.120898214740720378e-13
6.083000000000000000e+03 2.467290115356445312e+01 -2.083982086181640625e+01 -4.903929774193946378e-14 -1.811451650571976879e-13 -6.905533680686207210e-14 0.000000000000000000e+00
6.084000000000000000e+03 1.802462768554687500e+01 -2.348543739318847656e+01 -3.552847171192988207e-14 5.054050101062183831e-14 4.503608959014176322e-15 5.804651735403371093e-14
6.085000000000000000e+03 6.760894775390625000e+01 -3.416459655761718750e+01 -1.020818019416107336e-13 2.001604075898850282e-15 -3.002405859738391247e-14 -3.002405859738391247e-14
6.086000000000000000e+03 7.086383056640625000e+01 -2.845315551757812500e+01 -9.707779556351187056e-14 -1.331066604593617031e-13 -6.905533680686207210e-14 -1.120898214740720378e-13
6.087000000000000000e+03 2.197801208496093750e+01 -1.527149772644042969e+01 -5.204170427930421283e-14 -6.805453688649501509e-14 -3.602887167211341057e-14 -8.006416303595401129e-15
6.088000000000000000e+03 8.090959548950195312e+00 -2.330002403259277344e+01 1.801443651368306309e-13 -3.803047557860567141e-13 -6.004811719476782494e-14 -2.802245536851800944e-14
6.089000000000000000e+03 2.145910835266113281e+01 -2.069826698303222656e+01 -5.804651735403371093e-14 -8.206576287668812530e-14 -4.203368474684290867e-14 1.200962445539310169e-14
6.090000000000000000e+03 7.209030151367187500e+01 -1.922692489624023438e+01 3.702967498061225660e-14 -1.671339390670045777e-13 -3.903127820947815962e-14 -8.006416303595401129e-14
6.091000000000000000e+03 7.166521453857421875e+01 -2.271104240417480469e+01 -3.702967498061225660e-14 -1.531227130768114675e-13 -5.704571743366665393e-14 -1.080866150163402317e-13
6.092000000000000000e+03 1.210093307495117188e+01 -2.499821281433105469e+01 1.341074739322559162e-13 -1.941555911270237411e-13 -1.801443583605670529e-14 8.606896933441993136e-14
6.093000000000000000e+03 1.052284908294677734e+01 -2.513960075378417969e+01 1.725757937161981337e-13 -2.920465247673725839e-13 -3.584122338111048189e-14 -2.314354559233323949e-14
6.094000000000000000e+03 1.057017421722412109e+01 -3.090440940856933594e+01 9.407538902614712151e-14 -1.140914348673333079e-13 -6.004812227696550847e-15 -2.001604075898850282e-15
6.095000000000000000e+03 9.442829132080078125e+00 -2.785501861572265625e+01 2.141716301919463494e-13 4.603689120457471473e-14 7.806255641895631925e-14 -5.604491073703601889e-14
6.096000000000000000e+03 7.037878417968750000e+01 -2.752752494812011719e+01 -1.160930347080674219e-13 -4.003208151797700565e-15 -3.602887167211341057e-14 -7.606094980195862720e-14
6.097000000000000000e+03 1.357811260223388672e+01 -2.394875526428222656e+01 -5.804651735403371093e-14 -3.222582519845501592e-13 -1.140914348673333079e-13 1.200962343895356499e-13
6.098000000000000000e+03 1.195746326446533203e+01 -3.175711441040039062e+01 1.104635182153437811e-13 -8.919647924996235155e-14 6.380112621350670851e-15 2.364394724658266250e-14
6.099000000000000000e+03 9.692473411560058594e+00 -2.477163887023925781e+01 2.401924687790712998e-13 -2.401924687790712998e-13 0.000000000000000000e+00 2.802245536851800944e-14
6.100000000000000000e+03 2.254394912719726562e+01 -1.807478904724121094e+01 1.661331391466375207e-13 -6.605293026949732305e-14 3.002405859738391247e-14 -1.040834085586084257e-13
6.101000000000000000e+03 1.905748939514160156e+01 -2.256122779846191406e+01 4.003208151797700565e-15 -1.240994476235310340e-13 -3.602887167211341057e-14 1.200962445539310169e-14
6.102000000000000000e+03 1.931161499023437500e+01 -2.483617973327636719e+01 -7.606094980195862720e-14 -8.406736949368581735e-14 -4.803849782157240678e-14 2.151724233360498284e-14
6.103000000000000000e+03 6.835276031494140625e+01 -3.678133010864257812e+01 -1.045838085187919542e-13 -1.050842118671072717e-14 -3.452766840343103605e-14 -3.803047490097931360e-14
6.104000000000000000e+03 6.964262390136718750e+01 -3.387894821166992188e+01 -1.361090737729900302e-13 -2.401924891078620339e-14 -4.803849782157240678e-14 -4.203368474684290867e-14
6.105000000000000000e+03 1.262312698364257812e+01 -3.323157882690429688e+01 4.803849782157240678e-14 3.202566521438160452e-14 2.401924891078620339e-14 -1.200962445539310169e-14
6.106000000000000000e+03 7.394739532470703125e+01 -3.946185684204101562e+01 -4.128308141843582690e-14 -8.631917609077527365e-14 -3.828067826920286687e-14 -2.602085213965210642e-14
6.107000000000000000e+03 7.589437103271484375e+01 -3.714681243896484375e+01 -8.932157585187644466e-14 -4.828869780166417103e-14 -4.128308141843582690e-14 -1.025822086780578402e-13
6.108000000000000000e+03 2.036300849914550781e+01 -2.351511573791503906e+01 -2.702165375408505793e-14 1.701363422162375377e-14 -3.002406113848275424e-15 1.000802037949425141e-14
6.109000000000000000e+03 6.829021453857421875e+01 -2.996578407287597656e+01 -1.080866150163402317e-13 -1.200962445539310169e-14 -3.602887167211341057e-14 -6.004812227696550847e-15
6.110000000000000000e+03 9.835105895996093750e+00 -3.237122726440429688e+01 7.606094980195862720e-14 -3.602887167211341057e-14 1.200962445539310169e-14 -2.802245536851800944e-14
6.111000000000000000e+03 6.255312728881835938e+01 -1.413492679595947266e+01 9.207378240914942946e-14 2.682149478645118323e-13 1.080866150163402317e-13 1.601283260719080226e-14
6.112000000000000000e+03 6.523742675781250000e+01 -1.414492225646972656e+01 -1.080866150163402317e-13 -9.207378240914942946e-14 -6.004811719476782494e-14 4.803849782157240678e-14
6.113000000000000000e+03 4.857098007202148438e+01 -1.323565006256103516e+01 -2.321860694161348437e-13 -8.006416303595401129e-15 -7.205774334422682115e-14 6.805453688649501509e-14
6.114000000000000000e+03 4.940999984741210938e+01 -1.417128467559814453e+01 -2.401924891078620339e-14 -5.604491073703601889e-14 -2.401924891078620339e-14 -1.240994476235310340e-13
6.115000000000000000e+03 3.704428100585937500e+01 -1.487002754211425781e+01 2.026624040026708817e-13 -1.676343390271881062e-13 1.050842118671072717e-14 -1.356086738128065017e-13
6.116000000000000000e+03 4.231026458740234375e+01 -1.452834796905517578e+01 1.000802021008766196e-13 -1.401122870069854143e-13 -1.200962445539310169e-14 -1.601283260719080226e-14
6.117000000000000000e+03 4.240065383911132812e+01 -1.363174724578857422e+01 1.240994476235310340e-13 3.963175816169839383e-13 1.561251128379126385e-13 -1.080866150163402317e-13
6.118000000000000000e+03 4.168597412109375000e+01 -1.479981136322021484e+01 -6.004811719476782494e-14 -3.002405995263662808e-13 -1.080866150163402317e-13 3.202566521438160452e-14
6.119000000000000000e+03 5.258290481567382812e+01 -1.382344150543212891e+01 2.401924891078620339e-14 -1.040834085586084257e-13 -2.401924891078620339e-14 -1.120898214740720378e-13
6.120000000000000000e+03 5.485862350463867188e+01 -1.424530124664306641e+01 -2.456968818936172694e-13 2.607089349092317487e-13 4.503608959014176322e-15 1.561251128379126385e-13
6.121000000000000000e+03 6.127865219116210938e+01 -1.334053134918212891e+01 2.522020949285302960e-13 1.080866150163402317e-13 1.080866150163402317e-13 2.882309733769072846e-13
6.122000000000000000e+03 4.184935379028320312e+01 -1.395802497863769531e+01 1.601283260719080226e-13 1.601283260719080226e-13 9.607699564314481355e-14 -8.006416303595401129e-14
6.123000000000000000e+03 4.273344039916992188e+01 -1.387702465057373047e+01 2.026624040026708817e-13 -1.876503780921107145e-13 4.503608959014176322e-15 -7.606094980195862720e-14
6.124000000000000000e+03 3.433042526245117188e+01 -1.383099079132080078e+01 1.160930347080674219e-13 4.003208151797700565e-15 3.602887167211341057e-14 -1.681347389873716347e-13
6.125000000000000000e+03 3.555087661743164062e+01 -1.424850177764892578e+01 1.130906281707026728e-13 -4.303448466720996568e-14 2.101684237342145434e-14 -3.282630515067525012e-13
6.126000000000000000e+03 4.406045913696289062e+01 -1.395884609222412109e+01 5.404330750817011586e-14 -1.941555911270237411e-13 -4.203368474684290867e-14 -1.661331391466375207e-13
6.127000000000000000e+03 4.076541137695312500e+01 -1.432963943481445312e+01 8.406736949368581735e-14 3.602887167211341057e-14 3.602887167211341057e-14 2.161732300326804634e-13
6.128000000000000000e+03 3.784194946289062500e+01 -1.464771556854248047e+01 1.361090737729900302e-13 -5.604491073703601889e-14 2.401924891078620339e-14 -3.602887167211341057e-14
6.129000000000000000e+03 3.619035720825195312e+01 -1.456771755218505859e+01 1.481186999224490264e-13 2.922341730583755126e-13 1.321058605389946461e-13 -2.401924891078620339e-14
6.130000000000000000e+03 3.925712585449218750e+01 -1.353760910034179688e+01 2.121700303512122354e-13 -9.207378240914942946e-14 3.602887167211341057e-14 -5.604491073703601889e-14
6.131000000000000000e+03 3.820180130004882812e+01 -1.390469360351562500e+01 5.704571743366665393e-14 -6.705373696612795809e-14 -3.002406113848275424e-15 -1.441154866884536423e-13
6.132000000000000000e+03 3.963027191162109375e+01 -1.440803718566894531e+01 -1.841475648182988589e-13 -5.364298957290236647e-13 -2.161732300326804634e-13 1.761411519028352468e-13
6.133000000000000000e+03 3.248321533203125000e+01 -1.393139171600341797e+01 4.403528797570881170e-14 1.561251128379126385e-13 6.004811719476782494e-14 -5.604491073703601889e-14
6.134000000000000000e+03 3.297909927368164062e+01 -1.444993305206298828e+01 -2.161732300326804634e-13 -1.841475648182988589e-13 -1.200962343895356499e-13 1.200962343895356499e-13
6.135000000000000000e+03 3.521859359741210938e+01 -1.395963191986083984e+01 8.406736949368581735e-14 1.961571909677578551e-13 8.406736949368581735e-14 -3.002405995263662808e-13
6.136000000000000000e+03 3.396417999267578125e+01 -1.475974082946777344e+01 -4.003208151797700565e-14 -2.001604042017532392e-13 -7.205774334422682115e-14 3.202566521438160452e-14
6.137000000000000000e+03 3.860499191284179688e+01 -1.426436042785644531e+01 2.001604042017532392e-13 -4.403528865333516951e-13 -7.205774334422682115e-14 -4.003208151797700565e-14
6.138000000000000000e+03 3.779975128173828125e+01 -1.415064239501953125e+01 1.721379386688398627e-13 -2.922341730583755126e-13 -3.602887167211341057e-14 -1.761411519028352468e-13
6.139000000000000000e+03 3.467326736450195312e+01 -1.441914844512939453e+01 1.120898214740720378e-13 4.803849782157240678e-14 4.803849782157240678e-14 -1.881507780522942430e-13
6.140000000000000000e+03 5.096160888671875000e+01 -1.402385425567626953e+01 2.161732300326804634e-13 2.401924891078620339e-14 7.205774334422682115e-14 1.281026608575264181e-13
6.141000000000000000e+03 2.423469924926757812e+01 -1.480651283264160156e+01 -2.121700303512122354e-13 9.207378240914942946e-14 -3.602887167211341057e-14 -1.441154866884536423e-13
6.142000000000000000e+03 2.942784500122070312e+01 -1.478779792785644531e+01 -1.080866150163402317e-13 6.805453688649501509e-14 -1.200962445539310169e-14 -4.003208151797700565e-14
6.143000000000000000e+03 3.199612045288085938e+01 -1.396260070800781250e+01 -4.403528797570881170e-14 1.641315257533762506e-13 3.602887167211341057e-14 1.601283260719080226e-14
6.144000000000000000e+03 3.317494583129882812e+01 -1.490336704254150391e+01 5.004010189747125706e-16 -1.055846084391590112e-13 -3.152526186606628700e-14 -6.098637220230962441e-15
6.145000000000000000e+03 5.323210906982421875e+01 -1.436212062835693359e+01 -7.606094980195862720e-14 3.602887167211341057e-14 -1.200962445539310169e-14 -1.641315257533762506e-13
6.146000000000000000e+03 2.665937995910644531e+01 -1.464373207092285156e+01 -8.406736949368581735e-14 -3.602887167211341057e-14 -3.602887167211341057e-14 -1.401122870069854143e-13
6.147000000000000000e+03 2.814353370666503906e+01 -1.400803470611572266e+01 3.402726844324750755e-14 4.263416605431585849e-13 1.381106736137241442e-13 -1.281026608575264181e-13
6.148000000000000000e+03 3.209520339965820312e+01 -1.443327903747558594e+01 4.403528797570881170e-14 -1.641315257533762506e-13 -3.602887167211341057e-14 3.202566521438160452e-14
6.149000000000000000e+03 3.109663009643554688e+01 -1.474173641204833984e+01 8.006416303595401129e-15 7.205774334422682115e-14 2.401924891078620339e-14 9.607699564314481355e-14
6.150000000000000000e+03 3.163971900939941406e+01 -1.457489585876464844e+01 4.003208151797700565e-15 -4.403528797570881170e-14 -1.200962445539310169e-14 -8.807057595141762341e-14
6.151000000000000000e+03 5.504817962646484375e+01 -1.379262447357177734e+01 1.601283260719080226e-14 -1.761411519028352468e-13 -4.803849782157240678e-14 8.006416303595401129e-14
6.152000000000000000e+03 2.715975379943847656e+01 -1.449433803558349609e+01 1.000802037949425141e-14 2.902325732176413986e-13 9.007218256841531545e-14 -1.020818019416107336e-13
6.153000000000000000e+03 2.475610351562500000e+01 -1.421691513061523438e+01 -1.120898214740720378e-13 2.722181475459800604e-13 4.803849782157240678e-14 -1.601283260719080226e-13
6.154000000000000000e+03 3.049593925476074219e+01 -1.478355312347412109e+01 -7.205774334422682115e-14 1.521218996039172544e-13 2.401924891078620339e-14 -4.003208151797700565e-14
6.155000000000000000e+03 2.846394920349121094e+01 -1.477061653137207031e+01 2.181748434259417335e-13 -7.806255641895631925e-14 4.203368474684290867e-14 2.201764398785440585e-14
6.156000000000000000e+03 2.471878623962402344e+01 -1.608105468750000000e+01 -1.391114735340912012e-13 -1.511210996835501974e-13 -8.706977603105056640e-14 -4.003208151797700565e-14
6.157000000000000000e+03 2.590826797485351562e+01 -1.422957992553710938e+01 -6.405133042876320904e-14 6.405133042876320904e-14 0.000000000000000000e+00 -2.562053217150528361e-13
6.158000000000000000e+03 2.616215896606445312e+01 -1.479124927520751953e+01 -6.405133042876320904e-14 -2.562053217150528361e-13 -9.607699564314481355e-14 1.030826086382413687e-13
6.159000000000000000e+03 4.728882217407226562e+01 -1.311689949035644531e+01 2.126704303113957639e-13 -1.376102736535406157e-13 2.251804564210382886e-14 3.202566521438160452e-14
6.160000000000000000e+03 2.526013946533203125e+01 -1.481470394134521484e+01 -2.682149478645118323e-13 -2.522020949285302960e-13 -1.561251128379126385e-13 -1.200962445539310169e-14
6.161000000000000000e+03 2.575179862976074219e+01 -1.518552207946777344e+01 5.304250758780305885e-14 -1.431146867680865853e-13 -2.702165375408505793e-14 -3.092478259147241060e-13
6.162000000000000000e+03 6.648289489746093750e+01 -1.321801280975341797e+01 8.406736949368581735e-14 3.602887167211341057e-14 3.602887167211341057e-14 1.120898214740720378e-13
6.163000000000000000e+03 5.382714080810546875e+01 -1.362535190582275391e+01 1.581267126786467525e-13 3.422742774969456114e-13 1.501202997631831404e-13 0.000000000000000000e+00
6.164000000000000000e+03 4.960061264038085938e+01 -1.306749343872070312e+01 5.604491073703601889e-14 2.401924891078620339e-14 2.401924891078620339e-14 -1.641315257533762506e-13
6.165000000000000000e+03 2.247138977050781250e+01 -1.441024971008300781e+01 0.000000000000000000e+00 -3.202566521438160452e-13 -9.607699564314481355e-14 -6.004811719476782494e-14
6.166000000000000000e+03 2.230919456481933594e+01 -1.701897048950195312e+01 1.020818019416107336e-13 -2.001604075898850282e-15 3.002405859738391247e-14 -1.361090737729900302e-13
6.167000000000000000e+03 6.683798217773437500e+01 -1.385128307342529297e+01 -6.805453688649501509e-14 -3.722983564231202580e-13 -1.321058605389946461e-13 2.201764398785440585e-14
6.168000000000000000e+03 6.684769439697265625e+01 -1.310671138763427734e+01 -1.000802021008766196e-13 -2.001604075898850282e-14 -3.602887167211341057e-14 -6.004811719476782494e-14
6.169000000000000000e+03 6.569623565673828125e+01 -1.386096286773681641e+01 2.081668171172168513e-13 2.722181475459800604e-13 1.441154866884536423e-13 3.843079825725792542e-13
6.170000000000000000e+03 6.607302093505859375e+01 -1.385256385803222656e+01 -1.000802037949425141e-14 -3.702967294773318319e-13 -1.140914348673333079e-13 -3.362694779747432694e-13
6.171000000000000000e+03 5.671236038208007812e+01 -1.474167919158935547e+01 1.881507780522942430e-13 -1.481186999224490264e-13 1.200962445539310169e-14 0.000000000000000000e+00
6.172000000000000000e+03 4.646727752685546875e+01 -1.316136360168457031e+01 2.251804564210382886e-13 -3.152526254369264480e-13 -2.702165375408505793e-14 2.001604042017532392e-13
6.173000000000000000e+03 4.528883743286132812e+01 -1.354934215545654297e+01 3.227586383922065316e-13 9.257418236933295796e-14 1.245998475837145625e-13 7.405934996122451319e-14
6.174000000000000000e+03 6.742607879638671875e+01 -1.481051921844482422e+01 -3.292638514271195582e-13 -1.411130869273524713e-13 -1.411130869273524713e-13 -4.403528797570881170e-14
6.175000000000000000e+03 5.699942398071289062e+01 -1.425099945068359375e+01 0.000000000000000000e+00 1.601283260719080226e-13 4.803849782157240678e-14 8.807057595141762341e-14
6.176000000000000000e+03 6.517683410644531250e+01 -1.515204143524169922e+01 1.160930347080674219e-13 4.003208151797700565e-15 3.602887167211341057e-14 -1.220978477827969200e-13
6.177000000000000000e+03 7.231113433837890625e+01 -1.441233825683593750e+01 2.161732300326804634e-13 -1.361090737729900302e-13 2.401924891078620339e-14 -1.361090737729900302e-13
6.178000000000000000e+03 6.887006378173828125e+01 -1.382239437103271484e+01 2.802245536851800944e-14 -3.082470259943570490e-13 -8.406736949368581735e-14 -1.080866150163402317e-13
6.179000000000000000e+03 7.101295471191406250e+01 -1.646562194824218750e+01 1.871499781319271860e-13 6.305052373213257400e-14 7.506014988159157020e-14 -1.431146867680865853e-13
6.180000000000000000e+03 6.810340881347656250e+01 -1.470721912384033203e+01 -2.752205540833448094e-14 -3.778027695376662276e-13 -1.215974478226133915e-13 -8.206576287668812530e-14
6.181000000000000000e+03 5.850838851928710938e+01 -1.544455718994140625e+01 1.281026608575264181e-13 -1.281026608575264181e-13 0.000000000000000000e+00 4.003208151797700565e-14
6.182000000000000000e+03 7.026820373535156250e+01 -2.386514472961425781e+01 -1.100882216333379238e-13 9.007218256841531545e-14 -6.004812227696550847e-15 -6.004811719476782494e-14
6.183000000000000000e+03 7.099650573730468750e+01 -2.287278747558593750e+01 -2.461972954063279539e-13 -1.741395520621011328e-13 -1.261010474642651480e-13 -5.604491073703601889e-14
6.184000000000000000e+03 7.123369598388671875e+01 -2.214627838134765625e+01 6.505213034913026604e-14 4.503609128420765773e-14 3.302646513474866152e-14 -8.907137587178468041e-14
6.185000000000000000e+03 2.213120079040527344e+01 -1.609406089782714844e+01 6.405133042876320904e-14 -6.405133042876320904e-14 0.000000000000000000e+00 -1.401122870069854143e-13
6.186000000000000000e+03 6.777091979980468750e+01 -1.511557769775390625e+01 2.717177340332693758e-13 -6.655333022968085155e-14 6.154932385158198849e-14 5.204170427930421283e-14
6.187000000000000000e+03 7.151695251464843750e+01 -1.805172157287597656e+01 2.682149478645118323e-13 -6.805453688649501509e-14 6.004811719476782494e-14 -1.881507780522942430e-13
6.188000000000000000e+03 7.166439819335937500e+01 -1.489938449859619141e+01 1.240994476235310340e-13 -4.043240080849747065e-13 -8.406736949368581735e-14 -1.040834085586084257e-13
6.189000000000000000e+03 7.054121398925781250e+01 -1.480163764953613281e+01 -3.602887167211341057e-14 7.606094980195862720e-14 1.200962445539310169e-14 -5.604491073703601889e-14
6.190000000000000000e+03 6.772776794433593750e+01 -1.439352607727050781e+01 1.611291259922750796e-13 6.905533680686207210e-14 6.905533680686207210e-14 1.000802021008766196e-13
6.191000000000000000e+03 7.115222930908203125e+01 -2.695971107482910156e+01 -1.881507780522942430e-13 1.481186999224490264e-13 -1.200962445539310169e-14 8.006416303595401129e-15
6.192000000000000000e+03 7.107074737548828125e+01 -2.374671745300292969e+01 1.621299259126421366e-13 1.381106736137241442e-13 9.007218256841531545e-14 -2.001604075898850282e-14
6.193000000000000000e+03 7.015044403076171875e+01 -1.552849674224853516e+01 -2.802245536851800944e-14 -1.200962445539310169e-14 -1.200962445539310169e-14 -2.001604042017532392e-13
6.194000000000000000e+03 6.289350128173828125e+01 -1.344555282592773438e+01 1.881507780522942430e-13 1.721379386688398627e-13 1.080866150163402317e-13 8.406736949368581735e-14
6.195000000000000000e+03 6.279526901245117188e+01 -1.306283378601074219e+01 3.282630515067525012e-13 -8.807057595141762341e-14 7.205774334422682115e-14 5.604491073703601889e-14
6.196000000000000000e+03 7.115159606933593750e+01 -1.905819129943847656e+01 1.240994476235310340e-13 -8.406736949368581735e-14 1.200962445539310169e-14 -8.006416303595401129e-14
6.197000000000000000e+03 7.157697296142578125e+01 -1.968640708923339844e+01 1.986592043212026537e-13 1.766415518630187753e-13 1.125902282105191443e-13 -1.971579908881249121e-13
6.198000000000000000e+03 4.563933563232421875e+01 -1.415174293518066406e+01 7.430954994131627744e-14 -1.969077976842967259e-13 -3.677947500052049234e-14 -5.904731727440076794e-14
6.199000000000000000e+03 4.606830978393554688e+01 -1.365702915191650391e+01 9.107298248878237246e-14 -1.611291259922750796e-13 -2.101684237342145434e-14 1.115894215138885093e-13
6.200000000000000000e+03 5.971211624145507812e+01 -1.489460563659667969e+01 2.001604042017532392e-13 -2.802245740139708285e-13 -2.401924891078620339e-14 -2.401924891078620339e-14
6.201000000000000000e+03 5.940907287597656250e+01 -1.420011138916015625e+01 2.481988952470620680e-13 1.521218996039172544e-13 1.200962343895356499e-13 0.000000000000000000e+00
6.202000000000000000e+03 7.158392333984375000e+01 -2.143598747253417969e+01 -1.381106736137241442e-13 -2.421940957248597259e-13 -1.140914348673333079e-13 -4.003208151797700565e-15
6.203000000000000000e+03 7.111656188964843750e+01 -1.541718006134033203e+01 1.961571909677578551e-13 -2.361892690976030718e-13 -1.200962445539310169e-14 -9.607699564314481355e-14
6.204000000000000000e+03 7.109375762939453125e+01 -1.481009197235107422e+01 6.405133042876320904e-14 -6.405133042876320904e-14 0.000000000000000000e+00 -2.481988952470620680e-13
6.205000000000000000e+03 6.029174423217773438e+01 -1.467255020141601562e+01 3.602887302736612618e-13 -1.200962343895356499e-13 7.205774334422682115e-14 2.121700303512122354e-13
6.206000000000000000e+03 7.177798461914062500e+01 -2.069492149353027344e+01 1.541235129971785245e-13 6.605293026949732305e-14 6.605293026949732305e-14 -9.607699564314481355e-14
6.207000000000000000e+03 2.310251045227050781e+01 -2.093249130249023438e+01 -1.401122768425900472e-14 7.405934996122451319e-14 1.801443583605670529e-14 -1.200962445539310169e-14
6.208000000000000000e+03 6.922322845458984375e+01 -2.697914886474609375e+01 -6.204972381176551699e-14 4.203368474684290867e-14 -6.004812227696550847e-15 1.801443583605670529e-14
6.209000000000000000e+03 6.848456573486328125e+01 -2.838215827941894531e+01 -8.807057595141762341e-14 8.006416303595401129e-15 -2.401924891078620339e-14 -1.200962445539310169e-14
6.210000000000000000e+03 7.056457519531250000e+01 -3.003538703918457031e+01 -6.405133042876320904e-14 -9.607699564314481355e-14 -4.803849782157240678e-14 -8.006416303595401129e-14
6.211000000000000000e+03 1.092228603363037109e+01 -2.934824562072753906e+01 5.304250758780305885e-14 -1.030826086382413687e-13 -1.501202929869195624e-14 2.602085213965210642e-14
6.212000000000000000e+03 1.145125961303710938e+01 -2.604517936706542969e+01 7.812510810804515482e-14 -2.714049959166159320e-13 -5.798396566494487536e-14 5.748356570476134686e-14
6.213000000000000000e+03 2.361709594726562500e+01 -1.483470153808593750e+01 -8.006416303595401129e-14 -8.006416303595401129e-14 -4.803849782157240678e-14 4.803849782157240678e-14
6.214000000000000000e+03 9.909324645996093750e+00 -2.558458709716796875e+01 2.041636038832214672e-13 -1.641315257533762506e-13 1.200962445539310169e-14 -8.006416303595401129e-15
6.215000000000000000e+03 2.110050964355468750e+01 -2.211321067810058594e+01 -2.401924891078620339e-14 2.401924891078620339e-14 0.000000000000000000e+00 3.803047490097931360e-14
6.216000000000000000e+03 7.140319824218750000e+01 -2.930219459533691406e+01 -5.604491073703601889e-14 -2.401924891078620339e-14 -2.401924891078620339e-14 1.200962445539310169e-14
6.217000000000000000e+03 6.949133300781250000e+01 -2.812775421142578125e+01 -7.205774334422682115e-14 -8.006416303595401129e-15 -2.401924891078620339e-14 -2.802245536851800944e-14
6.218000000000000000e+03 1.219706916809082031e+01 -2.749900817871093750e+01 1.281026608575264181e-13 -4.803849782157240678e-14 2.401924891078620339e-14 2.001604075898850282e-15
6.219000000000000000e+03 1.337131500244140625e+01 -3.081261444091796875e+01 1.210970478624298630e-13 -9.107298248878237246e-14 9.007217918028352643e-15 -4.128308141843582690e-14
6.220000000000000000e+03 6.625766754150390625e+01 -3.094847869873046875e+01 -8.681957605095880215e-14 5.429350748826188011e-14 -9.757819552369539906e-15 -5.629511410525957216e-14
6.221000000000000000e+03 1.831587982177734375e+01 -2.612678527832031250e+01 5.692061405548898279e-15 2.439454888092384977e-15 2.439454888092384977e-15 3.727987496070402085e-14
6.222000000000000000e+03 1.478814125061035156e+01 -3.533238601684570312e+01 6.305052373213257400e-14 2.702165375408505793e-14 2.702165375408505793e-14 2.001604075898850282e-15
6.223000000000000000e+03 1.524151515960693359e+01 -2.557164001464843750e+01 -2.702165375408505793e-14 -1.030826086382413687e-13 -3.903127820947815962e-14 6.605293026949732305e-14
6.224000000000000000e+03 6.088863372802734375e+01 -1.464637660980224609e+01 2.301844695754007297e-13 -1.301042606982605321e-13 3.002405859738391247e-14 8.006416303595401129e-14
6.225000000000000000e+03 6.537824249267578125e+01 -1.450894069671630859e+01 -7.606094980195862720e-14 3.602887167211341057e-14 -1.200962445539310169e-14 1.361090737729900302e-13
6.226000000000000000e+03 4.878745651245117188e+01 -1.374189186096191406e+01 -7.205774334422682115e-14 1.521218996039172544e-13 2.401924891078620339e-14 -2.001604075898850282e-14
6.227000000000000000e+03 5.343082046508789062e+01 -1.495066070556640625e+01 2.001604075898850282e-14 2.602085213965210642e-13 8.406736949368581735e-14 -8.006416303595401129e-15
6.228000000000000000e+03 5.273194122314453125e+01 -1.443617916107177734e+01 1.240994476235310340e-13 3.963175816169839383e-13 1.561251128379126385e-13 1.841475648182988589e-13
6.229000000000000000e+03 3.666918182373046875e+01 -1.438308906555175781e+01 9.907939540424598457e-14 -4.903929774193946378e-14 1.501202929869195624e-14 -1.761411519028352468e-13
6.230000000000000000e+03 3.661779785156250000e+01 -1.545831394195556641e+01 1.501202997631831404e-13 1.100882216333379238e-13 7.806255641895631925e-14 0.000000000000000000e+00
6.231000000000000000e+03 4.247136306762695312e+01 -1.419532012939453125e+01 2.161732300326804634e-13 1.841475648182988589e-13 1.200962343895356499e-13 -2.311852694957677867e-13
6.232000000000000000e+03 4.391570663452148438e+01 -1.488449478149414062e+01 5.804651735403371093e-14 -1.581267126786467525e-13 -3.002405859738391247e-14 -1.601283260719080226e-13
6.233000000000000000e+03 4.079968261718750000e+01 -1.515450477600097656e+01 2.041636038832214672e-13 -3.242598518252842732e-13 -3.602887167211341057e-14 3.172542252776605620e-13
6.234000000000000000e+03 4.196117782592773438e+01 -1.434257125854492188e+01 8.456776945386934585e-14 3.107490122427475354e-13 1.185950345089850644e-13 -2.281828697346666157e-13
6.235000000000000000e+03 4.219170761108398438e+01 -1.401572608947753906e+01 1.681347389873716347e-13 -2.481988952470620680e-13 -2.401924891078620339e-14 1.601283260719080226e-14
6.236000000000000000e+03 4.223698806762695312e+01 -1.502964115142822266e+01 1.281026608575264181e-13 1.921539912862896271e-13 9.607699564314481355e-14 -1.601283260719080226e-14
6.237000000000000000e+03 4.277961349487304688e+01 -1.494587802886962891e+01 1.200962343895356499e-13 -4.003208151797700565e-14 2.401924891078620339e-14 -2.401924891078620339e-14
6.238000000000000000e+03 4.336420059204101562e+01 -1.386770534515380859e+01 1.671339390670045777e-13 1.631307258330091936e-13 9.907939540424598457e-14 0.000000000000000000e+00
6.239000000000000000e+03 3.960306167602539062e+01 -1.399751853942871094e+01 2.562053217150528361e-13 6.405133042876320904e-14 9.607699564314481355e-14 8.006416303595401129e-15
6.240000000000000000e+03 3.574339675903320312e+01 -1.474565982818603516e+01 3.803047490097931360e-14 -2.582069215557869502e-13 -6.605293026949732305e-14 -9.607699564314481355e-14
6.241000000000000000e+03 3.522023773193359375e+01 -1.504184627532958984e+01 1.921539912862896271e-13 -3.202566521438160452e-14 4.803849782157240678e-14 -1.160930347080674219e-13
6.242000000000000000e+03 3.344765090942382812e+01 -1.449724769592285156e+01 -4.403528797570881170e-14 1.641315257533762506e-13 3.602887167211341057e-14 -2.081668171172168513e-13
6.243000000000000000e+03 3.919940948486328125e+01 -1.396635437011718750e+01 -1.281026608575264181e-13 -1.921539912862896271e-13 -9.607699564314481355e-14 5.604491073703601889e-14
6.244000000000000000e+03 4.037989807128906250e+01 -1.474748611450195312e+01 1.040834085586084257e-13 -2.401924891078620339e-14 2.401924891078620339e-14 2.401924891078620339e-14
6.245000000000000000e+03 3.457324981689453125e+01 -1.505541992187500000e+01 1.401122768425900472e-14 6.004812227696550847e-15 6.004812227696550847e-15 -1.681347389873716347e-13
6.246000000000000000e+03 3.419978713989257812e+01 -1.426002979278564453e+01 -1.040834085586084257e-13 -1.361090737729900302e-13 -7.205774334422682115e-14 -4.003208151797700565e-14
6.247000000000000000e+03 3.742035675048828125e+01 -1.442818641662597656e+01 -6.655333022968085155e-14 -2.852285871683332696e-14 -2.852285871683332696e-14 -1.220978477827969200e-13
6.248000000000000000e+03 6.393087387084960938e+01 -1.373930358886718750e+01 -7.005614350349270714e-14 -3.502807039649363796e-13 -1.261010474642651480e-13 2.682149478645118323e-13
6.249000000000000000e+03 3.974962234497070312e+01 -1.495466899871826172e+01 5.604491073703601889e-14 -2.962373998448980528e-13 -7.205774334422682115e-14 2.401924891078620339e-14
6.250000000000000000e+03 3.880957031250000000e+01 -1.387492370605468750e+01 2.241796429481440756e-13 -2.241796429481440756e-13 0.000000000000000000e+00 -7.606094980195862720e-14
6.251000000000000000e+03 2.662871360778808594e+01 -1.515489864349365234e+01 2.401924891078620339e-14 -1.040834085586084257e-13 -2.401924891078620339e-14 -8.807057595141762341e-14
6.252000000000000000e+03 3.514269638061523438e+01 -1.444238185882568359e+01 1.321058605389946461e-13 1.481186999224490264e-13 8.406736949368581735e-14 -1.921539912862896271e-13
6.253000000000000000e+03 3.905029296875000000e+01 -1.495477294921875000e+01 1.761411519028352468e-13 -3.362694779747432694e-13 -4.803849782157240678e-14 1.801443651368306309e-13
6.254000000000000000e+03 3.912070465087890625e+01 -1.441742801666259766e+01 1.281026608575264181e-13 -1.281026608575264181e-13 0.000000000000000000e+00 -1.521218996039172544e-13
6.255000000000000000e+03 3.840729141235351562e+01 -1.479982757568359375e+01 1.601283260719080226e-13 1.601283260719080226e-13 9.607699564314481355e-14 -2.321860694161348437e-13
6.256000000000000000e+03 5.172968673706054688e+01 -1.695802688598632812e+01 -8.206576287668812530e-14 3.422742774969456114e-13 7.806255641895631925e-14 -2.001604075898850282e-15
6.257000000000000000e+03 5.233985900878906250e+01 -1.510575389862060547e+01 2.441956955655938399e-13 1.961571909677578551e-13 1.321058605389946461e-13 1.361090737729900302e-13
6.258000000000000000e+03 3.252539825439453125e+01 -1.442926788330078125e+01 8.807057595141762341e-14 -8.006416303595401129e-15 2.401924891078620339e-14 6.405133042876320904e-14
6.259000000000000000e+03 5.000962066650390625e+01 -1.467870330810546875e+01 9.207378240914942946e-14 2.682149478645118323e-13 1.080866150163402317e-13 -2.241796429481440756e-13
6.260000000000000000e+03 6.191423416137695312e+01 -1.378465843200683594e+01 1.661331391466375207e-13 2.542037218743187221e-13 1.261010474642651480e-13 1.120898214740720378e-13
6.261000000000000000e+03 6.303868865966796875e+01 -1.413063907623291016e+01 1.961571909677578551e-13 8.406736949368581735e-14 8.406736949368581735e-14 1.441154866884536423e-13
6.262000000000000000e+03 2.757328987121582031e+01 -1.493525981903076172e+01 5.904731727440076794e-14 3.102486190588275849e-14 2.702165375408505793e-14 -1.891515779726613000e-13
6.263000000000000000e+03 2.896288681030273438e+01 -1.518311405181884766e+01 -2.129831819805763637e-14 3.568797275928237145e-13 1.006744262065616125e-13 -4.203368474684290867e-14
6.264000000000000000e+03 3.036419105529785156e+01 -1.543631744384765625e+01 -1.921539912862896271e-13 -1.281026608575264181e-13 -9.607699564314481355e-14 -3.402726844324750755e-14
6.265000000000000000e+03 2.980155944824218750e+01 -1.517494964599609375e+01 -7.205774334422682115e-14 3.122502256758252770e-13 7.205774334422682115e-14 8.006416303595401129e-14
6.266000000000000000e+03 3.233743286132812500e+01 -1.482404994964599609e+01 -2.351884725653678038e-14 -1.501203056924137712e-15 -7.506014649345978118e-15 4.303448466720996568e-14
6.267000000000000000e+03 3.188804817199707031e+01 -1.508340930938720703e+01 3.602887167211341057e-14 8.406736949368581735e-14 3.602887167211341057e-14 2.401924891078620339e-14
6.268000000000000000e+03 3.001440429687500000e+01 -1.605789184570312500e+01 -6.004811719476782494e-14 3.402726776562114974e-13 8.406736949368581735e-14 8.006416303595401129e-15
6.269000000000000000e+03 6.563607788085937500e+01 -1.421785354614257812e+01 -7.005614350349270714e-14 -3.002405859738391247e-14 -3.002405859738391247e-14 -8.006416303595401129e-14
6.270000000000000000e+03 5.446361160278320312e+01 -1.467288017272949219e+01 1.901523745048965680e-14 3.112494257554582200e-13 9.907939540424598457e-14 -8.706977603105056640e-14
6.271000000000000000e+03 5.369894409179687500e+01 -1.426269340515136719e+01 -1.681347389873716347e-13 2.481988952470620680e-13 2.401924891078620339e-14 5.204170427930421283e-14
6.272000000000000000e+03 2.722277641296386719e+01 -1.546426486968994141e+01 2.001604075898850282e-14 2.602085213965210642e-13 8.406736949368581735e-14 -1.160930347080674219e-13
6.273000000000000000e+03 5.540754699707031250e+01 -1.512362384796142578e+01 -7.806255641895631925e-14 3.783031559453226000e-13 9.007218256841531545e-14 -3.602887167211341057e-14
6.274000000000000000e+03 5.411088562011718750e+01 -1.408834362030029297e+01 -4.603689120457471473e-14 -2.942358000041639388e-13 -1.020818019416107336e-13 -4.003208151797700565e-14
6.275000000000000000e+03 5.392442703247070312e+01 -1.484675121307373047e+01 6.805453688649501509e-14 2.121700303512122354e-13 8.406736949368581735e-14 6.405133042876320904e-14
6.276000000000000000e+03 2.847451782226562500e+01 -1.569127845764160156e+01 6.204972381176551699e-14 -2.021620040424873532e-13 -4.203368474684290867e-14 6.004812227696550847e-15
6.277000000000000000e+03 2.809494400024414062e+01 -1.526172542572021484e+01 4.003208151797700565e-14 2.001604042017532392e-13 7.205774334422682115e-14 -1.441154866884536423e-13
6.278000000000000000e+03 5.219961166381835938e+01 -1.449051570892333984e+01 1.761411519028352468e-13 3.042437992078345088e-13 1.441154866884536423e-13 -8.006416303595401129e-15
6.279000000000000000e+03 2.263669013977050781e+01 -1.509284305572509766e+01 -4.203368474684290867e-14 -9.807859548387892756e-14 -4.203368474684290867e-14 -1.060850151756061177e-13
6.280000000000000000e+03 2.356037902832031250e+01 -1.773851203918457031e+01 -7.405934996122451319e-14 -6.605293026949732305e-14 -4.203368474684290867e-14 -1.601283260719080226e-14
6.281000000000000000e+03 2.638854408264160156e+01 -1.671038436889648438e+01 -8.106496295632106830e-14 1.311050606186275891e-13 1.501202929869195624e-14 -8.757017599123409490e-14
6.282000000000000000e+03 4.365107727050781250e+01 -1.432048797607421875e+01 1.401122870069854143e-13 6.004811719476782494e-14 6.004811719476782494e-14 3.002405859738391247e-14
6.283000000000000000e+03 4.781183624267578125e+01 -1.279700756072998047e+01 -1.301042606982605321e-13 -1.000802037949425141e-14 -4.203368474684290867e-14 5.604491073703601889e-14
6.284000000000000000e+03 4.975972366333007812e+01 -1.358352470397949219e+01 -1.200962445539310169e-14 -1.881507780522942430e-13 -6.004811719476782494e-14 -1.801443651368306309e-13
6.285000000000000000e+03 5.165771484375000000e+01 -1.455675697326660156e+01 1.961571909677578551e-13 4.043240080849747065e-13 1.801443651368306309e-13 -1.120898214740720378e-13
6.286000000000000000e+03 6.609388732910156250e+01 -1.426589488983154297e+01 -1.080866150163402317e-13 -9.207378240914942946e-14 -6.004811719476782494e-14 1.761411519028352468e-13
6.287000000000000000e+03 4.519467163085937500e+01 -1.471363830566406250e+01 2.226784396794617010e-14 5.529431079676072613e-14 2.326864727644501613e-14 6.004811719476782494e-14
6.288000000000000000e+03 6.660137939453125000e+01 -1.432353973388671875e+01 -1.561251128379126385e-13 1.160930347080674219e-13 -1.200962445539310169e-14 -1.521218996039172544e-13
6.289000000000000000e+03 6.641413116455078125e+01 -1.360223484039306641e+01 -1.130906281707026728e-13 4.303448466720996568e-14 -2.101684237342145434e-14 3.202566521438160452e-14
6.290000000000000000e+03 6.078194427490234375e+01 -1.400891685485839844e+01 2.201764432666758475e-13 -1.801443651368306309e-13 1.200962445539310169e-14 1.841475648182988589e-13
6.291000000000000000e+03 6.137838363647460938e+01 -1.392909049987792969e+01 -1.601283260719080226e-14 -1.441154866884536423e-13 -4.803849782157240678e-14 1.040834085586084257e-13
6.292000000000000000e+03 6.730508422851562500e+01 -1.411342811584472656e+01 -3.622903301143953758e-13 2.221780431074099615e-13 -4.203368474684290867e-14 -6.004811719476782494e-14
6.293000000000000000e+03 4.685736083984375000e+01 -1.363152217864990234e+01 6.192462212765374036e-15 -4.309703635629880125e-14 -1.107137198895014399e-14 5.429350748826188011e-14
6.294000000000000000e+03 5.601670074462890625e+01 -1.521354007720947266e+01 -8.406736949368581735e-14 -3.602887167211341057e-14 -3.602887167211341057e-14 1.441154866884536423e-13
6.295000000000000000e+03 6.996343231201171875e+01 -1.773710823059082031e+01 -1.541235129971785245e-13 -6.605293026949732305e-14 -6.605293026949732305e-14 -3.602887167211341057e-14
6.296000000000000000e+03 6.882411193847656250e+01 -1.470830535888671875e+01 0.000000000000000000e+00 -3.202566521438160452e-13 -9.607699564314481355e-14 -6.805453688649501509e-14
6.297000000000000000e+03 5.658813476562500000e+01 -1.529547405242919922e+01 1.601283260719080226e-13 1.601283260719080226e-13 9.607699564314481355e-14 2.401924891078620339e-14
6.298000000000000000e+03 6.943274688720703125e+01 -2.389221763610839844e+01 -1.281026608575264181e-13 -3.202566521438160452e-14 -4.803849782157240678e-14 -2.802245536851800944e-14
6.299000000000000000e+03 6.155439376831054688e+01 -1.461270523071289062e+01 1.781427517435693608e-13 1.220978477827969200e-13 9.007218256841531545e-14 4.803849782157240678e-14
6.300000000000000000e+03 6.979550170898437500e+01 -1.629401016235351562e+01 9.207378240914942946e-14 2.682149478645118323e-13 1.080866150163402317e-13 -1.441154866884536423e-13
6.301000000000000000e+03 6.952778625488281250e+01 -1.501778793334960938e+01 1.080866150163402317e-13 -2.281828697346666157e-13 -3.602887167211341057e-14 -1.120898214740720378e-13
6.302000000000000000e+03 5.816948318481445312e+01 -1.478294086456298828e+01 1.170938346284344789e-13 -8.706977603105056640e-14 9.007217918028352643e-15 -8.406736949368581735e-14
6.303000000000000000e+03 6.842730712890625000e+01 -1.505633163452148438e+01 -1.770168586094199997e-14 -1.905902329403866280e-13 -6.248757208286020992e-14 6.004811719476782494e-14
6.304000000000000000e+03 4.645027542114257812e+01 -1.415881824493408203e+01 -5.879711814134195094e-15 -1.204715445240686633e-13 -3.790537491093343148e-14 6.336327540131317382e-14
6.305000000000000000e+03 7.036077880859375000e+01 -2.492647933959960938e+01 -5.804651735403371093e-14 -2.001604075898850282e-15 -1.801443583605670529e-14 -1.281026608575264181e-13
6.306000000000000000e+03 6.942189788818359375e+01 -2.498125076293945312e+01 -1.641315257533762506e-13 4.403528797570881170e-14 -3.602887167211341057e-14 0.000000000000000000e+00
6.307000000000000000e+03 6.926902008056640625e+01 -2.601972389221191406e+01 -3.602887167211341057e-14 7.606094980195862720e-14 1.200962445539310169e-14 -1.200962343895356499e-13
6.308000000000000000e+03 7.120817565917968750e+01 -2.035557556152343750e+01 -2.602085213965210642e-14 1.261010474642651480e-13 3.002405859738391247e-14 -6.405133042876320904e-14
6.309000000000000000e+03 7.045717620849609375e+01 -1.936570167541503906e+01 -8.406736949368581735e-14 2.842277736954390566e-13 6.004811719476782494e-14 -1.861491782115601290e-13
6.310000000000000000e+03 4.725358963012695312e+01 -1.415802288055419922e+01 1.766415518630187753e-13 -6.154932385158198849e-14 3.452766840343103605e-14 1.401122768425900472e-14
6.311000000000000000e+03 5.910643005371093750e+01 -1.515870666503906250e+01 3.322662782932750414e-13 -1.321058605389946461e-13 6.004811719476782494e-14 -8.006416303595401129e-15
6.312000000000000000e+03 7.062696838378906250e+01 -1.543448829650878906e+01 4.803849782157240678e-14 1.120898214740720378e-13 4.803849782157240678e-14 -1.401122870069854143e-13
6.313000000000000000e+03 6.968099975585937500e+01 -1.565301990509033203e+01 -1.601283260719080226e-13 -1.601283260719080226e-13 -9.607699564314481355e-14 -1.120898214740720378e-13
6.314000000000000000e+03 6.838487243652343750e+01 -2.706278800964355469e+01 -1.020818019416107336e-13 2.001604075898850282e-15 -3.002405859738391247e-14 -6.805453688649501509e-14
6.315000000000000000e+03 2.293060302734375000e+01 -1.586130619049072266e+01 8.006416303595401129e-15 -8.807057595141762341e-14 -2.401924891078620339e-14 -1.561251128379126385e-13
6.316000000000000000e+03 2.571862602233886719e+01 -1.873399543762207031e+01 -8.419246609559991046e-14 -8.969687921014588006e-14 -5.216680426935009496e-14 -8.444267115788935824e-15
6.317000000000000000e+03 2.370161628723144531e+01 -1.562525367736816406e+01 -2.001604075898850282e-15 -1.381106736137241442e-13 -4.203368474684290867e-14 -1.120898214740720378e-13
6.318000000000000000e+03 1.037637233734130859e+01 -2.654642868041992188e+01 1.160930347080674219e-13 -2.361892690976030718e-13 -3.602887167211341057e-14 -9.807859548387892756e-14
6.319000000000000000e+03 7.019367980957031250e+01 -2.211115646362304688e+01 -2.802245536851800944e-14 -1.200962445539310169e-14 -1.200962445539310169e-14 -3.202566521438160452e-14
6.320000000000000000e+03 1.361750888824462891e+01 -2.549730110168457031e+01 6.305052373213257400e-14 -5.304250758780305885e-14 3.002406113848275424e-15 4.003208151797700565e-14
6.321000000000000000e+03 1.384410190582275391e+01 -2.733508491516113281e+01 8.306656957331876034e-14 -1.130906281707026728e-13 -9.007217918028352643e-15 2.802245536851800944e-14
6.322000000000000000e+03 1.076183032989501953e+01 -2.780761528015136719e+01 1.261010474642651480e-13 -1.060850151756061177e-13 6.004812227696550847e-15 -8.006416303595401129e-15
6.323000000000000000e+03 2.401161956787109375e+01 -1.644791793823242188e+01 5.004010105043830980e-14 -7.005614350349270714e-14 -6.004812227696550847e-15 -4.803849782157240678e-14
6.324000000000000000e+03 2.320311355590820312e+01 -1.677292442321777344e+01 -6.605293026949732305e-14 -7.405934996122451319e-14 -4.203368474684290867e-14 -3.602887167211341057e-14
6.325000000000000000e+03 6.709062957763671875e+01 -2.945442199707031250e+01 -7.155734338404329264e-14 1.065854151357896462e-13 1.050842118671072717e-14 -1.200962445539310169e-14
6.326000000000000000e+03 2.197845840454101562e+01 -2.450237274169921875e+01 -1.601283260719080226e-14 1.601283260719080226e-14 0.000000000000000000e+00 2.001604075898850282e-14
6.327000000000000000e+03 1.718967247009277344e+01 -2.701910972595214844e+01 -4.003208151797700565e-14 -1.200962343895356499e-13 -4.803849782157240678e-14 4.403528797570881170e-14
6.328000000000000000e+03 4.891688537597656250e+01 -1.457306575775146484e+01 -2.702165477052459464e-13 2.502004950877961820e-13 -6.004812227696550847e-15 2.642117210779892922e-13
6.329000000000000000e+03 6.491510772705078125e+01 -1.469452762603759766e+01 8.006416303595401129e-14 8.006416303595401129e-14 4.803849782157240678e-14 -6.405133042876320904e-14
6.330000000000000000e+03 6.562800598144531250e+01 -1.488311386108398438e+01 4.003208151797700565e-15 2.762213472274482884e-13 8.406736949368581735e-14 1.080866150163402317e-13
6.331000000000000000e+03 4.323814392089843750e+01 -1.463629531860351562e+01 1.471179000020819694e-13 -2.572061216354198931e-13 -3.302646513474866152e-14 -1.321058605389946461e-13
6.332000000000000000e+03 4.140628051757812500e+01 -1.544058036804199219e+01 2.041636038832214672e-13 3.162534253572935050e-13 1.561251128379126385e-13 -8.006416303595401129e-15
6.333000000000000000e+03 4.306014633178710938e+01 -1.543599033355712891e+01 1.771419518232023038e-13 -6.705373696612795809e-14 3.302646513474866152e-14 -8.306656957331876034e-14
6.334000000000000000e+03 4.563885879516601562e+01 -1.531140041351318359e+01 -3.052446194569922999e-14 -1.045838085187919542e-13 -4.053248147816053415e-14 -4.003208151797700565e-15
6.335000000000000000e+03 4.300654602050781250e+01 -1.421241760253906250e+01 -6.655333022968085155e-14 -2.852285871683332696e-14 -2.852285871683332696e-14 -2.001604042017532392e-13
6.336000000000000000e+03 2.579827117919921875e+01 -1.618602180480957031e+01 -7.013432803265606807e-14 -1.636467654095308255e-13 -7.013432803265606807e-14 -2.076742369652023745e-13
6.337000000000000000e+03 3.615181732177734375e+01 -1.614610290527343750e+01 6.405133042876320904e-14 -6.405133042876320904e-14 0.000000000000000000e+00 -7.205774334422682115e-14
6.338000000000000000e+03 3.272828674316406250e+01 -1.525473403930664062e+01 3.202566521438160452e-14 -3.202566521438160452e-14 0.000000000000000000e+00 -1.801443583605670529e-14
6.339000000000000000e+03 3.426518630981445312e+01 -1.575439071655273438e+01 1.431146867680865853e-13 2.271820562617724026e-13 1.110890215537049808e-13 -9.707779556351187056e-14
6.340000000000000000e+03 3.892390060424804688e+01 -1.561017608642578125e+01 2.201764432666758475e-13 -2.001604075898850282e-14 6.004811719476782494e-14 5.604491073703601889e-14
6.341000000000000000e+03 3.821445083618164062e+01 -1.544267749786376953e+01 7.606094980195862720e-14 -1.961571909677578551e-13 -3.602887167211341057e-14 8.006416303595401129e-15
6.342000000000000000e+03 5.180576324462890625e+01 -1.515389633178710938e+01 1.601283260719080226e-14 1.441154866884536423e-13 4.803849782157240678e-14 1.040834085586084257e-13
6.343000000000000000e+03 3.221241378784179688e+01 -1.560112285614013672e+01 -5.404330750817011586e-14 -1.261010474642651480e-13 -5.404330750817011586e-14 -3.402726844324750755e-14
6.344000000000000000e+03 5.110396194458007812e+01 -1.466213417053222656e+01 7.606094980195862720e-14 1.240994476235310340e-13 6.004811719476782494e-14 1.040834085586084257e-13
6.345000000000000000e+03 5.442042541503906250e+01 -1.586560821533203125e+01 1.103384216134296880e-13 3.675445364725860031e-13 1.433648935244419276e-13 -3.903127820947815962e-14
6.346000000000000000e+03 2.759167861938476562e+01 -1.648361206054687500e+01 -2.001604075898850282e-15 1.821459649775647449e-13 5.404330750817011586e-14 -1.240994476235310340e-13
6.347000000000000000e+03 2.786775398254394531e+01 -1.579495906829833984e+01 -1.140914348673333079e-13 -1.861491782115601290e-13 -9.007218256841531545e-14 -4.003208151797700565e-14
6.348000000000000000e+03 2.943524742126464844e+01 -1.566337394714355469e+01 -9.057258252859884395e-14 -8.456776945386934585e-14 -5.254210423948774134e-14 9.007218256841531545e-14
6.349000000000000000e+03 5.129928588867187500e+01 -1.524400424957275391e+01 3.662935297958636038e-13 6.144924521479799839e-13 2.942358000041639388e-13 -1.601283260719080226e-13
6.350000000000000000e+03 6.347794342041015625e+01 -1.404311943054199219e+01 1.040834085586084257e-13 1.361090737729900302e-13 7.205774334422682115e-14 1.601283260719080226e-13
6.351000000000000000e+03 5.291262054443359375e+01 -1.507302570343017578e+01 4.003208151797700565e-15 2.762213472274482884e-13 8.406736949368581735e-14 -1.321058605389946461e-13
6.352000000000000000e+03 5.585333251953125000e+01 -1.675180816650390625e+01 8.006416303595401129e-15 -8.807057595141762341e-14 -2.401924891078620339e-14 1.120898214740720378e-13
6.353000000000000000e+03 2.492344665527343750e+01 -1.519183731079101562e+01 2.001604075898850282e-15 -1.020818019416107336e-13 -3.002405859738391247e-14 -1.220978477827969200e-13
6.354000000000000000e+03 4.471162414550781250e+01 -1.530813217163085938e+01 -1.000802037949425141e-14 -5.004010105043830980e-14 -1.801443583605670529e-14 -5.204170427930421283e-14
6.355000000000000000e+03 4.990679168701171875e+01 -1.412016487121582031e+01 2.081668171172168513e-13 2.722181475459800604e-13 1.441154866884536423e-13 2.401924891078620339e-14
6.356000000000000000e+03 6.645373535156250000e+01 -1.472790527343750000e+01 -1.641315257533762506e-13 2.041636038832214672e-13 1.200962445539310169e-14 6.405133042876320904e-14
6.357000000000000000e+03 4.765254974365234375e+01 -1.372056484222412109e+01 -1.281026608575264181e-13 -1.921539912862896271e-13 -9.607699564314481355e-14 5.604491073703601889e-14
6.358000000000000000e+03 6.713475799560546875e+01 -1.519339752197265625e+01 2.101684237342145434e-14 9.007217918028352643e-15 9.007217918028352643e-15 -1.361090737729900302e-13
6.359000000000000000e+03 6.941678619384765625e+01 -1.896072959899902344e+01 -8.807057595141762341e-14 3.282630515067525012e-13 7.205774334422682115e-14 -3.202566521438160452e-14
6.360000000000000000e+03 5.596211624145507812e+01 -1.592023563385009766e+01 1.020818019416107336e-13 3.182550251980276190e-13 1.261010474642651480e-13 8.807057595141762341e-14
6.361000000000000000e+03 6.840571594238281250e+01 -1.573025131225585938e+01 -2.361892690976030718e-13 -2.842277736954390566e-13 -1.561251128379126385e-13 1.441154866884536423e-13
6.362000000000000000e+03 6.907801055908203125e+01 -1.521597194671630859e+01 2.602085213965210642e-14 -1.261010474642651480e-13 -3.002405859738391247e-14 -7.205774334422682115e-14
6.363000000000000000e+03 6.251662445068359375e+01 -1.462714195251464844e+01 1.361090737729900302e-13 1.040834085586084257e-13 7.205774334422682115e-14 8.006416303595401129e-14
6.364000000000000000e+03 5.946950531005859375e+01 -1.585653018951416016e+01 1.200962343895356499e-13 -3.602887302736612618e-13 -7.205774334422682115e-14 -5.404330750817011586e-14
6.365000000000000000e+03 7.115393829345703125e+01 -1.597109222412109375e+01 4.803849782157240678e-14 -2.081668171172168513e-13 -4.803849782157240678e-14 -7.205774334422682115e-14
6.366000000000000000e+03 7.025327301025390625e+01 -2.289801979064941406e+01 7.806255641895631925e-14 -2.181748434259417335e-13 -4.203368474684290867e-14 -5.604491073703601889e-14
6.367000000000000000e+03 6.845252227783203125e+01 -2.485024070739746094e+01 -4.603689120457471473e-14 2.602085213965210642e-14 -6.004812227696550847e-15 -4.803849782157240678e-14
6.368000000000000000e+03 6.066696929931640625e+01 -1.518120479583740234e+01 3.096231360492571194e-14 -8.788292766041469473e-14 -1.707618421664669484e-14 1.139037730238032231e-13
6.369000000000000000e+03 6.439917755126953125e+01 -1.490252685546875000e+01 -4.803849782157240678e-14 2.081668171172168513e-13 4.803849782157240678e-14 1.361090737729900302e-13
6.370000000000000000e+03 4.604538726806640625e+01 -1.470427608489990234e+01 1.810200616790200168e-13 -5.967282061276196758e-14 3.640417164225105695e-14 1.461170865291877563e-13
6.371000000000000000e+03 5.727134704589843750e+01 -1.588067340850830078e+01 2.421940957248597259e-13 5.804651735403371093e-14 9.007218256841531545e-14 1.200962343895356499e-13
6.372000000000000000e+03 5.790050125122070312e+01 -1.569877910614013672e+01 2.922341730583755126e-13 -1.200962445539310169e-14 8.406736949368581735e-14 -1.120898214740720378e-13
6.373000000000000000e+03 7.071483612060546875e+01 -1.753240966796875000e+01 1.321058605389946461e-13 -1.721379386688398627e-13 -1.200962445539310169e-14 -2.321860694161348437e-13
6.374000000000000000e+03 7.073597717285156250e+01 -1.600419044494628906e+01 1.200962445539310169e-14 -2.922341730583755126e-13 -8.406736949368581735e-14 -2.201764432666758475e-13
6.375000000000000000e+03 7.029633331298828125e+01 -1.616507148742675781e+01 -1.601283260719080226e-14 -1.441154866884536423e-13 -4.803849782157240678e-14 -2.722181475459800604e-13
6.376000000000000000e+03 7.023479461669921875e+01 -2.150867271423339844e+01 -4.803849782157240678e-14 -1.120898214740720378e-13 -4.803849782157240678e-14 -8.006416303595401129e-15
6.377000000000000000e+03 7.013827514648437500e+01 -1.856004333496093750e+01 6.805453688649501509e-14 -4.283432603838926989e-13 -1.080866150163402317e-13 -1.441154866884536423e-13
6.378000000000000000e+03 7.086905670166015625e+01 -1.830052947998046875e+01 -1.481186999224490264e-13 1.881507780522942430e-13 1.200962445539310169e-14 -1.040834085586084257e-13
6.379000000000000000e+03 6.008932113647460938e+01 -1.554233360290527344e+01 1.941555911270237411e-13 -4.543641125235448053e-13 -7.806255641895631925e-14 4.803849782157240678e-14
6.380000000000000000e+03 5.882507705688476562e+01 -1.615413284301757812e+01 2.862293735361731706e-13 1.341074739322559162e-13 1.261010474642651480e-13 1.781427517435693608e-13
6.381000000000000000e+03 4.044379806518554688e+01 -1.585270118713378906e+01 8.807057595141762341e-14 1.521218996039172544e-13 7.205774334422682115e-14 -2.001604075898850282e-15
6.382000000000000000e+03 4.111879730224609375e+01 -1.610460853576660156e+01 1.601283260719080226e-13 1.601283260719080226e-13 9.607699564314481355e-14 6.405133042876320904e-14
6.383000000000000000e+03 3.317354202270507812e+01 -1.579310512542724609e+01 1.135910281308862013e-13 2.316856559034241592e-13 1.035830085984248972e-13 -5.404330750817011586e-14
6.384000000000000000e+03 6.736199951171875000e+01 -2.588842964172363281e+01 -3.002405859738391247e-14 1.000802037949425141e-14 -6.004812227696550847e-15 -4.803849782157240678e-14
6.385000000000000000e+03 6.836299896240234375e+01 -2.592885971069335938e+01 -9.007218256841531545e-14 3.002405859738391247e-14 -1.801443583605670529e-14 -2.401924891078620339e-14
6.386000000000000000e+03 6.952989959716796875e+01 -2.208253097534179688e+01 -3.402726844324750755e-14 -1.060850151756061177e-13 -4.203368474684290867e-14 -1.601283260719080226e-13
6.387000000000000000e+03 7.069806671142578125e+01 -2.177601051330566406e+01 -4.303448466720996568e-14 -2.471980953266950110e-13 -8.706977603105056640e-14 3.202566521438160452e-14
6.388000000000000000e+03 5.298078918457031250e+01 -1.569334030151367188e+01 5.204170427930421283e-14 6.805453688649501509e-14 3.602887167211341057e-14 8.807057595141762341e-14
6.389000000000000000e+03 5.349235916137695312e+01 -1.591559505462646484e+01 -1.095878216731543953e-13 4.453568793589234021e-14 -1.951563910473907981e-14 8.606896933441993136e-14
6.390000000000000000e+03 2.407780838012695312e+01 -1.880782699584960938e+01 -1.000802037949425141e-15 -1.090874217129708668e-13 -3.302646513474866152e-14 -5.504411081666896188e-14
6.391000000000000000e+03 2.530383682250976562e+01 -1.566245841979980469e+01 -1.511210996835501974e-13 -1.901523745048965680e-14 -5.104090097080536681e-14 -6.705373696612795809e-14
6.392000000000000000e+03 2.576194763183593750e+01 -1.736408805847167969e+01 -4.928949772203122803e-14 -1.583769194350020948e-13 -6.229992379185728124e-14 -7.455974992140804170e-14
6.393000000000000000e+03 6.946620941162109375e+01 -2.292583465576171875e+01 -1.821459649775647449e-13 -7.806255641895631925e-14 -7.806255641895631925e-14 -1.040834085586084257e-13
6.394000000000000000e+03 2.444117355346679688e+01 -1.725708580017089844e+01 -1.401122768425900472e-14 -8.606896933441993136e-14 -3.002405859738391247e-14 -2.802245536851800944e-14
6.395000000000000000e+03 2.552362060546875000e+01 -2.605701065063476562e+01 2.101684237342145434e-14 9.007217918028352643e-15 9.007217918028352643e-15 2.802245536851800944e-14
6.396000000000000000e+03 2.619491195678710938e+01 -2.446411514282226562e+01 -2.802245536851800944e-14 6.805453688649501509e-14 1.200962445539310169e-14 -4.703769451307356075e-14
6.397000000000000000e+03 6.750678253173828125e+01 -2.819567680358886719e+01 -9.007218256841531545e-14 3.002405859738391247e-14 -1.801443583605670529e-14 -2.802245536851800944e-14
6.398000000000000000e+03 6.535089111328125000e+01 -2.967704200744628906e+01 -3.465276839347691817e-14 3.089976191583687637e-14 -1.125902239753544080e-15 3.052446194569922999e-14
6.399000000000000000e+03 2.490364837646484375e+01 -1.959430313110351562e+01 -3.002405859738391247e-14 9.007218256841531545e-14 1.801443583605670529e-14 -6.104892389139845998e-14
6.400000000000000000e+03 6.745746612548828125e+01 -2.707577323913574219e+01 -4.603689120457471473e-14 1.060850151756061177e-13 1.801443583605670529e-14 -8.006416303595401129e-15
6.401000000000000000e+03 2.277012443542480469e+01 -2.750576400756835938e+01 -4.603689120457471473e-14 -5.404330750817011586e-14 -3.002405859738391247e-14 2.251804564210382886e-14
6.402000000000000000e+03 1.560628509521484375e+01 -2.732860183715820312e+01 2.001604075898850282e-14 -6.004811719476782494e-14 -1.200962445539310169e-14 4.003208151797700565e-14
6.403000000000000000e+03 1.249662590026855469e+01 -2.925295066833496094e+01 1.200962343895356499e-13 -1.200962343895356499e-13 0.000000000000000000e+00 2.001604075898850282e-15
6.404000000000000000e+03 1.414837265014648438e+01 -2.935708236694335938e+01 3.202566521438160452e-14 -3.202566521438160452e-14 0.000000000000000000e+00 0.000000000000000000e+00
6.405000000000000000e+03 2.627348518371582031e+01 -1.565645694732666016e+01 -1.361090737729900302e-13 5.604491073703601889e-14 -2.401924891078620339e-14 -1.200962445539310169e-14
6.406000000000000000e+03 3.160564041137695312e+01 -1.746326255798339844e+01 1.601283260719080226e-14 1.441154866884536423e-13 4.803849782157240678e-14 -1.200962445539310169e-14
6.407000000000000000e+03 6.869386291503906250e+01 -1.694980621337890625e+01 2.001604075898850282e-14 1.000802021008766196e-13 3.602887167211341057e-14 -1.240994476235310340e-13
6.408000000000000000e+03 6.591484069824218750e+01 -1.592850017547607422e+01 -9.607699564314481355e-14 2.562053217150528361e-13 4.803849782157240678e-14 -2.301844695754007297e-13
6.409000000000000000e+03 5.053840255737304688e+01 -1.470214748382568359e+01 2.682149478645118323e-13 2.522020949285302960e-13 1.561251128379126385e-13 8.006416303595401129e-14
6.410000000000000000e+03 6.468246459960937500e+01 -1.628446006774902344e+01 3.602887167211341057e-14 4.043240080849747065e-13 1.321058605389946461e-13 -9.707779556351187056e-14
6.411000000000000000e+03 4.414173889160156250e+01 -1.565056324005126953e+01 2.101684169579509653e-13 -2.301844695754007297e-13 -6.004812227696550847e-15 3.602887167211341057e-14
6.412000000000000000e+03 3.162261009216308594e+01 -1.585916137695312500e+01 5.604491073703601889e-14 2.401924891078620339e-14 2.401924891078620339e-14 6.004811719476782494e-14
6.413000000000000000e+03 5.397332763671875000e+01 -1.645606422424316406e+01 -2.001604075898850282e-14 2.201764432666758475e-13 6.004811719476782494e-14 -8.006416303595401129e-14
6.414000000000000000e+03 5.243297576904296875e+01 -1.572483825683593750e+01 1.000802021008766196e-13 1.801443651368306309e-13 8.406736949368581735e-14 -4.003208151797700565e-14
6.415000000000000000e+03 6.808901977539062500e+01 -1.543832397460937500e+01 1.951563910473907981e-14 -1.746399520222846613e-13 -4.653729455289003225e-14 -2.241796429481440756e-13
6.416000000000000000e+03 6.623295593261718750e+01 -1.559458541870117188e+01 -2.401924687790712998e-13 4.003208084035064784e-13 4.803849782157240678e-14 -3.702967294773318319e-13
6.417000000000000000e+03 5.984623718261718750e+01 -1.656407165527343750e+01 2.762213472274482884e-13 1.641315257533762506e-13 1.321058605389946461e-13 6.805453688649501509e-14
6.418000000000000000e+03 6.419852447509765625e+01 -1.429576683044433594e+01 2.301844695754007297e-13 1.901523778930283570e-13 1.261010474642651480e-13 1.601283260719080226e-13
6.419000000000000000e+03 6.926688385009765625e+01 -1.636551284790039062e+01 4.803849782157240678e-14 1.120898214740720378e-13 4.803849782157240678e-14 -1.521218996039172544e-13
6.420000000000000000e+03 6.868559265136718750e+01 -1.542374992370605469e+01 -9.007218256841531545e-14 -1.301042606982605321e-13 -6.605293026949732305e-14 -8.006416303595401129e-14
6.421000000000000000e+03 6.309535217285156250e+01 -1.463405132293701172e+01 1.721379386688398627e-13 3.482791041242022656e-13 1.561251128379126385e-13 4.003208151797700565e-14
6.422000000000000000e+03 4.800118637084960938e+01 -1.422610187530517578e+01 8.606896933441993136e-14 1.741395520621011328e-13 7.806255641895631925e-14 4.803849782157240678e-14
6.423000000000000000e+03 6.606653594970703125e+01 -1.469546699523925781e+01 -1.000802021008766196e-13 -1.801443651368306309e-13 -8.406736949368581735e-14 -1.281026608575264181e-13
6.424000000000000000e+03 4.835527420043945312e+01 -1.461183738708496094e+01 -1.563753195942679808e-13 2.989895928496438815e-13 4.278428468711820143e-14 7.506014988159157020e-14
6.425000000000000000e+03 4.896486663818359375e+01 -1.420276165008544922e+01 -3.202566521438160452e-14 3.202566521438160452e-14 0.000000000000000000e+00 3.122502256758252770e-13
6.426000000000000000e+03 5.455101013183593750e+01 -1.711382675170898438e+01 6.054852393121493148e-14 -6.555253030931379454e-14 -1.501203056924137712e-15 7.806255641895631925e-14
6.427000000000000000e+03 5.662053298950195312e+01 -1.596354675292968750e+01 -2.802245536851800944e-14 -1.200962445539310169e-14 -1.200962445539310169e-14 4.003208151797700565e-15
6.428000000000000000e+03 7.052925109863281250e+01 -1.680981445312500000e+01 1.881507780522942430e-13 1.200962445539310169e-14 6.004811719476782494e-14 -2.001604042017532392e-13
6.429000000000000000e+03 6.921512603759765625e+01 -1.577242469787597656e+01 8.807057595141762341e-14 -8.006416303595401129e-15 2.401924891078620339e-14 -1.601283260719080226e-13
6.430000000000000000e+03 3.099599838256835938e+01 -1.576725006103515625e+01 6.405133042876320904e-14 2.562053217150528361e-13 9.607699564314481355e-14 4.003208151797700565e-14
6.431000000000000000e+03 3.369592666625976562e+01 -1.637693405151367188e+01 1.005806020610601481e-13 7.455974992140804170e-14 5.254210423948774134e-14 -4.953969770212299228e-14
6.432000000000000000e+03 4.520981216430664062e+01 -1.601617813110351562e+01 5.454371085648543338e-14 -1.596279261117244941e-13 -3.152526186606628700e-14 1.741395520621011328e-13
6.433000000000000000e+03 6.209845733642578125e+01 -1.433911991119384766e+01 7.806255641895631925e-14 -5.804651735403371093e-14 6.004812227696550847e-15 8.006416303595401129e-14
6.434000000000000000e+03 6.380859756469726562e+01 -1.515371990203857422e+01 9.607699564314481355e-14 3.843079825725792542e-13 1.441154866884536423e-13 1.000802021008766196e-13
6.435000000000000000e+03 3.555279159545898438e+01 -1.565371227264404297e+01 2.547041082819750946e-13 2.206768432268593760e-13 1.426142868079030568e-13 -1.251002475438980910e-13
6.436000000000000000e+03 3.683662796020507812e+01 -1.656694793701171875e+01 6.505213034913026604e-14 1.651323256737433076e-13 6.905533680686207210e-14 8.006416303595401129e-15
6.437000000000000000e+03 3.794213867187500000e+01 -1.614178276062011719e+01 1.120898214740720378e-13 -1.120898214740720378e-13 0.000000000000000000e+00 -2.401924891078620339e-14
6.438000000000000000e+03 3.758568191528320312e+01 -1.520659923553466797e+01 2.772221471478153454e-13 7.305854326459387815e-14 1.050842084789754827e-13 -7.205774334422682115e-14
6.439000000000000000e+03 6.116896057128906250e+01 -1.577211761474609375e+01 1.571259127582796955e-13 -7.005613842129502361e-15 4.503609128420765773e-14 7.606094980195862720e-14
6.440000000000000000e+03 5.667378997802734375e+01 -1.674118995666503906e+01 8.206576287668812530e-14 5.804651735403371093e-14 4.203368474684290867e-14 1.000802021008766196e-13
6.441000000000000000e+03 3.969689178466796875e+01 -1.570408535003662109e+01 1.160930347080674219e-13 4.003208151797700565e-15 3.602887167211341057e-14 1.561251128379126385e-13
6.442000000000000000e+03 4.141055679321289062e+01 -1.707411575317382812e+01 1.120898214740720378e-13 4.803849782157240678e-14 4.803849782157240678e-14 1.601283260719080226e-14
6.443000000000000000e+03 6.775976562500000000e+01 -1.585593986511230469e+01 1.105886215935214523e-13 -1.356086738128065017e-13 -7.506014649345978118e-15 1.821459649775647449e-13
6.444000000000000000e+03 7.057366943359375000e+01 -2.016477584838867188e+01 2.281828697346666157e-13 2.121700303512122354e-13 1.321058605389946461e-13 -1.281026608575264181e-13
6.445000000000000000e+03 6.637715148925781250e+01 -1.626102066040039062e+01 -1.130906281707026728e-13 3.232590519049172162e-13 6.305052373213257400e-14 -3.082470259943570490e-13
6.446000000000000000e+03 6.889960479736328125e+01 -1.840588569641113281e+01 -1.651323256737433076e-14 -1.986592043212026537e-13 -6.455173038894673754e-14 1.281026608575264181e-13
6.447000000000000000e+03 5.915119171142578125e+01 -1.689979934692382812e+01 1.641315257533762506e-13 1.160930347080674219e-13 8.406736949368581735e-14 9.607699564314481355e-14
6.448000000000000000e+03 5.814941024780273438e+01 -1.641957855224609375e+01 3.202566521438160452e-13 0.000000000000000000e+00 9.607699564314481355e-14 -5.604491073703601889e-14
6.449000000000000000e+03 5.307449722290039062e+01 -1.627245903015136719e+01 -7.405934996122451319e-14 1.401122768425900472e-14 -1.801443583605670529e-14 -8.006416303595401129e-15
6.450000000000000000e+03 4.687600708007812500e+01 -1.467235851287841797e+01 8.644427269268936675e-14 -1.002052987027907127e-13 -4.128308141843582690e-15 5.304250758780305885e-14
6.451000000000000000e+03 3.258666610717773438e+01 -1.619260978698730469e+01 5.604491073703601889e-14 2.401924891078620339e-14 2.401924891078620339e-14 -3.803047490097931360e-14
6.452000000000000000e+03 3.190637207031250000e+01 -1.650155258178710938e+01 4.403528797570881170e-14 1.561251128379126385e-13 6.004811719476782494e-14 4.603689120457471473e-14
6.453000000000000000e+03 2.687433242797851562e+01 -1.608241081237792969e+01 -2.401924891078620339e-14 -5.604491073703601889e-14 -2.401924891078620339e-14 -1.521218996039172544e-13
6.454000000000000000e+03 3.560384368896484375e+01 -1.688900756835937500e+01 1.256006475040816195e-13 9.957980214069309111e-14 6.755413692631148659e-14 -5.404330750817011586e-14
6.455000000000000000e+03 4.272235870361328125e+01 -1.604134368896484375e+01 1.441154866884536423e-13 1.601283260719080226e-14 4.803849782157240678e-14 -1.601283260719080226e-14
6.456000000000000000e+03 4.206222534179687500e+01 -1.570333957672119141e+01 1.080866150163402317e-13 -6.805453688649501509e-14 1.200962445539310169e-14 6.004812227696550847e-15
6.457000000000000000e+03 3.094975280761718750e+01 -1.741302680969238281e+01 -4.603689120457471473e-14 2.602085213965210642e-14 -6.004812227696550847e-15 0.000000000000000000e+00
6.458000000000000000e+03 4.346993637084960938e+01 -1.511027622222900391e+01 1.240994476235310340e-13 -8.406736949368581735e-14 1.200962445539310169e-14 2.121700303512122354e-13
6.459000000000000000e+03 4.087175369262695312e+01 -1.679404830932617188e+01 3.803047490097931360e-14 6.204972381176551699e-14 3.002405859738391247e-14 1.361090737729900302e-13
6.460000000000000000e+03 2.518655014038085938e+01 -1.672893905639648438e+01 -1.100882216333379238e-13 9.007218256841531545e-14 -6.004812227696550847e-15 -3.002405859738391247e-14
6.461000000000000000e+03 2.500216674804687500e+01 -1.804196357727050781e+01 -1.190954344691685929e-13 1.491194998428160834e-13 9.007217918028352643e-15 -2.852285871683332696e-14
6.462000000000000000e+03 6.997467803955078125e+01 -2.022962379455566406e+01 -1.080866150163402317e-13 2.281828697346666157e-13 3.602887167211341057e-14 -8.807057595141762341e-14
6.463000000000000000e+03 6.855179595947265625e+01 -2.381184005737304688e+01 -1.140914348673333079e-13 -2.602085213965210642e-14 -4.203368474684290867e-14 -8.006416303595401129e-15
6.464000000000000000e+03 2.557260322570800781e+01 -2.215456962585449219e+01 -6.380113044867144478e-14 -6.880513682677030785e-14 -3.978187814975345238e-14 -5.004010105043830980e-14
6.465000000000000000e+03 2.454195785522460938e+01 -2.357431602478027344e+01 -3.903127820947815962e-14 2.902325867701685547e-14 -3.002406113848275424e-15 3.602887167211341057e-14
6.466000000000000000e+03 2.576444816589355469e+01 -2.025558471679687500e+01 -1.536231130369949960e-13 -1.150922280114367868e-14 -4.953969770212299228e-14 -5.304250758780305885e-14
6.467000000000000000e+03 2.955060005187988281e+01 -1.872780799865722656e+01 -2.101684237342145434e-14 -9.007217918028352643e-15 -9.007217918028352643e-15 4.003208151797700565e-15
6.468000000000000000e+03 6.747350311279296875e+01 -2.470706939697265625e+01 1.200962445539310169e-14 2.802245536851800944e-14 1.200962445539310169e-14 1.200962445539310169e-14
6.469000000000000000e+03 1.614245414733886719e+01 -2.950524902343750000e+01 7.005614350349270714e-14 -1.000802037949425141e-14 1.801443583605670529e-14 7.806255641895631925e-14
6.470000000000000000e+03 1.974954414367675781e+01 -2.772654914855957031e+01 -3.102486190588275849e-14 -5.904731727440076794e-14 -2.702165375408505793e-14 4.253408470702643718e-14
6.471000000000000000e+03 6.428720855712890625e+01 -3.013696670532226562e+01 -9.007218256841531545e-14 3.002405859738391247e-14 -1.801443583605670529e-14 -2.802245536851800944e-14
6.472000000000000000e+03 6.632476043701171875e+01 -2.564652633666992188e+01 -3.002406113848275424e-15 1.130906281707026728e-13 3.302646513474866152e-14 1.200962445539310169e-14
6.473000000000000000e+03 6.744429779052734375e+01 -1.550668239593505859e+01 -7.180754336413505690e-14 -3.077466192579099424e-14 -3.077466192579099424e-14 -2.401924891078620339e-14
6.474000000000000000e+03 6.652600097656250000e+01 -1.527115249633789062e+01 4.253408470702643718e-14 3.127506391885359616e-13 1.065854151357896462e-13 -9.507618725244828400e-15
6.475000000000000000e+03 6.862353515625000000e+01 -1.749009704589843750e+01 -8.606896933441993136e-14 1.461170865291877563e-13 1.801443583605670529e-14 6.405133042876320904e-14
6.476000000000000000e+03 6.684045410156250000e+01 -1.551980972290039062e+01 -1.626303258728256651e-14 6.880513682677030785e-14 1.576263093303314350e-14 -1.406126869671689428e-13
6.477000000000000000e+03 5.506334304809570312e+01 -1.644504737854003906e+01 -1.366094737331735587e-13 2.617097348295988057e-13 3.753007494079578510e-14 1.601283260719080226e-13
6.478000000000000000e+03 5.681089019775390625e+01 -1.760636329650878906e+01 1.501202997631831404e-13 1.100882216333379238e-13 7.806255641895631925e-14 2.001604075898850282e-14
6.479000000000000000e+03 4.707343292236328125e+01 -1.578804397583007812e+01 -1.000802037949425141e-14 3.002405859738391247e-14 6.004812227696550847e-15 8.206576287668812530e-14
6.480000000000000000e+03 6.510208892822265625e+01 -1.589713954925537109e+01 -1.663833323504657069e-13 3.878107822938639537e-14 -3.828067826920286687e-14 7.005613842129502361e-15
6.481000000000000000e+03 6.623205566406250000e+01 -1.501452159881591797e+01 -3.943159817762498243e-13 2.542037218743187221e-13 -4.203368474684290867e-14 -1.831467648979318019e-13
6.482000000000000000e+03 6.659041595458984375e+01 -1.828385543823242188e+01 3.202566521438160452e-14 1.281026608575264181e-13 4.803849782157240678e-14 2.802245536851800944e-14
6.483000000000000000e+03 4.871442413330078125e+01 -1.581639194488525391e+01 1.521218996039172544e-13 8.807057595141762341e-14 7.205774334422682115e-14 1.401122870069854143e-13
6.484000000000000000e+03 4.925894546508789062e+01 -1.558509159088134766e+01 9.407538902614712151e-14 6.004812227696550847e-15 3.002405859738391247e-14 -1.496198998029996119e-13
6.485000000000000000e+03 3.870447158813476562e+01 -1.636430168151855469e+01 1.080866150163402317e-13 -2.281828697346666157e-13 -3.602887167211341057e-14 6.405133042876320904e-14
6.486000000000000000e+03 5.000974655151367188e+01 -1.525195121765136719e+01 2.121700303512122354e-13 -9.207378240914942946e-14 3.602887167211341057e-14 -4.003208151797700565e-14
6.487000000000000000e+03 4.489120864868164062e+01 -1.695407676696777344e+01 1.090874217129708668e-13 1.000802037949425141e-15 3.302646513474866152e-14 7.606094980195862720e-14
6.488000000000000000e+03 5.950591278076171875e+01 -1.769729042053222656e+01 2.221780431074099615e-13 -4.203368474684290867e-14 5.404330750817011586e-14 6.004811719476782494e-14
6.489000000000000000e+03 4.238911056518554688e+01 -1.680501747131347656e+01 6.405133042876320904e-14 -6.405133042876320904e-14 0.000000000000000000e+00 -4.803849782157240678e-14
6.490000000000000000e+03 4.338822555541992188e+01 -1.640115928649902344e+01 2.682149478645118323e-13 -6.805453688649501509e-14 6.004811719476782494e-14 2.802245536851800944e-14
6.491000000000000000e+03 6.929137420654296875e+01 -1.699891662597656250e+01 -3.202566521438160452e-14 3.522823038056704936e-13 9.607699564314481355e-14 -2.041636038832214672e-13
6.492000000000000000e+03 4.651379013061523438e+01 -1.523698329925537109e+01 6.855493684667854359e-14 1.666335391068210492e-13 7.055654346367623564e-14 5.104090097080536681e-14
6.493000000000000000e+03 3.948755264282226562e+01 -1.653625869750976562e+01 1.060850151756061177e-13 -4.603689120457471473e-14 1.801443583605670529e-14 3.202566521438160452e-14
6.494000000000000000e+03 6.051125335693359375e+01 -1.619717979431152344e+01 -2.001604075898850282e-15 -5.804651735403371093e-14 -1.801443583605670529e-14 5.004010189747125706e-15
6.495000000000000000e+03 5.743523788452148438e+01 -1.662246322631835938e+01 1.801443651368306309e-13 2.602085213965210642e-13 1.321058605389946461e-13 -8.006416303595401129e-15
6.496000000000000000e+03 5.137786865234375000e+01 -1.637198448181152344e+01 6.605293026949732305e-14 7.405934996122451319e-14 4.203368474684290867e-14 0.000000000000000000e+00
6.497000000000000000e+03 5.337039947509765625e+01 -1.694530677795410156e+01 9.107298248878237246e-14 3.903127820947815962e-14 3.903127820947815962e-14 2.802245536851800944e-14
6.498000000000000000e+03 5.591784667968750000e+01 -1.774164962768554688e+01 1.921539912862896271e-13 2.882309733769072846e-13 1.441154866884536423e-13 1.461170865291877563e-13
6.499000000000000000e+03 3.508332824707031250e+01 -1.942812538146972656e+01 -1.501202929869195624e-14 -1.150922347877003649e-13 -3.903127820947815962e-14 1.401122768425900472e-14
6.500000000000000000e+03 6.068346786499023438e+01 -1.809954643249511719e+01 1.311050606186275891e-13 -8.106496295632106830e-14 1.501202929869195624e-14 1.240994476235310340e-13
6.501000000000000000e+03 6.990107727050781250e+01 -1.696835327148437500e+01 6.805453688649501509e-14 -1.080866150163402317e-13 -1.200962445539310169e-14 -5.604491073703601889e-14
6.502000000000000000e+03 3.068258094787597656e+01 -1.642317581176757812e+01 -1.801443651368306309e-13 -1.000802021008766196e-13 -8.406736949368581735e-14 -6.805453688649501509e-14
6.503000000000000000e+03 3.230701065063476562e+01 -1.723370552062988281e+01 -1.401122768425900472e-14 2.341876692568689577e-13 6.605293026949732305e-14 5.404330750817011586e-14
6.504000000000000000e+03 2.891709709167480469e+01 -1.623964309692382812e+01 -2.426944889087796764e-14 1.268516541808040188e-13 3.077466192579099424e-14 -5.004010105043830980e-14
6.505000000000000000e+03 3.264408111572265625e+01 -1.810305976867675781e+01 8.006416303595401129e-15 2.321860694161348437e-13 7.205774334422682115e-14 4.803849782157240678e-14
6.506000000000000000e+03 6.923633575439453125e+01 -1.771253776550292969e+01 1.901523778930283570e-13 -1.000802037949425141e-14 5.404330750817011586e-14 -1.641315257533762506e-13
6.507000000000000000e+03 6.911199951171875000e+01 -2.111887931823730469e+01 7.005614350349270714e-14 3.002405859738391247e-14 3.002405859738391247e-14 -1.441154866884536423e-13
6.508000000000000000e+03 6.976701354980468750e+01 -1.963207054138183594e+01 7.706175649858926224e-14 3.532831037260375506e-13 1.291034607778934751e-13 4.003208151797700565e-15
6.509000000000000000e+03 4.615596771240234375e+01 -1.585535621643066406e+01 1.501203056924137712e-15 -1.366094737331735587e-13 -4.053248147816053415e-14 1.441154866884536423e-13
6.510000000000000000e+03 5.841669845581054688e+01 -1.719479751586914062e+01 2.742197473867141744e-13 2.602085213965210642e-14 9.007218256841531545e-14 4.803849782157240678e-14
6.511000000000000000e+03 3.493284988403320312e+01 -1.629704284667968750e+01 1.053344084590672469e-13 1.823961717339200872e-13 8.631917609077527365e-14 -1.301042606982605321e-13
6.512000000000000000e+03 3.635618209838867188e+01 -1.738570404052734375e+01 7.806255641895631925e-14 -5.804651735403371093e-14 6.004812227696550847e-15 -2.001604075898850282e-14
6.513000000000000000e+03 3.724374389648437500e+01 -1.584128952026367188e+01 1.581267126786467525e-13 -5.804651735403371093e-14 3.002405859738391247e-14 -1.100882216333379238e-13
6.514000000000000000e+03 4.022302627563476562e+01 -1.667822074890136719e+01 1.120898214740720378e-13 4.803849782157240678e-14 4.803849782157240678e-14 6.805453688649501509e-14
6.515000000000000000e+03 4.355173873901367188e+01 -1.566996097564697266e+01 7.606094980195862720e-14 1.240994476235310340e-13 6.004811719476782494e-14 4.803849782157240678e-14
6.516000000000000000e+03 4.086517333984375000e+01 -1.756327629089355469e+01 1.220978477827969200e-13 -2.221780431074099615e-13 -3.002405859738391247e-14 7.606094980195862720e-14
6.517000000000000000e+03 4.465561294555664062e+01 -1.810647010803222656e+01 4.903929774193946378e-14 1.811451650571976879e-13 6.905533680686207210e-14 1.120898214740720378e-13
6.518000000000000000e+03 2.644474411010742188e+01 -1.796710777282714844e+01 -1.018316019615189694e-13 1.393616802904465435e-13 1.125902282105191443e-14 -6.605293026949732305e-14
6.519000000000000000e+03 6.316736602783203125e+01 -1.521559429168701172e+01 2.181748434259417335e-13 -3.182550251980276190e-13 -3.002405859738391247e-14 1.761411519028352468e-13
6.520000000000000000e+03 3.128921508789062500e+01 -1.685786437988281250e+01 -4.581796876309326277e-15 2.561896820987147327e-13 7.548236531261173776e-14 5.492682978775918420e-15
6.521000000000000000e+03 5.020476531982421875e+01 -1.577538967132568359e+01 1.065854151357896462e-13 2.486993087597727525e-13 1.065854151357896462e-13 -1.531227130768114675e-13
6.522000000000000000e+03 5.250232696533203125e+01 -1.639353942871093750e+01 1.321058605389946461e-13 1.481186999224490264e-13 8.406736949368581735e-14 6.405133042876320904e-14
6.523000000000000000e+03 6.882444000244140625e+01 -2.192310523986816406e+01 -1.921539912862896271e-13 -1.281026608575264181e-13 -9.607699564314481355e-14 3.202566521438160452e-14
6.524000000000000000e+03 3.428524398803710938e+01 -1.703567314147949219e+01 4.825742195711975324e-14 1.121836523958370802e-13 4.813232196707387112e-14 -7.681155651849749799e-14
6.525000000000000000e+03 6.951285552978515625e+01 -2.053211975097656250e+01 -2.201764398785440585e-14 8.206576287668812530e-14 1.801443583605670529e-14 3.803047490097931360e-14
6.526000000000000000e+03 6.878092193603515625e+01 -1.950485801696777344e+01 2.061652172764827373e-13 -1.060850151756061177e-13 3.002405859738391247e-14 2.902325867701685547e-14
6.527000000000000000e+03 2.664876556396484375e+01 -2.110406303405761719e+01 -7.856295637913984775e-14 -7.656135653840573374e-14 -4.653729455289003225e-14 3.627907165220517482e-14
6.528000000000000000e+03 2.722669219970703125e+01 -1.856036186218261719e+01 -1.606287260320915511e-13 -1.145918348275168364e-13 -8.256616283687165381e-14 -7.806255641895631925e-14
6.529000000000000000e+03 1.693589019775390625e+01 -3.215206909179687500e+01 2.301844560228735737e-14 -1.301042606982605321e-14 3.002406113848275424e-15 1.000802037949425141e-15
6.530000000000000000e+03 6.867518615722656250e+01 -2.284374237060546875e+01 -1.220978477827969200e-13 6.204972381176551699e-14 -1.801443583605670529e-14 -1.200962445539310169e-14
6.531000000000000000e+03 6.699675750732421875e+01 -2.237037658691406250e+01 -7.506014988159157020e-14 1.050842084789754827e-13 9.007217918028352643e-15 -6.805453688649501509e-14
6.532000000000000000e+03 6.336903762817382812e+01 -2.831741714477539062e+01 -3.402726844324750755e-14 5.404330750817011586e-14 6.004812227696550847e-15 -2.602085213965210642e-14
6.533000000000000000e+03 6.667798614501953125e+01 -2.758254623413085938e+01 2.902325867701685547e-14 8.106496295632106830e-14 3.302646513474866152e-14 1.351082687704252897e-14
6.534000000000000000e+03 6.474927520751953125e+01 -2.590972900390625000e+01 -6.630313024958908730e-14 1.088372149566155245e-13 1.276022524270134170e-14 0.000000000000000000e+00
6.535000000000000000e+03 6.403218841552734375e+01 -2.703599548339843750e+01 -3.202566521438160452e-14 1.120898214740720378e-13 2.401924891078620339e-14 -3.102486190588275849e-14
6.536000000000000000e+03 4.767782211303710938e+01 -1.465456390380859375e+01 -1.547490163355397241e-13 7.093184004568209300e-14 -2.514515051526503703e-14 -3.602887167211341057e-14
6.537000000000000000e+03 4.738083648681640625e+01 -1.519079685211181641e+01 -1.120898214740720378e-13 1.120898214740720378e-13 0.000000000000000000e+00 -6.004811719476782494e-14
6.538000000000000000e+03 6.551351165771484375e+01 -1.556479740142822266e+01 1.185950345089850644e-13 2.767217607401589730e-13 1.185950345089850644e-13 -1.078364150362484675e-13
6.539000000000000000e+03 6.756606292724609375e+01 -2.052748680114746094e+01 1.008308020411519124e-13 -4.828869780166417103e-14 1.576263093303314350e-14 1.160930347080674219e-13
6.540000000000000000e+03 6.093675994873046875e+01 -1.690863227844238281e+01 2.321860694161348437e-13 8.006416303595401129e-15 7.205774334422682115e-14 6.605293026949732305e-14
6.541000000000000000e+03 6.469640350341796875e+01 -1.543749237060546875e+01 8.206576287668812530e-14 5.384314955697577787e-13 1.861491782115601290e-13 -2.001604075898850282e-14
6.542000000000000000e+03 4.412030792236328125e+01 -1.663054275512695312e+01 1.000802021008766196e-13 1.801443651368306309e-13 8.406736949368581735e-14 8.006416303595401129e-14
6.543000000000000000e+03 4.861025238037109375e+01 -1.523064804077148438e+01 -1.200962445539310169e-14 1.321058605389946461e-13 3.602887167211341057e-14 -1.040834085586084257e-13
6.544000000000000000e+03 4.915031433105468750e+01 -1.657560539245605469e+01 3.052446194569922999e-14 1.245998475837145625e-13 4.653729455289003225e-14 -1.033328086183331329e-13
6.545000000000000000e+03 4.869837570190429688e+01 -1.486328125000000000e+01 1.461170865291877563e-13 -4.863897912904535659e-13 -1.020818019416107336e-13 1.040834085586084257e-13
6.546000000000000000e+03 6.732452392578125000e+01 -1.626657485961914062e+01 -1.521218996039172544e-13 3.923143819355157103e-13 7.205774334422682115e-14 -1.741395520621011328e-13
6.547000000000000000e+03 6.663374328613281250e+01 -1.586555480957031250e+01 -2.622101212372551782e-13 1.621299259126421366e-13 -3.002405859738391247e-14 1.601283260719080226e-14
6.548000000000000000e+03 6.362498474121093750e+01 -1.626405525207519531e+01 1.220978477827969200e-13 1.801443583605670529e-14 4.203368474684290867e-14 -8.406736949368581735e-14
6.549000000000000000e+03 3.902190780639648438e+01 -1.830289649963378906e+01 9.207378240914942946e-14 -5.204170427930421283e-14 1.200962445539310169e-14 2.001604075898850282e-15
6.550000000000000000e+03 6.680380249023437500e+01 -1.670053482055664062e+01 -8.882117589169291616e-14 -8.381716951359405310e-14 -5.179150429921244858e-14 7.005614350349270714e-14
6.551000000000000000e+03 5.871815872192382812e+01 -1.804086685180664062e+01 5.304250758780305885e-14 -2.301844560228735737e-14 9.007217918028352643e-15 1.120898214740720378e-13
6.552000000000000000e+03 4.560832977294921875e+01 -1.847494506835937500e+01 2.001604075898850282e-15 -2.201764398785440585e-14 -6.004812227696550847e-15 1.000802021008766196e-13
6.553000000000000000e+03 6.598899841308593750e+01 -1.659639930725097656e+01 -1.000802037949425141e-15 5.104090097080536681e-14 1.501202929869195624e-14 -7.656135653840573374e-14
6.554000000000000000e+03 5.763964080810546875e+01 -1.743066024780273438e+01 1.220978477827969200e-13 9.807859548387892756e-14 6.605293026949732305e-14 7.205774334422682115e-14
6.555000000000000000e+03 3.352511215209960938e+01 -1.767556762695312500e+01 5.504411081666896188e-14 1.150922347877003649e-13 5.104090097080536681e-14 -7.405934996122451319e-14
6.556000000000000000e+03 3.302946853637695312e+01 -1.687540817260742188e+01 9.807859548387892756e-14 -3.803047490097931360e-14 1.801443583605670529e-14 -4.003208151797700565e-14
6.557000000000000000e+03 3.927230834960937500e+01 -1.741483306884765625e+01 1.881507780522942430e-13 1.721379386688398627e-13 1.080866150163402317e-13 4.803849782157240678e-14
6.558000000000000000e+03 6.916430664062500000e+01 -2.006274604797363281e+01 -8.494307281213878125e-14 2.838524771134331992e-13 5.967282061276196758e-14 -1.005806020610601481e-13
6.559000000000000000e+03 6.364874267578125000e+01 -1.453087997436523438e+01 -1.200962445539310169e-14 -1.881507780522942430e-13 -6.004811719476782494e-14 1.921539912862896271e-13
6.560000000000000000e+03 5.789622879028320312e+01 -1.830951690673828125e+01 1.140914348673333079e-13 2.602085213965210642e-14 4.203368474684290867e-14 1.200962343895356499e-13
6.561000000000000000e+03 6.250257492065429688e+01 -1.910658073425292969e+01 1.996600042415697107e-13 8.556856937423640286e-14 8.556856937423640286e-14 1.481186999224490264e-13
6.562000000000000000e+03 2.835686492919921875e+01 -1.694831657409667969e+01 -1.776423517833858323e-13 -1.676343390271881062e-13 -1.035830085984248972e-13 0.000000000000000000e+00
6.563000000000000000e+03 2.706974601745605469e+01 -1.722464752197265625e+01 -8.406736949368581735e-14 -1.961571909677578551e-13 -8.406736949368581735e-14 -3.352686848306397904e-14
6.564000000000000000e+03 4.194225311279296875e+01 -1.756558227539062500e+01 3.753007494079578510e-14 1.075862150561567032e-13 4.353488801552528320e-14 4.003208151797700565e-14
6.565000000000000000e+03 3.169895362854003906e+01 -1.826599502563476562e+01 -2.001604075898850282e-14 6.004811719476782494e-14 1.200962445539310169e-14 4.003208151797700565e-15
6.566000000000000000e+03 2.782147598266601562e+01 -1.774875068664550781e+01 4.403528797570881170e-14 -4.003208151797700565e-15 1.200962445539310169e-14 -1.301042606982605321e-14
6.567000000000000000e+03 5.186025619506835938e+01 -1.839971160888671875e+01 5.304250758780305885e-14 -2.301844560228735737e-14 9.007217918028352643e-15 9.407538902614712151e-14
6.568000000000000000e+03 4.580274200439453125e+01 -1.649911880493164062e+01 -5.004010105043830980e-14 7.005614350349270714e-14 6.004812227696550847e-15 8.006416303595401129e-15
6.569000000000000000e+03 3.812282562255859375e+01 -1.809005355834960938e+01 7.606094980195862720e-14 -3.602887167211341057e-14 1.200962445539310169e-14 2.201764398785440585e-14
6.570000000000000000e+03 3.760094070434570312e+01 -1.691971969604492188e+01 1.761411519028352468e-13 -1.601283260719080226e-14 4.803849782157240678e-14 8.006416303595401129e-15
6.571000000000000000e+03 3.027469062805175781e+01 -1.709866714477539062e+01 -2.401924891078620339e-14 2.642117210779892922e-13 7.205774334422682115e-14 -3.602887167211341057e-14
6.572000000000000000e+03 2.991870498657226562e+01 -1.786448287963867188e+01 -3.903127820947815962e-14 2.902325867701685547e-14 -3.002406113848275424e-15 -2.802245536851800944e-14
6.573000000000000000e+03 6.706330871582031250e+01 -1.584130954742431641e+01 -3.302646513474866152e-14 -1.971579908881249121e-13 -6.905533680686207210e-14 -2.001604042017532392e-13
6.574000000000000000e+03 6.625917053222656250e+01 -1.699403190612792969e+01 -3.362694779747432694e-13 -1.441154866884536423e-13 -1.441154866884536423e-13 -1.761411519028352468e-13
6.575000000000000000e+03 4.010132217407226562e+01 -1.762739562988281250e+01 1.421138868477195283e-13 3.803047490097931360e-14 5.404330750817011586e-14 1.281026608575264181e-13
6.576000000000000000e+03 4.257402801513671875e+01 -1.816378211975097656e+01 7.656135653840573374e-14 1.786431517037528893e-13 7.656135653840573374e-14 1.701363422162375377e-14
6.577000000000000000e+03 2.957840538024902344e+01 -1.671081542968750000e+01 -1.381106736137241442e-13 -2.421940957248597259e-13 -1.140914348673333079e-13 0.000000000000000000e+00
6.578000000000000000e+03 2.911678504943847656e+01 -1.745212554931640625e+01 8.406736949368581735e-14 3.602887167211341057e-14 3.602887167211341057e-14 4.003208151797700565e-15
6.579000000000000000e+03 6.784785461425781250e+01 -2.268305778503417969e+01 -1.261010474642651480e-13 -5.404330750817011586e-14 -5.404330750817011586e-14 1.000802037949425141e-14
6.580000000000000000e+03 4.306612396240234375e+01 -1.726186752319335938e+01 2.201764398785440585e-14 1.581267126786467525e-13 5.404330750817011586e-14 -1.601283260719080226e-14
6.581000000000000000e+03 3.412430572509765625e+01 -1.863009071350097656e+01 5.479391083657719763e-14 1.378604804098959580e-13 5.779631737394194668e-14 -8.556856937423640286e-14
6.582000000000000000e+03 6.161133575439453125e+01 -1.650329780578613281e+01 5.804651735403371093e-14 -1.581267126786467525e-13 -3.002405859738391247e-14 1.601283260719080226e-14
6.583000000000000000e+03 6.654137420654296875e+01 -2.339171791076660156e+01 2.001604075898850282e-15 -2.201764398785440585e-14 -6.004812227696550847e-15 2.802245536851800944e-14
6.584000000000000000e+03 6.655299377441406250e+01 -1.881064414978027344e+01 -4.403528797570881170e-14 1.641315257533762506e-13 3.602887167211341057e-14 -1.040834085586084257e-13
6.585000000000000000e+03 6.799630737304687500e+01 -2.110399055480957031e+01 -9.807859548387892756e-14 1.981587908084919691e-13 3.002405859738391247e-14 -7.405934996122451319e-14
6.586000000000000000e+03 2.746422767639160156e+01 -2.009284782409667969e+01 -6.405133042876320904e-14 6.405133042876320904e-14 0.000000000000000000e+00 4.003208151797700565e-15
6.587000000000000000e+03 2.982288932800292969e+01 -2.128857040405273438e+01 -4.003208151797700565e-14 -4.003208151797700565e-14 -2.401924891078620339e-14 4.403528797570881170e-14
6.588000000000000000e+03 5.385879516601562500e+01 -1.760754776000976562e+01 -3.753007324672989059e-15 1.813953582610258741e-13 5.329270756789482311e-14 -1.170938346284344789e-13
6.589000000000000000e+03 5.504016876220703125e+01 -1.800770187377929688e+01 -1.291034607778934751e-13 -1.010810020212436766e-13 -6.905533680686207210e-14 2.802245536851800944e-14
6.590000000000000000e+03 6.292405700683593750e+01 -2.620881080627441406e+01 -4.603689120457471473e-14 2.602085213965210642e-14 -6.004812227696550847e-15 1.401122768425900472e-14
6.591000000000000000e+03 6.286457061767578125e+01 -2.985221099853515625e+01 -4.803849782157240678e-14 1.281026608575264181e-13 2.401924891078620339e-14 1.801443583605670529e-14
6.592000000000000000e+03 6.509375000000000000e+01 -2.780817794799804688e+01 -1.801443583605670529e-14 3.803047490097931360e-14 6.004812227696550847e-15 4.003208151797700565e-14
6.593000000000000000e+03 6.549591064453125000e+01 -2.490874481201171875e+01 -1.022069053197884048e-13 9.344988568778592186e-14 -2.627105296677681792e-15 -1.651323256737433076e-14
6.594000000000000000e+03 6.252928543090820312e+01 -3.173950767517089844e+01 -4.203368474684290867e-14 6.204972381176551699e-14 6.004812227696550847e-15 1.401122768425900472e-14
6.595000000000000000e+03 6.818760681152343750e+01 -1.713821983337402344e+01 -8.056456299613753980e-14 6.059856392723328433e-13 1.576263127184632240e-13 -1.961571909677578551e-13
6.596000000000000000e+03 6.776825714111328125e+01 -1.669514274597167969e+01 1.363592771412135835e-14 2.453215853116114120e-13 7.768725306068688385e-14 1.860240748333824579e-13
6.597000000000000000e+03 6.555507659912109375e+01 -1.627639579772949219e+01 3.262614516660183872e-13 3.342678781340091554e-13 1.981587908084919691e-13 -2.502004950877961820e-13
6.598000000000000000e+03 6.777670288085937500e+01 -1.760165977478027344e+01 -1.431146867680865853e-13 9.307458910578006450e-14 -1.501202929869195624e-14 1.110890215537049808e-13
6.599000000000000000e+03 4.779265213012695312e+01 -1.635796928405761719e+01 -1.120898214740720378e-13 -4.803849782157240678e-14 -4.803849782157240678e-14 -4.003208151797700565e-15
6.600000000000000000e+03 4.815222167968750000e+01 -1.504465484619140625e+01 -4.003208151797700565e-15 -2.762213472274482884e-13 -8.406736949368581735e-14 6.405133042876320904e-14
6.601000000000000000e+03 4.381717681884765625e+01 -1.769463729858398438e+01 1.230986477031639770e-13 7.005613842129502361e-15 3.903127820947815962e-14 7.606094980195862720e-14
6.602000000000000000e+03 4.630677413940429688e+01 -1.711505699157714844e+01 3.502807175174635357e-14 1.501202929869195624e-14 1.501202929869195624e-14 1.060850151756061177e-13
6.603000000000000000e+03 6.138087081909179688e+01 -1.764171028137207031e+01 2.091676170375839083e-13 6.104892389139845998e-14 8.106496295632106830e-14 3.702967498061225660e-14
6.604000000000000000e+03 6.521696472167968750e+01 -1.667131423950195312e+01 -1.921539912862896271e-13 3.202566521438160452e-14 -4.803849782157240678e-14 -4.803849782157240678e-14
6.605000000000000000e+03 6.725405883789062500e+01 -1.718282318115234375e+01 1.501202929869195624e-14 -1.251002475438980910e-13 -3.302646513474866152e-14 -1.143416280711614941e-13
6.606000000000000000e+03 4.896101760864257812e+01 -1.514352035522460938e+01 -3.742999562638543720e-13 1.140914348673333079e-13 -7.806255641895631925e-14 1.281026608575264181e-13
6.607000000000000000e+03 5.263905334472656250e+01 -1.811970138549804688e+01 7.405934996122451319e-14 1.461170865291877563e-13 6.605293026949732305e-14 -4.003208151797700565e-14
6.608000000000000000e+03 5.991077041625976562e+01 -1.856087303161621094e+01 1.611291259922750796e-13 6.905533680686207210e-14 6.905533680686207210e-14 4.003208151797700565e-14
6.609000000000000000e+03 3.842624664306640625e+01 -1.719104003906250000e+01 1.941555911270237411e-13 1.060850151756061177e-13 9.007218256841531545e-14 4.603689120457471473e-14
6.610000000000000000e+03 4.129384231567382812e+01 -1.825975227355957031e+01 -2.752205498481800731e-15 9.032238254850707970e-14 2.627105211974387067e-14 2.902325867701685547e-14
6.611000000000000000e+03 6.309877395629882812e+01 -1.848611450195312500e+01 2.704041959962488750e-13 -6.711628187895321562e-14 6.098637220230962441e-14 9.132318246887413671e-14
6.612000000000000000e+03 6.830580139160156250e+01 -1.800679588317871094e+01 -1.140914348673333079e-13 2.141716301919463494e-13 3.002405859738391247e-14 -1.281026608575264181e-13
6.613000000000000000e+03 3.578537368774414062e+01 -1.832244873046875000e+01 5.004010105043830980e-14 9.007218256841531545e-14 4.203368474684290867e-14 -3.803047490097931360e-14
6.614000000000000000e+03 5.657109069824218750e+01 -1.973648643493652344e+01 6.204972381176551699e-14 1.981587908084919691e-13 7.806255641895631925e-14 8.206576287668812530e-14
6.615000000000000000e+03 4.334524917602539062e+01 -1.879499053955078125e+01 -4.803849782157240678e-14 4.803849782157240678e-14 0.000000000000000000e+00 1.261010474642651480e-13
6.616000000000000000e+03 3.982184219360351562e+01 -1.869654273986816406e+01 1.901523778930283570e-13 -1.000802037949425141e-14 5.404330750817011586e-14 4.403528797570881170e-14
6.617000000000000000e+03 4.077580642700195312e+01 -1.924757194519042969e+01 9.007217918028352643e-15 1.411130869273524713e-13 4.503609128420765773e-14 1.521218996039172544e-13
6.618000000000000000e+03 5.905980682373046875e+01 -1.898827171325683594e+01 1.701363388281057487e-13 5.004010105043830980e-14 6.605293026949732305e-14 2.802245536851800944e-14
6.619000000000000000e+03 6.818038177490234375e+01 -2.003040313720703125e+01 -7.981396305586224704e-14 5.729591741375841818e-14 -6.755413438521264483e-15 -8.606896933441993136e-14
6.620000000000000000e+03 6.835128021240234375e+01 -1.897714996337890625e+01 -3.302646513474866152e-14 8.306656957331876034e-14 1.501202929869195624e-14 -1.741395520621011328e-13
6.621000000000000000e+03 5.040461349487304688e+01 -1.683569145202636719e+01 1.070858150959731747e-13 1.431146867680865853e-13 7.506014988159157020e-14 -1.220978477827969200e-13
6.622000000000000000e+03 5.255583572387695312e+01 -1.719063186645507812e+01 -7.205774334422682115e-14 1.521218996039172544e-13 2.401924891078620339e-14 1.240994476235310340e-13
6.623000000000000000e+03 6.232341003417968750e+01 -1.615105247497558594e+01 2.802245740139708285e-13 -4.003208151797700565e-14 7.205774334422682115e-14 3.002405859738391247e-14
6.624000000000000000e+03 3.171210098266601562e+01 -1.925675773620605469e+01 -2.602085213965210642e-14 -3.402726844324750755e-14 -1.801443583605670529e-14 1.000802021008766196e-13
6.625000000000000000e+03 3.785720825195312500e+01 -1.908254814147949219e+01 4.603689120457471473e-14 1.341074739322559162e-13 5.404330750817011586e-14 -4.203368474684290867e-14
6.626000000000000000e+03 3.720692443847656250e+01 -1.778699302673339844e+01 4.803849782157240678e-14 -4.803849782157240678e-14 0.000000000000000000e+00 -3.402726844324750755e-14
6.627000000000000000e+03 2.924045562744140625e+01 -2.255402183532714844e+01 1.551243095294137925e-14 -1.306046606584440606e-13 -3.452766840343103605e-14 9.807859548387892756e-14
6.628000000000000000e+03 4.858591079711914062e+01 -1.704664039611816406e+01 1.080866150163402317e-13 9.207378240914942946e-14 6.004811719476782494e-14 1.060850151756061177e-13
6.629000000000000000e+03 4.973659896850585938e+01 -1.617520713806152344e+01 -7.005613842129502361e-15 3.172542252776605620e-13 9.307458910578006450e-14 1.200962343895356499e-13
6.630000000000000000e+03 2.654361343383789062e+01 -1.940504074096679688e+01 7.305854326459387815e-14 3.702967498061225660e-14 3.302646513474866152e-14 1.401122768425900472e-14
6.631000000000000000e+03 6.415100097656250000e+01 -1.577946472167968750e+01 -1.000802037949425141e-14 -5.004010105043830980e-14 -1.801443583605670529e-14 6.004811719476782494e-14
6.632000000000000000e+03 6.295485687255859375e+01 -1.576689815521240234e+01 -1.901523745048965680e-14 -1.511210996835501974e-13 -5.104090097080536681e-14 2.031628039628544102e-13
6.633000000000000000e+03 5.192399215698242188e+01 -1.635930442810058594e+01 -1.601283260719080226e-14 -1.441154866884536423e-13 -4.803849782157240678e-14 1.521218996039172544e-13
6.634000000000000000e+03 4.673010635375976562e+01 -1.643803977966308594e+01 2.802245536851800944e-14 1.721379386688398627e-13 6.004811719476782494e-14 8.606896933441993136e-14
6.635000000000000000e+03 5.574468231201171875e+01 -2.026914405822753906e+01 4.303448466720996568e-14 -7.305854326459387815e-14 -9.007217918028352643e-15 2.001604075898850282e-14
6.636000000000000000e+03 5.620206451416015625e+01 -1.877767944335937500e+01 -1.601283260719080226e-14 9.607699564314481355e-14 2.401924891078620339e-14 6.605293026949732305e-14
6.637000000000000000e+03 6.464073181152343750e+01 -2.394928741455078125e+01 6.092382051322078884e-14 1.404875835889912716e-13 6.042342055303726034e-14 1.000802037949425141e-15
6.638000000000000000e+03 3.495754241943359375e+01 -1.772568511962890625e+01 1.010810020212436766e-13 8.907137587178468041e-14 5.704571743366665393e-14 -7.606094980195862720e-14
6.639000000000000000e+03 6.860124206542968750e+01 -2.063577079772949219e+01 -1.401122768425900472e-14 -6.004812227696550847e-15 -6.004812227696550847e-15 3.402726844324750755e-14
6.640000000000000000e+03 2.784786796569824219e+01 -2.187152290344238281e+01 -4.453568793589234021e-14 4.953969770212299228e-14 1.501203056924137712e-15 2.602085213965210642e-14
6.641000000000000000e+03 2.855358505249023438e+01 -2.072866249084472656e+01 -3.002405859738391247e-14 -7.005614350349270714e-14 -3.002405859738391247e-14 3.202566521438160452e-14
6.642000000000000000e+03 3.077651786804199219e+01 -1.816566276550292969e+01 2.602085213965210642e-14 3.402726844324750755e-14 1.801443583605670529e-14 8.006416303595401129e-15
6.643000000000000000e+03 2.810604667663574219e+01 -1.914906501770019531e+01 6.705373696612795809e-14 -1.701363422162375377e-14 1.501202929869195624e-14 -2.201764398785440585e-14
6.644000000000000000e+03 6.745896148681640625e+01 -2.159308624267578125e+01 -8.907137587178468041e-14 9.907939540424598457e-14 3.002406113848275424e-15 8.406736949368581735e-14
6.645000000000000000e+03 6.375289916992187500e+01 -2.503822898864746094e+01 -6.330072371222433825e-14 1.558749060815572962e-13 2.777225538842624519e-14 -3.602887167211341057e-14
6.646000000000000000e+03 6.216417694091796875e+01 -3.409763336181640625e+01 -7.806255641895631925e-14 1.781427517435693608e-13 3.002405859738391247e-14 1.701363422162375377e-14
6.647000000000000000e+03 6.503653717041015625e+01 -3.432624816894531250e+01 -8.606896933441993136e-14 6.605293026949732305e-14 -6.004812227696550847e-15 -3.402726844324750755e-14
6.648000000000000000e+03 6.777890777587890625e+01 -1.947941970825195312e+01 1.296038607380770036e-13 5.554451077685249039e-14 5.554451077685249039e-14 5.804651735403371093e-14
6.649000000000000000e+03 6.572747802734375000e+01 -1.694356346130371094e+01 -1.361090737729900302e-13 2.161732300326804634e-13 2.401924891078620339e-14 -3.122502256758252770e-13
6.650000000000000000e+03 6.430243682861328125e+01 -1.674998474121093750e+01 9.007218256841531545e-14 5.004010105043830980e-14 4.203368474684290867e-14 -1.220978477827969200e-13
6.651000000000000000e+03 4.930524826049804688e+01 -1.782368659973144531e+01 -2.021620040424873532e-13 2.221780431074099615e-13 6.004812227696550847e-15 -1.501202929869195624e-14
6.652000000000000000e+03 6.554875183105468750e+01 -1.741896438598632812e+01 -2.281828697346666157e-13 1.080866150163402317e-13 -3.602887167211341057e-14 -2.401924891078620339e-14
6.653000000000000000e+03 6.492354583740234375e+01 -1.714404487609863281e+01 -1.601283260719080226e-13 0.000000000000000000e+00 -4.803849782157240678e-14 -2.401924891078620339e-14
6.654000000000000000e+03 5.119876861572265625e+01 -1.756114387512207031e+01 5.129110433902892008e-14 2.964876066012533951e-13 1.043336085387001899e-13 1.220978477827969200e-13
6.655000000000000000e+03 5.816706466674804688e+01 -1.929742050170898438e+01 7.405934996122451319e-14 -1.401122768425900472e-14 1.801443583605670529e-14 1.060850151756061177e-13
6.656000000000000000e+03 5.705008697509765625e+01 -1.852515792846679688e+01 1.180946345488015359e-13 1.421138868477195283e-13 7.806255641895631925e-14 4.403528797570881170e-14
6.657000000000000000e+03 4.536718750000000000e+01 -1.982750511169433594e+01 2.001604075898850282e-15 1.381106736137241442e-13 4.203368474684290867e-14 1.120898214740720378e-13
6.658000000000000000e+03 6.739344024658203125e+01 -1.808776473999023438e+01 5.154130431912068433e-14 1.135910281308862013e-13 4.953969770212299228e-14 -5.604491073703601889e-14
6.659000000000000000e+03 6.739118957519531250e+01 -1.897239303588867188e+01 4.078268145825229840e-14 2.919839934070744825e-13 9.983000212078485536e-14 -3.102486190588275849e-14
6.660000000000000000e+03 3.302482986450195312e+01 -2.056470108032226562e+01 -1.801443583605670529e-14 3.803047490097931360e-14 6.004812227696550847e-15 5.004010105043830980e-14
6.661000000000000000e+03 3.297983932495117188e+01 -1.919332695007324219e+01 -5.204170427930421283e-14 1.200962445539310169e-14 -1.200962445539310169e-14 -1.200962445539310169e-14
6.662000000000000000e+03 6.437003326416015625e+01 -2.202215194702148438e+01 2.101684237342145434e-14 -3.102486190588275849e-14 -3.002406113848275424e-15 2.602085213965210642e-14
6.663000000000000000e+03 4.380346679687500000e+01 -2.071137237548828125e+01 -4.853889778175593528e-14 9.357498906596359300e-14 1.351082687704252897e-14 1.120898214740720378e-13
6.664000000000000000e+03 4.259852218627929688e+01 -1.998008537292480469e+01 2.301844560228735737e-14 2.702165375408505793e-14 1.501202929869195624e-14 -1.251002526260957745e-14
6.665000000000000000e+03 6.266006088256835938e+01 -1.682565498352050781e+01 1.801443651368306309e-13 -6.004811719476782494e-14 3.602887167211341057e-14 1.801443651368306309e-13
6.666000000000000000e+03 6.544360351562500000e+01 -2.279930496215820312e+01 -9.107298248878237246e-14 1.210970478624298630e-13 9.007217918028352643e-15 -1.140914348673333079e-13
6.667000000000000000e+03 6.645631408691406250e+01 -2.045176315307617188e+01 1.050842084789754827e-13 4.503609128420765773e-14 4.503609128420765773e-14 5.604491073703601889e-14
6.668000000000000000e+03 4.803030776977539062e+01 -1.566761589050292969e+01 -1.601283260719080226e-13 1.601283260719080226e-13 0.000000000000000000e+00 1.080866150163402317e-13
6.669000000000000000e+03 3.677499771118164062e+01 -1.877115440368652344e+01 1.361090737729900302e-13 2.401924891078620339e-14 4.803849782157240678e-14 2.602085213965210642e-14
6.670000000000000000e+03 4.429649353027343750e+01 -1.935624885559082031e+01 5.304250758780305885e-14 -2.301844560228735737e-14 9.007217918028352643e-15 3.202566521438160452e-14
6.671000000000000000e+03 5.426389694213867188e+01 -1.833624267578125000e+01 1.521218996039172544e-13 -7.205774334422682115e-14 2.401924891078620339e-14 -1.601283260719080226e-14
6.672000000000000000e+03 5.534360885620117188e+01 -1.910947036743164062e+01 9.207378240914942946e-14 1.080866150163402317e-13 6.004811719476782494e-14 8.406736949368581735e-14
6.673000000000000000e+03 6.202520370483398438e+01 -1.719725799560546875e+01 3.252606517456513302e-13 -1.351082738526229732e-13 5.704571743366665393e-14 1.601283260719080226e-14
6.674000000000000000e+03 6.618389892578125000e+01 -2.179690933227539062e+01 8.869607928977882305e-14 -5.992302059285373184e-14 8.631917100857759012e-15 4.716279450311944288e-14
6.675000000000000000e+03 6.180420684814453125e+01 -1.974582099914550781e+01 2.246800564608547601e-13 5.054050101062183831e-14 8.256616283687165381e-14 1.661331391466375207e-13
6.676000000000000000e+03 6.599388122558593750e+01 -1.818590354919433594e+01 -1.761411519028352468e-13 1.761411519028352468e-13 0.000000000000000000e+00 -1.200962445539310169e-14
6.677000000000000000e+03 4.739288330078125000e+01 -1.703986358642578125e+01 -8.606896933441993136e-14 6.605293026949732305e-14 -6.004812227696550847e-15 1.020818019416107336e-13
6.678000000000000000e+03 6.714888000488281250e+01 -1.995678520202636719e+01 -7.606094980195862720e-14 3.602887167211341057e-14 -1.200962445539310169e-14 -8.206576287668812530e-14
6.679000000000000000e+03 6.678588104248046875e+01 -1.937461280822753906e+01 -1.361090737729900302e-13 5.604491073703601889e-14 -2.401924891078620339e-14 8.606896933441993136e-14
6.680000000000000000e+03 3.899189758300781250e+01 -1.922353744506835938e+01 1.040834085586084257e-13 -2.401924891078620339e-14 2.401924891078620339e-14 1.281026608575264181e-13
6.681000000000000000e+03 5.350896453857421875e+01 -1.830752182006835938e+01 -1.401122768425900472e-14 -6.004812227696550847e-15 -6.004812227696550847e-15 4.803849782157240678e-14
6.682000000000000000e+03 2.911149787902832031e+01 -1.968552780151367188e+01 -7.606094980195862720e-14 3.602887167211341057e-14 -1.200962445539310169e-14 4.003208151797700565e-14
6.683000000000000000e+03 5.072581481933593750e+01 -2.056979560852050781e+01 6.805453688649501509e-14 -1.080866150163402317e-13 -1.200962445539310169e-14 -4.003208151797700565e-14
6.684000000000000000e+03 3.057009506225585938e+01 -1.907785797119140625e+01 -2.001604075898850282e-14 6.004811719476782494e-14 1.200962445539310169e-14 -3.202566521438160452e-14
6.685000000000000000e+03 3.422069549560546875e+01 -2.237627220153808594e+01 3.002406113848275424e-15 4.703769451307356075e-14 1.501202929869195624e-14 1.401122768425900472e-14
6.686000000000000000e+03 2.779855346679687500e+01 -2.529279899597167969e+01 -7.255814669254213867e-15 -1.403624802108136005e-13 -4.428548795580057595e-14 6.805453688649501509e-14
6.687000000000000000e+03 3.231141281127929688e+01 -2.365083885192871094e+01 4.803849782157240678e-14 -4.803849782157240678e-14 0.000000000000000000e+00 6.204972381176551699e-14
6.688000000000000000e+03 6.458777618408203125e+01 -1.961306762695312500e+01 -3.102486190588275849e-14 1.411130869273524713e-13 3.302646513474866152e-14 -8.406736949368581735e-14
6.689000000000000000e+03 6.531228637695312500e+01 -1.802122306823730469e+01 -8.406736949368581735e-14 2.842277736954390566e-13 6.004811719476782494e-14 -9.607699564314481355e-14
6.690000000000000000e+03 4.181986618041992188e+01 -1.905630302429199219e+01 -1.000802037949425141e-14 -5.004010105043830980e-14 -1.801443583605670529e-14 6.805453688649501509e-14
6.691000000000000000e+03 6.039160537719726562e+01 -1.947770690917968750e+01 1.406126869671689428e-13 1.451162933850842773e-14 4.653729455289003225e-14 3.602887167211341057e-14
6.692000000000000000e+03 6.788368988037109375e+01 -1.850955581665039062e+01 -1.313552673749829314e-13 -1.463672932855430986e-13 -8.331676955341052460e-14 2.727185542824271669e-14
6.693000000000000000e+03 5.835829544067382812e+01 -2.049465942382812500e+01 -3.102486190588275849e-14 1.010810020212436766e-13 2.101684237342145434e-14 7.205774334422682115e-14
6.694000000000000000e+03 4.507851409912109375e+01 -2.128046607971191406e+01 1.701363422162375377e-14 5.304250758780305885e-14 2.101684237342145434e-14 1.200962445539310169e-14
6.695000000000000000e+03 6.569203186035156250e+01 -2.098418426513671875e+01 -6.605293026949732305e-14 8.606896933441993136e-14 6.004812227696550847e-15 -7.205774334422682115e-14
6.696000000000000000e+03 6.603688049316406250e+01 -1.971948242187500000e+01 -1.240994476235310340e-13 8.406736949368581735e-14 -1.200962445539310169e-14 -5.204170427930421283e-14
6.697000000000000000e+03 3.891768646240234375e+01 -2.043906211853027344e+01 2.001604075898850282e-15 5.804651735403371093e-14 1.801443583605670529e-14 6.805453688649501509e-14
6.698000000000000000e+03 4.182718276977539062e+01 -2.144546127319335938e+01 -3.152526186606628700e-14 1.466175000418984409e-13 3.452766840343103605e-14 6.805453688649501509e-14
6.699000000000000000e+03 5.442958831787109375e+01 -1.937800216674804688e+01 -3.402726844324750755e-14 -1.060850151756061177e-13 -4.203368474684290867e-14 -2.802245536851800944e-14
6.700000000000000000e+03 3.632671356201171875e+01 -1.989018440246582031e+01 1.801443583605670529e-14 4.203368474684290867e-14 1.801443583605670529e-14 -1.801443583605670529e-14
6.701000000000000000e+03 6.358989334106445312e+01 -2.308229446411132812e+01 -3.853087824929463112e-14 1.436150867282701138e-13 3.152526186606628700e-14 -3.202566521438160452e-14
6.702000000000000000e+03 6.585578918457031250e+01 -1.892617797851562500e+01 -1.801443583605670529e-14 3.803047490097931360e-14 6.004812227696550847e-15 8.006416303595401129e-15
6.703000000000000000e+03 5.727401733398437500e+01 -2.043690490722656250e+01 2.001604075898850282e-14 2.001604075898850282e-14 1.200962445539310169e-14 1.020818019416107336e-13
6.704000000000000000e+03 6.462547302246093750e+01 -1.770976448059082031e+01 -1.120898214740720378e-13 -4.803849782157240678e-14 -4.803849782157240678e-14 -1.601283260719080226e-14
6.705000000000000000e+03 5.461331939697265625e+01 -2.073601722717285156e+01 1.701363422162375377e-14 5.304250758780305885e-14 2.101684237342145434e-14 3.402726844324750755e-14
6.706000000000000000e+03 4.035527420043945312e+01 -2.079711723327636719e+01 -6.004812227696550847e-15 -1.401122768425900472e-14 -6.004812227696550847e-15 4.003208151797700565e-14
6.707000000000000000e+03 4.661099243164062500e+01 -1.886492919921875000e+01 6.505213034913026604e-14 1.651323256737433076e-13 6.905533680686207210e-14 6.004811719476782494e-14
6.708000000000000000e+03 4.811664581298828125e+01 -1.766172790527343750e+01 -4.953969770212299228e-14 2.451964887096973189e-14 -7.506014649345978118e-15 -1.501202929869195624e-14
6.709000000000000000e+03 5.124560165405273438e+01 -1.905883026123046875e+01 3.227586519447336877e-14 -8.481796943396111010e-14 -1.576263093303314350e-14 6.505213034913026604e-15
6.710000000000000000e+03 4.985354614257812500e+01 -1.734568977355957031e+01 -1.200962445539310169e-14 -2.802245536851800944e-14 -1.200962445539310169e-14 1.251002475438980910e-13
6.711000000000000000e+03 4.826417922973632812e+01 -1.895787620544433594e+01 -1.801443583605670529e-14 3.803047490097931360e-14 6.004812227696550847e-15 3.602887167211341057e-14
6.712000000000000000e+03 3.726513671875000000e+01 -2.265817260742187500e+01 5.304250758780305885e-14 -2.301844560228735737e-14 9.007217918028352643e-15 1.040834085586084257e-13
6.713000000000000000e+03 6.169032669067382812e+01 -2.319576835632324219e+01 -4.587660885403167799e-14 2.090933356362414952e-13 4.896501972872883968e-14 4.044647375269633249e-14
6.714000000000000000e+03 6.179285430908203125e+01 -2.527074432373046875e+01 -5.391820751812423373e-14 1.827714683159259446e-13 3.865597823934051325e-14 2.902325867701685547e-14
6.715000000000000000e+03 5.055746841430664062e+01 -1.813644409179687500e+01 1.951563910473907981e-14 1.456166865690042278e-13 4.953969770212299228e-14 -6.004811719476782494e-14
6.716000000000000000e+03 6.529580688476562500e+01 -2.020363807678222656e+01 5.673296237635426509e-14 1.615669674871061945e-13 6.548997862022495897e-14 6.067362053312902459e-14
6.717000000000000000e+03 3.156962585449218750e+01 -2.042729949951171875e+01 -5.204170427930421283e-14 -6.805453688649501509e-14 -3.602887167211341057e-14 2.802245536851800944e-14
6.718000000000000000e+03 3.074480247497558594e+01 -2.316097259521484375e+01 -4.853889778175593528e-14 -6.655333022968085155e-14 -3.452766840343103605e-14 -1.200962445539310169e-14
6.719000000000000000e+03 2.855233955383300781e+01 -2.390385055541992188e+01 -5.404330750817011586e-14 3.402726844324750755e-14 -6.004812227696550847e-15 5.704571743366665393e-14
6.720000000000000000e+03 4.768967437744140625e+01 -1.832530021667480469e+01 1.100882199392720293e-14 2.792237469885494594e-13 8.706977603105056640e-14 4.003208151797700565e-14
6.721000000000000000e+03 6.331603622436523438e+01 -1.687328529357910156e+01 6.204972381176551699e-14 1.180946345488015359e-13 5.404330750817011586e-14 5.604491073703601889e-14
6.722000000000000000e+03 6.119574356079101562e+01 -1.891836738586425781e+01 1.871499781319271860e-13 2.231788430277770185e-13 1.230986477031639770e-13 6.705373696612795809e-14
6.723000000000000000e+03 6.358881759643554688e+01 -1.788927268981933594e+01 2.121700303512122354e-13 2.281828697346666157e-13 1.321058605389946461e-13 0.000000000000000000e+00
6.724000000000000000e+03 4.648213195800781250e+01 -2.019778251647949219e+01 3.903127820947815962e-14 1.311050606186275891e-13 5.104090097080536681e-14 3.602887167211341057e-14
6.725000000000000000e+03 6.504090881347656250e+01 -1.878366279602050781e+01 -4.003208151797700565e-14 1.200962343895356499e-13 2.401924891078620339e-14 2.201764398785440585e-14
6.726000000000000000e+03 6.250159835815429688e+01 -1.785877990722656250e+01 1.710120489228222906e-13 2.539535049535680128e-14 5.892222067248667483e-14 1.348580670962676309e-13
6.727000000000000000e+03 5.651708984375000000e+01 -2.142631721496582031e+01 4.978990107034654555e-14 6.280032375204080974e-14 3.377706846315574329e-14 7.205774334422682115e-14
6.728000000000000000e+03 5.945699691772460938e+01 -2.003658103942871094e+01 8.006416303595401129e-14 8.006416303595401129e-14 4.803849782157240678e-14 4.803849782157240678e-14
6.729000000000000000e+03 4.476221084594726562e+01 -2.285136032104492188e+01 -5.804651735403371093e-14 1.581267126786467525e-13 3.002405859738391247e-14 1.100882216333379238e-13
6.730000000000000000e+03 6.379667663574218750e+01 -1.907121467590332031e+01 5.404330750817011586e-14 1.261010474642651480e-13 5.404330750817011586e-14 6.405133042876320904e-14
6.731000000000000000e+03 3.758945846557617188e+01 -2.020142745971679688e+01 8.406736949368581735e-14 -4.403528797570881170e-14 1.200962445539310169e-14 5.604491073703601889e-14
6.732000000000000000e+03 3.966869354248046875e+01 -2.254989242553710938e+01 -6.805453688649501509e-14 6.805453688649501509e-14 0.000000000000000000e+00 9.207378240914942946e-14
6.733000000000000000e+03 5.346865081787109375e+01 -1.934650993347167969e+01 -2.602085213965210642e-14 -3.402726844324750755e-14 -1.801443583605670529e-14 -8.006416303595401129e-15
6.734000000000000000e+03 5.332887268066406250e+01 -2.061493110656738281e+01 8.206576287668812530e-14 5.804651735403371093e-14 4.203368474684290867e-14 2.802245536851800944e-14
6.735000000000000000e+03 5.254930877685546875e+01 -1.903173637390136719e+01 -7.005613842129502361e-15 -3.002406113848275424e-15 -3.002406113848275424e-15 -1.200962445539310169e-14
6.736000000000000000e+03 3.122924041748046875e+01 -2.173824119567871094e+01 -6.004812227696550847e-15 -1.401122768425900472e-14 -6.004812227696550847e-15 7.005614350349270714e-14
6.737000000000000000e+03 3.271234130859375000e+01 -2.207694435119628906e+01 2.802245536851800944e-14 1.200962445539310169e-14 1.200962445539310169e-14 1.601283260719080226e-14
6.738000000000000000e+03 5.213785934448242188e+01 -1.993515586853027344e+01 4.803849782157240678e-14 3.202566521438160452e-14 2.401924891078620339e-14 0.000000000000000000e+00
6.739000000000000000e+03 3.838105392456054688e+01 -2.188796997070312500e+01 7.956375629950690476e-14 -3.452766840343103605e-14 1.351082687704252897e-14 3.803047490097931360e-14
6.740000000000000000e+03 4.764028549194335938e+01 -2.192134094238281250e+01 3.002405859738391247e-14 -1.000802037949425141e-14 6.004812227696550847e-15 -2.401924891078620339e-14
6.741000000000000000e+03 3.392569732666015625e+01 -2.403256034851074219e+01 -1.100882199392720293e-14 4.103288143834406265e-14 9.007217918028352643e-15 -5.804651735403371093e-14
6.742000000000000000e+03 3.452611160278320312e+01 -2.081425857543945312e+01 -1.801443583605670529e-14 3.803047490097931360e-14 6.004812227696550847e-15 -1.000802037949425141e-14
6.743000000000000000e+03 6.484484100341796875e+01 -2.100397300720214844e+01 1.220978477827969200e-13 9.807859548387892756e-14 6.605293026949732305e-14 -1.521218996039172544e-13
6.744000000000000000e+03 6.271436691284179688e+01 -2.413677787780761719e+01 -3.102486190588275849e-14 6.104892389139845998e-14 9.007217918028352643e-15 -6.255012631304788726e-15
6.745000000000000000e+03 2.376381301879882812e+01 -2.549470710754394531e+01 -4.203368474684290867e-14 -1.801443583605670529e-14 -1.801443583605670529e-14 -1.000802037949425141e-14
6.746000000000000000e+03 2.702481079101562500e+01 -2.664675521850585938e+01 -9.757819552369539906e-15 8.731997601114233065e-14 2.326864727644501613e-14 -3.903127820947815962e-14
6.747000000000000000e+03 4.328305435180664062e+01 -2.220402908325195312e+01 2.852285871683332696e-14 1.266014474244486765e-13 4.653729455289003225e-14 1.000802037949425141e-14
6.748000000000000000e+03 6.301130294799804688e+01 -1.739758491516113281e+01 5.604491073703601889e-14 -1.361090737729900302e-13 -2.401924891078620339e-14 5.154130431912068433e-14
6.749000000000000000e+03 6.076704788208007812e+01 -2.217822647094726562e+01 8.631917609077527365e-14 -8.757017937936588392e-15 2.326864727644501613e-14 3.302646513474866152e-14
6.750000000000000000e+03 4.888900756835937500e+01 -1.958231735229492188e+01 3.002405859738391247e-14 1.501202997631831404e-13 5.404330750817011586e-14 3.202566521438160452e-14
6.751000000000000000e+03 4.755960083007812500e+01 -1.919565200805664062e+01 -7.606094980195862720e-14 3.602887167211341057e-14 -1.200962445539310169e-14 8.807057595141762341e-14
6.752000000000000000e+03 5.731287384033203125e+01 -1.944825553894042969e+01 -4.403528797570881170e-14 4.003208151797700565e-15 -1.200962445539310169e-14 1.000802021008766196e-13
6.753000000000000000e+03 5.520720291137695312e+01 -2.226415061950683594e+01 -3.102486190588275849e-14 -1.901523745048965680e-14 -1.501202929869195624e-14 3.753007494079578510e-14
6.754000000000000000e+03 6.426820373535156250e+01 -1.836755752563476562e+01 -1.576263127184632240e-13 2.527025084412409806e-13 2.852285871683332696e-14 -5.204170427930421283e-14
6.755000000000000000e+03 6.399509811401367188e+01 -2.043938064575195312e+01 1.581267126786467525e-13 1.821459649775647449e-13 1.020818019416107336e-13 7.005614350349270714e-14
6.756000000000000000e+03 5.881483840942382812e+01 -2.181330108642578125e+01 2.301844560228735737e-14 1.871499781319271860e-13 6.305052373213257400e-14 6.505213034913026604e-14
6.757000000000000000e+03 6.189379882812500000e+01 -1.837821388244628906e+01 2.807249604216272010e-13 1.451162933850842773e-14 8.857097591160115191e-14 1.210970478624298630e-13
6.758000000000000000e+03 4.877769470214843750e+01 -1.834375762939453125e+01 4.503608959014176322e-15 1.706367387882892772e-13 5.254210423948774134e-14 3.152526186606628700e-14
6.759000000000000000e+03 4.934693145751953125e+01 -1.900441360473632812e+01 -1.561251128379126385e-13 1.160930347080674219e-13 -1.200962445539310169e-14 -8.006416303595401129e-15
6.760000000000000000e+03 4.637072372436523438e+01 -2.168243217468261719e+01 -6.805453688649501509e-14 1.080866150163402317e-13 1.200962445539310169e-14 5.804651735403371093e-14
6.761000000000000000e+03 6.211249542236328125e+01 -2.754203605651855469e+01 -1.030826086382413687e-13 9.307458910578006450e-14 -3.002406113848275424e-15 5.804651735403371093e-14
6.762000000000000000e+03 6.098419952392578125e+01 -2.041455459594726562e+01 5.679551406544310066e-14 2.759711404710929461e-13 9.983000212078485536e-14 1.701363388281057487e-13
6.763000000000000000e+03 4.123330307006835938e+01 -2.313134002685546875e+01 2.401924891078620339e-14 5.604491073703601889e-14 2.401924891078620339e-14 3.102486190588275849e-14
6.764000000000000000e+03 4.441376113891601562e+01 -2.455930519104003906e+01 3.002406113848275424e-15 4.703769451307356075e-14 1.501202929869195624e-14 5.204170427930421283e-14
6.765000000000000000e+03 3.014579582214355469e+01 -2.465969848632812500e+01 6.004811719476782494e-14 -2.001604075898850282e-14 1.200962445539310169e-14 4.503609128420765773e-14
6.766000000000000000e+03 2.451163864135742188e+01 -2.877429008483886719e+01 1.050842118671072717e-14 2.451964887096973189e-14 1.050842118671072717e-14 -6.755413438521264483e-15
6.767000000000000000e+03 4.231838226318359375e+01 -2.548456001281738281e+01 -3.102486190588275849e-14 -5.904731727440076794e-14 -2.702165375408505793e-14 3.202566521438160452e-14
6.768000000000000000e+03 3.113896369934082031e+01 -2.712189292907714844e+01 6.305052373213257400e-14 6.705373696612795809e-14 3.903127820947815962e-14 8.206576287668812530e-14
6.769000000000000000e+03 6.396791839599609375e+01 -1.729885482788085938e+01 1.666335391068210492e-13 -1.115894215138885093e-13 1.651323256737433076e-14 -9.407538902614712151e-14
6.770000000000000000e+03 6.000668716430664062e+01 -2.111343002319335938e+01 -2.301844560228735737e-14 1.331066604593617031e-13 3.302646513474866152e-14 -8.306656957331876034e-14
6.771000000000000000e+03 6.252372360229492188e+01 -2.055400276184082031e+01 2.854787803721614559e-13 2.124202235550404216e-13 1.493696930466442696e-13 1.281026608575264181e-13
6.772000000000000000e+03 5.384451293945312500e+01 -2.322235298156738281e+01 7.506014988159157020e-14 5.504411081666896188e-14 3.903127820947815962e-14 4.203368474684290867e-14
6.773000000000000000e+03 5.961864852905273438e+01 -2.538955879211425781e+01 -2.702165375408505793e-14 9.707779556351187056e-14 2.101684237342145434e-14 8.169046629468226794e-14
6.774000000000000000e+03 6.336640930175781250e+01 -2.131714630126953125e+01 -3.803047490097931360e-14 2.582069215557869502e-13 6.605293026949732305e-14 -1.135910281308862013e-13
6.775000000000000000e+03 6.320833969116210938e+01 -1.979870033264160156e+01 -1.110890215537049808e-13 3.012413994467333378e-13 5.704571743366665393e-14 2.001604075898850282e-15
6.776000000000000000e+03 4.873887634277343750e+01 -2.062079429626464844e+01 2.802245536851800944e-14 1.200962445539310169e-14 1.200962445539310169e-14 -1.000802037949425141e-14
6.777000000000000000e+03 4.976988220214843750e+01 -2.069403457641601562e+01 -7.205774334422682115e-14 -8.006416303595401129e-15 -2.401924891078620339e-14 2.401924891078620339e-14
6.778000000000000000e+03 4.885615158081054688e+01 -2.201411628723144531e+01 -4.203368474684290867e-14 1.421138868477195283e-13 3.002405859738391247e-14 6.805453688649501509e-14
6.779000000000000000e+03 5.750931549072265625e+01 -2.270511436462402344e+01 1.726383420171551802e-14 3.027426196560746574e-14 1.426142935841666348e-14 4.203368474684290867e-14
6.780000000000000000e+03 5.620525360107421875e+01 -2.376832962036132812e+01 8.256616283687165381e-14 3.252606517456513302e-14 3.452766840343103605e-14 4.603689120457471473e-14
6.781000000000000000e+03 5.850880432128906250e+01 -2.410016441345214844e+01 -5.229190425939597708e-14 1.148420280313450226e-13 1.876503747039789255e-14 5.604491073703601889e-14
6.782000000000000000e+03 6.259340667724609375e+01 -2.224034690856933594e+01 2.326864727644501613e-14 5.429350748826188011e-14 2.326864727644501613e-14 1.551243095294137925e-14
6.783000000000000000e+03 3.736752700805664062e+01 -2.431013107299804688e+01 -8.306656957331876034e-14 3.302646513474866152e-14 -1.501202929869195624e-14 3.803047490097931360e-14
6.784000000000000000e+03 4.762102890014648438e+01 -2.043600845336914062e+01 -5.804651735403371093e-14 1.581267126786467525e-13 3.002405859738391247e-14 5.004010105043830980e-14
6.785000000000000000e+03 2.589467811584472656e+01 -2.765311431884765625e+01 2.251804564210382886e-14 -6.755413692631148659e-14 -1.351082687704252897e-14 3.152526186606628700e-14
6.786000000000000000e+03 4.608450317382812500e+01 -2.517428398132324219e+01 -7.105694342385976414e-14 1.411130869273524713e-13 2.101684237342145434e-14 8.606896933441993136e-14
6.787000000000000000e+03 4.625014114379882812e+01 -2.332620811462402344e+01 4.603689120457471473e-14 5.404330750817011586e-14 3.002405859738391247e-14 1.000802037949425141e-14
6.788000000000000000e+03 4.074533462524414062e+01 -2.481140899658203125e+01 -1.080866150163402317e-13 6.805453688649501509e-14 -1.200962445539310169e-14 5.604491073703601889e-14
6.789000000000000000e+03 4.042734909057617188e+01 -2.644039535522460938e+01 -1.100882199392720293e-14 4.103288143834406265e-14 9.007217918028352643e-15 5.604491073703601889e-14
6.790000000000000000e+03 5.274631881713867188e+01 -2.186001205444335938e+01 2.978949823363025162e-14 8.139334746557619349e-14 3.335485303213557573e-14 7.818765471493630687e-15
6.791000000000000000e+03 5.166946029663085938e+01 -2.090145492553710938e+01 -6.229992379185728124e-14 6.480193036903850179e-14 7.506015284620688559e-16 3.002405859738391247e-14
6.792000000000000000e+03 5.099518203735351562e+01 -2.159560966491699219e+01 -8.807057595141762341e-14 8.006416303595401129e-15 -2.401924891078620339e-14 -6.004811719476782494e-14
6.793000000000000000e+03 6.171623992919921875e+01 -2.134805107116699219e+01 6.868004022485621474e-14 2.353135590028865298e-13 9.119808586696004360e-14 4.453568793589234021e-14
6.794000000000000000e+03 4.771047210693359375e+01 -2.358938026428222656e+01 3.002406113848275424e-15 1.271018609371593611e-13 3.903127820947815962e-14 9.007218256841531545e-14
6.795000000000000000e+03 4.946099090576171875e+01 -2.554548263549804688e+01 -8.406736949368581735e-14 1.240994476235310340e-13 1.200962445539310169e-14 4.203368474684290867e-14
6.796000000000000000e+03 5.968331527709960938e+01 -2.307428169250488281e+01 -8.706977603105056640e-14 1.971579908881249121e-13 3.302646513474866152e-14 3.577867169202164632e-14
6.797000000000000000e+03 6.069084167480468750e+01 -2.422906875610351562e+01 5.416840749821599799e-14 1.964073909478496194e-14 2.214274397790028798e-14 5.638893825076103650e-14
6.798000000000000000e+03 6.132208633422851562e+01 -2.908837699890136719e+01 -4.853889778175593528e-14 9.357498906596359300e-14 1.351082687704252897e-14 -1.801443583605670529e-14
6.799000000000000000e+03 6.083623504638671875e+01 -2.654852104187011719e+01 3.953167816966168813e-14 6.555253030931379454e-14 3.152526186606628700e-14 4.203368474684290867e-14
6.800000000000000000e+03 5.600030517578125000e+01 -2.641315841674804688e+01 -1.125902282105191443e-14 5.379310752807835161e-14 1.276022524270134170e-14 5.479391083657719763e-14
6.801000000000000000e+03 4.316283035278320312e+01 -2.823352241516113281e+01 5.004010189747125706e-15 1.050842084789754827e-13 3.302646513474866152e-14 -1.000802037949425141e-15
6.802000000000000000e+03 5.042541503906250000e+01 -2.337041091918945312e+01 -6.204972381176551699e-14 2.021620040424873532e-13 4.203368474684290867e-14 1.200962445539310169e-14
6.803000000000000000e+03 3.559918212890625000e+01 -2.428432273864746094e+01 -2.301844560228735737e-14 1.301042606982605321e-14 -3.002406113848275424e-15 3.803047490097931360e-14
6.804000000000000000e+03 3.911532211303710938e+01 -2.441048049926757812e+01 -1.100882199392720293e-14 -3.903127820947815962e-14 -1.501202929869195624e-14 3.803047490097931360e-14
6.805000000000000000e+03 4.172921752929687500e+01 -2.701606178283691406e+01 -5.779631737394194668e-14 1.353584670564511594e-13 2.326864727644501613e-14 5.604491073703601889e-14
6.806000000000000000e+03 4.576434707641601562e+01 -2.726270866394042969e+01 -1.401122768425900472e-14 7.405934996122451319e-14 1.801443583605670529e-14 3.002405859738391247e-14
6.807000000000000000e+03 2.096853828430175781e+01 -2.618361854553222656e+01 -9.007217918028352643e-15 1.901523745048965680e-14 3.002406113848275424e-15 1.701363422162375377e-14
6.808000000000000000e+03 4.999193572998046875e+01 -2.191322708129882812e+01 9.307458910578006450e-14 1.701363422162375377e-14 3.302646513474866152e-14 1.200962445539310169e-14
6.809000000000000000e+03 2.373482513427734375e+01 -3.075586318969726562e+01 5.004010189747125706e-15 2.502005052521915490e-14 9.007217918028352643e-15 4.303448466720996568e-14
6.810000000000000000e+03 2.574825477600097656e+01 -3.035155105590820312e+01 5.804651735403371093e-14 2.001604075898850282e-15 1.801443583605670529e-14 1.000802037949425141e-14
6.811000000000000000e+03 5.487240982055664062e+01 -2.484227752685546875e+01 2.927345865710861972e-14 5.829671733412547519e-14 2.627105211974387067e-14 6.204972381176551699e-14
6.812000000000000000e+03 4.507651519775390625e+01 -2.958663177490234375e+01 -8.281636281696341806e-14 9.032238254850707970e-14 2.251804479507088161e-15 4.803849782157240678e-14
6.813000000000000000e+03 5.983960342407226562e+01 -2.797390747070312500e+01 -5.654531408535133641e-14 8.156536291650459680e-14 7.506014649345978118e-15 8.456776945386934585e-14
6.814000000000000000e+03 5.345463943481445312e+01 -2.598100662231445312e+01 4.853889778175593528e-14 6.505213034913026604e-15 1.651323256737433076e-14 6.855493684667854359e-14
6.815000000000000000e+03 3.725413513183593750e+01 -2.139822959899902344e+01 3.302646513474866152e-14 3.702967498061225660e-14 2.101684237342145434e-14 3.602887167211341057e-14
6.816000000000000000e+03 3.180691337585449219e+01 -2.533433151245117188e+01 -2.001604075898850282e-14 -2.001604075898850282e-14 -1.200962445539310169e-14 -1.000802037949425141e-14
6.817000000000000000e+03 3.538470077514648438e+01 -2.622215461730957031e+01 -4.003208151797700565e-15 -3.602887167211341057e-14 -1.200962445539310169e-14 -1.801443583605670529e-14
6.818000000000000000e+03 3.573756408691406250e+01 -2.262115669250488281e+01 -5.604491073703601889e-14 5.604491073703601889e-14 0.000000000000000000e+00 2.001604075898850282e-15
6.819000000000000000e+03 4.779297637939453125e+01 -2.553808212280273438e+01 3.502807175174635357e-14 1.501202929869195624e-14 1.501202929869195624e-14 6.605293026949732305e-14
6.820000000000000000e+03 5.186935424804687500e+01 -2.721678161621093750e+01 -5.104090097080536681e-14 8.106496295632106830e-14 9.007217918028352643e-15 5.404330750817011586e-14
6.821000000000000000e+03 4.779526901245117188e+01 -2.784091377258300781e+01 -9.407538902614712151e-14 1.541235129971785245e-13 1.801443583605670529e-14 6.204972381176551699e-14
6.822000000000000000e+03 5.248861312866210938e+01 -2.429182243347167969e+01 1.100882199392720293e-14 7.906335633932337625e-14 2.702165375408505793e-14 4.253408470702643718e-14
6.823000000000000000e+03 5.727588272094726562e+01 -2.799060249328613281e+01 -4.290938467716408355e-14 1.417385902657136709e-13 2.964875862724626610e-14 5.354290754798658736e-14
6.824000000000000000e+03 5.848649215698242188e+01 -2.665573692321777344e+01 -3.753007642310344279e-16 7.918845971750104740e-14 2.364394724658266250e-14 8.606896933441993136e-14
6.825000000000000000e+03 3.509031677246093750e+01 -2.842679214477539062e+01 8.506816941405287436e-14 1.851483647386659159e-13 8.106496295632106830e-14 7.606094980195862720e-14
6.826000000000000000e+03 3.303510284423828125e+01 -2.788736915588378906e+01 5.404330750817011586e-14 1.661331391466375207e-13 6.605293026949732305e-14 -3.002406113848275424e-15
6.827000000000000000e+03 5.728388595581054688e+01 -2.523225021362304688e+01 -6.705373696612795809e-14 1.771419518232023038e-13 3.302646513474866152e-14 7.506014988159157020e-14
6.828000000000000000e+03 4.071725463867187500e+01 -2.802814102172851562e+01 -7.005614350349270714e-14 1.301042606982605321e-13 1.801443583605670529e-14 8.006416303595401129e-15
6.829000000000000000e+03 5.463619995117187500e+01 -2.762337303161621094e+01 -2.251804479507088161e-15 1.148420280313450226e-13 3.377706846315574329e-14 4.678749453298179650e-14
6.830000000000000000e+03 3.984550857543945312e+01 -3.091666793823242188e+01 -5.854691731421723944e-14 1.235990476633475055e-13 1.951563910473907981e-14 2.602085213965210642e-14
6.831000000000000000e+03 3.111023712158203125e+01 -3.250856399536132812e+01 -2.952365863720038397e-14 4.453568793589234021e-14 4.503608959014176322e-15 6.004812227696550847e-15
6.832000000000000000e+03 3.893336486816406250e+01 -2.638159942626953125e+01 -1.371098736933570872e-13 2.271820562617724026e-13 2.702165375408505793e-14 1.401122768425900472e-14
6.833000000000000000e+03 5.102521896362304688e+01 -2.511619949340820312e+01 1.601283260719080226e-14 -1.601283260719080226e-14 0.000000000000000000e+00 5.804651735403371093e-14
6.834000000000000000e+03 4.994250106811523438e+01 -2.794302558898925781e+01 2.001604075898850282e-15 1.801443583605670529e-14 6.004812227696550847e-15 4.003208151797700565e-15
6.835000000000000000e+03 5.453923797607421875e+01 -3.049314498901367188e+01 -8.356696953350228885e-14 1.586271126388302810e-13 2.251804564210382886e-14 2.201764398785440585e-14
6.836000000000000000e+03 3.914112854003906250e+01 -2.849088287353515625e+01 -6.505213034913026604e-14 7.506014988159157020e-14 3.002406113848275424e-15 1.060850151756061177e-13
6.837000000000000000e+03 3.719779586791992188e+01 -2.864558601379394531e+01 -1.060850151756061177e-13 4.603689120457471473e-14 -1.801443583605670529e-14 2.001604075898850282e-14
6.838000000000000000e+03 5.749327468872070312e+01 -3.117218971252441406e+01 -2.852285871683332696e-14 1.336070739720723877e-13 3.152526186606628700e-14 5.504410996963601463e-15
6.839000000000000000e+03 5.320191192626953125e+01 -2.893350601196289062e+01 -2.527025050531091915e-14 5.779631737394194668e-14 9.757819552369539906e-15 3.402726844324750755e-14
6.840000000000000000e+03 4.374597167968750000e+01 -3.209696960449218750e+01 -6.151805139516935972e-14 5.369928338257688727e-14 -2.345629683799736569e-15 3.753007642310344279e-16
6.841000000000000000e+03 4.684730529785156250e+01 -3.367114639282226562e+01 -9.207378240914942946e-14 1.321058605389946461e-13 1.200962445539310169e-14 2.101684237342145434e-14
6.842000000000000000e+03 6.993952178955078125e+01 -3.961798858642578125e+01 -8.782037597132585915e-14 -1.476182931860019198e-14 -3.077466192579099424e-14 -2.001604075898850282e-14
6.843000000000000000e+03 2.848521423339843750e+01 -2.778537178039550781e+01 3.315156512479454365e-14 -5.441860747830776224e-14 -6.380112621350670851e-15 8.106496295632106830e-14
6.844000000000000000e+03 2.891936302185058594e+01 -3.085333633422851562e+01 6.029832395112316723e-14 7.255814669254213867e-15 2.026624073908026707e-14 5.329270756789482311e-14
6.845000000000000000e+03 1.769443702697753906e+01 -3.508429718017578125e+01 6.555253030931379454e-14 -4.053248147816053415e-14 7.506014649345978118e-15 4.203368474684290867e-14
6.846000000000000000e+03 2.152100944519042969e+01 -2.961861991882324219e+01 2.001604075898850282e-14 2.001604075898850282e-14 1.200962445539310169e-14 1.726383420171551802e-14
6.847000000000000000e+03 1.959894943237304688e+01 -3.132205390930175781e+01 3.702967498061225660e-14 -7.005613842129502361e-15 9.007217918028352643e-15 6.455173038894673754e-14
6.848000000000000000e+03 3.467368698120117188e+01 -3.092319107055664062e+01 -5.304250758780305885e-14 6.305052373213257400e-14 3.002406113848275424e-15 8.006416303595401129e-15
6.849000000000000000e+03 3.731596755981445312e+01 -3.125093841552734375e+01 2.952365863720038397e-14 1.155926347478838934e-13 4.353488801552528320e-14 1.601283260719080226e-14
6.850000000000000000e+03 3.401327896118164062e+01 -3.372060775756835938e+01 6.004812227696550847e-15 9.407538902614712151e-14 3.002405859738391247e-14 2.401924891078620339e-14
6.851000000000000000e+03 3.021757125854492188e+01 -2.900425720214843750e+01 2.301844560228735737e-14 1.070858150959731747e-13 3.903127820947815962e-14 2.351884725653678038e-14
6.852000000000000000e+03 5.953404617309570312e+01 -3.293961715698242188e+01 -6.868004022485621474e-14 1.650072358480927925e-13 2.889815868697097334e-14 2.001604075898850282e-14
6.853000000000000000e+03 1.790539169311523438e+01 -3.811383819580078125e+01 6.255012377194904549e-14 -7.506014649345978118e-15 1.651323256737433076e-14 6.004812227696550847e-15
6.854000000000000000e+03 5.812966156005859375e+01 -3.526622009277343750e+01 -7.324619833186038487e-14 1.401748319198106718e-13 2.007859075401144389e-14 9.757819552369539906e-15
6.855000000000000000e+03 1.769024848937988281e+01 -4.106783294677734375e+01 6.805453688649501509e-14 -2.802245536851800944e-14 1.200962445539310169e-14 1.401122768425900472e-14
6.856000000000000000e+03 2.607524299621582031e+01 -3.694686126708984375e+01 3.903127820947815962e-14 5.104090097080536681e-14 2.702165375408505793e-14 1.901523745048965680e-14
6.857000000000000000e+03 4.202748870849609375e+01 -3.723085784912109375e+01 -6.655333022968085155e-14 9.157338244896590096e-14 7.506014649345978118e-15 -1.000802037949425141e-15
6.858000000000000000e+03 3.747596359252929688e+01 -3.739303588867187500e+01 3.903127820947815962e-14 9.107298248878237246e-14 3.903127820947815962e-14 3.702967498061225660e-14
6.859000000000000000e+03 4.722505187988281250e+01 -4.078414535522460938e+01 -8.456776945386934585e-14 1.296038607380770036e-13 1.351082687704252897e-14 -1.000802037949425141e-14
6.860000000000000000e+03 6.661735534667968750e+01 -4.064557266235351562e+01 -1.025822086780578402e-13 7.506014649345978118e-15 -2.852285871683332696e-14 -1.200962445539310169e-14
6.861000000000000000e+03 5.875580215454101562e+01 -2.954002189636230469e+01 3.771772661993050280e-14 1.305421157456188030e-13 5.047795270966479175e-14 5.079070099071360256e-14
6.862000000000000000e+03 5.588914489746093750e+01 -3.268495178222656250e+01 -1.738893419176140015e-14 1.862742680372106441e-13 5.066560100066772043e-14 2.502005094873562853e-15
6.863000000000000000e+03 2.929953193664550781e+01 -3.508744812011718750e+01 2.557713731836473020e-14 -1.191384451081642717e-14 4.098988096374375084e-15 4.068885731275083406e-14
6.864000000000000000e+03 3.746644973754882812e+01 -3.418363189697265625e+01 -2.602085213965210642e-14 4.603689120457471473e-14 6.004812227696550847e-15 2.602085213965210642e-14
6.865000000000000000e+03 5.530568313598632812e+01 -3.690476608276367188e+01 -3.853087824929463112e-14 1.636311257931927221e-13 3.753007494079578510e-14 1.050842118671072717e-14
6.866000000000000000e+03 6.051346588134765625e+01 -3.087750053405761719e+01 -9.432558900623888576e-14 1.768917586193741176e-13 2.476984885106149614e-14 4.203368474684290867e-14
6.867000000000000000e+03 5.360522079467773438e+01 -3.371601867675781250e+01 -6.305052373213257400e-14 1.731387521417340758e-13 3.302646513474866152e-14 -7.005613842129502361e-15
6.868000000000000000e+03 3.295757675170898438e+01 -3.688522720336914062e+01 6.004812227696550847e-15 5.404330750817011586e-14 1.801443583605670529e-14 6.004812227696550847e-15
6.869000000000000000e+03 3.685566186904907227e+00 -4.059973144531250000e+01 9.507618725244828400e-15 -6.455173038894673754e-14 -1.651323256737433076e-14 -2.802245536851800944e-14
6.870000000000000000e+03 4.625413131713867188e+01 -8.768666267395019531e+00 2.001604042017532392e-13 3.602887302736612618e-13 1.681347389873716347e-13 1.000802021008766196e-13
6.871000000000000000e+03 1.305345416069030762e+00 -3.055630445480346680e+00 8.006416303595401129e-15 2.321860694161348437e-13 7.205774334422682115e-14 1.601283260719080226e-14
6.872000000000000000e+03 6.429791450500488281e+00 -1.739209175109863281e+01 -4.583673393100673454e-13 -1.202964052156307861e-12 -4.983993903348582499e-13 1.521218996039172544e-13
6.873000000000000000e+03 6.418609619140625000e+00 -1.813974380493164062e+01 -6.245004513516505540e-13 -8.166544155328858690e-13 -4.323464600653609269e-13 1.080866150163402317e-13
6.874000000000000000e+03 7.372980499267578125e+01 -3.672454452514648438e+01 -5.904731727440076794e-14 9.007217918028352643e-15 -1.501202929869195624e-14 -4.803849782157240678e-14
6.875000000000000000e+03 5.429914951324462891e+00 -1.474904155731201172e+01 -2.757209608197919160e-13 -4.298444738169704404e-13 -2.116696303910287069e-13 1.578139610094661527e-13
6.876000000000000000e+03 2.232396125793457031e+00 -3.756935501098632812e+01 1.321058605389946461e-13 -1.200962445539310169e-14 3.602887167211341057e-14 0.000000000000000000e+00
6.877000000000000000e+03 4.724974822998046875e+01 -9.951565742492675781e+00 1.401122768425900472e-14 -3.142518255165593910e-13 -9.007218256841531545e-14 1.281026608575264181e-13
6.878000000000000000e+03 4.703734588623046875e+01 -1.045435810089111328e+01 -7.806255641895631925e-14 3.783031559453226000e-13 9.007218256841531545e-14 -8.807057595141762341e-14
6.879000000000000000e+03 5.764421463012695312e+00 -1.825966072082519531e+01 -2.682149478645118323e-13 -5.724587470723463412e-13 -2.522020949285302960e-13 -1.721379386688398627e-13
6.880000000000000000e+03 5.123661994934082031e+00 -1.828491401672363281e+01 -2.562053217150528361e-13 -6.405133042876320904e-14 -9.607699564314481355e-14 -1.441154866884536423e-13
6.881000000000000000e+03 7.688829803466796875e+01 -3.676820373535156250e+01 -1.681347389873716347e-13 -3.122502256758252770e-13 -1.441154866884536423e-13 -5.604491073703601889e-14
6.882000000000000000e+03 1.861172294616699219e+01 -9.856410980224609375e+00 6.405133042876320904e-14 9.607699564314481355e-14 4.803849782157240678e-14 -8.006416303595401129e-14
6.883000000000000000e+03 1.967297935485839844e+01 -9.508866310119628906e+00 1.601283260719080226e-14 -1.601283260719080226e-14 0.000000000000000000e+00 -2.001604075898850282e-14
6.884000000000000000e+03 1.997841262817382812e+01 -1.007029342651367188e+01 -2.001604075898850282e-15 1.020818019416107336e-13 3.002405859738391247e-14 -1.341074739322559162e-13
6.885000000000000000e+03 4.344453811645507812e+00 -1.404767322540283203e+01 -3.042437992078345088e-13 3.042437992078345088e-13 0.000000000000000000e+00 3.062454261536229350e-13
6.886000000000000000e+03 4.639234924316406250e+01 -1.064195823669433594e+01 7.255814330441034965e-14 1.225982477429804485e-13 5.854691731421723944e-14 1.120898214740720378e-13
6.887000000000000000e+03 3.870009183883666992e+00 -1.945843124389648438e+01 -2.141716301919463494e-13 2.742197473867141744e-13 1.801443583605670529e-14 -2.962373998448980528e-13
6.888000000000000000e+03 1.451002407073974609e+01 -1.672592926025390625e+01 3.803047490097931360e-14 6.204972381176551699e-14 3.002405859738391247e-14 -3.202566521438160452e-14
6.889000000000000000e+03 5.272634124755859375e+01 -3.095112609863281250e+01 -1.801443583605670529e-14 1.180946345488015359e-13 3.002405859738391247e-14 -1.200962445539310169e-14
6.890000000000000000e+03 2.726349449157714844e+01 -2.918523788452148438e+01 -1.651323256737433076e-14 6.154932385158198849e-14 1.351082687704252897e-14 2.702165375408505793e-14
6.891000000000000000e+03 4.386715888977050781e+00 -1.951139831542968750e+01 2.041636038832214672e-13 -3.242598518252842732e-13 -3.602887167211341057e-14 -1.841475648182988589e-13
6.892000000000000000e+03 3.697459936141967773e+00 -1.592189598083496094e+01 -1.861491782115601290e-13 -1.140914348673333079e-13 -9.007218256841531545e-14 8.807057595141762341e-14
6.893000000000000000e+03 6.953005218505859375e+01 -3.026404762268066406e+01 -9.807859548387892756e-14 -4.203368474684290867e-14 -4.203368474684290867e-14 -1.200962445539310169e-14
6.894000000000000000e+03 4.521676063537597656e+00 -2.000551223754882812e+01 -5.654531408535133641e-14 -2.987393860932885392e-13 -1.065854151357896462e-13 -3.282630515067525012e-13
6.895000000000000000e+03 4.396450424194335938e+01 -1.045858192443847656e+01 2.562053217150528361e-13 -2.562053217150528361e-13 0.000000000000000000e+00 6.805453688649501509e-14
6.896000000000000000e+03 2.147896766662597656e+01 -1.071355819702148438e+01 6.405133042876320904e-14 -6.405133042876320904e-14 0.000000000000000000e+00 8.006416303595401129e-14
6.897000000000000000e+03 3.091613292694091797e+00 -1.965247344970703125e+01 -9.407538902614712151e-14 5.544442942956306908e-13 1.381106736137241442e-13 -1.601283260719080226e-13
6.898000000000000000e+03 3.786355972290039062e+00 -2.096458625793457031e+01 1.200962343895356499e-13 2.802245740139708285e-13 1.200962343895356499e-13 -2.401924687790712998e-13
6.899000000000000000e+03 4.609200954437255859e+00 -3.100362014770507812e+01 9.207378240914942946e-14 -5.204170427930421283e-14 1.200962445539310169e-14 -4.003208151797700565e-15
6.900000000000000000e+03 8.224321365356445312e+00 -2.498918724060058594e+01 2.762213472274482884e-13 -3.162534253572935050e-13 -1.200962445539310169e-14 -1.040834085586084257e-13
6.901000000000000000e+03 2.702314567565917969e+01 -2.310469245910644531e+01 -5.404330750817011586e-14 -4.603689120457471473e-14 -3.002405859738391247e-14 -9.007217918028352643e-15
6.902000000000000000e+03 7.603171539306640625e+01 -2.956073188781738281e+01 -1.461170865291877563e-13 -1.541235129971785245e-13 -9.007218256841531545e-14 8.006416303595401129e-15
6.903000000000000000e+03 8.336904525756835938e+00 -4.081174373626708984e+00 1.441154866884536423e-13 -3.042437992078345088e-13 -4.803849782157240678e-14 -1.601283260719080226e-14
6.904000000000000000e+03 6.354680252075195312e+01 -1.164572525024414062e+01 2.001604075898850282e-14 -2.201764432666758475e-13 -6.004811719476782494e-14 -4.803849782157240678e-14
6.905000000000000000e+03 7.809034824371337891e+00 -4.742604255676269531e+00 8.006416303595401129e-14 -4.003208084035064784e-13 -9.607699564314481355e-14 -8.006416303595401129e-14
6.906000000000000000e+03 7.854547023773193359e+00 -5.509787559509277344e+00 1.311050606186275891e-13 -1.210970478624298630e-13 3.002406113848275424e-15 -8.006416303595401129e-15
6.907000000000000000e+03 5.824546337127685547e+00 -5.702305316925048828e+00 1.200962445539310169e-14 2.802245536851800944e-14 1.200962445539310169e-14 2.401924891078620339e-14
6.908000000000000000e+03 6.405907440185546875e+01 -1.227336883544921875e+01 7.606094980195862720e-14 -1.961571909677578551e-13 -3.602887167211341057e-14 8.006416303595401129e-15
6.909000000000000000e+03 8.399638175964355469e+00 -4.577689170837402344e+00 1.681347389873716347e-13 -5.684555473908781131e-13 -1.200962343895356499e-13 -3.122502256758252770e-13
6.910000000000000000e+03 3.869726657867431641e+00 -2.163116836547851562e+01 1.641315257533762506e-13 1.160930347080674219e-13 8.406736949368581735e-14 -1.961571909677578551e-13
6.911000000000000000e+03 6.993485260009765625e+01 -2.655450439453125000e+01 7.506014649345978118e-15 -4.253408470702643718e-14 -1.050842118671072717e-14 -1.120898214740720378e-13
6.912000000000000000e+03 5.255685329437255859e+00 -2.480696678161621094e+01 2.401924687790712998e-13 -8.006416303595401129e-14 4.803849782157240678e-14 -2.321860694161348437e-13
6.913000000000000000e+03 6.775204181671142578e+00 -5.038683414459228516e+00 -1.361090737729900302e-13 -4.243400607024244708e-13 -1.681347389873716347e-13 -5.204170427930421283e-14
6.914000000000000000e+03 6.858471679687500000e+01 -1.294681358337402344e+01 1.321058605389946461e-13 1.481186999224490264e-13 8.406736949368581735e-14 -7.205774334422682115e-14
6.915000000000000000e+03 4.836877441406250000e+01 -1.392335414886474609e+01 7.606094980195862720e-14 1.240994476235310340e-13 6.004811719476782494e-14 5.604491073703601889e-14
6.916000000000000000e+03 4.862140655517578125e+01 -1.431966018676757812e+01 3.042437992078345088e-13 1.761411519028352468e-13 1.441154866884536423e-13 -7.806255641895631925e-14
6.917000000000000000e+03 2.057412147521972656e+01 -1.533335113525390625e+01 1.441154866884536423e-13 -1.441154866884536423e-13 0.000000000000000000e+00 1.200962343895356499e-13
6.918000000000000000e+03 4.245492553710937500e+01 -1.133340072631835938e+01 2.401924687790712998e-13 -8.006416303595401129e-14 4.803849782157240678e-14 5.604491073703601889e-14
6.919000000000000000e+03 6.760765838623046875e+01 -2.364764785766601562e+01 -1.341074739322559162e-13 -1.261010474642651480e-13 -7.806255641895631925e-14 -8.006416303595401129e-15
6.920000000000000000e+03 1.892656898498535156e+01 -1.481587505340576172e+01 -8.006416303595401129e-15 8.807057595141762341e-14 2.401924891078620339e-14 7.205774334422682115e-14
6.921000000000000000e+03 6.642547607421875000e+01 -2.453542327880859375e+01 -1.080866150163402317e-13 -9.207378240914942946e-14 -6.004811719476782494e-14 4.003208151797700565e-15
6.922000000000000000e+03 6.178011322021484375e+01 -1.270597457885742188e+01 1.681347389873716347e-13 7.205774334422682115e-14 7.205774334422682115e-14 2.481988952470620680e-13
6.923000000000000000e+03 7.425031280517578125e+01 -1.423996257781982422e+01 1.581267126786467525e-13 2.201764398785440585e-14 5.404330750817011586e-14 -1.921539912862896271e-13
6.924000000000000000e+03 4.693577957153320312e+01 -1.781899261474609375e+01 -2.401924891078620339e-14 -5.604491073703601889e-14 -2.401924891078620339e-14 8.406736949368581735e-14
6.925000000000000000e+03 2.055285835266113281e+01 -1.467066001892089844e+01 1.361090737729900302e-13 -2.161732300326804634e-13 -2.401924891078620339e-14 1.200962445539310169e-14
6.926000000000000000e+03 4.955833816528320312e+01 -1.517393016815185547e+01 2.401924891078620339e-14 3.763015561045884860e-13 1.200962343895356499e-13 8.006416303595401129e-15
6.927000000000000000e+03 6.243460464477539062e+01 -1.363682365417480469e+01 1.641315257533762506e-13 1.160930347080674219e-13 8.406736949368581735e-14 1.881507780522942430e-13
6.928000000000000000e+03 2.864114379882812500e+01 -1.826964569091796875e+01 -8.857097591160115191e-14 5.354290754798658736e-14 -1.050842118671072717e-14 -3.202566521438160452e-14
6.929000000000000000e+03 6.716117858886718750e+01 -1.340903949737548828e+01 -3.402726844324750755e-14 1.341074739322559162e-13 3.002405859738391247e-14 4.903929774193946378e-14
6.930000000000000000e+03 2.115674209594726562e+01 -1.404748058319091797e+01 -4.003208151797700565e-14 -2.001604042017532392e-13 -7.205774334422682115e-14 -2.401924891078620339e-14
6.931000000000000000e+03 4.922126007080078125e+01 -1.485746860504150391e+01 2.907329867303520832e-13 1.245998475837145625e-13 1.245998475837145625e-13 -5.204170427930421283e-14
6.932000000000000000e+03 7.223622131347656250e+01 -1.507415962219238281e+01 2.381908689383371858e-13 1.020818019416107336e-13 1.020818019416107336e-13 -1.040834085586084257e-13
6.933000000000000000e+03 4.174442672729492188e+01 -1.199249935150146484e+01 1.761411519028352468e-13 -1.601283260719080226e-14 4.803849782157240678e-14 -8.406736949368581735e-14
6.934000000000000000e+03 4.567323303222656250e+01 -1.732134246826171875e+01 8.006416303595401129e-15 7.205774334422682115e-14 2.401924891078620339e-14 1.160930347080674219e-13
6.935000000000000000e+03 5.049182891845703125e+01 -1.953470993041992188e+01 -1.461170865291877563e-13 8.606896933441993136e-14 -1.801443583605670529e-14 -3.002405859738391247e-14
6.936000000000000000e+03 5.049505615234375000e+01 -1.531409263610839844e+01 1.981587908084919691e-13 2.221780431074099615e-13 1.261010474642651480e-13 -3.202566521438160452e-14
6.937000000000000000e+03 5.096009063720703125e+01 -1.559580516815185547e+01 9.207378240914942946e-14 2.682149478645118323e-13 1.080866150163402317e-13 8.006416303595401129e-14
6.938000000000000000e+03 4.994359207153320312e+01 -1.860574531555175781e+01 -3.127506188597452275e-14 3.377706846315574329e-14 7.506015284620688559e-16 5.654531408535133641e-14
6.939000000000000000e+03 4.966791915893554688e+01 -1.972805976867675781e+01 1.060850151756061177e-13 -4.603689120457471473e-14 1.801443583605670529e-14 4.803849782157240678e-14
6.940000000000000000e+03 6.691895294189453125e+01 -2.109200668334960938e+01 -9.532638892660594276e-14 1.879005712959389007e-13 2.777225538842624519e-14 -7.005614350349270714e-14
6.941000000000000000e+03 5.190104675292968750e+01 -1.574651718139648438e+01 1.841475648182988589e-13 2.161732300326804634e-13 1.200962343895356499e-13 1.281026608575264181e-13
6.942000000000000000e+03 5.077039718627929688e+01 -1.622430419921875000e+01 3.002405859738391247e-14 1.501202997631831404e-13 5.404330750817011586e-14 5.204170427930421283e-14
6.943000000000000000e+03 5.823312759399414062e+01 -1.304732322692871094e+01 2.562053217150528361e-13 -9.607699564314481355e-14 4.803849782157240678e-14 1.601283260719080226e-14
6.944000000000000000e+03 7.312872314453125000e+01 -2.222429084777832031e+01 -8.006416303595401129e-15 -2.321860694161348437e-13 -7.205774334422682115e-14 -1.961571909677578551e-13
6.945000000000000000e+03 5.140895080566406250e+01 -1.576330947875976562e+01 -2.241796429481440756e-13 -9.607699564314481355e-14 -9.607699564314481355e-14 -3.202566521438160452e-14
6.946000000000000000e+03 6.254463958740234375e+01 -1.520119762420654297e+01 6.805453688649501509e-14 2.121700303512122354e-13 8.406736949368581735e-14 2.161732300326804634e-13
6.947000000000000000e+03 6.187115097045898438e+01 -1.539701747894287109e+01 5.004010105043830980e-14 -7.005614350349270714e-14 -6.004812227696550847e-15 1.281026608575264181e-13
6.948000000000000000e+03 5.773970794677734375e+01 -1.379475498199462891e+01 1.140914348673333079e-13 -1.341074739322559162e-13 -6.004812227696550847e-15 -9.207378240914942946e-14
6.949000000000000000e+03 4.265935516357421875e+01 -1.447807025909423828e+01 0.000000000000000000e+00 0.000000000000000000e+00 0.000000000000000000e+00 -1.521218996039172544e-13
6.950000000000000000e+03 6.809874725341796875e+01 -2.181258583068847656e+01 1.601283260719080226e-14 1.441154866884536423e-13 4.803849782157240678e-14 2.401924891078620339e-14
6.951000000000000000e+03 6.704148864746093750e+01 -1.454068183898925781e+01 -8.006416303595401129e-15 8.807057595141762341e-14 2.401924891078620339e-14 0.000000000000000000e+00
6.952000000000000000e+03 5.383930206298828125e+01 -1.541049957275390625e+01 -2.001604042017532392e-13 1.200962343895356499e-13 -2.401924891078620339e-14 1.601283260719080226e-14
6.953000000000000000e+03 2.422172737121582031e+01 -1.421751976013183594e+01 -8.406736949368581735e-14 -3.562855034871387216e-13 -1.321058605389946461e-13 3.202566521438160452e-14
6.954000000000000000e+03 2.438514328002929688e+01 -1.543460369110107422e+01 -1.321058605389946461e-13 -1.481186999224490264e-13 -8.406736949368581735e-14 -7.205774334422682115e-14
6.955000000000000000e+03 5.963430023193359375e+01 -1.322633838653564453e+01 1.691355389077386917e-13 -1.901523745048965680e-14 4.503609128420765773e-14 1.200962445539310169e-14
6.956000000000000000e+03 7.340824127197265625e+01 -2.105905342102050781e+01 2.001604075898850282e-15 -1.821459649775647449e-13 -5.404330750817011586e-14 -8.006416303595401129e-15
6.957000000000000000e+03 7.271193695068359375e+01 -2.084918212890625000e+01 3.402726844324750755e-14 -2.141716301919463494e-13 -5.404330750817011586e-14 -2.882309733769072846e-13
6.958000000000000000e+03 6.589346313476562500e+01 -1.526849651336669922e+01 -2.371900690179701288e-13 8.706977603105056640e-14 -4.503609128420765773e-14 1.000802037949425141e-15
6.959000000000000000e+03 5.485571289062500000e+01 -1.530755329132080078e+01 -2.191756433463087905e-13 8.907137587178468041e-14 -3.903127820947815962e-14 1.881507780522942430e-13
6.960000000000000000e+03 7.354784393310546875e+01 -2.046850204467773438e+01 1.200962445539310169e-14 -1.321058605389946461e-13 -3.602887167211341057e-14 -3.002405995263662808e-13
6.961000000000000000e+03 5.939160537719726562e+01 -1.270798683166503906e+01 2.502004950877961820e-13 -3.502807039649363796e-13 -3.002405859738391247e-14 7.205774334422682115e-14
6.962000000000000000e+03 6.877484893798828125e+01 -1.584331226348876953e+01 -5.204170427930421283e-14 -3.883111822540474822e-13 -1.321058605389946461e-13 -1.921539912862896271e-13
6.963000000000000000e+03 2.793319702148437500e+01 -1.448901176452636719e+01 4.203368474684290867e-14 4.183352340751678167e-13 1.381106736137241442e-13 -2.702165477052459464e-13
6.964000000000000000e+03 3.711204147338867188e+01 -1.404146671295166016e+01 2.882309733769072846e-13 3.202566521438160452e-14 9.607699564314481355e-14 -2.662133209187234062e-13
6.965000000000000000e+03 6.816543579101562500e+01 -1.619719314575195312e+01 1.301042606982605321e-13 -2.301844695754007297e-13 -3.002405859738391247e-14 -2.081668171172168513e-13
6.966000000000000000e+03 2.476524162292480469e+01 -1.473537445068359375e+01 -1.120898214740720378e-13 -3.682951296365977178e-13 -1.441154866884536423e-13 6.405133042876320904e-14
6.967000000000000000e+03 5.764670562744140625e+01 -1.503250408172607422e+01 9.607699564314481355e-14 -2.562053217150528361e-13 -4.803849782157240678e-14 -4.803849782157240678e-14
6.968000000000000000e+03 3.136203956604003906e+01 -1.531476783752441406e+01 -1.331066604593617031e-13 -5.704571743366665393e-14 -5.704571743366665393e-14 -8.006416303595401129e-15
6.969000000000000000e+03 7.288014221191406250e+01 -2.003428649902343750e+01 3.702967498061225660e-14 -1.671339390670045777e-13 -3.903127820947815962e-14 -1.481186999224490264e-13
6.970000000000000000e+03 6.702774810791015625e+01 -1.853498077392578125e+01 -2.069158104404944520e-13 9.432558900623888576e-14 -3.377706846315574329e-14 1.205966479022463345e-13
6.971000000000000000e+03 6.684877777099609375e+01 -1.773269462585449219e+01 -1.100882216333379238e-13 9.007218256841531545e-14 -6.004812227696550847e-15 8.807057595141762341e-14
6.972000000000000000e+03 6.869864654541015625e+01 -1.637238311767578125e+01 -9.207378240914942946e-14 3.722983564231202580e-13 8.406736949368581735e-14 -7.205774334422682115e-14
6.973000000000000000e+03 2.753436851501464844e+01 -1.420977210998535156e+01 2.096680169977674368e-13 -4.453568793589234021e-14 4.953969770212299228e-14 -9.807859548387892756e-14
6.974000000000000000e+03 5.608633422851562500e+01 -1.456638240814208984e+01 -8.006416303595401129e-14 2.401924687790712998e-13 4.803849782157240678e-14 -1.200962445539310169e-14
6.975000000000000000e+03 4.035544967651367188e+01 -1.422185993194580078e+01 3.202566521438160452e-13 -3.202566521438160452e-13 0.000000000000000000e+00 -3.202566521438160452e-14
6.976000000000000000e+03 3.996299362182617188e+01 -1.411173915863037109e+01 2.081668171172168513e-13 -3.682951296365977178e-13 -4.803849782157240678e-14 3.602887167211341057e-14
6.977000000000000000e+03 6.969143676757812500e+01 -2.137071609497070312e+01 -1.561251128379126385e-13 -4.403528797570881170e-14 -6.004811719476782494e-14 -1.200962343895356499e-13
6.978000000000000000e+03 6.992292022705078125e+01 -2.077563095092773438e+01 2.401924687790712998e-13 4.003208084035064784e-13 1.921539912862896271e-13 -9.207378240914942946e-14
6.979000000000000000e+03 7.043954467773437500e+01 -2.089235877990722656e+01 -4.003208151797700565e-14 1.200962343895356499e-13 2.401924891078620339e-14 -4.003208151797700565e-14
6.980000000000000000e+03 6.621046447753906250e+01 -1.755032730102539062e+01 -7.606094980195862720e-14 3.602887167211341057e-14 -1.200962445539310169e-14 -6.805453688649501509e-14
