# el_label, x, y, sXX, sYY, sZZ, sXY
1.000000000000000000e+00 4.082002258300781250e+01 -6.582416057586669922e+00 -3.417828798294067383e+00 -2.776346683502197266e+00 -1.858252644538879395e+00 -2.659138917922973633e+00
2.000000000000000000e+00 4.062267684936523438e+01 -6.608354568481445312e+00 4.796580076217651367e-01 1.099202752113342285e+00 4.736582338809967041e-01 7.654821276664733887e-01
3.000000000000000000e+00 4.042533111572265625e+01 -6.634292602539062500e+00 -7.713726758956909180e-01 -4.854372143745422363e-01 -3.770429790019989014e-01 1.846008747816085815e-02
4.000000000000000000e+00 4.022798919677734375e+01 -6.660231113433837891e+00 -1.156232595443725586e+00 2.850302755832672119e-01 -2.613607048988342285e-01 1.723971217870712280e-01
5.000000000000000000e+00 4.083325958251953125e+01 -6.639300823211669922e+00 1.144343280792236328e+01 -2.275126695632934570e+00 2.750491619110107422e+00 2.449869155883789062e+00
6.000000000000000000e+00 4.064474105834960938e+01 -6.703161716461181641e+00 4.298157691955566406e+00 4.853886663913726807e-01 1.435063958168029785e+00 1.522117853164672852e+00
7.000000000000000000e+00 4.045622253417968750e+01 -6.767023086547851562e+00 3.986060142517089844e+00 9.464871287345886230e-01 1.479764223098754883e+00 2.238117694854736328e+00
8.000000000000000000e+00 4.026770401000976562e+01 -6.830883979797363281e+00 2.791325569152832031e+00 2.662200331687927246e-01 9.172636270523071289e-01 1.502594470977783203e+00
9.000000000000000000e+00 4.085731506347656250e+01 -6.692519187927246094e+00 1.603203392028808594e+01 3.185519218444824219e+00 5.765265941619873047e+00 9.433940887451171875e+00
1.000000000000000000e+01 4.068483734130859375e+01 -6.791859626770019531e+00 9.816374778747558594e+00 1.953451037406921387e+00 3.530947685241699219e+00 5.534889221191406250e+00
1.100000000000000000e+01 4.051235961914062500e+01 -6.891200065612792969e+00 6.680585861206054688e+00 2.360180377960205078e+00 2.712229967117309570e+00 4.288672924041748047e+00
1.200000000000000000e+01 4.033988189697265625e+01 -6.990540027618408203e+00 5.586575984954833984e+00 2.080496072769165039e+00 2.300121545791625977e+00 4.095938682556152344e+00
1.300000000000000000e+01 4.089127731323242188e+01 -6.740035533905029297e+00 1.719374465942382812e+01 1.046371936798095703e+01 8.297239303588867188e+00 1.461205387115478516e+01
1.400000000000000000e+01 4.074143981933593750e+01 -6.871053695678710938e+00 1.119442081451416016e+01 6.531810283660888672e+00 5.317869186401367188e+00 9.571839332580566406e+00
1.500000000000000000e+01 4.059160232543945312e+01 -7.002071857452392578e+00 8.757957458496093750e+00 5.412229061126708984e+00 4.251055717468261719e+00 7.518024444580078125e+00
1.600000000000000000e+01 4.044176101684570312e+01 -7.133089542388916016e+00 6.879242897033691406e+00 4.672359943389892578e+00 3.465480804443359375e+00 6.411640644073486328e+00
1.700000000000000000e+01 4.093383789062500000e+01 -6.780031681060791016e+00 1.506853580474853516e+01 1.926047706604003906e+01 1.029870414733886719e+01 1.753263664245605469e+01
1.800000000000000000e+01 4.081237411499023438e+01 -6.937713623046875000e+00 1.099801921844482422e+01 1.256625175476074219e+01 7.069281578063964844e+00 1.237025165557861328e+01
1.900000000000000000e+01 4.069091033935546875e+01 -7.095395565032958984e+00 8.503791809082031250e+00 1.004735279083251953e+01 5.565343379974365234e+00 9.940901756286621094e+00
2.000000000000000000e+01 4.056944274902343750e+01 -7.253077507019042969e+00 7.278875350952148438e+00 8.726880073547363281e+00 4.801726341247558594e+00 8.640110969543457031e+00
2.100000000000000000e+01 4.098336791992187500e+01 -6.810976982116699219e+00 1.220596885681152344e+01 2.811358070373535156e+01 1.209586429595947266e+01 1.778164482116699219e+01
2.200000000000000000e+01 4.089492797851562500e+01 -6.989288806915283203e+00 9.137158393859863281e+00 1.929434394836425781e+01 8.529450416564941406e+00 1.324520015716552734e+01
2.300000000000000000e+01 4.080648803710937500e+01 -7.167600631713867188e+00 7.503475666046142578e+00 1.547077178955078125e+01 6.892274379730224609e+00 1.112704753875732422e+01
2.400000000000000000e+01 4.071804428100585938e+01 -7.345912456512451172e+00 6.289449214935302734e+00 1.337970447540283203e+01 5.900746345520019531e+00 9.630948066711425781e+00
2.500000000000000000e+01 4.103797912597656250e+01 -6.831686496734619141e+00 9.211945533752441406e+00 3.603918838500976562e+01 1.357534027099609375e+01 1.538357162475585938e+01
2.600000000000000000e+01 4.098594284057617188e+01 -7.023804664611816406e+00 7.309285640716552734e+00 2.565693473815917969e+01 9.889866828918457031e+00 1.234348487854003906e+01
2.700000000000000000e+01 4.093390655517578125e+01 -7.215923309326171875e+00 5.853508949279785156e+00 2.089556694030761719e+01 8.024723052978515625e+00 1.052953147888183594e+01
2.800000000000000000e+01 4.088187026977539062e+01 -7.408041954040527344e+00 4.970599174499511719e+00 1.807287025451660156e+01 6.913040637969970703e+00 9.374833106994628906e+00
2.900000000000000000e+01 4.109557723999023438e+01 -6.841368675231933594e+00 7.642350673675537109e+00 4.201954269409179688e+01 1.489856815338134766e+01 1.120999145507812500e+01
3.000000000000000000e+01 4.108193588256835938e+01 -7.039941787719726562e+00 5.855220794677734375e+00 3.092388725280761719e+01 1.103373241424560547e+01 9.706038475036621094e+00
3.100000000000000000e+01 4.106829833984375000e+01 -7.238514900207519531e+00 4.666674613952636719e+00 2.560119438171386719e+01 9.080360412597656250e+00 8.623723983764648438e+00
3.200000000000000000e+01 4.105466079711914062e+01 -7.437088012695312500e+00 3.734277486801147461e+00 2.225099372863769531e+01 7.795581340789794922e+00 7.666378498077392578e+00
3.300000000000000000e+01 4.115395736694335938e+01 -6.839652538299560547e+00 7.796279430389404297e+00 4.551888275146484375e+01 1.599454879760742188e+01 5.977679729461669922e+00
3.400000000000000000e+01 4.117923736572265625e+01 -7.037081241607666016e+00 5.613798618316650391e+00 3.460528945922851562e+01 1.206572628021240234e+01 6.173262596130371094e+00
3.500000000000000000e+01 4.120451736450195312e+01 -7.234510421752929688e+00 4.254869461059570312e+00 2.898231697082519531e+01 9.971156120300292969e+00 5.590686321258544922e+00
3.600000000000000000e+01 4.122979736328125000e+01 -7.431939601898193359e+00 3.358389377593994141e+00 2.551456260681152344e+01 8.661886215209960938e+00 5.207222461700439453e+00
3.700000000000000000e+01 4.121088409423828125e+01 -6.826603889465332031e+00 9.871759414672851562e+00 4.660661697387695312e+01 1.694351196289062500e+01 9.860520958900451660e-01
3.800000000000000000e+01 4.127411651611328125e+01 -7.015333652496337891e+00 6.723265647888183594e+00 3.637062835693359375e+01 1.292816829681396484e+01 2.193954944610595703e+00
3.900000000000000000e+01 4.133734893798828125e+01 -7.204063415527343750e+00 5.020752429962158203e+00 3.089545059204101562e+01 1.077486133575439453e+01 2.320772409439086914e+00
4.000000000000000000e+01 4.140058135986328125e+01 -7.392793178558349609e+00 4.036412239074707031e+00 2.728845977783203125e+01 9.397461891174316406e+00 2.228625297546386719e+00
4.100000000000000000e+01 4.126418304443359375e+01 -6.802721977233886719e+00 1.348543453216552734e+01 4.557656860351562500e+01 1.771860122680664062e+01 -3.080415964126586914e+00
4.200000000000000000e+01 4.136294937133789062e+01 -6.975530624389648438e+00 9.074446678161621094e+00 3.648893737792968750e+01 1.366901493072509766e+01 -1.316648483276367188e+00
4.300000000000000000e+01 4.146171188354492188e+01 -7.148338794708251953e+00 7.045851230621337891e+00 3.113780403137207031e+01 1.145509624481201172e+01 -7.850525975227355957e-01
4.400000000000000000e+01 4.156047821044921875e+01 -7.321147441864013672e+00 5.656737804412841797e+00 2.772781944274902344e+01 1.001536655426025391e+01 -4.898726940155029297e-01
4.500000000000000000e+01 4.131181335449218750e+01 -6.768920421600341797e+00 1.790020370483398438e+01 4.332246017456054688e+01 1.836679840087890625e+01 -5.570058822631835938e+00
4.600000000000000000e+01 4.144232940673828125e+01 -6.919195175170898438e+00 1.240481376647949219e+01 3.511533355712890625e+01 1.425604438781738281e+01 -3.868834972381591797e+00
4.700000000000000000e+01 4.157284545898437500e+01 -7.069469451904296875e+00 9.867161750793457031e+00 3.024187278747558594e+01 1.203271007537841797e+01 -3.096353530883789062e+00
4.800000000000000000e+01 4.170336532592773438e+01 -7.219744205474853516e+00 8.267402648925781250e+00 2.690309906005859375e+01 1.055115032196044922e+01 -2.610063076019287109e+00
4.900000000000000000e+01 4.135195159912109375e+01 -6.726493358612060547e+00 2.231222534179687500e+01 4.043315505981445312e+01 1.882361412048339844e+01 -6.406602859497070312e+00
5.000000000000000000e+01 4.150922775268554688e+01 -6.848483085632324219e+00 1.617094230651855469e+01 3.304953765869140625e+01 1.476614379882812500e+01 -5.050811290740966797e+00
5.100000000000000000e+01 4.166650009155273438e+01 -6.970472812652587891e+00 1.304443740844726562e+01 2.843060302734375000e+01 1.244251251220703125e+01 -4.268556118011474609e+00
5.200000000000000000e+01 4.182378005981445312e+01 -7.092463016510009766e+00 1.118931102752685547e+01 2.555903434753417969e+01 1.102450370788574219e+01 -3.751811981201171875e+00
5.300000000000000000e+01 4.138306045532226562e+01 -6.677063941955566406e+00 2.614850234985351562e+01 3.789308166503906250e+01 1.921247482299804688e+01 -5.687705039978027344e+00
5.400000000000000000e+01 4.156107711791992188e+01 -6.766100883483886719e+00 1.964235115051269531e+01 3.065319442749023438e+01 1.508866405487060547e+01 -4.868563652038574219e+00
5.500000000000000000e+01 4.173909378051757812e+01 -6.855137825012207031e+00 1.614956283569335938e+01 2.656768035888671875e+01 1.281517314910888672e+01 -4.146198272705078125e+00
5.600000000000000000e+01 4.191710662841796875e+01 -6.944174766540527344e+00 1.378664493560791016e+01 2.371626663208007812e+01 1.125087356567382812e+01 -3.650938510894775391e+00
5.700000000000000000e+01 4.140394973754882812e+01 -6.622523784637451172e+00 2.888105773925781250e+01 3.592229461669921875e+01 1.944100570678710938e+01 -3.826282739639282227e+00
5.800000000000000000e+01 4.159589385986328125e+01 -6.675200939178466797e+00 2.227290534973144531e+01 2.881421279907226562e+01 1.532613563537597656e+01 -3.474246740341186523e+00
5.900000000000000000e+01 4.178783798217773438e+01 -6.727877616882324219e+00 1.852871513366699219e+01 2.488651275634765625e+01 1.302456855773925781e+01 -2.927091836929321289e+00
6.000000000000000000e+01 4.197978210449218750e+01 -6.780554294586181641e+00 1.602737617492675781e+01 2.222384071350097656e+01 1.147536468505859375e+01 -2.579050779342651367e+00
6.100000000000000000e+01 4.141382598876953125e+01 -6.564960002899169922e+00 3.020116233825683594e+01 3.491099548339843750e+01 1.953364753723144531e+01 -1.353729486465454102e+00
6.200000000000000000e+01 4.161235046386718750e+01 -6.579261302947998047e+00 2.363414382934570312e+01 2.789754104614257812e+01 1.545950508117675781e+01 -1.227569460868835449e+00
6.300000000000000000e+01 4.181087875366210938e+01 -6.593562126159667969e+00 1.975326919555664062e+01 2.390352439880371094e+01 1.309703826904296875e+01 -1.062520623207092285e+00
6.400000000000000000e+01 4.200940704345703125e+01 -6.607862949371337891e+00 1.728676605224609375e+01 2.152857971191406250e+01 1.164460372924804688e+01 -9.140723943710327148e-01
6.500000000000000000e+01 4.141230392456054688e+01 -6.506575584411621094e+00 3.006626319885253906e+01 3.511287307739257812e+01 1.955374145507812500e+01 1.313412308692932129e+00
6.600000000000000000e+01 4.160981750488281250e+01 -6.481953144073486328e+00 2.348565864562988281e+01 2.795664978027343750e+01 1.543269157409667969e+01 1.233777523040771484e+00
6.700000000000000000e+01 4.180732727050781250e+01 -6.457331180572509766e+00 1.962421798706054688e+01 2.409929656982421875e+01 1.311705398559570312e+01 1.021276593208312988e+00
6.800000000000000000e+01 4.200484085083007812e+01 -6.432709217071533203e+00 1.702449607849121094e+01 2.148557853698730469e+01 1.155302238464355469e+01 9.581909775733947754e-01
6.900000000000000000e+01 4.139944458007812500e+01 -6.449604034423828125e+00 2.843744659423828125e+01 3.631529617309570312e+01 1.942582321166992188e+01 3.682536363601684570e+00
7.000000000000000000e+01 4.158838653564453125e+01 -6.387001037597656250e+00 2.189553833007812500e+01 2.916818428039550781e+01 1.531911659240722656e+01 3.310022115707397461e+00
7.100000000000000000e+01 4.177732467651367188e+01 -6.324398040771484375e+00 1.813306999206542969e+01 2.519450950622558594e+01 1.299827384948730469e+01 2.820765972137451172e+00
7.200000000000000000e+01 4.196626281738281250e+01 -6.261795043945312500e+00 1.562147712707519531e+01 2.236550331115722656e+01 1.139609432220458984e+01 2.566467523574829102e+00
7.300000000000000000e+01 4.137574005126953125e+01 -6.396225929260253906e+00 2.551061058044433594e+01 3.843903732299804688e+01 1.918489456176757812e+01 5.283113002777099609e+00
7.400000000000000000e+01 4.154887771606445312e+01 -6.298038005828857422e+00 1.909341239929199219e+01 3.118032836914062500e+01 1.508212280273437500e+01 4.453416824340820312e+00
7.500000000000000000e+01 4.172201538085937500e+01 -6.199849605560302734e+00 1.564273452758789062e+01 2.691080474853515625e+01 1.276606178283691406e+01 3.848930120468139648e+00
7.600000000000000000e+01 4.189515304565429688e+01 -6.101661682128906250e+00 1.347062492370605469e+01 2.399026489257812500e+01 1.123826694488525391e+01 3.401924848556518555e+00
7.700000000000000000e+01 4.134209823608398438e+01 -6.348484516143798828e+00 2.162340354919433594e+01 4.109224700927734375e+01 1.881469535827636719e+01 5.635546207427978516e+00
7.800000000000000000e+01 4.149280548095703125e+01 -6.218468189239501953e+00 1.557163810729980469e+01 3.353326034545898438e+01 1.473146915435791016e+01 4.361644268035888672e+00
7.900000000000000000e+01 4.164351654052734375e+01 -6.088451862335205078e+00 1.262149047851562500e+01 2.880206871032714844e+01 1.242706775665283203e+01 3.650968551635742188e+00
8.000000000000000000e+01 4.179422378540039062e+01 -5.958436012268066406e+00 1.080750560760498047e+01 2.576109695434570312e+01 1.097058010101318359e+01 3.213657855987548828e+00
8.100000000000000000e+01 4.129980468750000000e+01 -6.308205604553222656e+00 1.724804115295410156e+01 4.386192703247070312e+01 1.833299064636230469e+01 4.428521633148193359e+00
8.200000000000000000e+01 4.142231750488281250e+01 -6.151336669921875000e+00 1.198544406890869141e+01 3.546985626220703125e+01 1.423659038543701172e+01 2.858807802200317383e+00
8.300000000000000000e+01 4.154483413696289062e+01 -5.994468212127685547e+00 9.551821708679199219e+00 3.047571945190429688e+01 1.200826263427734375e+01 2.202792406082153320e+00
8.400000000000000000e+01 4.166734695434570312e+01 -5.837599277496337891e+00 8.035110473632812500e+00 2.702817153930664062e+01 1.051898479461669922e+01 1.826586127281188965e+00
8.500000000000000000e+01 4.125048065185546875e+01 -6.276931285858154297e+00 1.310000324249267578e+01 4.582921218872070312e+01 1.767876434326171875e+01 1.599596858024597168e+00
8.600000000000000000e+01 4.134011077880859375e+01 -6.099212646484375000e+00 8.930193901062011719e+00 3.656149291992187500e+01 1.364750576019287109e+01 5.386014282703399658e-02
8.700000000000000000e+01 4.142974090576171875e+01 -5.921494483947753906e+00 6.983180999755859375e+00 3.114210128784179688e+01 1.143758487701416016e+01 -2.948536574840545654e-01
8.800000000000000000e+01 4.151937103271484375e+01 -5.743775844573974609e+00 5.715984344482421875e+00 2.766895294189453125e+01 1.001548099517822266e+01 -4.741132557392120361e-01
8.900000000000000000e+01 4.119601058959960938e+01 -6.255857944488525391e+00 9.934437751770019531e+00 4.640844345092773438e+01 1.690286445617675781e+01 -2.706739664077758789e+00
9.000000000000000000e+01 4.124932861328125000e+01 -6.064090251922607422e+00 6.925689697265625000e+00 3.607217025756835938e+01 1.289935779571533203e+01 -3.547411680221557617e+00
9.100000000000000000e+01 4.130264282226562500e+01 -5.872323036193847656e+00 5.322665691375732422e+00 3.058924674987792969e+01 1.077357387542724609e+01 -3.491998195648193359e+00
9.200000000000000000e+01 4.135596084594726562e+01 -5.680555820465087891e+00 4.393314361572265625e+00 2.696801757812500000e+01 9.408399581909179688e+00 -3.255897521972656250e+00
9.300000000000000000e+01 4.113848114013671875e+01 -6.245791912078857422e+00 8.371375083923339844e+00 4.477916717529296875e+01 1.594516181945800781e+01 -7.750043392181396484e+00
9.400000000000000000e+01 4.115344238281250000e+01 -6.047314167022705078e+00 6.247542381286621094e+00 3.386967849731445312e+01 1.203516578674316406e+01 -7.450539588928222656e+00
9.500000000000000000e+01 4.116840362548828125e+01 -5.848836421966552734e+00 4.862334251403808594e+00 2.836980628967285156e+01 9.969641685485839844e+00 -6.683537006378173828e+00
9.600000000000000000e+01 4.118336868286132812e+01 -5.650358676910400391e+00 4.068283557891845703e+00 2.493939590454101562e+01 8.702303886413574219e+00 -6.180075645446777344e+00
9.700000000000000000e+01 4.108008956909179688e+01 -6.247118949890136719e+00 8.749593734741210938e+00 4.071789932250976562e+01 1.484024810791015625e+01 -1.277832221984863281e+01
9.800000000000000000e+01 4.105612945556640625e+01 -6.049525737762451172e+00 6.868894100189208984e+00 2.980491065979003906e+01 1.100214099884033203e+01 -1.076532840728759766e+01
9.900000000000000000e+01 4.103216171264648438e+01 -5.851932525634765625e+00 5.549915313720703125e+00 2.465869712829589844e+01 9.062583923339843750e+00 -9.444901466369628906e+00
1.000000000000000000e+02 4.100819778442382812e+01 -5.654339313507080078e+00 4.654799938201904297e+00 2.150863838195800781e+01 7.849031448364257812e+00 -8.430097579956054688e+00
1.010000000000000000e+02 4.102307510375976562e+01 -6.259788036346435547e+00 1.073146343231201172e+01 3.429372406005859375e+01 1.350755691528320312e+01 -1.654533386230468750e+01
1.020000000000000000e+02 4.096110534667968750e+01 -6.070640563964843750e+00 8.591828346252441406e+00 2.426188468933105469e+01 9.856114387512207031e+00 -1.302976036071777344e+01
1.030000000000000000e+02 4.089913177490234375e+01 -5.881493091583251953e+00 6.939851760864257812e+00 1.971473693847656250e+01 7.996376991271972656e+00 -1.100387477874755859e+01
1.040000000000000000e+02 4.083715820312500000e+01 -5.692346096038818359e+00 5.941496849060058594e+00 1.703454017639160156e+01 6.892810821533203125e+00 -9.750790596008300781e+00
1.050000000000000000e+02 4.096961975097656250e+01 -6.283313751220703125e+00 1.394015693664550781e+01 2.614859390258789062e+01 1.202662467956542969e+01 -1.834120750427246094e+01
1.060000000000000000e+02 4.087200927734375000e+01 -6.109850406646728516e+00 1.048469161987304688e+01 1.780014801025390625e+01 8.485452651977539062e+00 -1.352843284606933594e+01
1.070000000000000000e+02 4.077439880371093750e+01 -5.936387538909912109e+00 8.702118873596191406e+00 1.420181655883789062e+01 6.871180534362792969e+00 -1.120902061462402344e+01
1.080000000000000000e+02 4.067678833007812500e+01 -5.762924194335937500e+00 7.219912528991699219e+00 1.209795856475830078e+01 5.795361518859863281e+00 -9.704171180725097656e+00
1.090000000000000000e+02 4.092176437377929688e+01 -6.316796779632568359e+00 1.673528671264648438e+01 1.733807563781738281e+01 1.022200870513916016e+01 -1.748435592651367188e+01
1.100000000000000000e+02 4.079225540161132812e+01 -6.165655612945556641e+00 1.220037555694580078e+01 1.120703792572021484e+01 7.022223949432373047e+00 -1.222400188446044922e+01
1.110000000000000000e+02 4.066273880004882812e+01 -6.014514446258544922e+00 9.628239631652832031e+00 8.847714424133300781e+00 5.542786598205566406e+00 -9.761578559875488281e+00
1.120000000000000000e+02 4.053322601318359375e+01 -5.863372802734375000e+00 8.176564216613769531e+00 7.655112743377685547e+00 4.749503135681152344e+00 -8.494727134704589844e+00
1.130000000000000000e+02 4.088134765625000000e+01 -6.358955383300781250e+00 1.847244644165039062e+01 8.894231796264648438e+00 8.210003852844238281e+00 -1.402633190155029297e+01
1.140000000000000000e+02 4.072488784790039062e+01 -6.235919952392578125e+00 1.208258724212646484e+01 5.484994411468505859e+00 5.270274639129638672e+00 -9.124729156494140625e+00
1.150000000000000000e+02 4.056842803955078125e+01 -6.112884044647216797e+00 9.569026947021484375e+00 4.505089282989501953e+00 4.222234725952148438e+00 -7.211510181427001953e+00
1.160000000000000000e+02 4.041196823120117188e+01 -5.989848613739013672e+00 7.703427314758300781e+00 4.074846267700195312e+00 3.533482074737548828e+00 -6.128566741943359375e+00
1.170000000000000000e+02 4.084990692138671875e+01 -6.408176422119140625e+00 1.669646072387695312e+01 2.197031736373901367e+00 5.668047904968261719e+00 -8.584365844726562500e+00
1.180000000000000000e+02 4.067248916625976562e+01 -6.317954540252685547e+00 1.025803089141845703e+01 1.346064805984497070e+00 3.481228590011596680e+00 -4.978766441345214844e+00
1.190000000000000000e+02 4.049507141113281250e+01 -6.227732658386230469e+00 7.064543724060058594e+00 1.886753439903259277e+00 2.685389041900634766e+00 -4.000870227813720703e+00
1.200000000000000000e+02 4.031765365600585938e+01 -6.137511253356933594e+00 6.118391513824462891e+00 1.783461570739746094e+00 2.370555877685546875e+00 -3.788204193115234375e+00
1.210000000000000000e+02 4.082865142822265625e+01 -6.462575912475585938e+00 1.132856559753417969e+01 -2.485667705535888672e+00 2.652869462966918945e+00 -1.632189393043518066e+00
1.220000000000000000e+02 4.063706207275390625e+01 -6.408620357513427734e+00 4.294382572174072266e+00 2.743348181247711182e-01 1.370615243911743164e+00 -1.254743933677673340e+00
1.230000000000000000e+02 4.044547653198242188e+01 -6.354665279388427734e+00 4.108831405639648438e+00 7.870891094207763672e-01 1.468776226043701172e+00 -2.019053459167480469e+00
1.240000000000000000e+02 4.025388717651367188e+01 -6.300709724426269531e+00 2.858648300170898438e+00 8.088266104459762573e-02 8.818593025207519531e-01 -1.267455816268920898e+00
1.250000000000000000e+02 4.081839370727539062e+01 -6.520072460174560547e+00 -4.047804832458496094e+00 -2.480716466903686523e+00 -1.958556413650512695e+00 2.662724971771240234e+00
1.260000000000000000e+02 4.061996841430664062e+01 -6.504448413848876953e+00 3.350606560707092285e-01 9.789912700653076172e-01 3.942155838012695312e-01 -7.892784476280212402e-01
1.270000000000000000e+02 4.042153930664062500e+01 -6.488823890686035156e+00 -9.010391235351562500e-01 -4.284982383251190186e-01 -3.988611996173858643e-01 1.375432219356298447e-02
1.280000000000000000e+02 4.022311401367187500e+01 -6.473199844360351562e+00 -1.177717566490173340e+00 1.951211541891098022e-01 -2.947789430618286133e-01 -2.219849228858947754e-01
1.290000000000000000e+02 2.196186065673828125e+01 -6.700578212738037109e+00 -7.147461175918579102e-01 1.059513073414564133e-02 -2.112452983856201172e-01 1.200253609567880630e-02
1.300000000000000000e+02 2.033289909362792969e+01 -7.179516792297363281e+00 -4.522662460803985596e-01 4.551438987255096436e-02 -1.220255568623542786e-01 -1.551499068737030029e-01
1.310000000000000000e+02 2.261169624328613281e+01 -7.556783676147460938e+00 -9.008105993270874023e-01 3.142304718494415283e-02 -2.608162760734558105e-01 -1.813361942768096924e-01
1.320000000000000000e+02 2.185197448730468750e+01 -7.432458400726318359e+00 -7.474357485771179199e-01 4.106483981013298035e-02 -2.119112610816955566e-01 -1.743242144584655762e-01
1.330000000000000000e+02 2.270871162414550781e+01 -6.822772979736328125e+00 -9.560544490814208984e-01 -5.287964362651109695e-03 -2.884027063846588135e-01 2.044790051877498627e-02
1.340000000000000000e+02 2.121509361267089844e+01 -6.576943874359130859e+00 -5.167070031166076660e-01 1.157538127154111862e-02 -1.515394896268844604e-01 -1.038010977208614349e-02
1.350000000000000000e+02 2.046852302551269531e+01 -6.451897144317626953e+00 -3.375343978404998779e-01 1.579363271594047546e-02 -9.652222692966461182e-02 -3.047779016196727753e-02
1.360000000000000000e+02 2.109233665466308594e+01 -7.306693553924560547e+00 -5.844489336013793945e-01 4.426122829318046570e-02 -1.620563119649887085e-01 -1.593781709671020508e-01
1.370000000000000000e+02 2.421343040466308594e+01 -6.977969646453857422e+00 -1.345076560974121094e+00 3.584221005439758301e-03 -4.024476706981658936e-01 1.715375110507011414e-02
1.380000000000000000e+02 2.414235687255859375e+01 -7.714632511138916016e+00 -1.212225317955017090e+00 2.173277176916599274e-02 -3.571477830410003662e-01 -1.495170891284942627e-01
1.390000000000000000e+02 2.337517356872558594e+01 -7.650850772857666016e+00 -1.051117777824401855e+00 1.969201676547527313e-02 -3.094277083873748779e-01 -1.626534312963485718e-01
1.400000000000000000e+02 2.490980529785156250e+01 -7.777047634124755859e+00 -1.358312726020812988e+00 1.677156612277030945e-02 -4.024623632431030273e-01 -1.544487476348876953e-01
1.410000000000000000e+02 2.496787261962890625e+01 -7.039327144622802734e+00 -1.531634688377380371e+00 2.322969492524862289e-03 -4.587934911251068115e-01 2.648247778415679932e-02
1.420000000000000000e+02 2.567740631103515625e+01 -7.838097095489501953e+00 -1.472604036331176758e+00 -4.996181000024080276e-03 -4.432800710201263428e-01 -1.556494385004043579e-01
1.430000000000000000e+02 2.572246742248535156e+01 -7.099318504333496094e+00 -1.749206900596618652e+00 -1.204827986657619476e-02 -5.283765792846679688e-01 1.941967755556106567e-02
1.440000000000000000e+02 2.345925331115722656e+01 -6.915245532989501953e+00 -1.174528241157531738e+00 -4.790362436324357986e-03 -3.537955582141876221e-01 1.489643845707178116e-02
1.450000000000000000e+02 2.796761512756347656e+01 -7.914083957672119141e+00 -1.804712891578674316e+00 -1.485440414398908615e-03 -5.418595075607299805e-01 -1.406181305646896362e-01
1.460000000000000000e+02 2.720497512817382812e+01 -7.896495819091796875e+00 -1.712461113929748535e+00 -3.955666441470384598e-03 -5.149250626564025879e-01 -1.320553123950958252e-01
1.470000000000000000e+02 2.644245719909667969e+01 -7.877746582031250000e+00 -1.588827729225158691e+00 -1.212439965456724167e-02 -4.802856445312500000e-01 -1.382355540990829468e-01
1.480000000000000000e+02 2.873032188415527344e+01 -7.930514812469482422e+00 -1.870083451271057129e+00 -1.568813994526863098e-02 -5.657314658164978027e-01 -1.390753388404846191e-01
1.490000000000000000e+02 2.798519706726074219e+01 -7.174292564392089844e+00 -2.161504745483398438e+00 -1.028904924169182777e-03 -6.487601399421691895e-01 -2.109268121421337128e-02
1.500000000000000000e+02 2.723094940185546875e+01 -7.156898498535156250e+00 -2.030767917633056641e+00 4.760173324029892683e-04 -6.090875864028930664e-01 -1.961725577712059021e-02
1.510000000000000000e+02 2.873951339721679688e+01 -7.190530300140380859e+00 -2.311963796615600586e+00 -9.966424666345119476e-03 -6.965790987014770508e-01 -3.347394242882728577e-02
1.520000000000000000e+02 2.647681999206542969e+01 -7.138342857360839844e+00 -1.919491648674011230e+00 -1.419714093208312988e-02 -5.801066160202026367e-01 -5.822260864078998566e-03
1.530000000000000000e+02 2.949276733398437500e+01 -7.195246696472167969e+00 -2.423878192901611328e+00 -1.279106736183166504e-02 -7.310007810592651367e-01 -5.656444281339645386e-02
1.540000000000000000e+02 2.948995018005371094e+01 -7.935307502746582031e+00 -1.932894825935363770e+00 -1.456047315150499344e-02 -5.842366218566894531e-01 -1.248161792755126953e-01
1.550000000000000000e+02 3.024649810791015625e+01 -7.928795814514160156e+00 -1.993740797042846680e+00 -6.226456724107265472e-03 -5.999901890754699707e-01 -1.180737391114234924e-01
1.560000000000000000e+02 3.099722290039062500e+01 -7.181584835052490234e+00 -2.572881698608398438e+00 -2.693534130230545998e-03 -7.726725935935974121e-01 -7.125265896320343018e-02
1.570000000000000000e+02 3.175983238220214844e+01 -7.913609027862548828e+00 -2.025214672088623047e+00 -3.989076707512140274e-03 -6.087611317634582520e-01 -1.038913130760192871e-01
1.580000000000000000e+02 3.174956512451171875e+01 -7.173673152923583984e+00 -2.659339427947998047e+00 -5.712135229259729385e-03 -7.995154261589050293e-01 -7.788266241550445557e-02
1.590000000000000000e+02 3.024495315551757812e+01 -7.188776493072509766e+00 -2.492284774780273438e+00 -1.113667967729270458e-03 -7.480195164680480957e-01 -6.912308931350708008e-02
1.600000000000000000e+02 3.100312805175781250e+01 -7.921562194824218750e+00 -2.021891117095947266e+00 5.358654307201504707e-04 -6.064065694808959961e-01 -1.167448014020919800e-01
1.610000000000000000e+02 3.325168609619140625e+01 -7.142140388488769531e+00 -2.751688480377197266e+00 7.733997190371155739e-04 -8.252745270729064941e-01 -9.090936928987503052e-02
1.620000000000000000e+02 3.401905441284179688e+01 -7.863194465637207031e+00 -1.901211738586425781e+00 2.517141588032245636e-02 -5.628120899200439453e-01 -2.230532094836235046e-02
1.630000000000000000e+02 3.251437759399414062e+01 -7.900443077087402344e+00 -2.012126445770263672e+00 2.731822663918137550e-03 -6.028183698654174805e-01 -8.076374232769012451e-02
1.640000000000000000e+02 3.477159881591796875e+01 -7.845397949218750000e+00 -1.772765874862670898e+00 4.441268742084503174e-02 -5.185059309005737305e-01 2.663090825080871582e-02
1.650000000000000000e+02 3.475299453735351562e+01 -7.105631351470947266e+00 -2.789961814880371094e+00 8.054910227656364441e-03 -8.345720171928405762e-01 -7.693758606910705566e-02
1.660000000000000000e+02 3.400221252441406250e+01 -7.123385429382324219e+00 -2.779231548309326172e+00 -2.135391347110271454e-03 -8.344100713729858398e-01 -8.725404739379882812e-02
1.670000000000000000e+02 3.250104904174804688e+01 -7.160549640655517578e+00 -2.720339059829711914e+00 -7.984733209013938904e-03 -8.184971809387207031e-01 -8.831199258565902710e-02
1.680000000000000000e+02 3.326676940917968750e+01 -7.881991863250732422e+00 -1.980273365974426270e+00 1.350547000765800476e-02 -5.900303721427917480e-01 -5.600589513778686523e-02
1.690000000000000000e+02 3.607742691040039062e+01 -7.073681831359863281e+00 -2.759481191635131836e+00 -2.896250784397125244e-02 -8.365331292152404785e-01 -9.501430392265319824e-02
1.700000000000000000e+02 3.550384521484375000e+01 -7.831431388854980469e+00 -1.563793182373046875e+00 3.455413505434989929e-02 -4.587717056274414062e-01 9.554866701364517212e-02
1.710000000000000000e+02 3.767415237426757812e+01 -7.314424514770507812e+00 -1.403201937675476074e+00 -1.232589259743690491e-01 -4.579382538795471191e-01 2.117278426885604858e-01
1.720000000000000000e+02 3.795466613769531250e+01 -6.984698772430419922e+00 -2.064538955688476562e+00 3.935033828020095825e-02 -6.075565814971923828e-01 -4.746957123279571533e-02
1.730000000000000000e+02 3.767843627929687500e+01 -7.823385238647460938e+00 -7.219137996435165405e-02 3.680464625358581543e-01 8.875652402639389038e-02 7.858223319053649902e-01
1.740000000000000000e+02 3.788496017456054688e+01 -8.017940521240234375e+00 4.381486177444458008e-01 4.300705492496490479e-01 2.604657411575317383e-01 1.109226584434509277e+00
1.750000000000000000e+02 3.801834487915039062e+01 -7.408979892730712891e+00 -7.856991291046142578e-01 1.298406124114990234e-01 -1.967575550079345703e-01 3.833602070808410645e-01
1.760000000000000000e+02 3.782048416137695312e+01 -7.531448841094970703e+00 -8.106470704078674316e-01 1.089453026652336121e-01 -2.105105370283126831e-01 4.948526918888092041e-01
1.770000000000000000e+02 3.788634872436523438e+01 -6.761614322662353516e+00 -3.044074535369873047e+00 -1.082368753850460052e-02 -9.164694547653198242e-01 -7.948797941207885742e-02
1.780000000000000000e+02 3.688537216186523438e+01 -7.765474796295166016e+00 -8.869903683662414551e-01 1.638692170381546021e-01 -2.169363498687744141e-01 4.091505110263824463e-01
1.790000000000000000e+02 3.620963668823242188e+01 -7.810204505920410156e+00 -1.238646030426025391e+00 8.391433209180831909e-02 -3.464195132255554199e-01 2.377352267503738403e-01
1.800000000000000000e+02 3.544678878784179688e+01 -7.092760086059570312e+00 -2.774423837661743164e+00 -9.245630353689193726e-03 -8.351008892059326172e-01 -7.162123173475265503e-02
1.810000000000000000e+02 3.802378082275390625e+01 -7.592656135559082031e+00 -1.961866617202758789e-01 3.028269410133361816e-01 3.199208155274391174e-02 8.142176270484924316e-01
1.820000000000000000e+02 3.797418975830078125e+01 -7.208674907684326172e+00 -1.623556494712829590e+00 8.684092760086059570e-02 -4.610146582126617432e-01 1.279200166463851929e-01
1.830000000000000000e+02 3.737155151367187500e+01 -7.558966159820556641e+00 -8.237747550010681152e-01 1.424606591463088989e-01 -2.043942362070083618e-01 3.625047802925109863e-01
1.840000000000000000e+02 3.763175964355468750e+01 -6.967213630676269531e+00 -2.509945869445800781e+00 -1.251821517944335938e-01 -7.905383706092834473e-01 -3.122724965214729309e-02
1.850000000000000000e+02 3.722332382202148438e+01 -6.963407039642333984e+00 -2.823839426040649414e+00 1.077366918325424194e-01 -8.148307800292968750e-01 -7.889710366725921631e-02
1.860000000000000000e+02 3.667801284790039062e+01 -7.031100273132324219e+00 -2.790345668792724609e+00 -2.925810031592845917e-02 -8.458811044692993164e-01 -1.363414376974105835e-01
1.870000000000000000e+02 3.799591064453125000e+01 -7.796179294586181641e+00 3.498137891292572021e-01 1.998579204082489014e-01 1.649015098810195923e-01 8.658518791198730469e-01
1.880000000000000000e+02 3.821825027465820312e+01 -6.745631694793701172e+00 -2.966252326965332031e+00 -7.646373007446527481e-03 -8.921696543693542480e-01 -1.078089326620101929e-01
1.890000000000000000e+02 3.918817901611328125e+01 -7.088097572326660156e+00 -6.148933246731758118e-02 2.055910676717758179e-01 4.323051869869232178e-02 7.142017483711242676e-01
1.900000000000000000e+02 4.238702011108398438e+01 -5.909814834594726562e+00 1.074065017700195312e+01 1.915633583068847656e+01 8.969096183776855469e+00 2.427741527557373047e+00
1.910000000000000000e+02 4.083680343627929688e+01 -7.632819652557373047e+00 4.117093563079833984e+00 1.613795280456542969e+01 6.076513767242431641e+00 8.250048637390136719e+00
1.920000000000000000e+02 3.825909042358398438e+01 -8.007901191711425781e+00 1.131766915321350098e+00 1.013884544372558594e+00 6.436954140663146973e-01 1.594555735588073730e+00
1.930000000000000000e+02 3.846312713623046875e+01 -7.996039867401123047e+00 1.305074810981750488e+00 9.060085415840148926e-01 6.633250117301940918e-01 1.789425611495971680e+00
1.940000000000000000e+02 3.841305541992187500e+01 -6.744749069213867188e+00 -2.918618202209472656e+00 3.479412198066711426e-02 -8.651472330093383789e-01 -7.421998679637908936e-02
1.950000000000000000e+02 3.826077651977539062e+01 -7.785177707672119141e+00 4.506558179855346680e-01 5.939677357673645020e-01 3.133870661258697510e-01 1.085302233695983887e+00
1.960000000000000000e+02 3.966494750976562500e+01 -7.963995933532714844e+00 3.687398433685302734e+00 3.729152679443359375e+00 2.224965333938598633e+00 4.529700756072998047e+00
1.970000000000000000e+02 4.063422393798828125e+01 -7.552989006042480469e+00 5.247994899749755859e+00 1.215718746185302734e+01 5.221554756164550781e+00 8.639762878417968750e+00
1.980000000000000000e+02 4.083657836914062500e+01 -7.906174182891845703e+00 3.201677799224853516e+00 1.529510784149169922e+01 5.549035549163818359e+00 7.201549530029296875e+00
1.990000000000000000e+02 4.030361175537109375e+01 -7.281198024749755859e+00 6.172678947448730469e+00 4.667862892150878906e+00 3.252162456512451172e+00 6.079187870025634766e+00
2.000000000000000000e+02 4.016086578369140625e+01 -7.121813297271728516e+00 4.734874725341796875e+00 1.816465735435485840e+00 1.965402126312255859e+00 3.636587858200073242e+00
2.010000000000000000e+02 4.005357360839843750e+01 -7.969125747680664062e+00 4.218979358673095703e+00 6.014063835144042969e+00 3.069912910461425781e+00 5.889310359954833984e+00
2.020000000000000000e+02 3.946723175048828125e+01 -7.959045886993408203e+00 3.304181337356567383e+00 2.891182661056518555e+00 1.858609199523925781e+00 3.873046159744262695e+00
2.030000000000000000e+02 3.906446075439453125e+01 -7.971940517425537109e+00 2.532984972000122070e+00 1.712626695632934570e+00 1.273683547973632812e+00 2.780079364776611328e+00
2.040000000000000000e+02 4.195336532592773438e+01 -5.820769309997558594e+00 9.472446441650390625e+00 2.341276168823242188e+01 9.865562438964843750e+00 2.796988010406494141e+00
2.050000000000000000e+02 4.219087600708007812e+01 -6.392717838287353516e+00 1.519880962371826172e+01 1.981096839904785156e+01 1.050293350219726562e+01 1.019981741905212402e+00
2.060000000000000000e+02 4.249625015258789062e+01 -6.389177799224853516e+00 1.334817314147949219e+01 1.773556709289550781e+01 9.325121879577636719e+00 6.285461187362670898e-01
2.070000000000000000e+02 4.222490692138671875e+01 -6.609029293060302734e+00 1.514248752593994141e+01 1.948484230041503906e+01 1.038819885253906250e+01 -7.595373392105102539e-01
2.080000000000000000e+02 4.209870529174804688e+01 -7.041378974914550781e+00 1.208655357360839844e+01 2.163292312622070312e+01 1.011584281921386719e+01 -3.336246728897094727e+00
2.090000000000000000e+02 4.183285140991210938e+01 -7.374348640441894531e+00 7.023942947387695312e+00 2.453917884826660156e+01 9.468936920166015625e+00 -2.288462877273559570e+00
2.100000000000000000e+02 4.174174118041992188e+01 -7.604719638824462891e+00 4.662340641021728516e+00 2.374219703674316406e+01 8.521361351013183594e+00 -4.110281169414520264e-01
2.110000000000000000e+02 3.818081283569335938e+01 -5.229126930236816406e+00 1.476047992706298828e+00 6.438195705413818359e-01 6.359602808952331543e-01 -1.331741929054260254e+00
2.120000000000000000e+02 3.838365936279296875e+01 -5.232209682464599609e+00 1.838826298713684082e+00 7.059886455535888672e-01 7.634444832801818848e-01 -1.581198573112487793e+00
2.130000000000000000e+02 3.957742691040039062e+01 -5.204555034637451172e+00 4.236975193023681641e+00 3.088262081146240234e+00 2.197571277618408203e+00 -4.205362319946289062e+00
2.140000000000000000e+02 3.964426040649414062e+01 -6.191866397857666016e+00 9.620488286018371582e-01 2.190515995025634766e-01 3.543301224708557129e-01 -8.513074517250061035e-01
2.150000000000000000e+02 4.024380111694335938e+01 -5.862730979919433594e+00 6.676412582397460938e+00 3.608409643173217773e+00 3.085446596145629883e+00 -5.627612113952636719e+00
2.160000000000000000e+02 4.086584091186523438e+01 -5.280360221862792969e+00 3.987136602401733398e+00 1.651029396057128906e+01 6.149229526519775391e+00 -7.525978088378906250e+00
2.170000000000000000e+02 3.821262359619140625e+01 -6.490689277648925781e+00 -2.737952232360839844e+00 -1.158322691917419434e-01 -8.561353683471679688e-01 -1.151779145002365112e-01
2.180000000000000000e+02 3.841191864013671875e+01 -6.476310253143310547e+00 -2.633009672164916992e+00 5.519390478730201721e-02 -7.733447551727294922e-01 -7.086295634508132935e-02
2.190000000000000000e+02 3.921848297119140625e+01 -6.430077552795410156e+00 -2.217637538909912109e+00 -2.645290270447731018e-02 -6.732271909713745117e-01 -1.129729524254798889e-01
2.200000000000000000e+02 3.942115783691406250e+01 -6.437555313110351562e+00 -2.081892967224121094e+00 5.866525694727897644e-02 -6.069682836532592773e-01 -1.327116787433624268e-01
2.210000000000000000e+02 3.962384414672851562e+01 -6.443617343902587891e+00 -1.894797086715698242e+00 -4.570711776614189148e-02 -5.821512341499328613e-01 -1.516191959381103516e-01
2.220000000000000000e+02 4.013616943359375000e+01 -6.054789066314697266e+00 4.823259830474853516e+00 1.187872052192687988e+00 1.803339600563049316e+00 -3.025248289108276367e+00
2.230000000000000000e+02 4.006126403808593750e+01 -6.251014232635498047e+00 2.314958810806274414e+00 4.349434971809387207e-01 8.249706625938415527e-01 -1.301448941230773926e+00
2.240000000000000000e+02 4.002539825439453125e+01 -6.459085464477539062e+00 -1.494322299957275391e+00 -6.878339499235153198e-02 -4.689317345619201660e-01 -1.163445562124252319e-01
2.250000000000000000e+02 4.219116210937500000e+01 -5.967829704284667969e+00 1.132866573333740234e+01 2.089460563659667969e+01 9.666981697082519531e+00 2.869920015335083008e+00
2.260000000000000000e+02 4.183580780029296875e+01 -5.375796794891357422e+00 4.732614517211914062e+00 2.224859237670898438e+01 8.094362258911132812e+00 3.344880938529968262e-01
2.270000000000000000e+02 4.136126327514648438e+01 -5.191809177398681641e+00 2.831156492233276367e+00 2.098837661743164062e+01 7.145859718322753906e+00 -3.985353946685791016e+00
2.280000000000000000e+02 4.096735382080078125e+01 -5.145424365997314453e+00 3.305361747741699219e+00 1.731979942321777344e+01 6.187548160552978516e+00 -6.782140254974365234e+00
2.290000000000000000e+02 4.076309967041015625e+01 -5.514491081237792969e+00 5.292043209075927734e+00 1.492254638671875000e+01 6.064376831054687500e+00 -8.896707534790039062e+00
2.300000000000000000e+02 4.002625656127929688e+01 -6.691365242004394531e+00 -1.501464247703552246e+00 -1.096580550074577332e-01 -4.833366870880126953e-01 6.100555881857872009e-02
2.310000000000000000e+02 4.045706176757812500e+01 -7.424163341522216797e+00 6.134318351745605469e+00 7.875807762145996094e+00 4.203037738800048828e+00 7.706016063690185547e+00
2.320000000000000000e+02 4.124692535400390625e+01 -7.900992870330810547e+00 2.343646049499511719e+00 2.045358657836914062e+01 6.839169979095458984e+00 4.782019615173339844e+00
2.330000000000000000e+02 4.142869567871093750e+01 -7.617842197418212891e+00 3.146439790725708008e+00 2.443949890136718750e+01 8.275781631469726562e+00 2.625013589859008789e+00
2.340000000000000000e+02 4.166944503784179688e+01 -7.464799880981445312e+00 4.963822841644287109e+00 2.545458793640136719e+01 9.125523567199707031e+00 -4.898992776870727539e-01
2.350000000000000000e+02 4.232508087158203125e+01 -6.290805816650390625e+00 1.386161041259765625e+01 1.893286132812500000e+01 9.838341712951660156e+00 1.404049158096313477e+00
2.360000000000000000e+02 4.104359054565429688e+01 -7.655385494232177734e+00 3.170497894287109375e+00 2.007769966125488281e+01 6.974459171295166016e+00 6.928103446960449219e+00
2.370000000000000000e+02 3.960713195800781250e+01 -6.736048221588134766e+00 -2.014977931976318359e+00 -4.992753267288208008e-03 -6.059911847114562988e-01 9.340203553438186646e-02
2.380000000000000000e+02 4.020455169677734375e+01 -7.742831230163574219e+00 4.852966785430908203e+00 6.758269309997558594e+00 3.483370780944824219e+00 6.555186748504638672e+00
2.390000000000000000e+02 4.143569183349609375e+01 -7.875978469848632812e+00 2.436196804046630859e+00 2.162232589721679688e+01 7.217556953430175781e+00 3.214524745941162109e+00
2.400000000000000000e+02 4.166044616699218750e+01 -5.564389228820800781e+00 5.063264846801757812e+00 2.500800323486328125e+01 9.021380424499511719e+00 -1.518818587064743042e-01
2.410000000000000000e+02 4.096247100830078125e+01 -5.451940059661865234e+00 4.077177524566650391e+00 1.897852325439453125e+01 6.916709899902343750e+00 -7.840750694274902344e+00
2.420000000000000000e+02 4.047460937500000000e+01 -5.406449794769287109e+00 5.740543842315673828e+00 9.965992927551269531e+00 4.711961269378662109e+00 -7.971273899078369141e+00
2.430000000000000000e+02 4.222628402709960938e+01 -6.136103153228759766e+00 1.340205955505371094e+01 2.034469795227050781e+01 1.012402725219726562e+01 2.464071035385131836e+00
2.440000000000000000e+02 3.918176651000976562e+01 -5.230074882507324219e+00 3.458616256713867188e+00 1.796831965446472168e+00 1.576634407043457031e+00 -2.975640296936035156e+00
2.450000000000000000e+02 3.982624435424804688e+01 -6.448079109191894531e+00 -1.694498419761657715e+00 3.169443458318710327e-02 -4.988411962985992432e-01 -1.348735839128494263e-01
2.460000000000000000e+02 4.181148147583007812e+01 -5.677202701568603516e+00 6.962653636932373047e+00 2.461155700683593750e+01 9.472263336181640625e+00 1.614528894424438477e+00
2.470000000000000000e+02 4.226623535156250000e+01 -5.776620864868164062e+00 9.593268394470214844e+00 2.056770324707031250e+01 9.048291206359863281e+00 2.755290508270263672e+00
2.480000000000000000e+02 4.060375976562500000e+01 -5.157262802124023438e+00 4.396104335784912109e+00 1.233116912841796875e+01 5.018182277679443359e+00 -7.566199779510498047e+00
2.490000000000000000e+02 3.997899246215820312e+01 -5.211007595062255859e+00 5.005487442016601562e+00 5.342407226562500000e+00 3.104368448257446289e+00 -5.776138782501220703e+00
2.500000000000000000e+02 4.217847061157226562e+01 -6.829585552215576172e+00 1.424282550811767578e+01 2.018050575256347656e+01 1.032699966430664062e+01 -2.342057228088378906e+00
2.510000000000000000e+02 4.116297149658203125e+01 -5.176121711730957031e+00 2.999213457107543945e+00 1.960386085510253906e+01 6.780922412872314453e+00 -5.554686546325683594e+00
2.520000000000000000e+02 4.117090606689453125e+01 -5.427741050720214844e+00 3.396976470947265625e+00 2.184207725524902344e+01 7.571716308593750000e+00 -5.890876770019531250e+00
2.530000000000000000e+02 4.178362274169921875e+01 -7.777813434600830078e+00 3.797127962112426758e+00 2.238453865051269531e+01 7.854500293731689453e+00 -1.384208500385284424e-01
2.540000000000000000e+02 4.193971252441406250e+01 -7.697589397430419922e+00 4.778365612030029297e+00 2.191902923583984375e+01 8.009218215942382812e+00 -1.021648645401000977e+00
2.550000000000000000e+02 4.217388916015625000e+01 -7.409528255462646484e+00 7.999098777770996094e+00 2.120557403564453125e+01 8.761402130126953125e+00 -2.796350955963134766e+00
2.560000000000000000e+02 4.247338485717773438e+01 -6.056069850921630859e+00 1.148893165588378906e+01 1.823091697692871094e+01 8.915954589843750000e+00 2.145952939987182617e+00
2.570000000000000000e+02 4.124174118041992188e+01 -7.649302482604980469e+00 2.754401206970214844e+00 2.283279609680175781e+01 7.676159381866455078e+00 4.924431800842285156e+00
2.580000000000000000e+02 4.161394119262695312e+01 -7.837460517883300781e+00 2.789685487747192383e+00 2.239274406433105469e+01 7.554728984832763672e+00 1.616314291954040527e+00
2.590000000000000000e+02 4.248855972290039062e+01 -6.803371429443359375e+00 1.301916027069091797e+01 1.787575912475585938e+01 9.268475532531738281e+00 -1.579052329063415527e+00
2.600000000000000000e+02 4.247239303588867188e+01 -6.970331668853759766e+00 1.159133625030517578e+01 1.831857490539550781e+01 8.972972869873046875e+00 -2.301301240921020508e+00
2.610000000000000000e+02 4.136772155761718750e+01 -5.449959278106689453e+00 3.519844293594360352e+00 2.403680992126464844e+01 8.266996383666992188e+00 -3.483289241790771484e+00
2.620000000000000000e+02 4.169227981567382812e+01 -5.272168159484863281e+00 3.840906143188476562e+00 2.258986091613769531e+01 7.929230213165283203e+00 -7.422460317611694336e-01
2.630000000000000000e+02 4.205789566040039062e+01 -7.575670242309570312e+00 6.296956062316894531e+00 2.207048225402832031e+01 8.510231971740722656e+00 -2.268264770507812500e+00
2.640000000000000000e+02 4.199174499511718750e+01 -7.235878467559814453e+00 9.462502479553222656e+00 2.310129356384277344e+01 9.769139289855957031e+00 -3.243224859237670898e+00
2.650000000000000000e+02 4.212621688842773438e+01 -5.637867927551269531e+00 7.911915779113769531e+00 2.150275993347167969e+01 8.824402809143066406e+00 2.509685516357421875e+00
2.660000000000000000e+02 4.231146240234375000e+01 -7.269474983215332031e+00 9.585975646972656250e+00 2.011050605773925781e+01 8.908945083618164062e+00 -3.140770435333251953e+00
2.670000000000000000e+02 4.198382186889648438e+01 -5.494037628173828125e+00 6.170595169067382812e+00 2.211947059631347656e+01 8.487019538879394531e+00 1.664422035217285156e+00
2.680000000000000000e+02 4.159450149536132812e+01 -7.615725517272949219e+00 3.844602584838867188e+00 2.443348121643066406e+01 8.483425140380859375e+00 9.262532591819763184e-01
2.690000000000000000e+02 4.189837646484375000e+01 -7.541519165039062500e+00 5.841328620910644531e+00 2.306892013549804688e+01 8.673074722290039062e+00 -1.704325556755065918e+00
2.700000000000000000e+02 4.104727554321289062e+01 -7.909999847412109375e+00 2.551059961318969727e+00 1.831050491333007812e+01 6.258469104766845703e+00 6.212438106536865234e+00
2.710000000000000000e+02 4.044992828369140625e+01 -7.945229053497314453e+00 4.095192432403564453e+00 9.955945014953613281e+00 4.215341091156005859e+00 7.126204967498779297e+00
2.720000000000000000e+02 3.985973358154296875e+01 -7.969792842864990234e+00 3.925505399703979492e+00 4.826772689819335938e+00 2.625683546066284180e+00 5.231394767761230469e+00
2.730000000000000000e+02 3.926708602905273438e+01 -7.962124347686767578e+00 2.943175554275512695e+00 2.209144353866577148e+00 1.545696020126342773e+00 3.305989265441894531e+00
2.740000000000000000e+02 4.006349563598632812e+01 -6.920536518096923828e+00 2.295938491821289062e+00 6.231513619422912598e-01 8.757269382476806641e-01 1.671145915985107422e+00
2.750000000000000000e+02 3.928356170654296875e+01 -7.695256710052490234e+00 2.685701847076416016e+00 1.456949591636657715e+00 1.242795467376708984e+00 2.655095577239990234e+00
2.760000000000000000e+02 3.857934951782226562e+01 -6.991950035095214844e+00 -1.708359122276306152e+00 8.961389958858489990e-02 -4.856235682964324951e-01 1.288281083106994629e-01
2.770000000000000000e+02 3.921884155273437500e+01 -6.728270530700683594e+00 -2.501449346542358398e+00 3.934849053621292114e-02 -7.386302947998046875e-01 -1.833083480596542358e-02
2.780000000000000000e+02 3.930290222167968750e+01 -6.903365612030029297e+00 -1.164801359176635742e+00 1.287604868412017822e-01 -3.108122646808624268e-01 2.776373922824859619e-01
2.790000000000000000e+02 3.901547241210937500e+01 -6.753486633300781250e+00 -2.618028163909912109e+00 -3.750671073794364929e-02 -7.966604828834533691e-01 -1.807513087987899780e-02
2.800000000000000000e+02 3.859262084960937500e+01 -5.492950916290283203e+00 1.634085774421691895e+00 5.048469305038452148e-01 6.416798233985900879e-01 -1.333744168281555176e+00
2.810000000000000000e+02 3.834772872924804688e+01 -6.052153587341308594e+00 -8.664855957031250000e-01 6.569982320070266724e-02 -2.402357310056686401e-01 -2.214075922966003418e-01
2.820000000000000000e+02 3.858248901367187500e+01 -6.180069446563720703e+00 -1.104363918304443359e+00 8.858247846364974976e-02 -3.047344386577606201e-01 -2.603304982185363770e-01
2.830000000000000000e+02 3.959169769287109375e+01 -5.440670490264892578e+00 4.287885189056396484e+00 2.192893981933593750e+00 1.944233775138854980e+00 -3.658440351486206055e+00
2.840000000000000000e+02 3.898246765136718750e+01 -5.235858917236328125e+00 3.076797246932983398e+00 1.423342466354370117e+00 1.350041866302490234e+00 -2.594728231430053711e+00
2.850000000000000000e+02 3.901432800292968750e+01 -6.431383609771728516e+00 -2.338541507720947266e+00 7.728993892669677734e-03 -6.992437839508056641e-01 -1.223374232649803162e-01
2.860000000000000000e+02 4.040305328369140625e+01 -5.183352470397949219e+00 5.027378559112548828e+00 9.573370933532714844e+00 4.380225181579589844e+00 -7.403692722320556641e+00
2.870000000000000000e+02 3.878339767456054688e+01 -5.237375736236572266e+00 2.615922451019287109e+00 1.048201560974121094e+00 1.099237203598022461e+00 -2.137094736099243164e+00
2.880000000000000000e+02 4.019283676147460938e+01 -5.212752342224121094e+00 5.155223369598388672e+00 7.214165687561035156e+00 3.710816621780395508e+00 -6.663159370422363281e+00
2.890000000000000000e+02 4.057392501831054688e+01 -5.592326164245605469e+00 6.396867275238037109e+00 1.092023944854736328e+01 5.195132255554199219e+00 -8.771282196044921875e+00
2.900000000000000000e+02 3.837710952758789062e+01 -5.693363189697265625e+00 5.622742176055908203e-01 2.862000465393066406e-01 2.545422613620758057e-01 -8.080020546913146973e-01
2.910000000000000000e+02 3.919783782958984375e+01 -5.509766101837158203e+00 3.035786151885986328e+00 1.140414237976074219e+00 1.252860188484191895e+00 -2.422036647796630859e+00
2.920000000000000000e+02 4.078991317749023438e+01 -5.132111072540283203e+00 3.814643859863281250e+00 1.458164024353027344e+01 5.518885135650634766e+00 -7.378982067108154297e+00
2.930000000000000000e+02 3.823091506958007812e+01 -7.347632884979248047e+00 -9.149028062820434570e-01 1.997399330139160156e-01 -2.145488709211349487e-01 4.470814168453216553e-01
2.940000000000000000e+02 3.866281509399414062e+01 -7.988227367401123047e+00 1.839142203330993652e+00 1.183677434921264648e+00 9.068458676338195801e-01 2.099356651306152344e+00
2.950000000000000000e+02 3.820811080932617188e+01 -7.164463043212890625e+00 -1.345635533332824707e+00 4.088015295565128326e-03 -4.024642407894134521e-01 9.087228029966354370e-02
2.960000000000000000e+02 3.838939666748046875e+01 -6.246097087860107422e+00 -1.650059819221496582e+00 -2.243405394256114960e-02 -5.017481446266174316e-01 -1.988713890314102173e-01
2.970000000000000000e+02 3.817992782592773438e+01 -5.866972446441650391e+00 -2.178264260292053223e-01 1.213690340518951416e-01 -2.893721871078014374e-02 -4.235830008983612061e-01
2.980000000000000000e+02 4.039224624633789062e+01 -5.701304435729980469e+00 6.934300899505615234e+00 6.655085086822509766e+00 4.076815605163574219e+00 -7.368315696716308594e+00
2.990000000000000000e+02 3.982424545288085938e+01 -7.253609657287597656e+00 3.360057353973388672e+00 1.314299225807189941e+00 1.402307033538818359e+00 2.754103183746337891e+00
3.000000000000000000e+02 3.886250305175781250e+01 -7.980903148651123047e+00 2.072059869766235352e+00 1.289467096328735352e+00 1.008458137512207031e+00 2.299793243408203125e+00
3.010000000000000000e+02 3.835421371459960938e+01 -7.199831008911132812e+00 -9.880562424659729004e-01 1.379264742136001587e-01 -2.550389170646667480e-01 3.253582119941711426e-01
3.020000000000000000e+02 3.860812377929687500e+01 -6.746920585632324219e+00 -2.846175909042358398e+00 -2.665375918149948120e-02 -8.618488907814025879e-01 -6.758012622594833374e-02
3.030000000000000000e+02 3.881147766113281250e+01 -6.439380168914794922e+00 -2.451124191284179688e+00 2.165577001869678497e-02 -7.288405299186706543e-01 -1.024115309119224548e-01
3.040000000000000000e+02 3.923463821411132812e+01 -6.122367382049560547e+00 2.010470628738403320e-01 1.321685016155242920e-01 9.996467083692550659e-02 -6.421797871589660645e-01
3.050000000000000000e+02 3.839075469970703125e+01 -5.466850280761718750e+00 1.270757794380187988e+00 4.572507739067077637e-01 5.184025764465332031e-01 -1.156919360160827637e+00
3.060000000000000000e+02 3.834395217895507812e+01 -5.885959625244140625e+00 -2.616863884031772614e-02 1.741624772548675537e-01 4.439815133810043335e-02 -5.003982782363891602e-01
3.070000000000000000e+02 3.826086807250976562e+01 -7.552781105041503906e+00 8.935948461294174194e-02 2.419741898775100708e-01 9.940010309219360352e-02 7.525784373283386230e-01
3.080000000000000000e+02 3.975374221801757812e+01 -7.498434066772460938e+00 3.892039299011230469e+00 2.362142086029052734e+00 1.876254439353942871e+00 3.700542449951171875e+00
3.090000000000000000e+02 4.006516647338867188e+01 -5.578326702117919922e+00 5.873539924621582031e+00 4.117975234985351562e+00 2.997454404830932617e+00 -5.578789234161376953e+00
3.100000000000000000e+02 3.821688842773437500e+01 -6.959522247314453125e+00 -2.149717807769775391e+00 -2.740260213613510132e-02 -6.531361341476440430e-01 4.168390855193138123e-02
3.110000000000000000e+02 3.867334747314453125e+01 -7.748532295227050781e+00 1.203678846359252930e+00 7.513448596000671387e-01 5.865071415901184082e-01 1.598623394966125488e+00
3.120000000000000000e+02 3.939037704467773438e+01 -7.081657886505126953e+00 3.967955410480499268e-01 3.431302607059478760e-01 2.219777405261993408e-01 8.494659662246704102e-01
3.130000000000000000e+02 3.969441986083984375e+01 -7.728837013244628906e+00 3.865855455398559570e+00 2.982966423034667969e+00 2.054646492004394531e+00 4.139477252960205078e+00
3.140000000000000000e+02 3.852512741088867188e+01 -7.247533321380615234e+00 -6.214135885238647461e-01 1.434782147407531738e-01 -1.433806121349334717e-01 3.725840747356414795e-01
3.150000000000000000e+02 3.911685180664062500e+01 -7.311880111694335938e+00 8.496595025062561035e-01 4.869641363620758057e-01 4.009870886802673340e-01 1.111732244491577148e+00
3.160000000000000000e+02 3.880718612670898438e+01 -6.749693393707275391e+00 -2.742618560791015625e+00 6.042863801121711731e-02 -8.046569824218750000e-01 -2.930678054690361023e-02
3.170000000000000000e+02 3.945195007324218750e+01 -5.753428459167480469e+00 3.016174316406250000e+00 9.087701439857482910e-01 1.177483320236206055e+00 -2.166389942169189453e+00
3.180000000000000000e+02 3.922859954833984375e+01 -5.808927059173583984e+00 2.015106916427612305e+00 4.712361395359039307e-01 7.459028959274291992e-01 -1.415218472480773926e+00
3.190000000000000000e+02 3.878276443481445312e+01 -5.812310218811035156e+00 8.372388482093811035e-01 2.757038772106170654e-01 3.338828086853027344e-01 -8.757879137992858887e-01
3.200000000000000000e+02 3.961037063598632812e+01 -7.010159969329833984e+00 8.095193505287170410e-01 3.895796239376068115e-01 3.597296774387359619e-01 1.050406217575073242e+00
3.210000000000000000e+02 3.878961563110351562e+01 -6.130581855773925781e+00 -6.447712779045104980e-01 6.068226695060729980e-02 -1.752267181873321533e-01 -3.737064301967620850e-01
3.220000000000000000e+02 3.849124526977539062e+01 -5.969951629638671875e+00 -2.489898353815078735e-01 7.770368456840515137e-02 -5.138584226369857788e-02 -4.384759366512298584e-01
3.230000000000000000e+02 3.818655395507812500e+01 -5.446902275085449219e+00 1.012626767158508301e+00 4.311378002166748047e-01 4.331293702125549316e-01 -1.023585438728332520e+00
3.240000000000000000e+02 3.818489837646484375e+01 -5.660471439361572266e+00 4.263671040534973145e-01 2.975120246410369873e-01 2.171637415885925293e-01 -7.469468712806701660e-01
3.250000000000000000e+02 3.818508529663085938e+01 -6.069308280944824219e+00 -1.042215943336486816e+00 6.906308978796005249e-02 -2.919458448886871338e-01 -1.909264922142028809e-01
3.260000000000000000e+02 3.820063018798828125e+01 -6.276046276092529297e+00 -1.860018372535705566e+00 1.058528106659650803e-02 -5.548299551010131836e-01 -9.128865599632263184e-02
3.270000000000000000e+02 3.861162948608398438e+01 -6.456068515777587891e+00 -2.548547029495239258e+00 -1.971810683608055115e-02 -7.704795598983764648e-01 -9.747568517923355103e-02
3.280000000000000000e+02 3.900965881347656250e+01 -6.123535633087158203e+00 -2.150447368621826172e-01 1.105122640728950500e-01 -3.135973960161209106e-02 -4.711399376392364502e-01
3.290000000000000000e+02 3.944553375244140625e+01 -6.165387153625488281e+00 4.385840892791748047e-01 1.000194028019905090e-01 1.615810394287109375e-01 -6.860265731811523438e-01
3.300000000000000000e+02 3.985573577880859375e+01 -6.202346324920654297e+00 1.606703281402587891e+00 1.570948660373687744e-01 5.291394591331481934e-01 -1.061094999313354492e+00
3.310000000000000000e+02 3.858439636230468750e+01 -5.235675811767578125e+00 2.201891660690307617e+00 8.553896546363830566e-01 9.171844124794006348e-01 -1.851775646209716797e+00
3.320000000000000000e+02 3.938021850585937500e+01 -5.218961715698242188e+00 3.911787748336791992e+00 2.263347864151000977e+00 1.852540612220764160e+00 -3.557848215103149414e+00
3.330000000000000000e+02 3.879167938232421875e+01 -5.512445926666259766e+00 1.987015247344970703e+00 6.483463644981384277e-01 7.906084656715393066e-01 -1.570931077003479004e+00
3.340000000000000000e+02 3.939886474609375000e+01 -5.482105731964111328e+00 3.543671369552612305e+00 1.601950526237487793e+00 1.543686628341674805e+00 -2.904125452041625977e+00
3.350000000000000000e+02 3.976852035522460938e+01 -5.405607223510742188e+00 4.814515113830566406e+00 3.155798912048339844e+00 2.391094207763671875e+00 -4.483432769775390625e+00
3.360000000000000000e+02 3.977442932128906250e+01 -5.195394039154052734e+00 4.663328647613525391e+00 3.921280145645141602e+00 2.575382709503173828e+00 -4.959367752075195312e+00
3.370000000000000000e+02 3.993269348144531250e+01 -5.433384895324707031e+00 5.468350887298583984e+00 4.159484863281250000e+00 2.888350725173950195e+00 -5.348624229431152344e+00
3.380000000000000000e+02 3.839653778076171875e+01 -6.971716403961181641e+00 -1.964456558227539062e+00 5.423366278409957886e-02 -5.730668902397155762e-01 1.145569607615470886e-02
3.390000000000000000e+02 3.848414230346679688e+01 -7.509742259979248047e+00 1.238951534032821655e-01 3.894557654857635498e-01 1.540052741765975952e-01 9.100730419158935547e-01
3.400000000000000000e+02 3.877402114868164062e+01 -7.008200168609619141e+00 -1.387438416481018066e+00 3.496936336159706116e-02 -4.057407081127166748e-01 1.704474687576293945e-01
3.410000000000000000e+02 3.940647888183593750e+01 -6.722854137420654297e+00 -2.248170375823974609e+00 5.333199724555015564e-02 -6.584514975547790527e-01 7.167754322290420532e-02
3.420000000000000000e+02 3.981973266601562500e+01 -6.718299388885498047e+00 -1.751528501510620117e+00 3.996420651674270630e-02 -5.134692788124084473e-01 1.111804768443107605e-01
3.430000000000000000e+02 3.847317504882812500e+01 -7.759280204772949219e+00 1.008426070213317871e+00 6.787505149841308594e-01 5.061529278755187988e-01 1.389038920402526855e+00
3.440000000000000000e+02 3.907382202148437500e+01 -7.727083683013916016e+00 2.027114868164062500e+00 1.121857404708862305e+00 9.446917176246643066e-01 2.125843763351440430e+00
3.450000000000000000e+02 3.887163543701171875e+01 -7.740989685058593750e+00 1.659477829933166504e+00 1.040476083755493164e+00 8.099861741065979004e-01 1.941441178321838379e+00
3.460000000000000000e+02 3.949480819702148438e+01 -7.693875789642333984e+00 3.266986131668090820e+00 2.071094751358032227e+00 1.601424217224121094e+00 3.273863554000854492e+00
3.470000000000000000e+02 4.008606338500976562e+01 -7.616878509521484375e+00 4.996591091156005859e+00 4.795848369598388672e+00 2.937731742858886719e+00 5.684472084045410156e+00
3.480000000000000000e+02 4.025228881835937500e+01 -7.947493553161621094e+00 4.258629798889160156e+00 7.986266613006591797e+00 3.673468828201293945e+00 6.685216426849365234e+00
3.490000000000000000e+02 4.051934432983398438e+01 -7.750071525573730469e+00 4.599283218383789062e+00 1.075793838500976562e+01 4.607166767120361328e+00 7.676295280456542969e+00
3.500000000000000000e+02 4.034320068359375000e+01 -7.607743740081787109e+00 5.405056476593017578e+00 7.668203353881835938e+00 3.921977996826171875e+00 7.228707313537597656e+00
3.510000000000000000e+02 4.063708496093750000e+01 -7.931582927703857422e+00 3.781390428543090820e+00 1.278844070434570312e+01 4.970949649810791016e+00 7.614640712738037109e+00
3.520000000000000000e+02 4.240982437133789062e+01 -7.134329795837402344e+00 1.081714630126953125e+01 1.882304000854492188e+01 8.892056465148925781e+00 -2.700691223144531250e+00
3.530000000000000000e+02 4.234026336669921875e+01 -6.902697563171386719e+00 1.296331501007080078e+01 1.913266181945800781e+01 9.628792762756347656e+00 -2.343468904495239258e+00
3.540000000000000000e+02 4.226784515380859375e+01 -7.096199989318847656e+00 1.135063362121582031e+01 2.015680313110351562e+01 9.452231407165527344e+00 -3.006336927413940430e+00
3.550000000000000000e+02 4.247640609741210938e+01 -6.602752208709716797e+00 1.347295284271240234e+01 1.780052185058593750e+01 9.382042884826660156e+00 -5.212204456329345703e-01
3.560000000000000000e+02 4.251201629638671875e+01 -6.210194110870361328e+00 1.241579246520996094e+01 1.780911064147949219e+01 9.067470550537109375e+00 1.570051193237304688e+00
3.570000000000000000e+02 4.205331420898437500e+01 -6.003248214721679688e+00 1.191688251495361328e+01 2.213948631286621094e+01 1.021691036224365234e+01 3.141952514648437500e+00
3.580000000000000000e+02 4.153849029541015625e+01 -5.212483882904052734e+00 3.051586866378784180e+00 2.192561340332031250e+01 7.493160247802734375e+00 -2.554783105850219727e+00
3.590000000000000000e+02 4.026249694824218750e+01 -5.486416339874267578e+00 6.037650108337402344e+00 6.596946239471435547e+00 3.790379047393798828e+00 -6.837442398071289062e+00
3.600000000000000000e+02 3.983963012695312500e+01 -6.986322402954101562e+00 1.683759331703186035e+00 3.698481917381286621e-01 6.160822510719299316e-01 1.397876858711242676e+00
3.610000000000000000e+02 4.155033874511718750e+01 -5.413001060485839844e+00 3.949566125869750977e+00 2.373594284057617188e+01 8.305652618408203125e+00 -1.775955438613891602e+00
3.620000000000000000e+02 4.001655960083007812e+01 -7.322753906250000000e+00 4.519701957702636719e+00 2.477432489395141602e+00 2.099140405654907227e+00 4.054943561553955078e+00
3.630000000000000000e+02 4.018490219116210938e+01 -7.453160285949707031e+00 5.444897651672363281e+00 4.476570129394531250e+00 2.976440429687500000e+00 5.776117324829101562e+00
3.640000000000000000e+02 4.211941528320312500e+01 -6.198896408081054688e+00 1.425079345703125000e+01 2.084812927246093750e+01 1.052967643737792969e+01 2.473718881607055664e+00
3.650000000000000000e+02 3.888599014282226562e+01 -7.507244586944580078e+00 1.094386219978332520e+00 5.958144068717956543e-01 5.070601701736450195e-01 1.341057658195495605e+00
3.660000000000000000e+02 3.872627639770507812e+01 -7.259799003601074219e+00 -2.006625384092330933e-01 2.573198974132537842e-01 1.699720881879329681e-02 6.075559854507446289e-01
3.670000000000000000e+02 3.898276519775390625e+01 -7.027191638946533203e+00 -8.418233990669250488e-01 1.522464603185653687e-01 -2.068730741739273071e-01 3.533723950386047363e-01
3.680000000000000000e+02 3.907149887084960938e+01 -7.507836818695068359e+00 1.563070654869079590e+00 8.713400959968566895e-01 7.303232550621032715e-01 1.722790122032165527e+00
3.690000000000000000e+02 3.962370300292968750e+01 -7.248127460479736328e+00 2.340862751007080078e+00 7.885816693305969238e-01 9.388332962989807129e-01 1.911418914794921875e+00
3.700000000000000000e+02 3.857390213012695312e+01 -5.762327194213867188e+00 6.097937226295471191e-01 2.712543904781341553e-01 2.643144428730010986e-01 -8.185781836509704590e-01
3.710000000000000000e+02 3.900302886962890625e+01 -5.815616130828857422e+00 1.277591586112976074e+00 3.414057791233062744e-01 4.856992065906524658e-01 -1.117611408233642578e+00
3.720000000000000000e+02 3.899380493164062500e+01 -5.517830371856689453e+00 2.455378055572509766e+00 7.867478132247924805e-01 9.726377725601196289e-01 -1.850545406341552734e+00
3.730000000000000000e+02 3.981137466430664062e+01 -5.564221382141113281e+00 4.945780277252197266e+00 2.429222345352172852e+00 2.212500810623168945e+00 -4.042664051055908203e+00
3.740000000000000000e+02 3.956800842285156250e+01 -7.456184387207031250e+00 3.065012931823730469e+00 1.400620341300964355e+00 1.339689970016479492e+00 2.716269731521606445e+00
3.750000000000000000e+02 3.992845916748046875e+01 -7.547042846679687500e+00 4.464128017425537109e+00 3.298245668411254883e+00 2.328712224960327148e+00 4.596184253692626953e+00
3.760000000000000000e+02 4.230387496948242188e+01 -6.038894653320312500e+00 1.181486034393310547e+01 1.960005378723144531e+01 9.424474716186523438e+00 2.521671772003173828e+00
3.770000000000000000e+02 4.067536926269531250e+01 -5.344341754913330078e+00 4.989485263824462891e+00 1.346993637084960938e+01 5.537826538085937500e+00 -8.274842262268066406e+00
3.780000000000000000e+02 4.239920043945312500e+01 -6.151546955108642578e+00 1.242532062530517578e+01 1.858720016479492188e+01 9.303755760192871094e+00 1.928209900856018066e+00
3.790000000000000000e+02 4.004683685302734375e+01 -7.778923034667968750e+00 4.480334281921386719e+00 5.355354309082031250e+00 2.950706720352172852e+00 5.713872909545898438e+00
3.800000000000000000e+02 3.987749099731445312e+01 -7.757366657257080078e+00 4.321806430816650391e+00 4.108144760131835938e+00 2.528985261917114258e+00 4.971273899078369141e+00
3.810000000000000000e+02 3.925102996826171875e+01 -7.448366641998291016e+00 1.798416733741760254e+00 7.485707402229309082e-01 7.640962600708007812e-01 1.760533809661865234e+00
3.820000000000000000e+02 3.943471527099609375e+01 -7.320196628570556641e+00 1.953295350074768066e+00 8.357629179954528809e-01 8.367174863815307617e-01 1.772112369537353516e+00
3.830000000000000000e+02 3.869012451171875000e+01 -7.506262779235839844e+00 6.551799178123474121e-01 4.895401298999786377e-01 3.434160053730010986e-01 1.114153981208801270e+00
3.840000000000000000e+02 3.994106674194335938e+01 -5.977028369903564453e+00 4.127938270568847656e+00 1.175988793373107910e+00 1.591178178787231445e+00 -2.708621978759765625e+00
3.850000000000000000e+02 3.991399765014648438e+01 -5.695875167846679688e+00 4.923550128936767578e+00 2.323429584503173828e+00 2.174093961715698242e+00 -4.010910987854003906e+00
3.860000000000000000e+02 3.957363510131835938e+01 -5.980661869049072266e+00 2.234350919723510742e+00 4.597148299217224121e-01 8.082197308540344238e-01 -1.524425387382507324e+00
3.870000000000000000e+02 3.964939498901367188e+01 -5.657441139221191406e+00 3.963196992874145508e+00 1.645942091941833496e+00 1.682741761207580566e+00 -3.063090562820434570e+00
3.880000000000000000e+02 4.006193542480468750e+01 -5.779386520385742188e+00 5.792294502258300781e+00 3.046301364898681641e+00 2.651578664779663086e+00 -4.645843029022216797e+00
3.890000000000000000e+02 3.892404556274414062e+01 -7.275529384613037109e+00 2.813809216022491455e-01 3.101045191287994385e-01 1.774456351995468140e-01 8.456907868385314941e-01
3.900000000000000000e+02 3.976623535156250000e+01 -5.848205089569091797e+00 3.904428005218505859e+00 1.228957295417785645e+00 1.540015578269958496e+00 -2.782807350158691406e+00
3.910000000000000000e+02 3.769741439819335938e+01 -6.181198596954345703e+00 -1.901495218276977539e+00 -1.511656939983367920e-01 -6.157982945442199707e-01 -2.140451669692993164e-01
3.920000000000000000e+02 3.727593612670898438e+01 -5.311518669128417969e+00 2.994105517864227295e-01 2.822610437870025635e-01 1.745014786720275879e-01 -5.853604078292846680e-01
3.930000000000000000e+02 3.692132949829101562e+01 -6.460799694061279297e+00 -2.623895883560180664e+00 -6.063244305551052094e-03 -7.889876961708068848e-01 -2.448733896017074585e-03
3.940000000000000000e+02 3.749499130249023438e+01 -5.555415153503417969e+00 -5.151010304689407349e-02 1.934669017791748047e-01 4.258704185485839844e-02 -4.535223841667175293e-01
3.950000000000000000e+02 3.612650299072265625e+01 -5.515420436859130859e+00 -7.438080906867980957e-01 6.331923604011535645e-02 -2.041466683149337769e-01 -1.626480966806411743e-01
3.960000000000000000e+02 3.793287658691406250e+01 -5.670215129852294922e+00 1.103671193122863770e-01 6.409477442502975464e-02 5.233856663107872009e-02 -5.549001693725585938e-01
3.970000000000000000e+02 3.738185501098632812e+01 -5.777661800384521484e+00 -5.524786710739135742e-01 2.015396654605865479e-01 -1.052817106246948242e-01 -2.710049748420715332e-01
3.980000000000000000e+02 3.781020355224609375e+01 -5.243942737579345703e+00 1.068986892700195312e+00 3.811751902103424072e-01 4.350486099720001221e-01 -9.756699204444885254e-01
3.990000000000000000e+02 3.545210647583007812e+01 -5.579643726348876953e+00 -1.054189443588256836e+00 3.831472620368003845e-02 -3.047624230384826660e-01 -6.818960607051849365e-02
4.000000000000000000e+02 3.550914764404296875e+01 -6.318315505981445312e+00 -2.243524551391601562e+00 -3.174500772729516029e-03 -6.740097403526306152e-01 5.003373953513801098e-04
4.010000000000000000e+02 3.704320526123046875e+01 -5.881153106689453125e+00 -1.043667435646057129e+00 8.510832488536834717e-02 -2.875677049160003662e-01 -1.549434661865234375e-01
4.020000000000000000e+02 3.797275543212890625e+01 -5.874875545501708984e+00 -4.434229731559753418e-01 -8.541102870367467403e-04 -1.332831233739852905e-01 -3.773079514503479004e-01
4.030000000000000000e+02 3.774280166625976562e+01 -5.925075054168701172e+00 -7.247812747955322266e-01 -5.207693576812744141e-02 -2.330574542284011841e-01 -3.303527534008026123e-01
4.040000000000000000e+02 3.787802505493164062e+01 -5.461392879486083984e+00 6.273469924926757812e-01 2.265577316284179688e-01 2.561714053153991699e-01 -7.929505109786987305e-01
4.050000000000000000e+02 3.765246963500976562e+01 -5.734390735626220703e+00 -2.447622716426849365e-01 5.538001656532287598e-02 -5.681467801332473755e-02 -3.298335373401641846e-01
4.060000000000000000e+02 3.741772079467773438e+01 -6.167463302612304688e+00 -1.788266062736511230e+00 7.427415251731872559e-02 -5.141975879669189453e-01 -1.713938266038894653e-01
4.070000000000000000e+02 3.784345626831054688e+01 -6.101366996765136719e+00 -1.499456286430358887e+00 -5.179870128631591797e-02 -4.653764963150024414e-01 -2.691100239753723145e-01
4.080000000000000000e+02 3.672387695312500000e+01 -5.406191349029541016e+00 -2.634081542491912842e-01 1.105196252465248108e-01 -4.586655646562576294e-02 -3.406466543674468994e-01
4.090000000000000000e+02 3.625780105590820312e+01 -6.402869224548339844e+00 -2.360329151153564453e+00 6.781476549804210663e-03 -7.060642838478088379e-01 -2.259279601275920868e-03
4.100000000000000000e+02 3.800675582885742188e+01 -6.066786289215087891e+00 -1.168888926506042480e+00 4.826789721846580505e-02 -3.361863195896148682e-01 -2.370952218770980835e-01
4.110000000000000000e+02 3.793266677856445312e+01 -6.383508205413818359e+00 -2.441833019256591797e+00 2.340397797524929047e-02 -7.255287170410156250e-01 1.058288291096687317e-02
4.120000000000000000e+02 3.799954986572265625e+01 -6.235146522521972656e+00 -1.871402859687805176e+00 9.894927591085433960e-02 -5.317360758781433105e-01 -6.634655594825744629e-02
4.130000000000000000e+02 3.656285858154296875e+01 -6.068210124969482422e+00 -1.722467422485351562e+00 1.723996549844741821e-02 -5.115682482719421387e-01 -6.706527620553970337e-02
4.140000000000000000e+02 3.756267166137695312e+01 -6.445125579833984375e+00 -2.629091024398803711e+00 3.269638493657112122e-02 -7.789183855056762695e-01 -8.495537191629409790e-02
4.150000000000000000e+02 3.754407501220703125e+01 -6.009704589843750000e+00 -1.137813806533813477e+00 8.423002809286117554e-02 -3.160751461982727051e-01 -2.214517444372177124e-01
4.160000000000000000e+02 3.323463058471679688e+01 -6.359344959259033203e+00 -1.981732964515686035e+00 4.710015840828418732e-03 -5.931068658828735352e-01 9.659979492425918579e-03
4.170000000000000000e+02 3.321954727172851562e+01 -5.619493961334228516e+00 -1.287397384643554688e+00 2.522670291364192963e-02 -3.786512017250061035e-01 7.046273350715637207e-02
4.180000000000000000e+02 3.248681640625000000e+01 -6.379900932312011719e+00 -1.872327566146850586e+00 6.873697973787784576e-03 -5.596361756324768066e-01 2.063457854092121124e-02
4.190000000000000000e+02 3.398349380493164062e+01 -6.341384410858154297e+00 -2.071889638900756836e+00 5.979897920042276382e-03 -6.197729110717773438e-01 -9.114775457419455051e-04
4.200000000000000000e+02 3.471478271484375000e+01 -5.586100101470947266e+00 -1.195731520652770996e+00 1.177405845373868942e-02 -3.551872372627258301e-01 -3.236756427213549614e-03
4.210000000000000000e+02 3.473338699340820312e+01 -6.325866699218750000e+00 -2.150663375854492188e+00 -2.086834050714969635e-03 -6.458250284194946289e-01 -4.754034336656332016e-03
4.220000000000000000e+02 3.247348785400390625e+01 -5.640007495880126953e+00 -1.294759631156921387e+00 2.702216804027557373e-02 -3.803212344646453857e-01 9.681916236877441406e-02
4.230000000000000000e+02 3.396664810180664062e+01 -5.601575374603271484e+00 -1.262340307235717773e+00 3.356115892529487610e-02 -3.686337769031524658e-01 3.419300913810729980e-02
4.240000000000000000e+02 3.099083137512207031e+01 -6.399948596954345703e+00 -1.660598039627075195e+00 1.380118075758218765e-03 -4.977653622627258301e-01 4.627048224210739136e-02
4.250000000000000000e+02 3.024179267883300781e+01 -5.667771339416503906e+00 -1.153006434440612793e+00 1.593979075551033020e-02 -3.411199748516082764e-01 1.516734659671783447e-01
4.260000000000000000e+02 2.949573898315429688e+01 -6.414954185485839844e+00 -1.404982209205627441e+00 7.085187826305627823e-03 -4.193691015243530273e-01 6.299179047346115112e-02
4.270000000000000000e+02 3.172830200195312500e+01 -5.652883052825927734e+00 -1.264561057090759277e+00 2.243514545261859894e-02 -3.726377785205841064e-01 1.128464862704277039e-01
4.280000000000000000e+02 3.173856925964355469e+01 -6.392818927764892578e+00 -1.765190124511718750e+00 9.102011099457740784e-03 -5.268264412879943848e-01 3.616933897137641907e-02
4.290000000000000000e+02 2.949855422973632812e+01 -5.674893379211425781e+00 -1.091369748115539551e+00 2.004891820251941681e-02 -3.213962614536285400e-01 1.636086255311965942e-01
4.300000000000000000e+02 3.098492622375488281e+01 -5.659971237182617188e+00 -1.212233781814575195e+00 1.735809072852134705e-02 -3.584626913070678711e-01 1.314063668251037598e-01
4.310000000000000000e+02 3.024333572387695312e+01 -6.407790660858154297e+00 -1.540712714195251465e+00 4.696913063526153564e-03 -4.608047604560852051e-01 5.181424692273139954e-02
4.320000000000000000e+02 2.800358009338378906e+01 -6.392907142639160156e+00 -1.179637789726257324e+00 -2.090121386572718620e-03 -3.545183837413787842e-01 8.887842297554016113e-02
4.330000000000000000e+02 2.728431129455566406e+01 -5.636834621429443359e+00 -8.369902372360229492e-01 1.736083882860839367e-03 -2.505762279033660889e-01 1.949200183153152466e-01
4.340000000000000000e+02 2.651304817199707031e+01 -6.358762741088867188e+00 -9.172857403755187988e-01 1.900019822642207146e-03 -2.746157050132751465e-01 9.663502126932144165e-02
4.350000000000000000e+02 2.875823974609375000e+01 -5.669638156890869141e+00 -1.013145923614501953e+00 1.527593377977609634e-02 -2.993609905242919922e-01 1.700486689805984497e-01
4.360000000000000000e+02 2.874904632568359375e+01 -6.409622669219970703e+00 -1.285296082496643066e+00 7.370838895440101624e-03 -3.833775520324707031e-01 7.932021468877792358e-02
4.370000000000000000e+02 2.654741096496582031e+01 -5.619358539581298828e+00 -7.576232552528381348e-01 3.830004483461380005e-03 -2.261379808187484741e-01 1.993188560009002686e-01
4.380000000000000000e+02 2.802116203308105469e+01 -5.653115749359130859e+00 -9.221620559692382812e-01 6.343748886138200760e-03 -2.747454941272735596e-01 1.810064911842346191e-01
4.390000000000000000e+02 2.725833702087402344e+01 -6.376431941986083984e+00 -1.056112051010131836e+00 -9.093916742131114006e-04 -3.171064257621765137e-01 9.060105681419372559e-02
4.400000000000000000e+02 2.428754043579101562e+01 -6.197861671447753906e+00 -5.901698470115661621e-01 -1.252371352165937424e-02 -1.808080673217773438e-01 1.074939221143722534e-01
4.410000000000000000e+02 2.435861396789550781e+01 -5.461198806762695312e+00 -4.834866821765899658e-01 -2.528704516589641571e-02 -1.526321172714233398e-01 2.023326605558395386e-01
4.420000000000000000e+02 2.354777717590332031e+01 -6.138960838317871094e+00 -4.686796069145202637e-01 -1.103340461850166321e-02 -1.439139097929000854e-01 1.015399321913719177e-01
4.430000000000000000e+02 2.502826499938964844e+01 -6.258197307586669922e+00 -7.027756571769714355e-01 -1.204356364905834198e-02 -2.144457697868347168e-01 1.135668829083442688e-01
4.440000000000000000e+02 2.581491851806640625e+01 -5.581003189086914062e+00 -6.683372855186462402e-01 -3.334582317620515823e-03 -2.015015631914138794e-01 1.965081840753555298e-01
4.450000000000000000e+02 2.576985549926757812e+01 -6.319781780242919922e+00 -8.006303906440734863e-01 -1.262205303646624088e-03 -2.405677735805511475e-01 1.088890358805656433e-01
4.460000000000000000e+02 2.363185691833496094e+01 -5.403356075286865234e+00 -4.056509137153625488e-01 -2.674247138202190399e-02 -1.297180205583572388e-01 1.950391232967376709e-01
4.470000000000000000e+02 2.508633232116699219e+01 -5.520476818084716797e+00 -5.702588558197021484e-01 -1.623619161546230316e-02 -1.759485155344009399e-01 1.989433020353317261e-01
4.480000000000000000e+02 2.146717453002929688e+01 -5.077126979827880859e+00 -1.702383160591125488e-01 -5.512781068682670593e-02 -6.760983914136886597e-02 1.550487130880355835e-01
4.490000000000000000e+02 2.134441947937011719e+01 -5.806876659393310547e+00 -1.932709962129592896e-01 -2.185443602502346039e-02 -6.453762948513031006e-02 7.680787891149520874e-02
4.500000000000000000e+02 2.061148262023925781e+01 -5.684748649597167969e+00 -1.079018712043762207e-01 -1.799604482948780060e-02 -3.776937350630760193e-02 6.037763878703117371e-02
4.510000000000000000e+02 2.207760429382324219e+01 -5.928263664245605469e+00 -2.821613252162933350e-01 -2.320533245801925659e-02 -9.160999953746795654e-02 9.329888224601745605e-02
4.520000000000000000e+02 2.290797805786132812e+01 -5.314875125885009766e+00 -3.236446380615234375e-01 -3.419249877333641052e-02 -1.073511391878128052e-01 1.812744140625000000e-01
4.530000000000000000e+02 2.281096076965332031e+01 -6.048885822296142578e+00 -3.668475449085235596e-01 -1.507980935275554657e-02 -1.145782098174095154e-01 1.002817749977111816e-01
4.540000000000000000e+02 2.074710655212402344e+01 -4.957129478454589844e+00 -1.167854815721511841e-01 -5.479860305786132812e-02 -5.147522315382957458e-02 1.270075887441635132e-01
4.550000000000000000e+02 2.218749046325683594e+01 -5.196383476257324219e+00 -2.410162687301635742e-01 -4.601859301328659058e-02 -8.611045777797698975e-02 1.697436571121215820e-01
4.560000000000000000e+02 1.905580329895019531e+01 -4.613489627838134766e+00 -1.585910841822624207e-02 -6.224741414189338684e-02 -2.343195676803588867e-02 3.638050705194473267e-02
4.570000000000000000e+02 1.978026580810546875e+01 -5.523462295532226562e+00 -4.200079292058944702e-02 -2.242728322744369507e-02 -1.932842284440994263e-02 3.121064975857734680e-02
4.580000000000000000e+02 1.992511749267578125e+01 -4.797539234161376953e+00 -5.800051987171173096e-02 -6.371891498565673828e-02 -3.651583194732666016e-02 9.311019629240036011e-02
4.590000000000000000e+02 1.847771644592285156e+01 -4.667171001434326172e+00 -2.863460395019501448e-04 -4.162740893661975861e-03 -1.334726111963391304e-03 -5.760264582931995392e-03
4.600000000000000000e+02 1.890536689758300781e+01 -5.338151454925537109e+00 -3.327420447021722794e-03 -5.333150271326303482e-03 -2.598171355202794075e-03 1.118744257837533951e-02
4.610000000000000000e+02 1.882146453857421875e+01 -6.111851215362548828e+00 -2.707386948168277740e-02 -2.868385752663016319e-03 -8.982676081359386444e-03 -2.136380784213542938e-02
4.620000000000000000e+02 1.800308799743652344e+01 -6.754832744598388672e+00 -2.191655524075031281e-02 -9.231135249137878418e-02 -3.426837176084518433e-02 -3.729288652539253235e-02
4.630000000000000000e+02 1.831862449645996094e+01 -6.817986488342285156e+00 -7.330121845006942749e-02 -4.862731322646141052e-02 -3.657855838537216187e-02 -6.271739304065704346e-02
4.640000000000000000e+02 1.959215354919433594e+01 -7.028707504272460938e+00 -3.204851150512695312e-01 1.857592910528182983e-02 -9.057275950908660889e-02 -1.499198973178863525e-01
4.650000000000000000e+02 1.890554809570312500e+01 -6.889476776123046875e+00 -1.960611045360565186e-01 -3.614223375916481018e-02 -6.966099888086318970e-02 -1.186411678791046143e-01
4.660000000000000000e+02 1.965883255004882812e+01 -6.285129547119140625e+00 -1.551532745361328125e-01 3.811207599937915802e-03 -4.540261998772621155e-02 -3.763248771429061890e-02
4.670000000000000000e+02 1.828899765014648438e+01 -6.266255378723144531e+00 -2.358925901353359222e-02 -8.478624746203422546e-03 -9.620365686714649200e-03 -1.889656297862529755e-02
4.680000000000000000e+02 1.796524238586425781e+01 -6.500696659088134766e+00 -1.368624623864889145e-02 -2.999944984912872314e-02 -1.310570910573005676e-02 -6.399955600500106812e-03
4.690000000000000000e+02 1.804782676696777344e+01 -7.331779956817626953e+00 -6.702660769224166870e-02 -1.847953051328659058e-01 -7.554657757282257080e-02 -1.792733222246170044e-01
4.700000000000000000e+02 1.869604492187500000e+01 -7.446747303009033203e+00 -2.544450759887695312e-01 -3.732825815677642822e-02 -8.753199875354766846e-02 -2.021939605474472046e-01
4.710000000000000000e+02 1.716831970214843750e+01 -9.375198364257812500e+00 -2.820471227169036865e-01 -3.999443650245666504e-01 -2.045974433422088623e-01 -3.663912713527679443e-01
4.720000000000000000e+02 2.243219184875488281e+01 -9.084299087524414062e+00 -7.998657226562500000e-01 7.516264170408248901e-02 -2.174109220504760742e-01 -4.042250514030456543e-01
4.730000000000000000e+02 2.794272804260253906e+01 -8.651923179626464844e+00 -1.452455759048461914e+00 2.058603800833225250e-03 -4.351191520690917969e-01 -2.071976512670516968e-01
4.740000000000000000e+02 2.406482696533203125e+01 -8.465708732604980469e+00 -1.067868351936340332e+00 4.023361951112747192e-02 -3.082904219627380371e-01 -2.880122959613800049e-01
4.750000000000000000e+02 1.502988052368164062e+01 -1.275069141387939453e+01 -6.118917465209960938e-01 -9.841724634170532227e-01 -4.788192510604858398e-01 -7.510520815849304199e-01
4.760000000000000000e+02 1.242354774475097656e+01 -1.605065345764160156e+01 -8.886458277702331543e-01 -9.437186121940612793e-01 -5.497093200683593750e-01 -8.978356122970581055e-01
4.770000000000000000e+02 1.435683631896972656e+01 -1.585082149505615234e+01 -7.110121846199035645e-01 -7.277755737304687500e-01 -4.316363334655761719e-01 -6.732926964759826660e-01
4.780000000000000000e+02 1.497941589355468750e+01 -2.364958763122558594e+01 9.531900286674499512e-02 -2.012669444084167480e-01 -3.178438171744346619e-02 -2.163696289062500000e-01
4.790000000000000000e+02 1.998617744445800781e+01 -3.297425079345703125e+01 3.183045387268066406e-01 8.942207694053649902e-01 3.637575805187225342e-01 8.533982932567596436e-02
4.800000000000000000e+02 1.770378684997558594e+01 -4.058845138549804688e+01 2.793542742729187012e-01 7.003022432327270508e-01 2.938969731330871582e-01 -4.374827258288860321e-03
4.810000000000000000e+02 2.259111595153808594e+01 -4.083603286743164062e+01 2.405339926481246948e-01 1.511737942695617676e+00 5.256815552711486816e-01 3.439248725771903992e-02
4.820000000000000000e+02 1.870533752441406250e+01 -3.675161743164062500e+01 3.029658794403076172e-01 7.966855764389038086e-01 3.298954367637634277e-01 2.298277616500854492e-02
4.830000000000000000e+02 2.491795539855957031e+01 -3.022196388244628906e+01 2.756529450416564941e-01 1.638271570205688477e+00 5.741773843765258789e-01 3.379230201244354248e-01
4.840000000000000000e+02 2.387219810485839844e+01 -1.420769596099853516e+01 -2.620153427124023438e-01 2.758935391902923584e-01 4.163460806012153625e-03 -3.197255730628967285e-01
4.850000000000000000e+02 1.334169006347656250e+01 -1.497749328613281250e+01 -8.311152458190917969e-01 -9.723877310752868652e-01 -5.410509109497070312e-01 -8.740375638008117676e-01
4.860000000000000000e+02 1.145461273193359375e+01 -1.716403388977050781e+01 -1.085942506790161133e+00 -9.012123942375183105e-01 -5.961464643478393555e-01 -8.765760660171508789e-01
4.870000000000000000e+02 1.025372314453125000e+01 -1.804649353027343750e+01 -1.373996496200561523e+00 -7.168423533439636230e-01 -6.272516846656799316e-01 -7.271367311477661133e-01
4.880000000000000000e+02 8.964675903320312500e+00 -1.836317253112792969e+01 -1.013937711715698242e+00 -2.410332262516021729e-01 -3.764912784099578857e-01 -3.763676881790161133e-01
4.890000000000000000e+02 7.209343910217285156e+00 -1.743935203552246094e+01 -2.223837971687316895e-01 5.861875414848327637e-02 -4.912951216101646423e-02 -3.216119110584259033e-02
4.900000000000000000e+02 6.345679283142089844e+00 -1.659492111206054688e+01 -2.329930849373340607e-02 1.422051526606082916e-02 -2.723637735471129417e-03 -7.543712388724088669e-03
4.910000000000000000e+02 7.019362926483154297e+00 -1.520443725585937500e+01 1.527834776788949966e-02 5.335647612810134888e-02 2.059044688940048218e-02 -1.807801984250545502e-02
4.920000000000000000e+02 8.877172470092773438e+00 -1.145197010040283203e+01 -2.449468942359089851e-03 -1.309983665123581886e-03 -1.127835828810930252e-03 1.893201959319412708e-03
4.930000000000000000e+02 9.681040763854980469e+00 -1.031629276275634766e+01 1.544213504530489445e-03 1.063545350916683674e-03 7.823276682756841183e-04 -1.630951301194727421e-03
4.940000000000000000e+02 1.216509628295898438e+01 -7.068776607513427734e+00 -7.726090261712670326e-04 -4.782140313182026148e-04 -3.752469201572239399e-04 4.537873610388487577e-04
4.950000000000000000e+02 1.171074867248535156e+01 -2.769581556320190430e+00 -2.445320133119821548e-04 2.181779564125463367e-04 -7.906217433628626168e-06 3.446890332270413637e-04
4.960000000000000000e+02 1.226088619232177734e+01 -4.664006233215332031e+00 3.187128459103405476e-04 1.445712405256927013e-04 1.389852259308099747e-04 -4.847281379625201225e-04
4.970000000000000000e+02 1.104338455200195312e+01 -1.916752934455871582e+00 -1.196884404635056853e-04 1.254626695299521089e-04 1.732267037368728779e-06 3.192212025169283152e-04
4.980000000000000000e+02 4.230800628662109375e+00 -1.940035104751586914e+00 -5.966050230199471116e-05 7.309953070944175124e-05 4.031708158436231315e-06 -2.716067538131028414e-04
4.990000000000000000e+02 1.717423200607299805e+00 -1.434054851531982422e+01 4.307739902287721634e-03 4.805619828402996063e-03 2.734008012339472771e-03 1.247587893158197403e-02
5.000000000000000000e+02 4.100740909576416016e+00 -1.854416847229003906e+01 -1.551662236452102661e-01 -4.769093170762062073e-02 -6.085714697837829590e-02 -6.332270801067352295e-02
5.010000000000000000e+02 6.858655810356140137e-01 -2.475453376770019531e+01 -3.710642224177718163e-03 -3.595480620861053467e-01 -1.089776158332824707e-01 -6.806281208992004395e-02
5.020000000000000000e+02 7.148843407630920410e-01 -3.181072616577148438e+01 5.433731246739625931e-03 -9.933182597160339355e-01 -2.963653504848480225e-01 -4.897433519363403320e-02
5.030000000000000000e+02 2.810254096984863281e+00 -3.826087570190429688e+01 4.676552116870880127e-02 -1.034605264663696289e+00 -2.963519096374511719e-01 -5.724373273551464081e-03
5.040000000000000000e+02 9.115913510322570801e-01 -3.736812973022460938e+01 9.850555099546909332e-03 -1.192368030548095703e+00 -3.547552525997161865e-01 4.730327927973121405e-04
5.050000000000000000e+02 6.112919807434082031e+00 -3.840193939208984375e+01 1.051154807209968567e-01 -6.112943887710571289e-01 -1.518536806106567383e-01 -1.103104576468467712e-01
5.060000000000000000e+02 8.816931724548339844e+00 -3.838257217407226562e+01 1.615744531154632568e-01 -3.604371249675750732e-01 -5.965879932045936584e-02 -1.106624454259872437e-01
5.070000000000000000e+02 7.053330898284912109e+00 -3.259285736083984375e+01 1.285819113254547119e-01 -4.879357218742370605e-01 -1.078061386942863464e-01 -2.503302991390228271e-01
5.080000000000000000e+02 1.221768188476562500e+01 -2.109391021728515625e+01 -1.596204191446304321e-01 -5.739412307739257812e-01 -2.200684994459152222e-01 -3.964632749557495117e-01
5.090000000000000000e+02 1.083158588409423828e+01 -2.197110939025878906e+01 -6.983270496129989624e-02 -5.727289319038391113e-01 -1.927684843540191650e-01 -4.421910345554351807e-01
5.100000000000000000e+02 6.793852448463439941e-01 -2.332513999938964844e+01 -3.012990113347768784e-03 -2.249389141798019409e-01 -6.838557124137878418e-02 -6.086299940943717957e-02
5.110000000000000000e+02 1.254156494140625000e+01 -2.004696369171142578e+00 2.848762778739910573e-05 7.662933057872578502e-05 3.153508805553428829e-05 9.762353874975815415e-05
5.120000000000000000e+02 2.739559173583984375e+01 -4.095695495605468750e+01 9.277197718620300293e-02 2.454648256301879883e+00 7.642260789871215820e-01 5.893158167600631714e-02
5.130000000000000000e+02 2.725549888610839844e+01 -3.777155685424804688e+01 1.152763813734054565e-01 2.395503044128417969e+00 7.532338500022888184e-01 1.943471431732177734e-01
5.140000000000000000e+02 2.733328628540039062e+01 -3.453059005737304688e+01 1.489584594964981079e-01 2.330001831054687500e+00 7.436881065368652344e-01 3.228979110717773438e-01
5.150000000000000000e+02 2.857300949096679688e+01 -2.268120384216308594e+01 3.793614804744720459e-01 1.846243619918823242e+00 6.676815152168273926e-01 7.102392911911010742e-01
5.160000000000000000e+02 3.094244003295898438e+01 -1.374996280670166016e+01 4.202373325824737549e-01 8.139882087707519531e-01 3.702676594257354736e-01 5.889344215393066406e-01
5.170000000000000000e+02 3.100166320800781250e+01 -8.643555641174316406e+00 -1.511244416236877441e+00 1.547364611178636551e-02 -4.487312138080596924e-01 -1.050869971513748169e-01
5.180000000000000000e+02 2.946459007263183594e+01 -9.383297920227050781e+00 -1.136315464973449707e+00 3.785847872495651245e-02 -3.295370936393737793e-01 -1.596616804599761963e-01
5.190000000000000000e+02 4.128434753417968750e+01 -4.025671386718750000e+01 -6.557528972625732422e-01 5.676486492156982422e+00 1.506220102310180664e+00 9.062790125608444214e-02
5.200000000000000000e+02 3.687062072753906250e+01 -4.072755813598632812e+01 -4.228162765502929688e-01 4.653770446777343750e+00 1.269286274909973145e+00 9.027124941349029541e-02
5.210000000000000000e+02 3.196045494079589844e+01 -2.903215408325195312e+01 5.111803859472274780e-02 3.251938343048095703e+00 9.909169077873229980e-01 7.723876833915710449e-01
5.220000000000000000e+02 3.746550369262695312e+01 -2.277081871032714844e+01 -1.203479617834091187e-01 4.959848403930664062e+00 1.451850175857543945e+00 1.434571504592895508e+00
5.230000000000000000e+02 3.441526031494140625e+01 -1.419334602355957031e+01 8.795109987258911133e-01 2.156912326812744141e+00 9.109269380569458008e-01 1.705487251281738281e+00
5.240000000000000000e+02 3.861979293823242188e+01 -8.293398857116699219e+00 2.017015933990478516e+00 1.472651124000549316e+00 1.046900153160095215e+00 2.415069103240966797e+00
5.250000000000000000e+02 3.691611480712890625e+01 -9.039975166320800781e+00 8.199508190155029297e-01 8.497937917709350586e-01 5.009233951568603516e-01 1.444533348083496094e+00
5.260000000000000000e+02 3.625959777832031250e+01 -8.470030784606933594e+00 -2.998377978801727295e-01 2.754236459732055664e-01 -7.324243430048227310e-03 6.088541746139526367e-01
5.270000000000000000e+02 3.906008911132812500e+01 -3.629464721679687500e+01 -5.164489746093750000e-01 5.197912693023681641e+00 1.404439091682434082e+00 3.462173640727996826e-01
5.280000000000000000e+02 3.961194610595703125e+01 -3.162012100219726562e+01 -5.200285315513610840e-01 5.443156719207763672e+00 1.476938366889953613e+00 6.102306246757507324e-01
5.290000000000000000e+02 4.136123275756835938e+01 -2.285269927978515625e+01 -5.324107408523559570e-01 6.541804313659667969e+00 1.802818059921264648e+00 1.137599945068359375e+00
5.300000000000000000e+02 4.017567062377929688e+01 -1.688921928405761719e+01 -1.507972776889801025e-01 6.875079631805419922e+00 2.017284631729125977e+00 2.056332111358642578e+00
5.310000000000000000e+02 4.825458526611328125e+01 -4.052472686767578125e+01 -8.605346083641052246e-01 6.792881488800048828e+00 1.779703974723815918e+00 1.414262969046831131e-02
5.320000000000000000e+02 4.964805603027343750e+01 -3.722895812988281250e+01 -8.591240644454956055e-01 7.049563884735107422e+00 1.857131958007812500e+00 3.184274584054946899e-02
5.330000000000000000e+02 5.029837417602539062e+01 -1.919143676757812500e+01 -2.648886144161224365e-01 8.663606643676757812e+00 2.519615411758422852e+00 -4.776305258274078369e-01
5.340000000000000000e+02 5.116825103759765625e+01 -1.808137321472167969e+01 -3.615520894527435303e-02 8.723031044006347656e+00 2.606062889099121094e+00 -6.649159193038940430e-01
5.350000000000000000e+02 4.620731353759765625e+01 -8.003708839416503906e+00 4.905717372894287109e+00 1.067878532409667969e+01 4.675350666046142578e+00 -1.133560895919799805e+00
5.360000000000000000e+02 4.555196380615234375e+01 -5.249871730804443359e+00 5.536687374114990234e+00 1.112670803070068359e+01 4.999018669128417969e+00 1.071033000946044922e+00
5.370000000000000000e+02 5.382974624633789062e+01 6.365907669067382812e+00 9.373333305120468140e-02 8.318925857543945312e+00 2.523797750473022461e+00 9.079260230064392090e-01
5.380000000000000000e+02 4.869312286376953125e+01 7.896238803863525391e+00 -4.190808832645416260e-01 8.340054512023925781e+00 2.376291990280151367e+00 2.513292431831359863e-01
5.390000000000000000e+02 4.838497543334960938e+01 1.471280002593994141e+01 -7.045350670814514160e-01 7.348557472229003906e+00 1.993206739425659180e+00 -2.482458204030990601e-02
5.400000000000000000e+02 4.642190551757812500e+01 2.720666694641113281e+01 -6.401969194412231445e-01 6.103590488433837891e+00 1.639018058776855469e+00 -1.294957846403121948e-01
5.410000000000000000e+02 4.951770782470703125e+01 3.270546340942382812e+01 -6.046413779258728027e-01 6.351111412048339844e+00 1.723940968513488770e+00 4.843281581997871399e-03
5.420000000000000000e+02 4.714622879028320312e+01 4.054972457885742188e+01 -5.505744218826293945e-01 5.910802841186523438e+00 1.608068466186523438e+00 -9.779732674360275269e-03
5.430000000000000000e+02 5.024911880493164062e+01 3.616976165771484375e+01 -5.624560117721557617e-01 6.399703025817871094e+00 1.751174092292785645e+00 2.391123957931995392e-02
5.440000000000000000e+02 3.749806976318359375e+01 4.052437973022460938e+01 -3.554636538028717041e-01 4.286736488342285156e+00 1.179381966590881348e+00 -5.663440376520156860e-02
5.450000000000000000e+02 4.237747955322265625e+01 4.059733581542968750e+01 -4.840425848960876465e-01 5.148238658905029297e+00 1.399258732795715332e+00 -4.300375655293464661e-02
5.460000000000000000e+02 4.247997665405273438e+01 3.307526016235351562e+01 -5.201846957206726074e-01 5.266162872314453125e+00 1.423793435096740723e+00 -1.694425493478775024e-01
5.470000000000000000e+02 4.546396255493164062e+01 2.149643325805664062e+01 -6.910734176635742188e-01 6.293411731719970703e+00 1.680701375007629395e+00 -2.624931335449218750e-01
5.480000000000000000e+02 4.188626861572265625e+01 1.483772659301757812e+01 -6.058240532875061035e-01 6.106426239013671875e+00 1.650180578231811523e+00 -7.280725836753845215e-01
5.490000000000000000e+02 3.993850326538085938e+01 9.990425109863281250e+00 -3.559037148952484131e-01 5.957805156707763672e+00 1.680570483207702637e+00 -1.207037448883056641e+00
5.500000000000000000e+02 4.228231048583984375e+01 -5.391902923583984375e+00 6.496601104736328125e+00 1.999030494689941406e+01 7.946072101593017578e+00 2.046089410781860352e+00
5.510000000000000000e+02 4.602153396606445312e+01 -4.297357082366943359e+00 4.270933628082275391e+00 1.096230506896972656e+01 4.569971561431884766e+00 1.362305998802185059e+00
5.520000000000000000e+02 6.241154479980468750e+01 -4.024391937255859375e+01 -5.611929297447204590e-01 7.793335437774658203e+00 2.169642686843872070e+00 -1.010597273707389832e-01
5.530000000000000000e+02 5.734857940673828125e+01 -4.047148513793945312e+01 -7.357400059700012207e-01 7.643092155456542969e+00 2.072205543518066406e+00 -6.011497974395751953e-02
5.540000000000000000e+02 5.436161422729492188e+01 -3.004654312133789062e+01 -7.220730185508728027e-01 7.784453392028808594e+00 2.118714094161987305e+00 -2.913477122783660889e-01
5.550000000000000000e+02 5.636152648925781250e+01 -2.177726745605468750e+01 -1.851074546575546265e-01 8.163009643554687500e+00 2.393370628356933594e+00 -7.401812076568603516e-01
5.560000000000000000e+02 6.064444351196289062e+01 -1.554261970520019531e+01 5.806152820587158203e-01 7.827799797058105469e+00 2.522524595260620117e+00 -7.599284052848815918e-01
5.570000000000000000e+02 5.919306945800781250e+01 -8.647860527038574219e+00 1.408340930938720703e+00 7.678816318511962891e+00 2.726147174835205078e+00 -2.350736707448959351e-01
5.580000000000000000e+02 6.032405471801757812e+01 -4.267477989196777344e+00 1.299260020256042480e+00 7.615421295166015625e+00 2.674404382705688477e+00 3.412412703037261963e-01
5.590000000000000000e+02 5.948133087158203125e+01 6.069171428680419922e+00 2.843921780586242676e-01 7.963277339935302734e+00 2.474300861358642578e+00 9.946969151496887207e-01
5.600000000000000000e+02 5.807400512695312500e+01 8.846389770507812500e+00 -2.102392539381980896e-02 8.030588150024414062e+00 2.402869224548339844e+00 9.455770850181579590e-01
5.610000000000000000e+02 5.414045333862304688e+01 1.865735244750976562e+01 -6.036167144775390625e-01 7.509671688079833984e+00 2.071816444396972656e+00 4.115223586559295654e-01
5.620000000000000000e+02 5.618807220458984375e+01 2.449065589904785156e+01 -5.785835981369018555e-01 7.367486000061035156e+00 2.036670684814453125e+00 3.559806942939758301e-01
5.630000000000000000e+02 5.254616165161132812e+01 3.188522911071777344e+01 -5.838469266891479492e-01 6.753292083740234375e+00 1.850833535194396973e+00 9.226847440004348755e-02
5.640000000000000000e+02 5.861368560791015625e+01 4.022591018676757812e+01 -4.540118873119354248e-01 7.248888969421386719e+00 2.038463115692138672e+00 4.941095411777496338e-02
5.650000000000000000e+02 5.530402374267578125e+01 3.809378051757812500e+01 -5.106417536735534668e-01 6.937567710876464844e+00 1.928077816963195801e+00 5.360602214932441711e-02
5.660000000000000000e+02 6.553123474121093750e+01 -2.482343292236328125e+01 -1.376711875200271606e-01 7.768576145172119141e+00 2.289271593093872070e+00 -6.682273149490356445e-01
5.670000000000000000e+02 6.375094604492187500e+01 -1.884280586242675781e+01 2.017702013254165649e-01 7.736685276031494141e+00 2.381536722183227539e+00 -7.411454319953918457e-01
5.680000000000000000e+02 6.643675994873046875e+01 -1.189269733428955078e+01 5.451663136482238770e-01 7.399225711822509766e+00 2.383317470550537109e+00 -3.795337080955505371e-01
5.690000000000000000e+02 6.594815826416015625e+01 -2.860501766204833984e+00 6.624760031700134277e-01 7.396086692810058594e+00 2.417568922042846680e+00 3.775939941406250000e-01
5.700000000000000000e+02 6.464767456054687500e+01 3.261752843856811523e+00 4.362213015556335449e-01 7.632462024688720703e+00 2.420604944229125977e+00 8.053015470504760742e-01
5.710000000000000000e+02 6.452951049804687500e+01 7.136994361877441406e+00 1.693085581064224243e-01 7.755592823028564453e+00 2.377470493316650391e+00 8.986026644706726074e-01
5.720000000000000000e+02 6.395168304443359375e+01 1.886807060241699219e+01 -3.023049235343933105e-01 7.873429298400878906e+00 2.271337270736694336e+00 7.004570960998535156e-01
5.730000000000000000e+02 6.133798599243164062e+01 2.647290611267089844e+01 -4.225572049617767334e-01 7.680002689361572266e+00 2.177233695983886719e+00 4.324838221073150635e-01
5.740000000000000000e+02 6.206655120849609375e+01 2.957101058959960938e+01 -3.975669145584106445e-01 7.696712970733642578e+00 2.189743757247924805e+00 3.505536019802093506e-01
5.750000000000000000e+02 6.296646499633789062e+01 4.070878601074218750e+01 -3.316069245338439941e-01 7.695314407348632812e+00 2.209112167358398438e+00 4.663327708840370178e-02
5.760000000000000000e+02 6.742993164062500000e+01 -4.071117782592773438e+01 -3.532480895519256592e-01 7.863324165344238281e+00 2.253022909164428711e+00 -7.886209338903427124e-02
5.770000000000000000e+02 7.496314239501953125e+01 -4.052830886840820312e+01 -5.696135014295578003e-02 8.023800849914550781e+00 2.390051841735839844e+00 -6.180658563971519470e-02
5.780000000000000000e+02 7.194676971435546875e+01 -2.503446960449218750e+01 -5.160187184810638428e-02 7.568919181823730469e+00 2.255195140838623047e+00 -4.960393905639648438e-01
5.790000000000000000e+02 7.137940216064453125e+01 -1.541212081909179688e+01 1.698853969573974609e-01 7.231816291809082031e+00 2.220510482788085938e+00 -4.221373200416564941e-01
5.800000000000000000e+02 7.121726226806640625e+01 -1.013140678405761719e+01 2.961793839931488037e-01 7.113788127899169922e+00 2.222990274429321289e+00 -1.787084192037582397e-01
5.810000000000000000e+02 7.145729827880859375e+01 -5.889345169067382812e+00 2.983970642089843750e-01 7.081676483154296875e+00 2.214022159576416016e+00 8.100421726703643799e-02
5.820000000000000000e+02 7.262193298339843750e+01 3.829509973526000977e+00 1.205407679080963135e-01 7.299495697021484375e+00 2.226011037826538086e+00 5.146747827529907227e-01
5.830000000000000000e+02 7.221621704101562500e+01 1.094146347045898438e+01 -4.591650329530239105e-03 7.688774585723876953e+00 2.305254936218261719e+00 6.307043433189392090e-01
5.840000000000000000e+02 7.212475585937500000e+01 1.766486167907714844e+01 -8.178080618381500244e-02 8.012882232666015625e+00 2.379330635070800781e+00 5.670356750488281250e-01
5.850000000000000000e+02 7.172988891601562500e+01 2.552161216735839844e+01 -1.158358976244926453e-01 8.275566101074218750e+00 2.447918891906738281e+00 4.039196968078613281e-01
5.860000000000000000e+02 7.208790588378906250e+01 3.042580223083496094e+01 -1.181521788239479065e-01 8.417304992675781250e+00 2.489745855331420898e+00 2.724713683128356934e-01
5.870000000000000000e+02 6.788173675537109375e+01 3.781715011596679688e+01 -2.060918509960174561e-01 8.135612487792968750e+00 2.378856182098388672e+00 1.251288652420043945e-01
5.880000000000000000e+02 7.794422912597656250e+01 -4.166161727905273438e+01 1.222528284415602684e-03 8.181711196899414062e+00 2.454880237579345703e+00 3.545891377143561840e-04
5.890000000000000000e+02 7.738668823242187500e+01 -3.677372741699218750e+01 -2.383374609053134918e-02 8.065282821655273438e+00 2.412434816360473633e+00 -7.494952529668807983e-02
5.900000000000000000e+02 7.795021820068359375e+01 -2.998488998413085938e+01 -1.029183249920606613e-02 7.769578456878662109e+00 2.327785968780517578e+00 -1.402498483657836914e-01
5.910000000000000000e+02 7.811814117431640625e+01 -2.312587928771972656e+01 3.165032831020653248e-05 7.276644229888916016e+00 2.183002710342407227e+00 -1.654397398233413696e-01
5.920000000000000000e+02 7.803591918945312500e+01 -1.625653266906738281e+01 1.114042568951845169e-02 6.772304534912109375e+00 2.035033464431762695e+00 -1.426015347242355347e-01
5.930000000000000000e+02 7.802842712402343750e+01 -9.303872108459472656e+00 2.055848948657512665e-02 6.466805934906005859e+00 1.946209311485290527e+00 -4.050798714160919189e-02
5.940000000000000000e+02 7.801374816894531250e+01 -2.327824354171752930e+00 2.082864381372928619e-02 6.545428276062011719e+00 1.969877123832702637e+00 9.259597957134246826e-02
5.950000000000000000e+02 7.800771331787109375e+01 4.651010990142822266e+00 9.978296235203742981e-03 6.994057655334472656e+00 2.101210832595825195e+00 1.897440701723098755e-01
5.960000000000000000e+02 7.800122070312500000e+01 1.164480113983154297e+01 -1.330101513303816319e-03 7.637779712677001953e+00 2.290934801101684570e+00 2.146113067865371704e-01
5.970000000000000000e+02 7.796205139160156250e+01 1.998466110229492188e+01 -6.295039784163236618e-03 8.376239776611328125e+00 2.510983228683471680e+00 1.783846318721771240e-01
5.980000000000000000e+02 7.647363281250000000e+01 2.168050003051757812e+01 -2.058211341500282288e-02 8.401725769042968750e+00 2.514343023300170898e+00 2.663738727569580078e-01
5.990000000000000000e+02 7.933656311035156250e+01 3.209312438964843750e+01 8.761549252085387707e-04 9.232841491699218750e+00 2.770115375518798828e+00 2.623034268617630005e-02
6.000000000000000000e+02 7.640026092529296875e+01 3.883250808715820312e+01 -7.343474030494689941e-02 9.020782470703125000e+00 2.684204339981079102e+00 3.661491349339485168e-02
6.010000000000000000e+02 7.897519683837890625e+01 3.761331558227539062e+01 2.026235917583107948e-03 9.331172943115234375e+00 2.799959659576416016e+00 1.555754244327545166e-02
6.020000000000000000e+02 3.739260864257812500e+01 2.437116813659667969e+01 -4.455963671207427979e-01 4.566200733184814453e+00 1.236181259155273438e+00 -5.289891958236694336e-01
6.030000000000000000e+02 3.758470916748046875e+01 1.375008964538574219e+01 -3.334612548351287842e-01 4.900708675384521484e+00 1.370174169540405273e+00 -1.060018539428710938e+00
6.040000000000000000e+02 3.314496231079101562e+01 1.045704269409179688e+01 1.182626262307167053e-01 3.261698961257934570e+00 1.013988494873046875e+00 -1.178303003311157227e+00
6.050000000000000000e+02 3.470746231079101562e+01 -3.121361434459686279e-01 1.375523924827575684e+00 1.814144968986511230e+00 9.569006562232971191e-01 -1.561904788017272949e+00
6.060000000000000000e+02 3.593559265136718750e+01 -4.930903911590576172e+00 3.470358997583389282e-02 1.854584217071533203e-01 6.604860723018646240e-02 -4.272035360336303711e-01
6.070000000000000000e+02 3.653374099731445312e+01 -4.920237064361572266e+00 3.456880450248718262e-01 2.668019235134124756e-01 1.837469935417175293e-01 -6.237333416938781738e-01
6.080000000000000000e+02 3.811684036254882812e+01 -4.929259300231933594e+00 2.029175043106079102e+00 8.428437113761901855e-01 8.616055846214294434e-01 -1.703672885894775391e+00
6.090000000000000000e+02 2.772025871276855469e+01 4.073960494995117188e+01 -5.640516057610511780e-02 2.575131416320800781e+00 7.556178569793701172e-01 -5.776829272508621216e-02
6.100000000000000000e+02 2.798302268981933594e+01 3.713164520263671875e+01 -6.852640211582183838e-02 2.583849668502807617e+00 7.545969486236572266e-01 -1.693317294120788574e-01
6.110000000000000000e+02 3.122809028625488281e+01 2.196972656250000000e+01 -2.083263993263244629e-01 3.102997064590454102e+00 8.684011697769165039e-01 -7.124910354614257812e-01
6.120000000000000000e+02 2.972149276733398438e+01 1.618323135375976562e+01 -9.020010381937026978e-02 2.597089052200317383e+00 7.520666718482971191e-01 -8.166850805282592773e-01
6.130000000000000000e+02 2.795687294006347656e+01 7.817964076995849609e+00 3.053431808948516846e-01 1.377348899841308594e+00 5.048076510429382324e-01 -6.225594282150268555e-01
6.140000000000000000e+02 2.483903694152832031e+01 2.742820739746093750e+00 2.448708415031433105e-01 1.848131418228149414e-01 1.289051920175552368e-01 8.039126545190811157e-02
6.150000000000000000e+02 2.732067871093750000e+01 -4.923616409301757812e+00 -6.415220499038696289e-01 1.170011516660451889e-02 -1.889465749263763428e-01 2.557700276374816895e-01
6.160000000000000000e+02 3.024946975708007812e+01 -4.971510887145996094e+00 -8.102901577949523926e-01 3.639855980873107910e-02 -2.321674823760986328e-01 1.913201510906219482e-01
6.170000000000000000e+02 2.881262779235839844e+01 -4.288942337036132812e+00 -5.022175908088684082e-01 4.397026449441909790e-02 -1.374741941690444946e-01 2.496137619018554688e-01
6.180000000000000000e+02 3.319673919677734375e+01 -4.973991394042968750e+00 -7.350908517837524414e-01 6.340238451957702637e-02 -2.015065401792526245e-01 4.496265575289726257e-02
6.190000000000000000e+02 1.807641220092773438e+01 4.069575500488281250e+01 1.371100693941116333e-01 9.859860539436340332e-01 3.369288146495819092e-01 -1.310131326317787170e-02
6.200000000000000000e+02 2.291647720336914062e+01 4.084696197509765625e+01 7.400759309530258179e-02 1.734503865242004395e+00 5.425534248352050781e-01 -3.233988210558891296e-02
6.210000000000000000e+02 2.201561737060546875e+01 2.262783050537109375e+01 2.971387701109051704e-03 1.138271093368530273e+00 3.423727452754974365e-01 -3.966847658157348633e-01
6.220000000000000000e+02 2.158229827880859375e+01 1.588416481018066406e+01 -1.210457682609558105e-01 5.981884598731994629e-01 1.431428194046020508e-01 -3.010545074939727783e-01
6.230000000000000000e+02 2.026915740966796875e+01 1.011105537414550781e+01 -9.868442267179489136e-02 -2.992003858089447021e-01 -1.193654388189315796e-01 1.813880354166030884e-02
6.240000000000000000e+02 1.997738456726074219e+01 5.430452823638916016e+00 -4.189889505505561829e-02 -6.887840628623962402e-01 -2.192048877477645874e-01 1.192773506045341492e-01
6.250000000000000000e+02 2.159101867675781250e+01 -4.385830402374267578e+00 -1.500393301248550415e-01 -8.301915228366851807e-02 -6.991754472255706787e-02 2.103934139013290405e-01
6.260000000000000000e+02 2.448658370971679688e+01 -4.004846096038818359e+00 -2.881316840648651123e-01 -3.925516456365585327e-02 -9.821605682373046875e-02 3.153171241283416748e-01
6.270000000000000000e+02 2.371058845520019531e+01 -4.669605731964111328e+00 -3.237629830837249756e-01 -4.487624764442443848e-02 -1.105917692184448242e-01 2.599426507949829102e-01
6.280000000000000000e+02 1.788788795471191406e+01 3.141727828979492188e+01 1.665081083774566650e-01 8.271172642707824707e-01 2.980876266956329346e-01 -7.353132218122482300e-02
6.290000000000000000e+02 1.645569610595703125e+01 2.223981666564941406e+01 -7.966141216456890106e-03 1.590292602777481079e-01 4.531893879175186157e-02 -6.997156143188476562e-02
6.300000000000000000e+02 1.296986675262451172e+01 1.747089385986328125e+01 -8.066049218177795410e-01 -5.097935795783996582e-01 -3.949195444583892822e-01 5.651215910911560059e-01
6.310000000000000000e+02 1.509176826477050781e+01 1.552701759338378906e+01 -5.556795001029968262e-01 -7.375115156173706055e-01 -3.879573047161102295e-01 5.634335875511169434e-01
6.320000000000000000e+02 1.879886054992675781e+01 1.588500976562500000e+01 -2.316548824310302734e-01 2.112611383199691772e-02 -6.315863132476806641e-02 -2.846270985901355743e-02
6.330000000000000000e+02 1.592968654632568359e+01 1.436531066894531250e+01 -4.157079160213470459e-01 -8.375218510627746582e-01 -3.759689331054687500e-01 5.097125768661499023e-01
6.340000000000000000e+02 1.802943992614746094e+01 9.137380599975585938e+00 -1.064188852906227112e-01 -1.117064476013183594e+00 -3.670450150966644287e-01 2.732430398464202881e-01
6.350000000000000000e+02 1.858513259887695312e+01 6.415939331054687500e+00 -4.382324218750000000e-02 -1.114446997642517090e+00 -3.474810719490051270e-01 1.825684010982513428e-01
6.360000000000000000e+02 1.899732589721679688e+01 2.232240915298461914e+00 -9.386970661580562592e-03 -8.727360963821411133e-01 -2.646369040012359619e-01 8.066596090793609619e-02
6.370000000000000000e+02 1.891122245788574219e+01 -5.043874979019165039e-01 -3.864868544042110443e-03 -5.098272562026977539e-01 -1.541076451539993286e-01 7.052825391292572021e-02
6.380000000000000000e+02 1.968426895141601562e+01 -3.073169231414794922e+00 -3.012318722903728485e-02 -1.704615354537963867e-01 -6.017541885375976562e-02 1.412929147481918335e-01
6.390000000000000000e+02 1.311670589447021484e+01 4.072861862182617188e+01 1.391711980104446411e-01 4.247418940067291260e-01 1.691739261150360107e-01 6.514589767903089523e-03
6.400000000000000000e+02 7.425704479217529297e+00 3.559095382690429688e+01 9.467594325542449951e-02 -1.626692265272140503e-01 -2.039798535406589508e-02 1.146475896239280701e-01
6.410000000000000000e+02 7.784430980682373047e+00 3.075090408325195312e+01 8.956838399171829224e-02 -1.354803889989852905e-01 -1.377360150218009949e-02 1.901287287473678589e-01
6.420000000000000000e+02 6.535583019256591797e+00 2.376808547973632812e+01 -5.167049914598464966e-02 -1.609413921833038330e-01 -6.378357112407684326e-02 2.678578197956085205e-01
6.430000000000000000e+02 1.038391590118408203e+01 1.890446472167968750e+01 -8.439133763313293457e-01 -2.318422794342041016e-01 -3.227266967296600342e-01 3.145729005336761475e-01
6.440000000000000000e+02 1.175178527832031250e+01 1.827215003967285156e+01 -8.929373025894165039e-01 -3.610145449638366699e-01 -3.761855661869049072e-01 5.006462931632995605e-01
6.450000000000000000e+02 2.046485900878906250e+00 4.163185501098632812e+01 -2.855493314564228058e-02 -7.210931777954101562e-01 -2.248944342136383057e-01 -8.096007630228996277e-03
6.460000000000000000e+02 4.880455970764160156e+00 3.736756515502929688e+01 5.680919066071510315e-02 -4.237943291664123535e-01 -1.100955381989479065e-01 9.712541848421096802e-02
6.470000000000000000e+02 2.239776134490966797e+00 3.571852111816406250e+01 1.963854953646659851e-02 -6.279705166816711426e-01 -1.824995875358581543e-01 2.854517102241516113e-02
6.480000000000000000e+02 1.956470131874084473e+00 2.887013244628906250e+01 8.020588196814060211e-03 -4.164692163467407227e-01 -1.225345879793167114e-01 1.082348600029945374e-01
6.490000000000000000e+02 1.872071146965026855e+00 2.312292480468750000e+01 -1.428008452057838440e-02 -1.360732316970825195e-01 -4.510599374771118164e-02 9.733453392982482910e-02
6.500000000000000000e+02 4.257631778717041016e+00 1.573258972167968750e+01 -1.096832193434238434e-02 -1.761365309357643127e-02 -8.574591949582099915e-03 -1.476775854825973511e-03
6.510000000000000000e+02 4.841277599334716797e-01 6.431058406829833984e+00 4.112610185984522104e-04 1.365961943520233035e-04 1.643571595195680857e-04 -7.752868987154215574e-05
6.520000000000000000e+02 6.063196659088134766e+00 1.861552476882934570e+00 -1.077527413144707680e-04 -3.579351177904754877e-04 -1.397063606418669224e-04 2.262722773593850434e-05
6.530000000000000000e+02 8.121083259582519531e+00 2.578501939773559570e+00 -1.475988246966153383e-04 -4.524404357653111219e-04 -1.800117752281948924e-04 -1.513290044385939837e-04
6.540000000000000000e+02 9.636073112487792969e+00 1.862491369247436523e+00 2.074527874356135726e-04 2.969557244796305895e-04 1.513225579401478171e-04 2.174286637455224991e-04
6.550000000000000000e+02 1.392595195770263672e+01 1.748559236526489258e+00 3.396204847376793623e-04 -2.666449472599197179e-05 9.388679609401151538e-05 5.765242531197145581e-05
6.560000000000000000e+02 1.445414447784423828e+01 6.253390312194824219e+00 -1.351969898678362370e-03 -2.087151951855048537e-04 -4.682055150624364614e-04 -2.570029173512011766e-04
6.570000000000000000e+02 1.183723926544189453e+01 9.560671806335449219e+00 -1.216518576256930828e-03 -8.375885081477463245e-04 -6.162321078591048717e-04 -8.941772975958883762e-04
6.580000000000000000e+02 1.133170700073242188e+01 1.233923912048339844e+01 2.383070997893810272e-03 1.583302742801606655e-03 1.189912087284028530e-03 1.502568833529949188e-03
6.590000000000000000e+02 1.217619419097900391e+01 1.123499870300292969e+01 -2.287114970386028290e-03 -8.530299528501927853e-04 -9.420434362255036831e-04 -1.354917883872985840e-03
6.600000000000000000e+02 9.419505119323730469e+00 1.445709037780761719e+01 3.042538184672594070e-03 2.558105858042836189e-03 1.680193236097693443e-03 -4.057533515151590109e-04
6.610000000000000000e+02 7.863622188568115234e+00 1.688319015502929688e+01 8.908920572139322758e-04 4.846583306789398193e-02 1.480701658874750137e-02 -1.117220800369977951e-02
6.620000000000000000e+02 1.741778016090393066e+00 2.172012329101562500e+01 -2.066671289503574371e-02 -8.000887930393218994e-02 -3.020267747342586517e-02 7.329845428466796875e-02
6.630000000000000000e+02 1.146968841552734375e+00 3.858582496643066406e+00 -1.534598559373989701e-04 -1.156456419266760349e-04 -8.073164644883945584e-05 2.430629683658480644e-04
6.640000000000000000e+02 1.385721588134765625e+01 2.568517684936523438e+00 -4.301312728784978390e-04 -3.890002262778580189e-04 -2.457394439261406660e-04 -4.194982466287910938e-04
6.650000000000000000e+02 4.325706100463867188e+01 -5.650574207305908203e+00 8.164340972900390625e+00 1.521820926666259766e+01 7.014765262603759766e+00 1.877269744873046875e+00
6.660000000000000000e+02 2.251173019409179688e+01 -8.317009925842285156e+00 -8.568993210792541504e-01 5.978899821639060974e-02 -2.391330897808074951e-01 -3.084146678447723389e-01
6.670000000000000000e+02 5.859789657592773438e+01 -1.180209636688232422e+01 1.177072405815124512e+00 7.830226898193359375e+00 2.702189683914184570e+00 -6.097099184989929199e-01
6.680000000000000000e+02 7.281603240966796875e+01 -1.279772663116455078e+01 1.705520898103713989e-01 7.063920974731445312e+00 2.170341968536376953e+00 -2.830334007740020752e-01
6.690000000000000000e+02 7.934412384033203125e+01 -1.238276958465576172e+01 4.059413913637399673e-03 6.388909339904785156e+00 1.917890667915344238e+00 -3.225374594330787659e-02
6.700000000000000000e+02 7.933684539794921875e+01 -5.417678356170654297e+00 4.000381566584110260e-03 6.261252880096435547e+00 1.879575967788696289e+00 1.429313048720359802e-02
6.710000000000000000e+02 7.275624084472656250e+01 -5.949490547180175781e+00 2.252138406038284302e-01 6.992143630981445312e+00 2.165207386016845703e+00 6.885311007499694824e-02
6.720000000000000000e+02 6.699953460693359375e+01 -3.109565496444702148e+00 5.779281258583068848e-01 7.348758697509765625e+00 2.378005981445312500e+00 3.355239927768707275e-01
6.730000000000000000e+02 2.370705413818359375e+01 -2.600706672668457031e+01 3.017034232616424561e-01 1.189759612083435059e+00 4.474388957023620605e-01 2.875197231769561768e-01
6.740000000000000000e+02 3.015759086608886719e+01 -1.373749542236328125e+01 3.066179454326629639e-01 6.787934899330139160e-01 2.956234216690063477e-01 4.142824113368988037e-01
6.750000000000000000e+02 3.847422790527343750e+01 -1.777923774719238281e+01 8.019785583019256592e-02 5.537380218505859375e+00 1.685273408889770508e+00 2.086659908294677734e+00
6.760000000000000000e+02 5.252775955200195312e+01 -1.858637619018554688e+01 -9.206742048263549805e-03 8.561721801757812500e+00 2.565754413604736328e+00 -7.286458611488342285e-01
6.770000000000000000e+02 5.806870269775390625e+01 -2.117208671569824219e+01 -6.412497907876968384e-02 8.078661918640136719e+00 2.404361009597778320e+00 -7.820289731025695801e-01
6.780000000000000000e+02 6.586985778808593750e+01 -1.612586212158203125e+01 3.393287360668182373e-01 7.548124313354492188e+00 2.366235971450805664e+00 -6.178983449935913086e-01
6.790000000000000000e+02 7.261404418945312500e+01 -1.983811569213867188e+01 4.406342282891273499e-02 7.335021972656250000e+00 2.213725566864013672e+00 -4.747208654880523682e-01
6.800000000000000000e+02 7.936837005615234375e+01 -2.211315727233886719e+01 7.449442055076360703e-04 7.142484188079833984e+00 2.142968893051147461e+00 -5.931999161839485168e-02
6.810000000000000000e+02 5.229452610015869141e+00 -1.607757377624511719e+01 -1.894565857946872711e-02 -4.193714261054992676e-02 -1.826484128832817078e-02 -9.598350152373313904e-03
6.820000000000000000e+02 2.128119707107543945e+00 -1.711681747436523438e+01 -1.370032224804162979e-02 -1.255866792052984238e-02 -7.877697236835956573e-03 2.159347757697105408e-03
6.830000000000000000e+02 5.836268067359924316e-01 -1.066372585296630859e+01 1.843952224589884281e-03 2.386808861047029495e-03 1.269228290766477585e-03 1.218871097080409527e-03
6.840000000000000000e+02 2.364702033996582031e+01 -3.370249176025390625e+01 2.625786364078521729e-01 1.533704042434692383e+00 5.388848185539245605e-01 1.956876218318939209e-01
6.850000000000000000e+02 1.777760124206542969e+01 -2.716366767883300781e+01 2.828068733215332031e-01 3.163841366767883301e-01 1.797572970390319824e-01 -4.739046096801757812e-02
6.860000000000000000e+02 3.050744819641113281e+01 -2.468432235717773438e+01 2.663822472095489502e-01 2.562007665634155273e+00 8.485169410705566406e-01 8.599489927291870117e-01
6.870000000000000000e+02 3.404196166992187500e+01 -2.357577133178710938e+01 1.506532877683639526e-01 3.597172737121582031e+00 1.124347805976867676e+00 1.205362200736999512e+00
6.880000000000000000e+02 3.994081115722656250e+01 -2.398583412170410156e+01 -4.319118559360504150e-01 5.910514831542968750e+00 1.643580913543701172e+00 1.163973331451416016e+00
6.890000000000000000e+02 5.126296615600585938e+01 -2.500834465026855469e+01 -6.787019968032836914e-01 8.014903068542480469e+00 2.200860261917114258e+00 -2.492135167121887207e-01
6.900000000000000000e+02 5.573135375976562500e+01 -2.529302978515625000e+01 -4.949491024017333984e-01 8.048222541809082031e+00 2.265981912612915039e+00 -5.451027154922485352e-01
6.910000000000000000e+02 6.713397979736328125e+01 -2.506970977783203125e+01 -1.226455345749855042e-01 7.721002578735351562e+00 2.279507160186767578e+00 -6.346277594566345215e-01
6.920000000000000000e+02 7.313761901855468750e+01 -2.563029861450195312e+01 -4.529628530144691467e-02 7.562326908111572266e+00 2.255109071731567383e+00 -4.399330615997314453e-01
6.930000000000000000e+02 7.936756134033203125e+01 -2.626405525207519531e+01 -1.608765451237559319e-03 7.514820098876953125e+00 2.253963470458984375e+00 -5.601314082741737366e-02
6.940000000000000000e+02 6.946743130683898926e-01 -3.040954017639160156e+01 5.721322959288954735e-04 -8.876631259918212891e-01 -2.661272883415222168e-01 -5.555862560868263245e-02
6.950000000000000000e+02 7.928232669830322266e+00 -3.417815780639648438e+01 1.505635529756546021e-01 -4.227775633335113525e-01 -8.166420459747314453e-02 -2.173768132925033569e-01
6.960000000000000000e+02 3.049740028381347656e+01 -3.203567123413085938e+01 4.410740360617637634e-02 3.038376569747924805e+00 9.247452020645141602e-01 5.331611633300781250e-01
6.970000000000000000e+02 3.427761840820312500e+01 -3.419662857055664062e+01 -2.076329886913299561e-01 4.025097370147705078e+00 1.145239353179931641e+00 4.831691384315490723e-01
6.980000000000000000e+02 5.155516433715820312e+01 -3.529764175415039062e+01 -8.310077786445617676e-01 7.329564571380615234e+00 1.949566960334777832e+00 -3.964021801948547363e-02
6.990000000000000000e+02 5.613979339599609375e+01 -3.681137847900390625e+01 -7.750839591026306152e-01 7.632199287414550781e+00 2.057134628295898438e+00 -1.552084535360336304e-01
7.000000000000000000e+02 6.514540100097656250e+01 -3.206839752197265625e+01 -3.902196586132049561e-01 7.826619148254394531e+00 2.230919837951660156e+00 -4.484503269195556641e-01
7.010000000000000000e+02 7.402732849121093750e+01 -3.270129394531250000e+01 -8.185511827468872070e-02 7.829757690429687500e+00 2.324370622634887695e+00 -2.716268599033355713e-01
7.020000000000000000e+02 7.925493621826171875e+01 -3.322208023071289062e+01 7.621992263011634350e-04 8.011395454406738281e+00 2.403647422790527344e+00 -4.420894756913185120e-02
7.030000000000000000e+02 7.933575439453125000e+01 2.946860313415527344e+00 2.249798737466335297e-03 6.720816612243652344e+00 2.016919851303100586e+00 6.413210928440093994e-02
7.040000000000000000e+02 7.231545257568359375e+01 9.861903786659240723e-01 1.839334666728973389e-01 7.191807746887207031e+00 2.212722301483154297e+00 4.276993274688720703e-01
7.050000000000000000e+02 6.547129058837890625e+01 4.261670112609863281e+00 3.433920145034790039e-01 7.628943920135498047e+00 2.391700744628906250e+00 8.148588538169860840e-01
7.060000000000000000e+02 6.136890792846679688e+01 3.654784202575683594e+00 5.138543248176574707e-01 7.805554866790771484e+00 2.495822668075561523e+00 9.215626120567321777e-01
7.070000000000000000e+02 5.415476989746093750e+01 1.799911856651306152e+00 9.471057653427124023e-01 8.366333007812500000e+00 2.794031381607055664e+00 1.058861255645751953e+00
7.080000000000000000e+02 7.933343505859375000e+01 8.530982971191406250e+00 -1.631829072721302509e-04 7.279105186462402344e+00 2.183682680130004883e+00 7.907050102949142456e-02
7.090000000000000000e+02 7.266689300537109375e+01 7.984509468078613281e+00 4.613313451409339905e-02 7.512583255767822266e+00 2.267614841461181641e+00 5.937553644180297852e-01
7.100000000000000000e+02 6.642884063720703125e+01 1.025467681884765625e+01 1.166439848020672798e-03 7.780598163604736328e+00 2.334529399871826172e+00 8.575783967971801758e-01
7.110000000000000000e+02 5.736475372314453125e+01 7.496705532073974609e+00 9.836164861917495728e-02 8.074646949768066406e+00 2.451902627944946289e+00 9.731456041336059570e-01
7.120000000000000000e+02 3.941996383666992188e+01 1.117427921295166016e+01 -3.629330098628997803e-01 5.614534378051757812e+00 1.575480461120605469e+00 -1.162310123443603516e+00
7.130000000000000000e+02 4.975826644897460938e+01 7.133945465087890625e+00 -2.636664509773254395e-01 8.460658073425292969e+00 2.459097623825073242e+00 4.736716449260711670e-01
7.140000000000000000e+02 3.541852188110351562e+01 2.502916753292083740e-01 1.393286108970642090e+00 2.495873212814331055e+00 1.166747808456420898e+00 -1.929981589317321777e+00
7.150000000000000000e+02 3.019426727294921875e+01 -1.811272650957107544e-01 6.450240015983581543e-01 5.682792067527770996e-01 3.639909625053405762e-01 -2.730039656162261963e-01
7.160000000000000000e+02 2.027544975280761719e+01 3.962997674942016602e+00 -2.603882737457752228e-02 -6.145781874656677246e-01 -1.921851038932800293e-01 1.563013345003128052e-01
7.170000000000000000e+02 1.896217346191406250e+01 3.635680913925170898e+00 -2.252897061407566071e-02 -1.020520091056823730e+00 -3.129146993160247803e-01 1.069862991571426392e-01
7.180000000000000000e+02 7.935569763183593750e+01 1.688729858398437500e+01 -2.369213849306106567e-03 8.172067642211914062e+00 2.450909614562988281e+00 7.131379097700119019e-02
7.190000000000000000e+02 7.245716094970703125e+01 1.629024124145507812e+01 -6.612351536750793457e-02 7.955545425415039062e+00 2.366826534271240234e+00 5.800570845603942871e-01
7.200000000000000000e+02 6.629044342041015625e+01 1.750757217407226562e+01 -2.109154611825942993e-01 7.911455631256103516e+00 2.310162067413330078e+00 7.356092333793640137e-01
7.210000000000000000e+02 5.402533721923828125e+01 1.534027862548828125e+01 -5.547291040420532227e-01 7.716942787170410156e+00 2.148664236068725586e+00 5.074979066848754883e-01
7.220000000000000000e+02 5.018901443481445312e+01 1.626356887817382812e+01 -6.865385174751281738e-01 7.344004154205322266e+00 1.997239708900451660e+00 1.508256047964096069e-01
7.230000000000000000e+02 3.418276214599609375e+01 7.511217117309570312e+00 3.493531048297882080e-01 3.421593666076660156e+00 1.131283998489379883e+00 -1.415048956871032715e+00
7.240000000000000000e+02 2.658549690246582031e+01 1.010634136199951172e+01 1.346939057111740112e-01 1.302401781082153320e+00 4.311287105083465576e-01 -5.678784251213073730e-01
7.250000000000000000e+02 1.996928787231445312e+01 1.152594089508056641e+01 -1.344869285821914673e-01 -2.310771197080612183e-01 -1.096692159771919250e-01 1.410040911287069321e-02
7.260000000000000000e+02 7.930542755126953125e+01 2.386523246765136719e+01 -3.485271008685231209e-03 8.777375221252441406e+00 2.632166862487792969e+00 5.839043855667114258e-02
7.270000000000000000e+02 7.230781555175781250e+01 2.310655593872070312e+01 -9.644597768783569336e-02 8.242906570434570312e+00 2.443938255310058594e+00 4.456942975521087646e-01
7.280000000000000000e+02 6.719471740722656250e+01 2.682325744628906250e+01 -2.327551245689392090e-01 8.043555259704589844e+00 2.343240022659301758e+00 4.431854188442230225e-01
7.290000000000000000e+02 4.236536026000976562e+01 2.493151664733886719e+01 -5.951636433601379395e-01 5.527553081512451172e+00 1.479716897010803223e+00 -3.756791353225708008e-01
7.300000000000000000e+02 5.057828140258789062e+01 2.172692871093750000e+01 -6.888666152954101562e-01 6.956098556518554688e+00 1.880169510841369629e+00 9.599594771862030029e-02
7.310000000000000000e+02 3.342481994628906250e+01 1.709024620056152344e+01 -2.150497287511825562e-01 3.605440855026245117e+00 1.017117381095886230e+00 -9.132404923439025879e-01
7.320000000000000000e+02 2.631274032592773438e+01 1.708057785034179688e+01 -7.441151142120361328e-02 1.773375630378723145e+00 5.096892118453979492e-01 -6.244887113571166992e-01
7.330000000000000000e+02 2.050390052795410156e+01 1.753149032592773438e+01 -1.324716657400131226e-01 4.915212392807006836e-01 1.077148690819740295e-01 -2.419195473194122314e-01
7.340000000000000000e+02 2.665804147720336914e+00 2.095476722717285156e+01 -3.979042544960975647e-02 -6.727177649736404419e-02 -3.211865946650505066e-02 8.128294348716735840e-02
7.350000000000000000e+02 7.936727905273437500e+01 2.935027885437011719e+01 -1.002981211058795452e-03 9.125418663024902344e+00 2.737324714660644531e+00 3.272533416748046875e-02
7.360000000000000000e+02 7.379307556152343750e+01 3.074344825744628906e+01 -8.135795593261718750e-02 8.577962875366210938e+00 2.548981666564941406e+00 2.312922328710556030e-01
7.370000000000000000e+02 5.959388351440429688e+01 3.127634239196777344e+01 -4.587060809135437012e-01 7.468801498413085938e+00 2.103028535842895508e+00 2.700555920600891113e-01
7.380000000000000000e+02 3.853142547607421875e+01 3.236883163452148438e+01 -4.200753569602966309e-01 4.547629356384277344e+00 1.238266229629516602e+00 -2.852611243724822998e-01
7.390000000000000000e+02 4.910123825073242188e+01 2.965648078918457031e+01 -6.293452978134155273e-01 6.367696285247802734e+00 1.721505284309387207e+00 -1.084509585052728653e-02
7.400000000000000000e+02 3.585324478149414062e+01 2.578163909912109375e+01 -3.875321149826049805e-01 4.187799930572509766e+00 1.140080332756042480e+00 -5.183506011962890625e-01
7.410000000000000000e+02 3.078363418579101562e+01 2.459774971008300781e+01 -1.966226547956466675e-01 2.977939128875732422e+00 8.343949317932128906e-01 -6.230143904685974121e-01
7.420000000000000000e+02 1.957856941223144531e+01 2.270981407165527344e+01 2.349871397018432617e-02 6.852777004241943359e-01 2.126329094171524048e-01 -2.681327760219573975e-01
7.430000000000000000e+02 1.717153930664062500e+01 2.348084640502929688e+01 3.834977373480796814e-02 2.864433825016021729e-01 9.743794053792953491e-02 -1.192060783505439758e-01
7.440000000000000000e+02 6.509162425994873047e+00 2.205815315246582031e+01 -1.249917447566986084e-01 -1.182577610015869141e-01 -7.297485321760177612e-02 2.472476512193679810e-01
7.450000000000000000e+02 3.534080886840820312e+01 3.029001998901367188e+01 -3.387332856655120850e-01 4.007569789886474609e+00 1.100651025772094727e+00 -3.842939734458923340e-01
7.460000000000000000e+02 2.754630470275878906e+01 3.348496627807617188e+01 -6.734679639339447021e-02 2.474475145339965820e+00 7.221385240554809570e-01 -2.613162100315093994e-01
7.470000000000000000e+02 2.156297874450683594e+01 3.091692733764648438e+01 1.042355373501777649e-01 1.418745756149291992e+00 4.568943679332733154e-01 -2.232841700315475464e-01
7.480000000000000000e+02 1.558361244201660156e+01 3.334942626953125000e+01 1.664741635322570801e-01 5.497546792030334473e-01 2.148686498403549194e-01 -6.962690968066453934e-03
7.490000000000000000e+02 6.925243377685546875e+00 3.195086479187011719e+01 8.859487622976303101e-02 -1.857962161302566528e-01 -2.916040271520614624e-02 1.705289185047149658e-01
7.500000000000000000e+02 2.117483615875244141e+00 3.163612556457519531e+01 1.342547405511140823e-02 -5.186923146247863770e-01 -1.515800505876541138e-01 8.830536901950836182e-02
7.510000000000000000e+02 1.515550613403320312e+00 9.109484672546386719e+00 -4.673486400861293077e-04 1.090656383894383907e-03 1.869922998594120145e-04 -9.009942295961081982e-04
7.520000000000000000e+02 1.928293609619140625e+01 -7.744700908660888672e+00 -3.644107878208160400e-01 -2.246936969459056854e-02 -1.160640493035316467e-01 -2.422681450843811035e-01
7.530000000000000000e+02 1.422202110290527344e+01 -1.388789844512939453e+01 -7.592750787734985352e-01 -1.026159882545471191e+00 -5.356305241584777832e-01 -8.469643592834472656e-01
7.540000000000000000e+02 7.475961208343505859e+00 -1.388449764251708984e+01 -5.098323337733745575e-03 1.133293379098176956e-02 1.870383159257471561e-03 4.805884324014186859e-03
7.550000000000000000e+02 1.135922336578369141e+01 -8.142368316650390625e+00 9.346010629087686539e-04 4.004886141046881676e-04 4.005269147455692291e-04 -8.493518107570707798e-04
7.560000000000000000e+02 1.009829521179199219e+01 -3.145508527755737305e+00 -2.315725723747164011e-04 5.762344808317720890e-04 1.033985681715421379e-04 -5.604512989521026611e-04
7.570000000000000000e+02 1.320763683319091797e+01 -1.964457988739013672e+00 -5.841879465151578188e-05 -8.516725210938602686e-05 -4.307581184548325837e-05 -1.293458626605570316e-04
7.580000000000000000e+02 1.491083335876464844e+01 -2.294390439987182617e+00 6.709868927146089845e-08 -4.660775084630586207e-05 -1.396219613525317982e-05 8.191559754777699709e-05
7.590000000000000000e+02 1.430391883850097656e+01 -2.142754554748535156e+00 2.111699723172932863e-05 1.027735852403566241e-04 3.716717401403002441e-05 -1.389345707139000297e-04
7.600000000000000000e+02 1.375019550323486328e+01 -1.998690485954284668e+00 4.332413936936063692e-06 -1.081755690393038094e-04 -3.115294748567976058e-05 1.228718174388632178e-04
7.610000000000000000e+02 1.179034137725830078e+01 -1.976917147636413574e+00 7.471327262464910746e-05 -1.875048619695007801e-04 -3.383747753105126321e-05 -1.015811067190952599e-04
7.620000000000000000e+02 1.030852031707763672e+01 -1.854577779769897461e+00 1.115530176321044564e-05 -6.329389725578948855e-05 -1.564157901157159358e-05 -3.053654509130865335e-04
7.630000000000000000e+02 9.569906234741210938e+00 -1.821953654289245605e+00 -5.092057108413428068e-05 2.505730117263738066e-05 -7.758981155348010361e-06 4.196096269879490137e-04
7.640000000000000000e+02 8.822232246398925781e+00 -1.822932481765747070e+00 -5.465015055960975587e-05 -8.433328844148491044e-07 -1.664804403844755143e-05 -3.208723501302301884e-04
7.650000000000000000e+02 7.309448242187500000e+00 -1.863834500312805176e+00 -5.271541158435866237e-05 3.201007348252460361e-05 -6.211601885297568515e-06 -3.185428795404732227e-04
7.660000000000000000e+02 5.783404827117919922e+00 -1.911394953727722168e+00 -3.107414158876053989e-05 6.624742673011496663e-05 1.055198572430526838e-05 -3.204977547284215689e-04
7.670000000000000000e+02 3.457376241683959961e+00 -1.960624098777770996e+00 1.796887227101251483e-05 -3.156475577270612121e-05 -4.078764504811260849e-06 1.781081518856808543e-04
7.680000000000000000e+02 5.009400844573974609e+00 -1.924135923385620117e+00 -1.320807205047458410e-04 -7.595814167871139944e-06 -4.190296021988615394e-05 2.188656217185780406e-04
7.690000000000000000e+02 4.269143581390380859e+00 -2.806097269058227539e+00 -4.439269832801073790e-05 5.410892481449991465e-05 2.914868446168839000e-06 2.446616999804973602e-04
7.700000000000000000e+02 2.692821025848388672e+00 -1.981087446212768555e+00 -1.560655218781903386e-04 9.848808076640125364e-06 -4.386501677799969912e-05 -2.459472452756017447e-04
7.710000000000000000e+02 1.929755806922912598e+00 -2.009514808654785156e+00 8.581485599279403687e-05 2.870859316317364573e-05 3.435703547438606620e-05 6.281714013312011957e-05
7.720000000000000000e+02 4.790700972080230713e-01 -3.536972045898437500e+00 -4.027150571346282959e-04 -1.948992285178974271e-04 -1.792842813301831484e-04 -2.309177361894398928e-04
7.730000000000000000e+02 2.014109611511230469e+00 -4.165963745117187500e+01 -3.940640762448310852e-02 -1.152279615402221680e+00 -3.575057983398437500e-01 1.116491388529539108e-02
7.740000000000000000e+02 1.023151874542236328e+00 -3.875067901611328125e+01 -4.378630779683589935e-03 -1.190766811370849609e+00 -3.585436344146728516e-01 1.485415268689393997e-03
7.750000000000000000e+02 7.996764779090881348e-01 -3.459815979003906250e+01 4.483024124056100845e-03 -1.143070459365844727e+00 -3.415762484073638916e-01 -3.136033937335014343e-02
7.760000000000000000e+02 7.514938712120056152e-01 -3.320772933959960938e+01 4.485464654862880707e-03 -1.078703045845031738e+00 -3.222652673721313477e-01 -3.954459726810455322e-02
7.770000000000000000e+02 6.879264116287231445e-01 -2.900544738769531250e+01 5.014807451516389847e-03 -7.680051326751708984e-01 -2.288970947265625000e-01 -6.075219437479972839e-02
7.780000000000000000e+02 6.882244944572448730e-01 -2.759544181823730469e+01 -5.162257584743201733e-04 -6.373942494392395020e-01 -1.913731396198272705e-01 -6.583643704652786255e-02
7.790000000000000000e+02 6.891707777976989746e-01 -2.617806053161621094e+01 3.104679519310593605e-03 -4.997215867042541504e-01 -1.489850729703903198e-01 -6.803841888904571533e-02
7.800000000000000000e+02 6.753358244895935059e-01 -2.188825416564941406e+01 -8.387256413698196411e-03 -1.074445471167564392e-01 -3.474954143166542053e-02 -4.973157867789268494e-02
7.810000000000000000e+02 1.968435168266296387e+00 -2.018636512756347656e+01 -3.934746980667114258e-02 -7.881707698106765747e-02 -3.544936329126358032e-02 -8.810375630855560303e-02
7.820000000000000000e+02 6.605860590934753418e-01 -1.612986564636230469e+01 1.520812860690057278e-03 4.108320549130439758e-02 1.278120558708906174e-02 6.754613481462001801e-03
7.830000000000000000e+02 5.696093440055847168e-01 -1.476471328735351562e+01 -1.094494364224374294e-03 2.665711753070354462e-02 7.668787147849798203e-03 5.495409015566110611e-03
7.840000000000000000e+02 5.059887766838073730e-01 -1.340316581726074219e+01 3.003548365086317062e-03 1.342481374740600586e-02 4.928508773446083069e-03 3.936436027288436890e-03
7.850000000000000000e+02 4.984785556793212891e+00 -1.430713272094726562e+01 7.320263423025608063e-03 -2.168822474777698517e-02 -4.310388583689928055e-03 -5.120377987623214722e-03
7.860000000000000000e+02 5.901544690132141113e-01 -9.253185272216796875e+00 -1.181216444820165634e-03 5.447669536806643009e-04 -1.909348502522334456e-04 3.553594578988850117e-04
7.870000000000000000e+02 5.771020054817199707e-01 -7.837394237518310547e+00 1.302586635574698448e-03 -2.916383382398635149e-04 3.032844979315996170e-04 2.825960109476000071e-04
7.880000000000000000e+02 5.634759068489074707e-01 -6.422051429748535156e+00 -9.253060561604797840e-04 -2.798979403451085091e-04 -3.615611931309103966e-04 -2.596538688521832228e-04
7.890000000000000000e+02 7.372918701171875000e+01 -3.874238586425781250e+01 -1.101482510566711426e-01 7.942795276641845703e+00 2.349794149398803711e+00 -1.083593890070915222e-01
7.900000000000000000e+02 5.264292907714843750e+01 -4.082286071777343750e+01 -8.571224212646484375e-01 7.344001770019531250e+00 1.946063756942749023e+00 -2.172400616109371185e-02
7.910000000000000000e+02 3.217366027832031250e+01 -4.094237136840820312e+01 -1.491588503122329712e-01 3.554161310195922852e+00 1.021500706672668457e+00 8.507940918207168579e-02
7.920000000000000000e+02 1.277011108398437500e+01 -4.072498703002929688e+01 2.416564077138900757e-01 1.001402959227561951e-01 1.025390103459358215e-01 -2.499072998762130737e-02
7.930000000000000000e+02 7.870635223388671875e+01 4.036808776855468750e+01 -1.223773509263992310e-02 9.289698600769042969e+00 2.783238172531127930e+00 -5.114287883043289185e-02
7.940000000000000000e+02 7.810227203369140625e+01 4.176923370361328125e+01 6.532301753759384155e-02 9.251096725463867188e+00 2.794925928115844727e+00 -1.827881298959255219e-02
7.950000000000000000e+02 7.881204223632812500e+01 3.900523757934570312e+01 -5.175596475601196289e-02 9.328276634216308594e+00 2.782956123352050781e+00 -1.684250310063362122e-02
7.960000000000000000e+02 7.726704406738281250e+01 3.611380386352539062e+01 -1.399708539247512817e-02 9.114031791687011719e+00 2.730010509490966797e+00 4.682369902729988098e-02
7.970000000000000000e+02 7.921028900146484375e+01 3.485011291503906250e+01 -1.318131852895021439e-02 9.306750297546386719e+00 2.788070678710937500e+00 1.133407186716794968e-02
7.980000000000000000e+02 7.789855194091796875e+01 3.346850204467773438e+01 -1.000025030225515366e-02 9.097631454467773438e+00 2.726289510726928711e+00 6.234161183238029480e-02
7.990000000000000000e+02 7.929227447509765625e+01 3.346938705444335938e+01 -1.881899428553879261e-03 9.277783393859863281e+00 2.782770633697509766e+00 2.536387741565704346e-02
8.000000000000000000e+02 7.935909271240234375e+01 3.072204017639160156e+01 -2.828639233484864235e-03 9.182833671569824219e+00 2.754001379013061523e+00 2.873503416776657104e-02
8.010000000000000000e+02 7.803505706787109375e+01 2.823660659790039062e+01 -1.401799917221069336e-02 8.911356925964355469e+00 2.669201850891113281e+00 1.085001826286315918e-01
8.020000000000000000e+02 7.933058166503906250e+01 2.662396812438964844e+01 -5.897009978070855141e-04 8.968534469604492188e+00 2.690383672714233398e+00 4.829762503504753113e-02
8.030000000000000000e+02 7.641346740722656250e+01 2.456001853942871094e+01 -2.135074883699417114e-02 8.568701744079589844e+00 2.564205169677734375e+00 2.353718876838684082e-01
8.040000000000000000e+02 7.931387329101562500e+01 2.525053787231445312e+01 -2.497026463970541954e-03 8.877171516418457031e+00 2.662402391433715820e+00 5.203657969832420349e-02
8.050000000000000000e+02 7.931298065185546875e+01 2.107694435119628906e+01 -9.330656030215322971e-04 8.555659294128417969e+00 2.566417932510375977e+00 6.397771835327148438e-02
8.060000000000000000e+02 7.932542419433593750e+01 1.967761611938476562e+01 -2.178127411752939224e-03 8.434676170349121094e+00 2.529749393463134766e+00 6.764150410890579224e-02
8.070000000000000000e+02 7.934187316894531250e+01 1.828189086914062500e+01 7.076303008943796158e-04 8.307288169860839844e+00 2.492398738861083984e+00 6.854947656393051147e-02
8.080000000000000000e+02 7.935290527343750000e+01 1.409896945953369141e+01 -1.547407591715455055e-03 7.882728099822998047e+00 2.364354133605957031e+00 7.585055381059646606e-02
8.090000000000000000e+02 7.934415435791015625e+01 1.270652484893798828e+01 -2.233219274785369635e-04 7.733703136444091797e+00 2.320044040679931641e+00 7.754929363727569580e-02
8.100000000000000000e+02 7.933773040771484375e+01 1.131627368927001953e+01 -1.023740740492939949e-03 7.582487583160400391e+00 2.274439096450805664e+00 7.925871759653091431e-02
8.110000000000000000e+02 7.933464050292968750e+01 7.137018203735351562e+00 2.119880635291337967e-03 7.130061149597167969e+00 2.139654159545898438e+00 7.655750960111618042e-02
8.120000000000000000e+02 7.933545684814453125e+01 5.741669654846191406e+00 9.799097897484898567e-04 6.985737800598144531e+00 2.096015214920043945e+00 7.374377548694610596e-02
8.130000000000000000e+02 7.933570861816406250e+01 4.345963001251220703e+00 2.910449868068099022e-03 6.848571300506591797e+00 2.055444478988647461e+00 6.927474588155746460e-02
8.140000000000000000e+02 7.933956909179687500e+01 1.603142172098159790e-01 3.128588898107409477e-03 6.502161026000976562e+00 1.951586961746215820e+00 5.031111463904380798e-02
8.150000000000000000e+02 7.933921813964843750e+01 -1.232628107070922852e+00 4.559084307402372360e-03 6.415177822113037109e+00 1.925921082496643066e+00 4.187550768256187439e-02
8.160000000000000000e+02 7.801224517822265625e+01 -3.722935676574707031e+00 2.125363983213901520e-02 6.497319698333740234e+00 1.955572009086608887e+00 6.705685704946517944e-02
8.170000000000000000e+02 7.933694458007812500e+01 -4.020371437072753906e+00 5.261105950921773911e-03 6.293600559234619141e+00 1.889658570289611816e+00 2.372851222753524780e-02
8.180000000000000000e+02 7.934187316894531250e+01 -8.204650878906250000e+00 4.036177415400743484e-03 6.255229473114013672e+00 1.877779722213745117e+00 -5.278137046843767166e-03
8.190000000000000000e+02 7.803063201904296875e+01 -1.069017124176025391e+01 2.032941393554210663e-02 6.500420093536376953e+00 1.956224918365478516e+00 -6.543659418821334839e-02
8.200000000000000000e+02 7.934421539306640625e+01 -1.098843479156494141e+01 3.786939661949872971e-03 6.326453685760498047e+00 1.899072289466857910e+00 -2.383123897016048431e-02
8.210000000000000000e+02 7.934575653076171875e+01 -1.516641426086425781e+01 3.044194541871547699e-03 6.559089183807373047e+00 1.968640089035034180e+00 -4.611719772219657898e-02
8.220000000000000000e+02 7.804039001464843750e+01 -1.764697074890136719e+01 8.340701460838317871e-03 6.865648746490478516e+00 2.062196731567382812e+00 -1.544480472803115845e-01
8.230000000000000000e+02 7.934799194335937500e+01 -1.795188522338867188e+01 1.474305638112127781e-03 6.775209426879882812e+00 2.033005237579345703e+00 -5.515187978744506836e-02
8.240000000000000000e+02 7.937301635742187500e+01 -2.349431228637695312e+01 -1.055088709108531475e-03 7.268454551696777344e+00 2.180219888687133789e+00 -5.838138237595558167e-02
8.250000000000000000e+02 7.812309265136718750e+01 -2.448260879516601562e+01 -3.389236750081181526e-03 7.383000850677490234e+00 2.213883399963378906e+00 -1.619928032159805298e-01
8.260000000000000000e+02 7.937335205078125000e+01 -2.487744331359863281e+01 3.933306725230067968e-04 7.393520832061767578e+00 2.218174219131469727e+00 -5.808363854885101318e-02
8.270000000000000000e+02 7.933672332763671875e+01 -2.904143142700195312e+01 -1.666650641709566116e-03 7.739241600036621094e+00 2.321272373199462891e+00 -5.207934603095054626e-02
8.280000000000000000e+02 7.786337280273437500e+01 -3.137742042541503906e+01 -1.010638941079378128e-02 7.850782394409179688e+00 2.352202892303466797e+00 -1.346858888864517212e-01
8.290000000000000000e+02 7.928421783447265625e+01 -3.182811355590820312e+01 -3.294718684628605843e-03 7.929743289947509766e+00 2.377934455871582031e+00 -4.541786760091781616e-02
8.300000000000000000e+02 7.917900085449218750e+01 -3.599364852905273438e+01 -3.984652576036751270e-04 8.128380775451660156e+00 2.438394784927368164e+00 -2.821239829063415527e-02
8.310000000000000000e+02 7.908481597900390625e+01 -3.735818099975585938e+01 -9.592962451279163361e-03 8.160746574401855469e+00 2.445346117019653320e+00 -1.741589978337287903e-02
8.320000000000000000e+02 7.891276550292968750e+01 -3.872032546997070312e+01 -2.126170089468359947e-03 8.177876472473144531e+00 2.452724933624267578e+00 -1.113010756671428680e-02
8.330000000000000000e+02 7.859438323974609375e+01 -4.011326980590820312e+01 -1.050198823213577271e-02 8.182194709777832031e+00 2.451507806777954102e+00 -1.661045826040208340e-03
8.340000000000000000e+02 4.651797866821289062e+01 3.673360443115234375e+01 -5.352880954742431641e-01 5.851517200469970703e+00 1.594868779182434082e+00 -4.303636029362678528e-02
8.350000000000000000e+02 6.760005187988281250e+01 4.095628356933593750e+01 -2.031104862689971924e-01 8.111091613769531250e+00 2.372394323348999023e+00 3.545985370874404907e-02
8.360000000000000000e+02 6.914868950843811035e-01 3.049706220626831055e+00 -1.902610347315203398e-05 3.948222001781687140e-06 -4.523364623310044408e-06 -3.421907313168048859e-04
8.370000000000000000e+02 3.176641225814819336e+00 2.739841461181640625e+00 3.716050414368510246e-04 2.087168686557561159e-04 1.740965672070160508e-04 -1.596658112248405814e-04
8.380000000000000000e+02 5.302677631378173828e+00 2.615502119064331055e+00 -1.035131572280079126e-04 -3.531445108819752932e-04 -1.369973033433780074e-04 6.671178562100976706e-05
8.390000000000000000e+02 1.485063552856445312e+00 6.380098342895507812e+00 -4.122366954106837511e-04 1.457619509892538190e-04 -7.994242332642897964e-05 -1.055532848113216460e-04
8.400000000000000000e+02 5.060054659843444824e-01 9.222164154052734375e+00 4.629754694178700447e-04 1.063215662725269794e-03 4.578573280014097691e-04 -2.659428573679178953e-04
8.410000000000000000e+02 5.718451142311096191e-01 1.201772975921630859e+01 4.891692660748958588e-04 5.877264309674501419e-03 1.909930142574012280e-03 -1.495308475568890572e-03
8.420000000000000000e+02 1.730820178985595703e+00 1.180930137634277344e+01 7.352924440056085587e-04 2.040259074419736862e-03 8.326654788106679916e-04 -3.747999668121337891e-03
8.430000000000000000e+02 6.310469508171081543e-01 1.765779495239257812e+01 -2.820226131007075310e-03 2.713284268975257874e-02 7.293784990906715393e-03 1.143477275036275387e-03
8.440000000000000000e+02 7.702715873718261719e+00 1.846063995361328125e+01 -2.206929624080657959e-01 4.348292946815490723e-02 -5.316301062703132629e-02 1.812409237027168274e-02
8.450000000000000000e+02 5.829837322235107422e-01 2.191535377502441406e+01 -3.505690954625606537e-03 -6.237826868891716003e-02 -1.976518705487251282e-02 2.678993716835975647e-02
8.460000000000000000e+02 6.147444844245910645e-01 2.332711219787597656e+01 -3.470263211056590080e-03 -1.354435086250305176e-01 -4.167412966489791870e-02 3.495403379201889038e-02
8.470000000000000000e+02 6.178243756294250488e-01 2.476082992553710938e+01 -1.562752178870141506e-03 -2.222416996955871582e-01 -6.714133918285369873e-02 4.046863690018653870e-02
8.480000000000000000e+02 6.508149504661560059e-01 2.900916290283203125e+01 -2.137607662007212639e-04 -5.000617504119873047e-01 -1.500826627016067505e-01 3.859865292906761169e-02
8.490000000000000000e+02 6.750434637069702148e-01 3.041362953186035156e+01 3.731829579919576645e-03 -5.780637860298156738e-01 -1.722995787858963013e-01 3.448024019598960876e-02
8.500000000000000000e+02 2.036016464233398438e+00 3.025359344482421875e+01 1.043933723121881485e-02 -4.731183052062988281e-01 -1.388036906719207764e-01 1.010778918862342834e-01
8.510000000000000000e+02 6.993867158889770508e-01 3.181623268127441406e+01 -2.408004802418872714e-04 -6.459244489669799805e-01 -1.938495784997940063e-01 3.135754168033599854e-02
8.520000000000000000e+02 7.469693422317504883e-01 3.599419784545898438e+01 -1.363781746476888657e-03 -7.583537101745605469e-01 -2.279152423143386841e-01 1.184114255011081696e-02
8.530000000000000000e+02 3.501253128051757812e+00 3.694473648071289062e+01 4.292828217148780823e-02 -5.639121532440185547e-01 -1.562951505184173584e-01 4.125097021460533142e-02
8.540000000000000000e+02 9.738165140151977539e-01 3.871149063110351562e+01 -3.035527421161532402e-03 -7.546707391738891602e-01 -2.273118793964385986e-01 -7.398810237646102905e-03
8.550000000000000000e+02 1.352764606475830078e+00 4.006758499145507812e+01 1.762520708143711090e-02 -7.322377562522888184e-01 -2.143837660551071167e-01 -2.221503667533397675e-02
8.560000000000000000e+02 1.037486934661865234e+01 1.851806521415710449e+00 -2.562323061283677816e-04 -2.008536248467862606e-04 -1.371257822029292583e-04 -2.139019925380125642e-04
8.570000000000000000e+02 8.916615486145019531e+00 1.860192656517028809e+00 -1.796256401576101780e-04 -3.268219006713479757e-04 -1.519342622486874461e-04 -1.892114960355684161e-04
8.580000000000000000e+02 8.202656745910644531e+00 1.857131958007812500e+00 1.720860600471496582e-04 3.607484977692365646e-04 1.598503586137667298e-04 1.640715636312961578e-04
8.590000000000000000e+02 7.490301132202148438e+00 1.855476140975952148e+00 -1.297554554184898734e-04 -3.700826491694897413e-04 -1.499514328315854073e-04 -9.421887079952284694e-05
8.600000000000000000e+02 5.347815990447998047e+00 1.869965791702270508e+00 1.636526721995323896e-04 3.352986241225153208e-04 1.496853947173804045e-04 -6.983101047808304429e-05
8.610000000000000000e+02 4.632928848266601562e+00 1.881807208061218262e+00 -1.346661883872002363e-04 -3.053917898796498775e-04 -1.320174051215872169e-04 1.048298508976586163e-04
8.620000000000000000e+02 3.918896675109863281e+00 1.894197940826416016e+00 2.049157774308696389e-04 2.760103088803589344e-04 1.442778302589431405e-04 -1.213559298776090145e-04
8.630000000000000000e+02 3.209814310073852539e+00 1.901455521583557129e+00 -2.491642662789672613e-04 -1.946024567587301135e-04 -1.331300154561176896e-04 1.030196799547411501e-04
8.640000000000000000e+02 2.511899948120117188e+00 1.899164438247680664e+00 2.575563557911664248e-04 1.820068573579192162e-04 1.318689610343426466e-04 1.164711102319415659e-05
8.650000000000000000e+02 1.819156646728515625e+00 1.897610783576965332e+00 -1.352090039290487766e-04 -1.891442661872133613e-04 -9.730597957968711853e-05 -1.486280143581097946e-05
8.660000000000000000e+02 1.263447666168212891e+01 1.763381958007812500e+00 2.182267053285613656e-04 9.289944864576682448e-05 9.333784691989421844e-05 -2.415166636637877673e-05
8.670000000000000000e+02 1.331580924987792969e+01 1.739477872848510742e+00 -2.417928481008857489e-04 -1.492309384047985077e-04 -1.173071359517052770e-04 -1.158418308477848768e-04
8.680000000000000000e+02 1.513099765777587891e+01 1.858785867691040039e+00 1.989272277569398284e-04 2.232173574157059193e-04 1.266433828277513385e-04 1.453075965400785208e-04
8.690000000000000000e+02 1.325703907012939453e+01 2.473910093307495117e+00 1.726872433209791780e-04 1.991075259866192937e-04 1.115384293370880187e-04 -1.067937773768790066e-04
8.700000000000000000e+02 1.476016998291015625e+01 3.607952833175659180e+00 -6.574959843419492245e-04 -2.228207449661567807e-05 -2.039334212895482779e-04 -3.047006248380057514e-05
8.710000000000000000e+02 1.406234455108642578e+01 7.555989265441894531e+00 1.645439187996089458e-03 2.248513337690383196e-04 5.610871594399213791e-04 5.309598636813461781e-04
8.720000000000000000e+02 1.352510547637939453e+01 8.818644523620605469e+00 -1.906834309920668602e-03 -4.978395299986004829e-04 -7.214021170511841774e-04 -7.523212116211652756e-04
8.730000000000000000e+02 1.289229869842529297e+01 1.004874229431152344e+01 2.082274528220295906e-03 7.098508067429065704e-04 8.376375772058963776e-04 1.092473976314067841e-03
8.740000000000000000e+02 1.030867195129394531e+01 1.167331600189208984e+01 -1.408480457030236721e-03 5.077163223177194595e-04 -2.702292404137551785e-04 -1.059137517586350441e-03
8.750000000000000000e+02 9.410791397094726562e+00 1.271082401275634766e+01 9.748101583682000637e-04 1.973246224224567413e-03 8.844168623909354210e-04 1.498210709542036057e-03
8.760000000000000000e+02 8.451627731323242188e+00 1.556993007659912109e+01 -1.789693633327260613e-04 2.978691644966602325e-02 8.882383815944194794e-03 -4.663573112338781357e-03
8.770000000000000000e+02 1.630572319030761719e+01 1.662353706359863281e+01 -3.750032186508178711e-01 -3.455472886562347412e-01 -2.161651551723480225e-01 2.135919779539108276e-01
8.780000000000000000e+02 1.658022308349609375e+01 1.308565235137939453e+01 -2.702857553958892822e-01 -8.589374423027038574e-01 -3.387669622898101807e-01 4.319827258586883545e-01
8.790000000000000000e+02 1.763801002502441406e+01 1.047580528259277344e+01 -1.630963087081909180e-01 -1.033437728881835938e+00 -3.589602112770080566e-01 3.420444130897521973e-01
8.800000000000000000e+02 1.832515525817871094e+01 7.781664848327636719e+00 -5.761583149433135986e-02 -1.105349779129028320e+00 -3.488896787166595459e-01 2.151379585266113281e-01
8.810000000000000000e+02 1.880896759033203125e+01 5.032186985015869141e+00 -3.584162145853042603e-02 -1.107576131820678711e+00 -3.430253267288208008e-01 1.460089236497879028e-01
8.820000000000000000e+02 1.923760032653808594e+01 -3.803503513336181641e+00 -1.885023154318332672e-02 -1.228416934609413147e-01 -4.250757768750190735e-02 8.469665050506591797e-02
8.830000000000000000e+02 1.913374519348144531e+01 -2.652344703674316406e+00 -1.523183193057775497e-02 -2.287656217813491821e-01 -7.319923490285873413e-02 9.118539094924926758e-02
8.840000000000000000e+02 2.009744453430175781e+01 -4.064066410064697266e+00 -6.189802661538124084e-02 -1.020698845386505127e-01 -4.919037222862243652e-02 1.358959227800369263e-01
8.850000000000000000e+02 2.088351631164550781e+01 -4.253759384155273438e+00 -9.779574722051620483e-02 -9.957920759916305542e-02 -5.921248719096183777e-02 1.785513311624526978e-01
8.860000000000000000e+02 2.300152587890625000e+01 -4.591937065124511719e+00 -2.631644010543823242e-01 -5.632165819406509399e-02 -9.584581851959228516e-02 2.484971135854721069e-01
8.870000000000000000e+02 2.442644882202148438e+01 -4.731264114379882812e+00 -3.869843780994415283e-01 -3.170733898878097534e-02 -1.256075203418731689e-01 2.674386799335479736e-01
8.880000000000000000e+02 2.514672088623046875e+01 -4.793650150299072266e+00 -4.533286392688751221e-01 -1.877629011869430542e-02 -1.416314840316772461e-01 2.703488767147064209e-01
8.890000000000000000e+02 2.586775207519531250e+01 -4.854204654693603516e+00 -5.195690393447875977e-01 -6.637090817093849182e-03 -1.578618437051773071e-01 2.686601281166076660e-01
8.900000000000000000e+02 2.808961677551269531e+01 -4.269201278686523438e+00 -4.846718013286590576e-01 3.272249922156333923e-02 -1.355847865343093872e-01 2.713524699211120605e-01
8.910000000000000000e+02 2.805054664611816406e+01 -4.944449424743652344e+00 -6.955134272575378418e-01 1.841880194842815399e-02 -2.031283825635910034e-01 2.443132996559143066e-01
8.920000000000000000e+02 2.878011894226074219e+01 -4.962270736694335938e+00 -7.444140315055847168e-01 2.504135482013225555e-02 -2.158118039369583130e-01 2.297655045986175537e-01
8.930000000000000000e+02 3.100074005126953125e+01 -4.331668853759765625e+00 -4.820874631404876709e-01 7.218046486377716064e-02 -1.229720935225486755e-01 1.479207575321197510e-01
8.940000000000000000e+02 3.098715400695800781e+01 -4.972459793090820312e+00 -8.220698833465576172e-01 4.036189615726470947e-02 -2.345123887062072754e-01 1.652424782514572144e-01
8.950000000000000000e+02 3.172360992431640625e+01 -4.975373744964599609e+00 -8.199769854545593262e-01 4.439847916364669800e-02 -2.326735556125640869e-01 1.344194114208221436e-01
8.960000000000000000e+02 3.316984176635742188e+01 -4.409110069274902344e+00 -2.987417876720428467e-01 1.226945072412490845e-01 -5.281418561935424805e-02 -3.230244293808937073e-02
8.970000000000000000e+02 3.466053771972656250e+01 -4.957022666931152344e+00 -4.356130063533782959e-01 7.861994951963424683e-02 -1.070979163050651550e-01 -1.176006495952606201e-01
8.980000000000000000e+02 3.712554168701171875e+01 -4.907734394073486328e+00 8.008401393890380859e-01 3.986209034919738770e-01 3.598383069038391113e-01 -8.863499760627746582e-01
8.990000000000000000e+02 3.585154342651367188e+01 -4.423875331878662109e+00 5.856322646141052246e-01 3.521942496299743652e-01 2.813479602336883545e-01 -6.317719221115112305e-01
9.000000000000000000e+02 3.532893753051757812e+01 -4.942784786224365234e+00 -1.600531190633773804e-01 1.455443352460861206e-01 -4.352636169642210007e-03 -2.693543434143066406e-01
9.010000000000000000e+02 3.818451309204101562e+01 -4.675071716308593750e+00 2.305552482604980469e+00 1.176970124244689941e+00 1.044756770133972168e+00 -2.067866563796997070e+00
9.020000000000000000e+02 3.855200958251953125e+01 -4.958338737487792969e+00 2.605812072753906250e+00 1.186394572257995605e+00 1.137662053108215332e+00 -2.217347145080566406e+00
9.030000000000000000e+02 4.243683242797851562e+01 -5.499711990356445312e+00 7.590597629547119141e+00 1.912429618835449219e+01 8.014468193054199219e+00 2.448516845703125000e+00
9.040000000000000000e+02 4.274779129028320312e+01 -6.610785007476806641e+00 1.197222518920898438e+01 1.641824913024902344e+01 8.517142295837402344e+00 -4.658315777778625488e-01
9.050000000000000000e+02 4.301723480224609375e+01 -6.406882762908935547e+00 1.099856758117675781e+01 1.547475242614746094e+01 7.941996097564697266e+00 3.111442923545837402e-01
9.060000000000000000e+02 4.273380279541015625e+01 -6.814682960510253906e+00 1.183499717712402344e+01 1.663620376586914062e+01 8.541360855102539062e+00 -1.410750389099121094e+00
9.070000000000000000e+02 4.270616531372070312e+01 -7.024828910827636719e+00 1.080840015411376953e+01 1.713165473937988281e+01 8.382016181945800781e+00 -2.167421340942382812e+00
9.080000000000000000e+02 4.243039321899414062e+01 -7.612959861755371094e+00 6.823727130889892578e+00 1.920373344421386719e+01 7.808238506317138672e+00 -2.522649049758911133e+00
9.090000000000000000e+02 4.190727233886718750e+01 -8.014378547668457031e+00 3.114985466003417969e+00 2.068042564392089844e+01 7.138623237609863281e+00 1.074382513761520386e-01
9.100000000000000000e+02 4.209302520751953125e+01 -8.274036407470703125e+00 2.749856233596801758e+00 1.921800613403320312e+01 6.590359210968017578e+00 -2.953223884105682373e-02
9.110000000000000000e+02 4.046115875244140625e+01 -8.242723464965820312e+00 3.271005868911743164e+00 1.055280494689941406e+01 4.147143363952636719e+00 6.691502571105957031e+00
9.120000000000000000e+02 4.005823898315429688e+01 -8.221910476684570312e+00 3.658645153045654297e+00 6.933787345886230469e+00 3.177729606628417969e+00 6.046863555908203125e+00
9.130000000000000000e+02 3.926292800903320312e+01 -8.538941383361816406e+00 2.914749622344970703e+00 3.699405908584594727e+00 1.984246730804443359e+00 4.133893489837646484e+00
9.140000000000000000e+02 3.945921707153320312e+01 -8.230983734130859375e+00 3.271497249603271484e+00 3.645156383514404297e+00 2.074995994567871094e+00 4.285572052001953125e+00
9.150000000000000000e+02 3.818720245361328125e+01 -8.333054542541503906e+00 1.517951846122741699e+00 1.063186526298522949e+00 7.743415236473083496e-01 1.966609954833984375e+00
9.160000000000000000e+02 3.841612625122070312e+01 -8.283256530761718750e+00 1.924419164657592773e+00 1.355335712432861328e+00 9.839264750480651855e-01 2.192777872085571289e+00
9.170000000000000000e+02 3.883438491821289062e+01 -8.283256530761718750e+00 2.390767574310302734e+00 1.934752583503723145e+00 1.297656059265136719e+00 2.845426321029663086e+00
9.180000000000000000e+02 3.477046966552734375e+01 -8.531703948974609375e+00 -9.542701840400695801e-01 1.243159174919128418e-01 -2.489862889051437378e-01 2.259510904550552368e-01
9.190000000000000000e+02 3.699436950683593750e+01 -8.438652992248535156e+00 3.049314916133880615e-01 4.418775141239166260e-01 2.240426987409591675e-01 9.457826018333435059e-01
9.200000000000000000e+02 3.825845718383789062e+01 -8.607064247131347656e+00 1.685731410980224609e+00 1.434369564056396484e+00 9.360302686691284180e-01 2.364165067672729492e+00
9.210000000000000000e+02 3.551712036132812500e+01 -8.501608848571777344e+00 -6.602175831794738770e-01 1.753727942705154419e-01 -1.454534381628036499e-01 3.944526910781860352e-01
9.220000000000000000e+02 3.402077865600585938e+01 -8.559804916381835938e+00 -1.159966945648193359e+00 9.086462110280990601e-02 -3.207306861877441406e-01 1.228969097137451172e-01
9.230000000000000000e+02 3.251659393310546875e+01 -8.610907554626464844e+00 -1.404436111450195312e+00 3.975456580519676208e-02 -4.094044566154479980e-01 -1.999588683247566223e-02
9.240000000000000000e+02 2.947966003417968750e+01 -8.664136886596679688e+00 -1.513335347175598145e+00 2.296989783644676208e-03 -4.533115029335021973e-01 -1.638097763061523438e-01
9.250000000000000000e+02 3.024172973632812500e+01 -8.655226707458496094e+00 -1.521493792533874512e+00 9.078273549675941467e-03 -4.537246525287628174e-01 -1.360017806291580200e-01
9.260000000000000000e+02 2.717159843444824219e+01 -8.637730598449707031e+00 -1.394681453704833984e+00 5.062967538833618164e-03 -4.168855249881744385e-01 -2.249632477760314941e-01
9.270000000000000000e+02 2.639895629882812500e+01 -8.619134902954101562e+00 -1.326029658317565918e+00 8.500474505126476288e-03 -3.952587544918060303e-01 -2.449816763401031494e-01
9.280000000000000000e+02 2.328785133361816406e+01 -8.400081634521484375e+00 -9.636687636375427246e-01 5.029515177011489868e-02 -2.740120887756347656e-01 -3.016565144062042236e-01
9.290000000000000000e+02 2.086834144592285156e+01 -8.202342033386230469e+00 -6.215863227844238281e-01 5.350232124328613281e-02 -1.704251915216445923e-01 -3.163826167583465576e-01
9.300000000000000000e+02 2.001261901855468750e+01 -8.048450469970703125e+00 -4.941243231296539307e-01 2.432338893413543701e-02 -1.409402787685394287e-01 -2.913337051868438721e-01
9.310000000000000000e+02 1.819759941101074219e+01 -7.215095043182373047e+00 -8.146753162145614624e-02 -1.404220014810562134e-01 -6.656686216592788696e-02 -1.230055689811706543e-01
9.320000000000000000e+02 4.252840805053710938e+01 -7.416847229003906250e+00 8.398240089416503906e+00 1.859141540527343750e+01 8.096896171569824219e+00 -2.846867084503173828e+00
9.330000000000000000e+02 4.228045654296875000e+01 -7.778546333312988281e+00 5.574793815612792969e+00 1.988751792907714844e+01 7.638693809509277344e+00 -2.040718317031860352e+00
9.340000000000000000e+02 4.193516921997070312e+01 -8.428398132324218750e+00 2.016055345535278320e+00 1.862644958496093750e+01 6.192751884460449219e+00 1.017251968383789062e+00
9.350000000000000000e+02 4.212835693359375000e+01 -5.292755126953125000e+00 5.505263328552246094e+00 2.069936180114746094e+01 7.861387252807617188e+00 1.482506394386291504e+00
9.360000000000000000e+02 4.174345397949218750e+01 -4.626364707946777344e+00 2.129910945892333984e+00 1.846997451782226562e+01 6.179965496063232422e+00 -2.016180515289306641e+00
9.370000000000000000e+02 4.271891784667968750e+01 -6.204624176025390625e+00 1.170511341094970703e+01 1.684427452087402344e+01 8.564816474914550781e+00 1.387589812278747559e+00
9.380000000000000000e+02 4.274197006225585938e+01 -6.407363414764404297e+00 1.208773040771484375e+01 1.647054862976074219e+01 8.567483901977539062e+00 4.075494706630706787e-01
9.390000000000000000e+02 4.199174118041992188e+01 -5.168354988098144531e+00 4.321294784545898438e+00 2.079201889038085938e+01 7.533994674682617188e+00 4.628705084323883057e-01
9.400000000000000000e+02 4.264379501342773438e+01 -5.799430847167968750e+00 9.751409530639648438e+00 1.781845092773437500e+01 8.270958900451660156e+00 2.426485300064086914e+00
9.410000000000000000e+02 4.276963043212890625e+01 -7.753840923309326172e+00 6.581541538238525391e+00 1.749571609497070312e+01 7.223177433013916016e+00 -2.464112997055053711e+00
9.420000000000000000e+02 4.128582382202148438e+01 -8.218623161315917969e+00 1.764149427413940430e+00 1.821189498901367188e+01 5.992813587188720703e+00 4.381485939025878906e+00
9.430000000000000000e+02 3.965980529785156250e+01 -8.223103523254394531e+00 3.471907377243041992e+00 4.539469718933105469e+00 2.403413057327270508e+00 4.827845096588134766e+00
9.440000000000000000e+02 4.067454147338867188e+01 -8.264516830444335938e+00 2.715061426162719727e+00 1.297288799285888672e+01 4.706384658813476562e+00 6.617674350738525391e+00
9.450000000000000000e+02 3.925534820556640625e+01 -8.245154380798339844e+00 2.985138893127441406e+00 2.971807718276977539e+00 1.787083983421325684e+00 3.746247529983520508e+00
9.460000000000000000e+02 3.770667648315429688e+01 -8.408940315246582031e+00 9.501656889915466309e-01 8.375166058540344238e-01 5.363047122955322266e-01 1.525752782821655273e+00
9.470000000000000000e+02 3.853738784790039062e+01 -8.666013717651367188e+00 2.143979549407958984e+00 2.107674360275268555e+00 1.275496244430541992e+00 2.858359575271606445e+00
9.480000000000000000e+02 3.936976242065429688e+01 -4.888289451599121094e+00 3.872706413269042969e+00 3.226490020751953125e+00 2.129758834838867188e+00 -4.093085289001464844e+00
9.490000000000000000e+02 3.979615783691406250e+01 -4.604706287384033203e+00 4.003571987152099609e+00 6.053378105163574219e+00 3.017085075378417969e+00 -5.565220355987548828e+00
9.500000000000000000e+02 4.018746185302734375e+01 -4.920545578002929688e+00 4.389237403869628906e+00 8.140309333801269531e+00 3.758864164352416992e+00 -6.523396968841552734e+00
9.510000000000000000e+02 3.999635696411132812e+01 -4.918413162231445312e+00 4.502864360809326172e+00 6.499228954315185547e+00 3.300627946853637695e+00 -6.025310516357421875e+00
9.520000000000000000e+02 3.755406188964843750e+01 -4.383903026580810547e+00 1.866263747215270996e+00 1.068439483642578125e+00 8.804109692573547363e-01 -1.751628279685974121e+00
9.530000000000000000e+02 3.915697097778320312e+01 -4.905707359313964844e+00 3.577858448028564453e+00 2.566592931747436523e+00 1.843335390090942383e+00 -3.597865581512451172e+00
9.540000000000000000e+02 4.078723907470703125e+01 -4.922009944915771484e+00 3.350022554397583008e+00 1.426585006713867188e+01 5.284761905670166016e+00 -6.860127449035644531e+00
9.550000000000000000e+02 4.058942413330078125e+01 -4.928263187408447266e+00 3.822516202926635742e+00 1.202683925628662109e+01 4.754806518554687500e+00 -7.002741813659667969e+00
9.560000000000000000e+02 4.141449356079101562e+01 -4.886122703552246094e+00 2.331820249557495117e+00 1.899620437622070312e+01 6.398407459259033203e+00 -3.741997957229614258e+00
9.570000000000000000e+02 1.452334213256835938e+01 1.738777041435241699e+00 -5.810147922602482140e-05 -1.106154741137288511e-04 -5.061508636572398245e-05 4.124217230128124356e-05
9.580000000000000000e+02 1.463428115844726562e+01 2.562546491622924805e+00 3.352966741658747196e-04 -1.791317918105050921e-04 4.684946179622784257e-05 -1.474486925872042775e-04
9.590000000000000000e+02 1.188699626922607422e+01 1.796814560890197754e+00 -3.313882625661790371e-04 -5.466863876790739596e-05 -1.158170634880661964e-04 -1.100114459404721856e-04
9.600000000000000000e+02 3.770374679565429688e+01 -4.891348838806152344e+00 1.461859464645385742e+00 6.848715543746948242e-01 6.440193057060241699e-01 -1.326699972152709961e+00
9.610000000000000000e+02 3.644314193725585938e+01 -4.421094417572021484e+00 9.235233664512634277e-01 4.642124772071838379e-01 4.163207411766052246e-01 -8.994183540344238281e-01
9.620000000000000000e+02 3.876277923583984375e+01 -4.976395130157470703e+00 2.897737264633178711e+00 1.531293511390686035e+00 1.328709244728088379e+00 -2.610732555389404297e+00
9.630000000000000000e+02 3.701624679565429688e+01 -4.410774230957031250e+00 1.373053073883056641e+00 6.802782416343688965e-01 6.159994006156921387e-01 -1.269702792167663574e+00
9.640000000000000000e+02 3.895811462402343750e+01 -4.958277702331542969e+00 3.162195920944213867e+00 1.950436949729919434e+00 1.533789873123168945e+00 -2.995620965957641602e+00
9.650000000000000000e+02 1.446615123748779297e+01 -3.375489473342895508e+00 5.033081833971664310e-05 4.621098632924258709e-04 1.537321950308978558e-04 -1.251995126949623227e-04
9.660000000000000000e+02 1.384562206268310547e+01 -2.968450307846069336e+00 2.755348396021872759e-05 -2.476843656040728092e-04 -6.603926885873079300e-05 -1.942142989719286561e-05
9.670000000000000000e+02 1.866145324707031250e+01 -8.314419746398925781e+00 -3.531420528888702393e-01 -7.102908939123153687e-02 -1.272513419389724731e-01 -2.867213785648345947e-01
9.680000000000000000e+02 1.860670852661132812e+01 -9.584880828857421875e+00 -4.747864007949829102e-01 -1.469009816646575928e-01 -1.865062117576599121e-01 -4.554249346256256104e-01
9.690000000000000000e+02 3.884526491165161133e+00 3.544913768768310547e+00 3.742358239833265543e-04 2.890290343202650547e-04 1.989794545806944370e-04 -1.303647586610168219e-04
9.700000000000000000e+02 9.547954559326171875e+00 2.599699497222900391e+00 -2.236086438642814755e-04 -4.019054176751524210e-04 -1.876542228274047375e-04 -2.464377030264586210e-04
9.710000000000000000e+02 7.420125484466552734e+00 2.572008132934570312e+00 2.268987009301781654e-04 4.364846099633723497e-04 1.990149903576821089e-04 1.296331611229106784e-04
9.720000000000000000e+02 6.777621269226074219e+00 1.856823444366455078e+00 1.564268459333106875e-04 3.643660456873476505e-04 1.562378747621551156e-04 4.836060907109640539e-05
9.730000000000000000e+02 6.718840599060058594e+00 2.574264764785766602e+00 -8.822634117677807808e-05 -4.217704117763787508e-04 -1.529990258859470487e-04 -3.744505738723091781e-05
9.740000000000000000e+02 8.034554481506347656e+00 3.320363759994506836e+00 3.032413660548627377e-04 5.423020338639616966e-04 2.536630199756473303e-04 1.777574361767619848e-04
9.750000000000000000e+02 5.961977481842041016e+00 4.028146743774414062e+00 4.168057348579168320e-04 3.492290270514786243e-04 2.298104373039677739e-04 5.834535477333702147e-05
9.760000000000000000e+02 1.499101877212524414e+00 7.756462574005126953e+00 8.445622515864670277e-04 3.637304180301725864e-04 3.624878008849918842e-04 -4.709360946435481310e-04
9.770000000000000000e+02 3.906391263008117676e-01 3.798967361450195312e+00 3.794917429331690073e-04 9.204785601468756795e-05 1.414618891431018710e-04 1.398838940076529980e-04
9.780000000000000000e+02 2.386002302169799805e+00 3.693864107131958008e+00 6.351183983497321606e-04 9.415962267667055130e-05 2.187834033975377679e-04 -1.388978271279484034e-04
9.790000000000000000e+02 3.872816562652587891e-01 2.099481344223022461e+00 -2.047096058959141374e-04 -1.359063171548768878e-04 -1.021847783704288304e-04 7.958214700920507312e-05
9.800000000000000000e+02 1.123272180557250977e+00 1.945934295654296875e+00 2.879554813262075186e-05 1.932900049723684788e-04 6.662566738668829203e-05 6.152605237730313092e-06
9.810000000000000000e+02 1.113064670562744141e+01 1.826947212219238281e+00 2.771278377622365952e-04 1.494428288424387574e-04 1.279712014365941286e-04 1.645962765906006098e-04
9.820000000000000000e+02 8.728546142578125000e+00 3.341543912887573242e+00 -1.752974931150674820e-04 -5.593900568783283234e-04 -2.204062766395509243e-04 -1.699644344625994563e-04
9.830000000000000000e+02 2.659183692932128906e+01 -4.897888183593750000e+00 -5.832843184471130371e-01 2.884169574826955795e-03 -1.741200536489486694e-01 2.634635567665100098e-01
9.840000000000000000e+02 2.605498504638671875e+01 -2.807187557220458984e+00 -1.339637935161590576e-01 2.081321552395820618e-02 -3.394517302513122559e-02 3.306886553764343262e-01
9.850000000000000000e+02 2.307419586181640625e+01 -3.878394365310668945e+00 -2.014508396387100220e-01 -7.600152492523193359e-02 -8.323571085929870605e-02 2.948923707008361816e-01
9.860000000000000000e+02 2.520741844177246094e+01 -4.079631328582763672e+00 -3.349293768405914307e-01 -2.043061330914497375e-02 -1.066079959273338318e-01 3.155021369457244873e-01
9.870000000000000000e+02 2.377412033081054688e+01 -3.935743331909179688e+00 -2.425273358821868896e-01 -5.824054405093193054e-02 -9.023036062717437744e-02 3.086181581020355225e-01
9.880000000000000000e+02 2.310321998596191406e+01 -3.148754358291625977e+00 -1.376808881759643555e-01 -9.454316645860671997e-02 -6.966722011566162109e-02 3.270243108272552490e-01
9.890000000000000000e+02 2.229648208618164062e+01 -4.494776725769042969e+00 -2.036973237991333008e-01 -6.943662464618682861e-02 -8.194018155336380005e-02 2.324804067611694336e-01
9.900000000000000000e+02 2.238691711425781250e+01 -3.826585769653320312e+00 -1.632722020149230957e-01 -9.148696810007095337e-02 -7.642775028944015503e-02 2.757481038570404053e-01
9.910000000000000000e+02 2.951264762878417969e+01 -4.971004009246826172e+00 -7.837420105934143066e-01 3.138150647282600403e-02 -2.257081419229507446e-01 2.128140777349472046e-01
9.920000000000000000e+02 2.664681625366210938e+01 -4.204233169555664062e+00 -4.218979775905609131e-01 9.985445998609066010e-03 -1.235737577080726624e-01 3.014656007289886475e-01
9.930000000000000000e+02 2.885589981079101562e+01 -2.950113058090209961e+00 -7.575806975364685059e-02 1.122528836131095886e-01 1.094844564795494080e-02 2.083655744791030884e-01
9.940000000000000000e+02 2.736716079711914062e+01 -4.242654323577880859e+00 -4.576810002326965332e-01 2.243858575820922852e-02 -1.305727213621139526e-01 2.880928516387939453e-01
9.950000000000000000e+02 3.246007919311523438e+01 -4.976569652557373047e+00 -7.912904024124145508e-01 5.277344584465026855e-02 -2.215550988912582397e-01 9.535235911607742310e-02
9.960000000000000000e+02 2.956048011779785156e+01 -3.636466979980468750e+00 -2.555162310600280762e-01 8.946691453456878662e-02 -4.981479421257972717e-02 2.014550715684890747e-01
9.970000000000000000e+02 3.104034423828125000e+01 -3.017809391021728516e+00 1.121755391359329224e-01 1.963533908128738403e-01 9.255868196487426758e-02 1.394014805555343628e-02
9.980000000000000000e+02 2.953800201416015625e+01 -4.303877353668212891e+00 -5.082172155380249023e-01 5.275234580039978027e-02 -1.366394460201263428e-01 2.228954434394836426e-01
9.990000000000000000e+02 1.346820163726806641e+01 -4.843325138092041016e+00 -3.001496661454439163e-04 -8.777440234553068876e-05 -1.163772176369093359e-04 1.924887183122336864e-04
1.000000000000000000e+03 1.288848400115966797e+01 -5.968461990356445312e+00 5.528124165721237659e-04 1.192133349832147360e-04 2.016077341977506876e-04 -3.304815909359604120e-04
1.001000000000000000e+03 1.332677555084228516e+01 -2.567612648010253906e+00 1.009684128803201020e-04 2.671367255970835686e-04 1.104315451811999083e-04 -1.454362063668668270e-05
1.002000000000000000e+03 8.128866195678710938e+00 -2.518857717514038086e+00 -7.322626061068149284e-06 2.346585097257047892e-05 4.842967427975963801e-06 -4.005333175882697105e-04
1.003000000000000000e+03 3.393152618408203125e+01 -4.968410491943359375e+00 -6.286271810531616211e-01 7.236206531524658203e-02 -1.668795347213745117e-01 -1.493859384208917618e-02
1.004000000000000000e+03 3.245349502563476562e+01 -4.381356239318847656e+00 -3.861038684844970703e-01 9.516539424657821655e-02 -8.728154003620147705e-02 4.159580543637275696e-02
1.005000000000000000e+03 3.388059997558593750e+01 -4.428325176239013672e+00 -1.569783687591552734e-01 1.352794468402862549e-01 -6.509678438305854797e-03 -1.308589726686477661e-01
1.006000000000000000e+03 3.523859405517578125e+01 -4.427437305450439453e+00 2.707804739475250244e-01 2.511691749095916748e-01 1.565849035978317261e-01 -4.404760897159576416e-01
1.007000000000000000e+03 3.457990264892578125e+01 -4.432291030883789062e+00 5.095667392015457153e-02 1.965363770723342896e-01 7.424791157245635986e-02 -2.779293954372406006e-01
1.008000000000000000e+03 3.904236984252929688e+01 -8.589396476745605469e+00 2.656415462493896484e+00 3.122275590896606445e+00 1.733607292175292969e+00 3.660746335983276367e+00
1.009000000000000000e+03 3.621437835693359375e+01 -9.075543403625488281e+00 3.653514683246612549e-01 5.389882326126098633e-01 2.713018953800201416e-01 1.006699681282043457e+00
1.010000000000000000e+03 3.756685638427734375e+01 -9.022288322448730469e+00 1.364007115364074707e+00 1.356684207916259766e+00 8.162074089050292969e-01 1.978857636451721191e+00
1.011000000000000000e+03 3.548963546752929688e+01 -9.120533943176269531e+00 -4.754161462187767029e-02 3.811275362968444824e-01 1.000757738947868347e-01 6.973088383674621582e-01
1.012000000000000000e+03 3.326952362060546875e+01 -8.586497306823730469e+00 -1.302730679512023926e+00 5.968343839049339294e-02 -3.729141652584075928e-01 4.067616909742355347e-02
1.013000000000000000e+03 3.176041984558105469e+01 -8.629744529724121094e+00 -1.470606565475463867e+00 2.777770347893238068e-02 -4.328486323356628418e-01 -6.854183971881866455e-02
1.014000000000000000e+03 3.326414489746093750e+01 -9.257000923156738281e+00 -7.538815140724182129e-01 1.475338637828826904e-01 -1.819043010473251343e-01 1.911318749189376831e-01
1.015000000000000000e+03 3.475431060791015625e+01 -9.168139457702636719e+00 -3.400650620460510254e-01 2.733172774314880371e-01 -2.002433314919471741e-02 4.813392460346221924e-01
1.016000000000000000e+03 3.401203155517578125e+01 -9.214447021484375000e+00 -5.757322907447814941e-01 2.008734047412872314e-01 -1.124576628208160400e-01 3.129937350749969482e-01
1.017000000000000000e+03 8.827210426330566406e+00 2.589380025863647461e+00 2.555482496973127127e-04 4.624952271115034819e-04 2.154130488634109497e-04 2.323249063920229673e-04
1.018000000000000000e+03 1.360880279541015625e+01 3.919525623321533203e+00 8.953883661888539791e-04 -2.623192267492413521e-05 2.607469505164772272e-04 2.780854701995849609e-04
1.019000000000000000e+03 1.257514667510986328e+01 2.535921096801757812e+00 -5.144712049514055252e-04 2.961529025924392045e-05 -1.454567827749997377e-04 -4.300162618164904416e-05
1.020000000000000000e+03 1.105389785766601562e+01 2.592876911163330078e+00 -3.772731870412826538e-04 -2.185260527767241001e-04 -1.787397777661681175e-04 -2.907346934080123901e-04
1.021000000000000000e+03 2.871301078796386719e+01 -8.662957191467285156e+00 -1.489619970321655273e+00 3.966377116739749908e-03 -4.456960856914520264e-01 -1.872307956218719482e-01
1.022000000000000000e+03 3.023286247253417969e+01 -9.369520187377929688e+00 -1.110084652900695801e+00 4.534631967544555664e-02 -3.194214999675750732e-01 -1.112581342458724976e-01
1.023000000000000000e+03 3.099587631225585938e+01 -9.349811553955078125e+00 -1.062264919281005859e+00 6.178213655948638916e-02 -3.001448512077331543e-01 -5.569202080368995667e-02
1.024000000000000000e+03 3.175521659851074219e+01 -9.324486732482910156e+00 -9.926266670227050781e-01 8.094438910484313965e-02 -2.735046744346618652e-01 1.120615657418966293e-02
1.025000000000000000e+03 8.069059371948242188e+00 -1.838751316070556641e+00 -6.426334584830328822e-05 1.226535005116602406e-05 -1.559940028528217226e-05 3.983915084972977638e-04
1.026000000000000000e+03 1.253248023986816406e+01 -3.710442781448364258e+00 -2.589436480775475502e-04 1.875401067081838846e-04 -2.142106495739426464e-05 3.226761473342776299e-04
1.027000000000000000e+03 7.386604785919189453e+00 -2.594809293746948242e+00 -9.169203985948115587e-05 5.501895066117867827e-05 -1.100192730518756434e-05 4.923266242258250713e-04
1.028000000000000000e+03 1.179156208038330078e+01 -5.650327682495117188e+00 -3.043752221856266260e-04 -6.021548178978264332e-04 -2.719590265769511461e-04 5.462261615321040154e-04
1.029000000000000000e+03 8.212223052978515625e+00 -4.379717350006103516e+00 5.448732990771532059e-04 -9.210177813656628132e-04 -1.128433432313613594e-04 1.864128716988489032e-04
1.030000000000000000e+03 6.548143863677978516e+00 -1.891543388366699219e+00 -1.112397512770257890e-04 1.613057747817947529e-06 -3.288800871814601123e-05 3.584147780202329159e-04
1.031000000000000000e+03 6.633272647857666016e+00 -2.687858343124389648e+00 -2.570905962784308940e-06 6.734648923156782985e-05 1.943267488968558609e-05 -4.279447020962834358e-04
1.032000000000000000e+03 5.067672729492187500e+00 -2.761613845825195312e+00 -4.433663707459345460e-05 1.079285284504294395e-04 1.907756632135715336e-05 -3.497913421597331762e-04
1.033000000000000000e+03 1.730965495109558105e+00 -7.782287120819091797e+00 -4.403169732540845871e-04 2.226933720521628857e-04 -6.528708036057651043e-05 -2.585263864602893591e-04
1.034000000000000000e+03 3.542483806610107422e+00 -3.800976276397705078e+00 1.023969525704160333e-05 1.771713286871090531e-04 5.622330718324519694e-05 3.341276606079190969e-04
1.035000000000000000e+03 1.697380065917968750e+00 -6.383972167968750000e+00 6.462805322371423244e-04 -7.515045581385493279e-05 1.713390229269862175e-04 3.985262592323124409e-04
1.036000000000000000e+03 1.164894700050354004e+00 -2.081816673278808594e+00 -1.808877423172816634e-04 -1.252753136213868856e-04 -9.184891678160056472e-05 -2.314754092367365956e-04
1.037000000000000000e+03 5.578978657722473145e-01 -4.972922325134277344e+00 6.123890052549540997e-04 -2.356102340854704380e-04 1.130336313508450985e-04 1.895997411338612437e-04
1.038000000000000000e+03 2.562242507934570312e+01 -8.581871986389160156e+00 -1.248206853866577148e+00 1.845866441726684570e-02 -3.689244389533996582e-01 -2.611057162284851074e-01
1.039000000000000000e+03 2.713230895996093750e+01 -9.386058807373046875e+00 -1.114063143730163574e+00 2.989256754517555237e-02 -3.252511620521545410e-01 -2.767259478569030762e-01
1.040000000000000000e+03 2.869100379943847656e+01 -9.390752792358398438e+00 -1.144780039787292480e+00 3.059517592191696167e-02 -3.342554569244384766e-01 -2.026175260543823242e-01
1.041000000000000000e+03 2.634794425964355469e+01 -9.370408058166503906e+00 -1.080019474029541016e+00 3.564436361193656921e-02 -3.133125305175781250e-01 -3.071009814739227295e-01
1.042000000000000000e+03 2.172148895263671875e+01 -8.237670898437500000e+00 -7.469376325607299805e-01 6.286545097827911377e-02 -2.052216529846191406e-01 -3.183551430702209473e-01
1.043000000000000000e+03 2.319754791259765625e+01 -9.169043540954589844e+00 -8.687621355056762695e-01 7.090073823928833008e-02 -2.393584102392196655e-01 -3.929286599159240723e-01
1.044000000000000000e+03 2.035925292968750000e+01 -1.027045631408691406e+01 -6.267036795616149902e-01 2.376475930213928223e-02 -1.808816790580749512e-01 -5.030589699745178223e-01
1.045000000000000000e+03 2.080614089965820312e+01 -9.164284706115722656e+00 -6.324992179870605469e-01 4.172834008932113647e-02 -1.772312670946121216e-01 -4.223708212375640869e-01
1.046000000000000000e+03 2.484333038330078125e+01 -8.526255607604980469e+00 -1.162597298622131348e+00 2.766565978527069092e-02 -3.404794931411743164e-01 -2.764688432216644287e-01
1.047000000000000000e+03 2.477136421203613281e+01 -9.294834136962890625e+00 -9.871228933334350586e-01 5.376141518354415894e-02 -2.800084352493286133e-01 -3.599801063537597656e-01
1.048000000000000000e+03 2.398058128356933594e+01 -9.239409446716308594e+00 -9.283332824707031250e-01 6.223805621266365051e-02 -2.598285675048828125e-01 -3.819331824779510498e-01
1.049000000000000000e+03 1.858846855163574219e+01 -3.517358541488647461e+00 -4.001831170171499252e-03 -1.399345695972442627e-01 -4.318092018365859985e-02 2.305687218904495239e-02
1.050000000000000000e+03 2.171250724792480469e+01 -3.750227451324462891e+00 -1.217671334743499756e-01 -1.107221916317939758e-01 -6.974679976701736450e-02 2.522014975547790527e-01
1.051000000000000000e+03 2.037703895568847656e+01 -3.347856521606445312e+00 -4.515198990702629089e-02 -1.636324226856231689e-01 -6.263532489538192749e-02 1.750948429107666016e-01
1.052000000000000000e+03 1.225157165527343750e+01 -1.959307670593261719e+01 -4.659124910831451416e-01 -6.439238190650939941e-01 -3.329508900642395020e-01 -4.049657285213470459e-01
1.053000000000000000e+03 4.145262718200683594e+00 -1.959281539916992188e+01 -1.313719898462295532e-01 -1.060729771852493286e-01 -7.123349606990814209e-02 -1.661614179611206055e-01
1.054000000000000000e+03 1.254925060272216797e+01 1.948845863342285156e+01 -4.909508824348449707e-01 -3.512310683727264404e-01 -2.526545822620391846e-01 2.807047069072723389e-01
1.055000000000000000e+03 8.749670028686523438e+00 2.047821044921875000e+01 -3.531988263130187988e-01 -1.377910077571868896e-01 -1.472969502210617065e-01 3.213268816471099854e-01
1.056000000000000000e+03 1.940844726562500000e+01 8.233403205871582031e+00 -7.763689011335372925e-02 -7.305154800415039062e-01 -2.424457073211669922e-01 1.406086981296539307e-01
1.057000000000000000e+03 1.910742187500000000e+01 9.614921569824218750e+00 -1.257045269012451172e-01 -6.765847802162170410e-01 -2.406867891550064087e-01 1.501579731702804565e-01
1.058000000000000000e+03 1.383014297485351562e+01 1.859626770019531250e+01 -5.004824995994567871e-01 -3.630954027175903320e-01 -2.590733468532562256e-01 3.025959134101867676e-01
1.059000000000000000e+03 1.407834529876708984e+01 1.654772186279296875e+01 -6.616369485855102539e-01 -6.057678461074829102e-01 -3.802214562892913818e-01 5.817200541496276855e-01
1.060000000000000000e+03 1.714296150207519531e+01 1.178725242614746094e+01 -2.020665109157562256e-01 -9.122684597969055176e-01 -3.343004882335662842e-01 3.874085247516632080e-01
1.061000000000000000e+03 1.725261306762695312e+01 1.528678512573242188e+01 -3.333916068077087402e-01 -3.528788685798645020e-01 -2.058811485767364502e-01 1.948832422494888306e-01
1.062000000000000000e+03 2.030530357360839844e+01 2.432901382446289062e+00 -2.660702215507626534e-03 -5.672470331192016602e-01 -1.709723174571990967e-01 1.875457614660263062e-01
1.063000000000000000e+03 6.314697265625000000e-01 1.622794151306152344e+01 -4.628643800970166922e-04 2.577441371977329254e-02 7.593465037643909454e-03 -3.007042687386274338e-03
1.064000000000000000e+03 1.969047355651855469e+01 6.846147537231445312e+00 -5.320505052804946899e-02 -7.327497601509094238e-01 -2.357864528894424438e-01 1.162424311041831970e-01
1.065000000000000000e+03 1.832397842407226562e+01 1.237965583801269531e+01 -1.867665946483612061e-01 -5.637750029563903809e-01 -2.251624763011932373e-01 1.921529173851013184e-01
1.066000000000000000e+03 1.506587982177734375e+01 1.765520858764648438e+01 -4.656761884689331055e-01 -3.712714612483978271e-01 -2.510842978954315186e-01 2.803409397602081299e-01
1.067000000000000000e+03 1.894924736022949219e+01 8.423288464546203613e-01 2.430450869724154472e-03 -6.905772089958190918e-01 -2.064440250396728516e-01 7.387288659811019897e-02
1.068000000000000000e+03 2.010197257995605469e+01 9.772087335586547852e-01 9.358314797282218933e-03 -5.233490467071533203e-01 -1.541972160339355469e-01 1.944144964218139648e-01
1.069000000000000000e+03 1.783257293701171875e+01 1.378088092803955078e+01 -2.611024379730224609e-01 -4.565661251544952393e-01 -2.153005599975585938e-01 2.233435660600662231e-01
1.070000000000000000e+03 2.212613868713378906e+01 -1.828218460083007812e+00 -3.375861421227455139e-02 -1.844532042741775513e-01 -6.546355038881301880e-02 3.229918479919433594e-01
1.071000000000000000e+03 1.891409873962402344e+01 -1.766055226325988770e+00 7.839960744604468346e-04 -3.304139673709869385e-01 -9.888898581266403198e-02 6.739485263824462891e-02
1.072000000000000000e+03 3.441603422164916992e+00 -1.704780960083007812e+01 -3.966737538576126099e-02 -3.994004055857658386e-02 -2.388222515583038330e-02 -1.777722267434000969e-03
1.073000000000000000e+03 7.031514048576354980e-01 -1.753763008117675781e+01 -4.315218422561883926e-03 4.838609322905540466e-02 1.322126202285289764e-02 2.065887674689292908e-03
1.074000000000000000e+03 1.267185115814208984e+01 -1.817930603027343750e+01 -7.669606804847717285e-01 -6.423566937446594238e-01 -4.227952063083648682e-01 -5.374929308891296387e-01
1.075000000000000000e+03 1.023298168182373047e+01 -2.518262147903442383e+00 -1.950680780282709748e-05 -1.230811176355928183e-04 -4.277637708582915366e-05 5.960423150099813938e-04
1.076000000000000000e+03 1.646842193603515625e+01 -1.044234275817871094e+01 -3.528150022029876709e-01 -6.265720129013061523e-01 -2.938160896301269531e-01 -4.820567667484283447e-01
1.077000000000000000e+03 1.729096221923828125e+01 -1.125297451019287109e+01 -5.208191275596618652e-01 -3.879364132881164551e-01 -2.726266682147979736e-01 -5.444884300231933594e-01
1.078000000000000000e+03 1.576759719848632812e+01 -1.158878135681152344e+01 -4.621500670909881592e-01 -8.332004547119140625e-01 -3.886051774024963379e-01 -6.150016784667968750e-01
1.079000000000000000e+03 2.165486335754394531e+01 -9.060270309448242188e+00 -7.190659642219543457e-01 7.152032107114791870e-02 -1.942636966705322266e-01 -4.111475050449371338e-01
1.080000000000000000e+03 1.350797080993652344e+01 -1.698656845092773438e+01 -7.917109727859497070e-01 -6.942126154899597168e-01 -4.457770884037017822e-01 -6.652371287345886230e-01
1.081000000000000000e+03 1.663287162780761719e+01 -1.233838748931884766e+01 -5.906277894973754883e-01 -5.200250744819641113e-01 -3.331958651542663574e-01 -5.991761684417724609e-01
1.082000000000000000e+03 1.363843059539794922e+01 -3.807762384414672852e+00 6.355392542900517583e-05 -4.681397404056042433e-04 -1.213757495861500502e-04 -2.458185190334916115e-05
1.083000000000000000e+03 1.593510246276855469e+01 -1.350013923645019531e+01 -6.623057126998901367e-01 -6.154967546463012695e-01 -3.833407461643218994e-01 -6.328913569450378418e-01
1.084000000000000000e+03 1.517578125000000000e+01 -1.468571853637695312e+01 -6.922326683998107910e-01 -6.847767829895019531e-01 -4.131028354167938232e-01 -6.486346125602722168e-01
1.085000000000000000e+03 1.051781463623046875e+01 -9.216812133789062500e+00 -1.355644082650542259e-03 -1.100193709135055542e-03 -7.367513026110827923e-04 8.839159272611141205e-04
1.086000000000000000e+03 9.614016532897949219e+00 -8.713768959045410156e+00 4.302349407225847244e-04 1.420308370143175125e-03 5.551630165427923203e-04 -1.065185642801225185e-03
1.087000000000000000e+03 1.116379356384277344e+01 -6.665051937103271484e+00 4.381355829536914825e-04 6.594738224521279335e-04 3.292828332632780075e-04 -6.964984349906444550e-04
1.088000000000000000e+03 1.042917442321777344e+01 -7.682467460632324219e+00 -3.574343572836369276e-04 -1.240872312337160110e-03 -4.794920096173882484e-04 8.297296590171754360e-04
1.089000000000000000e+03 1.815090894699096680e+00 -1.066214084625244141e+01 5.876522627659142017e-04 8.101308485493063927e-04 4.193349159322679043e-04 2.581165404990315437e-03
1.090000000000000000e+03 8.125677108764648438e+00 -1.263199138641357422e+01 3.219340229406952858e-03 6.000001449137926102e-03 2.765802433714270592e-03 -2.832899568602442741e-03
1.091000000000000000e+03 1.033227348327636719e+01 -4.120031833648681641e+00 -1.406005030730739236e-04 8.197383722290396690e-04 2.037413505604490638e-04 -4.244111769367009401e-04
1.092000000000000000e+03 7.800061035156250000e+01 3.215562438964843750e+01 -7.671262603253126144e-03 9.080061912536621094e+00 2.721717119216918945e+00 7.307244092226028442e-02
1.093000000000000000e+03 7.909616088867187500e+01 3.622698974609375000e+01 8.983368985354900360e-03 9.317587852478027344e+00 2.797971248626708984e+00 7.652871776372194290e-03
1.094000000000000000e+03 7.935539245605468750e+01 -2.765203857421875000e+01 -1.360309979645535350e-04 7.630578994750976562e+00 2.289132833480834961e+00 -5.456938967108726501e-02
1.095000000000000000e+03 7.702069091796875000e+01 -3.801194000244140625e+01 -3.845220059156417847e-02 8.080787658691406250e+00 2.412700653076171875e+00 -5.779128521680831909e-02
1.096000000000000000e+03 7.922691345214843750e+01 -3.461343765258789062e+01 -8.799768984317779541e-03 8.077466964721679688e+00 2.420599937438964844e+00 -3.401635959744453430e-02
1.097000000000000000e+03 7.936112213134765625e+01 -2.073195838928222656e+01 -1.762850588420405984e-04 7.016853332519531250e+00 2.105003118515014648e+00 -5.845448374748229980e-02
1.098000000000000000e+03 7.807627105712890625e+01 -2.722597312927246094e+01 -7.489474490284919739e-03 7.589419364929199219e+00 2.274579048156738281e+00 -1.530316025018692017e-01
1.099000000000000000e+03 7.810973358154296875e+01 -2.585152244567871094e+01 -3.576227696612477303e-03 7.488097667694091797e+00 2.245356559753417969e+00 -1.588319540023803711e-01
1.100000000000000000e+03 7.931231689453125000e+01 -3.043416595458984375e+01 -5.388076533563435078e-04 7.839971542358398438e+00 2.351829767227172852e+00 -5.014638975262641907e-02
1.101000000000000000e+03 7.777044677734375000e+01 -3.277428436279296875e+01 -1.461093593388795853e-02 7.917539596557617188e+00 2.370878696441650391e+00 -1.209137216210365295e-01
1.102000000000000000e+03 7.492019653320312500e+01 -3.814618682861328125e+01 -7.244752347469329834e-02 7.992843151092529297e+00 2.376118659973144531e+00 -1.188220456242561340e-01
1.103000000000000000e+03 7.631621551513671875e+01 -3.924245071411132812e+01 -3.418421745300292969e-02 8.099158287048339844e+00 2.419492244720458984e+00 -6.417570263147354126e-02
1.104000000000000000e+03 7.805855560302734375e+01 1.441828632354736328e+01 -3.208226058632135391e-03 7.897576808929443359e+00 2.368310689926147461e+00 2.034066915512084961e-01
1.105000000000000000e+03 7.935916137695312500e+01 1.549236392974853516e+01 -7.732583617325872183e-05 8.029624938964843750e+00 2.408864259719848633e+00 7.351773977279663086e-02
1.106000000000000000e+03 7.791657257080078125e+01 2.140489196777343750e+01 -8.670259267091751099e-03 8.480032920837402344e+00 2.541408777236938477e+00 1.740095913410186768e-01
1.107000000000000000e+03 7.930561065673828125e+01 2.247397804260253906e+01 -7.969349971972405910e-04 8.669140815734863281e+00 2.600503206253051758e+00 6.212105974555015564e-02
1.108000000000000000e+03 7.805664062500000000e+01 3.084088134765625000e+01 -6.102082319557666779e-03 9.039551734924316406e+00 2.710034847259521484e+00 7.949877530336380005e-02
1.109000000000000000e+03 7.935444641113281250e+01 2.798504829406738281e+01 -6.484634242951869965e-03 9.053200721740722656e+00 2.714014768600463867e+00 4.196799919009208679e-02
1.110000000000000000e+03 7.790744018554687500e+01 2.559451866149902344e+01 -1.082903146743774414e-02 8.757863998413085938e+00 2.624110460281372070e+00 1.436049193143844604e-01
1.111000000000000000e+03 7.788988494873046875e+01 2.421621322631835938e+01 -9.896655566990375519e-03 8.667191505432128906e+00 2.597188472747802734e+00 1.539918333292007446e-01
1.112000000000000000e+03 7.802477264404296875e+01 1.857961273193359375e+01 -7.492686621844768524e-03 8.267349243164062500e+00 2.477957010269165039e+00 1.845205873250961304e-01
1.113000000000000000e+03 7.808818054199218750e+01 1.580066490173339844e+01 -6.161272060126066208e-03 8.024963378906250000e+00 2.405640602111816406e+00 1.948979198932647705e-01
1.114000000000000000e+03 7.807897949218750000e+01 1.718709754943847656e+01 -4.875190090388059616e-03 8.149231910705566406e+00 2.443306922912597656e+00 1.888093203306198120e-01
1.115000000000000000e+03 7.802359008789062500e+01 1.303104400634765625e+01 -3.326849546283483505e-03 7.767365455627441406e+00 2.329211473464965820e+00 2.102502882480621338e-01
1.116000000000000000e+03 7.661575317382812500e+01 1.054526996612548828e+01 1.248024986125528812e-03 7.567272186279296875e+00 2.270556211471557617e+00 3.380145132541656494e-01
1.117000000000000000e+03 7.799194335937500000e+01 8.853916168212890625e+00 3.537628101184964180e-03 7.372835636138916016e+00 2.212912082672119141e+00 2.145806699991226196e-01
1.118000000000000000e+03 7.933398437500000000e+01 9.924166679382324219e+00 7.266612374223768711e-04 7.430659294128417969e+00 2.229415893554687500e+00 7.925744354724884033e-02
1.119000000000000000e+03 7.934490203857421875e+01 -1.377543163299560547e+01 3.063545096665620804e-03 6.466974735260009766e+00 1.941011428833007812e+00 -3.961730748414993286e-02
1.120000000000000000e+03 7.933892059326171875e+01 -6.812804222106933594e+00 5.238873884081840515e-03 6.248457908630371094e+00 1.876109004020690918e+00 4.271002020686864853e-03
1.121000000000000000e+03 7.935317230224609375e+01 -1.934426116943359375e+01 1.102937501855194569e-03 6.894046783447265625e+00 2.068544864654541016e+00 -5.782248079776763916e-02
1.122000000000000000e+03 7.801596069335937500e+01 4.539001882076263428e-01 1.732852682471275330e-02 6.686783313751220703e+00 2.011233568191528320e+00 1.381627470254898071e-01
1.123000000000000000e+03 7.933762359619140625e+01 1.551315069198608398e+00 3.844556165859103203e-03 6.604902267456054688e+00 1.982624053955078125e+00 5.742579698562622070e-02
1.124000000000000000e+03 7.666861724853515625e+01 6.303621768951416016e+00 1.789159700274467468e-02 7.221621513366699219e+00 2.171854019165039062e+00 3.144063055515289307e-01
1.125000000000000000e+03 7.808920288085937500e+01 2.952305603027343750e+01 -1.423993334174156189e-02 8.981931686401367188e+00 2.690307378768920898e+00 9.229823946952819824e-02
1.126000000000000000e+03 7.496912384033203125e+01 3.757363510131835938e+01 -5.692049860954284668e-02 8.871285438537597656e+00 2.644309520721435547e+00 8.739397674798965454e-02
1.127000000000000000e+03 7.699125671386718750e+01 3.747367095947265625e+01 -9.795281104743480682e-03 9.074014663696289062e+00 2.719265699386596680e+00 2.148665860295295715e-02
1.128000000000000000e+03 7.190117645263671875e+01 3.791757965087890625e+01 -9.985889494419097900e-02 8.542428016662597656e+00 2.532770633697509766e+00 1.049961000680923462e-01
1.129000000000000000e+03 7.799185180664062500e+01 1.025234317779541016e+01 -4.109702131245285273e-04 7.505013942718505859e+00 2.251380920410156250e+00 2.172656953334808350e-01
1.130000000000000000e+03 7.668301391601562500e+01 -6.918129324913024902e-01 4.627041146159172058e-02 6.771855831146240234e+00 2.045437812805175781e+00 1.860676705837249756e-01
1.131000000000000000e+03 7.800867462158203125e+01 3.240202903747558594e+00 1.336675044149160385e-02 6.880578517913818359e+00 2.068183660507202148e+00 1.751753091812133789e-01
1.132000000000000000e+03 7.801625823974609375e+01 -9.347471594810485840e-01 1.825842261314392090e-02 6.608794689178466797e+00 1.988115906715393066e+00 1.168017536401748657e-01
1.133000000000000000e+03 7.933799743652343750e+01 -2.626165151596069336e+00 3.640251932665705681e-03 6.345084667205810547e+00 1.904617547988891602e+00 3.348578140139579773e-02
1.134000000000000000e+03 7.802362060546875000e+01 -7.917708396911621094e+00 2.208301238715648651e-02 6.449597835540771484e+00 1.941504240036010742e+00 -1.455713436007499695e-02
1.135000000000000000e+03 7.801305389404296875e+01 -5.128324031829833984e+00 2.270078286528587341e-02 6.465031147003173828e+00 1.946319699287414551e+00 3.971173986792564392e-02
1.136000000000000000e+03 7.934372711181640625e+01 -9.596675872802734375e+00 4.823846276849508286e-03 6.281494617462158203e+00 1.885895490646362305e+00 -1.489202305674552917e-02
1.137000000000000000e+03 7.803482055664062500e+01 -1.486577510833740234e+01 1.356544066220521927e-02 6.687173843383789062e+00 2.010221958160400391e+00 -1.280901283025741577e-01
1.138000000000000000e+03 7.803133392333984375e+01 -1.208546733856201172e+01 1.786139793694019318e-02 6.549829006195068359e+00 1.970307111740112305e+00 -8.889437466859817505e-02
1.139000000000000000e+03 7.934614562988281250e+01 -1.655934524536132812e+01 2.163249999284744263e-03 6.662788391113281250e+00 1.999485492706298828e+00 -5.146783962845802307e-02
1.140000000000000000e+03 7.807645416259765625e+01 -2.041411781311035156e+01 3.515734802931547165e-03 7.067077636718750000e+00 2.121177911758422852e+00 -1.656741797924041748e-01
1.141000000000000000e+03 7.805408477783203125e+01 -1.903724670410156250e+01 5.335751455277204514e-03 6.964502811431884766e+00 2.090951681137084961e+00 -1.611730605363845825e-01
1.142000000000000000e+03 7.504257202148437500e+00 1.998276710510253906e+01 -3.597437143325805664e-01 -1.154425088316202164e-02 -1.113863885402679443e-01 1.891009807586669922e-01
1.143000000000000000e+03 8.945235252380371094e+00 1.886434555053710938e+01 -5.143648386001586914e-01 -8.315173536539077759e-02 -1.792549788951873779e-01 1.180214956402778625e-01
1.144000000000000000e+03 1.314592123031616211e+00 -4.013112640380859375e+01 3.214476630091667175e-02 -1.167854785919189453e+00 -3.407129943370819092e-01 2.694187499582767487e-02
1.145000000000000000e+03 7.950911521911621094e-01 3.736842727661132812e+01 1.348287612199783325e-02 -7.644391655921936035e-01 -2.252868860960006714e-01 -2.652984810993075371e-03
1.146000000000000000e+03 7.335346937179565430e-01 3.460833740234375000e+01 3.748724237084388733e-03 -7.344421148300170898e-01 -2.192080169916152954e-01 1.320295501500368118e-02
1.147000000000000000e+03 7.195933461189270020e-01 3.321529769897460938e+01 7.308410480618476868e-03 -6.998014450073242188e-01 -2.077479064464569092e-01 2.343640848994255066e-02
1.148000000000000000e+03 6.307001113891601562e-01 2.760155487060546875e+01 2.035477664321660995e-03 -4.124269485473632812e-01 -1.231174394488334656e-01 4.035291448235511780e-02
1.149000000000000000e+03 6.187503933906555176e-01 2.618719673156738281e+01 -2.703882928472012281e-04 -3.181079030036926270e-01 -9.551349282264709473e-02 4.253281280398368835e-02
1.150000000000000000e+03 8.516603708267211914e-01 -3.598482513427734375e+01 1.155543792992830276e-02 -1.182042598724365234e+00 -3.511461317539215088e-01 -1.648458465933799744e-02
1.151000000000000000e+03 2.245984792709350586e+00 -3.297760772705078125e+01 2.883010916411876678e-02 -9.030435085296630859e-01 -2.622640132904052734e-01 -1.232383698225021362e-01
1.152000000000000000e+03 3.045196056365966797e+00 2.595509147644042969e+01 -8.754162117838859558e-04 -2.543902397155761719e-01 -7.657969743013381958e-02 1.671337187290191650e-01
1.153000000000000000e+03 2.988293170928955078e+00 2.457901000976562500e+01 -6.466454826295375824e-03 -2.039902061223983765e-01 -6.313700228929519653e-02 1.634902656078338623e-01
1.154000000000000000e+03 2.232146978378295898e+00 3.437590789794921875e+01 2.220209315419197083e-02 -6.042503118515014648e-01 -1.746144592761993408e-01 5.987827479839324951e-02
1.155000000000000000e+03 2.187951803207397461e+00 3.301257705688476562e+01 1.797940582036972046e-02 -5.582159161567687988e-01 -1.620709598064422607e-01 7.455675303936004639e-02
1.156000000000000000e+03 2.619469165802001953e+00 3.802983093261718750e+01 3.357247635722160339e-02 -6.251609921455383301e-01 -1.774765402078628540e-01 8.313041180372238159e-03
1.157000000000000000e+03 3.574050903320312500e+00 3.901224899291992188e+01 2.499206364154815674e-02 -6.071866154670715332e-01 -1.746583580970764160e-01 3.339993208646774292e-02
1.158000000000000000e+03 2.079332351684570312e+00 -3.026480293273925781e+01 1.776325143873691559e-02 -7.694799900054931641e-01 -2.255150228738784790e-01 -1.553119868040084839e-01
1.159000000000000000e+03 2.063054561614990234e+00 -2.748850822448730469e+01 1.105324178934097290e-02 -5.828207135200500488e-01 -1.715302467346191406e-01 -1.815971732139587402e-01
1.160000000000000000e+03 2.677323341369628906e+00 -3.698604202270507812e+01 3.712290525436401367e-02 -1.033408880233764648e+00 -2.988857924938201904e-01 -6.044774502515792847e-02
1.161000000000000000e+03 5.464905738830566406e+00 -1.787267303466796875e+01 -1.972799003124237061e-01 -3.748190402984619141e-02 -7.042854279279708862e-02 -2.564296871423721313e-02
1.162000000000000000e+03 5.888699889183044434e-01 2.051763153076171875e+01 -5.738187115639448166e-03 -7.344829849898815155e-03 -3.924905322492122650e-03 1.535867061465978622e-02
1.163000000000000000e+03 6.262713074684143066e-01 1.909527015686035156e+01 -1.879216986708343029e-03 1.818805932998657227e-02 4.892652388662099838e-03 6.229353137314319611e-03
1.164000000000000000e+03 6.291360259056091309e-01 1.481339836120605469e+01 7.537983037764206529e-05 1.858773455023765564e-02 5.598934367299079895e-03 -3.486151807010173798e-03
1.165000000000000000e+03 6.100321412086486816e-01 1.341381072998046875e+01 5.989188211970031261e-04 1.128753274679183960e-02 3.565935418009757996e-03 -2.870320342481136322e-03
1.166000000000000000e+03 4.956398308277130127e-01 7.826465606689453125e+00 -3.820174024440348148e-04 4.504111420828849077e-04 2.051812407444231212e-05 -1.482914958614856005e-04
1.167000000000000000e+03 6.888857483863830566e-01 -1.898771476745605469e+01 -9.261700324714183807e-03 3.279868513345718384e-02 7.061095442622900009e-03 -1.315572857856750488e-02
1.168000000000000000e+03 1.780310511589050293e+00 -9.200952529907226562e+00 1.871610642410814762e-03 -2.272982674185186625e-04 4.932937445119023323e-04 1.246515079401433468e-03
1.169000000000000000e+03 3.392220735549926758e+00 -3.935070037841796875e+01 2.682334743440151215e-02 -1.051821827888488770e+00 -3.074995279312133789e-01 -4.596723988652229309e-02
1.170000000000000000e+03 4.304600238800048828e+00 -3.811525726318359375e+01 7.106848806142807007e-02 -8.940014243125915527e-01 -2.468798756599426270e-01 -1.262923628091812134e-01
1.171000000000000000e+03 4.425651550292968750e+00 -3.670304107666015625e+01 8.205632865428924561e-02 -7.998855113983154297e-01 -2.153487503528594971e-01 -1.212831065058708191e-01
1.172000000000000000e+03 2.400468587875366211e+00 -3.431673049926757812e+01 2.640523947775363922e-02 -9.446976184844970703e-01 -2.754877209663391113e-01 -1.004682704806327820e-01
1.173000000000000000e+03 2.133806943893432617e+00 -3.162638854980468750e+01 1.560186315327882767e-02 -8.424242138862609863e-01 -2.480466961860656738e-01 -1.398910731077194214e-01
1.174000000000000000e+03 3.433999538421630859e+00 -2.741694831848144531e+01 2.124539203941822052e-02 -5.445320606231689453e-01 -1.569859981536865234e-01 -2.720748782157897949e-01
1.175000000000000000e+03 2.045536518096923828e+00 -2.461242675781250000e+01 -5.736195947974920273e-03 -3.668424785137176514e-01 -1.117736026644706726e-01 -1.849543750286102295e-01
1.176000000000000000e+03 2.063155651092529297e+00 -2.606006431579589844e+01 8.396724006161093712e-04 -4.759399294853210449e-01 -1.425300687551498413e-01 -1.896303445100784302e-01
1.177000000000000000e+03 6.754395961761474609e-01 -2.044129562377929688e+01 -8.696559816598892212e-03 -1.868794672191143036e-02 -8.215351961553096771e-03 -3.174343705177307129e-02
1.178000000000000000e+03 3.243963956832885742e+00 -2.149885749816894531e+01 -7.410740107297897339e-02 -1.807294934988021851e-01 -7.645107060670852661e-02 -2.057814747095108032e-01
1.179000000000000000e+03 2.027462005615234375e+00 -1.563671302795410156e+01 -1.351219834759831429e-03 -2.309706993401050568e-03 -1.098278095014393330e-03 1.432323176413774490e-02
1.180000000000000000e+03 1.609396576881408691e+00 -1.200744915008544922e+01 3.223546314984560013e-03 3.128035226836800575e-03 1.905474462546408176e-03 4.963414743542671204e-03
1.181000000000000000e+03 5.303146243095397949e-01 -1.204391098022460938e+01 -1.696292427368462086e-03 5.502510815858840942e-03 1.141865504905581474e-03 1.250547240488231182e-03
1.182000000000000000e+03 8.752270698547363281e+00 -9.782960891723632812e+00 -2.951747446786612272e-04 -1.692726276814937592e-03 -5.963703151792287827e-04 1.129565993323922157e-03
1.183000000000000000e+03 5.115139484405517578e+00 -3.557873487472534180e+00 8.942886779550462961e-05 -5.242967017693445086e-05 1.109975892177317291e-05 3.218821366317570210e-04
1.184000000000000000e+03 3.483708620071411133e+00 -2.880985975265502930e+00 -1.077454508049413562e-04 1.193145453726174310e-05 -2.874419988074805588e-05 -3.904146433342248201e-04
1.185000000000000000e+03 2.717218637466430664e+00 -2.944792032241821289e+00 2.118458942277356982e-04 -6.387408939190208912e-05 4.439154145075008273e-05 1.875502639450132847e-04
1.186000000000000000e+03 1.297259688377380371e+00 -3.215149641036987305e+00 1.159362273028818890e-05 1.973711623577401042e-04 6.268943980103358626e-05 1.538872602395713329e-04
1.187000000000000000e+03 4.474996924400329590e-01 5.056966304779052734e+00 -3.597970353439450264e-04 -8.230090315919369459e-05 -1.326293859165161848e-04 -5.983635128359310329e-05
1.188000000000000000e+03 1.592321038246154785e+00 1.045517730712890625e+01 1.735553494654595852e-03 1.372476806864142418e-03 9.324090788140892982e-04 -1.603307435289025307e-03
1.189000000000000000e+03 5.315691232681274414e-01 1.061928081512451172e+01 -2.181261334044393152e-05 2.714119851589202881e-03 8.076921221800148487e-04 -8.864447590894997120e-04
1.190000000000000000e+03 1.868120431900024414e+00 1.317333984375000000e+01 2.722448436543345451e-03 2.391534624621272087e-03 1.534194918349385262e-03 -5.686498247087001801e-03
1.191000000000000000e+03 1.913661479949951172e+00 1.456838798522949219e+01 6.536706932820379734e-04 2.727665472775697708e-03 1.014400855638086796e-03 -7.649894803762435913e-03
1.192000000000000000e+03 1.887158870697021484e+00 1.600334167480468750e+01 -2.749746665358543396e-03 2.211844548583030701e-03 -1.613706408534198999e-04 -5.385119002312421799e-03
1.193000000000000000e+03 1.830461502075195312e+00 2.464194107055664062e+01 -8.520266041159629822e-03 -2.128933221101760864e-01 -6.642407923936843872e-02 1.132202371954917908e-01
1.194000000000000000e+03 9.362397193908691406e+00 1.100642967224121094e+01 1.650235499255359173e-04 1.498512458056211472e-03 4.990607849322259426e-04 1.353609259240329266e-03
1.195000000000000000e+03 1.246368408203125000e+01 8.451375007629394531e+00 1.182970823720097542e-03 9.567197994329035282e-04 6.419072160497307777e-04 8.415202028118073940e-04
1.196000000000000000e+03 1.468204307556152344e+01 4.923536777496337891e+00 1.029515988193452358e-03 1.513694587629288435e-05 3.133958671241998672e-04 9.558824967825785279e-05
1.197000000000000000e+03 1.182209396362304688e+01 2.572486877441406250e+00 4.825130454264581203e-04 1.126380375353619456e-04 1.785453205229714513e-04 2.160382136935368180e-04
1.198000000000000000e+03 1.039184188842773438e+01 1.339477539062500000e+01 -2.353606978431344032e-03 7.298371056094765663e-04 -4.871309793088585138e-04 -2.128669060766696930e-03
1.199000000000000000e+03 8.498764991760253906e+00 1.030237674713134766e+01 1.410460390616208315e-04 1.034282380715012550e-03 3.525985230226069689e-04 3.882921300828456879e-04
1.200000000000000000e+03 8.451623916625976562e+00 1.380758762359619141e+01 -3.939088433980941772e-03 1.035303995013237000e-02 1.924185431562364101e-03 -1.845667487941682339e-03
1.201000000000000000e+03 1.177597045898437500e+01 3.357036828994750977e+00 -5.889511667191982269e-04 -2.133197704097256064e-04 -2.406812855042517185e-04 -4.414911090862005949e-04
1.202000000000000000e+03 7.901821613311767578e+00 -1.091891384124755859e+01 1.120997549151070416e-04 4.420737270265817642e-03 1.359851099550724030e-03 -2.223256509751081467e-03
1.203000000000000000e+03 4.043370056152343750e+01 -8.600557327270507812e+00 2.545006275177001953e+00 1.053637599945068359e+01 3.924414634704589844e+00 6.088428020477294922e+00
1.204000000000000000e+03 4.107353973388671875e+01 -8.214964866638183594e+00 2.014838457107543945e+00 1.685081291198730469e+01 5.659695625305175781e+00 5.459568500518798828e+00
1.205000000000000000e+03 3.985972595214843750e+01 -8.220509529113769531e+00 3.641068458557128906e+00 5.602036476135253906e+00 2.772931575775146484e+00 5.400390148162841797e+00
1.206000000000000000e+03 4.087876510620117188e+01 -8.235048294067382812e+00 2.364616632461547852e+00 1.484352397918701172e+01 5.162442207336425781e+00 6.238669395446777344e+00
1.207000000000000000e+03 3.958358383178710938e+01 -4.911564826965332031e+00 4.207259178161621094e+00 4.029897212982177734e+00 2.471146821975708008e+00 -4.696958541870117188e+00
1.208000000000000000e+03 4.038860702514648438e+01 -4.912067413330078125e+00 4.143646717071533203e+00 9.820115089416503906e+00 4.189128398895263672e+00 -6.845930099487304688e+00
1.209000000000000000e+03 3.979614639282226562e+01 -4.904590606689453125e+00 4.438533782958984375e+00 5.213532447814941406e+00 2.895619869232177734e+00 -5.445615291595458984e+00
1.210000000000000000e+03 3.889649200439453125e+01 -4.718365192413330078e+00 3.258441925048828125e+00 2.268636941909790039e+00 1.658123612403869629e+00 -3.231654167175292969e+00
1.211000000000000000e+03 3.874263763427734375e+01 -4.756054878234863281e+00 2.940007209777832031e+00 1.851210236549377441e+00 1.437365174293518066e+00 -2.836214303970336914e+00
1.212000000000000000e+03 4.162118911743164062e+01 -4.951038837432861328e+00 2.588712215423583984e+00 2.013145065307617188e+01 6.816049098968505859e+00 -2.282652378082275391e+00
1.213000000000000000e+03 4.119849777221679688e+01 -4.877336978912353516e+00 2.362392663955688477e+00 1.772431182861328125e+01 6.026011466979980469e+00 -4.874774932861328125e+00
1.214000000000000000e+03 4.098641586303710938e+01 -4.906237125396728516e+00 2.750623703002929688e+00 1.638441276550292969e+01 5.740510940551757812e+00 -6.082241058349609375e+00
1.215000000000000000e+03 4.151257324218750000e+01 -8.196174621582031250e+00 1.852736473083496094e+00 1.943180084228515625e+01 6.385361194610595703e+00 2.861920833587646484e+00
1.216000000000000000e+03 4.299620819091796875e+01 -6.196661949157714844e+00 1.068072986602783203e+01 1.564598941802978516e+01 7.898015499114990234e+00 9.876202344894409180e-01
1.217000000000000000e+03 4.279505157470703125e+01 -5.167042732238769531e+00 5.953788757324218750e+00 1.704613685607910156e+01 6.899977207183837891e+00 1.965438485145568848e+00
1.218000000000000000e+03 4.325021362304687500e+01 -6.181530952453613281e+00 9.923512458801269531e+00 1.470295238494873047e+01 7.387939453125000000e+00 8.387240171432495117e-01
1.219000000000000000e+03 4.217842483520507812e+01 -5.074470520019531250e+00 4.472386837005615234e+00 1.969105339050292969e+01 7.249032020568847656e+00 8.789445757865905762e-01
1.220000000000000000e+03 4.263305664062500000e+01 -7.227713584899902344e+00 9.824687004089355469e+00 1.770285606384277344e+01 8.258262634277343750e+00 -2.562031507492065430e+00
1.221000000000000000e+03 4.300677871704101562e+01 -7.046278476715087891e+00 1.006187057495117188e+01 1.580968856811523438e+01 7.761467456817626953e+00 -1.762203574180603027e+00
1.222000000000000000e+03 4.299306106567382812e+01 -5.748436450958251953e+00 8.944089889526367188e+00 1.597634506225585938e+01 7.476130485534667969e+00 2.020804166793823242e+00
1.223000000000000000e+03 3.848931884765625000e+01 -9.099968910217285156e+00 2.186904668807983398e+00 2.597325801849365234e+00 1.435269117355346680e+00 3.188308954238891602e+00
1.224000000000000000e+03 3.576953125000000000e+01 -3.906718969345092773e+00 9.648708701133728027e-01 5.423281192779541016e-01 4.521597027778625488e-01 -8.827159404754638672e-01
1.225000000000000000e+03 3.690039443969726562e+01 -3.895145654678344727e+00 1.693036675453186035e+00 1.018255829811096191e+00 8.133877515792846680e-01 -1.585427522659301758e+00
1.226000000000000000e+03 3.516065597534179688e+01 -3.905019760131835938e+00 6.949433684349060059e-01 4.073715507984161377e-01 3.306944668292999268e-01 -6.347109675407409668e-01
1.227000000000000000e+03 2.133804512023925781e+01 -2.060808658599853516e+00 -3.656113892793655396e-02 -2.165732085704803467e-01 -7.594030350446701050e-02 2.831296920776367188e-01
1.228000000000000000e+03 2.073536872863769531e+01 -2.611385583877563477e+00 -3.610453754663467407e-02 -2.145541161298751831e-01 -7.519759237766265869e-02 2.362934499979019165e-01
1.229000000000000000e+03 2.381921958923339844e+01 -3.189692258834838867e+00 -1.633899509906768799e-01 -6.974828243255615234e-02 -6.994146853685379028e-02 3.390793502330780029e-01
1.230000000000000000e+03 2.592817687988281250e+01 -4.149258613586425781e+00 -3.809717893600463867e-01 -3.704310394823551178e-03 -1.154028326272964478e-01 3.105462193489074707e-01
1.231000000000000000e+03 1.791305351257324219e+01 -8.706636428833007812e+00 -2.959542870521545410e-01 -2.108135521411895752e-01 -1.520303487777709961e-01 -2.987245023250579834e-01
1.232000000000000000e+03 3.026819038391113281e+01 -4.316433906555175781e+00 -5.020702481269836426e-01 6.506681442260742188e-02 -1.311010420322418213e-01 1.895213872194290161e-01
1.233000000000000000e+03 2.670070648193359375e+01 -3.528900861740112305e+00 -2.728114128112792969e-01 2.381405420601367950e-02 -7.469920814037322998e-02 3.158511221408843994e-01
1.234000000000000000e+03 3.883111953735351562e+00 2.703092813491821289e+00 -1.790705573512241244e-04 -2.585823240224272013e-04 -1.312958629569038749e-04 1.224588195327669382e-04
1.235000000000000000e+03 4.594213008880615234e+00 2.656122207641601562e+00 2.679284370969980955e-04 3.139782929793000221e-04 1.745720219332724810e-04 -1.154402343672700226e-04
1.236000000000000000e+03 6.012270927429199219e+00 2.587980508804321289e+00 2.249259559903293848e-04 3.717466897796839476e-04 1.790017995517700911e-04 -1.101655379898147658e-05
1.237000000000000000e+03 5.283690929412841797e+00 3.369078874588012695e+00 3.333000058773905039e-04 3.444666508585214615e-04 2.033299970207735896e-04 -1.052320294547826052e-04
1.238000000000000000e+03 5.977987289428710938e+00 3.315602779388427734e+00 -4.337041536928154528e-05 -4.307429771870374680e-04 -1.422340137651190162e-04 2.121356737916357815e-05
1.239000000000000000e+03 1.029160976409912109e+01 2.602030038833618164e+00 3.135918814223259687e-04 3.606074315030127764e-04 2.022597909672185779e-04 2.823402464855462313e-04
1.240000000000000000e+03 7.349817276000976562e+00 3.302566528320312500e+00 -1.025623787427321076e-04 -4.936369950883090496e-04 -1.788598165148869157e-04 -6.101335020503029227e-05
1.241000000000000000e+03 6.667397499084472656e+00 3.297547817230224609e+00 3.043423348572105169e-04 4.224979493301361799e-04 2.180520823458209634e-04 7.120650116121396422e-05
1.242000000000000000e+03 4.591011047363281250e+00 3.450699806213378906e+00 -1.577773218741640449e-04 -3.013489185832440853e-04 -1.377378794131800532e-04 8.476635412080213428e-05
1.243000000000000000e+03 1.867247819900512695e+00 2.668597459793090820e+00 2.168886858271434903e-04 1.876114693004637957e-04 1.213500436278991401e-04 1.384634088026359677e-04
1.244000000000000000e+03 1.019458675384521484e+01 3.372061967849731445e+00 -2.652971597854048014e-04 -4.927658010274171829e-04 -2.274188882438465953e-04 -3.185608948115259409e-04
1.245000000000000000e+03 2.527169227600097656e+01 -3.378559589385986328e+00 -2.230728715658187866e-01 -1.607883907854557037e-02 -7.174551486968994141e-02 3.394206464290618896e-01
1.246000000000000000e+03 2.233133888244628906e+01 -2.493297815322875977e+00 -7.124818116426467896e-02 -1.498368382453918457e-01 -6.632550805807113647e-02 3.184680342674255371e-01
1.247000000000000000e+03 2.170035743713378906e+01 -2.639292716979980469e+00 -6.413046270608901978e-02 -1.652610450983047485e-01 -6.881745159626007080e-02 2.895894944667816162e-01
1.248000000000000000e+03 2.105214881896972656e+01 -3.593672752380371094e+00 -8.198546618223190308e-02 -1.360929310321807861e-01 -6.542351841926574707e-02 2.230607122182846069e-01
1.249000000000000000e+03 9.546277046203613281e+00 -2.459353208541870117e+00 -3.664549149107187986e-05 7.392861152766272426e-05 1.118493582907831296e-05 -4.469341947697103024e-04
1.250000000000000000e+03 2.599030876159667969e+01 -3.464660167694091797e+00 -2.508947849273681641e-01 4.295466002076864243e-03 -7.397979497909545898e-02 3.300371766090393066e-01
1.251000000000000000e+03 2.812295341491699219e+01 -3.598378896713256836e+00 -2.867370545864105225e-01 5.611300095915794373e-02 -6.918721646070480347e-02 2.718101143836975098e-01
1.252000000000000000e+03 3.173016166687011719e+01 -4.353529930114746094e+00 -4.419041275978088379e-01 8.429242670536041260e-02 -1.072835102677345276e-01 9.786524623632431030e-02
1.253000000000000000e+03 2.883966255187988281e+01 -3.618304491043090820e+00 -2.773237824440002441e-01 7.065916806459426880e-02 -6.199938803911209106e-02 2.412484437227249146e-01
1.254000000000000000e+03 3.102021217346191406e+01 -3.680489063262939453e+00 -1.656684875488281250e-01 1.281853169202804565e-01 -1.124494988471269608e-02 9.491964429616928101e-02
1.255000000000000000e+03 1.154738044738769531e+01 -3.587143421173095703e+00 2.449100720696151257e-04 4.880709525423299056e-07 7.361944153672084212e-05 -4.885338712483644485e-04
1.256000000000000000e+03 1.093920993804931641e+01 -2.646362066268920898e+00 1.293547538807615638e-04 -3.881689917761832476e-05 2.716135895752813667e-05 -4.498842754401266575e-04
1.257000000000000000e+03 1.123398780822753906e+01 -4.430545330047607422e+00 -9.464212780585512519e-05 -5.665557109750807285e-04 -1.983593538170680404e-04 6.428796914406120777e-04
1.258000000000000000e+03 1.256746101379394531e+01 -2.812726259231567383e+00 8.233078551711514592e-05 -3.576987364795058966e-04 -8.261038601631298661e-05 -2.680657189557678066e-06
1.259000000000000000e+03 3.315781402587890625e+01 -3.832060098648071289e+00 8.737855404615402222e-02 2.000101059675216675e-01 8.621659874916076660e-02 -1.462751924991607666e-01
1.260000000000000000e+03 3.174904632568359375e+01 -3.717643499374389648e+00 -1.025347933173179626e-01 1.417236775159835815e-01 1.175666879862546921e-02 2.493652515113353729e-02
1.261000000000000000e+03 3.451537704467773438e+01 -3.899863243103027344e+00 4.303257167339324951e-01 3.154994547367095947e-01 2.237475514411926270e-01 -4.399553239345550537e-01
1.262000000000000000e+03 3.384130859375000000e+01 -3.879245758056640625e+00 2.357678711414337158e-01 2.550820112228393555e-01 1.472549736499786377e-01 -2.801854312419891357e-01
1.263000000000000000e+03 3.617388916015625000e+01 -9.698461532592773438e+00 7.666777968406677246e-01 8.993645310401916504e-01 4.998126924037933350e-01 1.379324793815612793e+00
1.264000000000000000e+03 3.684421920776367188e+01 -9.665984153747558594e+00 1.169286608695983887e+00 1.274606585502624512e+00 7.331679463386535645e-01 1.821293950080871582e+00
1.265000000000000000e+03 3.546986770629882812e+01 -9.752055168151855469e+00 4.319255650043487549e-01 6.436284780502319336e-01 3.226661980152130127e-01 1.019781112670898438e+00
1.266000000000000000e+03 3.474720382690429688e+01 -9.813478469848632812e+00 1.338389366865158081e-01 4.836120903491973877e-01 1.852353066205978394e-01 7.451853752136230469e-01
1.267000000000000000e+03 3.251166152954101562e+01 -9.293855667114257812e+00 -8.893359303474426270e-01 1.093836724758148193e-01 -2.339856773614883423e-01 8.990338444709777832e-02
1.268000000000000000e+03 3.401235198974609375e+01 -9.875311851501464844e+00 -9.998048096895217896e-02 3.612660765647888184e-01 7.838567346334457397e-02 5.382773280143737793e-01
1.269000000000000000e+03 3.251409149169921875e+01 -9.981324195861816406e+00 -4.533208906650543213e-01 2.131732851266860962e-01 -7.204428315162658691e-02 2.340286523103713989e-01
1.270000000000000000e+03 1.357380867004394531e+01 5.005035877227783203e+00 -9.222760563716292381e-04 -2.605634799692779779e-04 -3.548518579918891191e-04 -4.432982532307505608e-04
1.271000000000000000e+03 9.445107460021972656e+00 3.360146999359130859e+00 3.120980109088122845e-04 5.894884234294295311e-04 2.704759244807064533e-04 2.856734790839254856e-04
1.272000000000000000e+03 1.262618637084960938e+01 4.109212875366210938e+00 -8.240157039836049080e-04 -2.242739137727767229e-04 -3.144868824165314436e-04 -5.975156673230230808e-04
1.273000000000000000e+03 1.259189033508300781e+01 3.300656080245971680e+00 8.638349245302379131e-04 -6.250523438211530447e-05 2.403989055892452598e-04 2.851969911716878414e-04
1.274000000000000000e+03 3.022870063781738281e+01 -1.008254909515380859e+01 -7.490306496620178223e-01 1.077568382024765015e-01 -1.923821419477462769e-01 -5.564835295081138611e-02
1.275000000000000000e+03 3.099555969238281250e+01 -1.005624961853027344e+01 -6.754930019378662109e-01 1.318291723728179932e-01 -1.630991548299789429e-01 2.633974514901638031e-02
1.276000000000000000e+03 3.175673866271972656e+01 -1.002241420745849609e+01 -5.769270658493041992e-01 1.676478683948516846e-01 -1.227837651968002319e-01 1.196577325463294983e-01
1.277000000000000000e+03 2.791341018676757812e+01 -9.391825675964355469e+00 -1.135043859481811523e+00 3.046413883566856384e-02 -3.313739001750946045e-01 -2.403791695833206177e-01
1.278000000000000000e+03 2.945524978637695312e+01 -1.010301303863525391e+01 -8.021927475929260254e-01 8.721405267715454102e-02 -2.144936025142669678e-01 -1.252628713846206665e-01
1.279000000000000000e+03 3.746742248535156250e+01 -9.671580314636230469e+00 1.528639674186706543e+00 1.877228260040283203e+00 1.021760344505310059e+00 2.371765375137329102e+00
1.280000000000000000e+03 3.809112548828125000e+01 -9.072291374206542969e+00 1.892769932746887207e+00 1.889099836349487305e+00 1.134560942649841309e+00 2.612189769744873047e+00
1.281000000000000000e+03 9.332625389099121094e+00 4.150217056274414062e+00 -1.658586552366614342e-04 -6.897824350744485855e-04 -2.566923212725669146e-04 -1.571779575897380710e-04
1.282000000000000000e+03 1.995515251159667969e+01 -9.571059226989746094e+00 -5.836609005928039551e-01 4.712729714810848236e-03 -1.736844480037689209e-01 -4.565256237983703613e-01
1.283000000000000000e+03 1.935385894775390625e+01 -8.910052299499511719e+00 -4.863844513893127441e-01 -4.013230279088020325e-02 -1.579550206661224365e-01 -3.825400769710540771e-01
1.284000000000000000e+03 6.772074222564697266e+00 -3.532508611679077148e+00 -7.587209984194487333e-05 1.166627844213508070e-04 1.223720664711436257e-05 5.981795839034020901e-04
1.285000000000000000e+03 2.877407789230346680e+00 -7.707750797271728516e+00 7.933834567666053772e-04 -2.165481782867573202e-05 2.315185847692191601e-04 7.790567469783127308e-04
1.286000000000000000e+03 7.752894401550292969e+00 -3.950372219085693359e+00 -3.765562432818114758e-04 5.867141881026327610e-04 6.304738053586333990e-05 6.509749800898134708e-04
1.287000000000000000e+03 8.848579406738281250e+00 -2.473639488220214844e+00 -3.000234391947742552e-05 -2.638132718857377768e-05 -1.691510078671853989e-05 5.256607546471059322e-04
1.288000000000000000e+03 5.945593833923339844e+00 -3.612514734268188477e+00 -1.458049373468384147e-04 3.250265435781329870e-04 5.376647823140956461e-05 -4.302299930714070797e-04
1.289000000000000000e+03 5.862139225006103516e+00 -2.742585897445678711e+00 -3.093096529482863843e-05 -2.457813752698712051e-05 -1.665273157414048910e-05 3.826132451649755239e-04
1.290000000000000000e+03 3.735484361648559570e+00 -4.751152992248535156e+00 2.427417057333514094e-04 -2.515037776902318001e-04 -2.628621359690441750e-06 -4.050835559610277414e-04
1.291000000000000000e+03 1.987658023834228516e+00 -2.972744703292846680e+00 -2.189597871620208025e-04 -4.057371825183508918e-06 -6.690514419460669160e-05 -1.813588023651391268e-04
1.292000000000000000e+03 1.681401968002319336e+00 -4.991796970367431641e+00 -4.885303787887096405e-04 -4.081035513081587851e-06 -1.477834302932024002e-04 -3.900639130733907223e-04
1.293000000000000000e+03 2.789107513427734375e+01 -1.013326835632324219e+01 -8.566846847534179688e-01 7.105066627264022827e-02 -2.356902062892913818e-01 -2.430940866470336914e-01
1.294000000000000000e+03 2.867618751525878906e+01 -1.012001323699951172e+01 -8.371803760528564453e-01 7.901218533515930176e-02 -2.274504601955413818e-01 -1.863887012004852295e-01
1.295000000000000000e+03 2.630122756958007812e+01 -1.013638019561767578e+01 -8.576091527938842773e-01 7.002624124288558960e-02 -2.362748831510543823e-01 -3.378009796142578125e-01
1.296000000000000000e+03 2.307877540588378906e+01 -9.965284347534179688e+00 -7.661240100860595703e-01 8.886419981718063354e-02 -2.031779438257217407e-01 -4.596684873104095459e-01
1.297000000000000000e+03 2.102591896057128906e+01 -9.973904609680175781e+00 -6.614780426025390625e-01 5.375663191080093384e-02 -1.823164224624633789e-01 -4.919365942478179932e-01
1.298000000000000000e+03 2.389925765991210938e+01 -1.002096462249755859e+01 -8.029903769493103027e-01 9.081972390413284302e-02 -2.136511951684951782e-01 -4.359210431575775146e-01
1.299000000000000000e+03 2.470587921142578125e+01 -1.007182407379150391e+01 -8.271133303642272949e-01 8.112028986215591431e-02 -2.237979173660278320e-01 -4.090333282947540283e-01
1.300000000000000000e+03 2.556079673767089844e+01 -9.339720726013183594e+00 -1.037440896034240723e+00 4.195283353328704834e-02 -2.986464202404022217e-01 -3.361696898937225342e-01
1.301000000000000000e+03 2.550488853454589844e+01 -1.011329078674316406e+01 -8.455322384834289551e-01 7.625120133161544800e-02 -2.307843118906021118e-01 -3.757798373699188232e-01
1.302000000000000000e+03 1.865228462219238281e+01 -1.377528667449951172e+01 -5.759351253509521484e-01 -1.097701191902160645e-01 -2.057115882635116577e-01 -5.148098468780517578e-01
1.303000000000000000e+03 2.170455932617187500e+01 -9.769550323486328125e+00 -6.994572281837463379e-01 7.294343411922454834e-02 -1.879541277885437012e-01 -4.698503315448760986e-01
1.304000000000000000e+03 1.998832130432128906e+01 -2.365540027618408203e+00 -1.562953740358352661e-02 -2.562327980995178223e-01 -8.155869692564010620e-02 1.783598959445953369e-01
1.305000000000000000e+03 2.234783172607421875e+01 -9.814436912536621094e+00 -7.379292845726013184e-01 8.832450956106185913e-02 -1.948814392089843750e-01 -4.624790847301483154e-01
1.306000000000000000e+03 2.154941368103027344e+01 2.273574829101562500e+00 3.384002670645713806e-02 -3.322145342826843262e-01 -8.951235562562942505e-02 2.209289073944091797e-01
1.307000000000000000e+03 2.115901374816894531e+01 5.963077068328857422e+00 -2.173160016536712646e-02 -3.590940535068511963e-01 -1.142476946115493774e-01 7.119601964950561523e-02
1.308000000000000000e+03 1.794057083129882812e+01 -1.032086277008056641e+01 -4.908729493618011475e-01 -2.526079118251800537e-01 -2.230442613363265991e-01 -4.919088780879974365e-01
1.309000000000000000e+03 1.086831474304199219e+01 9.054462432861328125e+00 4.748797218780964613e-04 1.470059622079133987e-03 5.834818002767860889e-04 6.911961245350539684e-04
1.310000000000000000e+03 1.111896800994873047e+01 1.063479042053222656e+01 1.193456817418336868e-03 1.654739375226199627e-03 8.544588927179574966e-04 1.002039643935859203e-03
1.311000000000000000e+03 1.335466289520263672e+01 6.162936687469482422e+00 1.066063297912478447e-03 4.575056373141705990e-04 4.570706805679947138e-04 5.766599206253886223e-04
1.312000000000000000e+03 5.930653572082519531e+00 -1.476772308349609375e+01 1.286717224866151810e-02 -1.384000107645988464e-02 -2.918484096881002188e-04 -2.093297988176345825e-02
1.313000000000000000e+03 6.538214206695556641e+00 -1.345958995819091797e+01 -5.122306756675243378e-04 1.951353624463081360e-02 5.700391717255115509e-03 -1.316624414175748825e-02
1.314000000000000000e+03 1.875012207031250000e+01 1.099999332427978516e+01 -1.476043760776519775e-01 -6.305048465728759766e-01 -2.334327697753906250e-01 1.618881523609161377e-01
1.315000000000000000e+03 2.081756591796875000e+01 7.337661743164062500e+00 -4.170821607112884521e-02 -3.760406076908111572e-01 -1.253246515989303589e-01 5.156631395220756531e-02
1.316000000000000000e+03 1.073331165313720703e+01 -3.381362438201904297e+00 -3.533513881848193705e-05 -3.597966278903186321e-04 -1.185395303764380515e-04 6.920294254086911678e-04
1.317000000000000000e+03 8.528303146362304688e+00 -2.037723159790039062e+01 -4.800503253936767578e-01 -4.008641242980957031e-01 -2.642743289470672607e-01 -6.122734546661376953e-01
1.318000000000000000e+03 7.854410171508789062e+00 -1.887362289428710938e+01 -5.558995008468627930e-01 -9.336958825588226318e-02 -1.947807222604751587e-01 -2.957975268363952637e-01
1.319000000000000000e+03 1.009021091461181641e+01 4.158347129821777344e+00 3.031663945876061916e-04 7.790773524902760983e-04 3.246731066610664129e-04 3.659567446447908878e-04
1.320000000000000000e+03 1.020820522308349609e+01 -6.255118846893310547e+00 1.162858898169361055e-04 -1.213016221299767494e-03 -3.290191234555095434e-04 6.798157119192183018e-04
1.321000000000000000e+03 1.599618148803710938e+01 -1.910004234313964844e+01 -2.986422181129455566e-01 -2.670088112354278564e-01 -1.696953028440475464e-01 -2.990482747554779053e-01
1.322000000000000000e+03 1.624874114990234375e+01 -1.550774765014648438e+01 -6.089917421340942383e-01 -4.132350087165832520e-01 -3.066680431365966797e-01 -5.247216224670410156e-01
1.323000000000000000e+03 9.559738159179687500e+00 -1.984953880310058594e+01 -4.247823059558868408e-01 -6.667128205299377441e-01 -3.274485468864440918e-01 -6.445326805114746094e-01
1.324000000000000000e+03 1.999771881103515625e+01 -3.095600903034210205e-01 4.226317629218101501e-03 -4.302556514739990234e-01 -1.278088092803955078e-01 1.965706348419189453e-01
1.325000000000000000e+03 1.340646553039550781e+01 3.114125013351440430e+00 -6.334386998787522316e-04 3.682856331579387188e-04 -7.954592001624405384e-05 2.263463829876855016e-04
1.326000000000000000e+03 3.574680328369140625e+00 2.174626731872558594e+01 -6.359301507472991943e-02 -8.518884330987930298e-02 -4.463455826044082642e-02 1.287096738815307617e-01
1.327000000000000000e+03 7.604831695556640625e+01 -3.502016067504882812e+01 -5.431322008371353149e-02 7.958931446075439453e+00 2.371385574340820312e+00 -1.614267826080322266e-01
1.328000000000000000e+03 7.561241149902343750e+01 -2.258456611633300781e+01 5.282023921608924866e-04 7.331341266632080078e+00 2.199560880661010742e+00 -3.375350236892700195e-01
1.329000000000000000e+03 7.802249145507812500e+01 -2.860064888000488281e+01 -6.463078316301107407e-03 7.683681488037109375e+00 2.303165435791015625e+00 -1.478133648633956909e-01
1.330000000000000000e+03 7.529831695556640625e+01 1.364605331420898438e+01 -1.734494976699352264e-02 7.814702033996582031e+00 2.339207172393798828e+00 4.343084990978240967e-01
1.331000000000000000e+03 7.675011444091796875e+01 1.473063468933105469e+01 -1.044613216072320938e-02 7.909351348876953125e+00 2.369671583175659180e+00 3.121889531612396240e-01
1.332000000000000000e+03 7.765208435058593750e+01 3.478188323974609375e+01 -3.036412224173545837e-02 9.108205795288085938e+00 2.723352432250976562e+00 6.187374144792556763e-02
1.333000000000000000e+03 7.662464904785156250e+01 3.220452880859375000e+01 -2.190427854657173157e-02 8.928607940673828125e+00 2.672010898590087891e+00 1.094007045030593872e-01
1.334000000000000000e+03 7.810006713867187500e+01 -2.177164077758789062e+01 6.527435616590082645e-04 7.170787334442138672e+00 2.151432037353515625e+00 -1.657327562570571899e-01
1.335000000000000000e+03 7.688772583007812500e+01 -2.413450622558593750e+01 -4.712997004389762878e-03 7.387856960296630859e+00 2.214943170547485352e+00 -2.537850141525268555e-01
1.336000000000000000e+03 7.647104644775390625e+01 -3.090971374511718750e+01 -2.774940617382526398e-02 7.788170814514160156e+00 2.328126430511474609e+00 -2.092026472091674805e-01
1.337000000000000000e+03 7.661645507812500000e+01 -2.952820014953613281e+01 -2.163908258080482483e-02 7.724447727203369141e+00 2.310842514038085938e+00 -2.221783548593521118e-01
1.338000000000000000e+03 7.770518493652343750e+01 -3.416445922851562500e+01 -1.720287837088108063e-02 7.979904174804687500e+00 2.388810396194458008e+00 -1.113264411687850952e-01
1.339000000000000000e+03 7.558135986328125000e+01 -2.644181251525878906e+01 -2.678192779421806335e-02 7.557874202728271484e+00 2.259327650070190430e+00 -3.157788813114166260e-01
1.340000000000000000e+03 7.681935882568359375e+01 -2.682176780700683594e+01 -1.383291091769933701e-02 7.566137313842773438e+00 2.265691280364990234e+00 -2.408641576766967773e-01
1.341000000000000000e+03 7.687397003173828125e+01 -2.547373199462890625e+01 -1.145539805293083191e-02 7.478708744049072266e+00 2.240175962448120117e+00 -2.468038350343704224e-01
1.342000000000000000e+03 7.487636566162109375e+01 -3.176092147827148438e+01 -5.775817483663558960e-02 7.805708408355712891e+00 2.324385166168212891e+00 -2.622992992401123047e-01
1.343000000000000000e+03 7.624488067626953125e+01 -3.234199905395507812e+01 -3.136157616972923279e-02 7.853713035583496094e+00 2.346705436706542969e+00 -2.002032995223999023e-01
1.344000000000000000e+03 7.789274597167968750e+01 2.282045364379882812e+01 -8.246464654803276062e-03 8.578749656677246094e+00 2.571150779724121094e+00 1.627407521009445190e-01
1.345000000000000000e+03 7.656549835205078125e+01 2.020976638793945312e+01 -1.999760605394840240e-02 8.315535545349121094e+00 2.488661527633666992e+00 2.782531678676605225e-01
1.346000000000000000e+03 7.498262023925781250e+01 2.189499855041503906e+01 -4.381811246275901794e-02 8.320549964904785156e+00 2.483019351959228516e+00 3.546472489833831787e-01
1.347000000000000000e+03 7.667752075195312500e+01 1.334652900695800781e+01 -9.141954593360424042e-03 7.799656867980957031e+00 2.337154388427734375e+00 3.276515007019042969e-01
1.348000000000000000e+03 7.529681396484375000e+01 7.903102874755859375e+00 2.045095339417457581e-02 7.409830570220947266e+00 2.229084491729736328e+00 4.310351312160491943e-01
1.349000000000000000e+03 7.643122100830078125e+01 2.314079666137695312e+01 -2.539071440696716309e-02 8.486088752746582031e+00 2.538209438323974609e+00 2.538314461708068848e-01
1.350000000000000000e+03 7.794808197021484375e+01 2.694465255737304688e+01 -1.238342560827732086e-02 8.841446876525878906e+00 2.648719072341918945e+00 1.242488250136375427e-01
1.351000000000000000e+03 7.663071441650390625e+01 1.195241546630859375e+01 -5.286895669996738434e-03 7.681961059570312500e+00 2.303002119064331055e+00 3.376977741718292236e-01
1.352000000000000000e+03 7.686489105224609375e+01 -2.281154060363769531e+01 -1.309905783273279667e-03 7.298413276672363281e+00 2.189131021499633789e+00 -2.564373612403869629e-01
1.353000000000000000e+03 7.666469573974609375e+01 2.857335472106933594e+01 -3.417763113975524902e-02 8.782309532165527344e+00 2.624439477920532227e+00 1.734557151794433594e-01
1.354000000000000000e+03 7.664799499511718750e+01 7.715908050537109375e+00 1.287746150046586990e-02 7.334415435791015625e+00 2.204187870025634766e+00 3.279000222682952881e-01
1.355000000000000000e+03 7.402746582031250000e+01 -1.704728698730468750e+01 6.881263107061386108e-02 7.131037712097167969e+00 2.159955024719238281e+00 -3.679504692554473877e-01
1.356000000000000000e+03 7.682147216796875000e+01 -2.148586273193359375e+01 4.231506958603858948e-03 7.210374832153320312e+00 2.164381980895996094e+00 -2.590961456298828125e-01
1.357000000000000000e+03 7.539082336425781250e+01 -1.025685882568359375e+01 9.253545105457305908e-02 6.787458896636962891e+00 2.063998222351074219e+00 -1.173475086688995361e-01
1.358000000000000000e+03 7.671811676025390625e+01 -1.322803020477294922e+01 4.035907983779907227e-02 6.744424819946289062e+00 2.035435199737548828e+00 -1.655146181583404541e-01
1.359000000000000000e+03 7.537252807617187500e+01 -3.320804595947265625e+00 9.664041548967361450e-02 6.811885833740234375e+00 2.072557926177978516e+00 1.500010639429092407e-01
1.360000000000000000e+03 7.670781707763671875e+01 -9.062033653259277344e+00 5.278056487441062927e-02 6.628386497497558594e+00 2.004350185394287109e+00 -5.664021894335746765e-02
1.361000000000000000e+03 7.800325012207031250e+01 6.052206039428710938e+00 8.716849610209465027e-03 7.115050792694091797e+00 2.137130260467529297e+00 2.015021592378616333e-01
1.362000000000000000e+03 7.667751312255859375e+01 2.064735889434814453e+00 3.657034784555435181e-02 6.921272277832031250e+00 2.087352752685546875e+00 2.485016733407974243e-01
1.363000000000000000e+03 7.660139465332031250e+01 3.339593124389648438e+01 -2.357092499732971191e-02 8.956400871276855469e+00 2.679848909378051758e+00 1.007137894630432129e-01
1.364000000000000000e+03 7.644792938232421875e+01 2.734334754943847656e+01 -3.082604706287384033e-02 8.705988883972167969e+00 2.602549076080322266e+00 1.976272016763687134e-01
1.365000000000000000e+03 7.671393585205078125e+01 1.877639579772949219e+01 -1.683803275227546692e-02 8.222819328308105469e+00 2.461794376373291016e+00 2.827977240085601807e-01
1.366000000000000000e+03 7.799723052978515625e+01 7.453468799591064453e+00 4.384562838822603226e-03 7.242423534393310547e+00 2.174042463302612305e+00 2.099097967147827148e-01
1.367000000000000000e+03 7.668103027343750000e+01 4.890689849853515625e+00 2.580122649669647217e-02 7.113475322723388672e+00 2.141782999038696289e+00 2.968761026859283447e-01
1.368000000000000000e+03 7.669060516357421875e+01 -3.483829975128173828e+00 5.382505431771278381e-02 6.668312072753906250e+00 2.016641139984130859e+00 1.101349145174026489e-01
1.369000000000000000e+03 7.671343994140625000e+01 -1.044205760955810547e+01 4.908234998583793640e-02 6.653636455535888672e+00 2.010815620422363281e+00 -9.499672055244445801e-02
1.370000000000000000e+03 7.672313690185546875e+01 -1.739296531677246094e+01 2.153030410408973694e-02 6.956065177917480469e+00 2.093278646469116211e+00 -2.362143844366073608e-01
1.371000000000000000e+03 7.151264190673828125e+01 3.505037689208984375e+01 -1.267869621515274048e-01 8.460943222045898438e+00 2.500246763229370117e+00 1.628548353910446167e-01
1.372000000000000000e+03 7.670113372802734375e+01 3.091921615600585938e+01 -2.712322026491165161e-02 8.899347305297851562e+00 2.661667346954345703e+00 1.311743855476379395e-01
1.373000000000000000e+03 7.662636566162109375e+01 9.130218505859375000e+00 4.778719041496515274e-03 7.451416492462158203e+00 2.236858606338500977e+00 3.361876904964447021e-01
1.374000000000000000e+03 7.803296661376953125e+01 -1.347876644134521484e+01 1.659561879932880402e-02 6.612559795379638672e+00 1.988746643066406250e+00 -1.098989844322204590e-01
1.375000000000000000e+03 7.671881103515625000e+01 -1.600154685974121094e+01 2.831713482737541199e-02 6.877808570861816406e+00 2.071837663650512695e+00 -2.184454798698425293e-01
1.376000000000000000e+03 7.801735687255859375e+01 -6.529099464416503906e+00 2.179277502000331879e-02 6.449004173278808594e+00 1.941239118576049805e+00 1.219328306615352631e-02
1.377000000000000000e+03 7.670191192626953125e+01 -7.685453414916992188e+00 5.371866002678871155e-02 6.616734981536865234e+00 2.001136064529418945e+00 -1.620336249470710754e-02
1.378000000000000000e+03 7.801147460937500000e+01 1.838566303253173828e+00 1.445565093308687210e-02 6.777172565460205078e+00 2.037488460540771484e+00 1.579470038414001465e-01
1.379000000000000000e+03 7.668106842041015625e+01 3.470046520233154297e+00 3.078163042664527893e-02 7.011958122253417969e+00 2.112821817398071289e+00 2.742396295070648193e-01
1.380000000000000000e+03 7.668624114990234375e+01 -2.081799507141113281e+00 4.956069961190223694e-02 6.714115619659423828e+00 2.029102802276611328e+00 1.499900221824645996e-01
1.381000000000000000e+03 7.669773864746093750e+01 -6.299759387969970703e+00 5.503060296177864075e-02 6.619482040405273438e+00 2.002353668212890625e+00 2.523444592952728271e-02
1.382000000000000000e+03 7.669502258300781250e+01 -4.895566463470458984e+00 5.482363700866699219e-02 6.636385440826416016e+00 2.007362842559814453e+00 6.757266819477081299e-02
1.383000000000000000e+03 7.409812164306640625e+01 -1.288288116455078125e+01 1.210597753524780273e-01 6.968802452087402344e+00 2.126958608627319336e+00 -2.491352856159210205e-01
1.384000000000000000e+03 7.671702575683593750e+01 -1.183533954620361328e+01 4.677348211407661438e-02 6.692389965057373047e+00 2.021749019622802734e+00 -1.318964511156082153e-01
1.385000000000000000e+03 7.677632141113281250e+01 -2.014871406555175781e+01 9.022193029522895813e-03 7.124056816101074219e+00 2.139923572540283203e+00 -2.559237480163574219e-01
1.386000000000000000e+03 7.674150085449218750e+01 -1.878177833557128906e+01 1.512868329882621765e-02 7.039186954498291016e+00 2.116294622421264648e+00 -2.497772425413131714e-01
1.387000000000000000e+03 7.495138645172119141e+00 1.307970237731933594e+01 -1.746762543916702271e-03 4.641742445528507233e-03 8.684939239174127579e-04 8.164744824171066284e-03
1.388000000000000000e+03 1.148259639739990234e+01 8.058014869689941406e+00 -5.641300813294947147e-04 -9.200600907206535339e-04 -4.452570574358105659e-04 -5.894048372283577919e-04
1.389000000000000000e+03 1.297643661499023438e+01 7.318112850189208984e+00 -1.137297251261770725e-03 -6.647941190749406815e-04 -5.406273994594812393e-04 -6.927737849764525890e-04
1.390000000000000000e+03 1.918876266479492188e+01 1.434089374542236328e+01 -2.129406183958053589e-01 -1.047425642609596252e-01 -9.530495107173919678e-02 1.155404746532440186e-02
1.391000000000000000e+03 1.889197707176208496e+00 2.748053932189941406e+01 2.986531471833586693e-03 -3.543157279491424561e-01 -1.053987592458724976e-01 1.124197468161582947e-01
1.392000000000000000e+03 3.415426492691040039e+00 3.004291152954101562e+01 2.310995757579803467e-02 -3.776393830776214600e-01 -1.063588261604309082e-01 1.525022983551025391e-01
1.393000000000000000e+03 1.841876268386840820e+00 2.607707786560058594e+01 4.044334404170513153e-03 -2.874600291252136230e-01 -8.502470701932907104e-02 1.134505048394203186e-01
1.394000000000000000e+03 3.144954919815063477e+00 2.732560348510742188e+01 1.295704394578933716e-02 -3.050679266452789307e-01 -8.763326704502105713e-02 1.670912057161331177e-01
1.395000000000000000e+03 6.219893455505371094e+00 2.945363426208496094e+01 5.960648134350776672e-02 -2.298125475645065308e-01 -5.106182396411895752e-02 2.087579965591430664e-01
1.396000000000000000e+03 3.568511247634887695e+00 3.141055297851562500e+01 3.516974300146102905e-02 -4.090165793895721436e-01 -1.121540442109107971e-01 1.374885737895965576e-01
1.397000000000000000e+03 3.270990371704101562e+00 2.868640899658203125e+01 1.568246632814407349e-02 -3.458484411239624023e-01 -9.904979169368743896e-02 1.592083871364593506e-01
1.398000000000000000e+03 3.816209316253662109e+00 3.416121292114257812e+01 4.249005392193794250e-02 -4.488433003425598145e-01 -1.219059750437736511e-01 1.015187799930572510e-01
1.399000000000000000e+03 3.718023300170898438e+00 3.278091812133789062e+01 3.730298578739166260e-02 -4.346836507320404053e-01 -1.192141994833946228e-01 1.188888624310493469e-01
1.400000000000000000e+03 4.279468059539794922e+00 -3.530199432373046875e+01 6.717284023761749268e-02 -7.928426861763000488e-01 -2.177009582519531250e-01 -1.480417102575302124e-01
1.401000000000000000e+03 3.999885559082031250e+00 -3.396314239501953125e+01 7.267782837152481079e-02 -7.725737690925598145e-01 -2.099687755107879639e-01 -1.675930172204971313e-01
1.402000000000000000e+03 3.454473018646240234e+00 -3.014011192321777344e+01 2.985410951077938080e-02 -6.745736002922058105e-01 -1.934158504009246826e-01 -2.301382571458816528e-01
1.403000000000000000e+03 2.062559127807617188e+00 -2.889030838012695312e+01 9.328665211796760559e-03 -6.811674833297729492e-01 -2.015516459941864014e-01 -1.701339334249496460e-01
1.404000000000000000e+03 4.830752372741699219e+00 -2.879199790954589844e+01 5.525323748588562012e-02 -5.626865029335021973e-01 -1.522299796342849731e-01 -3.082169890403747559e-01
1.405000000000000000e+03 3.095030546188354492e+00 2.313266944885253906e+01 -3.996065258979797363e-02 -1.354234665632247925e-01 -5.261523649096488953e-02 1.508315354585647583e-01
1.406000000000000000e+03 1.490963220596313477e+00 -1.315982818603515625e+01 1.540280762128531933e-03 6.442527286708354950e-03 2.394842449575662613e-03 7.754717022180557251e-03
1.407000000000000000e+03 1.747216463088989258e+00 2.043290328979492188e+01 -1.851602084934711456e-02 -3.674231097102165222e-02 -1.657749898731708527e-02 4.061777144670486450e-02
1.408000000000000000e+03 1.896915912628173828e+00 1.897823524475097656e+01 -1.549490913748741150e-02 -1.812341250479221344e-02 -1.008549705147743225e-02 2.346513979136943817e-02
1.409000000000000000e+03 5.537734985351562500e+00 1.824951934814453125e+01 -9.281188994646072388e-02 -1.408982090651988983e-02 -3.207051381468772888e-02 2.619775943458080292e-02
1.410000000000000000e+03 2.003305673599243164e+00 -1.868151855468750000e+01 -4.025489836931228638e-02 -2.863796055316925049e-02 -2.066785655915737152e-02 -3.373125195503234863e-02
1.411000000000000000e+03 3.153398513793945312e+00 -1.853532218933105469e+01 -7.407192140817642212e-02 -4.632879421114921570e-02 -3.612021356821060181e-02 -5.018961057066917419e-02
1.412000000000000000e+03 5.443977832794189453e+00 1.332149028778076172e+01 2.528302371501922607e-03 -9.941781871020793915e-03 -2.224043942987918854e-03 3.970498684793710709e-03
1.413000000000000000e+03 1.987280368804931641e+00 -2.168256568908691406e+01 -3.271150961518287659e-02 -1.573829948902130127e-01 -5.702834948897361755e-02 -1.321195811033248901e-01
1.414000000000000000e+03 6.811528205871582031e+00 -1.992179298400878906e+01 -3.400444686412811279e-01 -1.365428864955902100e-01 -1.429762095212936401e-01 -3.487037718296051025e-01
1.415000000000000000e+03 3.923876047134399414e+00 5.282722473144531250e+00 1.063273870386183262e-03 -3.166625538142398000e-05 3.094822750426828861e-04 -1.363558840239420533e-04
1.416000000000000000e+03 2.518808126449584961e+00 7.718324184417724609e+00 -4.792118561454117298e-04 3.770329640246927738e-04 -3.065367127419449389e-05 -3.953797568101435900e-04
1.417000000000000000e+03 4.518846988677978516e+00 1.451821041107177734e+01 5.484418477863073349e-03 -1.430186722427606583e-02 -2.645234344527125359e-03 -1.754166325554251671e-03
1.418000000000000000e+03 1.873811006546020508e+00 1.746302032470703125e+01 -1.012471038848161697e-02 -1.064074574969708920e-03 -3.356635570526123047e-03 3.257150063291192055e-03
1.419000000000000000e+03 3.474031686782836914e+00 1.995189094543457031e+01 -5.746539682149887085e-02 -4.329613223671913147e-02 -3.022845834493637085e-02 6.844952702522277832e-02
1.420000000000000000e+03 2.503604650497436523e+00 9.001502037048339844e+00 1.980183878913521767e-03 -9.543438864056952298e-06 5.911921034567058086e-04 -1.215986674651503563e-03
1.421000000000000000e+03 5.430814266204833984e+00 -5.118489265441894531e+00 -1.914082822622731328e-04 5.105740856379270554e-04 9.574973955750465393e-05 1.044351938617182896e-05
1.422000000000000000e+03 2.718707561492919922e+00 -3.925436019897460938e+00 -3.401889407541602850e-04 5.382541712606325746e-05 -8.590905781602486968e-05 -5.241105682216584682e-04
1.423000000000000000e+03 3.286010503768920898e+00 -1.480533695220947266e+01 3.832921385765075684e-03 -2.505664341151714325e-02 -6.367116700857877731e-03 8.538133464753627777e-03
1.424000000000000000e+03 7.841660976409912109e+00 -9.193894386291503906e+00 -5.785995163023471832e-04 2.666463842615485191e-03 6.263593677431344986e-04 -6.234655738808214664e-04
1.425000000000000000e+03 3.438928842544555664e+00 -2.881060218811035156e+01 3.308875486254692078e-02 -6.170476675033569336e-01 -1.751876771450042725e-01 -2.488668262958526611e-01
1.426000000000000000e+03 4.796529769897460938e+00 -2.427666473388671875e+01 -2.584690973162651062e-02 -3.778257369995117188e-01 -1.211017966270446777e-01 -3.557427525520324707e-01
1.427000000000000000e+03 2.551982879638671875e+00 -3.565627288818359375e+01 4.064367711544036865e-02 -9.804707169532775879e-01 -2.819481194019317627e-01 -7.765443623065948486e-02
1.428000000000000000e+03 2.994721174240112305e+00 -9.082836151123046875e+00 1.032328000292181969e-03 1.215149895870126784e-04 3.461528976913541555e-04 -1.277330156881362200e-04
1.429000000000000000e+03 6.079775810241699219e+00 -3.486204910278320312e+01 1.233123093843460083e-01 -5.874027609825134277e-01 -1.392271220684051514e-01 -1.922198832035064697e-01
1.430000000000000000e+03 3.163240909576416016e+00 -1.997855186462402344e+01 -1.007255539298057556e-01 -9.884011745452880859e-02 -5.986970290541648865e-02 -1.311797648668289185e-01
1.431000000000000000e+03 2.011605024337768555e+00 -2.315693283081054688e+01 -2.196175418794155121e-02 -2.571983933448791504e-01 -8.374804258346557617e-02 -1.690751463174819946e-01
1.432000000000000000e+03 3.432137489318847656e+00 -2.596274375915527344e+01 7.531844079494476318e-03 -4.602280557155609131e-01 -1.358088701963424683e-01 -2.825303971767425537e-01
1.433000000000000000e+03 2.793725490570068359e+00 -1.369878578186035156e+01 7.116486784070730209e-03 -7.220459636300802231e-03 -3.119179746136069298e-05 1.028025150299072266e-02
1.434000000000000000e+03 3.740713119506835938e+00 -1.302832317352294922e+01 9.134900756180286407e-03 -1.592383161187171936e-02 -2.036679536104202271e-03 2.359608188271522522e-03
1.435000000000000000e+03 5.945407390594482422e+00 -9.458122253417968750e+00 3.979446773882955313e-04 4.211442137602716684e-04 2.457266673445701599e-04 -9.843319276114925742e-05
1.436000000000000000e+03 2.626798152923583984e+00 1.023618412017822266e+01 8.410809095948934555e-05 3.332134510856121778e-04 1.251964567927643657e-04 -1.780470483936369419e-03
1.437000000000000000e+03 3.236648559570312500e+00 1.285979843139648438e+01 2.571259625256061554e-03 -5.172363948076963425e-03 -7.803312619216740131e-04 -4.116837866604328156e-03
1.438000000000000000e+03 6.839555740356445312e+00 1.666045379638671875e+01 -2.670611254870891571e-02 -9.377120062708854675e-03 -1.082496996968984604e-02 -3.218863159418106079e-03
1.439000000000000000e+03 5.606936931610107422e+00 1.671470832824707031e+01 -3.176719322800636292e-02 -1.904585026204586029e-02 -1.524391304701566696e-02 6.201434414833784103e-03
1.440000000000000000e+03 4.324646472930908203e+00 1.701810264587402344e+01 -2.995824441313743591e-02 -2.396094799041748047e-02 -1.617575809359550476e-02 9.188522584736347198e-03
1.441000000000000000e+03 5.345237731933593750e+00 1.534695434570312500e+01 -6.179564166814088821e-03 -2.098295837640762329e-02 -8.148756809532642365e-03 2.398852491751313210e-03
1.442000000000000000e+03 7.460539817810058594e+00 1.509242534637451172e+01 2.450274536386132240e-03 8.214344270527362823e-03 3.199385479092597961e-03 1.628356240689754486e-02
1.443000000000000000e+03 4.217493534088134766e+00 -8.843178749084472656e+00 1.199106685817241669e-03 -5.018677329644560814e-04 2.091716742143034935e-04 7.390649989247322083e-04
1.444000000000000000e+03 9.526786804199218750e+00 -7.206138610839843750e+00 -8.846564014675095677e-05 1.441908534616231918e-03 4.060328647028654814e-04 -5.809462745673954487e-04
1.445000000000000000e+03 8.737335205078125000e+00 -8.176111221313476562e+00 5.080911214463412762e-04 -1.703162794001400471e-03 -3.585215017665177584e-04 5.218033329583704472e-04
1.446000000000000000e+03 1.198173618316650391e+01 7.055127620697021484e+00 6.563538918271660805e-04 1.071795937605202198e-03 5.184449837543070316e-04 7.172157638706266880e-04
1.447000000000000000e+03 2.161029815673828125e+01 4.594621181488037109e+00 1.974890194833278656e-02 -2.893764972686767578e-01 -8.088827878236770630e-02 1.179843023419380188e-01
1.448000000000000000e+03 1.599202346801757812e+01 1.890369796752929688e+01 -2.797608077526092529e-01 -1.595718264579772949e-01 -1.317997872829437256e-01 8.119011670351028442e-02
1.449000000000000000e+03 2.259349822998046875e+01 1.778533101081848145e+00 8.782595396041870117e-02 -1.607267856597900391e-01 -2.187024988234043121e-02 2.370632737874984741e-01
1.450000000000000000e+03 2.351372718811035156e+01 4.479307174682617188e+00 1.290880739688873291e-01 1.007091775536537170e-01 6.893917173147201538e-02 3.345494717359542847e-02
1.451000000000000000e+03 1.888488769531250000e+01 1.758573913574218750e+01 -2.030461579561233521e-01 1.821944266557693481e-01 -6.255515385419130325e-03 -9.658906608819961548e-02
1.452000000000000000e+03 1.961198806762695312e+01 1.293575763702392578e+01 -1.766431033611297607e-01 -1.740510463714599609e-01 -1.052082404494285583e-01 2.347796782851219177e-02
1.453000000000000000e+03 1.695026969909667969e+01 -1.426936340332031250e+01 -6.224513649940490723e-01 -3.584460616111755371e-01 -2.942692339420318604e-01 -5.425582528114318848e-01
1.454000000000000000e+03 1.758521842956542969e+01 -1.308215904235839844e+01 -6.173081398010253906e-01 -2.824757397174835205e-01 -2.699351608753204346e-01 -5.608894824981689453e-01
1.455000000000000000e+03 1.549195766448974609e+01 -1.674830627441406250e+01 -5.980627536773681641e-01 -4.466998577117919922e-01 -3.134287893772125244e-01 -4.996208548545837402e-01
1.456000000000000000e+03 2.053781318664550781e+01 8.716672897338867188e+00 -7.602100074291229248e-02 -3.484984636306762695e-01 -1.273558437824249268e-01 3.053370490670204163e-02
1.457000000000000000e+03 2.130860519409179688e+01 1.202221202850341797e+01 -9.680540859699249268e-02 1.608563214540481567e-01 1.921527460217475891e-02 -1.418329626321792603e-01
1.458000000000000000e+03 1.080583095550537109e+01 -1.949752235412597656e+01 -4.430555403232574463e-01 -7.390387654304504395e-01 -3.546282947063446045e-01 -4.811202883720397949e-01
1.459000000000000000e+03 1.364572620391845703e+01 -2.004018592834472656e+01 -3.007736504077911377e-01 -4.859121143817901611e-01 -2.360057234764099121e-01 -3.584257960319519043e-01
1.460000000000000000e+03 1.232849121093750000e+01 2.168849372863769531e+01 -1.242030113935470581e-01 -2.429067641496658325e-01 -1.101329326629638672e-01 2.143181115388870239e-01
1.461000000000000000e+03 1.120641040802001953e+01 2.036017608642578125e+01 -3.374340534210205078e-01 -3.239223062992095947e-01 -1.984069049358367920e-01 2.871486246585845947e-01
1.462000000000000000e+03 4.135287284851074219e+00 -1.558877563476562500e+01 1.280191936530172825e-03 -3.237604722380638123e-02 -9.328756481409072876e-03 8.713097195141017437e-04
1.463000000000000000e+03 4.653985023498535156e+00 -1.280267620086669922e+01 7.065978366881608963e-03 -9.273339994251728058e-03 -6.622084765695035458e-04 -2.800994087010622025e-03
1.464000000000000000e+03 4.926283836364746094e+00 -4.046546554565429688e+01 4.114066436886787415e-02 -8.194248676300048828e-01 -2.334852665662765503e-01 -7.186971604824066162e-02
1.465000000000000000e+03 8.596622467041015625e+00 -3.608461380004882812e+01 1.790530681610107422e-01 -3.445092141628265381e-01 -4.963684082031250000e-02 -1.637845039367675781e-01
1.466000000000000000e+03 5.175686359405517578e+00 4.023733139038085938e+01 2.242617309093475342e-02 -4.010471701622009277e-01 -1.135862991213798523e-01 5.602615326642990112e-02
1.467000000000000000e+03 3.966614913940429688e+01 -8.766996383666992188e+00 2.964970350265502930e+00 5.748510360717773438e+00 2.614044189453125000e+00 5.111186504364013672e+00
1.468000000000000000e+03 3.855621337890625000e+01 -9.639824867248535156e+00 2.082793951034545898e+00 3.543091773986816406e+00 1.687765717506408691e+00 3.574406147003173828e+00
1.469000000000000000e+03 4.024557876586914062e+01 -8.533663749694824219e+00 3.021048545837402344e+00 8.781998634338378906e+00 3.540914058685302734e+00 6.197347164154052734e+00
1.470000000000000000e+03 3.787533569335937500e+01 -3.799575567245483398e+00 2.427073717117309570e+00 2.008380174636840820e+00 1.330636143684387207e+00 -2.609674453735351562e+00
1.471000000000000000e+03 3.987709426879882812e+01 -4.222682952880859375e+00 3.302420377731323242e+00 6.983458042144775391e+00 3.085763454437255859e+00 -5.406627178192138672e+00
1.472000000000000000e+03 4.012267684936523438e+01 -4.685959339141845703e+00 3.932621002197265625e+00 7.978084564208984375e+00 3.573211669921875000e+00 -6.187621116638183594e+00
1.473000000000000000e+03 4.045695877075195312e+01 -4.656882762908935547e+00 3.459726333618164062e+00 1.054930400848388672e+01 4.202709197998046875e+00 -6.462345123291015625e+00
1.474000000000000000e+03 4.037625503540039062e+01 -9.164103507995605469e+00 1.930109262466430664e+00 9.971724510192871094e+00 3.570550203323364258e+00 5.359619617462158203e+00
1.475000000000000000e+03 3.904677963256835938e+01 -8.264491081237792969e+00 2.697093009948730469e+00 2.350619554519653320e+00 1.514313817024230957e+00 3.268019437789916992e+00
1.476000000000000000e+03 4.020433807373046875e+01 -4.269989013671875000e+00 3.086807250976562500e+00 9.054986000061035156e+00 3.642537832260131836e+00 -5.829407215118408203e+00
1.477000000000000000e+03 4.061870193481445312e+01 -4.695317745208740234e+00 3.238879919052124023e+00 1.218024635314941406e+01 4.625737667083740234e+00 -6.538285732269287109e+00
1.478000000000000000e+03 4.333692932128906250e+01 -6.862707614898681641e+00 9.591714859008789062e+00 1.445423412322998047e+01 7.213784694671630859e+00 -1.059770226478576660e+00
1.479000000000000000e+03 4.223143768310546875e+01 -4.795240402221679688e+00 3.484654426574707031e+00 1.868175125122070312e+01 6.649921894073486328e+00 3.853659629821777344e-01
1.480000000000000000e+03 4.165165328979492188e+01 -4.202586650848388672e+00 1.584012866020202637e+00 1.644882965087890625e+01 5.409852504730224609e+00 -2.672599077224731445e+00
1.481000000000000000e+03 4.322908782958984375e+01 -6.000543117523193359e+00 9.524973869323730469e+00 1.492177581787109375e+01 7.334024906158447266e+00 1.314675450325012207e+00
1.482000000000000000e+03 4.256396102905273438e+01 -5.194347381591796875e+00 5.819539070129394531e+00 1.824340820312500000e+01 7.218883991241455078e+00 1.910668253898620605e+00
1.483000000000000000e+03 4.098539733886718750e+01 -4.374670982360839844e+00 2.059606075286865234e+00 1.440532016754150391e+01 4.939477920532226562e+00 -5.084298610687255859e+00
1.484000000000000000e+03 4.364718627929687500e+01 -6.838428497314453125e+00 8.985404014587402344e+00 1.366731548309326172e+01 6.795815944671630859e+00 -8.583670258522033691e-01
1.485000000000000000e+03 4.238304138183593750e+01 -5.126289844512939453e+00 5.255614280700683594e+00 1.894097900390625000e+01 7.258977890014648438e+00 1.497010111808776855e+00
1.486000000000000000e+03 4.185853576660156250e+01 -4.315136432647705078e+00 1.834078311920166016e+00 1.710121154785156250e+01 5.680586814880371094e+00 -1.797501444816589355e+00
1.487000000000000000e+03 4.237014389038085938e+01 -8.605202674865722656e+00 2.430165767669677734e+00 1.739228439331054688e+01 5.946734905242919922e+00 -2.694613933563232422e-01
1.488000000000000000e+03 4.208999633789062500e+01 -7.900147914886474609e+00 4.205784320831298828e+00 2.059348678588867188e+01 7.439781665802001953e+00 -1.093862652778625488e+00
1.489000000000000000e+03 4.184347915649414062e+01 -8.660766601562500000e+00 1.516771912574768066e+00 1.768838310241699219e+01 5.761546134948730469e+00 1.685864686965942383e+00
1.490000000000000000e+03 3.568426132202148438e+01 -3.373447895050048828e+00 1.262441039085388184e+00 7.815772891044616699e-01 6.132054924964904785e-01 -1.116264104843139648e+00
1.491000000000000000e+03 3.508378601074218750e+01 -3.368100404739379883e+00 9.720082879066467285e-01 6.015376448631286621e-01 4.720637798309326172e-01 -8.344479799270629883e-01
1.492000000000000000e+03 3.741038894653320312e+01 -3.861241579055786133e+00 2.078168153762817383e+00 1.438406944274902344e+00 1.054972529411315918e+00 -2.049237728118896484e+00
1.493000000000000000e+03 3.625331497192382812e+01 -3.378439188003540039e+00 1.542906641960144043e+00 1.023505330085754395e+00 7.699236273765563965e-01 -1.450171351432800293e+00
1.494000000000000000e+03 2.241838836669921875e+01 -3.155838966369628906e+00 -1.132454276084899902e-01 -1.178550645709037781e-01 -6.933014839887619019e-02 3.048609197139739990e-01
1.495000000000000000e+03 2.236089515686035156e+01 3.512815952301025391e+00 6.161242723464965820e-02 -1.853525042533874512e-01 -3.712202236056327820e-02 1.517842710018157959e-01
1.496000000000000000e+03 2.385676574707031250e+01 -2.415957212448120117e+00 -8.432901650667190552e-02 -7.578004896640777588e-02 -4.803271964192390442e-02 3.536512255668640137e-01
1.497000000000000000e+03 2.001564598083496094e+01 -1.451159238815307617e+00 -6.224535405635833740e-03 -3.335983455181121826e-01 -1.019468605518341064e-01 2.030764520168304443e-01
1.498000000000000000e+03 2.128409576416015625e+01 -3.004231214523315430e+00 -6.860878318548202515e-02 -1.609520763158798218e-01 -6.886825710535049438e-02 2.590523660182952881e-01
1.499000000000000000e+03 2.462052154541015625e+01 -2.567751407623291016e+00 -1.040485724806785583e-01 -3.568913415074348450e-02 -4.192131012678146362e-02 3.527444899082183838e-01
1.500000000000000000e+03 2.674954414367675781e+01 -2.874251842498779297e+00 -1.368647515773773193e-01 4.253334552049636841e-02 -2.829942479729652405e-02 3.108973801136016846e-01
1.501000000000000000e+03 8.617251396179199219e+00 4.128708362579345703e+00 3.698591899592429399e-04 6.943252519704401493e-04 3.192553413100540638e-04 1.936406479217112064e-04
1.502000000000000000e+03 2.744189834594726562e+01 -2.912813186645507812e+00 -1.285734921693801880e-01 6.533581763505935669e-02 -1.897130161523818970e-02 2.849428355693817139e-01
1.503000000000000000e+03 9.539839744567871094e+00 -3.074454784393310547e+00 3.629078128142282367e-05 -8.637811697553843260e-05 -1.502620034443680197e-05 5.862909602001309395e-04
1.504000000000000000e+03 8.914807319641113281e+00 -3.142439603805541992e+00 8.163094753399491310e-05 -4.146602441323921084e-05 1.204947602673200890e-05 -4.139423253946006298e-04
1.505000000000000000e+03 7.935696125030517578e+00 4.091928482055664062e+00 -1.029587219818495214e-04 -6.003988091833889484e-04 -2.110072673531249166e-04 -1.700830216577742249e-05
1.506000000000000000e+03 7.808303356170654297e+00 4.895781517028808594e+00 3.808535984717309475e-04 6.781635456718504429e-04 3.177051548846065998e-04 1.077763226930983365e-05
1.507000000000000000e+03 3.720763444900512695e+00 6.460644721984863281e+00 -2.136381081072613597e-04 -1.304811448790132999e-04 -1.032357758958823979e-04 -1.716063125059008598e-04
1.508000000000000000e+03 2.430868387222290039e+00 4.908329010009765625e+00 -3.772948402911424637e-04 -9.128616511588916183e-05 -1.405742950737476349e-04 4.907798211206682026e-05
1.509000000000000000e+03 4.780997753143310547e+00 5.166217803955078125e+00 8.330195851158350706e-05 -5.492407944984734058e-04 -1.397816522512584925e-04 2.834335900843143463e-04
1.510000000000000000e+03 3.156510353088378906e+00 3.654478311538696289e+00 -2.210761886090040207e-04 -2.440878888592123985e-04 -1.395492145093157887e-04 1.604380668140947819e-04
1.511000000000000000e+03 1.398147583007812500e+00 5.001413822174072266e+00 4.050071875099092722e-04 1.840325130615383387e-04 1.767119101714342833e-04 -1.620395050849765539e-04
1.512000000000000000e+03 1.700366616249084473e+00 3.390946865081787109e+00 -2.140702272299677134e-04 8.155305295076686889e-06 -6.177447357913479209e-05 -1.629662001505494118e-04
1.513000000000000000e+03 3.030315589904785156e+01 -2.989045858383178711e+00 3.227932378649711609e-02 1.663081496953964233e-01 5.957624316215515137e-02 8.985859155654907227e-02
1.514000000000000000e+03 2.544312286376953125e+01 -2.067658901214599609e+00 -3.308810293674468994e-02 1.218688674271106720e-02 -6.270364392548799515e-03 3.349991440773010254e-01
1.515000000000000000e+03 2.454559516906738281e+01 -3.279320240020751953e+00 -1.918303966522216797e-01 -4.185163974761962891e-02 -7.010461390018463135e-02 3.435353934764862061e-01
1.516000000000000000e+03 2.180513381958007812e+01 -3.165150880813598633e+00 -9.600014239549636841e-02 -1.350186467170715332e-01 -6.930563598871231079e-02 2.783191800117492676e-01
1.517000000000000000e+03 2.306928825378417969e+01 -2.391809701919555664e+00 -7.468874752521514893e-02 -1.152831465005874634e-01 -5.699156969785690308e-02 3.426806032657623291e-01
1.518000000000000000e+03 2.883458137512207031e+01 -1.616055846214294434e+00 2.430892735719680786e-01 2.283746898174285889e-01 1.414391845464706421e-01 9.855482727289199829e-02
1.519000000000000000e+03 2.740986251831054688e+01 -3.571434974670410156e+00 -2.848829627037048340e-01 3.918189182877540588e-02 -7.371032238006591797e-02 2.970406711101531982e-01
1.520000000000000000e+03 3.030829238891601562e+01 -2.315694570541381836e+00 2.440010905265808105e-01 2.421059161424636841e-01 1.458321064710617065e-01 1.026927586644887924e-02
1.521000000000000000e+03 7.521388530731201172e+00 -3.313134908676147461e+00 1.373408740619197488e-04 -8.404509571846574545e-05 1.598873313923832029e-05 -5.571125657297670841e-04
1.522000000000000000e+03 1.077975463867187500e+01 -5.319760799407958984e+00 9.202455839840695262e-05 7.792137912474572659e-04 2.613714896142482758e-04 -5.966942990198731422e-04
1.523000000000000000e+03 3.246380233764648438e+01 -3.770836353302001953e+00 -1.732348278164863586e-02 1.701043099164962769e-01 4.583425074815750122e-02 -5.633670464158058167e-02
1.524000000000000000e+03 3.250031280517578125e+01 -3.137963533401489258e+00 3.039288520812988281e-01 2.618877887725830078e-01 1.697449833154678345e-01 -1.826812326908111572e-01
1.525000000000000000e+03 2.957522964477539062e+01 -2.967781066894531250e+00 -2.991221100091934204e-02 1.362542361021041870e-01 3.190260753035545349e-02 1.567185074090957642e-01
1.526000000000000000e+03 3.028790855407714844e+01 -3.655605554580688477e+00 -2.181044667959213257e-01 1.040301620960235596e-01 -3.422228991985321045e-02 1.545183211565017700e-01
1.527000000000000000e+03 1.097414493560791016e+01 3.371958017349243164e+00 4.321766900829970837e-04 4.434067814145237207e-04 2.626750501804053783e-04 4.129745357204228640e-04
1.528000000000000000e+03 1.164336967468261719e+01 5.003729343414306641e+00 -3.709073353093117476e-04 -8.037209045141935349e-04 -3.523884806782007217e-04 -7.252366631291806698e-04
1.529000000000000000e+03 3.403671646118164062e+01 -1.122331905364990234e+01 5.269444584846496582e-01 8.138164281845092773e-01 4.022282660007476807e-01 9.846279025077819824e-01
1.530000000000000000e+03 3.326696014404296875e+01 -9.932257652282714844e+00 -2.954542934894561768e-01 2.780782282352447510e-01 -5.212824326008558273e-03 3.686333894729614258e-01
1.531000000000000000e+03 3.546065139770507812e+01 -1.039086341857910156e+01 7.422718405723571777e-01 9.738302230834960938e-01 5.148305892944335938e-01 1.315170526504516602e+00
1.532000000000000000e+03 3.402025985717773438e+01 -1.054358959197998047e+01 2.619120776653289795e-01 5.738903284072875977e-01 2.507407069206237793e-01 7.662402987480163574e-01
1.533000000000000000e+03 3.474909973144531250e+01 -1.046673583984375000e+01 4.909828603267669678e-01 7.320723533630371094e-01 3.669165670871734619e-01 1.011601567268371582e+00
1.534000000000000000e+03 3.022829818725585938e+01 -1.079578495025634766e+01 -4.400306940078735352e-01 1.884787976741790771e-01 -7.546556740999221802e-02 2.434887550771236420e-02
1.535000000000000000e+03 3.099858474731445312e+01 -1.076499938964843750e+01 -3.459512293338775635e-01 2.308538854122161865e-01 -3.452920913696289062e-02 1.281677037477493286e-01
1.536000000000000000e+03 3.252263259887695312e+01 -1.067595291137695312e+01 -9.293963760137557983e-02 3.548766076564788818e-01 7.858109474182128906e-02 3.931124508380889893e-01
1.537000000000000000e+03 1.079496002197265625e+01 4.958829402923583984e+00 1.695167011348530650e-04 1.087142387405037880e-03 3.769977192860096693e-04 5.484191351570188999e-04
1.538000000000000000e+03 2.787952423095703125e+01 -1.087758255004882812e+01 -6.094681620597839355e-01 1.306079179048538208e-01 -1.436580717563629150e-01 -2.138140052556991577e-01
1.539000000000000000e+03 2.709813117980957031e+01 -1.014053821563720703e+01 -8.610886931419372559e-01 7.026679813861846924e-02 -2.372465729713439941e-01 -2.917876243591308594e-01
1.540000000000000000e+03 9.840532302856445312e+00 -4.942016601562500000e+00 2.961910795420408249e-04 -1.056105364114046097e-03 -2.279742620885372162e-04 6.134106079116463661e-04
1.541000000000000000e+03 6.530863285064697266e+00 -4.923777580261230469e+00 -3.354448708705604076e-04 7.269496563822031021e-04 1.174514400190673769e-04 3.149075782857835293e-04
1.542000000000000000e+03 4.330283641815185547e+00 -3.627381563186645508e+00 1.035240529745351523e-05 1.630478618608321995e-05 7.997156899364199489e-06 -3.861499135382473469e-04
1.543000000000000000e+03 4.454159736633300781e+00 -4.347061157226562500e+00 -8.526999590685591102e-05 2.883675333578139544e-04 6.092926560086198151e-05 2.886339207179844379e-04
1.544000000000000000e+03 7.773725509643554688e+00 -4.938642501831054688e+00 -4.296751285437494516e-04 9.938300354406237602e-04 1.692464575171470642e-04 3.105477662757039070e-04
1.545000000000000000e+03 8.227746009826660156e+00 -3.193295955657958984e+00 -1.457755715819075704e-04 1.199410544359125197e-04 -7.750352779112290591e-06 6.292613688856363297e-04
1.546000000000000000e+03 3.989103794097900391e+00 -7.613771915435791016e+00 5.903162527829408646e-04 8.014907507458701730e-05 2.011395990848541260e-04 -3.334294015076011419e-04
1.547000000000000000e+03 3.980366230010986328e+00 -6.419582366943359375e+00 5.414510378614068031e-04 -1.011186541290953755e-04 1.320997107541188598e-04 4.291869699954986572e-04
1.548000000000000000e+03 2.788824558258056641e+00 -5.037847518920898438e+00 2.327589609194546938e-04 1.316791749559342861e-04 1.093314422178082168e-04 4.246173484716564417e-04
1.549000000000000000e+03 3.176283836364746094e+01 -1.072573280334472656e+01 -2.323436886072158813e-01 2.826921045780181885e-01 1.510452385991811752e-02 2.515275180339813232e-01
1.550000000000000000e+03 3.445845413208007812e+01 -3.360790967941284180e+00 7.580856680870056152e-01 4.577231109142303467e-01 3.647426366806030273e-01 -6.105095148086547852e-01
1.551000000000000000e+03 3.381687164306640625e+01 -3.332556486129760742e+00 5.574151873588562012e-01 3.877888023853302002e-01 2.835611999034881592e-01 -4.433591365814208984e-01
1.552000000000000000e+03 2.383484077453613281e+01 -1.080778694152832031e+01 -6.841983199119567871e-01 1.160299330949783325e-01 -1.704505234956741333e-01 -4.595004022121429443e-01
1.553000000000000000e+03 2.464441108703613281e+01 -1.086572933197021484e+01 -6.809750795364379883e-01 1.176811233162879944e-01 -1.689881831407546997e-01 -4.257661700248718262e-01
1.554000000000000000e+03 2.945159721374511719e+01 -1.082233333587646484e+01 -5.144839882850646973e-01 1.602608859539031982e-01 -1.062669232487678528e-01 -6.764547526836395264e-02
1.555000000000000000e+03 1.173295402526855469e+01 4.158851146697998047e+00 5.899702082388103008e-04 5.573901580646634102e-04 3.442081215325742960e-04 6.250999867916107178e-04
1.556000000000000000e+03 2.866979408264160156e+01 -1.084910964965820312e+01 -5.681918859481811523e-01 1.376856714487075806e-01 -1.291518658399581909e-01 -1.456776857376098633e-01
1.557000000000000000e+03 1.816479110717773438e+01 -1.199760723114013672e+01 -5.946049690246582031e-01 -2.118696421384811401e-01 -2.419423758983612061e-01 -5.573065876960754395e-01
1.558000000000000000e+03 2.707426834106445312e+01 -1.090632152557373047e+01 -6.384803056716918945e-01 1.211492270231246948e-01 -1.551993191242218018e-01 -2.812414169311523438e-01
1.559000000000000000e+03 2.545275878906250000e+01 -1.091275310516357422e+01 -6.689571738243103027e-01 1.148375719785690308e-01 -1.662358790636062622e-01 -3.857173919677734375e-01
1.560000000000000000e+03 2.195604705810546875e+01 -1.033974456787109375e+01 -6.874224543571472168e-01 9.103076905012130737e-02 -1.789174973964691162e-01 -5.015887022018432617e-01
1.561000000000000000e+03 2.226766967773437500e+01 -1.088552284240722656e+01 -6.601680517196655273e-01 1.021720394492149353e-01 -1.673987954854965210e-01 -5.045523047447204590e-01
1.562000000000000000e+03 3.614541244506835938e+01 -1.032357501983642578e+01 1.027251601219177246e+00 1.277530074119567871e+00 6.914345026016235352e-01 1.685259103775024414e+00
1.563000000000000000e+03 3.678755187988281250e+01 -1.027604675292968750e+01 1.289545655250549316e+00 1.709699392318725586e+00 8.997735381126403809e-01 2.116313934326171875e+00
1.564000000000000000e+03 1.870979690551757812e+01 -1.105436706542968750e+01 -5.670613050460815430e-01 -1.423725187778472900e-01 -2.128301560878753662e-01 -5.368739366531372070e-01
1.565000000000000000e+03 1.926487731933593750e+01 -1.025832653045654297e+01 -5.604395270347595215e-01 -6.704337149858474731e-02 -1.882448643445968628e-01 -4.943248629570007324e-01
1.566000000000000000e+03 1.015875720977783203e+01 1.003468704223632812e+01 -5.584454047493636608e-04 -1.023038639687001705e-04 -1.982247777050361037e-04 -3.246124542783945799e-04
1.567000000000000000e+03 9.998557090759277344e+00 8.527106285095214844e+00 -2.698394564504269511e-05 -4.378698940854519606e-04 -1.394561550114303827e-04 5.037490336690098047e-05
1.568000000000000000e+03 2.905199050903320312e+00 1.149623584747314453e+01 4.329795483499765396e-03 -1.402541995048522949e-03 8.781760698184370995e-04 -2.819492947310209274e-03
1.569000000000000000e+03 6.635477542877197266e+00 1.829426193237304688e+01 -1.365438997745513916e-01 -1.002259436063468456e-03 -4.126384854316711426e-02 2.593538723886013031e-02
1.570000000000000000e+03 3.089207649230957031e+00 1.725548744201660156e+01 -1.978386752307415009e-02 -1.626613736152648926e-02 -1.081500109285116196e-02 6.506082136183977127e-03
1.571000000000000000e+03 9.992609977722167969e+00 4.962548255920410156e+00 -6.837633554823696613e-05 -9.141619084402918816e-04 -2.947614702861756086e-04 -1.636988163227215409e-04
1.572000000000000000e+03 4.055637359619140625e+00 1.095230388641357422e+01 1.715238206088542938e-03 -2.905220491811633110e-03 -3.569947148207575083e-04 -9.526952053420245647e-04
1.573000000000000000e+03 7.428901672363281250e+00 -2.616416931152343750e+01 6.664974242448806763e-02 -4.616474211215972900e-01 -1.184993088245391846e-01 -4.130374491214752197e-01
1.574000000000000000e+03 7.835383415222167969e+00 -2.333925437927246094e+01 -7.569760829210281372e-02 -4.338577985763549805e-01 -1.528666168451309204e-01 -4.962458610534667969e-01
1.575000000000000000e+03 6.206449985504150391e+00 -1.866860198974609375e+01 -3.662644624710083008e-01 -2.614769525825977325e-02 -1.177236437797546387e-01 -1.489333063364028931e-01
1.576000000000000000e+03 9.727553367614746094e+00 -3.656583786010742188e+00 4.665656888391822577e-04 -8.966680034063756466e-04 -1.290306972805410624e-04 -1.762751198839396238e-04
1.577000000000000000e+03 7.526237487792968750e+00 -2.124798011779785156e+01 -2.891462147235870361e-01 -2.967713177204132080e-01 -1.757752597332000732e-01 -4.802082777023315430e-01
1.578000000000000000e+03 2.196622657775878906e+01 7.865367412567138672e+00 -1.254531648010015488e-02 -3.909989818930625916e-02 -1.549356430768966675e-02 -4.809693992137908936e-02
1.579000000000000000e+03 2.103468704223632812e+01 -2.141828238964080811e-01 1.669752411544322968e-02 -3.406957089900970459e-01 -9.719945490360260010e-02 2.689862549304962158e-01
1.580000000000000000e+03 9.294528007507324219e+00 9.413619041442871094e+00 -3.281369208707474172e-05 1.048692734912037849e-03 3.047637001145631075e-04 7.556155906058847904e-04
1.581000000000000000e+03 1.255995082855224609e+01 5.033550739288330078e+00 7.502493681386113167e-04 5.452802288345992565e-04 3.886588674504309893e-04 6.726838182657957077e-04
1.582000000000000000e+03 2.336053085327148438e+01 -1.313034892082214355e+00 -4.742130171507596970e-03 -1.066857427358627319e-01 -3.342836350202560425e-02 3.475883603096008301e-01
1.583000000000000000e+03 2.118840599060058594e+01 9.470017552375793457e-01 2.019065804779529572e-02 -3.762064278125762939e-01 -1.068047285079956055e-01 2.610000669956207275e-01
1.584000000000000000e+03 8.507459640502929688e+00 -5.407635688781738281e+00 5.606854683719575405e-04 -1.121690263971686363e-03 -1.683014270383864641e-04 1.399316242896020412e-04
1.585000000000000000e+03 8.473374366760253906e+00 1.200291538238525391e+01 -9.482994209975004196e-04 3.195285797119140625e-03 6.740958779118955135e-04 -3.940826863981783390e-04
1.586000000000000000e+03 5.802388668060302734e+00 1.122664356231689453e+01 1.952815335243940353e-03 -4.456247668713331223e-03 -7.510297582484781742e-04 2.546670380979776382e-03
1.587000000000000000e+03 1.349421215057373047e+01 2.070390510559082031e+01 -2.079807519912719727e-01 -2.521139681339263916e-01 -1.380284130573272705e-01 1.614711433649063110e-01
1.588000000000000000e+03 7.519803619384765625e+01 1.223417758941650391e+01 -8.588127791881561279e-03 7.720829963684082031e+00 2.313672542572021484e+00 4.423829317092895508e-01
1.589000000000000000e+03 7.667902374267578125e+01 6.852030754089355469e-01 4.090854525566101074e-02 6.840843200683593750e+00 2.064525604248046875e+00 2.193397134542465210e-01
1.590000000000000000e+03 7.534877014160156250e+01 -1.910221815109252930e+00 9.190642833709716797e-02 6.855347156524658203e+00 2.084176063537597656e+00 2.026899009943008423e-01
1.591000000000000000e+03 7.539281463623046875e+01 -1.580342864990234375e+01 5.355062708258628845e-02 6.977526664733886719e+00 2.109323263168334961e+00 -2.805768549442291260e-01
1.592000000000000000e+03 7.671862792968750000e+01 -1.461303424835205078e+01 3.533385694026947021e-02 6.806097984313964844e+00 2.052429676055908203e+00 -1.936717778444290161e-01
1.593000000000000000e+03 7.540066528320312500e+01 -1.163887214660644531e+01 8.568381518125534058e-02 6.819390773773193359e+00 2.071522474288940430e+00 -1.661093831062316895e-01
1.594000000000000000e+03 7.538069915771484375e+01 -8.883349418640136719e+00 9.595243632793426514e-02 6.768363952636718750e+00 2.059294939041137695e+00 -6.668400019407272339e-02
1.595000000000000000e+03 7.538345336914062500e+01 -4.728868961334228516e+00 1.008772477507591248e-01 6.780613422393798828e+00 2.064447164535522461e+00 9.549897164106369019e-02
1.596000000000000000e+03 7.355044555664062500e+01 3.255558395385742188e+01 -8.846608549356460571e-02 8.591621398925781250e+00 2.550946712493896484e+00 1.988948285579681396e-01
1.597000000000000000e+03 7.624259185791015625e+01 3.447682189941406250e+01 -3.315838053822517395e-02 8.934154510498046875e+00 2.670298814773559570e+00 1.019575819373130798e-01
1.598000000000000000e+03 7.530182647705078125e+01 3.088935852050781250e+01 -5.464245751500129700e-02 8.731911659240722656e+00 2.603180885314941406e+00 1.839196830987930298e-01
1.599000000000000000e+03 7.544828033447265625e+01 -1.995175170898437500e+01 1.838677003979682922e-02 7.187884330749511719e+00 2.161881446838378906e+00 -3.363113701343536377e-01
1.600000000000000000e+03 7.567414855957031250e+01 -2.385861396789550781e+01 -9.219137951731681824e-03 7.406192779541015625e+00 2.219092130661010742e+00 -3.301118016242980957e-01
1.601000000000000000e+03 7.530914306640625000e+01 8.473431468009948730e-01 7.572873681783676147e-02 6.973062992095947266e+00 2.114637613296508789e+00 2.932255864143371582e-01
1.602000000000000000e+03 7.535453033447265625e+01 5.049083232879638672e+00 4.370200634002685547e-02 7.210904121398925781e+00 2.176381826400756836e+00 3.906644582748413086e-01
1.603000000000000000e+03 7.538063812255859375e+01 -6.129422187805175781e+00 9.991507977247238159e-02 6.763972282409667969e+00 2.059166193008422852e+00 4.027557000517845154e-02
1.604000000000000000e+03 7.533910369873046875e+01 6.474043369293212891e+00 3.327675163745880127e-02 7.307672500610351562e+00 2.202284812927246094e+00 4.134017229080200195e-01
1.605000000000000000e+03 7.540319061279296875e+01 -1.858567428588867188e+01 3.015789575874805450e-02 7.115727901458740234e+00 2.143765687942504883e+00 -3.248540163040161133e-01
1.606000000000000000e+03 7.552410888671875000e+01 -2.128429794311523438e+01 8.638503029942512512e-03 7.258924961090087891e+00 2.180269002914428711e+00 -3.380928933620452881e-01
1.607000000000000000e+03 7.538851928710937500e+01 -1.719494056701660156e+01 4.133919253945350647e-02 7.044860363006591797e+00 2.125859975814819336e+00 -3.069161772727966309e-01
1.608000000000000000e+03 7.532235717773437500e+01 2.229179620742797852e+00 6.601173430681228638e-02 7.041879653930664062e+00 2.132367372512817383e+00 3.300321698188781738e-01
1.609000000000000000e+03 7.532180023193359375e+01 -5.214949846267700195e-01 8.439444750547409058e-02 6.910223484039306641e+00 2.098385334014892578e+00 2.514871656894683838e-01
1.610000000000000000e+03 7.392633056640625000e+01 2.341062784194946289e+00 1.079442128539085388e-01 7.147285938262939453e+00 2.176569223403930664e+00 4.071872532367706299e-01
1.611000000000000000e+03 7.684129333496093750e+01 1.740177917480468750e+01 -1.607728190720081329e-02 8.126341819763183594e+00 2.433079242706298828e+00 2.882101237773895264e-01
1.612000000000000000e+03 7.683924102783203125e+01 1.607253265380859375e+01 -1.196243800222873688e-02 8.015583038330078125e+00 2.401086091995239258e+00 2.997897863388061523e-01
1.613000000000000000e+03 7.539210510253906250e+01 1.508287429809570312e+01 -2.280349843204021454e-02 7.928500175476074219e+00 2.371708869934082031e+00 4.150644242763519287e-01
1.614000000000000000e+03 7.512953186035156250e+01 -3.042275047302246094e+01 -4.826622828841209412e-02 7.758728504180908203e+00 2.313138723373413086e+00 -2.791942656040191650e-01
1.615000000000000000e+03 7.673146057128906250e+01 -2.816708946228027344e+01 -2.076901122927665710e-02 7.647989273071289062e+00 2.288166046142578125e+00 -2.312617748975753784e-01
1.616000000000000000e+03 7.450195312500000000e+01 -2.486557388305664062e+01 -2.533824369311332703e-02 7.498096942901611328e+00 2.241827726364135742e+00 -3.886725008487701416e-01
1.617000000000000000e+03 7.523858642578125000e+01 9.339701652526855469e+00 1.030611712485551834e-02 7.513701915740966797e+00 2.257202386856079102e+00 4.441677927970886230e-01
1.618000000000000000e+03 7.396272277832031250e+01 7.993574619293212891e+00 3.255127742886543274e-02 7.467580795288085938e+00 2.250039577484130859e+00 5.201255083084106445e-01
1.619000000000000000e+03 7.561782836914062500e+01 1.635931015014648438e+01 -2.680864371359348297e-02 8.016581535339355469e+00 2.396931886672973633e+00 3.864538371562957764e-01
1.620000000000000000e+03 7.543121337890625000e+01 1.879673576354980469e+01 -2.949016168713569641e-02 8.168968200683593750e+00 2.441843271255493164e+00 3.655772507190704346e-01
1.621000000000000000e+03 7.370708465576171875e+01 1.665711975097656250e+01 -4.749000072479248047e-02 7.999660491943359375e+00 2.385651111602783203e+00 4.937510490417480469e-01
1.622000000000000000e+03 7.512056732177734375e+01 2.030741119384765625e+01 -3.474596515297889709e-02 8.242177009582519531e+00 2.462229251861572266e+00 3.660258650779724121e-01
1.623000000000000000e+03 7.415128326416015625e+01 -2.731488800048828125e+01 -4.928620532155036926e-02 7.617978572845458984e+00 2.270607709884643555e+00 -3.744847774505615234e-01
1.624000000000000000e+03 7.566710662841796875e+01 -2.514392471313476562e+01 -1.634484343230724335e-02 7.482184886932373047e+00 2.239752054214477539e+00 -3.247915208339691162e-01
1.625000000000000000e+03 7.268650054931640625e+01 2.642766952514648438e+01 -9.443906694650650024e-02 8.372975349426269531e+00 2.483560800552368164e+00 3.513107001781463623e-01
1.626000000000000000e+03 7.644213867187500000e+01 2.593738174438476562e+01 -2.992604672908782959e-02 8.633748054504394531e+00 2.581146717071533203e+00 2.177141308784484863e-01
1.627000000000000000e+03 7.352932739257812500e+01 2.226356887817382812e+01 -6.705690175294876099e-02 8.268829345703125000e+00 2.460531711578369141e+00 4.134709239006042480e-01
1.628000000000000000e+03 7.496789550781250000e+01 2.625506973266601562e+01 -5.283230170607566833e-02 8.530011177062988281e+00 2.543153762817382812e+00 2.818009555339813232e-01
1.629000000000000000e+03 7.683218383789062500e+01 2.967239379882812500e+01 -2.479059994220733643e-02 8.862078666687011719e+00 2.651186466217041016e+00 1.461035758256912231e-01
1.630000000000000000e+03 7.441139221191406250e+01 2.905464363098144531e+01 -6.870239228010177612e-02 8.591021537780761719e+00 2.556695699691772461e+00 2.465709447860717773e-01
1.631000000000000000e+03 7.380338287353515625e+01 2.711027145385742188e+01 -7.117208093404769897e-02 8.463568687438964844e+00 2.517718791961669922e+00 3.117392361164093018e-01
1.632000000000000000e+03 7.379029846191406250e+01 -3.000637817382812500e+01 -7.549998164176940918e-02 7.729734420776367188e+00 2.296270370483398438e+00 -3.460475206375122070e-01
1.633000000000000000e+03 7.372681427001953125e+01 -3.733872985839843750e+01 -1.122492179274559021e-01 7.933538436889648438e+00 2.346386671066284180e+00 -1.458154469728469849e-01
1.634000000000000000e+03 7.559544372558593750e+01 -3.723608016967773438e+01 -6.500945985317230225e-02 8.022459983825683594e+00 2.387235164642333984e+00 -1.158728376030921936e-01
1.635000000000000000e+03 7.518174743652343750e+01 3.234075927734375000e+01 -5.116329342126846313e-02 8.776665687561035156e+00 2.617650508880615234e+00 1.616039723157882690e-01
1.636000000000000000e+03 7.570004272460937500e+01 2.946497535705566406e+01 -4.119879752397537231e-02 8.724720954895019531e+00 2.605056524276733398e+00 1.962911188602447510e-01
1.637000000000000000e+03 7.529492187500000000e+01 -2.907590675354003906e+01 -4.282516986131668091e-02 7.693253517150878906e+00 2.295128345489501953e+00 -2.948651611804962158e-01
1.638000000000000000e+03 7.336939239501953125e+01 -3.499206924438476562e+01 -1.234674602746963501e-01 7.877968788146972656e+00 2.326350450515747070e+00 -2.421816140413284302e-01
1.639000000000000000e+03 7.455933380126953125e+01 -3.631979370117187500e+01 -9.743280708789825439e-02 7.939606666564941406e+00 2.352652072906494141e+00 -1.709137558937072754e-01
1.640000000000000000e+03 3.112281799316406250e+00 1.582641315460205078e+01 -6.652075331658124924e-03 -1.226299535483121872e-02 -5.674520973116159439e-03 -4.730748478323221207e-03
1.641000000000000000e+03 4.207225322723388672e+00 -1.380678272247314453e+01 1.030040625482797623e-02 -1.797477342188358307e-02 -2.302310196682810783e-03 -2.034963574260473251e-03
1.642000000000000000e+03 5.409919261932373047e+00 1.962994956970214844e+01 -1.452868878841400146e-01 -1.957097277045249939e-02 -4.945735633373260498e-02 8.483496308326721191e-02
1.643000000000000000e+03 3.152175426483154297e+00 1.871485137939453125e+01 -3.836714103817939758e-02 -2.897401154041290283e-02 -2.020234614610671997e-02 3.488149493932723999e-02
1.644000000000000000e+03 5.176582336425781250e+00 2.095275497436523438e+01 -1.307876706123352051e-01 -5.277390033006668091e-02 -5.506847053766250610e-02 1.521431505680084229e-01
1.645000000000000000e+03 4.543219566345214844e+00 -1.737096214294433594e+01 -6.247516721487045288e-02 -4.578031226992607117e-02 -3.247664496302604675e-02 -1.085653249174356461e-02
1.646000000000000000e+03 3.273691892623901367e+00 1.434524345397949219e+01 3.642574883997440338e-03 -9.332716464996337891e-03 -1.707042451016604900e-03 -4.701135680079460144e-03
1.647000000000000000e+03 4.368777275085449219e+00 1.838165473937988281e+01 -6.664568930864334106e-02 -2.403504587709903717e-02 -2.720422111451625824e-02 3.352887928485870361e-02
1.648000000000000000e+03 4.083291053771972656e+00 2.451458358764648438e+01 -2.250264398753643036e-02 -1.839864403009414673e-01 -6.194672733545303345e-02 2.035092860460281372e-01
1.649000000000000000e+03 4.804806709289550781e+00 2.977215003967285156e+01 3.686766698956489563e-02 -2.998060584068298340e-01 -7.888151705265045166e-02 1.830215752124786377e-01
1.650000000000000000e+03 6.189560890197753906e+00 -2.434654426574707031e+01 -3.010421805083751678e-02 -3.979634940624237061e-01 -1.284203082323074341e-01 -4.172469079494476318e-01
1.651000000000000000e+03 3.154256582260131836e+00 -1.050642108917236328e+01 3.918230067938566208e-03 -2.907902700826525688e-03 3.030982334166765213e-04 2.056214725598692894e-03
1.652000000000000000e+03 5.412207603454589844e+00 -1.951128578186035156e+01 -2.377422302961349487e-01 -9.005990624427795410e-02 -9.834063798189163208e-02 -2.230173051357269287e-01
1.653000000000000000e+03 3.296380519866943359e+00 -2.300007438659667969e+01 -4.720184952020645142e-02 -2.788543403148651123e-01 -9.781685471534729004e-02 -2.507232725620269775e-01
1.654000000000000000e+03 5.763497829437255859e+00 -2.051095390319824219e+01 -2.212952673435211182e-01 -1.833366453647613525e-01 -1.213895753026008606e-01 -3.111521303653717041e-01
1.655000000000000000e+03 5.685350894927978516e+00 2.290528869628906250e+01 -8.871055394411087036e-02 -1.284408271312713623e-01 -6.514541804790496826e-02 2.464961558580398560e-01
1.656000000000000000e+03 4.263048648834228516e+00 2.577293395996093750e+01 3.250510431826114655e-03 -2.249730527400970459e-01 -6.651676446199417114e-02 2.124236524105072021e-01
1.657000000000000000e+03 4.958882808685302734e+00 2.395232582092285156e+01 -3.842265531420707703e-02 -1.656334847211837769e-01 -6.121684238314628601e-02 2.268940508365631104e-01
1.658000000000000000e+03 3.397080898284912109e+00 -2.446861076354980469e+01 -1.910565048456192017e-02 -3.689893186092376709e-01 -1.164284944534301758e-01 -2.788845598697662354e-01
1.659000000000000000e+03 5.508072853088378906e+00 -2.191897010803222656e+01 -1.604245305061340332e-01 -2.508931756019592285e-01 -1.233953088521957397e-01 -3.563874363899230957e-01
1.660000000000000000e+03 4.425865173339843750e+00 -2.150619697570800781e+01 -1.233693659305572510e-01 -1.937364786863327026e-01 -9.513175487518310547e-02 -2.496501356363296509e-01
1.661000000000000000e+03 4.784288406372070312e+00 -2.590940475463867188e+01 1.291109621524810791e-02 -4.548314213752746582e-01 -1.325760930776596069e-01 -3.550335168838500977e-01
1.662000000000000000e+03 3.509782791137695312e+00 -3.143061256408691406e+01 4.732641577720642090e-02 -7.255046963691711426e-01 -2.034534811973571777e-01 -2.082941383123397827e-01
1.663000000000000000e+03 4.852280139923095703e+00 -3.009391593933105469e+01 6.255140900611877441e-02 -6.033079028129577637e-01 -1.622269451618194580e-01 -2.779585719108581543e-01
1.664000000000000000e+03 4.314677715301513672e+00 9.243173599243164062e+00 1.942154602147638798e-03 -1.616801018826663494e-03 9.760605462361127138e-05 -2.957931719720363617e-04
1.665000000000000000e+03 5.305102348327636719e+00 3.248112487792968750e+01 7.060986012220382690e-02 -3.048905134201049805e-01 -7.028419524431228638e-02 1.537509709596633911e-01
1.666000000000000000e+03 5.454930305480957031e+00 3.558714675903320312e+01 6.525076180696487427e-02 -3.208058476448059082e-01 -7.666652649641036987e-02 1.100531220436096191e-01
1.667000000000000000e+03 3.776843547821044922e+00 3.557325363159179688e+01 4.748774319887161255e-02 -5.049464702606201172e-01 -1.372376233339309692e-01 9.078559279441833496e-02
1.668000000000000000e+03 6.068758964538574219e+00 -1.166105842590332031e+01 -7.237149984575808048e-04 6.289987824857234955e-03 1.669881865382194519e-03 -5.167893134057521820e-03
1.669000000000000000e+03 2.381220102310180664e+00 -1.257953453063964844e+01 4.524207673966884613e-03 -3.074101870879530907e-03 4.350317176431417465e-04 6.950682960450649261e-03
1.670000000000000000e+03 3.425455570220947266e+00 -1.187920951843261719e+01 5.701398942619562149e-03 -4.707845393568277359e-03 2.980660065077245235e-04 3.550681751221418381e-03
1.671000000000000000e+03 6.094250202178955078e+00 9.322081565856933594e+00 8.464191341772675514e-04 -1.947336248122155666e-03 -3.302751283627003431e-04 1.168209942989051342e-03
1.672000000000000000e+03 6.001656532287597656e+00 -3.153710556030273438e+01 1.049267351627349854e-01 -5.592520833015441895e-01 -1.362975984811782837e-01 -2.747254073619842529e-01
1.673000000000000000e+03 4.802136898040771484e+00 -3.127255630493164062e+01 6.236286461353302002e-02 -6.327134966850280762e-01 -1.711051762104034424e-01 -2.578717470169067383e-01
1.674000000000000000e+03 3.696167945861816406e+00 -3.269458770751953125e+01 4.796786233782768250e-02 -7.549108266830444336e-01 -2.120828926563262939e-01 -1.883493363857269287e-01
1.675000000000000000e+03 4.596670627593994141e+00 2.844839668273925781e+01 3.191367536783218384e-02 -2.850505411624908447e-01 -7.594105601310729980e-02 1.988424211740493774e-01
1.676000000000000000e+03 5.529809474945068359e+00 3.393186950683593750e+01 6.295509636402130127e-02 -3.177051544189453125e-01 -7.642502337694168091e-02 1.328611969947814941e-01
1.677000000000000000e+03 5.024920940399169922e+00 3.112206649780273438e+01 5.004344508051872253e-02 -3.036562204360961914e-01 -7.608383148908615112e-02 1.745997220277786255e-01
1.678000000000000000e+03 3.566322326660156250e+00 7.804406642913818359e+00 1.634929678402841091e-03 -3.260833036620169878e-04 3.926538920495659113e-04 -7.948795682750642300e-04
1.679000000000000000e+03 2.854861736297607422e+00 -6.338677883148193359e+00 -1.498711353633552790e-04 1.387448864988982677e-04 -3.337875114084454253e-06 -4.558206710498780012e-04
1.680000000000000000e+03 6.347616672515869141e+00 -3.651662445068359375e+01 1.128600761294364929e-01 -5.974287986755371094e-01 -1.453706175088882446e-01 -1.587516963481903076e-01
1.681000000000000000e+03 7.928037166595458984e+00 -7.590319156646728516e+00 -5.340953357517719269e-04 1.739720813930034637e-03 3.616876201704144478e-04 1.073943276423960924e-04
1.682000000000000000e+03 1.471012592315673828e+01 -1.791827774047851562e+01 -5.694768428802490234e-01 -4.828326106071472168e-01 -3.156928420066833496e-01 -4.303274452686309814e-01
1.683000000000000000e+03 1.744251060485839844e+01 -1.633003425598144531e+01 -4.923757314682006836e-01 -1.996244341135025024e-01 -2.076000571250915527e-01 -4.151161909103393555e-01
1.684000000000000000e+03 5.375996589660644531e+00 -8.404228210449218750e+00 1.289198058657348156e-03 -3.386680909898132086e-04 2.851590106729418039e-04 -7.933620945550501347e-04
1.685000000000000000e+03 2.127348327636718750e+01 -1.073203849792480469e+01 -6.439043283462524414e-01 7.125870138406753540e-02 -1.717936843633651733e-01 -5.203673243522644043e-01
1.686000000000000000e+03 6.434150695800781250e+00 1.974279975891113281e+01 -2.018895000219345093e-01 2.724582096561789513e-03 -5.974947661161422729e-02 9.055805951356887817e-02
1.687000000000000000e+03 4.419124126434326172e+00 1.959317970275878906e+01 -9.083700180053710938e-02 -3.084310144186019897e-02 -3.650403022766113281e-02 7.135894894599914551e-02
1.688000000000000000e+03 1.101298809051513672e+01 -2.087810897827148438e+01 -2.454503029584884644e-01 -6.039787530899047852e-01 -2.548287212848663330e-01 -4.852792918682098389e-01
1.689000000000000000e+03 2.150917243957519531e+01 1.058182621002197266e+01 -7.439673691987991333e-02 7.397715002298355103e-02 -1.258764241356402636e-04 -1.151680126786231995e-01
1.690000000000000000e+03 7.162856578826904297e+00 -1.215069675445556641e+01 -6.440337747335433960e-04 2.945032902061939240e-04 -1.048591439030133188e-04 4.146832216065376997e-04
1.691000000000000000e+03 6.835292816162109375e+00 -1.032339954376220703e+01 1.580934738740324974e-03 -1.357660396024584770e-03 6.698227662127465010e-05 -1.258241478353738785e-03
1.692000000000000000e+03 8.129108428955078125e+00 2.181286048889160156e+01 -1.590441614389419556e-01 -1.535944938659667969e-01 -9.379159659147262573e-02 2.914418578147888184e-01
1.693000000000000000e+03 2.281705284118652344e+01 5.441822052001953125e+00 7.299496978521347046e-02 1.892615854740142822e-02 2.757633663713932037e-02 1.687003485858440399e-02
1.694000000000000000e+03 2.231513023376464844e+01 6.593551158905029297e+00 2.268035896122455597e-02 -3.318246454000473022e-02 -3.150631207972764969e-03 -1.197461690753698349e-02
1.695000000000000000e+03 4.591339588165283203e+00 -1.013531303405761719e+01 2.836330793797969818e-03 -6.394025404006242752e-04 6.590785342268645763e-04 -1.942762406542897224e-03
1.696000000000000000e+03 1.675732231140136719e+01 -1.768903541564941406e+01 -4.237088859081268311e-01 -2.169850915670394897e-01 -1.922081857919692993e-01 -3.470536470413208008e-01
1.697000000000000000e+03 7.603938293457031250e+01 4.062207031250000000e+01 -1.727217622101306915e-02 9.087696075439453125e+00 2.721127033233642578e+00 6.777291744947433472e-02
1.698000000000000000e+03 1.988016128540039062e+01 -1.078964805603027344e+01 -6.038501858711242676e-01 -9.504315443336963654e-03 -1.840063482522964478e-01 -5.252583622932434082e-01
1.699000000000000000e+03 1.805640029907226562e+01 1.962917518615722656e+01 -1.304426342248916626e-01 2.185343056917190552e-01 2.642750181257724762e-02 -1.290574222803115845e-01
1.700000000000000000e+03 1.733742332458496094e+01 1.804783248901367188e+01 -2.605785727500915527e-01 -2.994865179061889648e-02 -8.715817332267761230e-02 2.673589391633868217e-03
1.701000000000000000e+03 2.031195831298828125e+01 1.608221244812011719e+01 -1.726496368646621704e-01 3.563193380832672119e-01 5.510090664029121399e-02 -1.767837852239608765e-01
1.702000000000000000e+03 1.472802925109863281e+01 1.978431510925292969e+01 -2.846285402774810791e-01 -2.087510973215103149e-01 -1.480138897895812988e-01 1.256186664104461670e-01
1.703000000000000000e+03 1.397041225433349609e+01 -1.892827033996582031e+01 -4.380233585834503174e-01 -5.086194276809692383e-01 -2.839928567409515381e-01 -3.935143351554870605e-01
1.704000000000000000e+03 1.494378280639648438e+01 -2.002773094177246094e+01 -2.606778144836425781e-01 -3.393954336643218994e-01 -1.800219714641571045e-01 -2.970065176486968994e-01
1.705000000000000000e+03 2.446980476379394531e+01 7.689214706420898438e+00 1.270178109407424927e-01 5.390084385871887207e-01 1.998078823089599609e-01 -2.413493394851684570e-01
1.706000000000000000e+03 3.974850845336914062e+01 -8.982278823852539062e+00 2.667301893234252930e+00 6.455799579620361328e+00 2.736930370330810547e+00 5.175871849060058594e+00
1.707000000000000000e+03 3.940447616577148438e+01 -8.999775886535644531e+00 2.702780246734619141e+00 5.252911567687988281e+00 2.386707544326782227e+00 4.720257759094238281e+00
1.708000000000000000e+03 4.011751174926757812e+01 -9.381063461303710938e+00 1.952284693717956543e+00 8.656079292297363281e+00 3.182509183883666992e+00 5.210924625396728516e+00
1.709000000000000000e+03 3.999738311767578125e+01 -4.466833114624023438e+00 3.618956327438354492e+00 7.494823932647705078e+00 3.334134101867675781e+00 -5.755983829498291016e+00
1.710000000000000000e+03 3.905114746093750000e+01 -4.588132858276367188e+00 3.502485036849975586e+00 3.011032342910766602e+00 1.954055190086364746e+00 -3.808134794235229492e+00
1.711000000000000000e+03 3.961120986938476562e+01 -4.611731529235839844e+00 3.984733104705810547e+00 4.936712265014648438e+00 2.676433563232421875e+00 -5.087076187133789062e+00
1.712000000000000000e+03 4.063874816894531250e+01 -9.103746414184570312e+00 1.674000263214111328e+00 1.140472602844238281e+01 3.923617839813232422e+00 5.215512275695800781e+00
1.713000000000000000e+03 3.929708480834960938e+01 -8.803293228149414062e+00 2.780284166336059570e+00 4.378800868988037109e+00 2.147725582122802734e+00 4.345273017883300781e+00
1.714000000000000000e+03 4.135905075073242188e+01 -8.527011871337890625e+00 1.410813212394714355e+00 1.698282241821289062e+01 5.518090248107910156e+00 3.862860441207885742e+00
1.715000000000000000e+03 4.250685882568359375e+01 -8.070262908935546875e+00 4.631275177001953125e+00 1.834348106384277344e+01 6.892426967620849609e+00 -1.732263922691345215e+00
1.716000000000000000e+03 4.355023193359375000e+01 -5.463973522186279297e+00 7.300003051757812500e+00 1.433070182800292969e+01 6.489211559295654297e+00 1.801062822341918945e+00
1.717000000000000000e+03 4.334883117675781250e+01 -5.174749851226806641e+00 6.499657630920410156e+00 1.523101902008056641e+01 6.519202709197998047e+00 2.048678159713745117e+00
1.718000000000000000e+03 4.287383651733398438e+01 -4.713779449462890625e+00 4.355288028717041016e+00 1.645315170288085938e+01 6.242532253265380859e+00 1.456077933311462402e+00
1.719000000000000000e+03 4.263379669189453125e+01 -8.379979133605957031e+00 3.572078704833984375e+00 1.729246139526367188e+01 6.259362220764160156e+00 -1.292778372764587402e+00
1.720000000000000000e+03 4.310978698730468750e+01 -7.775681495666503906e+00 6.681478023529052734e+00 1.588152980804443359e+01 6.768902301788330078e+00 -2.315469503402709961e+00
1.721000000000000000e+03 4.280910491943359375e+01 -8.035741806030273438e+00 5.287584304809570312e+00 1.719196319580078125e+01 6.743864059448242188e+00 -2.087775945663452148e+00
1.722000000000000000e+03 3.795240783691406250e+01 -1.035216903686523438e+01 1.727037191390991211e+00 3.201339244842529297e+00 1.478512883186340332e+00 3.147131681442260742e+00
1.723000000000000000e+03 3.634883880615234375e+01 -3.906185388565063477e+00 1.323283195495605469e+00 7.343461513519287109e-01 6.172888278961181641e-01 -1.183728694915771484e+00
1.724000000000000000e+03 3.559484863281250000e+01 -2.819805860519409180e+00 1.424311161041259766e+00 1.045545339584350586e+00 7.409569025039672852e-01 -1.324491143226623535e+00
1.725000000000000000e+03 3.679144287109375000e+01 -3.376927375793457031e+00 1.848772406578063965e+00 1.362522482872009277e+00 9.633885025978088379e-01 -1.825037598609924316e+00
1.726000000000000000e+03 3.616305541992187500e+01 -2.838502168655395508e+00 1.668846487998962402e+00 1.332372784614562988e+00 9.003657698631286621e-01 -1.654551267623901367e+00
1.727000000000000000e+03 3.804672622680664062e+01 -9.717595100402832031e+00 1.830821156501770020e+00 2.706306219100952148e+00 1.361138224601745605e+00 3.013731241226196289e+00
1.728000000000000000e+03 2.273319435119628906e+01 -1.074770212173461914e+00 7.152728736400604248e-03 -1.600742787122726440e-01 -4.587646573781967163e-02 3.374922871589660645e-01
1.729000000000000000e+03 2.474983596801757812e+01 -1.888872265815734863e+00 -2.677302807569503784e-02 -2.423664927482604980e-02 -1.530290301889181137e-02 3.448570966720581055e-01
1.730000000000000000e+03 2.674367332458496094e+01 -9.973456263542175293e-01 1.711996346712112427e-01 1.344384551048278809e-01 9.169142693281173706e-02 2.251568436622619629e-01
1.731000000000000000e+03 2.460971260070800781e+01 -3.026457726955413818e-01 1.072488725185394287e-01 1.084609329700469971e-02 3.542849048972129822e-02 2.928355038166046143e-01
1.732000000000000000e+03 2.534674263000488281e+01 -2.704034090042114258e+00 -1.214067414402961731e-01 -7.030088454484939575e-03 -3.853104636073112488e-02 3.446080088615417480e-01
1.733000000000000000e+03 2.612038421630859375e+01 -2.183547973632812500e+00 -3.104456327855587006e-02 4.137883707880973816e-02 3.100282279774546623e-03 3.157651722431182861e-01
1.734000000000000000e+03 3.965630769729614258e+00 4.393220901489257812e+00 -2.916525409091264009e-04 -1.074835308827459812e-04 -1.197408200823701918e-04 -8.389430877286940813e-05
1.735000000000000000e+03 7.008388996124267578e+00 5.558401584625244141e+00 1.085837837308645248e-03 -1.026704048854298890e-04 2.949502086266875267e-04 -3.384876763448119164e-04
1.736000000000000000e+03 6.614606857299804688e+00 4.023213863372802734e+00 -1.098194697988219559e-04 -4.313326789997518063e-04 -1.623456482775509357e-04 9.555717952025588602e-06
1.737000000000000000e+03 5.411384582519531250e+00 4.806254386901855469e+00 3.518447629176080227e-04 3.500539460219442844e-04 2.105696039507165551e-04 2.610050160001264885e-06
1.738000000000000000e+03 5.306870937347412109e+00 4.117148876190185547e+00 5.159882857697084546e-05 -4.958875942975282669e-04 -1.332866231678053737e-04 7.828190427972003818e-05
1.739000000000000000e+03 2.814531517028808594e+01 -2.274725675582885742e+00 4.703455790877342224e-02 1.293204277753829956e-01 5.290649831295013428e-02 2.149754911661148071e-01
1.740000000000000000e+03 2.814381408691406250e+01 -2.934160470962524414e+00 -1.085846573114395142e-01 8.653509616851806641e-02 -6.614869460463523865e-03 2.522393465042114258e-01
1.741000000000000000e+03 2.885558509826660156e+01 -2.283563375473022461e+00 9.782510250806808472e-02 1.628528088331222534e-01 7.820337265729904175e-02 1.606995165348052979e-01
1.742000000000000000e+03 8.486968994140625000e+00 4.967858314514160156e+00 -1.157700826297514141e-04 -7.508154376409947872e-04 -2.599756408017128706e-04 3.447258495725691319e-05
1.743000000000000000e+03 7.158718585968017578e+00 4.813233375549316406e+00 -1.486768160248175263e-04 -3.976747102569788694e-04 -1.639054535189643502e-04 2.767328987829387188e-04
1.744000000000000000e+03 7.269583702087402344e+00 4.051706790924072266e+00 4.060056235175579786e-04 4.679770208895206451e-04 2.621947787702083588e-04 6.859631685074418783e-05
1.745000000000000000e+03 9.233141899108886719e+00 7.979754447937011719e+00 -7.658566028112545609e-05 7.822192274034023285e-04 2.116900723194703460e-04 3.641449729911983013e-04
1.746000000000000000e+03 4.643430709838867188e+00 4.275671958923339844e+00 5.590097862295806408e-04 2.467186423018574715e-04 2.417185314698144794e-04 -2.900551189668476582e-04
1.747000000000000000e+03 3.177966308593750000e+01 -3.062690734863281250e+00 2.099482715129852295e-01 2.400292307138442993e-01 1.349932551383972168e-01 -8.374939858913421631e-02
1.748000000000000000e+03 3.259379196166992188e+01 -2.461608171463012695e+00 6.056398153305053711e-01 4.290167987346649170e-01 3.103969693183898926e-01 -3.663228750228881836e-01
1.749000000000000000e+03 2.957694244384765625e+01 -2.296952962875366211e+00 1.637031733989715576e-01 2.015844136476516724e-01 1.095862761139869690e-01 9.087780863046646118e-02
1.750000000000000000e+03 8.334610939025878906e+00 -3.822772741317749023e+00 1.086020129150711000e-04 1.104135953937657177e-04 6.570468394784256816e-05 -6.735516944900155067e-04
1.751000000000000000e+03 6.363512992858886719e+00 -7.731938838958740234e+00 1.123734764405526221e-04 6.459402502514421940e-04 2.274941216455772519e-04 2.432919864077121019e-04
1.752000000000000000e+03 7.191324710845947266e+00 -5.580701351165771484e+00 5.489379400387406349e-04 -6.641258951276540756e-04 -3.455638216109946370e-05 -3.279488882981240749e-04
1.753000000000000000e+03 5.091723918914794922e+00 -4.256072521209716797e+00 -1.834166905609890819e-04 3.504913474898785353e-04 5.012239489587955177e-05 -2.881781547330319881e-04
1.754000000000000000e+03 3.327676391601562500e+01 -1.061480712890625000e+01 7.012344896793365479e-02 4.457051157951354980e-01 1.547485738992691040e-01 5.636740326881408691e-01
1.755000000000000000e+03 3.329347991943359375e+01 -1.131024932861328125e+01 3.492067456245422363e-01 6.565042138099670410e-01 3.017132878303527832e-01 7.583093047142028809e-01
1.756000000000000000e+03 3.317241287231445312e+01 -3.247257232666015625e+00 4.034879803657531738e-01 3.310025930404663086e-01 2.203471660614013672e-01 -2.936728596687316895e-01
1.757000000000000000e+03 3.181410026550292969e+01 -2.387125253677368164e+00 4.618030190467834473e-01 3.582554161548614502e-01 2.460175305604934692e-01 -2.101219892501831055e-01
1.758000000000000000e+03 2.945214653015136719e+01 -1.154123401641845703e+01 -2.704378068447113037e-01 2.474893331527709961e-01 -6.884546019136905670e-03 8.728639222681522369e-03
1.759000000000000000e+03 3.406701278686523438e+01 -1.192010688781738281e+01 7.030561566352844238e-01 1.098724246025085449e+00 5.405340790748596191e-01 1.188823938369750977e+00
1.760000000000000000e+03 3.253645706176757812e+01 -1.138337898254394531e+01 1.882895380258560181e-01 5.264900326728820801e-01 2.144338786602020264e-01 5.604344010353088379e-01
1.761000000000000000e+03 3.476194000244140625e+01 -1.112877178192138672e+01 7.207500338554382324e-01 1.035474419593811035e+00 5.268673300743103027e-01 1.255721807479858398e+00
1.762000000000000000e+03 7.143910884857177734e+00 -4.327183246612548828e+00 4.131065797992050648e-04 -4.429689142853021622e-04 -8.958695616456680000e-06 -4.566603747662156820e-04
1.763000000000000000e+03 3.100183486938476562e+01 -1.148035049438476562e+01 -7.481139898300170898e-02 3.509714007377624512e-01 8.284800499677658081e-02 2.462197840213775635e-01
1.764000000000000000e+03 3.546611785888671875e+01 -1.103574657440185547e+01 9.382302165031433105e-01 1.308506131172180176e+00 6.740208864212036133e-01 1.566853404045104980e+00
1.765000000000000000e+03 3.177121162414550781e+01 -1.143974494934082031e+01 5.052972584962844849e-02 4.286639392375946045e-01 1.437581032514572144e-01 3.904902338981628418e-01
1.766000000000000000e+03 3.022579193115234375e+01 -1.223382282257080078e+01 3.033909574151039124e-02 4.139364063739776611e-01 1.332826465368270874e-01 2.236620932817459106e-01
1.767000000000000000e+03 2.299212074279785156e+01 -1.153140449523925781e+01 -5.926920771598815918e-01 1.368338763713836670e-01 -1.367574483156204224e-01 -4.854821860790252686e-01
1.768000000000000000e+03 3.499815750122070312e+01 -2.807441473007202148e+00 1.197303056716918945e+00 8.251006007194519043e-01 6.067211031913757324e-01 -1.032833576202392578e+00
1.769000000000000000e+03 3.427577972412109375e+01 -2.227575778961181641e+00 1.125141024589538574e+00 8.570631146430969238e-01 5.946612358093261719e-01 -9.396954178810119629e-01
1.770000000000000000e+03 2.788689231872558594e+01 -1.162189769744873047e+01 -3.916727006435394287e-01 1.940802782773971558e-01 -5.927772819995880127e-02 -1.650920957326889038e-01
1.771000000000000000e+03 2.867359352111816406e+01 -1.157668399810791016e+01 -3.414514362812042236e-01 2.161341011524200439e-01 -3.759520128369331360e-02 -8.634912222623825073e-02
1.772000000000000000e+03 2.626169586181640625e+01 -1.092494773864746094e+01 -6.541135311126708984e-01 1.183343753218650818e-01 -1.607337445020675659e-01 -3.373677432537078857e-01
1.773000000000000000e+03 2.707349586486816406e+01 -1.168284893035888672e+01 -4.360425770282745361e-01 1.925068795680999756e-01 -7.306070625782012939e-02 -2.372862398624420166e-01
1.774000000000000000e+03 1.089112091064453125e+01 4.161668300628662109e+00 -2.913046628236770630e-04 -6.401854334399104118e-04 -2.794470346998423338e-04 -4.725867183879017830e-04
1.775000000000000000e+03 3.022895622253417969e+01 -1.151145839691162109e+01 -1.826080083847045898e-01 2.935150563716888428e-01 3.327211365103721619e-02 1.178486943244934082e-01
1.776000000000000000e+03 2.055463218688964844e+01 -1.098346710205078125e+01 -6.260349750518798828e-01 3.993117809295654297e-02 -1.758311390876770020e-01 -5.300514101982116699e-01
1.777000000000000000e+03 1.144733333587646484e+01 5.888206005096435547e+00 3.091738617513328791e-04 1.108791446313261986e-03 4.253895895089954138e-04 7.324288017116487026e-04
1.778000000000000000e+03 2.457139205932617188e+01 -1.168800640106201172e+01 -5.380484461784362793e-01 1.579753011465072632e-01 -1.140219420194625854e-01 -4.198143482208251953e-01
1.779000000000000000e+03 2.302204132080078125e+01 -1.076890945434570312e+01 -6.798686981201171875e-01 1.127751171588897705e-01 -1.701280772686004639e-01 -4.870345592498779297e-01
1.780000000000000000e+03 2.363789939880371094e+01 -1.237456512451171875e+01 -4.745896160602569580e-01 1.708254516124725342e-01 -9.112925082445144653e-02 -4.412886202335357666e-01
1.781000000000000000e+03 2.540244674682617188e+01 -1.175930690765380859e+01 -5.043702125549316406e-01 1.661940366029739380e-01 -1.014528498053550720e-01 -3.698832094669342041e-01
1.782000000000000000e+03 1.953278541564941406e+01 -1.160847759246826172e+01 -6.010586619377136230e-01 -3.321751579642295837e-02 -1.902828514575958252e-01 -5.406396985054016113e-01
1.783000000000000000e+03 1.913610267639160156e+01 -1.262656021118164062e+01 -5.900845527648925781e-01 -6.919114291667938232e-02 -1.977827101945877075e-01 -5.418306589126586914e-01
1.784000000000000000e+03 3.738329696655273438e+01 -1.027156829833984375e+01 1.534829616546630859e+00 2.271742820739746094e+00 1.141971707344055176e+00 2.554301023483276367e+00
1.785000000000000000e+03 2.167284202575683594e+01 -1.130518341064453125e+01 -6.238437891006469727e-01 9.271643310785293579e-02 -1.593382209539413452e-01 -5.240033268928527832e-01
1.786000000000000000e+03 2.376337432861328125e+01 -1.159589290618896484e+01 -5.702004432678222656e-01 1.455049514770507812e-01 -1.274086534976959229e-01 -4.581427872180938721e-01
1.787000000000000000e+03 2.105903816223144531e+01 -1.246627926826477051e+00 -7.389517966657876968e-03 -2.783333659172058105e-01 -8.571686595678329468e-02 2.740550041198730469e-01
1.788000000000000000e+03 2.171622848510742188e+01 9.198568344116210938e+00 -3.767897933721542358e-02 1.048649195581674576e-03 -1.098909880965948105e-02 -8.260407298803329468e-02
1.789000000000000000e+03 7.603517532348632812e+00 1.122459411621093750e+01 -9.404606535099446774e-04 1.383596099913120270e-03 1.329406222794204950e-04 3.395285690203309059e-03
1.790000000000000000e+03 6.597169876098632812e+00 1.222047805786132812e+01 3.404453629627823830e-03 -1.880315016023814678e-03 4.572415491566061974e-04 4.392585717141628265e-03
1.791000000000000000e+03 8.533679008483886719e+00 8.750880241394042969e+00 3.295693313702940941e-04 4.279239219613373280e-04 2.272479759994894266e-04 5.215522251091897488e-04
1.792000000000000000e+03 8.597709655761718750e+00 7.434144973754882812e+00 3.988358657807111740e-04 1.792844268493354321e-04 1.734360848786309361e-04 2.084767038468271494e-04
1.793000000000000000e+03 4.769759654998779297e+00 -1.152376270294189453e+01 6.640703883022069931e-03 -7.440176326781511307e-03 -2.398416399955749512e-04 -3.378645516932010651e-03
1.794000000000000000e+03 9.223545074462890625e+00 4.986559867858886719e+00 3.700585803017020226e-04 8.603006717748939991e-04 3.691077581606805325e-04 1.933216699399054050e-04
1.795000000000000000e+03 1.060086917877197266e+01 7.633023262023925781e+00 1.465169771108776331e-04 1.296617207117378712e-03 4.329402581788599491e-04 4.176482325419783592e-04
1.796000000000000000e+03 5.588924884796142578e+00 -1.304975795745849609e+01 1.010176818817853928e-02 -8.867704309523105621e-03 3.702194080688059330e-04 -1.276131812483072281e-02
1.797000000000000000e+03 1.234719848632812500e+01 6.040402889251708984e+00 -6.533493287861347198e-04 -7.310546352528035641e-04 -4.153212066739797592e-04 -6.966626970097422600e-04
1.798000000000000000e+03 2.062260818481445312e+01 1.485092163085937500e+01 -1.668168604373931885e-01 3.129293918609619141e-01 4.383376240730285645e-02 -1.689370125532150269e-01
1.799000000000000000e+03 2.108634567260742188e+01 1.352937507629394531e+01 -1.395254284143447876e-01 2.631941735744476318e-01 3.710062801837921143e-02 -1.748774498701095581e-01
1.800000000000000000e+03 2.556594848632812500e+00 6.327994346618652344e+00 8.822507807053625584e-04 1.701252331258729100e-04 3.157127939630299807e-04 -4.964466788806021214e-04
1.801000000000000000e+03 9.321984291076660156e+00 -5.833137035369873047e+00 -2.789571008179336786e-04 1.273034024052321911e-03 2.982230507768690586e-04 -3.357683017384260893e-04
1.802000000000000000e+03 8.954506874084472656e+00 -4.630213737487792969e+00 -2.633293916005641222e-04 9.349380852654576302e-04 2.014826168306171894e-04 -4.032120923511683941e-04
1.803000000000000000e+03 6.436036586761474609e+00 1.431610298156738281e+01 5.328406114131212234e-03 -7.457486819475889206e-03 -6.387242465279996395e-04 7.810608483850955963e-03
1.804000000000000000e+03 2.196777534484863281e+01 -1.087407827377319336e+00 9.260712540708482265e-04 -2.171702086925506592e-01 -6.487324088811874390e-02 3.209286928176879883e-01
1.805000000000000000e+03 2.309800529479980469e+01 4.457337558269500732e-01 7.858987897634506226e-02 -1.153244525194168091e-01 -1.102036982774734497e-02 2.933525741100311279e-01
1.806000000000000000e+03 5.087433815002441406e+00 1.011396312713623047e+01 2.982178702950477600e-03 -1.845134771429002285e-03 3.411132202018052340e-04 -2.334550081286579370e-04
1.807000000000000000e+03 7.244592285156250000e+01 -3.321191024780273438e+01 -1.245050802826881409e-01 7.825324535369873047e+00 2.310245990753173828e+00 -3.069021701812744141e-01
1.808000000000000000e+03 7.544659423828125000e+01 -2.774436187744140625e+01 -3.233014792203903198e-02 7.628033638000488281e+00 2.278711080551147461e+00 -3.081717193126678467e-01
1.809000000000000000e+03 7.380109405517578125e+01 2.006039810180664062e+01 -5.774620920419692993e-02 8.181725502014160156e+00 2.437193870544433594e+00 4.415890276432037354e-01
1.810000000000000000e+03 7.494480895996093750e+01 2.341857337951660156e+01 -4.615523666143417358e-02 8.406476020812988281e+00 2.508096456527709961e+00 3.283581137657165527e-01
1.811000000000000000e+03 7.570341491699218750e+01 1.749025154113769531e+01 -2.627190947532653809e-02 8.100235939025878906e+00 2.422189235687255859e+00 3.631474971771240234e-01
1.812000000000000000e+03 7.449643707275390625e+01 -2.367855072021484375e+01 -1.032853219658136368e-02 7.432039260864257812e+00 2.226513385772705078e+00 -3.988489806652069092e-01
1.813000000000000000e+03 7.519012451171875000e+01 1.078797245025634766e+01 -2.443078206852078438e-03 7.621365547180175781e+00 2.285676717758178711e+00 4.494144916534423828e-01
1.814000000000000000e+03 7.389609527587890625e+01 1.395111942291259766e+01 -3.086891584098339081e-02 7.843893051147460938e+00 2.343907356262207031e+00 5.230755805969238281e-01
1.815000000000000000e+03 7.402616882324218750e+01 6.564188957214355469e+00 4.947597160935401917e-02 7.376858234405517578e+00 2.227900266647338867e+00 4.980078637599945068e-01
1.816000000000000000e+03 7.483757781982421875e+01 2.491456413269042969e+01 -4.733722656965255737e-02 8.465007781982421875e+00 2.525301218032836914e+00 3.051005005836486816e-01
1.817000000000000000e+03 7.540013122558593750e+01 -1.441833209991455078e+01 6.555411219596862793e-02 6.916564464569091797e+00 2.094635486602783203e+00 -2.495862096548080444e-01
1.818000000000000000e+03 7.405822753906250000e+01 -1.564874267578125000e+01 8.562956750392913818e-02 7.070525646209716797e+00 2.146846532821655273e+00 -3.350735902786254883e-01
1.819000000000000000e+03 7.399834442138671875e+01 -1.830332756042480469e+00 1.457489579916000366e-01 6.976165771484375000e+00 2.136574506759643555e+00 2.500893175601959229e-01
1.820000000000000000e+03 7.387557983398437500e+01 9.456608891487121582e-01 1.203440800309181213e-01 7.084385871887207031e+00 2.161418914794921875e+00 3.605635464191436768e-01
1.821000000000000000e+03 7.534497833251953125e+01 3.632361888885498047e+00 5.757837370038032532e-02 7.121705055236816406e+00 2.153784990310668945e+00 3.636782765388488770e-01
1.822000000000000000e+03 7.403347015380859375e+01 -8.760833740234375000e+00 1.535285264253616333e-01 6.891160964965820312e+00 2.113406896591186523e+00 -7.466912269592285156e-02
1.823000000000000000e+03 7.537673187255859375e+01 -7.515247344970703125e+00 1.006385013461112976e-01 6.760670185089111328e+00 2.058392524719238281e+00 -1.454091630876064301e-02
1.824000000000000000e+03 7.405166625976562500e+01 -1.013048267364501953e+01 1.461043655872344971e-01 6.906849384307861328e+00 2.115886211395263672e+00 -1.358698159456253052e-01
1.825000000000000000e+03 7.385034179687500000e+01 9.454647064208984375e+00 1.431565545499324799e-02 7.563736915588378906e+00 2.273415803909301758e+00 5.368846058845520020e-01
1.826000000000000000e+03 7.540358734130859375e+01 -1.302796363830566406e+01 7.652681320905685425e-02 6.862593173980712891e+00 2.081735849380493164e+00 -2.097956091165542603e-01
1.827000000000000000e+03 7.408226013183593750e+01 -4.629960060119628906e+00 1.546351164579391479e-01 6.901747226715087891e+00 2.116914749145507812e+00 1.214263662695884705e-01
1.828000000000000000e+03 7.406674957275390625e+01 -6.017445087432861328e+00 1.593054980039596558e-01 6.886507987976074219e+00 2.113744020462036133e+00 5.488831177353858948e-02
1.829000000000000000e+03 7.402158355712890625e+01 -1.845282554626464844e+01 4.919843748211860657e-02 7.194958686828613281e+00 2.173247098922729492e+00 -3.932040035724639893e-01
1.830000000000000000e+03 7.406742095947265625e+01 -1.984423065185546875e+01 3.145958110690116882e-02 7.256779193878173828e+00 2.186471700668334961e+00 -4.061117470264434814e-01
1.831000000000000000e+03 7.474351501464843750e+01 1.716854667663574219e+01 -3.473215177655220032e-02 8.044067382812500000e+00 2.402800559997558594e+00 4.320879876613616943e-01
1.832000000000000000e+03 7.407830047607421875e+01 1.524346733093261719e+01 -3.992336615920066833e-02 7.932404518127441406e+00 2.367744207382202148e+00 4.908292591571807861e-01
1.833000000000000000e+03 7.435523223876953125e+01 -2.606551170349121094e+01 -3.666746988892555237e-02 7.559070587158203125e+00 2.256721019744873047e+00 -3.830590546131134033e-01
1.834000000000000000e+03 7.497174835205078125e+01 2.753827285766601562e+01 -5.167037248611450195e-02 8.592185020446777344e+00 2.562154293060302734e+00 2.558323740959167480e-01
1.835000000000000000e+03 7.395787811279296875e+01 -2.863563919067382812e+01 -5.961998924612998962e-02 7.676991939544677734e+00 2.285211563110351562e+00 -3.644376397132873535e-01
1.836000000000000000e+03 7.406239318847656250e+01 -3.241512775421142578e+00 1.502905339002609253e-01 6.931133747100830078e+00 2.124427318572998047e+00 1.845952421426773071e-01
1.837000000000000000e+03 7.435166931152343750e+01 -2.247643280029296875e+01 6.405430031009018421e-04 7.374819755554199219e+00 2.212638139724731445e+00 -4.044396579265594482e-01
1.838000000000000000e+03 7.403211212158203125e+01 5.148772239685058594e+00 6.772211194038391113e-02 7.293313980102539062e+00 2.208310842514038086e+00 4.729648828506469727e-01
1.839000000000000000e+03 7.399069213867187500e+01 3.741250276565551758e+00 8.634893596172332764e-02 7.217287540435791016e+00 2.191090822219848633e+00 4.439416527748107910e-01
1.840000000000000000e+03 7.366741180419921875e+01 -3.138359069824218750e+01 -8.818348497152328491e-02 7.779165267944335938e+00 2.307294607162475586e+00 -3.214914798736572266e-01
1.841000000000000000e+03 7.364025878906250000e+01 1.253113842010498047e+01 -2.040996961295604706e-02 7.759163856506347656e+00 2.321626186370849609e+00 5.475965142250061035e-01
1.842000000000000000e+03 7.371714019775390625e+01 1.095043277740478516e+01 -1.964022405445575714e-03 7.658604621887207031e+00 2.296992301940917969e+00 5.489139556884765625e-01
1.843000000000000000e+03 7.253934478759765625e+01 2.008053016662597656e+01 -8.585476130247116089e-02 8.131932258605957031e+00 2.413823127746582031e+00 5.017760992050170898e-01
1.844000000000000000e+03 7.419902038574218750e+01 1.855872726440429688e+01 -4.637908935546875000e-02 8.112485885620117188e+00 2.419831991195678711e+00 4.446768462657928467e-01
1.845000000000000000e+03 7.484886932373046875e+01 -3.406721878051757812e+01 -6.709058582782745361e-02 7.878789424896240234e+00 2.343509674072265625e+00 -2.238357514142990112e-01
1.846000000000000000e+03 6.420965194702148438e+00 3.076517868041992188e+01 6.365691125392913818e-02 -2.285569012165069580e-01 -4.946999624371528625e-02 1.860853582620620728e-01
1.847000000000000000e+03 6.341391563415527344e+00 -3.023695945739746094e+01 9.597190469503402710e-02 -5.266691446304321289e-01 -1.292091757059097290e-01 -3.090562522411346436e-01
1.848000000000000000e+03 1.032632064819335938e+01 6.404034614562988281e+00 -2.446697326377034187e-04 9.351533371955156326e-04 2.071450726361945271e-04 1.786636275937780738e-04
1.849000000000000000e+03 4.399230003356933594e+00 2.712878036499023438e+01 1.835384592413902283e-02 -2.592130005359649658e-01 -7.225774973630905151e-02 2.067616581916809082e-01
1.850000000000000000e+03 5.943077564239501953e+00 2.813993072509765625e+01 4.689808934926986694e-02 -2.260123193264007568e-01 -5.373426899313926697e-02 2.239053249359130859e-01
1.851000000000000000e+03 4.791469097137451172e+00 -2.739889907836914062e+01 4.634420946240425110e-02 -5.153715014457702637e-01 -1.407081931829452515e-01 -3.321782350540161133e-01
1.852000000000000000e+03 7.036624431610107422e+00 -8.505507469177246094e+00 1.059468486346304417e-03 -8.545556338503956795e-04 6.147386011434718966e-05 -9.653710294514894485e-04
1.853000000000000000e+03 4.154038429260253906e+00 2.339144325256347656e+01 -4.524991288781166077e-02 -1.472424119710922241e-01 -5.774769932031631470e-02 1.966166347265243530e-01
1.854000000000000000e+03 1.126759243011474609e+01 2.277630805969238281e+01 -6.470140814781188965e-02 -2.262272238731384277e-01 -8.727858960628509521e-02 2.442961782217025757e-01
1.855000000000000000e+03 1.238833522796630859e+01 2.665140914916992188e+01 1.212352290749549866e-01 1.157065201550722122e-02 3.984176367521286011e-02 1.318924278020858765e-01
1.856000000000000000e+03 4.616473674774169922e+00 1.219110584259033203e+01 5.758998449891805649e-03 -5.451143719255924225e-03 9.235645848093554378e-05 -6.956517463549971581e-04
1.857000000000000000e+03 4.792063236236572266e+00 -2.032625198364257812e+01 -1.630037575960159302e-01 -1.444178968667984009e-01 -9.222649782896041870e-02 -2.334901839494705200e-01
1.858000000000000000e+03 5.408379554748535156e+00 2.567351341247558594e+01 7.777060964144766331e-04 -1.995893120765686035e-01 -5.964348092675209045e-02 2.382051050662994385e-01
1.859000000000000000e+03 6.097586154937744141e+00 -2.596601867675781250e+01 3.907082229852676392e-02 -4.591350555419921875e-01 -1.260192692279815674e-01 -3.954427242279052734e-01
1.860000000000000000e+03 8.684659957885742188e+00 -6.705921649932861328e+00 6.381187704391777515e-04 -1.418442698195576668e-03 -2.340971695957705379e-04 2.000489330384880304e-04
1.861000000000000000e+03 6.111383914947509766e+00 -2.742538261413574219e+01 6.355946511030197144e-02 -4.891724586486816406e-01 -1.276838928461074829e-01 -3.702875971794128418e-01
1.862000000000000000e+03 4.191196441650390625e+00 2.062383651733398438e+01 -9.292484819889068604e-02 -5.548568814992904663e-02 -4.452316090464591980e-02 1.113325804471969604e-01
1.863000000000000000e+03 4.693315982818603516e+00 2.222726821899414062e+01 -9.903336316347122192e-02 -1.019348651170730591e-01 -6.029047071933746338e-02 1.916015595197677612e-01
1.864000000000000000e+03 5.577509403228759766e+00 -3.344947052001953125e+01 8.828628808259963989e-02 -6.189885735511779785e-01 -1.592106968164443970e-01 -2.219604849815368652e-01
1.865000000000000000e+03 1.121929454803466797e+01 -3.155430793762207031e+01 2.266329079866409302e-01 -2.210779488086700439e-01 1.666485564783215523e-03 -2.297125011682510376e-01
1.866000000000000000e+03 7.151484966278076172e+00 2.120539283752441406e+01 -2.186917513608932495e-01 -9.013395756483078003e-02 -9.264771640300750732e-02 2.814847528934478760e-01
1.867000000000000000e+03 6.230376720428466797e+00 -2.881134796142578125e+01 9.338539838790893555e-02 -5.114343166351318359e-01 -1.254146844148635864e-01 -3.406459689140319824e-01
1.868000000000000000e+03 3.583874464035034180e+00 9.917855262756347656e+00 3.330577164888381958e-03 -1.231466885656118393e-03 6.297330837696790695e-04 -1.800248166546225548e-03
1.869000000000000000e+03 3.441047430038452148e+00 8.950509071350097656e+00 -8.193605026463046670e-05 9.627635154174640775e-05 4.302089564589550719e-06 -7.529788999818265438e-04
1.870000000000000000e+03 4.642775058746337891e+00 8.099499702453613281e+00 4.976586205884814262e-04 -8.434524643234908581e-04 -1.037381516653113067e-04 -3.127092786598950624e-04
1.871000000000000000e+03 4.999964714050292969e+00 -6.575311183929443359e+00 1.500644866609945893e-04 4.073778982274234295e-04 1.672327052801847458e-04 -2.387768763583153486e-04
1.872000000000000000e+03 4.321236610412597656e+00 -5.459073543548583984e+00 -3.399073611944913864e-04 6.024794420227408409e-04 7.877162715885788202e-05 -8.574122330173850060e-05
1.873000000000000000e+03 1.445730590820312500e+01 2.187747192382812500e+01 -6.517098098993301392e-02 -9.655356407165527344e-02 -4.851736500859260559e-02 7.613451778888702393e-02
1.874000000000000000e+03 1.873298263549804688e+01 -1.709709548950195312e+01 -3.505437374114990234e-01 -1.429365761578083038e-02 -1.094512194395065308e-01 -3.306276798248291016e-01
1.875000000000000000e+03 1.937613105773925781e+01 1.920697593688964844e+01 -1.226790547370910645e-01 3.959242403507232666e-01 8.197355270385742188e-02 -1.986700892448425293e-01
1.876000000000000000e+03 1.561735057830810547e+01 2.100520133972167969e+01 -1.088189929723739624e-01 -4.231696203351020813e-02 -4.534078389406204224e-02 1.259749568998813629e-02
1.877000000000000000e+03 1.984379768371582031e+01 -1.438043975830078125e+01 -4.872198402881622314e-01 3.803255036473274231e-02 -1.347561925649642944e-01 -4.661553204059600830e-01
1.878000000000000000e+03 1.807842445373535156e+01 -1.502003192901611328e+01 -5.367177724838256836e-01 -1.535580158233642578e-01 -2.070827335119247437e-01 -4.757379293441772461e-01
1.879000000000000000e+03 1.814604949951171875e+01 -1.854117774963378906e+01 -2.611445486545562744e-01 -5.787642672657966614e-02 -9.570629894733428955e-02 -2.532453536987304688e-01
1.880000000000000000e+03 2.385596084594726562e+01 6.182476043701171875e+00 1.171234101057052612e-01 2.742193043231964111e-01 1.174028143286705017e-01 -9.082698076963424683e-02
1.881000000000000000e+03 2.449978828430175781e+01 5.353451728820800781e+00 1.815297305583953857e-01 3.384606242179870605e-01 1.559970974922180176e-01 -9.141258150339126587e-02
1.882000000000000000e+03 2.327660560607910156e+01 2.752631902694702148e+00 1.258176118135452271e-01 -3.966556489467620850e-02 2.584561333060264587e-02 1.686171293258666992e-01
1.883000000000000000e+03 1.928888702392578125e+01 -1.571556758880615234e+01 -4.246012568473815918e-01 1.283694989979267120e-02 -1.235292926430702209e-01 -4.009188711643218994e-01
1.884000000000000000e+03 1.527210426330566406e+01 -2.173476982116699219e+01 -6.631740927696228027e-02 -2.539857625961303711e-01 -9.609095007181167603e-02 -2.383655607700347900e-01
1.885000000000000000e+03 1.752662467956542969e+01 -2.016689872741699219e+01 -1.425638496875762939e-01 -5.455050989985466003e-02 -5.913430452346801758e-02 -1.988396346569061279e-01
1.886000000000000000e+03 2.281092834472656250e+01 1.097008514404296875e+01 -3.039093315601348877e-02 4.287294447422027588e-01 1.195015534758567810e-01 -2.463388741016387939e-01
1.887000000000000000e+03 7.231011199951171875e+01 4.097172546386718750e+01 -7.949456572532653809e-02 8.589119911193847656e+00 2.552887678146362305e+00 3.768788650631904602e-02
1.888000000000000000e+03 7.532566833496093750e+01 3.573713684082031250e+01 -5.898774787783622742e-02 8.845039367675781250e+00 2.635815620422363281e+00 1.017686128616333008e-01
1.889000000000000000e+03 2.340973281860351562e+01 7.191462039947509766e+00 7.478539645671844482e-02 2.571125030517578125e-01 9.956937283277511597e-02 -1.177829205989837646e-01
1.890000000000000000e+03 2.426119613647460938e+01 8.756084442138671875e+00 8.472213894128799438e-02 5.891249775886535645e-01 2.021541297435760498e-01 -2.771072983741760254e-01
1.891000000000000000e+03 3.921192550659179688e+01 -9.193375587463378906e+00 2.532652854919433594e+00 4.784032821655273438e+00 2.195005655288696289e+00 4.350187778472900391e+00
1.892000000000000000e+03 4.073275375366210938e+01 -4.192611217498779297e+00 2.215744018554687500e+00 1.236248016357421875e+01 4.373467445373535156e+00 -5.408859729766845703e+00
1.893000000000000000e+03 4.032146453857421875e+01 -4.502232551574707031e+00 3.332971334457397461e+00 9.723125457763671875e+00 3.916828870773315430e+00 -6.169286727905273438e+00
1.894000000000000000e+03 3.776506423950195312e+01 -3.321447372436523438e+00 2.356625556945800781e+00 2.429898023605346680e+00 1.435957074165344238e+00 -2.749540567398071289e+00
1.895000000000000000e+03 4.051670074462890625e+01 -4.322454929351806641e+00 2.734044313430786133e+00 1.118939685821533203e+01 4.177032470703125000e+00 -5.895281314849853516e+00
1.896000000000000000e+03 4.365121459960937500e+01 -6.091370105743408203e+00 8.856153488159179688e+00 1.374021625518798828e+01 6.778910636901855469e+00 8.567419648170471191e-01
1.897000000000000000e+03 4.154914093017578125e+01 -3.747157573699951172e+00 1.259440422058105469e+00 1.472048091888427734e+01 4.793976306915283203e+00 -3.049113750457763672e+00
1.898000000000000000e+03 4.121710968017578125e+01 -4.045728683471679688e+00 1.586215853691101074e+00 1.451361751556396484e+01 4.829950332641601562e+00 -4.170636177062988281e+00
1.899000000000000000e+03 4.247931671142578125e+01 -4.858007907867431641e+00 4.189561843872070312e+00 1.796971130371093750e+01 6.647781848907470703e+00 1.174913883209228516e+00
1.900000000000000000e+03 4.217077636718750000e+01 -3.919828891754150391e+00 1.641050219535827637e+00 1.585721111297607422e+01 5.249478340148925781e+00 -1.119549393653869629e+00
1.901000000000000000e+03 4.392639160156250000e+01 -7.716345787048339844e+00 6.585480690002441406e+00 1.359038543701171875e+01 6.052760124206542969e+00 -1.840757369995117188e+00
1.902000000000000000e+03 4.246341323852539062e+01 -9.053736686706542969e+00 1.728041410446166992e+00 1.614549255371093750e+01 5.362060546875000000e+00 1.890657097101211548e-01
1.903000000000000000e+03 4.355536651611328125e+01 -8.317549705505371094e+00 4.931794643402099609e+00 1.472005844116210938e+01 5.895555973052978516e+00 -1.984594225883483887e+00
1.904000000000000000e+03 3.848132705688476562e+01 -4.006841659545898438e+00 2.835612058639526367e+00 2.657467126846313477e+00 1.647923707962036133e+00 -3.218522310256958008e+00
1.905000000000000000e+03 3.857374572753906250e+01 -3.446980714797973633e+00 2.682165861129760742e+00 3.688891172409057617e+00 1.911317110061645508e+00 -3.639931678771972656e+00
1.906000000000000000e+03 3.881977462768554688e+01 -9.017801284790039062e+00 2.427361011505126953e+00 3.304823875427246094e+00 1.719655513763427734e+00 3.619004487991333008e+00
1.907000000000000000e+03 3.614048767089843750e+01 -1.095186233520507812e+01 1.147121429443359375e+00 1.707655906677246094e+00 8.564332127571105957e-01 1.938784241676330566e+00
1.908000000000000000e+03 3.669807815551757812e+01 -2.856714487075805664e+00 1.885840892791748047e+00 1.681281566619873047e+00 1.070136785507202148e+00 -2.019263267517089844e+00
1.909000000000000000e+03 3.608877944946289062e+01 -2.284225702285766602e+00 1.707002162933349609e+00 1.644133329391479492e+00 1.005340576171875000e+00 -1.824467182159423828e+00
1.910000000000000000e+03 3.551071166992187500e+01 -2.247669458389282227e+00 1.523724675178527832e+00 1.324394583702087402e+00 8.544357419013977051e-01 -1.495543599128723145e+00
1.911000000000000000e+03 2.401992988586425781e+01 -1.657964110374450684e+00 -1.835757866501808167e-02 -6.435476988554000854e-02 -2.481370419263839722e-02 3.494507968425750732e-01
1.912000000000000000e+03 2.484198951721191406e+01 1.452419877052307129e+00 2.198422551155090332e-01 1.089457347989082336e-01 9.863639622926712036e-02 1.722649931907653809e-01
1.913000000000000000e+03 2.429933929443359375e+01 -9.596155285835266113e-01 4.810096696019172668e-02 -3.502032160758972168e-02 3.924193326383829117e-03 3.295229375362396240e-01
1.914000000000000000e+03 2.678592872619628906e+01 -2.241148948669433594e+00 -1.671991869807243347e-02 6.998812407255172729e-02 1.598046347498893738e-02 2.907435595989227295e-01
1.915000000000000000e+03 2.494602584838867188e+01 -1.252904176712036133e+00 4.160624742507934570e-02 2.349817892536520958e-03 1.318681985139846802e-02 3.219020366668701172e-01
1.916000000000000000e+03 2.745503997802734375e+01 -2.264722108840942383e+00 8.250476792454719543e-03 9.630658477544784546e-02 3.136711940169334412e-02 2.587187290191650391e-01
1.917000000000000000e+03 2.679526329040527344e+01 -1.623000979423522949e+00 8.427348732948303223e-02 9.939502924680709839e-02 5.510055273771286011e-02 2.605115175247192383e-01
1.918000000000000000e+03 5.950633049011230469e+00 4.687672615051269531e+00 -1.032155269058421254e-04 -3.851222572848200798e-04 -1.465013338020071387e-04 -1.743785105645656586e-04
1.919000000000000000e+03 8.306349754333496094e+00 5.880424976348876953e+00 4.385520587675273418e-04 9.770494652912020683e-04 4.246804455760866404e-04 -8.318816981045529246e-06
1.920000000000000000e+03 2.617920112609863281e+01 -1.598268270492553711e+00 5.788116902112960815e-02 7.047662883996963501e-02 3.850733861327171326e-02 2.914078831672668457e-01
1.921000000000000000e+03 9.961120605468750000e+00 5.785645961761474609e+00 1.667722535785287619e-04 1.229901099577546120e-03 4.190019972156733274e-04 4.657231911551207304e-04
1.922000000000000000e+03 3.105344200134277344e+01 -2.343561410903930664e+00 3.442879617214202881e-01 2.914941906929016113e-01 1.907346546649932861e-01 -9.165836125612258911e-02
1.923000000000000000e+03 2.956056785583496094e+01 -1.620617270469665527e+00 3.227559328079223633e-01 2.775657176971435547e-01 1.800964921712875366e-01 1.621938310563564301e-02
1.924000000000000000e+03 6.528564929962158203e+00 4.749487876892089844e+00 7.846743683330714703e-04 1.141460670623928308e-04 2.696461160667240620e-04 6.986977678025141358e-05
1.925000000000000000e+03 2.952030944824218750e+01 -9.321790933609008789e-01 4.498996734619140625e-01 3.654521107673645020e-01 2.446055412292480469e-01 -6.337016820907592773e-02
1.926000000000000000e+03 3.029673767089843750e+01 -1.630623817443847656e+00 4.177291393280029297e-01 3.356534838676452637e-01 2.260147929191589355e-01 -8.304733783006668091e-02
1.927000000000000000e+03 3.364286422729492188e+01 -2.303331136703491211e+00 9.079081416130065918e-01 6.472601890563964844e-01 4.665504992008209229e-01 -6.824245452880859375e-01
1.928000000000000000e+03 3.438887023925781250e+01 -2.803884744644165039e+00 9.567075967788696289e-01 6.413898468017578125e-01 4.794292151927947998e-01 -7.722381353378295898e-01
1.929000000000000000e+03 5.182813167572021484e+00 -5.775228023529052734e+00 4.590183089021593332e-04 -2.283631038153544068e-04 6.919656152604147792e-05 3.974547144025564194e-04
1.930000000000000000e+03 3.325790023803710938e+01 -2.661226511001586914e+00 6.947523355484008789e-01 4.886673688888549805e-01 3.550259172916412354e-01 -4.732031822204589844e-01
1.931000000000000000e+03 3.181977462768554688e+01 -1.687215089797973633e+00 6.537516117095947266e-01 4.902105331420898438e-01 3.431886434555053711e-01 -3.421863913536071777e-01
1.932000000000000000e+03 7.907098770141601562e+00 -6.170529842376708984e+00 -4.210633342154324055e-04 1.246014493517577648e-03 2.474853536114096642e-04 2.396987547399476171e-04
1.933000000000000000e+03 3.331965255737304688e+01 -1.202815246582031250e+01 5.476632714271545410e-01 8.917667865753173828e-01 4.318290054798126221e-01 9.406412839889526367e-01
1.934000000000000000e+03 5.813879966735839844e+00 -4.447381019592285156e+00 4.118024371564388275e-04 -4.093369934707880020e-04 7.396303658424585592e-07 1.004748264676891267e-04
1.935000000000000000e+03 5.767876625061035156e+00 -6.975755214691162109e+00 7.916931062936782837e-04 -4.588496231008321047e-04 9.985303768189623952e-05 -3.853217058349400759e-04
1.936000000000000000e+03 2.945319938659667969e+01 -1.226247501373291016e+01 -7.218050956726074219e-02 3.543252944946289062e-01 8.464343845844268799e-02 9.646835178136825562e-02
1.937000000000000000e+03 3.484648132324218750e+01 -1.248514270782470703e+01 9.276463389396667480e-01 1.691730260848999023e+00 7.858129739761352539e-01 1.636516451835632324e+00
1.938000000000000000e+03 3.100029182434082031e+01 -1.220889377593994141e+01 1.441981196403503418e-01 4.917218983173370361e-01 1.907760053873062134e-01 3.647338449954986572e-01
1.939000000000000000e+03 3.177876091003417969e+01 -1.217322826385498047e+01 2.668833732604980469e-01 5.984359979629516602e-01 2.595958113670349121e-01 5.318985581398010254e-01
1.940000000000000000e+03 3.479070281982421875e+01 -1.180050277709960938e+01 8.639303445816040039e-01 1.344342589378356934e+00 6.624819040298461914e-01 1.458519816398620605e+00
1.941000000000000000e+03 2.623933601379394531e+01 -1.174996662139892578e+01 -4.752490222454071045e-01 1.776805967092514038e-01 -8.927052468061447144e-02 -3.121619522571563721e-01
1.942000000000000000e+03 2.626967430114746094e+01 -1.263793849945068359e+01 -2.908395826816558838e-01 2.637660503387451172e-01 -8.122059516608715057e-03 -2.503781914710998535e-01
1.943000000000000000e+03 3.262543106079101562e+01 -1.731918931007385254e+00 8.148314356803894043e-01 6.126042008399963379e-01 4.282307028770446777e-01 -5.295981168746948242e-01
1.944000000000000000e+03 2.868699836730957031e+01 -1.230602741241455078e+01 -1.512802243232727051e-01 3.083459436893463135e-01 4.711971431970596313e-02 -1.224546693265438080e-02
1.945000000000000000e+03 2.792146682739257812e+01 -1.236250495910644531e+01 -2.129066139459609985e-01 2.726626992225646973e-01 1.792682707309722900e-02 -1.024400144815444946e-01
1.946000000000000000e+03 2.228008460998535156e+01 -1.150557136535644531e+01 -6.103172302246093750e-01 1.219940707087516785e-01 -1.464969515800476074e-01 -5.086149573326110840e-01
1.947000000000000000e+03 2.055277061462402344e+01 -1.637246322631835938e+01 -2.935771346092224121e-01 1.606353074312210083e-01 -3.988254815340042114e-02 -3.227783739566802979e-01
1.948000000000000000e+03 3.490276336669921875e+01 -2.224574327468872070e+00 1.319329500198364258e+00 1.055282592773437500e+00 7.123836278915405273e-01 -1.201643705368041992e+00
1.949000000000000000e+03 3.414640808105468750e+01 -1.621613264083862305e+00 1.219662189483642578e+00 1.044157028198242188e+00 6.791458129882812500e-01 -1.060094714164733887e+00
1.950000000000000000e+03 2.043838691711425781e+01 -1.191245460510253906e+01 -5.994367599487304688e-01 3.924699500203132629e-02 -1.680569350719451904e-01 -5.354994535446166992e-01
1.951000000000000000e+03 2.712355995178222656e+01 -1.245106601715087891e+01 -2.557560205459594727e-01 2.606953978538513184e-01 1.481821644119918346e-03 -1.757949739694595337e-01
1.952000000000000000e+03 2.445103836059570312e+01 -1.253392887115478516e+01 -4.195389747619628906e-01 2.023417949676513672e-01 -6.515915691852569580e-02 -3.950210809707641602e-01
1.953000000000000000e+03 2.021813201904296875e+01 -1.308427047729492188e+01 -5.460820794105529785e-01 4.893287643790245056e-02 -1.491447538137435913e-01 -5.107502937316894531e-01
1.954000000000000000e+03 2.287789916992187500e+01 -1.225229835510253906e+01 -5.154746174812316895e-01 1.591644585132598877e-01 -1.068930551409721375e-01 -4.702791869640350342e-01
1.955000000000000000e+03 2.212378311157226562e+01 -1.218784618377685547e+01 -5.502001047134399414e-01 1.376402676105499268e-01 -1.237679496407508850e-01 -4.973438680171966553e-01
1.956000000000000000e+03 3.730704116821289062e+01 -1.081017017364501953e+01 1.505987882614135742e+00 2.638389587402343750e+00 1.243313193321228027e+00 2.704786777496337891e+00
1.957000000000000000e+03 3.676684188842773438e+01 -1.087519645690917969e+01 1.352463603019714355e+00 2.124055862426757812e+00 1.042955875396728516e+00 2.328644514083862305e+00
1.958000000000000000e+03 1.067328262329101562e+01 5.731029987335205078e+00 1.779453305061906576e-04 -1.174924545921385288e-03 -2.990937791764736176e-04 -5.248381057754158974e-04
1.959000000000000000e+03 1.109398460388183594e+01 6.761364459991455078e+00 -1.637337118154391646e-04 -9.616007446311414242e-04 -3.376003296580165625e-04 -4.526974807959049940e-04
1.960000000000000000e+03 7.725614070892333984e+00 9.529017448425292969e+00 -1.521055673947557807e-04 1.172867123386822641e-04 -1.044565760821569711e-05 1.377977780066430569e-03
1.961000000000000000e+03 8.257239341735839844e+00 6.761743068695068359e+00 7.558424113085493445e-05 -1.081467373296618462e-03 -3.017649578396230936e-04 4.538377688731998205e-04
1.962000000000000000e+03 6.812260150909423828e+00 1.034082317352294922e+01 1.914685242809355259e-03 -1.889604463940486312e-04 5.177174462005496025e-04 1.911839121021330357e-03
1.963000000000000000e+03 2.218430709838867188e+01 7.481383085250854492e-01 4.542938992381095886e-02 -2.282506078481674194e-01 -5.484636500477790833e-02 2.897831201553344727e-01
1.964000000000000000e+03 2.198576354980468750e+01 -2.238894551992416382e-01 2.441611140966415405e-02 -2.420329004526138306e-01 -6.528503447771072388e-02 3.114380538463592529e-01
1.965000000000000000e+03 2.234979248046875000e+01 1.905105209350585938e+01 -7.785205543041229248e-02 1.000410795211791992e+00 2.767676115036010742e-01 -4.132990241050720215e-01
1.966000000000000000e+03 6.209017753601074219e+00 2.103479957580566406e+01 -2.146261185407638550e-01 -4.722373932600021362e-02 -7.855495810508728027e-02 2.140907496213912964e-01
1.967000000000000000e+03 4.826163768768310547e+00 -4.829280376434326172e+00 3.824192972388118505e-04 -3.049131773877888918e-04 2.325183777429629117e-05 -4.092515155207365751e-05
1.968000000000000000e+03 2.421511268615722656e+01 3.584123611450195312e+00 1.831876337528228760e-01 1.537621021270751953e-01 1.010849177837371826e-01 5.122694745659828186e-02
1.969000000000000000e+03 9.801404953002929688e+00 7.146585464477539062e+00 2.764975943136960268e-04 -7.205396541394293308e-04 -1.332126266788691282e-04 2.514801453799009323e-04
1.970000000000000000e+03 7.152683258056640625e+01 -2.633658409118652344e+01 -7.188466936349868774e-02 7.622048854827880859e+00 2.265049219131469727e+00 -4.944305717945098877e-01
1.971000000000000000e+03 7.056332397460937500e+01 -3.312276840209960938e+01 -1.755284965038299561e-01 7.813291072845458984e+00 2.291328907012939453e+00 -3.450094461441040039e-01
1.972000000000000000e+03 1.093540096282958984e+01 2.796273231506347656e+01 1.242855340242385864e-01 -2.313111349940299988e-02 3.034632466733455658e-02 1.678079813718795776e-01
1.973000000000000000e+03 9.744730949401855469e+00 3.294327926635742188e+01 1.269641965627670288e-01 1.838160119950771332e-02 4.360374063253402710e-02 1.263367384672164917e-01
1.974000000000000000e+03 7.342761993408203125e+01 -2.461208343505859375e+01 -3.305305913090705872e-02 7.515687465667724609e+00 2.244790315628051758e+00 -4.405142366886138916e-01
1.975000000000000000e+03 7.091680908203125000e+01 2.423430633544921875e+01 -1.316058635711669922e-01 8.204097747802734375e+00 2.421747684478759766e+00 4.582620263099670410e-01
1.976000000000000000e+03 6.961101531982421875e+01 1.579958343505859375e+01 -1.093053817749023438e-01 7.909522533416748047e+00 2.340065002441406250e+00 6.993922591209411621e-01
1.977000000000000000e+03 7.292481994628906250e+01 1.483833980560302734e+01 -4.530172049999237061e-02 7.885281085968017578e+00 2.351993799209594727e+00 5.701960921287536621e-01
1.978000000000000000e+03 7.121793365478515625e+01 9.264116287231445312e+00 3.269807994365692139e-02 7.621567726135253906e+00 2.296279668807983398e+00 6.760102510452270508e-01
1.979000000000000000e+03 7.125490570068359375e+01 -1.683126068115234375e+01 1.420937031507492065e-01 7.287167549133300781e+00 2.228778362274169922e+00 -4.720838963985443115e-01
1.980000000000000000e+03 7.271917724609375000e+01 -1.552538967132568359e+01 1.252803653478622437e-01 7.155292034149169922e+00 2.184171676635742188e+00 -3.814705014228820801e-01
1.981000000000000000e+03 7.264471435546875000e+01 -1.693474960327148438e+01 1.006602123379707336e-01 7.212318897247314453e+00 2.193893671035766602e+00 -4.226354956626892090e-01
1.982000000000000000e+03 7.267561340332031250e+01 -1.007023620605468750e+01 2.129136919975280762e-01 7.011003017425537109e+00 2.167175054550170898e+00 -1.524671912193298340e-01
1.983000000000000000e+03 7.102793121337890625e+01 2.593326568603515625e+00 1.977607905864715576e-01 7.325450420379638672e+00 2.256963253021240234e+00 5.442988872528076172e-01
1.984000000000000000e+03 7.259686279296875000e+01 -1.837623786926269531e+01 7.568986713886260986e-02 7.272849559783935547e+00 2.204561948776245117e+00 -4.548081457614898682e-01
1.985000000000000000e+03 7.277025604248046875e+01 -1.143188762664794922e+01 1.981093883514404297e-01 7.031909465789794922e+00 2.169005632400512695e+00 -2.225798368453979492e-01
1.986000000000000000e+03 7.408230590820312500e+01 -1.149916553497314453e+01 1.370131075382232666e-01 6.930657386779785156e+00 2.120301008224487305e+00 -1.936642825603485107e-01
1.987000000000000000e+03 7.263741302490234375e+01 -8.696927070617675781e+00 2.213534265756607056e-01 6.999605655670166016e+00 2.166287660598754883e+00 -8.393788337707519531e-02
1.988000000000000000e+03 7.278078460693359375e+01 -3.252673149108886719e+00 2.100305408239364624e-01 7.027880191802978516e+00 2.171373367309570312e+00 2.128206789493560791e-01
1.989000000000000000e+03 7.279939270019531250e+01 -4.596367835998535156e+00 2.184952497482299805e-01 7.002887725830078125e+00 2.166414737701416016e+00 1.410940587520599365e-01
1.990000000000000000e+03 7.418351745605468750e+01 -2.119943809509277344e+01 1.440969668328762054e-02 7.317389965057373047e+00 2.199539899826049805e+00 -4.113903045654296875e-01
1.991000000000000000e+03 7.124795532226562500e+01 3.942710638046264648e+00 1.593035608530044556e-01 7.373036384582519531e+00 2.259701967239379883e+00 5.814190506935119629e-01
1.992000000000000000e+03 7.266481018066406250e+01 -1.883240699768066406e+00 2.074104845523834229e-01 7.069459438323974609e+00 2.183060884475708008e+00 2.851926386356353760e-01
1.993000000000000000e+03 7.249116516113281250e+01 9.438014984130859375e+00 2.193138189613819122e-02 7.599555492401123047e+00 2.286446094512939453e+00 6.170755028724670410e-01
1.994000000000000000e+03 7.260408020019531250e+01 -2.821858596801757812e+01 -8.226026594638824463e-02 7.671362400054931641e+00 2.276730537414550781e+00 -4.231806397438049316e-01
1.995000000000000000e+03 7.315119171142578125e+01 1.803251647949218750e+01 -6.477666646242141724e-02 8.067925453186035156e+00 2.400944709777832031e+00 5.100308060646057129e-01
1.996000000000000000e+03 7.462502479553222656e+00 3.349228668212890625e+01 9.872471541166305542e-02 -1.436958909034729004e-01 -1.349135302007198334e-02 1.492090523242950439e-01
1.997000000000000000e+03 5.638533115386962891e+00 2.687722015380859375e+01 2.700797840952873230e-02 -2.195486277341842651e-01 -5.776219442486763000e-02 2.373041063547134399e-01
1.998000000000000000e+03 5.723373413085937500e+00 2.464483833312988281e+01 -2.710489369928836823e-02 -1.741460561752319336e-01 -6.037528812885284424e-02 2.518227994441986084e-01
1.999000000000000000e+03 1.008268356323242188e+01 2.146562194824218750e+01 -2.003331333398818970e-01 -2.424505501985549927e-01 -1.328351050615310669e-01 3.177036941051483154e-01
2.000000000000000000e+03 8.976518630981445312e+00 -2.381937980651855469e+01 1.624755095690488815e-03 -4.896677732467651367e-01 -1.464129090309143066e-01 -4.864567220211029053e-01
2.001000000000000000e+03 6.477410793304443359e+00 -6.269528865814208984e+00 -8.817506750347092748e-05 6.693346658721566200e-04 1.743478787830099463e-04 3.109153185505419970e-04
2.002000000000000000e+03 4.994683742523193359e+00 -7.450367927551269531e+00 4.839415487367659807e-04 5.816328848595730960e-05 1.626314478926360607e-04 3.729778691194951534e-04
2.003000000000000000e+03 7.310056686401367188e+00 2.772694396972656250e+01 6.182968243956565857e-02 -1.736050993204116821e-01 -3.353262320160865784e-02 2.417994439601898193e-01
2.004000000000000000e+03 7.890287399291992188e+00 8.008782386779785156e+00 2.809019642882049084e-04 -4.890884156338870525e-04 -6.245592521736398339e-05 7.201073458418250084e-04
2.005000000000000000e+03 4.847401618957519531e+00 6.845492362976074219e+00 1.407799310982227325e-03 -3.320272662676870823e-04 3.227316192351281643e-04 -1.178309539682231843e-04
2.006000000000000000e+03 7.381139755249023438e+00 7.138199329376220703e+00 5.227313959039747715e-04 7.614258793182671070e-04 3.852472000289708376e-04 1.781790197128430009e-04
2.007000000000000000e+03 2.576504516601562500e+01 7.211576938629150391e+00 2.197493314743041992e-01 7.847474813461303711e-01 3.013490438461303711e-01 -3.408879041671752930e-01
2.008000000000000000e+03 2.311579322814941406e+01 8.356482505798339844e+00 3.582319244742393494e-02 2.842294275760650635e-01 9.601578861474990845e-02 -1.609565913677215576e-01
2.009000000000000000e+03 9.161219596862792969e+00 -2.156841850280761719e+01 -1.498934477567672729e-01 -5.583405494689941406e-01 -2.124702036380767822e-01 -5.328214168548583984e-01
2.010000000000000000e+03 2.132667541503906250e+01 -1.207914352416992188e+01 -5.867218971252441406e-01 9.314773976802825928e-02 -1.480722427368164062e-01 -5.217747092247009277e-01
2.011000000000000000e+03 2.207974433898925781e+01 -1.291511440277099609e+01 -4.847371876239776611e-01 1.580822616815567017e-01 -9.799648076295852661e-02 -4.724116623401641846e-01
2.012000000000000000e+03 1.202018070220947266e+01 -2.247562599182128906e+01 -5.439543724060058594e-02 -4.889038205146789551e-01 -1.629897803068161011e-01 -3.973869681358337402e-01
2.013000000000000000e+03 1.363041877746582031e+01 -2.147005653381347656e+01 -1.484441608190536499e-01 -4.524734616279602051e-01 -1.802752763032913208e-01 -3.080659806728363037e-01
2.014000000000000000e+03 7.392472839355468750e+01 3.448281860351562500e+01 -7.189647108316421509e-02 8.676598548889160156e+00 2.581410646438598633e+00 1.497452110052108765e-01
2.015000000000000000e+03 6.856963348388671875e+01 2.855692291259765625e+01 -2.036871016025543213e-01 8.139207839965820312e+00 2.380656242370605469e+00 3.823091089725494385e-01
2.016000000000000000e+03 1.916460418701171875e+01 -2.075499725341796875e+01 -3.673193231225013733e-02 1.348650455474853516e-01 2.943993359804153442e-02 -1.201679930090904236e-01
2.017000000000000000e+03 8.276319503784179688e+00 2.381342124938964844e+01 -4.006769135594367981e-02 -1.708289384841918945e-01 -6.326898932456970215e-02 2.892643213272094727e-01
2.018000000000000000e+03 1.337837123870849609e+01 2.288703918457031250e+01 -1.888904534280300140e-02 -1.215225979685783386e-01 -4.212349280714988708e-02 1.234324723482131958e-01
2.019000000000000000e+03 2.273667144775390625e+01 1.239337539672851562e+01 -7.064986974000930786e-02 5.430431365966796875e-01 1.417179852724075317e-01 -2.834174335002899170e-01
2.020000000000000000e+03 2.295514297485351562e+01 1.556932163238525391e+01 -9.270315617322921753e-02 8.621495366096496582e-01 2.308339178562164307e-01 -4.035809636116027832e-01
2.021000000000000000e+03 2.104241371154785156e+01 -1.504576110839843750e+01 -3.732212185859680176e-01 1.600253731012344360e-01 -6.395875662565231323e-02 -3.949195742607116699e-01
2.022000000000000000e+03 2.541226005554199219e+01 4.881348609924316406e+00 2.642080187797546387e-01 4.718075692653656006e-01 2.208046764135360718e-01 -1.400381177663803101e-01
2.023000000000000000e+03 9.556219100952148438e+00 -3.036656570434570312e+01 1.857776045799255371e-01 -3.583308160305023193e-01 -5.176596716046333313e-02 -2.967601716518402100e-01
2.024000000000000000e+03 1.536961364746093750e+01 2.299738693237304688e+01 8.516162633895874023e-03 6.784600019454956055e-02 2.290864847600460052e-02 -5.526887252926826477e-03
2.025000000000000000e+03 1.235019779205322266e+01 2.403601646423339844e+01 3.686876222491264343e-02 -1.126384288072586060e-01 -2.273089997470378876e-02 1.714715808629989624e-01
2.026000000000000000e+03 2.479509353637695312e+01 6.789669036865234375e+00 1.732150912284851074e-01 5.185807347297668457e-01 2.075387388467788696e-01 -2.161937505006790161e-01
2.027000000000000000e+03 1.720113945007324219e+01 -2.219657516479492188e+01 2.344625629484653473e-02 -9.536711499094963074e-03 4.172863438725471497e-03 -1.396252065896987915e-01
2.028000000000000000e+03 7.390818786621093750e+01 -4.337363541126251221e-01 1.341881901025772095e-01 7.029759407043457031e+00 2.149184226989746094e+00 3.104337155818939209e-01
2.029000000000000000e+03 7.223033142089843750e+01 1.886518669128417969e+01 -8.470934629440307617e-02 8.074090003967285156e+00 2.396814346313476562e+00 5.354139804840087891e-01
2.030000000000000000e+03 7.156505584716796875e+01 1.430034351348876953e+01 -5.603561177849769592e-02 7.858492374420166016e+00 2.340737104415893555e+00 6.439642906188964844e-01
2.031000000000000000e+03 7.273418426513671875e+01 6.585874080657958984e+00 6.893598288297653198e-02 7.435288429260253906e+00 2.251267433166503906e+00 5.713278651237487793e-01
2.032000000000000000e+03 7.404172515869140625e+01 -7.397415637969970703e+00 1.570977419614791870e-01 6.883325576782226562e+00 2.112127065658569336e+00 -1.178860850632190704e-02
2.033000000000000000e+03 4.820090770721435547e+00 -1.886734199523925781e+01 -2.300416529178619385e-01 -4.742909222841262817e-02 -8.324122428894042969e-02 -1.415561437606811523e-01
2.034000000000000000e+03 1.157810211181640625e+01 -2.376025581359863281e+01 6.622930616140365601e-02 -4.678040146827697754e-01 -1.204724088311195374e-01 -3.954018950462341309e-01
2.035000000000000000e+03 7.149060058593750000e+01 2.791694259643554688e+01 -1.219680681824684143e-01 8.321654319763183594e+00 2.459905862808227539e+00 3.513458371162414551e-01
2.036000000000000000e+03 7.291773223876953125e+01 2.863115501403808594e+01 -1.011516153812408447e-01 8.440200805664062500e+00 2.501714706420898438e+00 3.018272817134857178e-01
2.037000000000000000e+03 3.936198425292968750e+01 -4.016074180603027344e+00 3.178557395935058594e+00 5.260981082916259766e+00 2.531861543655395508e+00 -4.625642299652099609e+00
2.038000000000000000e+03 4.067583465576171875e+01 -9.454252243041992188e+00 1.275922179222106934e+00 1.117932891845703125e+01 3.736575126647949219e+00 4.691708564758300781e+00
2.039000000000000000e+03 4.065319442749023438e+01 -3.960242509841918945e+00 2.102423906326293945e+00 1.163227272033691406e+01 4.120409011840820312e+00 -5.213450908660888672e+00
2.040000000000000000e+03 4.088172149658203125e+01 -9.146001815795898438e+00 1.318212866783142090e+00 1.270465946197509766e+01 4.206861495971679688e+00 4.818806171417236328e+00
2.041000000000000000e+03 4.111473464965820312e+01 -9.193312644958496094e+00 1.087307929992675781e+00 1.370652580261230469e+01 4.438149929046630859e+00 4.259203433990478516e+00
2.042000000000000000e+03 4.198239898681640625e+01 -4.036817073822021484e+00 1.625593662261962891e+00 1.619472122192382812e+01 5.346094131469726562e+00 -1.564607381820678711e+00
2.043000000000000000e+03 4.156432723999023438e+01 -8.825181007385253906e+00 1.190678477287292480e+00 1.629813575744628906e+01 5.246644020080566406e+00 2.878751993179321289e+00
2.044000000000000000e+03 4.380990219116210938e+01 -7.072538375854492188e+00 8.394298553466796875e+00 1.346855831146240234e+01 6.558856964111328125e+00 -1.164969325065612793e+00
2.045000000000000000e+03 4.129198455810546875e+01 -3.676173925399780273e+00 1.300216913223266602e+00 1.385509014129638672e+01 4.546592235565185547e+00 -3.682690858840942383e+00
2.046000000000000000e+03 4.390254974365234375e+01 -5.392324924468994141e+00 6.927812576293945312e+00 1.358570003509521484e+01 6.154053688049316406e+00 1.646675348281860352e+00
2.047000000000000000e+03 4.323616027832031250e+01 -8.344986915588378906e+00 4.625446319580078125e+00 1.560441493988037109e+01 6.068958282470703125e+00 -1.958171963691711426e+00
2.048000000000000000e+03 4.261989593505859375e+01 -4.556024551391601562e+00 3.452953815460205078e+00 1.698241806030273438e+01 6.130611419677734375e+00 8.722395896911621094e-01
2.049000000000000000e+03 4.309979248046875000e+01 -4.932793140411376953e+00 5.458884239196777344e+00 1.600820732116699219e+01 6.440127372741699219e+00 1.928557276725769043e+00
2.050000000000000000e+03 4.387584304809570312e+01 -6.681533336639404297e+00 8.617944717407226562e+00 1.309616184234619141e+01 6.514232158660888672e+00 -4.250380694866180420e-01
2.051000000000000000e+03 4.238365554809570312e+01 -4.189693927764892578e+00 2.333151340484619141e+00 1.653109359741210938e+01 5.659273147583007812e+00 -2.468567192554473877e-01
2.052000000000000000e+03 4.365826416015625000e+01 -7.789154052734375000e+00 6.494806289672851562e+00 1.426412582397460938e+01 6.227679729461669922e+00 -2.021693468093872070e+00
2.053000000000000000e+03 4.254852676391601562e+01 -8.785366058349609375e+00 2.389575958251953125e+00 1.676908111572265625e+01 5.747596740722656250e+00 -4.535840749740600586e-01
2.054000000000000000e+03 4.301300048828125000e+01 -8.666050910949707031e+00 3.383174657821655273e+00 1.580525875091552734e+01 5.756530284881591797e+00 -1.319150447845458984e+00
2.055000000000000000e+03 3.920653152465820312e+01 -4.342650890350341797e+00 3.508909463882446289e+00 3.865966558456420898e+00 2.212462902069091797e+00 -4.234059333801269531e+00
2.056000000000000000e+03 3.943352890014648438e+01 -9.420993804931640625e+00 2.304278850555419922e+00 5.884229183197021484e+00 2.456552505493164062e+00 4.617037296295166016e+00
2.057000000000000000e+03 3.662817001342773438e+01 -2.329517126083374023e+00 1.884415984153747559e+00 2.012659311294555664e+00 1.169122576713562012e+00 -2.161672353744506836e+00
2.058000000000000000e+03 3.960544586181640625e+01 -1.009347820281982422e+01 1.656901955604553223e+00 6.862028598785400391e+00 2.555679082870483398e+00 4.469805717468261719e+00
2.059000000000000000e+03 2.501519775390625000e+01 3.136233687400817871e-01 1.789797544479370117e-01 6.788136810064315796e-02 7.405833899974822998e-02 2.397317588329315186e-01
2.060000000000000000e+03 3.603771209716796875e+01 -1.710943460464477539e+00 1.697304725646972656e+00 1.962495088577270508e+00 1.097939968109130859e+00 -1.948667645454406738e+00
2.061000000000000000e+03 3.544011306762695312e+01 -1.657340526580810547e+00 1.547074913978576660e+00 1.596916437149047852e+00 9.431974291801452637e-01 -1.637633323669433594e+00
2.062000000000000000e+03 3.548978424072265625e+01 -1.168299388885498047e+01 1.022467494010925293e+00 1.678524971008300781e+00 8.102977275848388672e-01 1.776654005050659180e+00
2.063000000000000000e+03 2.521554565429687500e+01 -6.650039553642272949e-01 1.121828556060791016e-01 3.942270949482917786e-02 4.548167064785957336e-02 2.866311073303222656e-01
2.064000000000000000e+03 2.572534179687500000e+01 -9.618141651153564453e-01 1.076135039329528809e-01 6.416488438844680786e-02 5.153351649641990662e-02 2.822128832340240479e-01
2.065000000000000000e+03 2.556690597534179688e+01 -1.478930354118347168e+00 4.556349664926528931e-02 3.509657457470893860e-02 2.419802173972129822e-02 3.112558722496032715e-01
2.066000000000000000e+03 9.164622306823730469e+00 5.891412258148193359e+00 -1.526412052044179291e-05 -1.010431791655719280e-03 -3.077087749261409044e-04 3.468962313490919769e-05
2.067000000000000000e+03 2.743678092956542969e+01 -1.618062138557434082e+00 1.258446872234344482e-01 1.364560872316360474e-01 7.869023829698562622e-02 2.210010290145874023e-01
2.068000000000000000e+03 2.620375251770019531e+01 -1.061589956283569336e+00 1.279324144124984741e-01 9.855657815933227539e-02 6.794669479131698608e-02 2.610830068588256836e-01
2.069000000000000000e+03 2.872210311889648438e+01 -2.781678736209869385e-01 4.471869170665740967e-01 3.711965680122375488e-01 2.455150485038757324e-01 -3.444558382034301758e-02
2.070000000000000000e+03 2.737276649475097656e+01 -9.567775726318359375e-01 2.170617133378982544e-01 1.790982633829116821e-01 1.188479959964752197e-01 1.796780079603195190e-01
2.071000000000000000e+03 2.806881523132324219e+01 -9.535194635391235352e-01 2.814147174358367920e-01 2.413885146379470825e-01 1.568409651517868042e-01 1.116914600133895874e-01
2.072000000000000000e+03 2.812090301513671875e+01 -1.614960908889770508e+00 1.765445619821548462e-01 1.784818768501281738e-01 1.065079271793365479e-01 1.689280122518539429e-01
2.073000000000000000e+03 3.104825973510742188e+01 -1.652023315429687500e+00 5.255317091941833496e-01 4.064446091651916504e-01 2.795929014682769775e-01 -2.009589970111846924e-01
2.074000000000000000e+03 3.026092338562011719e+01 -9.225330352783203125e-01 5.484838485717773438e-01 4.445824921131134033e-01 2.979198992252349854e-01 -1.778896749019622803e-01
2.075000000000000000e+03 7.187987804412841797e+00 -6.951843261718750000e+00 6.850368226878345013e-04 -6.962133920751512051e-04 -3.352960447955410928e-06 -5.323422956280410290e-04
2.076000000000000000e+03 3.178559303283691406e+01 -9.541702866554260254e-01 7.996726036071777344e-01 6.480178833007812500e-01 4.343071579933166504e-01 -4.774452447891235352e-01
2.077000000000000000e+03 3.020992088317871094e+01 -1.297064018249511719e+01 2.015860676765441895e-01 5.351131558418273926e-01 2.210097610950469971e-01 3.279345929622650146e-01
2.078000000000000000e+03 3.098498916625976562e+01 -1.296125793457031250e+01 3.085054457187652588e-01 6.488959193229675293e-01 2.872204184532165527e-01 4.751506149768829346e-01
2.079000000000000000e+03 3.255480194091796875e+01 -1.211427307128906250e+01 4.060820639133453369e-01 7.343223690986633301e-01 3.421213328838348389e-01 7.256173491477966309e-01
2.080000000000000000e+03 3.412252044677734375e+01 -1.264283847808837891e+01 8.085328340530395508e-01 1.396637320518493652e+00 6.615510582923889160e-01 1.360933303833007812e+00
2.081000000000000000e+03 3.422535324096679688e+01 -1.340073776245117188e+01 8.505795001983642578e-01 1.762665867805480957e+00 7.839736342430114746e-01 1.526484251022338867e+00
2.082000000000000000e+03 3.336265945434570312e+01 -1.278290939331054688e+01 6.866191625595092773e-01 1.169216990470886230e+00 5.567508339881896973e-01 1.115880370140075684e+00
2.083000000000000000e+03 3.178128051757812500e+01 -1.293669128417968750e+01 4.300767183303833008e-01 7.967109680175781250e-01 3.680362999439239502e-01 6.673375964164733887e-01
2.084000000000000000e+03 3.257953643798828125e+01 -1.288252258300781250e+01 5.537380576133728027e-01 9.657021760940551758e-01 4.558320641517639160e-01 8.804913163185119629e-01
2.085000000000000000e+03 2.945136642456054688e+01 -1.298693943023681641e+01 9.466309845447540283e-02 4.811173081398010254e-01 1.727341264486312866e-01 1.996042430400848389e-01
2.086000000000000000e+03 3.342192459106445312e+01 -1.694690823554992676e+00 1.013482213020324707e+00 7.970874309539794922e-01 5.431708693504333496e-01 -7.722663879394531250e-01
2.087000000000000000e+03 3.255832672119140625e+01 -9.793689250946044922e-01 9.478896856307983398e-01 8.174018859863281250e-01 5.295875072479248047e-01 -6.782021522521972656e-01
2.088000000000000000e+03 2.724270629882812500e+01 -1.316489982604980469e+01 -1.257602423429489136e-01 3.429026901721954346e-01 6.514273583889007568e-02 -1.076064258813858032e-01
2.089000000000000000e+03 2.871020698547363281e+01 -1.305160331726074219e+01 1.943570445291697979e-03 4.201301038265228271e-01 1.266221106052398682e-01 7.146693766117095947e-02
2.090000000000000000e+03 3.481095123291015625e+01 -1.621599435806274414e+00 1.391088366508483887e+00 1.302811622619628906e+00 8.081700205802917480e-01 -1.337211608886718750e+00
2.091000000000000000e+03 2.535235595703125000e+01 -1.269276142120361328e+01 -3.422149717807769775e-01 2.364342808723449707e-01 -3.173420950770378113e-02 -3.224271535873413086e-01
2.092000000000000000e+03 2.361646652221679688e+01 -6.316830515861511230e-01 4.576815664768218994e-02 -7.904739677906036377e-02 -9.983772411942481995e-03 3.280473947525024414e-01
2.093000000000000000e+03 2.422136688232421875e+01 -1.338224792480468750e+01 -3.339796662330627441e-01 2.359607219696044922e-01 -2.940568327903747559e-02 -3.637758493423461914e-01
2.094000000000000000e+03 2.513007354736328125e+01 -1.366094303131103516e+01 -2.289487719535827637e-01 3.036662340164184570e-01 2.241523936390876770e-02 -2.740938663482666016e-01
2.095000000000000000e+03 2.126050949096679688e+01 -1.313019466400146484e+01 -5.073913335800170898e-01 1.133138909935951233e-01 -1.182232275605201721e-01 -4.888826608657836914e-01
2.096000000000000000e+03 2.656368064880371094e+01 -1.342497539520263672e+01 -1.425952911376953125e-01 3.394665718078613281e-01 5.906138196587562561e-02 -1.612526625394821167e-01
2.097000000000000000e+03 7.043334484100341797e+00 6.293498516082763672e+00 -3.461163214524276555e-05 -8.196908165700733662e-04 -2.562907175160944462e-04 6.605670205317437649e-04
2.098000000000000000e+03 7.065447807312011719e+00 8.666772842407226562e+00 8.395377662964165211e-04 4.657523822970688343e-04 3.915870620403438807e-04 9.815294761210680008e-04
2.099000000000000000e+03 3.553424453735351562e+01 -1.233285903930664062e+01 1.046694636344909668e+00 2.027521133422851562e+00 9.222647547721862793e-01 1.926605701446533203e+00
2.100000000000000000e+03 3.616734695434570312e+01 -1.157839202880859375e+01 1.179132938385009766e+00 2.091300964355468750e+00 9.811301827430725098e-01 2.114322185516357422e+00
2.101000000000000000e+03 2.172084617614746094e+01 -1.408440494537353516e+01 -4.119276702404022217e-01 1.654911488294601440e-01 -7.393095642328262329e-02 -4.290891885757446289e-01
2.102000000000000000e+03 2.423164558410644531e+01 1.261177921295166016e+01 -3.408104181289672852e-02 9.249360561370849609e-01 2.672564983367919922e-01 -4.200970828533172607e-01
2.103000000000000000e+03 2.292747116088867188e+01 9.623256683349609375e+00 -5.144321403349749744e-05 3.441980183124542236e-01 1.032439693808555603e-01 -2.002609074115753174e-01
2.104000000000000000e+03 2.390805435180664062e+01 8.237791806459426880e-02 9.971664845943450928e-02 -4.284505918622016907e-02 1.706147752702236176e-02 2.968252599239349365e-01
2.105000000000000000e+03 2.350341415405273438e+01 1.279158473014831543e+00 1.244176104664802551e-01 -5.435444042086601257e-02 2.101895213127136230e-02 2.452650964260101318e-01
2.106000000000000000e+03 5.838841438293457031e+00 7.195618152618408203e+00 -4.012561985291540623e-04 -9.869949280982837081e-05 -1.499867066740989685e-04 1.783565385267138481e-04
2.107000000000000000e+03 7.278802490234375000e+01 -1.415823936462402344e+01 1.466868072748184204e-01 7.105095863342285156e+00 2.175534963607788086e+00 -3.349995613098144531e-01
2.108000000000000000e+03 7.271542358398437500e+01 5.211857318878173828e+00 9.434261173009872437e-02 7.363229274749755859e+00 2.237271547317504883e+00 5.454884171485900879e-01
2.109000000000000000e+03 2.682809066772460938e+01 7.509554862976074219e+00 2.604676187038421631e-01 1.062478899955749512e+00 3.968839645385742188e-01 -4.608384072780609131e-01
2.110000000000000000e+03 2.011512947082519531e+01 -1.779554557800292969e+01 -2.069118767976760864e-01 1.622564643621444702e-01 -1.339662726968526840e-02 -2.440758496522903442e-01
2.111000000000000000e+03 2.185182952880859375e+01 -1.692761611938476562e+01 -1.537548303604125977e-01 3.150579631328582764e-01 4.839093238115310669e-02 -2.245840281248092651e-01
2.112000000000000000e+03 7.268583679199218750e+01 -7.322378635406494141e+00 2.304640710353851318e-01 6.992239475250244141e+00 2.166810989379882812e+00 -8.085642009973526001e-03
2.113000000000000000e+03 7.045310211181640625e+01 -1.273658943176269531e+01 2.788873910903930664e-01 7.209216117858886719e+00 2.246431112289428711e+00 -3.415189385414123535e-01
2.114000000000000000e+03 7.248197937011718750e+01 2.434230804443359375e+00 1.522224098443984985e-01 7.243926048278808594e+00 2.218844652175903320e+00 4.787318706512451172e-01
2.115000000000000000e+03 6.877655792236328125e+01 3.422424197196960449e-01 3.653752803802490234e-01 7.357669353485107422e+00 2.316913366317749023e+00 5.212084650993347168e-01
2.116000000000000000e+03 2.522172164916992188e+01 4.042821407318115234e+00 2.363160103559494019e-01 3.572468459606170654e-01 1.780688613653182983e-01 -4.699841886758804321e-02
2.117000000000000000e+03 7.275321960449218750e+01 -2.127489852905273438e+01 1.859097369015216827e-02 7.385958194732666016e+00 2.221364736557006836e+00 -4.748072922229766846e-01
2.118000000000000000e+03 7.018372344970703125e+01 -5.796616554260253906e+00 3.820367753505706787e-01 7.155640125274658203e+00 2.261302947998046875e+00 9.406805038452148438e-02
2.119000000000000000e+03 6.362473964691162109e+00 5.488193511962890625e+00 -5.374933243729174137e-04 -5.209709706832654774e-05 -1.768771326169371605e-04 -8.480441465508192778e-05
2.120000000000000000e+03 1.964636230468750000e+01 -1.925979614257812500e+01 -1.212491840124130249e-01 1.535276025533676147e-01 9.683525189757347107e-03 -1.802057921886444092e-01
2.121000000000000000e+03 2.060756683349609375e+01 -2.159321975708007812e+01 1.083412691950798035e-01 3.992989361286163330e-01 1.522920578718185425e-01 -2.583069168031215668e-02
2.122000000000000000e+03 6.986835479736328125e+01 4.099020481109619141e+00 1.965217888355255127e-01 7.442494392395019531e+00 2.291704893112182617e+00 6.458380222320556641e-01
2.123000000000000000e+03 7.324052810668945312e+00 2.469270706176757812e+01 -1.918479427695274353e-02 -1.672075241804122925e-01 -5.591769888997077942e-02 2.738709151744842529e-01
2.124000000000000000e+03 7.299397277832031250e+01 2.118712997436523438e+01 -7.333022356033325195e-02 8.207193374633789062e+00 2.440159082412719727e+00 4.498472511768341064e-01
2.125000000000000000e+03 7.284468078613281250e+01 -2.685053825378417969e+01 -6.251873821020126343e-02 7.617516040802001953e+00 2.266499280929565430e+00 -4.391181170940399170e-01
2.126000000000000000e+03 2.612056350708007812e+01 4.404311656951904297e+00 3.321418464183807373e-01 5.650992989540100098e-01 2.691723406314849854e-01 -1.747951954603195190e-01
2.127000000000000000e+03 7.195848846435546875e+01 1.257267761230468750e+01 -2.822445519268512726e-02 7.775346279144287109e+00 2.324136495590209961e+00 6.355363726615905762e-01
2.128000000000000000e+03 7.068395996093750000e+01 1.066770648956298828e+01 -1.148470473708584905e-04 7.705447673797607422e+00 2.311599969863891602e+00 7.077807188034057617e-01
2.129000000000000000e+03 7.149890136718750000e+01 -1.147677421569824219e+01 2.556828856468200684e-01 7.120540618896484375e+00 2.212867021560668945e+00 -2.524239122867584229e-01
2.130000000000000000e+03 7.408761596679687500e+01 -1.426905441284179688e+01 1.033299937844276428e-01 7.016220092773437500e+00 2.135864973068237305e+00 -2.951877713203430176e-01
2.131000000000000000e+03 7.084860992431640625e+01 1.761853790283203125e+01 -1.073099747300148010e-01 7.989245891571044922e+00 2.364580631256103516e+00 6.199679374694824219e-01
2.132000000000000000e+03 7.154654693603515625e+01 -3.338455438613891602e+00 2.795021533966064453e-01 7.108584403991699219e+00 2.216425895690917969e+00 2.337075024843215942e-01
2.133000000000000000e+03 6.641708850860595703e+00 -2.263557243347167969e+01 -1.303406357765197754e-01 -3.324284255504608154e-01 -1.388307064771652222e-01 -4.481845200061798096e-01
2.134000000000000000e+03 7.018495941162109375e+01 1.225466156005859375e+01 -3.382931649684906006e-02 7.778400897979736328e+00 2.323371410369873047e+00 7.229649424552917480e-01
2.135000000000000000e+03 7.085663604736328125e+01 1.916923332214355469e+01 -1.195034310221672058e-01 8.051617622375488281e+00 2.379634380340576172e+00 5.825142860412597656e-01
2.136000000000000000e+03 7.678696632385253906e+00 2.915243911743164062e+01 8.644452691078186035e-02 -1.502314805984497070e-01 -1.913608424365520477e-02 2.133131772279739380e-01
2.137000000000000000e+03 1.164487266540527344e+01 2.998802947998046875e+01 1.546482145786285400e-01 9.113156795501708984e-02 7.373393326997756958e-02 1.198468059301376343e-01
2.138000000000000000e+03 7.241422271728515625e+01 -2.970455169677734375e+01 -9.801600128412246704e-02 7.722974777221679688e+00 2.287487745285034180e+00 -4.004619419574737549e-01
2.139000000000000000e+03 6.923958587646484375e+01 -3.067158317565917969e+01 -2.014598548412322998e-01 7.786198139190673828e+00 2.275421380996704102e+00 -4.392526447772979736e-01
2.140000000000000000e+03 7.115561676025390625e+01 -1.831752777099609375e+01 1.016779318451881409e-01 7.348893165588378906e+00 2.235171318054199219e+00 -5.108994245529174805e-01
2.141000000000000000e+03 7.021003723144531250e+01 2.685929679870605469e+01 -1.500169485807418823e-01 8.211769104003906250e+00 2.418525695800781250e+00 4.018674790859222412e-01
2.142000000000000000e+03 2.269947624206542969e+01 1.391944503784179688e+01 -8.922919631004333496e-02 6.703376770019531250e-01 1.743325442075729370e-01 -3.259502053260803223e-01
2.143000000000000000e+03 2.522678184509277344e+01 6.084374427795410156e+00 2.173019498586654663e-01 5.443627238273620605e-01 2.284993976354598999e-01 -2.066002339124679565e-01
2.144000000000000000e+03 2.598728370666503906e+01 6.453629970550537109e+00 2.635473608970642090e-01 7.529300451278686523e-01 3.049432039260864258e-01 -3.162083029747009277e-01
2.145000000000000000e+03 7.101055145263671875e+01 -2.939818572998046875e+01 -1.337359398603439331e-01 7.731370925903320312e+00 2.279290437698364258e+00 -4.440093636512756348e-01
2.146000000000000000e+03 7.240194702148437500e+01 -4.751060903072357178e-01 2.013752907514572144e-01 7.135497570037841797e+00 2.201061725616455078e+00 3.649861216545104980e-01
2.147000000000000000e+03 7.071875000000000000e+01 1.208809614181518555e+00 2.490064799785614014e-01 7.286960601806640625e+00 2.260790109634399414e+00 4.959492683410644531e-01
2.148000000000000000e+03 1.023983669281005859e+01 2.392629241943359375e+01 -8.166921325027942657e-03 -1.843968480825424194e-01 -5.776913091540336609e-02 2.686038911342620850e-01
2.149000000000000000e+03 8.685359954833984375e+00 2.715246009826660156e+01 7.135808467864990234e-02 -1.306442618370056152e-01 -1.778585277497768402e-02 2.362175136804580688e-01
2.150000000000000000e+03 1.875687217712402344e+01 2.112711906433105469e+01 -6.471145898103713989e-02 4.202977120876312256e-01 1.066758707165718079e-01 -1.970503777265548706e-01
2.151000000000000000e+03 1.760670089721679688e+01 2.165386009216308594e+01 -2.821489982306957245e-02 2.870476543903350830e-01 7.764982432126998901e-02 -1.363934129476547241e-01
2.152000000000000000e+03 7.022906494140625000e+01 6.593288898468017578e+00 1.128927990794181824e-01 7.536460876464843750e+00 2.294806241989135742e+00 6.954339146614074707e-01
2.153000000000000000e+03 7.143205261230468750e+01 7.900707244873046875e+00 5.946208536624908447e-02 7.553259849548339844e+00 2.283816576004028320e+00 6.563831567764282227e-01
2.154000000000000000e+03 1.605248832702636719e+01 -2.643076705932617188e+01 2.406999915838241577e-01 7.071013003587722778e-02 9.342303872108459473e-02 -1.423358768224716187e-01
2.155000000000000000e+03 1.001457595825195312e+01 -2.524748039245605469e+01 1.030952408909797668e-01 -4.479610919952392578e-01 -1.034597530961036682e-01 -4.226775467395782471e-01
2.156000000000000000e+03 7.376673698425292969e+00 -2.747499275207519531e+01 9.208887070417404175e-02 -4.712795317173004150e-01 -1.137572005391120911e-01 -3.842776417732238770e-01
2.157000000000000000e+03 6.389825820922851562e+00 2.538953018188476562e+01 1.405551331117749214e-03 -1.846653670072555542e-01 -5.497794225811958313e-02 2.641178965568542480e-01
2.158000000000000000e+03 6.989657592773437500e+01 1.401392555236816406e+01 -6.902115046977996826e-02 7.843074321746826172e+00 2.332215785980224609e+00 7.172744274139404297e-01
2.159000000000000000e+03 1.922548294067382812e+01 -2.248200798034667969e+01 1.173149645328521729e-01 2.449670583009719849e-01 1.086846068501472473e-01 -4.329666867852210999e-02
2.160000000000000000e+03 1.984720611572265625e+01 2.061678504943847656e+01 -5.966083705425262451e-02 5.823932290077209473e-01 1.568197160959243774e-01 -2.615996003150939941e-01
2.161000000000000000e+03 7.199433898925781250e+01 -3.647183609008789062e+01 -1.776364594697952271e-01 7.881919384002685547e+00 2.311284780502319336e+00 -2.190429121255874634e-01
2.162000000000000000e+03 7.119004058837890625e+01 -2.157510185241699219e+01 1.553889550268650055e-02 7.471642971038818359e+00 2.246154546737670898e+00 -5.455014109611511230e-01
2.163000000000000000e+03 7.305799102783203125e+01 -2.257456588745117188e+01 1.158516737632453442e-03 7.427352905273437500e+00 2.228553295135498047e+00 -4.688816070556640625e-01
2.164000000000000000e+03 2.123856735229492188e+01 -2.000435447692871094e+01 2.416568808257579803e-02 4.049555659294128418e-01 1.287363767623901367e-01 -6.392893195152282715e-02
2.165000000000000000e+03 1.039873695373535156e+01 -2.305855751037597656e+01 -3.111136145889759064e-02 -5.168635845184326172e-01 -1.643924862146377563e-01 -4.652825891971588135e-01
2.166000000000000000e+03 9.912160873413085938e+00 3.538853454589843750e+01 1.317709386348724365e-01 7.845254242420196533e-02 6.306704878807067871e-02 9.330401569604873657e-02
2.167000000000000000e+03 6.854985237121582031e+00 2.646274566650390625e+01 2.962398156523704529e-02 -1.817116886377334595e-01 -4.562631249427795410e-02 2.540830969810485840e-01
2.168000000000000000e+03 6.982935333251953125e+01 -2.741850471496582031e+01 -1.234102994203567505e-01 7.697084426879882812e+00 2.272102355957031250e+00 -5.232871174812316895e-01
2.169000000000000000e+03 7.937112808227539062e+00 -3.013861465454101562e+01 1.428664624691009521e-01 -4.510382115840911865e-01 -9.245152771472930908e-02 -3.151395320892333984e-01
2.170000000000000000e+03 2.494703865051269531e+01 -1.582551002502441406e+01 -8.105388842523097992e-03 4.835374057292938232e-01 1.426296085119247437e-01 -1.027773991227149963e-01
2.171000000000000000e+03 2.160081481933593750e+01 -1.841123962402343750e+01 -6.375926733016967773e-02 3.665502369403839111e-01 9.083729237318038940e-02 -1.355386227369308472e-01
2.172000000000000000e+03 7.231278228759765625e+01 -3.134344100952148438e+01 -1.202929168939590454e-01 7.770737648010253906e+00 2.295133352279663086e+00 -3.633483350276947021e-01
2.173000000000000000e+03 8.034655570983886719e+00 2.581854248046875000e+01 2.914387732744216919e-02 -1.639177352190017700e-01 -4.043215885758399963e-02 2.673340737819671631e-01
2.174000000000000000e+03 2.200391578674316406e+01 1.743248367309570312e+01 -9.385874867439270020e-02 8.313549160957336426e-01 2.212488502264022827e-01 -3.722435832023620605e-01
2.175000000000000000e+03 9.724114418029785156e+00 -3.311249923706054688e+01 1.820273250341415405e-01 -2.973320782184600830e-01 -3.459142521023750305e-02 -2.225032448768615723e-01
2.176000000000000000e+03 1.038936042785644531e+01 -2.671449470520019531e+01 1.679188013076782227e-01 -3.890879750251770020e-01 -6.635075062513351440e-02 -3.655814826488494873e-01
2.177000000000000000e+03 4.031348037719726562e+01 -3.830202341079711914e+00 2.397722721099853516e+00 9.696061134338378906e+00 3.628135204315185547e+00 -5.333609580993652344e+00
2.178000000000000000e+03 4.028293228149414062e+01 -9.641922950744628906e+00 1.578374266624450684e+00 9.445488929748535156e+00 3.307158946990966797e+00 4.945721149444580078e+00
2.179000000000000000e+03 3.980963134765625000e+01 -3.234107971191406250e+00 2.268352031707763672e+00 7.559757709503173828e+00 2.948432922363281250e+00 -4.769399166107177734e+00
2.180000000000000000e+03 4.144468307495117188e+01 -9.874116897583007812e+00 5.736825466156005859e-01 1.305682563781738281e+01 4.089152336120605469e+00 3.087410926818847656e+00
2.181000000000000000e+03 4.138985443115234375e+01 -9.511137008666992188e+00 7.328995466232299805e-01 1.383842563629150391e+01 4.371397495269775391e+00 3.351509809494018555e+00
2.182000000000000000e+03 3.969812011718750000e+01 -9.402055740356445312e+00 2.176019191741943359e+00 6.848864555358886719e+00 2.707465171813964844e+00 4.872339248657226562e+00
2.183000000000000000e+03 3.986437606811523438e+01 -9.682531356811523438e+00 1.884468078613281250e+00 7.606275558471679688e+00 2.847223043441772461e+00 4.830069065093994141e+00
2.184000000000000000e+03 4.375571823120117188e+01 -7.467891216278076172e+00 7.453338623046875000e+00 1.382281875610351562e+01 6.382847309112548828e+00 -1.748220562934875488e+00
2.185000000000000000e+03 4.409412002563476562e+01 -6.894986629486083984e+00 8.125956535339355469e+00 1.279179477691650391e+01 6.275325298309326172e+00 -6.990495920181274414e-01
2.186000000000000000e+03 4.370195770263671875e+01 -4.784629821777343750e+00 5.278017044067382812e+00 1.424607276916503906e+01 5.857226848602294922e+00 1.847831606864929199e+00
2.187000000000000000e+03 4.216191864013671875e+01 -3.172489166259765625e+00 1.065157175064086914e+00 1.407234954833984375e+01 4.541252136230468750e+00 -1.583749055862426758e+00
2.188000000000000000e+03 4.221009063720703125e+01 -3.635844469070434570e+00 1.400954961776733398e+00 1.520845317840576172e+01 4.982822418212890625e+00 -1.241702079772949219e+00
2.189000000000000000e+03 4.408052444458007812e+01 -4.418466091156005859e+00 4.490792751312255859e+00 1.350637245178222656e+01 5.399149417877197266e+00 1.686029911041259766e+00
2.190000000000000000e+03 4.352227783203125000e+01 -4.118507862091064453e+00 3.547348499298095703e+00 1.447146129608154297e+01 5.405642986297607422e+00 1.400264620780944824e+00
2.191000000000000000e+03 4.369210433959960938e+01 -8.643099784851074219e+00 4.109471321105957031e+00 1.442586708068847656e+01 5.560601711273193359e+00 -1.821858525276184082e+00
2.192000000000000000e+03 3.957305908203125000e+01 -9.166494369506835938e+00 2.561233043670654297e+00 6.032254219055175781e+00 2.578046321868896484e+00 4.948652744293212891e+00
2.193000000000000000e+03 3.774199295043945312e+01 -1.089266395568847656e+01 1.535093069076538086e+00 3.400855541229248047e+00 1.480784535408020020e+00 3.059097290039062500e+00
2.194000000000000000e+03 4.012952804565429688e+01 -9.890117645263671875e+00 1.480505824089050293e+00 8.606946945190429688e+00 3.026235818862915039e+00 4.703836917877197266e+00
2.195000000000000000e+03 3.719960403442382812e+01 -2.861465215682983398e+00 2.087171554565429688e+00 2.161243438720703125e+00 1.274524450302124023e+00 -2.406554937362670898e+00
2.196000000000000000e+03 3.729383468627929688e+01 -3.357555627822875977e+00 2.126224994659423828e+00 1.808324098587036133e+00 1.180364727973937988e+00 -2.272763967514038086e+00
2.197000000000000000e+03 3.739693069458007812e+01 -1.128446292877197266e+01 1.394597411155700684e+00 3.144545078277587891e+00 1.361742734909057617e+00 2.840276002883911133e+00
2.198000000000000000e+03 3.712478637695312500e+01 -2.374066829681396484e+00 2.004135847091674805e+00 2.443441390991210938e+00 1.334273219108581543e+00 -2.488725423812866211e+00
2.199000000000000000e+03 3.660670852661132812e+01 -1.776163578033447266e+00 1.823321104049682617e+00 2.380433559417724609e+00 1.261126399040222168e+00 -2.294070482254028320e+00
2.200000000000000000e+03 2.560783004760742188e+01 -1.474373936653137207e-01 1.768440753221511841e-01 9.601160883903503418e-02 8.185670524835586548e-02 2.402704954147338867e-01
2.201000000000000000e+03 2.657430458068847656e+01 -3.366602659225463867e-01 2.333240807056427002e-01 1.680722087621688843e-01 1.204188838601112366e-01 1.874224692583084106e-01
2.202000000000000000e+03 3.600367355346679688e+01 -1.116386532783508301e+00 1.638566613197326660e+00 2.257431507110595703e+00 1.168799400329589844e+00 -2.046161890029907227e+00
2.203000000000000000e+03 3.539027404785156250e+01 -1.044214963912963867e+00 1.533364295959472656e+00 1.882558107376098633e+00 1.024776697158813477e+00 -1.743797063827514648e+00
2.204000000000000000e+03 3.775351333618164062e+01 -1.166599941253662109e+01 1.319816708564758301e+00 3.792408704757690430e+00 1.533667683601379395e+00 3.033083677291870117e+00
2.205000000000000000e+03 3.683110809326171875e+01 -1.148327064514160156e+01 1.313973546028137207e+00 2.668593406677246094e+00 1.194770097732543945e+00 2.535205602645874023e+00
2.206000000000000000e+03 2.879094505310058594e+01 -9.465810060501098633e-01 3.608493804931640625e-01 2.981236875057220459e-01 1.976919174194335938e-01 3.083930164575576782e-02
2.207000000000000000e+03 2.726765632629394531e+01 -2.638236284255981445e-01 2.950805425643920898e-01 2.352588623762130737e-01 1.591018140316009521e-01 1.271575540304183960e-01
2.208000000000000000e+03 2.566084480285644531e+01 3.260567426681518555e+00 2.892578244209289551e-01 3.633985519409179688e-01 1.957969218492507935e-01 -2.530480735003948212e-02
2.209000000000000000e+03 2.795719718933105469e+01 2.850732207298278809e-01 4.169757962226867676e-01 3.570391535758972168e-01 2.322044819593429565e-01 -9.317251970060169697e-04
2.210000000000000000e+03 3.101723480224609375e+01 -9.297555685043334961e-01 6.647332906723022461e-01 5.390637516975402832e-01 3.611391186714172363e-01 -3.154052495956420898e-01
2.211000000000000000e+03 3.096426773071289062e+01 -1.686568856239318848e-01 7.581576108932495117e-01 6.880926489830017090e-01 4.338750541210174561e-01 -4.259642064571380615e-01
2.212000000000000000e+03 2.759288978576660156e+01 2.524026393890380859e+00 4.765381515026092529e-01 5.981954336166381836e-01 3.224200606346130371e-01 -1.863638162612915039e-01
2.213000000000000000e+03 2.944302749633789062e+01 -1.369566822052001953e+01 2.260334789752960205e-01 5.836781263351440430e-01 2.429134845733642578e-01 2.869107127189636230e-01
2.214000000000000000e+03 3.177186775207519531e+01 -1.374047470092773438e+01 5.443887710571289062e-01 1.006314158439636230e+00 4.652108550071716309e-01 7.862523198127746582e-01
2.215000000000000000e+03 3.405307769775390625e+01 -9.664713740348815918e-01 1.255448698997497559e+00 1.260715842247009277e+00 7.548493742942810059e-01 -1.178472518920898438e+00
2.216000000000000000e+03 2.797490501403808594e+01 -1.312220287322998047e+01 -6.388197094202041626e-02 3.667047917842864990e-01 9.084685146808624268e-02 -2.061461471021175385e-02
2.217000000000000000e+03 3.002592277526855469e+01 -1.454055500030517578e+01 3.906113803386688232e-01 8.377053141593933105e-01 3.684950172901153564e-01 5.003340840339660645e-01
2.218000000000000000e+03 3.343760681152343750e+01 -1.359239768981933594e+01 7.547476291656494141e-01 1.463005781173706055e+00 6.653259992599487305e-01 1.259808778762817383e+00
2.219000000000000000e+03 2.691452217102050781e+01 -1.463351821899414062e+01 5.866006761789321899e-02 5.046367049217224121e-01 1.689890325069427490e-01 2.402418060228228569e-03
2.220000000000000000e+03 3.495031356811523438e+01 -1.318750190734863281e+01 9.523517489433288574e-01 2.043096780776977539e+00 8.986345529556274414e-01 1.794087409973144531e+00
2.221000000000000000e+03 3.332147598266601562e+01 -9.778051972389221191e-01 1.090335369110107422e+00 1.012012362480163574e+00 6.307042837142944336e-01 -9.060959219932556152e-01
2.222000000000000000e+03 3.173848915100097656e+01 -1.875611692667007446e-01 8.804427385330200195e-01 8.368565440177917480e-01 5.151897668838500977e-01 -6.089065074920654297e-01
2.223000000000000000e+03 2.285357284545898438e+01 -3.611990809440612793e-01 3.511699661612510681e-02 -1.501296162605285645e-01 -3.450378403067588806e-02 3.283657729625701904e-01
2.224000000000000000e+03 2.788937568664550781e+01 -1.493057727813720703e+01 2.004150003194808960e-01 6.325995922088623047e-01 2.499043792486190796e-01 1.695259660482406616e-01
2.225000000000000000e+03 2.878227043151855469e+01 -1.383091068267822266e+01 1.528424918651580811e-01 5.613320469856262207e-01 2.142523676156997681e-01 1.833260059356689453e-01
2.226000000000000000e+03 2.602875900268554688e+01 -1.413024902343750000e+01 -9.405971318483352661e-02 3.920135796070098877e-01 8.938615769147872925e-02 -1.521950811147689819e-01
2.227000000000000000e+03 2.342265510559082031e+01 -1.314203262329101562e+01 -4.033751487731933594e-01 2.021547853946685791e-01 -6.036610901355743408e-02 -4.155103266239166260e-01
2.228000000000000000e+03 2.273596572875976562e+01 -1.292721843719482422e+01 -4.539968073368072510e-01 1.708154827356338501e-01 -8.495439589023590088e-02 -4.541114568710327148e-01
2.229000000000000000e+03 2.306889343261718750e+01 -1.389607143402099609e+01 -3.556421697139739990e-01 2.239522039890289307e-01 -3.950698673725128174e-02 -3.907514512538909912e-01
2.230000000000000000e+03 3.326162338256835938e+01 -2.525993883609771729e-01 1.136196494102478027e+00 1.242420434951782227e+00 7.135850787162780762e-01 -1.025291442871093750e+00
2.231000000000000000e+03 2.472170639038085938e+01 -1.454894065856933594e+01 -1.578907668590545654e-01 3.457506299018859863e-01 5.635795369744300842e-02 -2.374175935983657837e-01
2.232000000000000000e+03 7.606107711791992188e+00 5.726197242736816406e+00 8.030040044104680419e-05 -4.328513750806450844e-04 -1.057652916642837226e-04 6.577667663805186749e-04
2.233000000000000000e+03 9.035223960876464844e+00 6.766783237457275391e+00 9.143338684225454926e-05 1.308517996221780777e-03 4.199854156468063593e-04 1.669911143835633993e-04
2.234000000000000000e+03 2.260300636291503906e+01 -1.469049930572509766e+01 -2.977180778980255127e-01 2.426688820123672485e-01 -1.651475578546524048e-02 -3.505515456199645996e-01
2.235000000000000000e+03 3.561343002319335938e+01 -1.298614788055419922e+01 1.030400276184082031e+00 2.378333806991577148e+00 1.022620201110839844e+00 2.042026996612548828e+00
2.236000000000000000e+03 3.620071792602539062e+01 -1.220498847961425781e+01 1.153406262397766113e+00 2.450715780258178711e+00 1.081236600875854492e+00 2.246404409408569336e+00
2.237000000000000000e+03 2.216630554199218750e+01 -1.567297077178955078e+01 -2.380942553281784058e-01 2.672348916530609131e-01 8.742190897464752197e-03 -2.992129325866699219e-01
2.238000000000000000e+03 2.800642967224121094e+01 -3.074133098125457764e-01 3.677720427513122559e-01 3.049516975879669189e-01 2.018171250820159912e-01 5.128822475671768188e-02
2.239000000000000000e+03 2.239428901672363281e+01 -1.350192928314208984e+01 -4.204387962818145752e-01 1.789109855890274048e-01 -7.245834171772003174e-02 -4.383143484592437744e-01
2.240000000000000000e+03 7.142510223388671875e+01 -2.103241682052612305e+00 2.669568359851837158e-01 7.142642021179199219e+00 2.222879648208618164e+00 3.038924038410186768e-01
2.241000000000000000e+03 7.030452728271484375e+01 -4.584764957427978516e+00 3.673114478588104248e-01 7.163617134094238281e+00 2.259278535842895508e+00 1.788214296102523804e-01
2.242000000000000000e+03 6.540184974670410156e+00 7.762101173400878906e+00 1.091898302547633648e-03 -1.475542900152504444e-03 -1.150933894678018987e-04 5.062115960754454136e-04
2.243000000000000000e+03 7.154071807861328125e+01 -4.597635746002197266e+00 2.884561121463775635e-01 7.088172912597656250e+00 2.212988615036010742e+00 1.576814800500869751e-01
2.244000000000000000e+03 7.139686584472656250e+01 5.263859272003173828e+00 1.225096881389617920e-01 7.426779747009277344e+00 2.264786958694458008e+00 6.109338998794555664e-01
2.245000000000000000e+03 2.409204673767089844e+01 2.068386316299438477e+00 1.797374337911605835e-01 5.481145158410072327e-02 7.036466896533966064e-02 1.679889559745788574e-01
2.246000000000000000e+03 2.431070137023925781e+01 7.893608212471008301e-01 1.566911041736602783e-01 2.502111718058586121e-02 5.451366677880287170e-02 2.417392283678054810e-01
2.247000000000000000e+03 2.416667938232421875e+01 9.947091102600097656e+00 4.674988612532615662e-02 6.797483563423156738e-01 2.179494798183441162e-01 -3.293097019195556641e-01
2.248000000000000000e+03 2.774935913085937500e+01 8.064806461334228516e-01 4.308297634124755859e-01 4.017577767372131348e-01 2.497762739658355713e-01 -3.047628514468669891e-02
2.249000000000000000e+03 6.919439697265625000e+01 -3.438790321350097656e+00 4.317507147789001465e-01 7.242014408111572266e+00 2.302129507064819336e+00 2.766152322292327881e-01
2.250000000000000000e+03 7.070307159423828125e+01 -2.421095275878906250e+01 -4.274211451411247253e-02 7.576480388641357422e+00 2.260121583938598633e+00 -5.517838597297668457e-01
2.251000000000000000e+03 6.957283782958984375e+01 -2.903870391845703125e+01 -1.670167893171310425e-01 7.745384693145751953e+00 2.273510217666625977e+00 -4.984941184520721436e-01
2.252000000000000000e+03 7.111200714111328125e+01 -1.988915443420410156e+01 6.280416250228881836e-02 7.409796237945556641e+00 2.241780042648315430e+00 -5.361638665199279785e-01
2.253000000000000000e+03 7.013623809814453125e+01 -4.579443484544754028e-03 2.973892390727996826e-01 7.275299072265625000e+00 2.271806478500366211e+00 4.572617709636688232e-01
2.254000000000000000e+03 7.006585693359375000e+01 5.357517242431640625e+00 1.546290069818496704e-01 7.484973430633544922e+00 2.291880846023559570e+00 6.724327802658081055e-01
2.255000000000000000e+03 6.939342498779296875e+01 1.761204147338867188e+01 -1.412823945283889771e-01 7.966328620910644531e+00 2.347513914108276367e+00 6.664438843727111816e-01
2.256000000000000000e+03 7.110190582275390625e+01 1.598640155792236328e+01 -8.666019886732101440e-02 7.930277347564697266e+00 2.353085279464721680e+00 6.410617232322692871e-01
2.257000000000000000e+03 6.956015014648437500e+01 9.971968650817871094e+00 1.446748897433280945e-02 7.703493118286132812e+00 2.315388202667236328e+00 7.514868378639221191e-01
2.258000000000000000e+03 7.027985382080078125e+01 7.816922187805175781e+00 7.181657850742340088e-02 7.590761184692382812e+00 2.298773288726806641e+00 7.092704772949218750e-01
2.259000000000000000e+03 7.368834972381591797e+00 2.287269592285156250e+01 -1.038607135415077209e-01 -1.442034691572189331e-01 -7.441925257444381714e-02 2.860640883445739746e-01
2.260000000000000000e+03 9.163604736328125000e+00 2.497279357910156250e+01 1.142911706119775772e-02 -1.577152013778686523e-01 -4.388582706451416016e-02 2.650244534015655518e-01
2.261000000000000000e+03 7.158650970458984375e+01 -1.276406002044677734e+01 2.230214923620223999e-01 7.143966197967529297e+00 2.210096359252929688e+00 -3.123812079429626465e-01
2.262000000000000000e+03 7.171951293945312500e+01 -2.306172752380371094e+01 -1.530511584132909775e-02 7.508101463317871094e+00 2.247838973999023438e+00 -5.242093801498413086e-01
2.263000000000000000e+03 7.106107330322265625e+01 -8.859067559242248535e-01 2.721500098705291748e-01 7.202823638916015625e+00 2.242491960525512695e+00 3.854770958423614502e-01
2.264000000000000000e+03 1.004236698150634766e+01 -2.416111946105957031e+01 5.178739503026008606e-02 -4.861688315868377686e-01 -1.303144395351409912e-01 -4.360104501247406006e-01
2.265000000000000000e+03 7.146477508544921875e+01 6.571999549865722656e+00 9.152481704950332642e-02 7.484953403472900391e+00 2.272943496704101562e+00 6.349629163742065430e-01
2.266000000000000000e+03 1.003018760681152344e+01 2.634457969665527344e+01 7.609526813030242920e-02 -1.180229261517524719e-01 -1.257829647511243820e-02 2.269420027732849121e-01
2.267000000000000000e+03 1.447177124023437500e+01 3.126510810852050781e+01 1.794958710670471191e-01 3.768413066864013672e-01 1.669011563062667847e-01 1.998070068657398224e-02
2.268000000000000000e+03 9.535664558410644531e+00 3.068104171752929688e+01 1.227066814899444580e-01 -3.939853236079216003e-02 2.499244362115859985e-02 1.604260653257369995e-01
2.269000000000000000e+03 7.112737274169921875e+01 2.062745666503906250e+01 -1.167854964733123779e-01 8.103264808654785156e+00 2.395943641662597656e+00 5.426374673843383789e-01
2.270000000000000000e+03 2.345183181762695312e+01 1.724736595153808594e+01 -8.164947479963302612e-02 1.123142838478088379e+00 3.124479949474334717e-01 -4.715860784053802490e-01
2.271000000000000000e+03 7.080483245849609375e+01 -3.111914062500000000e+01 -1.488360762596130371e-01 7.774072170257568359e+00 2.287570953369140625e+00 -4.045967459678649902e-01
2.272000000000000000e+03 2.082099723815917969e+01 1.905884361267089844e+01 -9.891661256551742554e-02 6.869581937789916992e-01 1.764124780893325806e-01 -3.071004748344421387e-01
2.273000000000000000e+03 6.913772583007812500e+01 2.543537902832031250e+01 -1.886358559131622314e-01 8.131184577941894531e+00 2.382764577865600586e+00 4.568592905998229980e-01
2.274000000000000000e+03 7.008231353759765625e+01 2.279341697692871094e+01 -1.502041965723037720e-01 8.121008872985839844e+00 2.391241312026977539e+00 5.157090425491333008e-01
2.275000000000000000e+03 1.339942264556884766e+01 -2.304397773742675781e+01 3.745558857917785645e-02 -3.880099356174468994e-01 -1.051663085818290710e-01 -3.163596987724304199e-01
2.276000000000000000e+03 2.571410942077636719e+01 -1.764925956726074219e+01 2.121030390262603760e-01 7.697124481201171875e-01 2.945446372032165527e-01 1.533669233322143555e-01
2.277000000000000000e+03 8.376649856567382812e+00 -2.219742584228515625e+01 -1.487539708614349365e-01 -4.708662629127502441e-01 -1.858860701322555542e-01 -5.457541942596435547e-01
2.278000000000000000e+03 7.123403930664062500e+01 -2.781591033935546875e+01 -1.035644114017486572e-01 7.681116104125976562e+00 2.273265361785888672e+00 -4.823129475116729736e-01
2.279000000000000000e+03 7.016457366943359375e+01 -2.579969596862792969e+01 -8.994901925325393677e-02 7.649566173553466797e+00 2.267885208129882812e+00 -5.508601069450378418e-01
2.280000000000000000e+03 7.113934326171875000e+01 -8.683555603027343750e+00 3.145837187767028809e-01 7.103242874145507812e+00 2.225347995758056641e+00 -9.577924013137817383e-02
2.281000000000000000e+03 1.473909568786621094e+01 2.608146476745605469e+01 1.176162660121917725e-01 1.578526496887207031e-01 8.264067769050598145e-02 2.585473470389842987e-02
2.282000000000000000e+03 1.840374374389648438e+01 -2.546701812744140625e+01 2.130425125360488892e-01 2.729076743125915527e-01 1.457850486040115356e-01 -1.583697274327278137e-02
2.283000000000000000e+03 2.431186676025390625e+01 1.403352069854736328e+01 -3.641139343380928040e-02 1.078365683555603027e+00 3.125862777233123779e-01 -4.739034473896026611e-01
2.284000000000000000e+03 1.682349395751953125e+01 2.025592803955078125e+01 -1.452650427818298340e-01 7.319229841232299805e-02 -2.162182331085205078e-02 -5.997672677040100098e-02
2.285000000000000000e+03 6.827871704101562500e+01 2.367957687377929688e+01 -2.076459079980850220e-01 8.068064689636230469e+00 2.358125686645507812e+00 5.264891982078552246e-01
2.286000000000000000e+03 7.161548614501953125e+01 2.195706367492675781e+01 -1.083576753735542297e-01 8.174717903137207031e+00 2.419908285140991211e+00 4.942443072795867920e-01
2.287000000000000000e+03 3.918603515625000000e+01 -3.414598464965820312e+00 2.736271381378173828e+00 5.305538177490234375e+00 2.412542819976806641e+00 -4.371081829071044922e+00
2.288000000000000000e+03 3.951768875122070312e+01 -3.434714555740356445e+00 2.624277830123901367e+00 6.367396354675292969e+00 2.697502136230468750e+00 -4.656757831573486328e+00
2.289000000000000000e+03 4.057839584350585938e+01 -3.712742805480957031e+00 1.971147418022155762e+00 1.098901557922363281e+01 3.888048887252807617e+00 -4.986607551574707031e+00
2.290000000000000000e+03 3.884285354614257812e+01 -1.014545631408691406e+01 1.858244180679321289e+00 4.729091167449951172e+00 1.976200580596923828e+00 3.923543214797973633e+00
2.291000000000000000e+03 3.894513702392578125e+01 -9.413285255432128906e+00 2.313099384307861328e+00 4.241572856903076172e+00 1.966401576995849609e+00 4.045249462127685547e+00
2.292000000000000000e+03 3.922364807128906250e+01 -9.765581130981445312e+00 2.059174537658691406e+00 5.432451725006103516e+00 2.247487783432006836e+00 4.344794273376464844e+00
2.293000000000000000e+03 4.195227050781250000e+01 -3.511013031005859375e+00 1.192702651023864746e+00 1.471188449859619141e+01 4.771376132965087891e+00 -1.917566299438476562e+00
2.294000000000000000e+03 4.088040542602539062e+01 -9.885567665100097656e+00 8.453240990638732910e-01 1.138390541076660156e+01 3.668768882751464844e+00 4.095980644226074219e+00
2.295000000000000000e+03 4.459037017822265625e+01 -7.416489124298095703e+00 6.703165054321289062e+00 1.224314022064208984e+01 5.683891773223876953e+00 -1.275544404983520508e+00
2.296000000000000000e+03 4.436449432373046875e+01 -6.010437965393066406e+00 7.549127101898193359e+00 1.236531162261962891e+01 5.974331855773925781e+00 7.219619750976562500e-01
2.297000000000000000e+03 4.452159881591796875e+01 -4.936308860778808594e+00 5.763936042785644531e+00 1.260699462890625000e+01 5.511279106140136719e+00 1.642140030860900879e+00
2.298000000000000000e+03 4.333670043945312500e+01 -8.680830955505371094e+00 3.723629713058471680e+00 1.517199802398681641e+01 5.668688297271728516e+00 -1.660501956939697266e+00
2.299000000000000000e+03 3.846806716918945312e+01 -1.061903572082519531e+01 1.677278399467468262e+00 4.314493179321289062e+00 1.797531366348266602e+00 3.588104009628295898e+00
2.300000000000000000e+03 3.814015197753906250e+01 -1.116575050354003906e+01 1.465729951858520508e+00 4.081803321838378906e+00 1.664260029792785645e+00 3.304931640625000000e+00
2.301000000000000000e+03 4.282253265380859375e+01 -9.160881996154785156e+00 2.040687799453735352e+00 1.545791912078857422e+01 5.249581813812255859e+00 -4.317074716091156006e-01
2.302000000000000000e+03 4.235793304443359375e+01 -9.319285392761230469e+00 1.231620311737060547e+00 1.561782646179199219e+01 5.054833889007568359e+00 6.986377835273742676e-01
2.303000000000000000e+03 4.246606063842773438e+01 -3.714513778686523438e+00 1.695428609848022461e+00 1.543281173706054688e+01 5.138472080230712891e+00 -6.301664113998413086e-01
2.304000000000000000e+03 4.438615036010742188e+01 -7.988815784454345703e+00 5.794847488403320312e+00 1.282444763183593750e+01 5.585788726806640625e+00 -1.751027822494506836e+00
2.305000000000000000e+03 4.278956985473632812e+01 -4.233637332916259766e+00 2.944894313812255859e+00 1.605302238464355469e+01 5.699375152587890625e+00 6.818615198135375977e-01
2.306000000000000000e+03 4.319928359985351562e+01 -4.019816875457763672e+00 3.003192663192749023e+00 1.510064601898193359e+01 5.431151866912841797e+00 9.947505593299865723e-01
2.307000000000000000e+03 4.293361663818359375e+01 -3.905506134033203125e+00 2.532789707183837891e+00 1.531627082824707031e+01 5.354718208312988281e+00 5.421015024185180664e-01
2.308000000000000000e+03 4.339712905883789062e+01 -9.092900276184082031e+00 2.768338680267333984e+00 1.467297554016113281e+01 5.232394218444824219e+00 -1.208386063575744629e+00
2.309000000000000000e+03 3.884984970092773438e+01 -3.127027034759521484e+00 2.571909427642822266e+00 4.623803138732910156e+00 2.158713817596435547e+00 -3.965510368347167969e+00
2.310000000000000000e+03 3.915696334838867188e+01 -2.826400518417358398e+00 2.258999586105346680e+00 5.856943130493164062e+00 2.434782743453979492e+00 -4.158128738403320312e+00
2.311000000000000000e+03 3.768362045288085938e+01 -2.846441268920898438e+00 2.238395929336547852e+00 2.743804693222045898e+00 1.494660139083862305e+00 -2.833174943923950195e+00
2.312000000000000000e+03 3.709936904907226562e+01 -1.900885343551635742e+00 1.940492391586303711e+00 2.793584108352661133e+00 1.420222997665405273e+00 -2.593048095703125000e+00
2.313000000000000000e+03 3.686111068725585938e+01 -1.211838150024414062e+01 1.214466214179992676e+00 3.067487001419067383e+00 1.284585952758789062e+00 2.597205877304077148e+00
2.314000000000000000e+03 3.744673156738281250e+01 -1.217832756042480469e+01 1.215539932250976562e+00 3.653745174407958984e+00 1.460785508155822754e+00 2.883388280868530273e+00
2.315000000000000000e+03 3.658053588867187500e+01 -1.185264825820922852e+00 1.735391855239868164e+00 2.729852676391601562e+00 1.339573383331298828e+00 -2.369967222213745117e+00
2.316000000000000000e+03 2.944556808471679688e+01 -2.238073647022247314e-01 5.376689434051513672e-01 4.602338671684265137e-01 2.993708550930023193e-01 -1.408131420612335205e-01
2.317000000000000000e+03 2.860448646545410156e+01 3.946499526500701904e-01 4.942696690559387207e-01 4.479935467243194580e-01 2.826789617538452148e-01 -9.210542589426040649e-02
2.318000000000000000e+03 3.089940071105957031e+01 6.332501769065856934e-01 8.126128315925598145e-01 8.613991737365722656e-01 5.022035837173461914e-01 -5.353736281394958496e-01
2.319000000000000000e+03 3.624110412597656250e+01 -1.282504940032958984e+01 1.083273410797119141e+00 2.816074609756469727e+00 1.169804453849792480e+00 2.326949119567871094e+00
2.320000000000000000e+03 2.932043647766113281e+01 5.115437507629394531e-01 5.931929349899291992e-01 5.591515302658081055e-01 3.457033336162567139e-01 -2.162074893712997437e-01
2.321000000000000000e+03 3.250362396240234375e+01 -2.230433672666549683e-01 1.002299666404724121e+00 1.008347868919372559e+00 6.031942963600158691e-01 -7.984902262687683105e-01
2.322000000000000000e+03 3.247891616821289062e+01 5.424961447715759277e-01 1.019658923149108887e+00 1.219006419181823730e+00 6.715996265411376953e-01 -9.126278162002563477e-01
2.323000000000000000e+03 3.173596191406250000e+01 -1.457198619842529297e+01 5.865922570228576660e-01 1.193279147148132324e+00 5.339614152908325195e-01 8.792573809623718262e-01
2.324000000000000000e+03 2.922709846496582031e+01 -1.436564636230468750e+01 2.760234177112579346e-01 6.838165521621704102e-01 2.879520058631896973e-01 3.255752325057983398e-01
2.325000000000000000e+03 3.261341857910156250e+01 -1.370604896545410156e+01 6.631456613540649414e-01 1.234625339508056641e+00 5.693312883377075195e-01 1.025848746299743652e+00
2.326000000000000000e+03 3.086466026306152344e+01 -1.457497978210449219e+01 4.938955903053283691e-01 9.844672083854675293e-01 4.435088336467742920e-01 6.800836324691772461e-01
2.327000000000000000e+03 2.802048683166503906e+01 -1.396814727783203125e+01 9.433982521295547485e-02 5.041586160659790039e-01 1.795495301485061646e-01 8.536776155233383179e-02
2.328000000000000000e+03 2.888450813293457031e+01 -1.521184349060058594e+01 3.401688337326049805e-01 7.998743057250976562e-01 3.420129418373107910e-01 3.556129336357116699e-01
2.329000000000000000e+03 2.413754081726074219e+01 -1.610636711120605469e+01 -4.405907541513442993e-02 4.366624951362609863e-01 1.177810281515121460e-01 -1.463045775890350342e-01
2.330000000000000000e+03 3.357076644897460938e+01 -1.450083446502685547e+01 7.875411510467529297e-01 1.859124064445495605e+00 7.939995527267456055e-01 1.413198709487915039e+00
2.331000000000000000e+03 3.473006057739257812e+01 -1.500367450714111328e+01 8.285862207412719727e-01 2.564902544021606445e+00 1.018046617507934570e+00 1.828443884849548340e+00
2.332000000000000000e+03 3.537526702880859375e+01 -4.022092223167419434e-01 1.469627857208251953e+00 2.180084228515625000e+00 1.094913721084594727e+00 -1.831383705139160156e+00
2.333000000000000000e+03 3.474113464355468750e+01 -9.879491925239562988e-01 1.403494715690612793e+00 1.552637100219726562e+00 8.868395090103149414e-01 -1.455858588218688965e+00
2.334000000000000000e+03 3.400168228149414062e+01 -2.682080864906311035e-01 1.261555433273315430e+00 1.516121387481689453e+00 8.333030343055725098e-01 -1.296085000038146973e+00
2.335000000000000000e+03 2.311914443969726562e+01 -1.722509193420410156e+01 -4.656102135777473450e-02 4.308282136917114258e-01 1.152801588177680969e-01 -1.286603659391403198e-01
2.336000000000000000e+03 3.684625625610351562e+01 -1.273520565032958984e+01 1.096292495727539062e+00 3.350078344345092773e+00 1.333911299705505371e+00 2.583948612213134766e+00
2.337000000000000000e+03 2.593590354919433594e+01 5.698092937469482422e+00 2.745297253131866455e-01 6.528474092483520508e-01 2.782131433486938477e-01 -2.520250380039215088e-01
2.338000000000000000e+03 2.348999786376953125e+01 -1.504522609710693359e+01 -1.998880654573440552e-01 3.111926913261413574e-01 3.339138627052307129e-02 -2.802753448486328125e-01
2.339000000000000000e+03 2.652326393127441406e+01 -1.560364055633544922e+01 1.278199702501296997e-01 5.922188162803649902e-01 2.160116434097290039e-01 5.118199437856674194e-02
2.340000000000000000e+03 2.556974601745605469e+01 -1.507410526275634766e+01 -2.648374065756797791e-02 4.639891088008880615e-01 1.312516033649444580e-01 -1.096704974770545959e-01
2.341000000000000000e+03 2.733609580993652344e+01 3.738969862461090088e-01 3.556380569934844971e-01 3.001107573509216309e-01 1.967246383428573608e-01 6.852979212999343872e-02
2.342000000000000000e+03 6.926073455810546875e+01 -2.454402685165405273e+00 4.113140106201171875e-01 7.260016918182373047e+00 2.301399230957031250e+00 3.409194946289062500e-01
2.343000000000000000e+03 6.892780303955078125e+01 -5.660767078399658203e+00 4.741726815700531006e-01 7.225584030151367188e+00 2.309926986694335938e+00 1.188733428716659546e-01
2.344000000000000000e+03 7.150778198242187500e+01 -1.406486797332763672e+01 1.961255818605422974e-01 7.184238433837890625e+00 2.214109182357788086e+00 -3.699622154235839844e-01
2.345000000000000000e+03 6.719020843505859375e+01 4.174689769744873047e+00 2.827426195144653320e-01 7.557373046875000000e+00 2.352034807205200195e+00 7.514447569847106934e-01
2.346000000000000000e+03 6.925657653808593750e+01 1.553082942962646484e+00 3.127962946891784668e-01 7.376480102539062500e+00 2.306782960891723633e+00 5.706250667572021484e-01
2.347000000000000000e+03 9.198034286499023438e+00 2.273384284973144531e+01 -1.100651919841766357e-01 -1.799598634243011475e-01 -8.700751513242721558e-02 2.987979352474212646e-01
2.348000000000000000e+03 2.552558326721191406e+01 8.819157481193542480e-01 2.430773377418518066e-01 1.538443416357040405e-01 1.190765053033828735e-01 1.723057031631469727e-01
2.349000000000000000e+03 2.549125671386718750e+01 2.050504684448242188e+00 2.779800295829772949e-01 2.308974564075469971e-01 1.526632457971572876e-01 8.730515837669372559e-02
2.350000000000000000e+03 2.603764915466308594e+01 -5.906440019607543945e-01 1.693990081548690796e-01 1.103339642286300659e-01 8.391989022493362427e-02 2.408038973808288574e-01
2.351000000000000000e+03 6.972036743164062500e+01 -1.823079872131347656e+01 1.352193653583526611e-01 7.417666435241699219e+00 2.265865802764892578e+00 -5.583574771881103516e-01
2.352000000000000000e+03 6.960144042968750000e+01 -1.987204551696777344e+01 7.856047153472900391e-02 7.477974414825439453e+00 2.266960382461547852e+00 -5.880458354949951172e-01
2.353000000000000000e+03 6.829341125488281250e+01 1.205112838745117188e+01 -3.961680456995964050e-02 7.789621353149414062e+00 2.325001239776611328e+00 7.882292270660400391e-01
2.354000000000000000e+03 7.015525817871093750e+01 8.983809471130371094e+00 3.768142312765121460e-02 7.646468162536621094e+00 2.305244922637939453e+00 7.183697819709777832e-01
2.355000000000000000e+03 2.554128837585449219e+01 8.064248085021972656e+00 1.712625771760940552e-01 8.162322640419006348e-01 2.962484657764434814e-01 -3.665380179882049561e-01
2.356000000000000000e+03 2.557654190063476562e+01 1.135052871704101562e+01 4.754944145679473877e-02 1.157367825508117676e+00 3.614751994609832764e-01 -5.068348646163940430e-01
2.357000000000000000e+03 2.321403121948242188e+01 -1.881749534606933594e+01 8.314795047044754028e-02 5.749253034591674805e-01 1.974219828844070435e-01 4.677241202443838120e-03
2.358000000000000000e+03 2.621029853820800781e+01 -1.667892837524414062e+01 1.818163692951202393e-01 6.913039088249206543e-01 2.619360685348510742e-01 1.204074919223785400e-01
2.359000000000000000e+03 2.838248825073242188e+01 1.074068546295166016e+00 5.190408825874328613e-01 5.126061439514160156e-01 3.094941079616546631e-01 -1.427160352468490601e-01
2.360000000000000000e+03 2.712161827087402344e+01 4.763211250305175781e+00 4.096492826938629150e-01 7.880783677101135254e-01 3.593182861804962158e-01 -3.209820091724395752e-01
2.361000000000000000e+03 2.662700843811035156e+01 8.362973213195800781e+00 2.140660732984542847e-01 1.105358123779296875e+00 3.958272635936737061e-01 -4.869759976863861084e-01
2.362000000000000000e+03 2.397757530212402344e+01 1.895696258544921875e+01 -7.426959276199340820e-02 1.347130179405212402e+00 3.818581700325012207e-01 -5.016681551933288574e-01
2.363000000000000000e+03 6.870005035400390625e+01 -2.535763359069824219e+01 -1.010110303759574890e-01 7.677535533905029297e+00 2.272957324981689453e+00 -5.923433899879455566e-01
2.364000000000000000e+03 6.919481658935546875e+01 -2.356289672851562500e+01 -4.383462294936180115e-02 7.612178802490234375e+00 2.270503282546997070e+00 -6.035059094429016113e-01
2.365000000000000000e+03 7.030975341796875000e+01 -2.359085083007812500e+00 3.405131697654724121e-01 7.209707260131835938e+00 2.265066146850585938e+00 3.210554122924804688e-01
2.366000000000000000e+03 6.951844787597656250e+01 -2.168912696838378906e+01 1.834149844944477081e-02 7.542212486267089844e+00 2.268166303634643555e+00 -5.994850993156433105e-01
2.367000000000000000e+03 7.035588073730468750e+01 -3.429944038391113281e+00 3.499543964862823486e-01 7.180678844451904297e+00 2.259190082550048828e+00 2.499136924743652344e-01
2.368000000000000000e+03 6.763977813720703125e+01 1.961941909790039062e+01 -2.057433426380157471e-01 7.972538948059082031e+00 2.330038785934448242e+00 6.520807743072509766e-01
2.369000000000000000e+03 6.783643341064453125e+01 1.760903167724609375e+01 -1.796658784151077271e-01 7.936161041259765625e+00 2.326948642730712891e+00 7.064521908760070801e-01
2.370000000000000000e+03 6.962269592285156250e+01 2.815212011337280273e+00 2.495075613260269165e-01 7.404181003570556641e+00 2.296106576919555664e+00 6.100230813026428223e-01
2.371000000000000000e+03 6.819347381591796875e+01 1.385677528381347656e+01 -9.061090648174285889e-02 7.849181175231933594e+00 2.327571153640747070e+00 7.732359766960144043e-01
2.372000000000000000e+03 6.905641174316406250e+01 6.721687793731689453e+00 1.284035891294479370e-01 7.585141658782958984e+00 2.314063549041748047e+00 7.477229237556457520e-01
2.373000000000000000e+03 7.131918334960937500e+01 -7.245168685913085938e+00 3.102237582206726074e-01 7.086309432983398438e+00 2.218960046768188477e+00 -1.109251868911087513e-03
2.374000000000000000e+03 2.303548049926757812e+01 -2.072387123107910156e+01 1.680110245943069458e-01 6.799632906913757324e-01 2.543922960758209229e-01 9.932313859462738037e-02
2.375000000000000000e+03 6.817092132568359375e+01 -2.871266174316406250e+01 -1.872130185365676880e-01 7.758399486541748047e+00 2.271355867385864258e+00 -5.288739204406738281e-01
2.376000000000000000e+03 6.986817932128906250e+01 -1.670721435546875000e+01 1.827244311571121216e-01 7.361348628997802734e+00 2.263221979141235352e+00 -5.166556239128112793e-01
2.377000000000000000e+03 6.764585876464843750e+01 -1.185482120513916016e+01 4.677255153656005859e-01 7.342194080352783203e+00 2.342975854873657227e+00 -3.501450717449188232e-01
2.378000000000000000e+03 1.362707614898681641e+01 2.932189369201660156e+01 1.664338409900665283e-01 2.197807580232620239e-01 1.158643811941146851e-01 5.703831464052200317e-02
2.379000000000000000e+03 7.023542785644531250e+01 -1.391198158264160156e+01 2.504841387271881104e-01 7.250831127166748047e+00 2.250394582748413086e+00 -3.959383666515350342e-01
2.380000000000000000e+03 1.535023212432861328e+01 -2.860264015197753906e+01 2.837421596050262451e-01 8.223769813776016235e-02 1.097939610481262207e-01 -1.564490646123886108e-01
2.381000000000000000e+03 6.765868377685546875e+01 -3.013197898864746094e+01 -2.624186277389526367e-01 7.799179553985595703e+00 2.261028289794921875e+00 -4.955330193042755127e-01
2.382000000000000000e+03 1.543233394622802734e+01 2.486403846740722656e+01 1.011720225214958191e-01 1.877736300230026245e-01 8.668369054794311523e-02 -2.766582110780291259e-05
2.383000000000000000e+03 1.439473819732666016e+01 2.396624183654785156e+01 5.892226845026016235e-02 2.758023887872695923e-02 2.595075219869613647e-02 5.704727023839950562e-02
2.384000000000000000e+03 1.126183891296386719e+01 2.525890350341796875e+01 6.302063912153244019e-02 -1.174078881740570068e-01 -1.631617546081542969e-02 2.011423259973526001e-01
2.385000000000000000e+03 1.346047878265380859e+01 2.517338752746582031e+01 9.260041266679763794e-02 1.167066209018230438e-02 3.128132224082946777e-02 9.166718274354934692e-02
2.386000000000000000e+03 6.955490875244140625e+01 2.116572570800781250e+01 -1.600995808839797974e-01 8.067882537841796875e+00 2.372334718704223633e+00 5.707300901412963867e-01
2.387000000000000000e+03 6.836308288574218750e+01 -2.709334182739257812e+01 -1.576169133186340332e-01 7.727476596832275391e+00 2.270957946777343750e+00 -5.662606954574584961e-01
2.388000000000000000e+03 1.434507369995117188e+01 -2.555360794067382812e+01 2.015361487865447998e-01 -1.657796651124954224e-01 1.072694454342126846e-02 -2.317959666252136230e-01
2.389000000000000000e+03 1.678164863586425781e+01 -2.435599327087402344e+01 1.571036726236343384e-01 5.008745566010475159e-02 6.215734034776687622e-02 -1.201199889183044434e-01
2.390000000000000000e+03 6.973458099365234375e+01 -3.530386734008789062e+01 -2.300560921430587769e-01 7.850759506225585938e+00 2.286211013793945312e+00 -2.901453971862792969e-01
2.391000000000000000e+03 3.937771224975585938e+01 -3.123246908187866211e+00 2.333969116210937500e+00 6.195222854614257812e+00 2.558757543563842773e+00 -4.363741397857666016e+00
2.392000000000000000e+03 4.007584381103515625e+01 -3.009298324584960938e+00 1.864848971366882324e+00 8.638847351074218750e+00 3.151108980178833008e+00 -4.572473526000976562e+00
2.393000000000000000e+03 4.082229995727539062e+01 -3.618544816970825195e+00 1.624403715133666992e+00 1.180969333648681641e+01 4.030229091644287109e+00 -4.579540729522705078e+00
2.394000000000000000e+03 4.453478622436523438e+01 -6.947611808776855469e+00 7.377890110015869141e+00 1.211797332763671875e+01 5.848759174346923828e+00 -6.940994858741760254e-01
2.395000000000000000e+03 4.164770507812500000e+01 -1.010214233398437500e+01 4.441814720630645752e-01 1.311288070678710938e+01 4.067118644714355469e+00 2.695452213287353516e+00
2.396000000000000000e+03 3.820801544189453125e+01 -3.282852888107299805e+00 2.532815933227539062e+00 3.150865077972412109e+00 1.705104231834411621e+00 -3.260782718658447266e+00
2.397000000000000000e+03 4.219216156005859375e+01 -9.502075195312500000e+00 9.634945988655090332e-01 1.509597492218017578e+01 4.817841053009033203e+00 1.278356194496154785e+00
2.398000000000000000e+03 4.431480026245117188e+01 -7.153015613555908203e+00 7.416435718536376953e+00 1.256971740722656250e+01 5.995845794677734375e+00 -1.061166524887084961e+00
2.399000000000000000e+03 4.421356201171875000e+01 -5.427139759063720703e+00 6.773546695709228516e+00 1.287878704071044922e+01 5.895699977874755859e+00 1.468578815460205078e+00
2.400000000000000000e+03 4.271810150146484375e+01 -3.217620611190795898e+00 1.345132589340209961e+00 1.421233272552490234e+01 4.667239665985107422e+00 -5.562834739685058594e-01
2.401000000000000000e+03 4.386239624023437500e+01 -8.222943305969238281e+00 5.344065189361572266e+00 1.394767761230468750e+01 5.787522792816162109e+00 -1.972242355346679688e+00
2.402000000000000000e+03 4.400387191772460938e+01 -8.002349853515625000e+00 5.867553234100341797e+00 1.352468967437744141e+01 5.817673206329345703e+00 -1.871290206909179688e+00
2.403000000000000000e+03 3.816351318359375000e+01 -2.817584753036499023e+00 2.348812818527221680e+00 3.542436838150024414e+00 1.767374873161315918e+00 -3.313776493072509766e+00
2.404000000000000000e+03 4.302561187744140625e+01 -3.534138441085815430e+00 2.059106588363647461e+00 1.466554355621337891e+01 5.017395019531250000e+00 3.202143907546997070e-01
2.405000000000000000e+03 4.295183944702148438e+01 -9.542020797729492188e+00 1.596429824829101562e+00 1.479152202606201172e+01 4.916385650634765625e+00 -1.945767700672149658e-01
2.406000000000000000e+03 4.383895874023437500e+01 -9.045845985412597656e+00 3.283499240875244141e+00 1.392011547088623047e+01 5.161084651947021484e+00 -1.527374863624572754e+00
2.407000000000000000e+03 4.232600784301757812e+01 -9.738827705383300781e+00 8.188173770904541016e-01 1.465588092803955078e+01 4.642409324645996094e+00 1.121679067611694336e+00
2.408000000000000000e+03 3.928281402587890625e+01 -1.054889869689941406e+01 1.513491511344909668e+00 6.205679416656494141e+00 2.315751314163208008e+00 4.130731582641601562e+00
2.409000000000000000e+03 3.759353637695312500e+01 -2.375913381576538086e+00 2.127157211303710938e+00 3.060258150100708008e+00 1.556224584579467773e+00 -2.885014533996582031e+00
2.410000000000000000e+03 3.891508102416992188e+01 -1.101197242736816406e+01 1.407769680023193359e+00 5.537394046783447266e+00 2.083549022674560547e+00 3.802270412445068359e+00
2.411000000000000000e+03 3.729138183593750000e+01 -1.586863756179809570e+00 1.862500429153442383e+00 3.200933218002319336e+00 1.519030094146728516e+00 -2.738263130187988281e+00
2.412000000000000000e+03 3.655920410156250000e+01 -5.816026329994201660e-01 1.588788032531738281e+00 3.032133102416992188e+00 1.386276364326477051e+00 -2.385076761245727539e+00
2.413000000000000000e+03 3.742129898071289062e+01 -1.271685600280761719e+01 1.090227842330932617e+00 3.908972024917602539e+00 1.499759912490844727e+00 2.835432767868041992e+00
2.414000000000000000e+03 3.009330177307128906e+01 5.967920422554016113e-01 6.968191266059875488e-01 6.953322291374206543e-01 4.176453948020935059e-01 -3.589653670787811279e-01
2.415000000000000000e+03 2.886909294128417969e+01 2.074191093444824219e+00 6.048243641853332520e-01 7.340078353881835938e-01 4.016496539115905762e-01 -3.216161131858825684e-01
2.416000000000000000e+03 3.170380973815917969e+01 6.153739094734191895e-01 9.195232391357421875e-01 1.030758976936340332e+00 5.850846767425537109e-01 -7.181178927421569824e-01
2.417000000000000000e+03 2.697493934631347656e+01 3.133179664611816406e+00 4.144068658351898193e-01 5.835109353065490723e-01 2.993753552436828613e-01 -1.695577651262283325e-01
2.418000000000000000e+03 3.514242935180664062e+01 -1.391254711151123047e+01 9.399713277816772461e-01 2.412197113037109375e+00 1.005650520324707031e+00 1.920731067657470703e+00
2.419000000000000000e+03 3.632605361938476562e+01 -1.340243434906005859e+01 9.822286963462829590e-01 3.162205696105957031e+00 1.243330359458923340e+00 2.359995841979980469e+00
2.420000000000000000e+03 2.912891387939453125e+01 1.274703264236450195e+00 6.106932759284973145e-01 6.546407938003540039e-01 3.796002268791198730e-01 -2.744823098182678223e-01
2.421000000000000000e+03 3.166532516479492188e+01 -1.538083171844482422e+01 6.192812919616699219e-01 1.374137282371520996e+00 5.980255603790283203e-01 9.523983597755432129e-01
2.422000000000000000e+03 3.246226882934570312e+01 -1.553960418701171875e+01 6.914303898811340332e-01 1.681221485137939453e+00 7.117955684661865234e-01 1.180076003074645996e+00
2.423000000000000000e+03 3.265124130249023438e+01 -1.462680339813232422e+01 6.986143589019775391e-01 1.534837603569030762e+00 6.700356006622314453e-01 1.149023532867431641e+00
2.424000000000000000e+03 2.985091972351074219e+01 -1.544488716125488281e+01 4.639769196510314941e-01 9.888842701911926270e-01 4.358583688735961914e-01 5.659587979316711426e-01
2.425000000000000000e+03 3.323087692260742188e+01 1.107646822929382324e+00 1.131728053092956543e+00 1.631284236907958984e+00 8.289037346839904785e-01 -1.222911953926086426e+00
2.426000000000000000e+03 3.082641410827636719e+01 1.473599076271057129e+00 8.132524490356445312e-01 1.033027648925781250e+00 5.538840293884277344e-01 -6.216450929641723633e-01
2.427000000000000000e+03 2.827123641967773438e+01 -1.752970886230468750e+01 4.020771980285644531e-01 1.068658471107482910e+00 4.412207007408142090e-01 4.642630219459533691e-01
2.428000000000000000e+03 3.599778747558593750e+01 -5.002328157424926758e-01 1.558914184570312500e+00 2.588625907897949219e+00 1.244262099266052246e+00 -2.130179643630981445e+00
2.429000000000000000e+03 3.472432327270507812e+01 4.176128506660461426e-01 1.309167861938476562e+00 2.123268365859985352e+00 1.029730796813964844e+00 -1.652123689651489258e+00
2.430000000000000000e+03 2.427173042297363281e+01 -1.714208793640136719e+01 2.048247121274471283e-02 5.147074460983276367e-01 1.605569720268249512e-01 -6.348865479230880737e-02
2.431000000000000000e+03 2.960561752319335938e+01 3.127692699432373047e+00 6.618245840072631836e-01 1.080668210983276367e+00 5.227478146553039551e-01 -5.564583539962768555e-01
2.432000000000000000e+03 3.171253967285156250e+01 1.478340625762939453e+00 9.296127557754516602e-01 1.269388437271118164e+00 6.597003340721130371e-01 -8.455190062522888184e-01
2.433000000000000000e+03 3.576397323608398438e+01 -1.362704944610595703e+01 9.712824225425720215e-01 2.756159305572509766e+00 1.118232488632202148e+00 2.127510547637939453e+00
2.434000000000000000e+03 2.757141113281250000e+01 -1.598055648803710938e+01 2.741820812225341797e-01 7.567068338394165039e-01 3.092666566371917725e-01 2.378204911947250366e-01
2.435000000000000000e+03 3.322980880737304688e+01 4.635086059570312500e-01 1.119506716728210449e+00 1.455022573471069336e+00 7.723587751388549805e-01 -1.123962402343750000e+00
2.436000000000000000e+03 2.731901550292968750e+01 1.352974414825439453e+00 4.237864315509796143e-01 4.138222634792327881e-01 2.512826025485992432e-01 -3.134447708725929260e-02
2.437000000000000000e+03 2.672187042236328125e+01 8.168573379516601562e-01 3.317151069641113281e-01 2.693423330783843994e-01 1.803172230720520020e-01 8.691807836294174194e-02
2.438000000000000000e+03 6.876728820800781250e+01 -1.148837471008300781e+01 4.062250852584838867e-01 7.281557083129882812e+00 2.306334733963012695e+00 -3.093076050281524658e-01
2.439000000000000000e+03 6.947052001953125000e+01 -1.238277149200439453e+01 3.413912653923034668e-01 7.261276245117187500e+00 2.280800104141235352e+00 -3.407894670963287354e-01
2.440000000000000000e+03 2.611994934082031250e+01 1.428007960319519043e+00 3.139942288398742676e-01 2.587195038795471191e-01 1.718141287565231323e-01 8.533305674791336060e-02
2.441000000000000000e+03 2.615151596069335938e+01 3.038661479949951172e-01 2.565872669219970703e-01 1.779674142599105835e-01 1.303663998842239380e-01 1.689965724945068359e-01
2.442000000000000000e+03 6.829714965820312500e+01 -1.809223937988281250e+01 1.689440011978149414e-01 7.485871791839599609e+00 2.296444892883300781e+00 -6.015686988830566406e-01
2.443000000000000000e+03 2.701654052734375000e+01 5.703644275665283203e+00 3.472568392753601074e-01 8.772427439689636230e-01 3.673498630523681641e-01 -3.709080219268798828e-01
2.444000000000000000e+03 2.729968833923339844e+01 3.862668037414550781e+00 4.522421658039093018e-01 7.127269506454467773e-01 3.494907319545745850e-01 -2.764126360416412354e-01
2.445000000000000000e+03 7.003661346435546875e+01 -1.526062774658203125e+01 2.288956940174102783e-01 7.302313804626464844e+00 2.259362936019897461e+00 -4.613258540630340576e-01
2.446000000000000000e+03 6.930058288574218750e+01 -1.604541420936584473e+00 3.989809751510620117e-01 7.276264190673828125e+00 2.302573680877685547e+00 3.889410793781280518e-01
2.447000000000000000e+03 6.952649688720703125e+01 -8.649074435234069824e-01 3.637802600860595703e-01 7.280337333679199219e+00 2.293235301971435547e+00 4.296756386756896973e-01
2.448000000000000000e+03 6.985243225097656250e+01 -1.061440849304199219e+01 3.603911995887756348e-01 7.198416233062744141e+00 2.267642259597778320e+00 -2.302829027175903320e-01
2.449000000000000000e+03 2.250290298461914062e+01 2.082977485656738281e+01 -4.777735471725463867e-02 1.128965616226196289e+00 3.243564665317535400e-01 -4.325103163719177246e-01
2.450000000000000000e+03 2.101683235168457031e+01 2.051725196838378906e+01 -5.680979788303375244e-02 8.136930465698242188e-01 2.270649671554565430e-01 -3.300781548023223877e-01
2.451000000000000000e+03 6.805665588378906250e+01 1.569664859771728516e+01 -1.337046623229980469e-01 7.895133972167968750e+00 2.328428745269775391e+00 7.448589801788330078e-01
2.452000000000000000e+03 6.920878601074218750e+01 7.844023704528808594e+00 8.263753354549407959e-02 7.627571582794189453e+00 2.313062667846679688e+00 7.579838633537292480e-01
2.453000000000000000e+03 6.821800231933593750e+01 7.936187744140625000e+00 9.539088606834411621e-02 7.655337333679199219e+00 2.325218439102172852e+00 7.955794334411621094e-01
2.454000000000000000e+03 2.233463859558105469e+01 -2.272037887573242188e+01 2.310297489166259766e-01 7.105149626731872559e-01 2.824634313583374023e-01 1.247576028108596802e-01
2.455000000000000000e+03 2.698476791381835938e+01 6.633673667907714844e+00 3.041270375251770020e-01 9.971460700035095215e-01 3.903819322586059570e-01 -4.318124651908874512e-01
2.456000000000000000e+03 6.718811798095703125e+01 3.169775724411010742e+00 3.311791121959686279e-01 7.517077445983886719e+00 2.354476928710937500e+00 7.081921100616455078e-01
2.457000000000000000e+03 6.744257354736328125e+01 6.164566874504089355e-01 4.335258901119232178e-01 7.422032356262207031e+00 2.356667518615722656e+00 5.782602429389953613e-01
2.458000000000000000e+03 2.539573478698730469e+01 9.039669990539550781e+00 1.321363896131515503e-01 8.929283022880554199e-01 3.075194060802459717e-01 -4.032860100269317627e-01
2.459000000000000000e+03 6.391617584228515625e+01 -2.451732444763183594e+01 -1.585166901350021362e-01 7.825458049774169922e+00 2.300082445144653320e+00 -6.932458877563476562e-01
2.460000000000000000e+03 1.024453067779541016e+01 -2.857101631164550781e+01 1.877246797084808350e-01 -3.546557426452636719e-01 -5.007931590080261230e-02 -3.266950249671936035e-01
2.461000000000000000e+03 1.187396526336669922e+01 -2.608723831176757812e+01 1.801721602678298950e-01 -3.512618243694305420e-01 -5.132690072059631348e-02 -3.380602598190307617e-01
2.462000000000000000e+03 2.321294212341308594e+01 -1.601108741760253906e+01 -1.276124566793441772e-01 3.556598126888275146e-01 6.841420382261276245e-02 -2.135639190673828125e-01
2.463000000000000000e+03 2.735145759582519531e+01 9.591207504272460938e+00 1.785083413124084473e-01 1.445895671844482422e+00 4.873211979866027832e-01 -6.194744110107421875e-01
2.464000000000000000e+03 2.086124229431152344e+01 2.423015213012695312e+01 4.097466170787811279e-02 9.779849648475646973e-01 3.056879043579101562e-01 -3.122067749500274658e-01
2.465000000000000000e+03 6.933703613281250000e+01 1.941771697998046875e+01 -1.578543782234191895e-01 8.012855529785156250e+00 2.356500387191772461e+00 6.238512396812438965e-01
2.466000000000000000e+03 1.284626579284667969e+01 -2.462879180908203125e+01 1.291723698377609253e-01 -3.357610702514648438e-01 -6.197661533951759338e-02 -3.208216428756713867e-01
2.467000000000000000e+03 1.631578826904296875e+01 2.682036018371582031e+01 1.380066275596618652e-01 4.179011583328247070e-01 1.667723357677459717e-01 -6.684630364179611206e-02
2.468000000000000000e+03 1.380173492431640625e+01 2.756873130798339844e+01 1.494196504354476929e-01 1.548975259065628052e-01 9.129515290260314941e-02 6.432989984750747681e-02
2.469000000000000000e+03 1.619385719299316406e+01 2.405764579772949219e+01 5.754702910780906677e-02 2.492609471082687378e-01 9.204239398241043091e-02 -6.681916862726211548e-02
2.470000000000000000e+03 7.010797119140625000e+01 -1.442466497421264648e+00 3.440135121345520020e-01 7.240117073059082031e+00 2.275239229202270508e+00 3.825134634971618652e-01
2.471000000000000000e+03 4.435075378417968750e+01 -6.511610507965087891e+00 7.773565292358398438e+00 1.234211921691894531e+01 6.034705162048339844e+00 -5.722633376717567444e-02
2.472000000000000000e+03 3.964669036865234375e+01 -2.904361248016357422e+00 2.111955404281616211e+00 7.077908515930175781e+00 2.756959199905395508e+00 -4.440975666046142578e+00
2.473000000000000000e+03 4.138575744628906250e+01 -3.250868797302246094e+00 1.041104078292846680e+00 1.310501766204833984e+01 4.243836402893066406e+00 -3.243041276931762695e+00
2.474000000000000000e+03 4.123430633544921875e+01 -1.039214801788330078e+01 4.718498885631561279e-01 1.178751945495605469e+01 3.677810668945312500e+00 3.296161174774169922e+00
2.475000000000000000e+03 4.234821319580078125e+01 -3.342502593994140625e+00 1.240583300590515137e+00 1.476266288757324219e+01 4.800973892211914062e+00 -1.104564070701599121e+00
2.476000000000000000e+03 4.103397369384765625e+01 -2.919000625610351562e+00 1.086635589599609375e+00 1.163527965545654297e+01 3.816574573516845703e+00 -3.754607200622558594e+00
2.477000000000000000e+03 4.460704421997070312e+01 -6.279385566711425781e+00 7.380632400512695312e+00 1.196655750274658203e+01 5.804156780242919922e+00 3.017735481262207031e-01
2.478000000000000000e+03 4.194009017944335938e+01 -2.921290636062622070e+00 8.420894145965576172e-01 1.339176845550537109e+01 4.270157337188720703e+00 -2.131166458129882812e+00
2.479000000000000000e+03 4.302457809448242188e+01 -3.073377132415771484e+00 1.468491554260253906e+00 1.392088413238525391e+01 4.616812705993652344e+00 -9.670785069465637207e-02
2.480000000000000000e+03 4.353003692626953125e+01 -3.738197326660156250e+00 2.798055171966552734e+00 1.417014408111572266e+01 5.090459823608398438e+00 1.024006962776184082e+00
2.481000000000000000e+03 3.894439697265625000e+01 -2.468258857727050781e+00 2.114540338516235352e+00 5.474407672882080078e+00 2.276684284210205078e+00 -3.937698125839233398e+00
2.482000000000000000e+03 4.204166412353515625e+01 -9.907554626464843750e+00 5.821322798728942871e-01 1.411302375793457031e+01 4.408546924591064453e+00 1.817487478256225586e+00
2.483000000000000000e+03 4.461393737792968750e+01 -8.768939971923828125e+00 4.179217815399169922e+00 1.268285846710205078e+01 5.058622837066650391e+00 -1.720555543899536133e+00
2.484000000000000000e+03 3.993098449707031250e+01 -2.689431190490722656e+00 1.760272622108459473e+00 8.070477485656738281e+00 2.949225187301635742e+00 -4.367109298706054688e+00
2.485000000000000000e+03 4.477969360351562500e+01 -5.366371154785156250e+00 6.234034061431884766e+00 1.201126003265380859e+01 5.473587989807128906e+00 1.249983668327331543e+00
2.486000000000000000e+03 4.227392578125000000e+01 -1.001855278015136719e+01 6.446298956871032715e-01 1.414811038970947266e+01 4.437821865081787109e+00 1.397428393363952637e+00
2.487000000000000000e+03 4.259380340576171875e+01 -9.649877548217773438e+00 1.120214223861694336e+00 1.488450431823730469e+01 4.801415443420410156e+00 5.099613666534423828e-01
2.488000000000000000e+03 3.786701965332031250e+01 -1.248622131347656250e+01 1.105022311210632324e+00 4.358653068542480469e+00 1.639102578163146973e+00 3.052024126052856445e+00
2.489000000000000000e+03 4.006931304931640625e+01 -1.080387878417968750e+01 1.006221055984497070e+00 8.299423217773437500e+00 2.791693449020385742e+00 4.102703571319580078e+00
2.490000000000000000e+03 4.340738677978515625e+01 -9.563870429992675781e+00 2.033647537231445312e+00 1.420924091339111328e+01 4.872866630554199219e+00 -7.772426605224609375e-01
2.491000000000000000e+03 3.804213714599609375e+01 -2.308338165283203125e+00 2.150918960571289062e+00 3.784163951873779297e+00 1.780524849891662598e+00 -3.249027490615844727e+00
2.492000000000000000e+03 3.749781417846679688e+01 -1.947897076606750488e+00 2.013207197189331055e+00 3.225754022598266602e+00 1.571688413619995117e+00 -2.881967067718505859e+00
2.493000000000000000e+03 3.397957229614257812e+01 4.719883799552917480e-01 1.234378695487976074e+00 1.789773702621459961e+00 9.072456955909729004e-01 -1.395402431488037109e+00
2.494000000000000000e+03 3.855159378051757812e+01 -1.151531791687011719e+01 1.270141243934631348e+00 4.997278690338134766e+00 1.880225896835327148e+00 3.492561578750610352e+00
2.495000000000000000e+03 3.933442687988281250e+01 -1.132483768463134766e+01 1.141697168350219727e+00 6.437581062316894531e+00 2.273783445358276367e+00 3.837121963500976562e+00
2.496000000000000000e+03 3.704672241210937500e+01 -6.413445472717285156e-01 1.608733773231506348e+00 3.465688228607177734e+00 1.522326588630676270e+00 -2.607205152511596680e+00
2.497000000000000000e+03 3.554214477539062500e+01 8.647999763488769531e-01 1.294306516647338867e+00 2.776720762252807617e+00 1.221308112144470215e+00 -1.990570425987243652e+00
2.498000000000000000e+03 3.744277191162109375e+01 -1.327807426452636719e+01 9.745734930038452148e-01 4.120419502258300781e+00 1.528497815132141113e+00 2.787634611129760742e+00
2.499000000000000000e+03 2.995617675781250000e+01 1.407642602920532227e+00 7.148708701133728027e-01 8.243548870086669922e-01 4.617677330970764160e-01 -4.387720227241516113e-01
2.500000000000000000e+03 2.835670471191406250e+01 3.905082225799560547e+00 5.240499377250671387e-01 9.273284673690795898e-01 4.354135096073150635e-01 -4.117155075073242188e-01
2.501000000000000000e+03 3.253766632080078125e+01 1.323586821556091309e+00 1.027649641036987305e+00 1.473456382751464844e+00 7.503318190574645996e-01 -1.036558032035827637e+00
2.502000000000000000e+03 2.978471946716308594e+01 2.250702381134033203e+00 6.920816898345947266e-01 9.545993208885192871e-01 4.940043091773986816e-01 -4.963057339191436768e-01
2.503000000000000000e+03 3.548690032958984375e+01 -1.469196510314941406e+01 8.521338701248168945e-01 2.898104190826416016e+00 1.125071406364440918e+00 2.025771617889404297e+00
2.504000000000000000e+03 3.072675895690917969e+01 2.344719171524047852e+00 7.947980761528015137e-01 1.194173693656921387e+00 5.966914892196655273e-01 -7.020515203475952148e-01
2.505000000000000000e+03 3.182244300842285156e+01 -1.613064002990722656e+01 6.657435894012451172e-01 1.647529006004333496e+00 6.939817667007446289e-01 1.073442935943603516e+00
2.506000000000000000e+03 3.079032707214355469e+01 -1.546233272552490234e+01 5.440345406532287598e-01 1.169663548469543457e+00 5.141094326972961426e-01 7.514727711677551270e-01
2.507000000000000000e+03 2.971614074707031250e+01 -1.654853820800781250e+01 5.001421570777893066e-01 1.191874027252197266e+00 5.076048374176025391e-01 6.448106169700622559e-01
2.508000000000000000e+03 2.663551902770996094e+01 -1.836537551879882812e+01 3.051164746284484863e-01 9.309037923812866211e-01 3.708060681819915771e-01 3.006044626235961914e-01
2.509000000000000000e+03 2.527314949035644531e+01 -1.672528457641601562e+01 9.246987849473953247e-02 6.017216444015502930e-01 2.082574516534805298e-01 1.542159938253462315e-03
2.510000000000000000e+03 3.343688964843750000e+01 1.614625334739685059e+00 1.080665230751037598e+00 1.897040605545043945e+00 8.933117389678955078e-01 -1.318468332290649414e+00
2.511000000000000000e+03 2.468599319458007812e+01 -1.850814819335937500e+01 1.696018278598785400e-01 7.050252556800842285e-01 2.623881101608276367e-01 1.012419089674949646e-01
2.512000000000000000e+03 3.562518310546875000e+01 -1.620752143859863281e+01 6.377727389335632324e-01 3.447100877761840820e+00 1.225462079048156738e+00 1.985510468482971191e+00
2.513000000000000000e+03 2.645053863525390625e+01 3.692098140716552734e+00 3.544854223728179932e-01 5.613127350807189941e-01 2.747394442558288574e-01 -1.506889313459396362e-01
2.514000000000000000e+03 2.622317504882812500e+01 2.588357925415039062e+00 3.557127118110656738e-01 3.846333324909210205e-01 2.221038192510604858e-01 -2.173709124326705933e-02
2.515000000000000000e+03 6.795920562744140625e+01 -1.063659667968750000e+01 4.959144294261932373e-01 7.303304672241210938e+00 2.339765787124633789e+00 -2.707068622112274170e-01
2.516000000000000000e+03 6.967910766601562500e+01 -8.425205230712890625e+00 4.089778959751129150e-01 7.185101509094238281e+00 2.278223991394042969e+00 -8.584392815828323364e-02
2.517000000000000000e+03 6.893463897705078125e+01 -9.625888824462890625e+00 4.505336284637451172e-01 7.233102798461914062e+00 2.305090904235839844e+00 -1.772220134735107422e-01
2.518000000000000000e+03 3.393907928466796875e+01 -1.536243629455566406e+01 7.732910513877868652e-01 2.247837781906127930e+00 9.063386917114257812e-01 1.566686630249023438e+00
2.519000000000000000e+03 3.748736572265625000e+01 -1.521188354492187500e+01 5.857490301132202148e-01 4.542542457580566406e+00 1.538487553596496582e+00 2.481950521469116211e+00
2.520000000000000000e+03 6.823734283447265625e+01 -2.347694396972656250e+00 4.710372090339660645e-01 7.304683685302734375e+00 2.332716226577758789e+00 3.653226792812347412e-01
2.521000000000000000e+03 6.845915222167968750e+01 -1.482273578643798828e+00 4.395915567874908447e-01 7.309446334838867188e+00 2.324711322784423828e+00 4.110434651374816895e-01
2.522000000000000000e+03 2.485604286193847656e+01 1.700780868530273438e+01 -8.847132325172424316e-02 1.353376626968383789e+00 3.794716000556945801e-01 -5.399355292320251465e-01
2.523000000000000000e+03 2.606823539733886719e+01 1.550261878967285156e+01 -4.269459471106529236e-02 1.638807892799377441e+00 4.788339734077453613e-01 -6.074894666671752930e-01
2.524000000000000000e+03 2.829173851013183594e+01 4.907950401306152344e+00 4.783022105693817139e-01 1.088971972465515137e+00 4.701822698116302490e-01 -4.897881448268890381e-01
2.525000000000000000e+03 2.769838714599609375e+01 8.714641571044921875e+00 2.396230995655059814e-01 1.436997652053833008e+00 5.029861927032470703e-01 -6.288253068923950195e-01
2.526000000000000000e+03 6.873264312744140625e+01 -6.831083297729492188e+00 4.846398234367370605e-01 7.229833126068115234e+00 2.314342021942138672e+00 2.279821969568729401e-02
2.527000000000000000e+03 2.540808486938476562e+01 1.013081550598144531e+01 8.991254866123199463e-02 1.004607677459716797e+00 3.283560872077941895e-01 -4.475178122520446777e-01
2.528000000000000000e+03 6.753376007080078125e+01 -2.323982429504394531e+01 -4.258713126182556152e-02 7.663690090179443359e+00 2.286330938339233398e+00 -6.517965793609619141e-01
2.529000000000000000e+03 6.850018310546875000e+01 -1.654604721069335938e+01 2.318506389856338501e-01 7.426608562469482422e+00 2.297537803649902344e+00 -5.540381669998168945e-01
2.530000000000000000e+03 1.230700778961181641e+01 -2.953353500366210938e+01 2.479003518819808960e-01 -2.044026553630828857e-01 1.304930634796619415e-02 -2.523490786552429199e-01
2.531000000000000000e+03 1.336299228668212891e+01 -2.747310447692871094e+01 2.393244057893753052e-01 -1.766832023859024048e-01 1.879236102104187012e-02 -2.538043260574340820e-01
2.532000000000000000e+03 2.172076797485351562e+01 -2.472220230102539062e+01 2.432181835174560547e-01 7.052885890007019043e-01 2.845520377159118652e-01 1.222832202911376953e-01
2.533000000000000000e+03 2.576213455200195312e+01 -1.973962974548339844e+01 2.789970636367797852e-01 9.668324589729309082e-01 3.737488687038421631e-01 2.872672080993652344e-01
2.534000000000000000e+03 2.719723892211914062e+01 -1.712386322021484375e+01 2.998104691505432129e-01 8.530265092849731445e-01 3.458510935306549072e-01 2.830168008804321289e-01
2.535000000000000000e+03 6.632867431640625000e+01 1.201552963256835938e+01 -6.062828376889228821e-02 7.822993755340576172e+00 2.328709602355957031e+00 8.463365435600280762e-01
2.536000000000000000e+03 6.812125396728515625e+01 9.049616813659667969e+00 5.389911308884620667e-02 7.692779541015625000e+00 2.324003458023071289e+00 8.071863055229187012e-01
2.537000000000000000e+03 6.744195556640625000e+01 6.081789493560791016e+00 1.886072307825088501e-01 7.612724304199218750e+00 2.340399503707885742e+00 7.921618819236755371e-01
2.538000000000000000e+03 2.554557609558105469e+01 1.839823913574218750e+01 -7.264597713947296143e-02 1.659224271774291992e+00 4.759734869003295898e-01 -5.984345674514770508e-01
2.539000000000000000e+03 6.774536132812500000e+01 2.168345832824707031e+01 -2.138447314500808716e-01 8.007187843322753906e+00 2.338002920150756836e+00 5.946944355964660645e-01
2.540000000000000000e+03 6.593216705322265625e+01 -2.294375610351562500e+01 -4.812018945813179016e-02 7.723433971405029297e+00 2.302594184875488281e+00 -6.895710825920104980e-01
2.541000000000000000e+03 6.436163330078125000e+01 -2.261489486694335938e+01 -4.669001698493957520e-02 7.781482696533203125e+00 2.320437908172607422e+00 -7.237100601196289062e-01
2.542000000000000000e+03 6.655387878417968750e+01 1.564686203002929688e+01 -1.611136943101882935e-01 7.888200283050537109e+00 2.318125963211059570e+00 7.722199559211730957e-01
2.543000000000000000e+03 6.651589202880859375e+01 1.385880565643310547e+01 -1.202677264809608459e-01 7.858311653137207031e+00 2.321413278579711914e+00 8.109499812126159668e-01
2.544000000000000000e+03 6.831837463378906250e+01 3.017375946044921875e+00 3.003379106521606445e-01 7.467638492584228516e+00 2.330392837524414062e+00 6.657617092132568359e-01
2.545000000000000000e+03 6.678120422363281250e+01 -5.814591050148010254e-01 5.188748836517333984e-01 7.413638591766357422e+00 2.379754066467285156e+00 5.200397968292236328e-01
2.546000000000000000e+03 6.820996856689453125e+01 1.041357803344726562e+01 1.922577270306646824e-03 7.742686271667480469e+00 2.323382616043090820e+00 7.987115383148193359e-01
2.547000000000000000e+03 1.669880676269531250e+01 2.527084159851074219e+01 1.114349290728569031e-01 4.023253917694091797e-01 1.541280895471572876e-01 -8.955233544111251831e-02
2.548000000000000000e+03 2.835098266601562500e+01 1.005707550048828125e+01 1.820108294486999512e-01 1.732049584388732910e+00 5.742181539535522461e-01 -7.308040857315063477e-01
2.549000000000000000e+03 6.786603546142578125e+01 -2.146018600463867188e+01 2.632940374314785004e-02 7.609386920928955078e+00 2.290714979171752930e+00 -6.517288684844970703e-01
2.550000000000000000e+03 4.345868682861328125e+01 -3.431653261184692383e+00 2.234457015991210938e+00 1.401293563842773438e+01 4.874217510223388672e+00 6.980986595153808594e-01
2.551000000000000000e+03 4.380730056762695312e+01 -3.677301883697509766e+00 2.892333745956420898e+00 1.377724266052246094e+01 5.000873088836669922e+00 1.171646118164062500e+00
2.552000000000000000e+03 4.328393173217773438e+01 -3.648845434188842773e+00 2.421442508697509766e+00 1.445524215698242188e+01 5.063005447387695312e+00 7.045472860336303711e-01
2.553000000000000000e+03 4.045941162109375000e+01 -1.031811332702636719e+01 9.479319453239440918e-01 9.726240158081054688e+00 3.202251672744750977e+00 4.206858158111572266e+00
2.554000000000000000e+03 4.091808319091796875e+01 -1.123275184631347656e+01 3.698746562004089355e-01 1.003278255462646484e+01 3.120797395706176758e+00 3.346628427505493164e+00
2.555000000000000000e+03 3.946417617797851562e+01 -2.565507650375366211e+00 1.960150241851806641e+00 6.736376285552978516e+00 2.608958005905151367e+00 -4.176614761352539062e+00
2.556000000000000000e+03 4.221493148803710938e+01 -2.570400476455688477e+00 7.547994852066040039e-01 1.308858013153076172e+01 4.153014183044433594e+00 -1.652816295623779297e+00
2.557000000000000000e+03 4.433763885498046875e+01 -6.763374805450439453e+00 7.895787239074707031e+00 1.244672489166259766e+01 6.102753639221191406e+00 -4.562508463859558105e-01
2.558000000000000000e+03 4.169914245605468750e+01 -2.595866918563842773e+00 7.537729740142822266e-01 1.249616336822509766e+01 3.974980831146240234e+00 -2.550586700439453125e+00
2.559000000000000000e+03 4.485498428344726562e+01 -5.059999942779541016e+00 5.769530296325683594e+00 1.203347396850585938e+01 5.340901374816894531e+00 1.414738535881042480e+00
2.560000000000000000e+03 4.051685714721679688e+01 -2.345842599868774414e+00 1.187067508697509766e+00 9.621170997619628906e+00 3.242471694946289062e+00 -3.872076988220214844e+00
2.561000000000000000e+03 4.405802917480468750e+01 -8.519411087036132812e+00 4.630538940429687500e+00 1.355157279968261719e+01 5.454633712768554688e+00 -1.864895343780517578e+00
2.562000000000000000e+03 4.484816741943359375e+01 -7.992701053619384766e+00 5.605692863464355469e+00 1.209466171264648438e+01 5.310106277465820312e+00 -1.550137639045715332e+00
2.563000000000000000e+03 4.252206420898437500e+01 -2.683526754379272461e+00 9.273707270622253418e-01 1.339095592498779297e+01 4.295497894287109375e+00 -1.113482356071472168e+00
2.564000000000000000e+03 4.092936325073242188e+01 -2.563861370086669922e+00 1.010145068168640137e+00 1.091108226776123047e+01 3.576368093490600586e+00 -3.642284870147705078e+00
2.565000000000000000e+03 3.876055526733398438e+01 -2.116668462753295898e+00 1.992403507232666016e+00 5.216706752777099609e+00 2.162733078002929688e+00 -3.740015029907226562e+00
2.566000000000000000e+03 4.423932266235351562e+01 -8.905484199523925781e+00 3.831570863723754883e+00 1.323438167572021484e+01 5.119785785675048828e+00 -1.716412305831909180e+00
2.567000000000000000e+03 4.162889480590820312e+01 -1.096220207214355469e+01 2.228614091873168945e-01 1.170548057556152344e+01 3.578502655029296875e+00 2.586924076080322266e+00
2.568000000000000000e+03 4.251062011718750000e+01 -1.017934131622314453e+01 6.396578550338745117e-01 1.388506793975830078e+01 4.357418060302734375e+00 1.045304894447326660e+00
2.569000000000000000e+03 3.787870788574218750e+01 -1.833990812301635742e+00 1.951188325881958008e+00 3.847892284393310547e+00 1.739724159240722656e+00 -3.107275962829589844e+00
2.570000000000000000e+03 4.049408721923828125e+01 -1.079212093353271484e+01 7.331525087356567383e-01 9.486668586730957031e+00 3.065946340560913086e+00 3.916556119918823242e+00
2.571000000000000000e+03 4.275373077392578125e+01 -1.002775001525878906e+01 9.432246088981628418e-01 1.411654186248779297e+01 4.517930030822753906e+00 4.987670481204986572e-01
2.572000000000000000e+03 4.406122207641601562e+01 -9.439072608947753906e+00 2.740090370178222656e+00 1.341823101043701172e+01 4.847496509552001953e+00 -1.340056896209716797e+00
2.573000000000000000e+03 4.305345916748046875e+01 -9.945474624633789062e+00 1.204343438148498535e+00 1.407859230041503906e+01 4.584880828857421875e+00 6.494756322354078293e-03
2.574000000000000000e+03 3.604757690429687500e+01 1.180334687232971191e-01 1.439889788627624512e+00 2.898729801177978516e+00 1.301585912704467773e+00 -2.167874813079833984e+00
2.575000000000000000e+03 3.708161163330078125e+01 -1.163596749305725098e+00 1.750367403030395508e+00 3.229273080825805664e+00 1.493892073631286621e+00 -2.642687082290649414e+00
2.576000000000000000e+03 3.662119674682617188e+01 1.408714056015014648e-02 1.459239721298217773e+00 3.350948810577392578e+00 1.443056583404541016e+00 -2.403500795364379883e+00
2.577000000000000000e+03 3.799505615234375000e+01 -1.342829513549804688e+01 8.475241065025329590e-01 4.761782169342041016e+00 1.682791948318481445e+00 2.906398773193359375e+00
2.578000000000000000e+03 3.688897323608398438e+01 -1.376982975006103516e+01 9.439809322357177734e-01 3.729879856109619141e+00 1.402158260345458984e+00 2.588329076766967773e+00
2.579000000000000000e+03 3.687388610839843750e+01 -1.328888034820556641e+01 1.009506702423095703e+00 3.546849727630615234e+00 1.366906881332397461e+00 2.593209505081176758e+00
2.580000000000000000e+03 3.061426734924316406e+01 3.235054254531860352e+00 7.489645481109619141e-01 1.359331965446472168e+00 6.324889659881591797e-01 -7.645469903945922852e-01
2.581000000000000000e+03 2.803922080993652344e+01 1.775434970855712891e+00 5.111132860183715820e-01 5.685625672340393066e-01 3.239027559757232666e-01 -1.699898838996887207e-01
2.582000000000000000e+03 3.733802032470703125e+01 -1.382321739196777344e+01 8.649795055389404297e-01 4.159584045410156250e+00 1.507369041442871094e+00 2.673394680023193359e+00
2.583000000000000000e+03 3.285035705566406250e+01 1.952753067016601562e+00 1.010470747947692871e+00 1.754187345504760742e+00 8.293974399566650391e-01 -1.184445500373840332e+00
2.584000000000000000e+03 2.823426055908203125e+01 5.893273830413818359e+00 4.238780736923217773e-01 1.205300569534301758e+00 4.887535870075225830e-01 -5.436378717422485352e-01
2.585000000000000000e+03 3.383703231811523438e+01 1.152461051940917969e+00 1.160995841026306152e+00 1.946562647819519043e+00 9.322675466537475586e-01 -1.407790303230285645e+00
2.586000000000000000e+03 3.083986282348632812e+01 -1.646895599365234375e+01 5.953351855278015137e-01 1.430988550186157227e+00 6.078971028327941895e-01 8.657003045082092285e-01
2.587000000000000000e+03 3.468363189697265625e+01 -1.583036136627197266e+01 7.603020071983337402e-01 2.777853965759277344e+00 1.061446785926818848e+00 1.820502638816833496e+00
2.588000000000000000e+03 3.324274444580078125e+01 -1.619794845581054688e+01 7.107281684875488281e-01 2.158915996551513672e+00 8.608932495117187500e-01 1.404393434524536133e+00
2.589000000000000000e+03 3.420320510864257812e+01 -1.681933403015136719e+01 6.523944139480590820e-01 2.809974431991577148e+00 1.038710713386535645e+00 1.657207727432250977e+00
2.590000000000000000e+03 2.855331802368164062e+01 2.938191413879394531e+00 5.641301870346069336e-01 8.164914846420288086e-01 4.141865074634552002e-01 -3.579626977443695068e-01
2.591000000000000000e+03 6.685731506347656250e+01 -9.807117462158203125e+00 5.888811349868774414e-01 7.336290359497070312e+00 2.377551317214965820e+00 -2.136954665184020996e-01
2.592000000000000000e+03 2.680274009704589844e+01 1.967228412628173828e+00 3.809862136840820312e-01 3.975266516208648682e-01 2.335538566112518311e-01 -2.764860168099403381e-02
2.593000000000000000e+03 6.846746063232421875e+01 -7.951825618743896484e+00 4.990494251251220703e-01 7.248202800750732422e+00 2.324175596237182617e+00 -5.693078786134719849e-02
2.594000000000000000e+03 6.716518402099609375e+01 -1.635346984863281250e+01 2.840732038021087646e-01 7.490855216979980469e+00 2.332478523254394531e+00 -5.890749692916870117e-01
2.595000000000000000e+03 6.689677429199218750e+01 -1.789797973632812500e+01 2.083044201135635376e-01 7.549011230468750000e+00 2.327194690704345703e+00 -6.382023096084594727e-01
2.596000000000000000e+03 2.861320686340332031e+01 -1.630789947509765625e+01 3.822766840457916260e-01 9.354523420333862305e-01 3.953187167644500732e-01 4.160369336605072021e-01
2.597000000000000000e+03 2.939769172668457031e+01 7.160383224487304688e+00 4.078828692436218262e-01 1.699907183647155762e+00 6.323370337486267090e-01 -7.789307236671447754e-01
2.598000000000000000e+03 3.037277221679687500e+01 8.681352615356445312e+00 3.016457855701446533e-01 2.196183919906616211e+00 7.493489384651184082e-01 -9.327214956283569336e-01
2.599000000000000000e+03 6.809629058837890625e+01 -1.973340415954589844e+01 9.997538477182388306e-02 7.545126914978027344e+00 2.293530702590942383e+00 -6.321257352828979492e-01
2.600000000000000000e+03 6.896260833740234375e+01 -1.359528160095214844e+01 3.353930413722991943e-01 7.315912246704101562e+00 2.295391559600830078e+00 -4.168872237205505371e-01
2.601000000000000000e+03 6.871183776855468750e+01 -1.505633926391601562e+01 2.868921160697937012e-01 7.373398303985595703e+00 2.298087120056152344e+00 -4.955790638923645020e-01
2.602000000000000000e+03 2.584350204467773438e+01 1.274134635925292969e+01 1.306419260799884796e-02 1.354699373245239258e+00 4.103290736675262451e-01 -5.683276653289794922e-01
2.603000000000000000e+03 2.588787841796875000e+01 1.412869167327880859e+01 -1.124129723757505417e-02 1.466304540634155273e+00 4.365189671516418457e-01 -5.950577259063720703e-01
2.604000000000000000e+03 6.908336639404296875e+01 -4.520067691802978516e+00 4.499738812446594238e-01 7.230700969696044922e+00 2.304202556610107422e+00 1.972934454679489136e-01
2.605000000000000000e+03 6.869338989257812500e+01 5.547891616821289062e+00 1.820040494203567505e-01 7.550813674926757812e+00 2.319845199584960938e+00 7.360526919364929199e-01
2.606000000000000000e+03 6.765394592285156250e+01 -1.333469390869140625e+01 4.123042821884155273e-01 7.377138614654541016e+00 2.336833000183105469e+00 -4.392511248588562012e-01
2.607000000000000000e+03 6.733245849609375000e+01 7.694267749786376953e+00 1.180716007947921753e-01 7.671272754669189453e+00 2.336803436279296875e+00 8.227940201759338379e-01
2.608000000000000000e+03 2.942668342590332031e+01 5.010922908782958984e+00 5.564832091331481934e-01 1.354158282279968262e+00 5.731924772262573242e-01 -6.755028963088989258e-01
2.609000000000000000e+03 6.789302825927734375e+01 -4.388762950897216797e+00 5.467020273208618164e-01 7.288021564483642578e+00 2.350416898727416992e+00 2.259591817855834961e-01
2.610000000000000000e+03 6.999566650390625000e+01 -7.074530124664306641e+00 3.874841630458831787e-01 7.162735939025878906e+00 2.265065908432006836e+00 1.082111895084381104e-02
2.611000000000000000e+03 6.284945678710937500e+01 1.316355609893798828e+01 -1.750267744064331055e-01 7.879457473754882812e+00 2.311329364776611328e+00 8.650199770927429199e-01
2.612000000000000000e+03 6.564870452880859375e+01 8.114398956298828125e+00 1.084936484694480896e-01 7.741115570068359375e+00 2.354882717132568359e+00 8.746682405471801758e-01
2.613000000000000000e+03 2.828288078308105469e+01 1.102110290527343750e+01 1.171094328165054321e-01 1.831069827079772949e+00 5.844537615776062012e-01 -7.388401627540588379e-01
2.614000000000000000e+03 2.697260284423828125e+01 1.121803283691406250e+01 8.862516283988952637e-02 1.493440389633178711e+00 4.746196568012237549e-01 -6.216141581535339355e-01
2.615000000000000000e+03 1.803914260864257812e+01 2.788818740844726562e+01 1.332617998123168945e-01 7.113405466079711914e-01 2.533806860446929932e-01 -1.249125003814697266e-01
2.616000000000000000e+03 1.518684768676757812e+01 2.838597488403320312e+01 1.685317903757095337e-01 3.665826916694641113e-01 1.605343520641326904e-01 -1.003463100641965866e-02
2.617000000000000000e+03 1.802213096618652344e+01 2.463727951049804688e+01 8.033160865306854248e-02 5.299168825149536133e-01 1.830745488405227661e-01 -1.644993871450424194e-01
2.618000000000000000e+03 2.419317054748535156e+01 2.080733299255371094e+01 -5.525046586990356445e-02 1.473428249359130859e+00 4.254533350467681885e-01 -4.997029006481170654e-01
2.619000000000000000e+03 1.946720314025878906e+01 2.593221855163574219e+01 8.734836429357528687e-02 8.318510651588439941e-01 2.757598161697387695e-01 -2.266187369823455811e-01
2.620000000000000000e+03 4.445595169067382812e+01 -9.305633544921875000e+00 3.248356819152832031e+00 1.291414451599121094e+01 4.848750114440917969e+00 -1.567757010459899902e+00
2.621000000000000000e+03 4.338436889648437500e+01 -1.001275825500488281e+01 1.350369691848754883e+00 1.370262908935546875e+01 4.515899658203125000e+00 -3.105300366878509521e-01
2.622000000000000000e+03 4.320182037353515625e+01 -1.027515983581542969e+01 1.011957168579101562e+00 1.349061393737792969e+01 4.350771427154541016e+00 5.961599200963973999e-02
2.623000000000000000e+03 4.122298049926757812e+01 -2.424438953399658203e+00 8.173943758010864258e-01 1.135555076599121094e+01 3.651883602142333984e+00 -3.198074102401733398e+00
2.624000000000000000e+03 4.447238540649414062e+01 -4.103662490844726562e+00 4.020518302917480469e+00 1.279977798461914062e+01 5.046089172363281250e+00 1.588059186935424805e+00
2.625000000000000000e+03 4.390211868286132812e+01 -4.050503730773925781e+00 3.718667268753051758e+00 1.376782417297363281e+01 5.245947360992431641e+00 1.490659594535827637e+00
2.626000000000000000e+03 4.483366775512695312e+01 -8.334603309631347656e+00 5.040450096130371094e+00 1.225675964355468750e+01 5.189162731170654297e+00 -1.683864712715148926e+00
2.627000000000000000e+03 4.485910415649414062e+01 -6.574645519256591797e+00 7.015908241271972656e+00 1.164674186706542969e+01 5.598794937133789062e+00 -1.528798788785934448e-01
2.628000000000000000e+03 4.475752258300781250e+01 -4.323275566101074219e+00 4.443706035614013672e+00 1.239444828033447266e+01 5.051445960998535156e+00 1.609550833702087402e+00
2.629000000000000000e+03 4.206208038330078125e+01 -1.153271007537841797e+01 7.506675273180007935e-02 1.143727779388427734e+01 3.453703403472900391e+00 2.032707691192626953e+00
2.630000000000000000e+03 3.861984634399414062e+01 -1.234683132171630859e+01 1.009061694145202637e+00 5.394355773925781250e+00 1.921025276184082031e+00 3.349696636199951172e+00
2.631000000000000000e+03 4.058849716186523438e+01 -1.126534843444824219e+01 5.113222599029541016e-01 9.358647346496582031e+00 2.960990905761718750e+00 3.582125902175903320e+00
2.632000000000000000e+03 3.965524673461914062e+01 -1.096267604827880859e+01 1.164802312850952148e+00 7.187104701995849609e+00 2.505572080612182617e+00 4.035358905792236328e+00
2.633000000000000000e+03 3.888277435302734375e+01 -1.188176155090332031e+01 1.087015748023986816e+00 5.789406299591064453e+00 2.062926530838012695e+00 3.562098026275634766e+00
2.634000000000000000e+03 3.843820953369140625e+01 -2.248245000839233398e+00 2.087509155273437500e+00 4.480965614318847656e+00 1.970542430877685547e+00 -3.499142646789550781e+00
2.635000000000000000e+03 3.747150802612304688e+01 -1.072811722755432129e+00 1.714236378669738770e+00 3.752389192581176758e+00 1.639987707138061523e+00 -2.845665931701660156e+00
2.636000000000000000e+03 3.829684829711914062e+01 -1.287339305877685547e+01 9.236769676208496094e-01 5.057019233703613281e+00 1.794208884239196777e+00 3.103106737136840820e+00
2.637000000000000000e+03 3.819682693481445312e+01 -1.200543212890625000e+01 1.180386066436767578e+00 4.636513233184814453e+00 1.745069861412048340e+00 3.207358121871948242e+00
2.638000000000000000e+03 3.779811859130859375e+01 -1.398111343383789062e+01 7.597461342811584473e-01 4.660747528076171875e+00 1.626148104667663574e+00 2.741939783096313477e+00
2.639000000000000000e+03 3.249960708618164062e+01 2.522679805755615234e+00 9.511773586273193359e-01 1.780716061592102051e+00 8.195680379867553711e-01 -1.137036442756652832e+00
2.640000000000000000e+03 3.619153213500976562e+01 -1.541832447052001953e+01 7.054639458656311035e-01 3.640372514724731445e+00 1.303750872611999512e+00 2.192958831787109375e+00
2.641000000000000000e+03 3.166695022583007812e+01 2.393596410751342773e+00 8.834248185157775879e-01 1.484140515327453613e+00 7.102696299552917480e-01 -9.262296557426452637e-01
2.642000000000000000e+03 3.053108596801757812e+01 4.136032581329345703e+00 6.816047430038452148e-01 1.509014248847961426e+00 6.571856737136840820e-01 -8.084574341773986816e-01
2.643000000000000000e+03 3.614206314086914062e+01 7.079033255577087402e-01 1.306887269020080566e+00 3.164211511611938477e+00 1.341329693794250488e+00 -2.174137592315673828e+00
2.644000000000000000e+03 3.490657424926757812e+01 1.104798674583435059e+00 1.237041831016540527e+00 2.480584383010864258e+00 1.115287899971008301e+00 -1.762845873832702637e+00
2.645000000000000000e+03 3.402796173095703125e+01 -1.949966430664062500e+01 4.258761703968048096e-01 3.210669517517089844e+00 1.090963721275329590e+00 1.484561920166015625e+00
2.646000000000000000e+03 3.233727645874023438e+01 -1.697285652160644531e+01 6.404817700386047363e-01 2.011654853820800781e+00 7.956410050392150879e-01 1.218992948532104492e+00
2.647000000000000000e+03 6.750990295410156250e+01 -6.650499820709228516e+00 5.998948812484741211e-01 7.293702125549316406e+00 2.368079185485839844e+00 4.787440598011016846e-02
2.648000000000000000e+03 2.905613136291503906e+01 -1.927281379699707031e+01 4.439444243907928467e-01 1.516323924064636230e+00 5.880804657936096191e-01 6.902770996093750000e-01
2.649000000000000000e+03 6.741954803466796875e+01 -1.485081768035888672e+01 3.482825160026550293e-01 7.431761741638183594e+00 2.334013223648071289e+00 -5.219479203224182129e-01
2.650000000000000000e+03 6.645954895019531250e+01 -5.311609268188476562e+00 6.780359148979187012e-01 7.342710971832275391e+00 2.406224012374877930e+00 1.553601622581481934e-01
2.651000000000000000e+03 6.661328887939453125e+01 -1.951427841186523438e+01 1.264610588550567627e-01 7.611639022827148438e+00 2.321429967880249023e+00 -6.748177409172058105e-01
2.652000000000000000e+03 6.228545379638671875e+01 -2.408124351501464844e+01 -1.739434152841567993e-01 7.883666038513183594e+00 2.312916755676269531e+00 -7.181500792503356934e-01
2.653000000000000000e+03 6.771055603027343750e+01 -1.104909420013427734e+00 4.630351960659027100e-01 7.365215301513671875e+00 2.348475217819213867e+00 4.593617022037506104e-01
2.654000000000000000e+03 6.621610260009765625e+01 -1.733391761779785156e+00 5.969430208206176758e-01 7.410197257995605469e+00 2.402142047882080078e+00 4.537634551525115967e-01
2.655000000000000000e+03 2.914083480834960938e+01 8.205151557922363281e+00 3.181602656841278076e-01 1.750283479690551758e+00 6.205331087112426758e-01 -7.761551737785339355e-01
2.656000000000000000e+03 2.814333724975585938e+01 6.874152660369873047e+00 3.633781671524047852e-01 1.290515661239624023e+00 4.961681663990020752e-01 -5.882526636123657227e-01
2.657000000000000000e+03 3.270242309570312500e+01 -1.813300514221191406e+01 5.683098435401916504e-01 2.393593072891235352e+00 8.885709047317504883e-01 1.303411006927490234e+00
2.658000000000000000e+03 3.525328063964843750e+01 -1.708989524841308594e+01 5.558751821517944336e-01 3.382880210876464844e+00 1.181626677513122559e+00 1.816151142120361328e+00
2.659000000000000000e+03 6.397448730468750000e+01 1.621232604980468750e+01 -2.382116615772247314e-01 7.876367092132568359e+00 2.291446685791015625e+00 7.817050814628601074e-01
2.660000000000000000e+03 6.447727203369140625e+01 1.236588859558105469e+01 -1.032161489129066467e-01 7.853858947753906250e+00 2.325192928314208984e+00 8.705561161041259766e-01
2.661000000000000000e+03 2.718243217468261719e+01 1.487243080139160156e+01 -3.004896081984043121e-02 1.853858828544616699e+00 5.471429824829101562e-01 -6.920273303985595703e-01
2.662000000000000000e+03 3.064344787597656250e+01 7.583481788635253906e+00 4.028438329696655273e-01 2.130040168762207031e+00 7.598651647567749023e-01 -9.679668545722961426e-01
2.663000000000000000e+03 6.462576293945312500e+01 -1.583678531646728516e+01 4.102281630039215088e-01 7.603533267974853516e+00 2.404128551483154297e+00 -6.444493532180786133e-01
2.664000000000000000e+03 3.028772926330566406e+01 -1.949328041076660156e+01 4.763187170028686523e-01 1.821375966072082520e+00 6.893084049224853516e-01 8.794322609901428223e-01
2.665000000000000000e+03 2.727835655212402344e+01 -2.046670150756835938e+01 3.637017309665679932e-01 1.320286631584167480e+00 5.051965117454528809e-01 5.037017464637756348e-01
2.666000000000000000e+03 2.780755805969238281e+01 -1.890913009643554688e+01 3.798938691616058350e-01 1.194942235946655273e+00 4.724508225917816162e-01 4.897844493389129639e-01
2.667000000000000000e+03 2.984527587890625000e+01 1.949835205078125000e+01 -1.458159387111663818e-01 2.721504211425781250e+00 7.727065086364746094e-01 -7.740957736968994141e-01
2.668000000000000000e+03 2.664673614501953125e+01 1.978793716430664062e+01 -7.618322968482971191e-02 1.945561528205871582e+00 5.608134865760803223e-01 -6.284902095794677734e-01
2.669000000000000000e+03 2.573779678344726562e+01 2.118038749694824219e+01 -7.881270349025726318e-02 1.826506972312927246e+00 5.243082642555236816e-01 -6.017396450042724609e-01
2.670000000000000000e+03 2.480406570434570312e+01 2.240576362609863281e+01 -4.690203815698623657e-02 1.683954000473022461e+00 4.911155700683593750e-01 -5.061185359954833984e-01
2.671000000000000000e+03 6.564173126220703125e+01 2.213566780090332031e+01 -2.853767275810241699e-01 7.928355216979980469e+00 2.292893648147583008e+00 6.006724834442138672e-01
2.672000000000000000e+03 6.266674804687500000e+01 1.730673599243164062e+01 -3.078365921974182129e-01 7.859025478363037109e+00 2.265356779098510742e+00 7.438177466392517090e-01
2.673000000000000000e+03 4.551376724243164062e+01 -8.642100334167480469e+00 4.430212497711181641e+00 1.143300151824951172e+01 4.758964538574218750e+00 -1.526648163795471191e+00
2.674000000000000000e+03 4.200520324707031250e+01 -1.060848999023437500e+01 3.038060367107391357e-01 1.276482582092285156e+01 3.920589685440063477e+00 2.062859535217285156e+00
2.675000000000000000e+03 4.371074676513671875e+01 -3.090857505798339844e+00 2.005733251571655273e+00 1.333138084411621094e+01 4.601134300231933594e+00 6.581724882125854492e-01
2.676000000000000000e+03 4.289690399169921875e+01 -1.036360359191894531e+01 7.355654835700988770e-01 1.340149784088134766e+01 4.241118907928466797e+00 5.310802459716796875e-01
2.677000000000000000e+03 4.515481185913085938e+01 -7.325694561004638672e+00 6.270768642425537109e+00 1.143166255950927734e+01 5.310729026794433594e+00 -9.332131743431091309e-01
2.678000000000000000e+03 3.851500701904296875e+01 -1.878956675529479980e+00 1.901248335838317871e+00 4.858250617980957031e+00 2.027849674224853516e+00 -3.503500461578369141e+00
2.679000000000000000e+03 4.008176040649414062e+01 -2.139503955841064453e+00 1.365483283996582031e+00 8.391284942626953125e+00 2.927030563354492188e+00 -3.959848880767822266e+00
2.680000000000000000e+03 4.462421417236328125e+01 -4.647980690002441406e+00 4.998254776000976562e+00 1.253917407989501953e+01 5.261228561401367188e+00 1.662017345428466797e+00
2.681000000000000000e+03 4.523355484008789062e+01 -6.144546985626220703e+00 6.550056934356689453e+00 1.126562404632568359e+01 5.344704151153564453e+00 3.805912435054779053e-01
2.682000000000000000e+03 4.108341217041015625e+01 -2.077057361602783203e+00 7.703400850296020508e-01 1.067617511749267578e+01 3.433954715728759766e+00 -3.219529867172241211e+00
2.683000000000000000e+03 4.384318161010742188e+01 -9.722859382629394531e+00 2.165469408035278320e+00 1.360391426086425781e+01 4.730814933776855469e+00 -1.057566761970520020e+00
2.684000000000000000e+03 4.108600234985351562e+01 -1.162804794311523438e+01 2.300711572170257568e-01 1.001176548004150391e+01 3.072550773620605469e+00 3.032280206680297852e+00
2.685000000000000000e+03 4.163189697265625000e+01 -1.147460842132568359e+01 1.032409891486167908e-01 1.108249950408935547e+01 3.355722188949584961e+00 2.519791364669799805e+00
2.686000000000000000e+03 4.481799697875976562e+01 -7.127575874328613281e+00 6.812717914581298828e+00 1.175691032409667969e+01 5.570888519287109375e+00 -8.041822910308837891e-01
2.687000000000000000e+03 4.310566329956054688e+01 -1.896992087364196777e+00 7.052214741706848145e-01 1.240980243682861328e+01 3.934507369995117188e+00 -6.709352135658264160e-01
2.688000000000000000e+03 4.022709274291992188e+01 -1.129570674896240234e+01 6.871144175529479980e-01 8.536406517028808594e+00 2.767056226730346680e+00 3.706302881240844727e+00
2.689000000000000000e+03 3.989944839477539062e+01 -1.136368274688720703e+01 8.388482928276062012e-01 7.879924774169921875e+00 2.615631818771362305e+00 3.782695770263671875e+00
2.690000000000000000e+03 4.073760604858398438e+01 -1.176609039306640625e+01 3.249753117561340332e-01 9.360391616821289062e+00 2.905610084533691406e+00 3.205031633377075195e+00
2.691000000000000000e+03 4.235410690307617188e+01 -1.105409812927246094e+01 2.167652249336242676e-01 1.237651920318603516e+01 3.777985334396362305e+00 1.570814728736877441e+00
2.692000000000000000e+03 4.233996200561523438e+01 -1.069711112976074219e+01 3.049859106540679932e-01 1.292026138305664062e+01 3.967574119567871094e+00 1.557721257209777832e+00
2.693000000000000000e+03 3.745122528076171875e+01 -7.097268104553222656e-01 1.607727050781250000e+00 3.880607366561889648e+00 1.646500349044799805e+00 -2.808696269989013672e+00
2.694000000000000000e+03 3.674193954467773438e+01 6.278440356254577637e-01 1.282261371612548828e+00 3.710356473922729492e+00 1.497785329818725586e+00 -2.403460741043090820e+00
2.695000000000000000e+03 3.537190246582031250e+01 2.184198617935180664e+00 1.044028997421264648e+00 3.119193792343139648e+00 1.248966813087463379e+00 -1.897234559059143066e+00
2.696000000000000000e+03 3.873426055908203125e+01 -1.322851085662841797e+01 7.160626649856567383e-01 5.745699405670166016e+00 1.938528656959533691e+00 3.111404895782470703e+00
2.697000000000000000e+03 3.248702239990234375e+01 3.347081899642944336e+00 8.544371724128723145e-01 1.967621803283691406e+00 8.466176986694335938e-01 -1.178199529647827148e+00
2.698000000000000000e+03 2.947882652282714844e+01 4.045938014984130859e+00 6.155105233192443848e-01 1.212931513786315918e+00 5.485326051712036133e-01 -6.179815530776977539e-01
2.699000000000000000e+03 3.756127929687500000e+01 -1.445191383361816406e+01 6.966062188148498535e-01 4.556342601776123047e+00 1.575884580612182617e+00 2.624188899993896484e+00
2.700000000000000000e+03 3.619160842895507812e+01 -1.703108978271484375e+01 5.095241069793701172e-01 3.968350172042846680e+00 1.343362331390380859e+00 2.069734096527099609e+00
2.701000000000000000e+03 3.713621520996093750e+01 -1.112104654312133789e-01 1.454264521598815918e+00 3.776767492294311523e+00 1.569309592247009277e+00 -2.608052492141723633e+00
2.702000000000000000e+03 3.049008560180664062e+01 5.046593189239501953e+00 5.990657210350036621e-01 1.660504341125488281e+00 6.778710484504699707e-01 -8.427273631095886230e-01
2.703000000000000000e+03 3.434825515747070312e+01 1.550108313560485840e+00 1.158073425292968750e+00 2.299890756607055664e+00 1.037389278411865234e+00 -1.591252684593200684e+00
2.704000000000000000e+03 3.719250869750976562e+01 -1.429163455963134766e+01 8.005660176277160645e-01 4.096433639526367188e+00 1.469099998474121094e+00 2.567409753799438477e+00
2.705000000000000000e+03 3.521234130859375000e+01 1.653666973114013672e+00 1.161752820014953613e+00 2.846230268478393555e+00 1.202394962310791016e+00 -1.880497813224792480e+00
2.706000000000000000e+03 2.946513748168945312e+01 6.062477588653564453e+00 4.843007326126098633e-01 1.553367495536804199e+00 6.113004684448242188e-01 -7.442295551300048828e-01
2.707000000000000000e+03 6.611778259277343750e+01 -7.697466850280761719e+00 7.009751796722412109e-01 7.352437973022460938e+00 2.416023969650268555e+00 -5.784371495246887207e-02
2.708000000000000000e+03 6.534053039550781250e+01 -1.185483837127685547e+01 6.443244814872741699e-01 7.454738616943359375e+00 2.429718971252441406e+00 -4.076240360736846924e-01
2.709000000000000000e+03 3.276941680908203125e+01 -1.947530364990234375e+01 4.898260235786437988e-01 2.663839101791381836e+00 9.460995197296142578e-01 1.278951883316040039e+00
2.710000000000000000e+03 6.629743194580078125e+01 -2.119010162353515625e+01 4.229558259248733521e-02 7.667326927185058594e+00 2.312886714935302734e+00 -6.918272376060485840e-01
2.711000000000000000e+03 2.740095329284667969e+01 1.256090450286865234e+01 4.348775744438171387e-02 1.740061283111572266e+00 5.350647568702697754e-01 -6.843835115432739258e-01
2.712000000000000000e+03 2.837519645690917969e+01 1.592410469055175781e+01 -5.109482258558273315e-02 2.201148986816406250e+00 6.450162529945373535e-01 -7.659320831298828125e-01
2.713000000000000000e+03 2.875193405151367188e+01 1.210730838775634766e+01 8.344943821430206299e-02 2.050230503082275391e+00 6.401039361953735352e-01 -8.014001846313476562e-01
2.714000000000000000e+03 6.725523376464843750e+01 -2.079801559448242188e+00 5.375516414642333984e-01 7.358228683471679688e+00 2.368734121322631836e+00 4.063068032264709473e-01
2.715000000000000000e+03 6.616503906250000000e+01 -1.466760158538818359e+01 4.175268709659576416e-01 7.492015838623046875e+00 2.372862815856933594e+00 -5.499419569969177246e-01
2.716000000000000000e+03 6.542658233642578125e+01 -4.822934627532958984e+00 7.653129100799560547e-01 7.385753631591796875e+00 2.445319890975952148e+00 2.069817483425140381e-01
2.717000000000000000e+03 6.678280639648437500e+01 -4.184694766998291016e+00 6.288349032402038574e-01 7.342001438140869141e+00 2.391250848770141602e+00 2.621936798095703125e-01
2.718000000000000000e+03 6.588359069824218750e+01 -1.082461357116699219e+01 6.333397030830383301e-01 7.405592441558837891e+00 2.411679744720458984e+00 -3.186531960964202881e-01
2.719000000000000000e+03 6.550907897949218750e+01 -1.196755468845367432e-01 5.824934244155883789e-01 7.488348960876464844e+00 2.421252727508544922e+00 5.919491648674011230e-01
2.720000000000000000e+03 3.530621337890625000e+01 -1.956920051574707031e+01 3.292842507362365723e-01 3.790890693664550781e+00 1.236052513122558594e+00 1.674323081970214844e+00
2.721000000000000000e+03 2.944488334655761719e+01 -1.784238052368164062e+01 4.731823503971099854e-01 1.358528137207031250e+00 5.495131611824035645e-01 6.790359020233154297e-01
2.722000000000000000e+03 2.938462448120117188e+01 1.064836502075195312e+01 1.547754257917404175e-01 2.124717950820922852e+00 6.838480234146118164e-01 -8.579565882682800293e-01
2.723000000000000000e+03 3.164167022705078125e+01 9.085901260375976562e+00 2.734793722629547119e-01 2.638665199279785156e+00 8.736433982849121094e-01 -1.099178791046142578e+00
2.724000000000000000e+03 6.650866699218750000e+01 5.149691581726074219e+00 2.508705556392669678e-01 7.617002964019775391e+00 2.360362052917480469e+00 8.023621439933776855e-01
2.725000000000000000e+03 6.630848693847656250e+01 3.547094821929931641e+00 3.495099246501922607e-01 7.575615406036376953e+00 2.377537727355957031e+00 7.619951367378234863e-01
2.726000000000000000e+03 2.876115036010742188e+01 -2.085899353027343750e+01 4.113141298294067383e-01 1.664361715316772461e+00 6.227027773857116699e-01 7.028928995132446289e-01
2.727000000000000000e+03 4.511549377441406250e+01 -4.447165012359619141e+00 4.646221160888671875e+00 1.185460472106933594e+01 4.950247764587402344e+00 1.547145128250122070e+00
2.728000000000000000e+03 4.533563613891601562e+01 -4.850858688354492188e+00 5.188503742218017578e+00 1.147527790069580078e+01 4.999134540557861328e+00 1.378050208091735840e+00
2.729000000000000000e+03 4.484183883666992188e+01 -9.148368835449218750e+00 3.593377351760864258e+00 1.240377140045166016e+01 4.799144744873046875e+00 -1.620810985565185547e+00
2.730000000000000000e+03 3.883662414550781250e+01 -1.151310920715332031e+00 1.493843078613281250e+00 5.793367385864257812e+00 2.186163187026977539e+00 -3.463550806045532227e+00
2.731000000000000000e+03 4.229017257690429688e+01 -1.991384983062744141e+00 5.431521534919738770e-01 1.223859214782714844e+01 3.834523200988769531e+00 -1.598975181579589844e+00
2.732000000000000000e+03 3.977129364013671875e+01 -2.335905075073242188e+00 1.677444100379943848e+00 7.598052024841308594e+00 2.782648801803588867e+00 -4.127712249755859375e+00
2.733000000000000000e+03 4.032213211059570312e+01 -1.178293704986572266e+01 5.096946358680725098e-01 8.525980949401855469e+00 2.710702657699584961e+00 3.424171209335327148e+00
2.734000000000000000e+03 4.540001296997070312e+01 -7.793595790863037109e+00 5.499113559722900391e+00 1.130709171295166016e+01 5.041861534118652344e+00 -1.230776548385620117e+00
2.735000000000000000e+03 4.277564239501953125e+01 -2.133830785751342773e+00 7.026671767234802246e-01 1.255731582641601562e+01 3.977994918823242188e+00 -9.966012239456176758e-01
2.736000000000000000e+03 4.409820556640625000e+01 -3.504701137542724609e+00 2.830614566802978516e+00 1.324709701538085938e+01 4.823313713073730469e+00 1.248198270797729492e+00
2.737000000000000000e+03 3.927310180664062500e+01 -2.202795028686523438e+00 1.842921733856201172e+00 6.423309803009033203e+00 2.479869365692138672e+00 -3.970450878143310547e+00
2.738000000000000000e+03 4.262874221801757812e+01 -1.042682838439941406e+01 5.528228878974914551e-01 1.346330165863037109e+01 4.204837322235107422e+00 9.245567917823791504e-01
2.739000000000000000e+03 3.909977722167968750e+01 -1.253656673431396484e+01 7.807918190956115723e-01 6.226645946502685547e+00 2.102231264114379883e+00 3.335477113723754883e+00
2.740000000000000000e+03 4.553381729125976562e+01 -7.467444419860839844e+00 5.797503948211669922e+00 1.109573554992675781e+01 5.067971706390380859e+00 -9.605814814567565918e-01
2.741000000000000000e+03 4.504866790771484375e+01 -6.871780395507812500e+00 6.716138839721679688e+00 1.148015022277832031e+01 5.458886623382568359e+00 -4.624391794204711914e-01
2.742000000000000000e+03 4.494690322875976562e+01 -8.630212783813476562e+00 4.480793952941894531e+00 1.218788719177246094e+01 5.000604152679443359e+00 -1.673372626304626465e+00
2.743000000000000000e+03 4.355949401855468750e+01 -2.598639488220214844e+00 1.411731719970703125e+00 1.306885910034179688e+01 4.344177246093750000e+00 2.018427550792694092e-01
2.744000000000000000e+03 4.291964340209960938e+01 -2.578220367431640625e+00 1.029047012329101562e+00 1.328505611419677734e+01 4.294230937957763672e+00 -5.752961039543151855e-01
2.745000000000000000e+03 3.798493957519531250e+01 -1.226155281066894531e+00 1.692744493484497070e+00 4.321263313293457031e+00 1.804202318191528320e+00 -3.104005336761474609e+00
2.746000000000000000e+03 3.918673324584960938e+01 -1.210525894165039062e+01 8.932686448097229004e-01 6.318311214447021484e+00 2.163474082946777344e+00 3.483298540115356445e+00
2.747000000000000000e+03 4.297347640991210938e+01 -1.070040702819824219e+01 5.837747454643249512e-01 1.302633762359619141e+01 4.083034038543701172e+00 5.850256085395812988e-01
2.748000000000000000e+03 4.031525802612304688e+01 -1.273227119445800781e+01 2.834548354148864746e-01 8.129199028015136719e+00 2.523796081542968750e+00 3.097719669342041016e+00
2.749000000000000000e+03 3.921689987182617188e+01 -1.173305892944335938e+01 1.018997669219970703e+00 6.277332305908203125e+00 2.188899040222167969e+00 3.681408882141113281e+00
2.750000000000000000e+03 3.851901626586914062e+01 -1.310557961463928223e+00 1.631960630416870117e+00 5.146162033081054688e+00 2.033436775207519531e+00 -3.347686290740966797e+00
2.751000000000000000e+03 3.731405639648437500e+01 4.556608796119689941e-01 1.276033163070678711e+00 4.175804615020751953e+00 1.635551333427429199e+00 -2.609919309616088867e+00
2.752000000000000000e+03 3.321691131591796875e+01 2.516868352890014648e+00 9.895360469818115234e-01 2.109259843826293945e+00 9.296387434005737305e-01 -1.338485836982727051e+00
2.753000000000000000e+03 3.384572982788085938e+01 2.124693155288696289e+00 1.044154405593872070e+00 2.218952417373657227e+00 9.789320826530456543e-01 -1.456037402153015137e+00
2.754000000000000000e+03 3.827663040161132812e+01 -1.424259567260742188e+01 6.002256274223327637e-01 5.252381324768066406e+00 1.755782008171081543e+00 2.794944763183593750e+00
2.755000000000000000e+03 3.715244674682617188e+01 -1.477047634124755859e+01 7.111327648162841797e-01 4.228719234466552734e+00 1.481955647468566895e+00 2.499807834625244141e+00
2.756000000000000000e+03 3.152117156982421875e+01 5.099635124206542969e+00 6.476780176162719727e-01 2.010358095169067383e+00 7.974108457565307617e-01 -1.050208568572998047e+00
2.757000000000000000e+03 3.154622077941894531e+01 4.203627586364746094e+00 7.284219264984130859e-01 1.849480748176574707e+00 7.733708024024963379e-01 -1.010953903198242188e+00
2.758000000000000000e+03 3.623677062988281250e+01 1.244141340255737305e+00 1.194892764091491699e+00 3.413295507431030273e+00 1.382456421852111816e+00 -2.199106216430664062e+00
2.759000000000000000e+03 3.595287704467773438e+01 1.978747129440307617e+00 1.049959540367126465e+00 3.480454683303833008e+00 1.359124183654785156e+00 -2.072707176208496094e+00
2.760000000000000000e+03 3.157808685302734375e+01 3.305060386657714844e+00 8.098251819610595703e-01 1.672970175743103027e+00 7.448385953903198242e-01 -9.746806621551513672e-01
2.761000000000000000e+03 6.325080108642578125e+01 -9.287768363952636719e+00 9.355626106262207031e-01 7.491351127624511719e+00 2.528074026107788086e+00 -2.232482433319091797e-01
2.762000000000000000e+03 6.780097961425781250e+01 -8.837501525878906250e+00 5.429763793945312500e-01 7.287849426269531250e+00 2.349247694015502930e+00 -1.298031210899353027e-01
2.763000000000000000e+03 3.481534576416015625e+01 2.046129226684570312e+00 1.090939521789550781e+00 2.738501310348510742e+00 1.148832321166992188e+00 -1.753354310989379883e+00
2.764000000000000000e+03 2.496632194519042969e+01 -2.153098487854003906e+01 2.777337431907653809e-01 1.027712702751159668e+00 3.916339278221130371e-01 2.947025597095489502e-01
2.765000000000000000e+03 6.482980346679687500e+01 -2.726217746734619141e+00 7.588863372802734375e-01 7.448838233947753906e+00 2.462317228317260742e+00 4.108068048954010010e-01
2.766000000000000000e+03 6.234070968627929688e+01 -3.065601587295532227e+00 1.011310100555419922e+00 7.548471927642822266e+00 2.567934513092041016e+00 4.365065693855285645e-01
2.767000000000000000e+03 3.721637344360351562e+01 -1.684806442260742188e+01 3.904480934143066406e-01 4.633021354675292969e+00 1.507040858268737793e+00 2.178643703460693359e+00
2.768000000000000000e+03 6.567009735107421875e+01 -8.915073394775390625e+00 7.094807028770446777e-01 7.377603054046630859e+00 2.426125049591064453e+00 -1.504359096288681030e-01
2.769000000000000000e+03 3.032064247131347656e+01 1.443246364593505859e+01 -4.882086813449859619e-02 2.648005008697509766e+00 7.797552347183227539e-01 -8.800311088562011719e-01
2.770000000000000000e+03 3.057476234436035156e+01 1.260048103332519531e+01 4.084147885441780090e-02 2.639775276184082031e+00 8.041850328445434570e-01 -9.401297569274902344e-01
2.771000000000000000e+03 3.153344917297363281e+01 -1.835122680664062500e+01 5.576565861701965332e-01 2.007098197937011719e+00 7.694264650344848633e-01 1.067476391792297363e+00
2.772000000000000000e+03 6.769207000732421875e+01 -5.502997875213623047e+00 5.635136961936950684e-01 7.289509296417236328e+00 2.355906963348388672e+00 1.350187063217163086e-01
2.773000000000000000e+03 3.005337905883789062e+01 9.784723281860351562e+00 2.096731811761856079e-01 2.197835683822631836e+00 7.222526669502258301e-01 -8.981438875198364258e-01
2.774000000000000000e+03 6.510676574707031250e+01 1.596831560134887695e+00 5.143275856971740723e-01 7.554509162902832031e+00 2.420651197433471680e+00 7.071971297264099121e-01
2.775000000000000000e+03 6.622224426269531250e+01 1.049708008766174316e+00 4.787915050983428955e-01 7.491863727569580078e+00 2.391196727752685547e+00 6.416489481925964355e-01
2.776000000000000000e+03 6.498129272460937500e+01 -1.445220851898193359e+01 4.833691120147705078e-01 7.544239997863769531e+00 2.408282756805419922e+00 -5.708332657814025879e-01
2.777000000000000000e+03 3.176883125305175781e+01 8.004065513610839844e+00 3.687993586063385010e-01 2.564267158508300781e+00 8.799199461936950684e-01 -1.124217152595520020e+00
2.778000000000000000e+03 2.819049263000488281e+01 1.389263153076171875e+01 1.452524680644273758e-02 2.047106266021728516e+00 6.184894442558288574e-01 -7.603564262390136719e-01
2.779000000000000000e+03 3.282035064697265625e+01 -2.079880714416503906e+01 3.930282592773437500e-01 2.830792903900146484e+00 9.671463370323181152e-01 1.255443096160888672e+00
2.780000000000000000e+03 3.397917938232421875e+01 -1.809245681762695312e+01 5.408856868743896484e-01 2.916094541549682617e+00 1.037094116210937500e+00 1.541467189788818359e+00
2.781000000000000000e+03 3.053675651550292969e+01 5.987559795379638672e+00 5.311274528503417969e-01 1.843921899795532227e+00 7.125148177146911621e-01 -8.960355520248413086e-01
2.782000000000000000e+03 6.550020599365234375e+01 6.110894680023193359e+00 2.185689955949783325e-01 7.690201282501220703e+00 2.372631072998046875e+00 8.571465611457824707e-01
2.783000000000000000e+03 6.646498870849609375e+01 6.998688220977783203e+00 1.596720963716506958e-01 7.683442592620849609e+00 2.352934360504150391e+00 8.436276316642761230e-01
2.784000000000000000e+03 6.293726348876953125e+01 -1.685176277160644531e+01 3.857324719429016113e-01 7.726556301116943359e+00 2.433686733245849609e+00 -7.285490036010742188e-01
2.785000000000000000e+03 6.346450805664062500e+01 -2.666137313842773438e+01 -2.684681713581085205e-01 7.850787162780761719e+00 2.274695634841918945e+00 -6.409025192260742188e-01
2.786000000000000000e+03 6.518225097656250000e+01 -2.688250541687011719e+01 -2.339320331811904907e-01 7.806793212890625000e+00 2.271858215332031250e+00 -6.220706701278686523e-01
2.787000000000000000e+03 6.477584075927734375e+01 -2.087094688415527344e+01 5.926682054996490479e-02 7.731348514556884766e+00 2.337184429168701172e+00 -7.261729240417480469e-01
2.788000000000000000e+03 6.064723587036132812e+01 -2.346137809753417969e+01 -1.791802048683166504e-01 7.954148292541503906e+00 2.332490444183349609e+00 -7.364781498908996582e-01
2.789000000000000000e+03 4.537165451049804688e+01 -6.752538204193115234e+00 6.419631481170654297e+00 1.109991455078125000e+01 5.255864143371582031e+00 -2.858791351318359375e-01
2.790000000000000000e+03 4.558099365234375000e+01 -6.272567749023437500e+00 6.155640125274658203e+00 1.087757205963134766e+01 5.109963417053222656e+00 1.959945410490036011e-01
2.791000000000000000e+03 4.068612289428710938e+01 -1.847007393836975098e+00 8.990615010261535645e-01 9.650180816650390625e+00 3.164772748947143555e+00 -3.452733993530273438e+00
2.792000000000000000e+03 4.436991500854492188e+01 -3.245762109756469727e+00 2.648127317428588867e+00 1.276508331298828125e+01 4.623963356018066406e+00 1.210637450218200684e+00
2.793000000000000000e+03 4.502468872070312500e+01 -5.739079475402832031e+00 6.429603099822998047e+00 1.156842231750488281e+01 5.399407386779785156e+00 8.471417427062988281e-01
2.794000000000000000e+03 3.953308486938476562e+01 -1.215145397186279297e+01 7.436520457267761230e-01 6.894938468933105469e+00 2.291577100753784180e+00 3.522148132324218750e+00
2.795000000000000000e+03 4.246506500244140625e+01 -2.319435358047485352e+00 7.198835611343383789e-01 1.273234272003173828e+01 4.035667896270751953e+00 -1.293014049530029297e+00
2.796000000000000000e+03 4.375723648071289062e+01 -1.067324447631835938e+01 1.025226950645446777e+00 1.285493183135986328e+01 4.164047718048095703e+00 -2.434481382369995117e-01
2.797000000000000000e+03 4.340279769897460938e+01 -3.041889667510986328e+00 1.720442771911621094e+00 1.357276153564453125e+01 4.587961196899414062e+00 3.004756867885589600e-01
2.798000000000000000e+03 4.426277542114257812e+01 -1.027849292755126953e+01 1.776318192481994629e+00 1.272850322723388672e+01 4.351446628570556641e+00 -9.323954582214355469e-01
2.799000000000000000e+03 4.378750610351562500e+01 -1.017570877075195312e+01 1.508519649505615234e+00 1.331077861785888672e+01 4.445789337158203125e+00 -6.192819476127624512e-01
2.800000000000000000e+03 3.922322082519531250e+01 -1.031425952911376953e+00 1.311395168304443359e+00 6.440820693969726562e+00 2.325664758682250977e+00 -3.471877813339233398e+00
2.801000000000000000e+03 3.905598449707031250e+01 -1.819498538970947266e+00 1.704922080039978027e+00 5.980067253112792969e+00 2.305496692657470703e+00 -3.758998394012451172e+00
2.802000000000000000e+03 4.121611022949218750e+01 -1.633956909179687500e+00 6.098756790161132812e-01 1.045294952392578125e+01 3.318847417831420898e+00 -2.914651632308959961e+00
2.803000000000000000e+03 4.180635070800781250e+01 -1.955896854400634766e+00 5.229095816612243652e-01 1.174150180816650391e+01 3.679323434829711914e+00 -2.323312759399414062e+00
2.804000000000000000e+03 4.512341690063476562e+01 -9.578337669372558594e+00 3.014681100845336914e+00 1.204144668579101562e+01 4.516838550567626953e+00 -1.496833562850952148e+00
2.805000000000000000e+03 3.775010299682617188e+01 -9.003970623016357422e-01 1.632914543151855469e+00 4.193741321563720703e+00 1.747996687889099121e+00 -2.944748878479003906e+00
2.806000000000000000e+03 3.912628555297851562e+01 -1.301836681365966797e+01 6.560665965080261230e-01 6.230841159820556641e+00 2.066072225570678711e+00 3.192876100540161133e+00
2.807000000000000000e+03 3.960569763183593750e+01 -1.255711269378662109e+01 5.901777148246765137e-01 7.051257133483886719e+00 2.292430400848388672e+00 3.339574098587036133e+00
2.808000000000000000e+03 4.265475082397460938e+01 -1.071525669097900391e+01 4.012665748596191406e-01 1.296984100341796875e+01 4.011332035064697266e+00 1.049365520477294922e+00
2.809000000000000000e+03 4.333105850219726562e+01 -1.065785217285156250e+01 8.063785433769226074e-01 1.304082012176513672e+01 4.154159545898437500e+00 1.538022011518478394e-01
2.810000000000000000e+03 3.796569061279296875e+01 -1.476144981384277344e+01 5.871484279632568359e-01 4.976892471313476562e+00 1.669212341308593750e+00 2.631823778152465820e+00
2.811000000000000000e+03 3.336278533935546875e+01 3.285801887512207031e+00 9.030210971832275391e-01 2.331902980804443359e+00 9.704772233963012695e-01 -1.388680338859558105e+00
2.812000000000000000e+03 3.108498764038085938e+01 6.701162815093994141e+00 4.955805540084838867e-01 2.122343778610229492e+00 7.853773236274719238e-01 -1.020984888076782227e+00
2.813000000000000000e+03 3.794877624511718750e+01 -1.568153572082519531e+01 3.866569101810455322e-01 5.140272140502929688e+00 1.658078670501708984e+00 2.416765928268432617e+00
2.814000000000000000e+03 3.716147994995117188e+01 -1.583965778350830078e+01 5.230783820152282715e-01 4.471086025238037109e+00 1.498249292373657227e+00 2.327001810073852539e+00
2.815000000000000000e+03 3.760043716430664062e+01 -3.087896108627319336e-01 1.457729578018188477e+00 4.245334625244140625e+00 1.710919260978698730e+00 -2.811065673828125000e+00
2.816000000000000000e+03 3.439612579345703125e+01 2.588404655456542969e+00 1.012168049812316895e+00 2.631689310073852539e+00 1.093157291412353516e+00 -1.634118676185607910e+00
2.817000000000000000e+03 3.416737365722656250e+01 3.234843730926513672e+00 9.255539774894714355e-01 2.653003454208374023e+00 1.073567271232604980e+00 -1.562182664871215820e+00
2.818000000000000000e+03 3.521361923217773438e+01 -1.821532440185546875e+01 4.772434234619140625e-01 3.568490505218505859e+00 1.213720202445983887e+00 1.779054641723632812e+00
2.819000000000000000e+03 3.657711029052734375e+01 -1.948375320434570312e+01 1.975666284561157227e-01 4.443331241607666016e+00 1.392269253730773926e+00 1.775510787963867188e+00
2.820000000000000000e+03 6.394197082519531250e+01 -4.226374626159667969e+00 9.008593559265136719e-01 7.456321239471435547e+00 2.507154226303100586e+00 2.894144654273986816e-01
2.821000000000000000e+03 3.347011947631835938e+01 4.177943706512451172e+00 7.914325594902038574e-01 2.558253288269042969e+00 1.004905819892883301e+00 -1.414504528045654297e+00
2.822000000000000000e+03 3.253633499145507812e+01 4.241203308105468750e+00 7.782928943634033203e-01 2.205425500869750977e+00 8.951154947280883789e-01 -1.238411426544189453e+00
2.823000000000000000e+03 6.494495391845703125e+01 -9.929531097412109375e+00 7.334313988685607910e-01 7.427473068237304688e+00 2.448271274566650391e+00 -2.670445144176483154e-01
2.824000000000000000e+03 6.580860137939453125e+01 -3.916411161422729492e+00 6.946887969970703125e-01 7.383062362670898438e+00 2.423325538635253906e+00 2.900326251983642578e-01
2.825000000000000000e+03 6.518461608886718750e+01 -6.806087970733642578e+00 7.857996225357055664e-01 7.392594337463378906e+00 2.453518152236938477e+00 2.636352181434631348e-02
2.826000000000000000e+03 6.444725799560546875e+01 5.540195107460021973e-01 6.221455931663513184e-01 7.548356533050537109e+00 2.451150655746459961e+00 6.644300222396850586e-01
2.827000000000000000e+03 6.497161865234375000e+01 -1.408077716827392578e+00 6.821042895317077637e-01 7.474110603332519531e+00 2.446864366531372070e+00 5.160523653030395508e-01
2.828000000000000000e+03 6.491773986816406250e+01 -3.902280569076538086e+00 7.953384518623352051e-01 7.425296783447265625e+00 2.466190576553344727e+00 3.053358197212219238e-01
2.829000000000000000e+03 6.637895202636718750e+01 -1.325514507293701172e+01 4.866855740547180176e-01 7.437851428985595703e+00 2.377361059188842773e+00 -4.695149660110473633e-01
2.830000000000000000e+03 3.131008529663085938e+01 1.169766521453857422e+01 8.825635910034179688e-02 2.766322374343872070e+00 8.563736081123352051e-01 -1.007746934890747070e+00
2.831000000000000000e+03 2.997307777404785156e+01 1.161194801330566406e+01 1.385640054941177368e-01 2.335279703140258789e+00 7.421531081199645996e-01 -9.342516064643859863e-01
2.832000000000000000e+03 2.985768127441406250e+01 1.769250297546386719e+01 -1.123104616999626160e-01 2.682026863098144531e+00 7.709149122238159180e-01 -7.950439453125000000e-01
2.833000000000000000e+03 2.803254318237304688e+01 1.747255897521972656e+01 -7.669712603092193604e-02 2.186672925949096680e+00 6.329927444458007812e-01 -7.327408790588378906e-01
2.834000000000000000e+03 6.280119323730468750e+01 -2.219384384155273438e+01 -3.901196643710136414e-02 7.845593929290771484e+00 2.341974496841430664e+00 -7.503327727317810059e-01
2.835000000000000000e+03 6.553256225585937500e+01 -1.764091682434082031e+01 2.559186816215515137e-01 7.611601352691650391e+00 2.360255956649780273e+00 -6.735906600952148438e-01
2.836000000000000000e+03 3.019137191772460938e+01 -2.100184059143066406e+01 4.441808164119720459e-01 2.035531997680664062e+00 7.439138293266296387e-01 8.977236747741699219e-01
2.837000000000000000e+03 3.401139831542968750e+01 -2.096027946472167969e+01 3.085922300815582275e-01 3.392097949981689453e+00 1.110207080841064453e+00 1.379285216331481934e+00
2.838000000000000000e+03 6.354531097412109375e+01 4.017380237579345703e+00 4.199675321578979492e-01 7.709819316864013672e+00 2.438935995101928711e+00 8.710256218910217285e-01
2.839000000000000000e+03 2.645223236083984375e+01 -2.449749565124511719e+01 3.277394175529479980e-01 1.585425257682800293e+00 5.739493966102600098e-01 5.211106538772583008e-01
2.840000000000000000e+03 2.681532478332519531e+01 -2.229878234863281250e+01 3.507268130779266357e-01 1.442689776420593262e+00 5.380249619483947754e-01 5.131800174713134766e-01
2.841000000000000000e+03 6.569781494140625000e+01 2.619738817214965820e+00 4.259570837020874023e-01 7.567074298858642578e+00 2.397909402847290039e+00 7.403884530067443848e-01
2.842000000000000000e+03 6.523928833007812500e+01 -1.313150501251220703e+01 5.639917850494384766e-01 7.498064041137695312e+00 2.418616771697998047e+00 -4.969775676727294922e-01
2.843000000000000000e+03 6.388430786132812500e+01 -1.415338420867919922e+01 5.709641575813293457e-01 7.588132381439208984e+00 2.447728872299194336e+00 -5.893855094909667969e-01
2.844000000000000000e+03 5.992311477661132812e+01 -2.543797111511230469e+01 -3.286654651165008545e-01 7.956040382385253906e+00 2.288212537765502930e+00 -6.602016687393188477e-01
2.845000000000000000e+03 6.327698516845703125e+01 -2.046433830261230469e+01 8.375020325183868408e-02 7.795339107513427734e+00 2.363726854324340820e+00 -7.582246661186218262e-01
2.846000000000000000e+03 6.516712188720703125e+01 -1.922265815734863281e+01 1.595323383808135986e-01 7.672581195831298828e+00 2.349634170532226562e+00 -7.101737260818481445e-01
2.847000000000000000e+03 4.547837829589843750e+01 -4.537884235382080078e+00 4.705566883087158203e+00 1.141819000244140625e+01 4.837127208709716797e+00 1.439602971076965332e+00
2.848000000000000000e+03 3.959707641601562500e+01 -1.951784610748291016e+00 1.549311041831970215e+00 7.172112941741943359e+00 2.616427183151245117e+00 -3.900656700134277344e+00
2.849000000000000000e+03 4.208301925659179688e+01 -1.651119828224182129e+00 4.406680464744567871e-01 1.161122608184814453e+01 3.615568161010742188e+00 -1.908964991569519043e+00
2.850000000000000000e+03 4.512043762207031250e+01 -5.448689937591552734e+00 6.056619167327880859e+00 1.153481292724609375e+01 5.277429580688476562e+00 1.042144775390625000e+00
2.851000000000000000e+03 4.577721786499023438e+01 -5.954805850982666016e+00 5.893845081329345703e+00 1.074381637573242188e+01 4.991298198699951172e+00 4.828156232833862305e-01
2.852000000000000000e+03 4.591503143310546875e+01 -7.586584568023681641e+00 5.391847133636474609e+00 1.079874992370605469e+01 4.857179164886474609e+00 -9.695830941200256348e-01
2.853000000000000000e+03 4.411010360717773438e+01 -2.413591384887695312e+00 1.540494441986083984e+00 1.257904624938964844e+01 4.235862255096435547e+00 5.670513510704040527e-01
2.854000000000000000e+03 4.461658859252929688e+01 -3.507138729095458984e+00 3.122826337814331055e+00 1.251932048797607422e+01 4.692644119262695312e+00 1.408270239830017090e+00
2.855000000000000000e+03 4.263582992553710938e+01 -1.183418560028076172e+01 3.780024498701095581e-02 1.163470745086669922e+01 3.501752376556396484e+00 1.382125020027160645e+00
2.856000000000000000e+03 4.296997451782226562e+01 -1.105340290069580078e+01 4.035631418228149414e-01 1.261855411529541016e+01 3.906635284423828125e+00 7.532654404640197754e-01
2.857000000000000000e+03 3.828863525390625000e+01 -2.197928130626678467e-01 1.300209999084472656e+00 5.189738273620605469e+00 1.946984529495239258e+00 -3.045373916625976562e+00
2.858000000000000000e+03 4.580572891235351562e+01 -7.921057701110839844e+00 5.171277046203613281e+00 1.096947479248046875e+01 4.842225551605224609e+00 -1.174607872962951660e+00
2.859000000000000000e+03 4.386814117431640625e+01 -2.772971153259277344e+00 1.785356879234313965e+00 1.303812694549560547e+01 4.447045326232910156e+00 6.024448275566101074e-01
2.860000000000000000e+03 4.267198562622070312e+01 -1.102394199371337891e+01 2.857719361782073975e-01 1.262073135375976562e+01 3.871950864791870117e+00 1.130715608596801758e+00
2.861000000000000000e+03 4.566853332519531250e+01 -7.142999649047851562e+00 5.978971958160400391e+00 1.091662311553955078e+01 5.068678379058837891e+00 -6.461174488067626953e-01
2.862000000000000000e+03 4.423887634277343750e+01 -9.823017120361328125e+00 2.261951923370361328e+00 1.294465065002441406e+01 4.561980724334716797e+00 -1.150779008865356445e+00
2.863000000000000000e+03 4.001197814941406250e+01 -1.240288543701171875e+01 4.694923162460327148e-01 7.756160736083984375e+00 2.467695951461791992e+00 3.314104080200195312e+00
2.864000000000000000e+03 3.864054489135742188e+01 -6.599208712577819824e-01 1.352882385253906250e+00 5.599193096160888672e+00 2.085622549057006836e+00 -3.246921539306640625e+00
2.865000000000000000e+03 4.037898635864257812e+01 -1.227557373046875000e+01 3.598006665706634521e-01 8.468620300292968750e+00 2.648526430130004883e+00 3.233184099197387695e+00
2.866000000000000000e+03 4.331989669799804688e+01 -1.110189914703369141e+01 5.239317417144775391e-01 1.255276298522949219e+01 3.923008441925048828e+00 4.027902185916900635e-01
2.867000000000000000e+03 3.883835220336914062e+01 -1.453601932525634766e+01 4.008392095565795898e-01 5.944290637969970703e+00 1.903538942337036133e+00 2.755576133728027344e+00
2.868000000000000000e+03 3.782281875610351562e+01 1.313169151544570923e-01 1.290031909942626953e+00 4.668314456939697266e+00 1.787503957748413086e+00 -2.821472406387329102e+00
2.869000000000000000e+03 3.821808624267578125e+01 -1.685572242736816406e+01 2.323512583971023560e-01 5.380831241607666016e+00 1.683954715728759766e+00 2.267266035079956055e+00
2.870000000000000000e+03 3.845789718627929688e+01 -1.615841674804687500e+01 2.661356329917907715e-01 5.551234722137451172e+00 1.745211124420166016e+00 2.387596845626831055e+00
2.871000000000000000e+03 3.673342895507812500e+01 1.229663252830505371e+00 1.147550344467163086e+00 3.871461868286132812e+00 1.505703687667846680e+00 -2.341798067092895508e+00
2.872000000000000000e+03 3.508661270141601562e+01 3.772697448730468750e+00 8.071109652519226074e-01 3.326088190078735352e+00 1.239959716796875000e+00 -1.769752621650695801e+00
2.873000000000000000e+03 3.484509658813476562e+01 3.088003158569335938e+00 9.301511645317077637e-01 3.042551994323730469e+00 1.191810965538024902e+00 -1.754095554351806641e+00
2.874000000000000000e+03 3.144450950622558594e+01 5.951232433319091797e+00 5.889911055564880371e-01 2.122773885726928711e+00 8.135295510292053223e-01 -1.077759623527526855e+00
2.875000000000000000e+03 6.271157073974609375e+01 -7.975460529327392578e+00 1.026140213012695312e+00 7.494362831115722656e+00 2.556150913238525391e+00 -9.664676338434219360e-02
2.876000000000000000e+03 6.443797302246093750e+01 -8.794545173645019531e+00 8.254314661026000977e-01 7.433662891387939453e+00 2.477728366851806641e+00 -1.562909036874771118e-01
2.877000000000000000e+03 3.744939422607421875e+01 -1.800964736938476562e+01 2.213919460773468018e-01 4.874780654907226562e+00 1.528851866722106934e+00 2.011108398437500000e+00
2.878000000000000000e+03 3.636096954345703125e+01 -1.817712593078613281e+01 3.547969162464141846e-01 4.242915153503417969e+00 1.379313588142395020e+00 1.938278555870056152e+00
2.879000000000000000e+03 3.367364883422851562e+01 5.134630680084228516e+00 6.646810173988342285e-01 2.827108860015869141e+00 1.047536969184875488e+00 -1.435238957405090332e+00
2.880000000000000000e+03 3.260913848876953125e+01 5.221374034881591797e+00 6.640453338623046875e-01 2.430804491043090820e+00 9.284549355506896973e-01 -1.264811873435974121e+00
2.881000000000000000e+03 3.166767692565917969e+01 1.766379547119140625e+01 -1.602406799793243408e-01 3.155802726745605469e+00 8.986686468124389648e-01 -8.629479408264160156e-01
2.882000000000000000e+03 6.341217422485351562e+01 5.083719640970230103e-02 7.171969413757324219e-01 7.581960201263427734e+00 2.489747047424316406e+00 6.677311062812805176e-01
2.883000000000000000e+03 6.423302459716796875e+01 -1.183533477783203125e+01 7.123788595199584961e-01 7.500597953796386719e+00 2.463892936706542969e+00 -4.344047009944915771e-01
2.884000000000000000e+03 6.401483917236328125e+01 -7.459650039672851562e+00 9.046524763107299805e-01 7.438159942626953125e+00 2.502843856811523438e+00 -3.784835338592529297e-02
2.885000000000000000e+03 6.629828643798828125e+01 -6.496361732482910156e+00 6.864957213401794434e-01 7.342528343200683594e+00 2.408707141876220703e+00 6.582688540220260620e-02
2.886000000000000000e+03 6.361706924438476562e+01 -2.812067508697509766e+00 8.693668246269226074e-01 7.496286869049072266e+00 2.509696245193481445e+00 4.292058646678924561e-01
2.887000000000000000e+03 6.219888687133789062e+01 -6.575313091278076172e+00 1.090759158134460449e+00 7.509930610656738281e+00 2.580206871032714844e+00 4.704583063721656799e-02
2.888000000000000000e+03 3.205847167968750000e+01 7.088314056396484375e+00 4.417211711406707764e-01 2.538743495941162109e+00 8.941394090652465820e-01 -1.161619186401367188e+00
2.889000000000000000e+03 3.273653030395507812e+01 8.195044517517089844e+00 3.368473947048187256e-01 2.890510559082031250e+00 9.682073593139648438e-01 -1.221556425094604492e+00
2.890000000000000000e+03 6.103352737426757812e+01 -1.769918251037597656e+01 3.432509601116180420e-01 7.866032600402832031e+00 2.462785005569458008e+00 -7.999147176742553711e-01
2.891000000000000000e+03 6.275767517089843750e+01 2.864745378494262695e+00 5.442808270454406738e-01 7.706568717956542969e+00 2.475254774093627930e+00 8.474864959716796875e-01
2.892000000000000000e+03 3.153186988830566406e+01 1.372865104675292969e+01 -3.409590199589729309e-02 2.925566434860229492e+00 8.674411177635192871e-01 -9.581283330917358398e-01
2.893000000000000000e+03 2.917491149902343750e+01 1.502896690368652344e+01 -3.967727720737457275e-02 2.380903720855712891e+00 7.023679614067077637e-01 -8.227760791778564453e-01
2.894000000000000000e+03 6.686630249023437500e+01 8.800528526306152344e+00 7.416521012783050537e-02 7.723219394683837891e+00 2.339215517044067383e+00 8.461343646049499512e-01
2.895000000000000000e+03 3.541533660888671875e+01 -2.118917465209960938e+01 1.860984265804290771e-01 3.993587732315063477e+00 1.253905892372131348e+00 1.513525724411010742e+00
2.896000000000000000e+03 3.025323295593261719e+01 -2.273466300964355469e+01 3.653100132942199707e-01 2.273160696029663086e+00 7.915412187576293945e-01 8.985415101051330566e-01
2.897000000000000000e+03 6.123406982421875000e+01 -2.164748954772949219e+01 -1.949081942439079285e-02 7.915179252624511719e+00 2.368706464767456055e+00 -7.780575752258300781e-01
2.898000000000000000e+03 3.303833007812500000e+01 -2.616341209411621094e+01 1.010684221982955933e-01 3.423078775405883789e+00 1.057244181632995605e+00 1.001501321792602539e+00
2.899000000000000000e+03 5.903360366821289062e+01 -2.264798736572265625e+01 -1.784802079200744629e-01 8.024593353271484375e+00 2.353833913803100586e+00 -7.453852295875549316e-01
2.900000000000000000e+03 4.461651229858398438e+01 -2.950579881668090820e+00 2.419369459152221680e+00 1.240091419219970703e+01 4.446084976196289062e+00 1.149823307991027832e+00
2.901000000000000000e+03 4.549994277954101562e+01 -9.264443397521972656e+00 3.558327913284301758e+00 1.160938072204589844e+01 4.550312519073486328e+00 -1.560771107673645020e+00
2.902000000000000000e+03 4.570697402954101562e+01 -8.284729003906250000e+00 4.800949096679687500e+00 1.115207481384277344e+01 4.785907268524169922e+00 -1.363881826400756836e+00
2.903000000000000000e+03 4.081785202026367188e+01 -1.230399322509765625e+01 2.144695967435836792e-01 9.117512702941894531e+00 2.799594879150390625e+00 2.983577728271484375e+00
2.904000000000000000e+03 4.423685836791992188e+01 -1.078606033325195312e+01 1.244034647941589355e+00 1.243669319152832031e+01 4.104218482971191406e+00 -5.888864994049072266e-01
2.905000000000000000e+03 4.626384353637695312e+01 -7.689718723297119141e+00 5.105572223663330078e+00 1.054508686065673828e+01 4.695197582244873047e+00 -9.258520603179931641e-01
2.906000000000000000e+03 4.521294784545898438e+01 -5.154623508453369141e+00 5.650119781494140625e+00 1.149452495574951172e+01 5.143393516540527344e+00 1.225103020668029785e+00
2.907000000000000000e+03 4.519780731201171875e+01 -8.929417610168457031e+00 3.977497100830078125e+00 1.191354084014892578e+01 4.767311573028564453e+00 -1.628767728805541992e+00
2.908000000000000000e+03 4.416151428222656250e+01 -1.129661464691162109e+01 7.965756654739379883e-01 1.213405418395996094e+01 3.879189014434814453e+00 -2.482150346040725708e-01
2.909000000000000000e+03 4.160763549804687500e+01 -1.662040233612060547e+00 4.966686367988586426e-01 1.108096218109130859e+01 3.473289251327514648e+00 -2.503040552139282227e+00
2.910000000000000000e+03 4.129901123046875000e+01 -1.242568016052246094e+01 4.538039118051528931e-02 9.675294876098632812e+00 2.916202545166015625e+00 2.584197044372558594e+00
2.911000000000000000e+03 4.262007522583007812e+01 -1.245515727996826172e+01 -1.058746799826622009e-01 1.093866825103759766e+01 3.249837875366210938e+00 1.445818662643432617e+00
2.912000000000000000e+03 4.577219390869140625e+01 -6.807280063629150391e+00 6.044056415557861328e+00 1.075796699523925781e+01 5.040606975555419922e+00 -3.063580393791198730e-01
2.913000000000000000e+03 4.089952850341796875e+01 -1.384317636489868164e+00 6.723095178604125977e-01 9.687686920166015625e+00 3.107999086380004883e+00 -3.076446771621704102e+00
2.914000000000000000e+03 3.963553237915039062e+01 -1.304475116729736328e+01 4.694662988185882568e-01 7.098518371582031250e+00 2.270395517349243164e+00 3.186605930328369141e+00
2.915000000000000000e+03 4.196664047241210938e+01 -1.232761764526367188e+01 -7.883248478174209595e-02 1.056202030181884766e+01 3.144956350326538086e+00 2.082194089889526367e+00
2.916000000000000000e+03 4.298275375366210938e+01 -1.163074970245361328e+01 1.849893629550933838e-01 1.199047565460205078e+01 3.652639627456665039e+00 9.413465857505798340e-01
2.917000000000000000e+03 3.939925384521484375e+01 -1.527870178222656250e+00 1.433397769927978516e+00 6.745628356933593750e+00 2.453707695007324219e+00 -3.686498165130615234e+00
2.918000000000000000e+03 3.993235397338867188e+01 -1.744760394096374512e+00 1.267147898674011230e+00 7.920398712158203125e+00 2.756263971328735352e+00 -3.758833408355712891e+00
2.919000000000000000e+03 3.854429244995117188e+01 2.391061037778854370e-01 1.100888967514038086e+00 5.611552715301513672e+00 2.013732433319091797e+00 -2.975088834762573242e+00
2.920000000000000000e+03 4.148986434936523438e+01 -1.195807170867919922e+01 6.315522640943527222e-02 1.034078693389892578e+01 3.121182680130004883e+00 2.562492609024047852e+00
2.921000000000000000e+03 3.959857177734375000e+01 -1.355481910705566406e+01 3.581546545028686523e-01 6.908719062805175781e+00 2.180062055587768555e+00 2.951375484466552734e+00
2.922000000000000000e+03 3.913136672973632812e+01 -1.346599674224853516e+01 5.415070056915283203e-01 6.317341804504394531e+00 2.057654619216918945e+00 3.048510551452636719e+00
2.923000000000000000e+03 3.644074249267578125e+01 1.682881712913513184e+00 1.068662643432617188e+00 3.758430719375610352e+00 1.448127985000610352e+00 -2.226899623870849609e+00
2.924000000000000000e+03 3.580020904541015625e+01 3.488775014877319336e+00 8.052199482917785645e-01 3.691220283508300781e+00 1.348932147026062012e+00 -1.912219762802124023e+00
2.925000000000000000e+03 3.850067520141601562e+01 -1.513779544830322266e+01 3.675590455532073975e-01 5.625461101531982422e+00 1.797906041145324707e+00 2.598693370819091797e+00
2.926000000000000000e+03 3.763193130493164062e+01 9.860635399818420410e-01 1.088301181793212891e+00 4.627150535583496094e+00 1.714635491371154785e+00 -2.610943555831909180e+00
2.927000000000000000e+03 3.682996368408203125e+01 2.119746923446655273e+00 9.371182322502136230e-01 4.150562763214111328e+00 1.526304364204406738e+00 -2.251998901367187500e+00
2.928000000000000000e+03 3.839026641845703125e+01 9.756209850311279297e-01 9.194690585136413574e-01 5.475349426269531250e+00 1.918445587158203125e+00 -2.754730463027954102e+00
2.929000000000000000e+03 3.459829330444335938e+01 4.822637081146240234e+00 6.698898673057556152e-01 3.253720998764038086e+00 1.177083253860473633e+00 -1.619552612304687500e+00
2.930000000000000000e+03 4.080817794799804688e+01 -1.765560531616210938e+01 -3.059348165988922119e-01 7.159864902496337891e+00 2.056179046630859375e+00 1.806522965431213379e+00
2.931000000000000000e+03 3.778393936157226562e+01 -1.923192405700683594e+01 6.032097339630126953e-02 5.117345333099365234e+00 1.553299903869628906e+00 1.849515914916992188e+00
2.932000000000000000e+03 3.292245101928710938e+01 7.438900947570800781e+00 4.111546277999877930e-01 2.854963779449462891e+00 9.798355102539062500e-01 -1.264044880867004395e+00
2.933000000000000000e+03 3.691597747802734375e+01 -2.099979972839355469e+01 3.471347317099571228e-02 4.705504417419433594e+00 1.422065377235412598e+00 1.607809543609619141e+00
2.934000000000000000e+03 6.348323059082031250e+01 1.169567465782165527e+00 6.359835267066955566e-01 7.622739315032958984e+00 2.477616786956787109e+00 7.492771148681640625e-01
2.935000000000000000e+03 6.399022293090820312e+01 2.215555191040039062e+00 5.354550480842590332e-01 7.632518291473388672e+00 2.450392007827758789e+00 7.790807485580444336e-01
2.936000000000000000e+03 6.353369522094726562e+01 -1.313057541847229004e+00 7.928811311721801758e-01 7.537855625152587891e+00 2.499220848083496094e+00 5.627380013465881348e-01
2.937000000000000000e+03 6.061771392822265625e+01 -1.156286716461181641e+00 1.050229668617248535e+00 7.683853626251220703e+00 2.620224952697753906e+00 6.650506854057312012e-01
2.938000000000000000e+03 6.339743804931640625e+01 -1.255789184570312500e+01 7.213891744613647461e-01 7.565377235412597656e+00 2.486029863357543945e+00 -5.065369009971618652e-01
2.939000000000000000e+03 6.379724884033203125e+01 -1.059491825103759766e+01 7.921557426452636719e-01 7.495601654052734375e+00 2.486327171325683594e+00 -3.498182594776153564e-01
2.940000000000000000e+03 6.454058837890625000e+01 -5.523016929626464844e+00 8.530694842338562012e-01 7.418837070465087891e+00 2.481571912765502930e+00 1.482126116752624512e-01
2.941000000000000000e+03 6.285769271850585938e+01 -4.637248992919921875e+00 1.014322519302368164e+00 7.491476058959960938e+00 2.551739692687988281e+00 2.523654401302337646e-01
2.942000000000000000e+03 6.175168609619140625e+01 -5.105276584625244141e+00 1.135157823562622070e+00 7.535838127136230469e+00 2.601298809051513672e+00 2.127423137426376343e-01
2.943000000000000000e+03 3.416748046875000000e+01 6.085206031799316406e+00 5.221381187438964844e-01 3.196611166000366211e+00 1.115624785423278809e+00 -1.471912860870361328e+00
2.944000000000000000e+03 3.432052230834960938e+01 4.013304233551025391e+00 7.985963225364685059e-01 2.917028427124023438e+00 1.114687442779541016e+00 -1.586967229843139648e+00
2.945000000000000000e+03 3.156623268127441406e+01 1.039966392517089844e+01 1.718807369470596313e-01 2.742297410964965820e+00 8.742534518241882324e-01 -1.065700411796569824e+00
2.946000000000000000e+03 6.288763427734375000e+01 -1.372207355499267578e+01 6.583404541015625000e-01 7.631279468536376953e+00 2.486886024475097656e+00 -5.995270609855651855e-01
2.947000000000000000e+03 6.344981002807617188e+01 -1.545420932769775391e+01 4.805622100830078125e-01 7.656342506408691406e+00 2.441071510314941406e+00 -6.656082272529602051e-01
2.948000000000000000e+03 6.346220779418945312e+01 6.042677879333496094e+00 2.559566199779510498e-01 7.768776893615722656e+00 2.407420158386230469e+00 9.114324450492858887e-01
2.949000000000000000e+03 6.448874664306640625e+01 5.109091281890869141e+00 3.011014461517333984e-01 7.701302051544189453e+00 2.400721073150634766e+00 8.675974011421203613e-01
2.950000000000000000e+03 6.420861053466796875e+01 -1.730041694641113281e+01 3.095197379589080811e-01 7.670476436614990234e+00 2.393998861312866211e+00 -7.048572897911071777e-01
2.951000000000000000e+03 3.286407852172851562e+01 9.175872802734375000e+00 2.446833848953247070e-01 3.027026176452636719e+00 9.815128445625305176e-01 -1.206697702407836914e+00
2.952000000000000000e+03 6.022224426269531250e+01 9.079019546508789062e+00 1.698126643896102905e-02 7.947756290435791016e+00 2.389421224594116211e+00 9.575137495994567871e-01
2.953000000000000000e+03 6.481694030761718750e+01 9.454001426696777344e+00 3.479137271642684937e-02 7.801855564117431641e+00 2.350994110107421875e+00 8.976352214813232422e-01
2.954000000000000000e+03 4.173330307006835938e+01 -6.964740157127380371e-01 2.920992374420166016e-01 1.030015850067138672e+01 3.177677392959594727e+00 -2.180747270584106445e+00
2.955000000000000000e+03 4.619393157958984375e+01 -6.139936923980712891e+00 5.595186233520507812e+00 1.044059658050537109e+01 4.810734748840332031e+00 2.892413437366485596e-01
2.956000000000000000e+03 4.613628387451171875e+01 -8.356110572814941406e+00 4.587751865386962891e+00 1.081312179565429688e+01 4.620262145996093750e+00 -1.274871706962585449e+00
2.957000000000000000e+03 4.586404037475585938e+01 -8.946993827819824219e+00 3.977389574050903320e+00 1.118329620361328125e+01 4.548205852508544922e+00 -1.492428421974182129e+00
2.958000000000000000e+03 4.259810256958007812e+01 -1.730248808860778809e+00 5.230958461761474609e-01 1.204224395751953125e+01 3.769602060317993164e+00 -1.265824317932128906e+00
2.959000000000000000e+03 4.561892318725585938e+01 -4.198802947998046875e+00 4.255194187164306641e+00 1.136241817474365234e+01 4.685283660888671875e+00 1.481891155242919922e+00
2.960000000000000000e+03 4.522089004516601562e+01 -3.583767890930175781e+00 3.379514932632446289e+00 1.181982421875000000e+01 4.559801578521728516e+00 1.454231739044189453e+00
2.961000000000000000e+03 4.382959365844726562e+01 -2.221952915191650391e+00 1.254805445671081543e+00 1.251384639739990234e+01 4.130595207214355469e+00 2.445531338453292847e-01
2.962000000000000000e+03 3.906284713745117188e+01 -4.707537889480590820e-01 1.162428736686706543e+00 6.215013980865478516e+00 2.213232755661010742e+00 -3.232601642608642578e+00
2.963000000000000000e+03 4.372615051269531250e+01 -1.114874267578125000e+01 6.889011859893798828e-01 1.239325809478759766e+01 3.924647808074951172e+00 3.897298127412796021e-02
2.964000000000000000e+03 4.478191757202148438e+01 -1.032853412628173828e+01 1.997389674186706543e+00 1.220868968963623047e+01 4.261824131011962891e+00 -1.118828058242797852e+00
2.965000000000000000e+03 4.027005004882812500e+01 -1.580542922019958496e+00 1.019716620445251465e+00 8.614461898803710938e+00 2.890253543853759766e+00 -3.560663223266601562e+00
2.966000000000000000e+03 3.978279876708984375e+01 -1.316019177436828613e+00 1.164806008338928223e+00 7.528112411499023438e+00 2.607875585556030273e+00 -3.563358545303344727e+00
2.967000000000000000e+03 4.227664947509765625e+01 -1.203569793701171875e+01 -3.274514153599739075e-02 1.108982563018798828e+01 3.317124128341674805e+00 1.792360067367553711e+00
2.968000000000000000e+03 4.289375305175781250e+01 -1.219106769561767578e+01 -2.268259972333908081e-02 1.137386512756347656e+01 3.405354738235473633e+00 1.171048045158386230e+00
2.969000000000000000e+03 4.077526473999023438e+01 -1.283897876739501953e+01 1.109717860817909241e-01 8.662196159362792969e+00 2.631950378417968750e+00 2.784425497055053711e+00
2.970000000000000000e+03 4.486341476440429688e+01 -2.666807413101196289e+00 2.192142248153686523e+00 1.201391601562500000e+01 4.261817455291748047e+00 1.102403759956359863e+00
2.971000000000000000e+03 3.954494094848632812e+01 -1.408660507202148438e+01 2.996890246868133545e-01 6.696361064910888672e+00 2.098814964294433594e+00 2.802543163299560547e+00
2.972000000000000000e+03 3.899880981445312500e+01 -1.395006179809570312e+01 4.551012814044952393e-01 6.173207759857177734e+00 1.988492727279663086e+00 2.924531459808349609e+00
2.973000000000000000e+03 3.651079940795898438e+01 3.221549272537231445e+00 7.741122245788574219e-01 4.149084568023681641e+00 1.476958990097045898e+00 -2.069180488586425781e+00
2.974000000000000000e+03 3.897647476196289062e+01 -1.666946220397949219e+01 8.669000118970870972e-02 6.025324821472167969e+00 1.833604454994201660e+00 2.253698348999023438e+00
2.975000000000000000e+03 3.961469650268554688e+01 -1.621534347534179688e+01 -3.845840110443532467e-04 6.559375762939453125e+00 1.967697381973266602e+00 2.275970697402954102e+00
2.976000000000000000e+03 3.342546463012695312e+01 6.712106227874755859e+00 4.800889194011688232e-01 2.960905551910400391e+00 1.032298326492309570e+00 -1.358708739280700684e+00
2.977000000000000000e+03 3.483201217651367188e+01 8.397363662719726562e+00 2.089977115392684937e-01 3.793458938598632812e+00 1.200736999511718750e+00 -1.415889263153076172e+00
2.978000000000000000e+03 3.906877517700195312e+01 -1.562236499786376953e+01 1.893292516469955444e-01 6.127097129821777344e+00 1.894927859306335449e+00 2.488550901412963867e+00
2.979000000000000000e+03 3.965005493164062500e+01 -1.519423770904541016e+01 1.031901538372039795e-01 6.720261096954345703e+00 2.047035455703735352e+00 2.520838975906372070e+00
2.980000000000000000e+03 3.803171157836914062e+01 2.884371995925903320e+00 5.961636304855346680e-01 5.271703243255615234e+00 1.760360002517700195e+00 -2.305471181869506836e+00
2.981000000000000000e+03 3.722867202758789062e+01 1.519697308540344238e+00 1.028721213340759277e+00 4.378589153289794922e+00 1.622193098068237305e+00 -2.448168039321899414e+00
2.982000000000000000e+03 3.939156341552734375e+01 -1.740889358520507812e+01 -5.328615754842758179e-02 6.264594554901123047e+00 1.863392591476440430e+00 2.089577913284301758e+00
2.983000000000000000e+03 3.673828887939453125e+01 3.902357816696166992e+00 6.147719025611877441e-01 4.444259643554687500e+00 1.517709374427795410e+00 -2.006798505783081055e+00
2.984000000000000000e+03 3.503295898437500000e+01 5.637597560882568359e+00 5.299176573753356934e-01 3.563789844512939453e+00 1.228112220764160156e+00 -1.626285195350646973e+00
2.985000000000000000e+03 3.245262527465820312e+01 6.198769569396972656e+00 5.572942495346069336e-01 2.518323421478271484e+00 9.226852655410766602e-01 -1.224326848983764648e+00
2.986000000000000000e+03 5.938011932373046875e+01 -1.070483207702636719e+01 1.227351665496826172e+00 7.738255023956298828e+00 2.689682006835937500e+00 -4.810802936553955078e-01
2.987000000000000000e+03 6.257088851928710938e+01 -1.207853126525878906e+01 8.086300492286682129e-01 7.593064308166503906e+00 2.520508289337158203e+00 -4.989833533763885498e-01
2.988000000000000000e+03 6.339934539794921875e+01 -6.071653842926025391e+00 9.623807072639465332e-01 7.464881420135498047e+00 2.528178691864013672e+00 9.918797761201858521e-02
2.989000000000000000e+03 6.121574401855468750e+01 -3.626956939697265625e+00 1.154802560806274414e+00 7.588165283203125000e+00 2.622890233993530273e+00 4.068005979061126709e-01
2.990000000000000000e+03 6.204871749877929688e+01 1.944137662649154663e-01 8.021481037139892578e-01 7.657758712768554688e+00 2.537971973419189453e+00 7.324352860450744629e-01
2.991000000000000000e+03 5.943727493286132812e+01 -4.406177997589111328e+00 1.415545821189880371e+00 7.657709121704101562e+00 2.721976518630981445e+00 3.383184373378753662e-01
2.992000000000000000e+03 6.109530639648437500e+01 -1.061286449432373047e+01 1.043463945388793945e+00 7.631249904632568359e+00 2.602414131164550781e+00 -4.152937829494476318e-01
2.993000000000000000e+03 6.205767059326171875e+01 -1.386217832565307617e+00 9.405199289321899414e-01 7.605789661407470703e+00 2.563892841339111328e+00 6.012563705444335938e-01
2.994000000000000000e+03 3.265946960449218750e+01 1.281078052520751953e+01 -9.570063091814517975e-03 3.232999086380004883e+00 9.670286774635314941e-01 -1.071167349815368652e+00
2.995000000000000000e+03 6.423139953613281250e+01 -1.296924018859863281e+01 6.184135675430297852e-01 7.536583423614501953e+00 2.446499109268188477e+00 -5.094704031944274902e-01
2.996000000000000000e+03 3.578296279907226562e+01 -2.308931732177734375e+01 3.455545753240585327e-02 4.273749828338623047e+00 1.292491674423217773e+00 1.347712755203247070e+00
2.997000000000000000e+03 3.826891326904296875e+01 -2.061147880554199219e+01 -1.007714346051216125e-01 5.364577770233154297e+00 1.579141855239868164e+00 1.667937636375427246e+00
2.998000000000000000e+03 6.133446121215820312e+01 -1.431808471679687500e+01 6.874659657478332520e-01 7.738115310668945312e+00 2.527674436569213867e+00 -6.831511259078979492e-01
2.999000000000000000e+03 6.235438537597656250e+01 -1.495213222503662109e+01 5.765718221664428711e-01 7.700552940368652344e+00 2.483137369155883789e+00 -6.792774796485900879e-01
3.000000000000000000e+03 6.236083221435546875e+01 -1.834639167785644531e+01 2.543340623378753662e-01 7.802267551422119141e+00 2.416980504989624023e+00 -7.736923098564147949e-01
3.001000000000000000e+03 6.241771316528320312e+01 4.890681743621826172e+00 3.598157763481140137e-01 7.787619113922119141e+00 2.444230556488037109e+00 9.194906949996948242e-01
3.002000000000000000e+03 3.327984619140625000e+01 -2.203727531433105469e+01 2.940761744976043701e-01 3.229467868804931641e+00 1.057063221931457520e+00 1.263355255126953125e+00
3.003000000000000000e+03 5.965078353881835938e+01 -2.101731872558593750e+01 1.058630924671888351e-02 8.000024795532226562e+00 2.403183221817016602e+00 -8.026263713836669922e-01
3.004000000000000000e+03 5.456818389892578125e+01 -2.210169792175292969e+01 -3.184643387794494629e-01 8.222291946411132812e+00 2.371148109436035156e+00 -6.427798867225646973e-01
3.005000000000000000e+03 3.109704589843750000e+01 1.585499286651611328e+01 -1.032626479864120483e-01 2.936119079589843750e+00 8.498569130897521973e-01 -8.891244530677795410e-01
3.006000000000000000e+03 3.165985870361328125e+01 1.973681640625000000e+01 -1.992292255163192749e-01 3.199354410171508789e+00 9.000375866889953613e-01 -7.983546853065490723e-01
3.007000000000000000e+03 4.586639404296875000e+01 -5.620358943939208984e+00 5.635695934295654297e+00 1.075484275817871094e+01 4.917161941528320312e+00 7.412805557250976562e-01
3.008000000000000000e+03 4.547018051147460938e+01 -5.545488834381103516e+00 5.897431850433349609e+00 1.114305019378662109e+01 5.112144470214843750e+00 8.981535434722900391e-01
3.009000000000000000e+03 4.053546524047851562e+01 -1.033812642097473145e+00 7.250667214393615723e-01 8.849944114685058594e+00 2.872503280639648438e+00 -3.174030065536499023e+00
3.010000000000000000e+03 3.876905822753906250e+01 1.204790353775024414e+00 7.596521973609924316e-01 5.941162109375000000e+00 2.010244369506835938e+00 -2.723257064819335938e+00
3.011000000000000000e+03 4.640761566162109375e+01 -7.426544189453125000e+00 5.194876670837402344e+00 1.035077857971191406e+01 4.663696289062500000e+00 -7.249491810798645020e-01
3.012000000000000000e+03 4.594271469116210938e+01 -6.470298290252685547e+00 5.873937129974365234e+00 1.061192989349365234e+01 4.945760250091552734e+00 2.338900603353977203e-02
3.013000000000000000e+03 4.487081909179687500e+01 -3.182228803634643555e+00 2.827614784240722656e+00 1.218605136871337891e+01 4.504099845886230469e+00 1.332920789718627930e+00
3.014000000000000000e+03 3.964393615722656250e+01 -8.459370136260986328e-01 1.058433294296264648e+00 7.201749801635742188e+00 2.478055000305175781e+00 -3.380438804626464844e+00
3.015000000000000000e+03 4.583663177490234375e+01 -9.587231636047363281e+00 3.224033832550048828e+00 1.131840705871582031e+01 4.362732410430908203e+00 -1.499334573745727539e+00
3.016000000000000000e+03 4.237984848022460938e+01 -1.336707472801208496e+00 3.781776726245880127e-01 1.150183391571044922e+01 3.564003467559814453e+00 -1.565095067024230957e+00
3.017000000000000000e+03 3.944425201416015625e+01 1.410734653472900391e-01 8.479875922203063965e-01 6.794925212860107422e+00 2.292873859405517578e+00 -3.036971330642700195e+00
3.018000000000000000e+03 4.332262039184570312e+01 -1.148915481567382812e+01 3.430899977684020996e-01 1.219121742248535156e+01 3.760292053222656250e+00 5.643044710159301758e-01
3.019000000000000000e+03 4.399565124511718750e+01 -1.173218154907226562e+01 5.054997205734252930e-01 1.185420608520507812e+01 3.707911729812622070e+00 5.808077752590179443e-02
3.020000000000000000e+03 4.474255752563476562e+01 -1.091489028930664062e+01 1.412991881370544434e+00 1.198153114318847656e+01 4.018356800079345703e+00 -8.227388858795166016e-01
3.021000000000000000e+03 4.606058502197265625e+01 -7.261613845825195312e+00 5.553666114807128906e+00 1.057867145538330078e+01 4.839701175689697266e+00 -6.598561406135559082e-01
3.022000000000000000e+03 4.564422607421875000e+01 -3.859821796417236328e+00 3.838123083114624023e+00 1.138772392272949219e+01 4.567753791809082031e+00 1.490803837776184082e+00
3.023000000000000000e+03 4.122385025024414062e+01 -1.292097473144531250e+01 -1.678433828055858612e-02 9.220062255859375000e+00 2.760983467102050781e+00 2.517240762710571289e+00
3.024000000000000000e+03 4.464053726196289062e+01 -2.380746126174926758e+00 1.820517420768737793e+00 1.212794494628906250e+01 4.184538841247558594e+00 8.964563012123107910e-01
3.025000000000000000e+03 4.521860122680664062e+01 -3.207763433456420898e+00 2.932607412338256836e+00 1.182526206970214844e+01 4.427360534667968750e+00 1.377271294593811035e+00
3.026000000000000000e+03 4.499876022338867188e+01 -4.033354282379150391e+00 3.980235338211059570e+00 1.207349300384521484e+01 4.816118717193603516e+00 1.555903434753417969e+00
3.027000000000000000e+03 4.214526748657226562e+01 -1.365408039093017578e+01 -2.449785023927688599e-01 9.719932556152343750e+00 2.842486143112182617e+00 1.826353192329406738e+00
3.028000000000000000e+03 4.237421417236328125e+01 -1.280444717407226562e+01 -1.529635190963745117e-01 1.048305034637451172e+01 3.099026203155517578e+00 1.660262107849121094e+00
3.029000000000000000e+03 4.012694549560546875e+01 -1.315751171112060547e+01 2.668613791465759277e-01 7.735401630401611328e+00 2.400678873062133789e+00 2.993667602539062500e+00
3.030000000000000000e+03 4.360284805297851562e+01 -2.000420331954956055e+00 1.002309560775756836e+00 1.241206645965576172e+01 4.024312973022460938e+00 -7.467561960220336914e-02
3.031000000000000000e+03 4.006021499633789062e+01 -1.361303234100341797e+01 2.135436832904815674e-01 7.469547271728515625e+00 2.304927349090576172e+00 2.867304563522338867e+00
3.032000000000000000e+03 4.319347000122070312e+01 -1.197603321075439453e+01 1.318018436431884766e-01 1.166203594207763672e+01 3.538151264190673828e+00 8.345707654953002930e-01
3.033000000000000000e+03 3.809045791625976562e+01 5.774711370468139648e-01 1.118504405021667480e+00 5.050412178039550781e+00 1.850674986839294434e+00 -2.800702810287475586e+00
3.034000000000000000e+03 3.945565032958984375e+01 -1.465508747100830078e+01 2.301388084888458252e-01 6.561729907989501953e+00 2.037560701370239258e+00 2.679330825805664062e+00
3.035000000000000000e+03 3.992653274536132812e+01 -1.830654335021972656e+01 -2.056875824928283691e-01 6.476177215576171875e+00 1.881146907806396484e+00 1.864128947257995605e+00
3.036000000000000000e+03 3.718641662597656250e+01 3.135957241058349609e+00 7.052282691001892090e-01 4.597390651702880859e+00 1.590785622596740723e+00 -2.193045377731323242e+00
3.037000000000000000e+03 3.624983596801757812e+01 2.554516077041625977e+00 9.177632927894592285e-01 3.851690053939819336e+00 1.430835962295532227e+00 -2.105889081954956055e+00
3.038000000000000000e+03 3.807107543945312500e+01 1.405378460884094238e+00 9.009864330291748047e-01 5.175128936767578125e+00 1.822834610939025879e+00 -2.607173204421997070e+00
3.039000000000000000e+03 3.874682998657226562e+01 7.295344471931457520e-01 8.968911767005920410e-01 5.909420967102050781e+00 2.041893720626831055e+00 -2.837591171264648438e+00
3.040000000000000000e+03 3.488616561889648438e+01 6.957489013671875000e+00 3.642814755439758301e-01 3.669414520263671875e+00 1.210108757019042969e+00 -1.512922286987304688e+00
3.041000000000000000e+03 3.539493942260742188e+01 4.493842601776123047e+00 6.715526580810546875e-01 3.606222391128540039e+00 1.283332586288452148e+00 -1.775140643119812012e+00
3.042000000000000000e+03 3.551120758056640625e+01 9.357582092285156250e+00 7.000320404767990112e-02 4.136926174163818359e+00 1.262078762054443359e+00 -1.390540122985839844e+00
3.043000000000000000e+03 3.890671157836914062e+01 -1.884033966064453125e+01 -7.668438553810119629e-02 5.794921875000000000e+00 1.715471267700195312e+00 1.891015529632568359e+00
3.044000000000000000e+03 3.647481536865234375e+01 4.814409732818603516e+00 5.007479190826416016e-01 4.310398101806640625e+00 1.443343758583068848e+00 -1.857137799263000488e+00
3.045000000000000000e+03 3.950263214111328125e+01 -2.004531669616699219e+01 -2.325030565261840820e-01 6.025077819824218750e+00 1.737772464752197266e+00 1.655957341194152832e+00
3.046000000000000000e+03 6.063170623779296875e+01 -5.513961315155029297e+00 1.282128810882568359e+00 7.590124130249023438e+00 2.661675930023193359e+00 1.908376514911651611e-01
3.047000000000000000e+03 6.089917755126953125e+01 -7.051640987396240234e+00 1.251541256904602051e+00 7.571568965911865234e+00 2.646933078765869141e+00 -1.756268925964832306e-02
3.048000000000000000e+03 3.584293746948242188e+01 5.232886314392089844e+00 5.109197497367858887e-01 3.982029199600219727e+00 1.347884654998779297e+00 -1.761105775833129883e+00
3.049000000000000000e+03 6.141059875488281250e+01 -8.565910339355468750e+00 1.156630635261535645e+00 7.563807010650634766e+00 2.616131305694580078e+00 -1.824884712696075439e-01
3.050000000000000000e+03 6.196493148803710938e+01 -1.317037773132324219e+01 7.564645409584045410e-01 7.663105964660644531e+00 2.525871038436889648e+00 -5.949878096580505371e-01
3.051000000000000000e+03 5.537414932250976562e+01 1.677083134651184082e+00 9.317162632942199707e-01 8.227224349975585938e+00 2.747682332992553711e+00 1.027954339981079102e+00
3.052000000000000000e+03 6.223453140258789062e+01 1.598488450050354004e+00 6.541023254394531250e-01 7.691813468933105469e+00 2.503774881362915039e+00 8.052521347999572754e-01
3.053000000000000000e+03 6.026374435424804688e+01 -9.511050224304199219e+00 1.221426486968994141e+00 7.645157814025878906e+00 2.659975290298461914e+00 -3.114225864410400391e-01
3.054000000000000000e+03 6.024238967895507812e+01 -1.161415576934814453e+01 1.053822040557861328e+00 7.710014343261718750e+00 2.629150867462158203e+00 -5.307847857475280762e-01
3.055000000000000000e+03 5.919020462036132812e+01 -2.057177305221557617e+00 1.258779644966125488e+00 7.740098953247070312e+00 2.699663639068603516e+00 6.348165869712829590e-01
3.056000000000000000e+03 6.030205917358398438e+01 -2.552783489227294922e+00 1.182218670845031738e+00 7.658707141876220703e+00 2.652277708053588867e+00 5.360186100006103516e-01
3.057000000000000000e+03 6.174440002441406250e+01 -1.627251243591308594e+01 4.674123823642730713e-01 7.778913974761962891e+00 2.473897933959960938e+00 -7.464721202850341797e-01
3.058000000000000000e+03 5.883504867553710938e+01 -1.821276092529296875e+01 2.741605341434478760e-01 8.021566390991210938e+00 2.488718032836914062e+00 -8.412240743637084961e-01
3.059000000000000000e+03 3.445206451416015625e+01 9.987898826599121094e+00 8.657911419868469238e-02 3.742708206176757812e+00 1.148786187171936035e+00 -1.292259573936462402e+00
3.060000000000000000e+03 3.638239288330078125e+01 -2.521131324768066406e+01 -1.392673105001449585e-01 4.557689189910888672e+00 1.325526475906372070e+00 1.151607513427734375e+00
3.061000000000000000e+03 6.360131835937500000e+01 1.068748092651367188e+01 -3.997752442955970764e-02 7.849774837493896484e+00 2.342939138412475586e+00 9.075702428817749023e-01
3.062000000000000000e+03 6.244416809082031250e+01 7.048577785491943359e+00 1.952810734510421753e-01 7.831836223602294922e+00 2.408135175704956055e+00 9.447450041770935059e-01
3.063000000000000000e+03 6.137821960449218750e+01 5.907227993011474609e+00 2.953378260135650635e-01 7.851891994476318359e+00 2.444169044494628906e+00 9.552852511405944824e-01
3.064000000000000000e+03 6.354702758789062500e+01 8.224958419799804688e+00 1.066551506519317627e-01 7.813652992248535156e+00 2.376092433929443359e+00 9.278176426887512207e-01
3.065000000000000000e+03 5.723302078247070312e+01 -2.645189094543457031e+01 -4.998831450939178467e-01 7.983519554138183594e+00 2.245090961456298828e+00 -5.534029006958007812e-01
3.066000000000000000e+03 5.815816497802734375e+01 -2.442128372192382812e+01 -3.209001719951629639e-01 8.032166481018066406e+00 2.313379764556884766e+00 -6.764316558837890625e-01
3.067000000000000000e+03 3.381719970703125000e+01 1.438485336303710938e+01 -1.465868651866912842e-01 3.681730031967163086e+00 1.060542941093444824e+00 -1.037349104881286621e+00
3.068000000000000000e+03 3.465002059936523438e+01 1.895219039916992188e+01 -3.027556538581848145e-01 3.927448034286499023e+00 1.087407708168029785e+00 -8.295978903770446777e-01
3.069000000000000000e+03 2.954519462585449219e+01 2.150368499755859375e+01 -1.482550650835037231e-01 2.717837572097778320e+00 7.708747386932373047e-01 -7.030179500579833984e-01
3.070000000000000000e+03 4.089014053344726562e+01 -9.877256155014038086e-01 5.826454162597656250e-01 9.352095603942871094e+00 2.980422258377075195e+00 -2.945929288864135742e+00
3.071000000000000000e+03 4.140648651123046875e+01 -1.443977117538452148e+00 5.016338825225830078e-01 1.057038784027099609e+01 3.321606636047363281e+00 -2.650781631469726562e+00
3.072000000000000000e+03 4.649038314819335938e+01 -5.845713615417480469e+00 5.290233612060546875e+00 1.026388263702392578e+01 4.666234970092773438e+00 4.865477681159973145e-01
3.073000000000000000e+03 4.587261962890625000e+01 -5.320409297943115234e+00 5.399166584014892578e+00 1.080814647674560547e+01 4.862194061279296875e+00 9.574509263038635254e-01
3.074000000000000000e+03 4.006901168823242188e+01 -6.775969862937927246e-01 8.214597702026367188e-01 7.899729728698730469e+00 2.616356849670410156e+00 -3.204286813735961914e+00
3.075000000000000000e+03 3.952370071411132812e+01 -3.454631865024566650e-01 9.523774981498718262e-01 6.952141761779785156e+00 2.371355772018432617e+00 -3.188625574111938477e+00
3.076000000000000000e+03 4.670974349975585938e+01 -7.207540988922119141e+00 5.083059310913085938e+00 1.011846256256103516e+01 4.560456752777099609e+00 -5.288366079330444336e-01
3.077000000000000000e+03 4.633655929565429688e+01 -6.661990642547607422e+00 5.548041343688964844e+00 1.030196952819824219e+01 4.755003452301025391e+00 -1.639747321605682373e-01
3.078000000000000000e+03 4.654822921752929688e+01 -8.416199684143066406e+00 4.346756935119628906e+00 1.045096778869628906e+01 4.439317226409912109e+00 -1.176868438720703125e+00
3.079000000000000000e+03 4.210014724731445312e+01 -9.454686641693115234e-01 2.900525927543640137e-01 1.086025428771972656e+01 3.345092058181762695e+00 -1.878636002540588379e+00
3.080000000000000000e+03 4.565452957153320312e+01 -3.518227577209472656e+00 3.352229833602905273e+00 1.137666034698486328e+01 4.418666839599609375e+00 1.429533839225769043e+00
3.081000000000000000e+03 4.510613250732421875e+01 -2.419455289840698242e+00 2.065965414047241211e+00 1.176678562164306641e+01 4.149825572967529297e+00 1.085641741752624512e+00
3.082000000000000000e+03 4.658883666992187500e+01 -7.685090541839599609e+00 4.910961151123046875e+00 1.025989818572998047e+01 4.551258087158203125e+00 -8.417572379112243652e-01
3.083000000000000000e+03 4.016516494750976562e+01 -1.148380160331726074e+00 9.202569723129272461e-01 8.227776527404785156e+00 2.744410037994384766e+00 -3.384699583053588867e+00
3.084000000000000000e+03 4.584222793579101562e+01 -4.643808841705322266e+00 4.730515956878662109e+00 1.102664566040039062e+01 4.727148532867431641e+00 1.302473187446594238e+00
3.085000000000000000e+03 4.623978805541992188e+01 -3.951506137847900391e+00 3.885908126831054688e+00 1.081588745117187500e+01 4.410538673400878906e+00 1.385621190071105957e+00
3.086000000000000000e+03 4.533098602294921875e+01 -1.044548892974853516e+01 2.105879068374633789e+00 1.172733974456787109e+01 4.149965763092041016e+00 -1.223292350769042969e+00
3.087000000000000000e+03 4.511046600341796875e+01 -2.903004407882690430e+00 2.551099300384521484e+00 1.183781433105468750e+01 4.316674232482910156e+00 1.259162783622741699e+00
3.088000000000000000e+03 4.102498626708984375e+01 -1.373769569396972656e+01 -7.396195083856582642e-02 8.548656463623046875e+00 2.542408227920532227e+00 2.438064575195312500e+00
3.089000000000000000e+03 4.390755844116210938e+01 -1.835563659667968750e+00 1.056819677352905273e+00 1.217315101623535156e+01 3.968991041183471680e+00 1.496974825859069824e-01
3.090000000000000000e+03 4.174228668212890625e+01 -1.267739677429199219e+01 -8.678388595581054688e-02 1.010454368591308594e+01 3.005327701568603516e+00 2.210958242416381836e+00
3.091000000000000000e+03 4.082637786865234375e+01 -1.628753089904785156e+01 -2.363543212413787842e-01 7.501362800598144531e+00 2.179502487182617188e+00 2.028728485107421875e+00
3.092000000000000000e+03 4.465042114257812500e+01 -1.152518177032470703e+01 8.882585763931274414e-01 1.171703910827636719e+01 3.781589508056640625e+00 -4.756901860237121582e-01
3.093000000000000000e+03 4.624378585815429688e+01 -8.690399169921875000e+00 4.183740615844726562e+00 1.080160236358642578e+01 4.495602607727050781e+00 -1.362549781799316406e+00
3.094000000000000000e+03 4.343888092041015625e+01 -1.229507541656494141e+01 6.939191371202468872e-02 1.137592029571533203e+01 3.433593750000000000e+00 7.361347675323486328e-01
3.095000000000000000e+03 3.855754470825195312e+01 1.728759407997131348e+00 6.981224417686462402e-01 5.767568588256835938e+00 1.939707279205322266e+00 -2.581230401992797852e+00
3.096000000000000000e+03 3.909568023681640625e+01 5.875034928321838379e-01 8.341564536094665527e-01 6.306533813476562500e+00 2.142207145690917969e+00 -2.859909772872924805e+00
3.097000000000000000e+03 4.315340423583984375e+01 -1.248465061187744141e+01 -4.083692282438278198e-02 1.118465518951416016e+01 3.343145608901977539e+00 9.920022487640380859e-01
3.098000000000000000e+03 3.738763809204101562e+01 2.524528503417968750e+00 7.850148081779479980e-01 4.672871112823486328e+00 1.637365698814392090e+00 -2.312710046768188477e+00
3.099000000000000000e+03 3.908255004882812500e+01 1.969043493270874023e+00 5.273174047470092773e-01 6.231036663055419922e+00 2.027506351470947266e+00 -2.510919094085693359e+00
3.100000000000000000e+03 4.019756698608398438e+01 -1.570793724060058594e+01 -7.508043199777603149e-02 7.098934173583984375e+00 2.107156038284301758e+00 2.283822298049926758e+00
3.101000000000000000e+03 3.733733367919921875e+01 3.713511466979980469e+00 5.742923021316528320e-01 4.795662879943847656e+00 1.610986471176147461e+00 -2.116050481796264648e+00
3.102000000000000000e+03 5.946690368652343750e+01 -5.638059139251708984e+00 1.438278675079345703e+00 7.644255638122558594e+00 2.724760293960571289e+00 1.858236342668533325e-01
3.103000000000000000e+03 6.108618927001953125e+01 -1.247568607330322266e+01 8.928140401840209961e-01 7.687170982360839844e+00 2.573995590209960938e+00 -5.725658535957336426e-01
3.104000000000000000e+03 5.846148300170898438e+01 -9.909860610961914062e+00 1.389773488044738770e+00 7.771800994873046875e+00 2.748472213745117188e+00 -4.324795901775360107e-01
3.105000000000000000e+03 5.973898315429687500e+01 -3.495325803756713867e+00 1.312034606933593750e+00 7.665063858032226562e+00 2.693129539489746094e+00 4.506225585937500000e-01
3.106000000000000000e+03 5.856933212280273438e+01 -4.006926059722900391e+00 1.490147709846496582e+00 7.706413745880126953e+00 2.758968353271484375e+00 4.035259783267974854e-01
3.107000000000000000e+03 5.929870986938476562e+01 -8.348770737648010254e-01 1.138595819473266602e+00 7.777584075927734375e+00 2.674854040145874023e+00 7.422717213630676270e-01
3.108000000000000000e+03 5.798173904418945312e+01 -4.574938774108886719e+00 1.617580652236938477e+00 7.742768764495849609e+00 2.808104753494262695e+00 3.304283618927001953e-01
3.109000000000000000e+03 3.560961532592773438e+01 7.797103404998779297e+00 2.169245928525924683e-01 4.094001770019531250e+00 1.293277859687805176e+00 -1.518088817596435547e+00
3.110000000000000000e+03 3.638459014892578125e+01 8.635082244873046875e+00 6.094163656234741211e-02 4.497166156768798828e+00 1.367432355880737305e+00 -1.474309444427490234e+00
3.111000000000000000e+03 3.393025207519531250e+01 8.904420852661132812e+00 2.147298753261566162e-01 3.441450834274291992e+00 1.096854209899902344e+00 -1.315042614936828613e+00
3.112000000000000000e+03 3.390340805053710938e+01 1.194344615936279297e+01 -1.293179299682378769e-02 3.602006912231445312e+00 1.076722502708435059e+00 -1.156082868576049805e+00
3.113000000000000000e+03 3.522578048706054688e+01 1.120205020904541016e+01 -4.245337471365928650e-02 4.074241638183593750e+00 1.209536433219909668e+00 -1.253815650939941406e+00
3.114000000000000000e+03 3.896203613281250000e+01 -2.218690681457519531e+01 -2.579575181007385254e-01 5.595672130584716797e+00 1.601314306259155273e+00 1.428701996803283691e+00
3.115000000000000000e+03 6.138827133178710938e+01 8.076972961425781250e+00 1.145349815487861633e-01 7.889892578125000000e+00 2.401328325271606445e+00 9.624826908111572266e-01
3.116000000000000000e+03 6.071033477783203125e+01 2.155948877334594727e+00 6.796621680259704590e-01 7.794894218444824219e+00 2.542366981506347656e+00 8.841439485549926758e-01
3.117000000000000000e+03 6.060190582275390625e+01 4.956559240818023682e-01 8.640210032463073730e-01 7.746595382690429688e+00 2.583184957504272461e+00 7.997353076934814453e-01
3.118000000000000000e+03 5.955352401733398438e+01 -7.153569221496582031e+00 1.418934941291809082e+00 7.641860485076904297e+00 2.718238592147827148e+00 -3.812887892127037048e-02
3.119000000000000000e+03 3.470995330810546875e+01 -2.544167900085449219e+01 5.382201168686151505e-03 3.905266046524047852e+00 1.173194408416748047e+00 1.111030101776123047e+00
3.120000000000000000e+03 6.210953521728515625e+01 1.164270496368408203e+01 -1.216081380844116211e-01 7.890009403228759766e+00 2.330520391464233398e+00 8.997817635536193848e-01
3.121000000000000000e+03 6.021220779418945312e+01 4.814321041107177734e+00 4.218929111957550049e-01 7.896902561187744141e+00 2.495638608932495117e+00 9.723331332206726074e-01
3.122000000000000000e+03 6.037892913818359375e+01 -1.354933738708496094e+01 8.230811357498168945e-01 7.775049209594726562e+00 2.579439163208007812e+00 -6.754763126373291016e-01
3.123000000000000000e+03 6.019931793212890625e+01 -1.927457618713378906e+01 1.662919372320175171e-01 7.948347091674804688e+00 2.434391736984252930e+00 -8.144588470458984375e-01
3.124000000000000000e+03 6.176879119873046875e+01 -1.993849563598632812e+01 1.192514523863792419e-01 7.865648269653320312e+00 2.395469903945922852e+00 -7.839344739913940430e-01
3.125000000000000000e+03 5.746878814697265625e+01 -1.929892921447753906e+01 1.267124563455581665e-01 8.129070281982421875e+00 2.476734876632690430e+00 -8.404602408409118652e-01
3.126000000000000000e+03 5.963619995117187500e+01 -1.467888450622558594e+01 7.253845930099487305e-01 7.866261482238769531e+00 2.577493906021118164e+00 -7.608771920204162598e-01
3.127000000000000000e+03 5.880989074707031250e+01 -1.581828308105468750e+01 5.940480232238769531e-01 7.966122627258300781e+00 2.568051099777221680e+00 -8.214358091354370117e-01
3.128000000000000000e+03 3.233087539672851562e+01 -2.424531555175781250e+01 2.045296132564544678e-01 3.057700157165527344e+00 9.786689281463623047e-01 1.041875243186950684e+00
3.129000000000000000e+03 4.049597549438476562e+01 -5.393440723419189453e-01 6.082671284675598145e-01 8.540159225463867188e+00 2.744528055191040039e+00 -2.996864318847656250e+00
3.130000000000000000e+03 4.695162963867187500e+01 -7.531185150146484375e+00 4.808896064758300781e+00 1.003271579742431641e+01 4.452483654022216797e+00 -6.998240947723388672e-01
3.131000000000000000e+03 4.493730926513671875e+01 -2.114841699600219727e+00 1.705004692077636719e+00 1.176468181610107422e+01 4.040905952453613281e+00 8.983558416366577148e-01
3.132000000000000000e+03 4.244254684448242188e+01 -5.857162475585937500e-01 2.258159518241882324e-01 1.077294826507568359e+01 3.299629211425781250e+00 -1.554265379905700684e+00
3.133000000000000000e+03 4.307556915283203125e+01 -7.641194462776184082e-01 3.180919587612152100e-01 1.123064899444580078e+01 3.464622259140014648e+00 -9.747937917709350586e-01
3.134000000000000000e+03 3.940448379516601562e+01 5.381823778152465820e-01 7.578017115592956543e-01 6.725533485412597656e+00 2.245000600814819336e+00 -2.963690519332885742e+00
3.135000000000000000e+03 4.596460723876953125e+01 -1.017714786529541016e+01 2.512306690216064453e+00 1.120415401458740234e+01 4.114938259124755859e+00 -1.353915333747863770e+00
3.136000000000000000e+03 4.401993179321289062e+01 -1.240603256225585938e+01 1.894555389881134033e-01 1.128297233581542969e+01 3.441728353500366211e+00 3.092877566814422607e-01
3.137000000000000000e+03 4.439501953125000000e+01 -1.204767608642578125e+01 4.982802569866180420e-01 1.149576282501220703e+01 3.598212957382202148e+00 -1.011622548103332520e-01
3.138000000000000000e+03 4.684439468383789062e+01 -6.074516773223876953e+00 5.069578647613525391e+00 1.000499057769775391e+01 4.522370815277099609e+00 2.879454791545867920e-01
3.139000000000000000e+03 4.643124389648437500e+01 -4.459072589874267578e+00 4.334818840026855469e+00 1.052510833740234375e+01 4.457978248596191406e+00 1.216856598854064941e+00
3.140000000000000000e+03 4.551395416259765625e+01 -9.951647758483886719e+00 2.670153617858886719e+00 1.165694236755371094e+01 4.298129081726074219e+00 -1.416179776191711426e+00
3.141000000000000000e+03 4.641963195800781250e+01 -1.020966434478759766e+01 2.601320028305053711e+00 1.084341430664062500e+01 4.033420085906982422e+00 -1.365092754364013672e+00
3.142000000000000000e+03 4.283406066894531250e+01 -1.314731884002685547e+01 -1.923266798257827759e-01 1.049607753753662109e+01 3.091125011444091797e+00 1.331699371337890625e+00
3.143000000000000000e+03 4.161634445190429688e+01 -1.353883743286132812e+01 -1.694980561733245850e-01 9.285218238830566406e+00 2.734716176986694336e+00 2.199925184249877930e+00
3.144000000000000000e+03 4.527132797241210938e+01 -1.104298591613769531e+01 1.525971412658691406e+00 1.161261367797851562e+01 3.941575527191162109e+00 -9.669123888015747070e-01
3.145000000000000000e+03 4.653025054931640625e+01 -6.923159122467041016e+00 5.356857776641845703e+00 1.021061515808105469e+01 4.670241832733154297e+00 -3.331933915615081787e-01
3.146000000000000000e+03 4.691217422485351562e+01 -6.915272235870361328e+00 5.051539421081542969e+00 9.971328735351562500e+00 4.506860256195068359e+00 -2.940332889556884766e-01
3.147000000000000000e+03 4.692068862915039062e+01 -8.660144805908203125e+00 4.061616420745849609e+00 1.026039791107177734e+01 4.296604633331298828e+00 -1.175987482070922852e+00
3.148000000000000000e+03 4.044351196289062500e+01 -1.350733184814453125e+01 1.065829768776893616e-01 8.021327018737792969e+00 2.438373088836669922e+00 2.795457601547241211e+00
3.149000000000000000e+03 4.005681991577148438e+01 -1.475029850006103516e+01 5.151547119021415710e-02 7.279135227203369141e+00 2.199195146560668945e+00 2.548039674758911133e+00
3.150000000000000000e+03 4.597809219360351562e+01 -3.672762393951416016e+00 3.605605125427246094e+00 1.109479522705078125e+01 4.410120010375976562e+00 1.436169981956481934e+00
3.151000000000000000e+03 3.985520172119140625e+01 2.955177724361419678e-01 6.738309860229492188e-01 7.337682247161865234e+00 2.403453826904296875e+00 -2.902525663375854492e+00
3.152000000000000000e+03 4.344712829589843750e+01 -1.632454395294189453e+00 7.348542809486389160e-01 1.213190078735351562e+01 3.860026597976684570e+00 -3.796654045581817627e-01
3.153000000000000000e+03 4.276765441894531250e+01 -1.377148246765136719e+01 -2.498562633991241455e-01 1.000224590301513672e+01 2.925716876983642578e+00 1.386437296867370605e+00
3.154000000000000000e+03 4.365488433837890625e+01 -1.265353298187255859e+01 1.915396936237812042e-02 1.110326480865478516e+01 3.336725711822509766e+00 6.393311619758605957e-01
3.155000000000000000e+03 4.373815536499023438e+01 -1.205750370025634766e+01 2.560479342937469482e-01 1.159934616088867188e+01 3.556618213653564453e+00 4.061336517333984375e-01
3.156000000000000000e+03 4.144648742675781250e+01 -1.405109500885009766e+01 -1.815255582332611084e-01 8.860944747924804688e+00 2.603825807571411133e+00 2.203070640563964844e+00
3.157000000000000000e+03 4.296022415161132812e+01 -1.273480606079101562e+01 -1.168776229023933411e-01 1.091020298004150391e+01 3.237997531890869141e+00 1.200981259346008301e+00
3.158000000000000000e+03 4.587967300415039062e+01 -1.061113166809082031e+01 2.146311998367309570e+00 1.125298118591308594e+01 4.019788265228271484e+00 -1.266302824020385742e+00
3.159000000000000000e+03 3.888448715209960938e+01 2.603179931640625000e+00 4.453557729721069336e-01 6.094932556152343750e+00 1.962086439132690430e+00 -2.375387191772460938e+00
3.160000000000000000e+03 3.711935043334960938e+01 5.150981903076171875e+00 3.756482005119323730e-01 4.705576419830322266e+00 1.524367332458496094e+00 -1.864343643188476562e+00
3.161000000000000000e+03 3.773871994018554688e+01 1.933219671249389648e+00 8.536910414695739746e-01 4.917625427246093750e+00 1.731394886970520020e+00 -2.474961042404174805e+00
3.162000000000000000e+03 3.633139801025390625e+01 1.037910842895507812e+01 -7.077389210462570190e-02 4.484401226043701172e+00 1.324088096618652344e+00 -1.327685475349426270e+00
3.163000000000000000e+03 4.029888153076171875e+01 -2.138639068603515625e+01 -3.947020769119262695e-01 6.291477680206298828e+00 1.769032597541809082e+00 1.400128245353698730e+00
3.164000000000000000e+03 4.335016632080078125e+01 -1.322688388824462891e+01 -1.566082537174224854e-01 1.062126445770263672e+01 3.139396905899047852e+00 9.487421512603759766e-01
3.165000000000000000e+03 5.870483016967773438e+01 -1.375008296966552734e+01 8.940470814704895020e-01 7.904671669006347656e+00 2.639615535736083984e+00 -7.507211565971374512e-01
3.166000000000000000e+03 4.330255508422851562e+01 -1.279118919372558594e+01 -6.550232321023941040e-02 1.092765712738037109e+01 3.258646488189697266e+00 9.312193393707275391e-01
3.167000000000000000e+03 3.684507369995117188e+01 6.541979312896728516e+00 2.335351258516311646e-01 4.638622760772705078e+00 1.461647272109985352e+00 -1.691785454750061035e+00
3.168000000000000000e+03 3.629086685180664062e+01 5.963137149810791016e+00 3.750793933868408203e-01 4.278431892395019531e+00 1.396053314208984375e+00 -1.730614900588989258e+00
3.169000000000000000e+03 5.831493759155273438e+01 -6.926943778991699219e+00 1.608264446258544922e+00 7.708621978759765625e+00 2.795065879821777344e+00 -1.291654165834188461e-02
3.170000000000000000e+03 3.706882476806640625e+01 5.860291957855224609e+00 3.002431094646453857e-01 4.710988521575927734e+00 1.503369450569152832e+00 -1.785650014877319336e+00
3.171000000000000000e+03 3.629375457763671875e+01 7.167611122131347656e+00 2.193875610828399658e-01 4.397880554199218750e+00 1.385180354118347168e+00 -1.612900137901306152e+00
3.172000000000000000e+03 5.659460830688476562e+01 -8.713245391845703125e+00 1.779188513755798340e+00 7.871185779571533203e+00 2.895112276077270508e+00 -3.109034299850463867e-01
3.173000000000000000e+03 5.825040054321289062e+01 -1.794164180755615234e+00 1.325210094451904297e+00 7.805595874786376953e+00 2.739241838455200195e+00 6.927661895751953125e-01
3.174000000000000000e+03 5.768760681152343750e+01 -3.655894517898559570e+00 1.598712205886840820e+00 7.789613246917724609e+00 2.816497802734375000e+00 4.900879561901092529e-01
3.175000000000000000e+03 5.830278015136718750e+01 -5.654893875122070312e+00 1.595629811286926270e+00 7.709823131561279297e+00 2.791635990142822266e+00 1.792424321174621582e-01
3.176000000000000000e+03 5.721886444091796875e+01 -5.692824363708496094e+00 1.780245184898376465e+00 7.773527145385742188e+00 2.866131782531738281e+00 1.815730929374694824e-01
3.177000000000000000e+03 5.905860900878906250e+01 6.808269619941711426e-01 9.536470174789428711e-01 7.853749752044677734e+00 2.642219066619873047e+00 8.632457852363586426e-01
3.178000000000000000e+03 5.784502029418945312e+01 -1.688407516479492188e+01 4.595456123352050781e-01 8.078852653503417969e+00 2.561519622802734375e+00 -8.647187948226928711e-01
3.179000000000000000e+03 6.243796157836914062e+01 9.301201820373535156e+00 3.500378876924514771e-02 7.866639137268066406e+00 2.370492935180664062e+00 9.399711489677429199e-01
3.180000000000000000e+03 5.947452926635742188e+01 -1.268273830413818359e+01 9.966165423393249512e-01 7.803284645080566406e+00 2.639970302581787109e+00 -6.515218615531921387e-01
3.181000000000000000e+03 5.984144973754882812e+01 -1.684192848205566406e+01 4.482646882534027100e-01 7.914919376373291016e+00 2.508955240249633789e+00 -8.136793971061706543e-01
3.182000000000000000e+03 5.670420837402343750e+01 -1.772967910766601562e+01 3.326277434825897217e-01 8.185158729553222656e+00 2.555335998535156250e+00 -8.739385008811950684e-01
3.183000000000000000e+03 4.136513900756835938e+01 -2.592642974853515625e+01 -5.734726190567016602e-01 6.215602397918701172e+00 1.692638874053955078e+00 9.070295691490173340e-01
3.184000000000000000e+03 3.823538589477539062e+01 -2.493832397460937500e+01 -2.873889207839965820e-01 5.193328857421875000e+00 1.471781969070434570e+00 1.174223661422729492e+00
3.185000000000000000e+03 3.410209274291992188e+01 -2.816112899780273438e+01 -5.770720914006233215e-02 3.865513563156127930e+00 1.142341852188110352e+00 8.866745829582214355e-01
3.186000000000000000e+03 3.587110519409179688e+01 -2.699658012390136719e+01 -1.531914770603179932e-01 4.416398048400878906e+00 1.278961896896362305e+00 1.026295661926269531e+00
3.187000000000000000e+03 6.041146850585937500e+01 6.971037387847900391e+00 2.103476077318191528e-01 7.925738334655761719e+00 2.440825700759887695e+00 9.816853404045104980e-01
3.188000000000000000e+03 4.123689651489257812e+01 -1.015084028244018555e+00 4.731395542621612549e-01 9.906443595886230469e+00 3.113874912261962891e+00 -2.678029060363769531e+00
3.189000000000000000e+03 4.270899581909179688e+01 -1.042132854461669922e+00 3.381226062774658203e-01 1.138354492187500000e+01 3.516500234603881836e+00 -1.270722031593322754e+00
3.190000000000000000e+03 4.680409622192382812e+01 -5.623805046081542969e+00 4.991755008697509766e+00 1.007581615447998047e+01 4.520271301269531250e+00 6.099278926849365234e-01
3.191000000000000000e+03 4.248974609375000000e+01 6.798870563507080078e-01 1.560049597173929214e-02 9.787748336791992188e+00 2.941004514694213867e+00 -1.500347137451171875e+00
3.192000000000000000e+03 3.996559524536132812e+01 -1.852170526981353760e-01 7.413242459297180176e-01 7.612653255462646484e+00 2.506193161010742188e+00 -3.051234722137451172e+00
3.193000000000000000e+03 4.664274597167968750e+01 -5.361861705780029297e+00 4.952971935272216797e+00 1.020058155059814453e+01 4.546065807342529297e+00 7.511036992073059082e-01
3.194000000000000000e+03 4.737416076660156250e+01 -7.389243602752685547e+00 4.623219013214111328e+00 9.778250694274902344e+00 4.320440769195556641e+00 -5.520704984664916992e-01
3.195000000000000000e+03 4.013012695312500000e+01 -1.416479301452636719e+01 1.015198901295661926e-01 7.436468601226806641e+00 2.261396646499633789e+00 2.668594121932983398e+00
3.196000000000000000e+03 4.659136962890625000e+01 -6.376688480377197266e+00 5.321053981781005859e+00 1.014643669128417969e+01 4.640246868133544922e+00 5.985806137323379517e-02
3.197000000000000000e+03 4.699440765380859375e+01 -6.561289310455322266e+00 5.062199592590332031e+00 9.916280746459960938e+00 4.493544101715087891e+00 -7.005351781845092773e-02
3.198000000000000000e+03 4.652512741088867188e+01 -9.605257034301757812e+00 3.210338592529296875e+00 1.077408409118652344e+01 4.195326805114746094e+00 -1.424091935157775879e+00
3.199000000000000000e+03 4.727345657348632812e+01 -8.994276046752929688e+00 3.670414209365844727e+00 1.009493827819824219e+01 4.129605770111083984e+00 -1.200008273124694824e+00
3.200000000000000000e+03 4.661251068115234375e+01 -4.078907966613769531e+00 3.939033508300781250e+00 1.049424171447753906e+01 4.329982757568359375e+00 1.296996951103210449e+00
3.201000000000000000e+03 4.164871978759765625e+01 -1.306264019012451172e+01 -1.173476204276084900e-01 9.614712715148925781e+00 2.849209547042846680e+00 2.240756273269653320e+00
3.202000000000000000e+03 4.520949172973632812e+01 -1.169027423858642578e+01 1.009515643119812012e+00 1.137414264678955078e+01 3.715097427368164062e+00 -6.765686869621276855e-01
3.203000000000000000e+03 4.070478439331054688e+01 7.088219523429870605e-01 3.211067020893096924e-01 8.261487960815429688e+00 2.574778318405151367e+00 -2.505033016204833984e+00
3.204000000000000000e+03 4.640314102172851562e+01 -1.122949695587158203e+01 1.746325016021728516e+00 1.079840660095214844e+01 3.763419628143310547e+00 -1.154024124145507812e+00
3.205000000000000000e+03 4.341878128051757812e+01 -1.384942722320556641e+01 -2.302573770284652710e-01 1.027213287353515625e+01 3.012562751770019531e+00 9.577699899673461914e-01
3.206000000000000000e+03 4.454264450073242188e+01 -1.380458950996398926e+00 1.024727582931518555e+00 1.156334686279296875e+01 3.776422262191772461e+00 3.826453089714050293e-01
3.207000000000000000e+03 4.580462646484375000e+01 -1.175931739807128906e+01 1.178960442543029785e+00 1.103970909118652344e+01 3.665600776672363281e+00 -8.722692728042602539e-01
3.208000000000000000e+03 4.684925460815429688e+01 -4.569667339324951172e+00 4.318438529968261719e+00 1.024466228485107422e+01 4.368930339813232422e+00 1.119567155838012695e+00
3.209000000000000000e+03 4.723556137084960938e+01 -9.640342712402343750e+00 3.121024847030639648e+00 1.023915004730224609e+01 4.008052349090576172e+00 -1.312597513198852539e+00
3.210000000000000000e+03 4.067253494262695312e+01 -1.512761020660400391e+01 -1.207730099558830261e-01 7.706836700439453125e+00 2.275819063186645508e+00 2.293745279312133789e+00
3.211000000000000000e+03 4.109475708007812500e+01 -1.456007289886474609e+01 -1.532211601734161377e-01 8.275762557983398438e+00 2.436762571334838867e+00 2.271555185317993164e+00
3.212000000000000000e+03 4.727716064453125000e+01 -1.032384109497070312e+01 2.601014852523803711e+00 1.030801296234130859e+01 3.872708320617675781e+00 -1.315089464187622070e+00
3.213000000000000000e+03 3.937486648559570312e+01 8.662505745887756348e-01 6.721668839454650879e-01 6.634676456451416016e+00 2.192053079605102539e+00 -2.781526327133178711e+00
3.214000000000000000e+03 3.961316680908203125e+01 2.179057836532592773e+00 3.730274140834808350e-01 6.680697441101074219e+00 2.116117477416992188e+00 -2.381105661392211914e+00
3.215000000000000000e+03 4.382368087768554688e+01 -1.311191177368164062e+01 -4.679183289408683777e-02 1.080231571197509766e+01 3.226657390594482422e+00 6.111712455749511719e-01
3.216000000000000000e+03 4.523472976684570312e+01 -1.235956668853759766e+01 6.367351412773132324e-01 1.108438396453857422e+01 3.516335725784301758e+00 -4.606174528598785400e-01
3.217000000000000000e+03 3.871401977539062500e+01 3.309023857116699219e+00 3.872249126434326172e-01 5.859426975250244141e+00 1.873995661735534668e+00 -2.196871280670166016e+00
3.218000000000000000e+03 3.829732131958007812e+01 2.299268245697021484e+00 6.437941193580627441e-01 5.491936683654785156e+00 1.840719223022460938e+00 -2.413877964019775391e+00
3.219000000000000000e+03 3.775679779052734375e+01 3.402763605117797852e+00 5.661347508430480957e-01 5.098873615264892578e+00 1.699502468109130859e+00 -2.231778621673583984e+00
3.220000000000000000e+03 4.060868453979492188e+01 -1.932976913452148438e+01 -3.569025397300720215e-01 6.722312450408935547e+00 1.909622907638549805e+00 1.611052274703979492e+00
3.221000000000000000e+03 4.245439529418945312e+01 -1.944066619873046875e+01 -5.539734363555908203e-01 7.565777778625488281e+00 2.103541374206542969e+00 1.222452878952026367e+00
3.222000000000000000e+03 3.769948196411132812e+01 4.327179431915283203e+00 4.190863668918609619e-01 5.095952033996582031e+00 1.654511570930480957e+00 -2.033436298370361328e+00
3.223000000000000000e+03 3.801700973510742188e+01 5.135430335998535156e+00 2.420893460512161255e-01 5.319278240203857422e+00 1.668410301208496094e+00 -1.879030346870422363e+00
3.224000000000000000e+03 3.711625289916992188e+01 7.853011608123779297e+00 6.542109698057174683e-02 4.824964046478271484e+00 1.467115521430969238e+00 -1.557054877281188965e+00
3.225000000000000000e+03 5.750440597534179688e+01 -9.269072532653808594e+00 1.585810184478759766e+00 7.815567493438720703e+00 2.820413351058959961e+00 -3.721534013748168945e-01
3.226000000000000000e+03 4.146723556518554688e+01 -2.045592880249023438e+01 -4.913849532604217529e-01 6.935666084289550781e+00 1.933284401893615723e+00 1.338987946510314941e+00
3.227000000000000000e+03 3.724784469604492188e+01 9.492813110351562500e+00 -8.682703971862792969e-02 4.861920356750488281e+00 1.432527899742126465e+00 -1.393623113632202148e+00
3.228000000000000000e+03 5.826279449462890625e+01 -8.628844618797302246e-01 1.205479979515075684e+00 7.836856842041015625e+00 2.712701082229614258e+00 7.767795324325561523e-01
3.229000000000000000e+03 5.933432769775390625e+01 7.944263935089111328e+00 9.769074618816375732e-02 7.982669353485107422e+00 2.424108028411865234e+00 9.753733873367309570e-01
3.230000000000000000e+03 5.554058837890625000e+01 3.021392107009887695e+00 7.103742361068725586e-01 8.231457710266113281e+00 2.682549476623535156e+00 1.044230222702026367e+00
3.231000000000000000e+03 5.789724731445312500e+01 -1.476970481872558594e+01 7.759776711463928223e-01 8.014861106872558594e+00 2.637251615524291992e+00 -8.251929879188537598e-01
3.232000000000000000e+03 5.804045104980468750e+01 -8.155380249023437500e+00 1.605502247810363770e+00 7.745794296264648438e+00 2.805388927459716797e+00 -1.890693306922912598e-01
3.233000000000000000e+03 5.540304946899414062e+01 -1.827523040771484375e+01 2.053480148315429688e-01 8.301712036132812500e+00 2.552117824554443359e+00 -8.538023233413696289e-01
3.234000000000000000e+03 3.508317565917968750e+01 1.345019340515136719e+01 -1.714603751897811890e-01 4.069769382476806641e+00 1.169492721557617188e+00 -1.098899126052856445e+00
3.235000000000000000e+03 5.773491287231445312e+01 -1.098307514190673828e+01 1.351171374320983887e+00 7.867584705352783203e+00 2.765626668930053711e+00 -5.696067214012145996e-01
3.236000000000000000e+03 5.776489257812500000e+01 2.822611331939697266e-01 1.080646038055419922e+00 7.929722785949707031e+00 2.703110694885253906e+00 8.866158127784729004e-01
3.237000000000000000e+03 3.634125900268554688e+01 1.493832302093505859e+01 -2.973324954509735107e-01 4.470612525939941406e+00 1.251984000205993652e+00 -1.018534898757934570e+00
3.238000000000000000e+03 5.587069320678710938e+01 -1.990657043457031250e+01 -1.877046306617558002e-03 8.231033325195312500e+00 2.468746900558471680e+00 -7.977318763732910156e-01
3.239000000000000000e+03 5.989131546020507812e+01 1.127049446105957031e+01 -1.540365070104598999e-01 7.942377567291259766e+00 2.336502313613891602e+00 8.957231044769287109e-01
3.240000000000000000e+03 5.873068618774414062e+01 4.257937431335449219e+00 4.896313250064849854e-01 7.974037170410156250e+00 2.539100646972656250e+00 9.952625036239624023e-01
3.241000000000000000e+03 5.861785507202148438e+01 6.886705875396728516e+00 1.855904757976531982e-01 8.012485504150390625e+00 2.459422826766967773e+00 9.885838031768798828e-01
3.242000000000000000e+03 4.039706420898437500e+01 -6.453175097703933716e-03 5.395340919494628906e-01 8.207658767700195312e+00 2.624157905578613281e+00 -2.837256193161010742e+00
3.243000000000000000e+03 4.685136795043945312e+01 -4.903626441955566406e+00 4.537659645080566406e+00 1.017230987548828125e+01 4.412991046905517578e+00 9.618406891822814941e-01
3.244000000000000000e+03 4.327968215942382812e+01 -1.208165884017944336e+00 4.908636510372161865e-01 1.170238304138183594e+01 3.657974004745483398e+00 -6.930960416793823242e-01
3.245000000000000000e+03 4.367968368530273438e+01 -9.421821832656860352e-01 4.976034462451934814e-01 1.148512458801269531e+01 3.594818353652954102e+00 -3.993057608604431152e-01
3.246000000000000000e+03 4.769534301757812500e+01 -8.101422309875488281e+00 4.166363716125488281e+00 9.714110374450683594e+00 4.164142608642578125e+00 -8.332612514495849609e-01
3.247000000000000000e+03 4.749398422241210938e+01 -7.765009880065917969e+00 4.389539718627929688e+00 9.759332656860351562e+00 4.244661808013916016e+00 -7.523473501205444336e-01
3.248000000000000000e+03 4.737012100219726562e+01 -6.987679004669189453e+00 4.725566387176513672e+00 9.734951019287109375e+00 4.338155269622802734e+00 -3.146139979362487793e-01
3.249000000000000000e+03 4.536762237548828125e+01 -2.271986246109008789e+00 2.003134489059448242e+00 1.149344730377197266e+01 4.048974514007568359e+00 1.111390590667724609e+00
3.250000000000000000e+03 4.704488372802734375e+01 -1.077560901641845703e+01 2.235519170761108398e+00 1.045097637176513672e+01 3.805948495864868164e+00 -1.273059844970703125e+00
3.251000000000000000e+03 4.647783660888671875e+01 -5.057535648345947266e+00 4.852928161621093750e+00 1.037670326232910156e+01 4.568889617919921875e+00 9.630429744720458984e-01
3.252000000000000000e+03 4.764930343627929688e+01 -8.689132690429687500e+00 3.790783405303955078e+00 9.848418235778808594e+00 4.091760635375976562e+00 -1.054515719413757324e+00
3.253000000000000000e+03 4.655790328979492188e+01 -8.991513252258300781e+00 3.822283029556274414e+00 1.063546943664550781e+01 4.337325572967529297e+00 -1.367495656013488770e+00
3.254000000000000000e+03 4.581459045410156250e+01 -1.239178657531738281e+01 8.223610520362854004e-01 1.086544895172119141e+01 3.506343126296997070e+00 -6.926882863044738770e-01
3.255000000000000000e+03 3.969440078735351562e+01 7.241080403327941895e-01 6.101267933845520020e-01 6.981054782867431641e+00 2.277354478836059570e+00 -2.783251523971557617e+00
3.256000000000000000e+03 4.569587326049804688e+01 -3.100500345230102539e+00 2.942483425140380859e+00 1.136119079589843750e+01 4.291101932525634766e+00 1.388349056243896484e+00
3.257000000000000000e+03 4.731147003173828125e+01 -8.343750953674316406e+00 4.151508808135986328e+00 9.961329460144042969e+00 4.233851432800292969e+00 -9.929136633872985840e-01
3.258000000000000000e+03 4.134781265258789062e+01 -1.564145565032958984e+01 -2.870670855045318604e-01 8.096664428710937500e+00 2.342879056930541992e+00 1.960736036300659180e+00
3.259000000000000000e+03 4.091648864746093750e+01 -5.246386528015136719e-01 4.743822813034057617e-01 9.085692405700683594e+00 2.868022441864013672e+00 -2.777440071105957031e+00
3.260000000000000000e+03 4.353747940063476562e+01 -1.470594501495361328e+01 -3.461031615734100342e-01 9.759246826171875000e+00 2.823942899703979492e+00 9.624269604682922363e-01
3.261000000000000000e+03 4.284269714355468750e+01 -3.119003176689147949e-01 1.933944225311279297e-01 1.075448226928710938e+01 3.284363031387329102e+00 -1.214088678359985352e+00
3.262000000000000000e+03 3.927268600463867188e+01 1.346327662467956543e+00 6.132532954216003418e-01 6.464612960815429688e+00 2.123359918594360352e+00 -2.642550230026245117e+00
3.263000000000000000e+03 3.981244659423828125e+01 4.325622081756591797e+00 6.026618182659149170e-02 6.559792041778564453e+00 1.986017465591430664e+00 -1.934058427810668945e+00
3.264000000000000000e+03 4.723192214965820312e+01 -6.275858879089355469e+00 4.888815402984619141e+00 9.770926475524902344e+00 4.397922515869140625e+00 1.319467574357986450e-01
3.265000000000000000e+03 4.674737548828125000e+01 -3.176229000091552734e+00 3.107273578643798828e+00 1.052940082550048828e+01 4.091002464294433594e+00 1.350003004074096680e+00
3.266000000000000000e+03 3.948164749145507812e+01 3.458496809005737305e+00 2.120903432369232178e-01 6.450798034667968750e+00 1.998866558074951172e+00 -2.126754760742187500e+00
3.267000000000000000e+03 4.639460754394531250e+01 -1.182617855072021484e+01 1.327847599983215332e+00 1.072584533691406250e+01 3.616107940673828125e+00 -1.001396059989929199e+00
3.268000000000000000e+03 4.582799911499023438e+01 -1.115178298950195312e+01 1.647539377212524414e+00 1.119973087310791016e+01 3.854181289672851562e+00 -1.091109633445739746e+00
3.269000000000000000e+03 4.174648666381835938e+01 -1.498469066619873047e+01 -3.082828521728515625e-01 8.631108283996582031e+00 2.496847629547119141e+00 1.890125989913940430e+00
3.270000000000000000e+03 4.531989669799804688e+01 -1.295668125152587891e+01 3.875395655632019043e-01 1.077099418640136719e+01 3.347560167312622070e+00 -3.098993599414825439e-01
3.271000000000000000e+03 4.471433258056640625e+01 -1.253350257873535156e+01 3.959939479827880859e-01 1.111893653869628906e+01 3.454479217529296875e+00 -1.397699117660522461e-01
3.272000000000000000e+03 4.153504562377929688e+01 -1.692916107177734375e+01 -3.749922811985015869e-01 7.792109012603759766e+00 2.225135087966918945e+00 1.716392874717712402e+00
3.273000000000000000e+03 3.736378860473632812e+01 1.143476486206054688e+01 -2.163711190223693848e-01 4.865713596343994141e+00 1.394802808761596680e+00 -1.232133030891418457e+00
3.274000000000000000e+03 3.768866348266601562e+01 7.007181167602539062e+00 8.858366310596466064e-02 5.096669197082519531e+00 1.555575847625732422e+00 -1.659457325935363770e+00
3.275000000000000000e+03 5.704432678222656250e+01 -7.768309116363525391e+00 1.770990371704101562e+00 7.809463977813720703e+00 2.874136209487915039e+00 -1.563086807727813721e-01
3.276000000000000000e+03 5.708111953735351562e+01 -4.729574680328369141e+00 1.724097371101379395e+00 7.798992633819580078e+00 2.856927156448364258e+00 3.182709217071533203e-01
3.277000000000000000e+03 5.782083511352539062e+01 -1.282398605346679688e+01 1.099061369895935059e+00 7.941475868225097656e+00 2.712161064147949219e+00 -7.339783310890197754e-01
3.278000000000000000e+03 5.723453521728515625e+01 -6.737575054168701172e+00 1.783705949783325195e+00 7.777474403381347656e+00 2.868354082107543945e+00 7.944109849631786346e-03
3.279000000000000000e+03 4.155951309204101562e+01 -1.851233482360839844e+01 -4.434544742107391357e-01 7.377353668212890625e+00 2.080169677734375000e+00 1.522868871688842773e+00
3.280000000000000000e+03 4.400640106201171875e+01 -1.371112918853759766e+01 -1.400400400161743164e-01 1.044394302368164062e+01 3.091170787811279297e+00 6.215604543685913086e-01
3.281000000000000000e+03 3.629657363891601562e+01 1.247271156311035156e+01 -1.973650455474853516e-01 4.463612556457519531e+00 1.279874324798583984e+00 -1.169977307319641113e+00
3.282000000000000000e+03 3.803369522094726562e+01 6.082842826843261719e+00 1.508355885744094849e-01 5.303490638732910156e+00 1.636297941207885742e+00 -1.770624041557312012e+00
3.283000000000000000e+03 3.871965789794921875e+01 7.540761470794677734e+00 -8.969681710004806519e-02 5.631478309631347656e+00 1.662534475326538086e+00 -1.555503010749816895e+00
3.284000000000000000e+03 5.755036926269531250e+01 -1.330097436904907227e+00 1.326487541198730469e+00 7.878715991973876953e+00 2.761561155319213867e+00 7.638373970985412598e-01
3.285000000000000000e+03 5.696929168701171875e+01 -2.141027450561523438e+00 1.506515860557556152e+00 7.898326396942138672e+00 2.821452617645263672e+00 6.964603662490844727e-01
3.286000000000000000e+03 5.891370391845703125e+01 2.464933156967163086e+00 7.217565774917602539e-01 7.919797897338867188e+00 2.592466354370117188e+00 9.548233151435852051e-01
3.287000000000000000e+03 5.787041473388671875e+01 -2.703369140625000000e+00 1.463382840156555176e+00 7.807626247406005859e+00 2.781302690505981445e+00 5.990162491798400879e-01
3.288000000000000000e+03 5.886549377441406250e+01 -3.062617063522338867e+00 1.364000916481018066e+00 7.719573020935058594e+00 2.725072145462036133e+00 5.095256567001342773e-01
3.289000000000000000e+03 5.698098373413085938e+01 -1.193614578247070312e+01 1.304816603660583496e+00 7.973147392272949219e+00 2.783389091491699219e+00 -6.932129263877868652e-01
3.290000000000000000e+03 5.703499984741210938e+01 -1.568429088592529297e+01 6.521265506744384766e-01 8.119225502014160156e+00 2.631405591964721680e+00 -8.718946576118469238e-01
3.291000000000000000e+03 5.507777023315429688e+01 5.407527685165405273e-01 1.188490867614746094e+00 8.223387718200683594e+00 2.823563575744628906e+00 1.013211727142333984e+00
3.292000000000000000e+03 6.118056488037109375e+01 1.029761409759521484e+01 -5.741803720593452454e-02 7.911847114562988281e+00 2.356328725814819336e+00 9.281689524650573730e-01
3.293000000000000000e+03 5.896179199218750000e+01 1.007718849182128906e+01 -1.012708395719528198e-01 7.981506824493408203e+00 2.364070892333984375e+00 9.176682829856872559e-01
3.294000000000000000e+03 3.497159576416015625e+01 1.604887199401855469e+01 -2.614130079746246338e-01 4.059237003326416016e+00 1.139347195625305176e+00 -9.648263454437255859e-01
3.295000000000000000e+03 3.249221420288085938e+01 1.523719501495361328e+01 -1.209636107087135315e-01 3.279905796051025391e+00 9.476826190948486328e-01 -9.772974252700805664e-01
3.296000000000000000e+03 6.074482727050781250e+01 1.252393054962158203e+01 -2.008869051933288574e-01 7.907591342926025391e+00 2.312011241912841797e+00 8.693466186523437500e-01
3.297000000000000000e+03 5.670427322387695312e+01 9.810024261474609375e+00 -1.599996238946914673e-01 8.043869018554687500e+00 2.365160942077636719e+00 8.709602952003479004e-01
3.298000000000000000e+03 6.518546295166015625e+01 1.568645763397216797e+01 -1.962730437517166138e-01 7.887211322784423828e+00 2.307281494140625000e+00 7.882072329521179199e-01
3.299000000000000000e+03 5.554105758666992188e+01 -7.480970382690429688e+00 2.050050258636474609e+00 7.929805755615234375e+00 2.993956804275512695e+00 -1.503966003656387329e-01
3.300000000000000000e+03 5.587990951538085938e+01 -8.164449691772460938e+00 1.913765430450439453e+00 7.917138576507568359e+00 2.949271202087402344e+00 -2.556317150592803955e-01
3.301000000000000000e+03 3.898612213134765625e+01 9.281034469604492188e+00 -2.263053208589553833e-01 5.585915565490722656e+00 1.607883095741271973e+00 -1.344932913780212402e+00
3.302000000000000000e+03 3.864741134643554688e+01 1.248702716827392578e+01 -3.649022877216339111e-01 5.292856693267822266e+00 1.478386402130126953e+00 -1.113935351371765137e+00
3.303000000000000000e+03 4.025787353515625000e+01 5.126058459281921387e-01 4.909084439277648926e-01 7.775160789489746094e+00 2.479820728302001953e+00 -2.703932762145996094e+00
3.304000000000000000e+03 4.570712280273437500e+01 -2.638713359832763672e+00 2.457337141036987305e+00 1.133424854278564453e+01 4.137475967407226562e+00 1.279818534851074219e+00
3.305000000000000000e+03 4.139306640625000000e+01 -1.830510646104812622e-01 2.796911001205444336e-01 9.537392616271972656e+00 2.945125102996826172e+00 -2.371232986450195312e+00
3.306000000000000000e+03 4.749729919433593750e+01 -5.943284034729003906e+00 4.676414966583251953e+00 9.658343315124511719e+00 4.300427436828613281e+00 3.112071454524993896e-01
3.307000000000000000e+03 4.713443756103515625e+01 -5.517438888549804688e+00 4.745681285858154297e+00 9.930047035217285156e+00 4.402718544006347656e+00 6.099724173545837402e-01
3.308000000000000000e+03 4.783279037475585938e+01 -7.632674217224121094e+00 4.323517799377441406e+00 9.576495170593261719e+00 4.170003890991210938e+00 -6.435203552246093750e-01
3.309000000000000000e+03 4.381028366088867188e+01 -1.404928922653198242e+00 7.612985372543334961e-01 1.179267597198486328e+01 3.766192436218261719e+00 -1.452424675226211548e-01
3.310000000000000000e+03 4.510464477539062500e+01 -1.496219515800476074e+00 1.325645923614501953e+00 1.140011596679687500e+01 3.817728519439697266e+00 7.319689393043518066e-01
3.311000000000000000e+03 4.705910110473632812e+01 -4.190280437469482422e+00 3.943867921829223633e+00 1.017420864105224609e+01 4.235423088073730469e+00 1.191986918449401855e+00
3.312000000000000000e+03 4.421006774902343750e+01 -1.246845006942749023e+00 8.242273330688476562e-01 1.158745861053466797e+01 3.723505973815917969e+00 9.927577525377273560e-02
3.313000000000000000e+03 4.414667129516601562e+01 -6.989465355873107910e-01 5.529719591140747070e-01 1.125215625762939453e+01 3.541538476943969727e+00 -1.044769510626792908e-01
3.314000000000000000e+03 4.658510971069335938e+01 -3.725638866424560547e+00 3.620754480361938477e+00 1.057242393493652344e+01 4.257953643798828125e+00 1.354355812072753906e+00
3.315000000000000000e+03 4.634247589111328125e+01 -3.384774923324584961e+00 3.271508932113647461e+00 1.079235935211181641e+01 4.219160556793212891e+00 1.387957334518432617e+00
3.316000000000000000e+03 4.758550643920898438e+01 -9.954670906066894531e+00 2.888492345809936523e+00 1.012796878814697266e+01 3.904938459396362305e+00 -1.309483170509338379e+00
3.317000000000000000e+03 4.424403762817382812e+01 -1.698969483375549316e+00 1.117294430732727051e+00 1.198343849182128906e+01 3.930219888687133789e+00 3.201523423194885254e-01
3.318000000000000000e+03 4.645535278320312500e+01 -1.067994594573974609e+01 2.210702657699584961e+00 1.081116485595703125e+01 3.906560420989990234e+00 -1.278515458106994629e+00
3.319000000000000000e+03 4.078486251831054688e+01 2.261243015527725220e-01 3.863394856452941895e-01 8.585153579711914062e+00 2.691447973251342773e+00 -2.649790525436401367e+00
3.320000000000000000e+03 4.720506668090820312e+01 -4.738098621368408203e+00 4.243814945220947266e+00 9.954275131225585938e+00 4.259427070617675781e+00 9.613165259361267090e-01
3.321000000000000000e+03 4.426478958129882812e+01 -1.286027431488037109e+01 1.156428456306457520e-01 1.099148178100585938e+01 3.332137346267700195e+00 2.771972417831420898e-01
3.322000000000000000e+03 4.450205993652343750e+01 -1.340316963195800781e+01 3.812577947974205017e-02 1.063020038604736328e+01 3.200497627258300781e+00 2.346198558807373047e-01
3.323000000000000000e+03 3.945145416259765625e+01 2.787300586700439453e+00 3.256427943706512451e-01 6.416440486907958984e+00 2.022624969482421875e+00 -2.302031993865966797e+00
3.324000000000000000e+03 4.641018295288085938e+01 -1.246412467956542969e+01 9.475228786468505859e-01 1.058717060089111328e+01 3.460407972335815430e+00 -8.203610181808471680e-01
3.325000000000000000e+03 4.065927124023437500e+01 -1.404556465148925781e+01 -2.938849665224552155e-02 8.077433586120605469e+00 2.414413690567016602e+00 2.524330377578735352e+00
3.326000000000000000e+03 3.891151428222656250e+01 4.793093204498291016e+00 1.431721597909927368e-01 5.918258666992187500e+00 1.818429231643676758e+00 -1.946541309356689453e+00
3.327000000000000000e+03 4.271636581420898438e+01 -1.455091381072998047e+01 -3.530727028846740723e-01 9.449158668518066406e+00 2.728825569152832031e+00 1.440176963806152344e+00
3.328000000000000000e+03 4.210597991943359375e+01 -1.615626525878906250e+01 -4.043657183647155762e-01 8.405311584472656250e+00 2.400283813476562500e+00 1.606092333793640137e+00
3.329000000000000000e+03 3.834278488159179688e+01 3.947019338607788086e+00 3.591787219047546387e-01 5.546938419342041016e+00 1.771835207939147949e+00 -2.111920833587646484e+00
3.330000000000000000e+03 5.516441345214843750e+01 -8.731947898864746094e+00 1.987799763679504395e+00 8.008439064025878906e+00 2.998871564865112305e+00 -3.796192407608032227e-01
3.331000000000000000e+03 5.545944595336914062e+01 -1.170327758789062500e+01 1.470363259315490723e+00 8.142887115478515625e+00 2.883975267410278320e+00 -7.700996398925781250e-01
3.332000000000000000e+03 4.234558486938476562e+01 -1.762809944152832031e+01 -4.856804907321929932e-01 8.011755943298339844e+00 2.257822751998901367e+00 1.393048405647277832e+00
3.333000000000000000e+03 4.430050277709960938e+01 -1.915902328491210938e+01 -6.244172453880310059e-01 8.264943122863769531e+00 2.292157888412475586e+00 7.678639888763427734e-01
3.334000000000000000e+03 5.613165283203125000e+01 -2.907440185546875000e+00 1.721372961997985840e+00 7.940443515777587891e+00 2.898545026779174805e+00 6.337590813636779785e-01
3.335000000000000000e+03 5.491455841064453125e+01 -2.269571781158447266e+00 1.798743247985839844e+00 8.109818458557128906e+00 2.972568511962890625e+00 8.071820735931396484e-01
3.336000000000000000e+03 5.555690765380859375e+01 -1.534991741180419922e+01 7.361443042755126953e-01 8.270792961120605469e+00 2.702081203460693359e+00 -9.130701422691345215e-01
3.337000000000000000e+03 5.702908706665039062e+01 -1.375915145874023438e+01 9.741595983505249023e-01 8.058560371398925781e+00 2.709815979003906250e+00 -8.228731751441955566e-01
3.338000000000000000e+03 5.627040100097656250e+01 -1.386352300643920898e+00 1.497943043708801270e+00 8.009808540344238281e+00 2.852325439453125000e+00 8.313632011413574219e-01
3.339000000000000000e+03 3.908697891235351562e+01 6.483236789703369141e+00 -3.820801153779029846e-02 5.908857345581054688e+00 1.761194825172424316e+00 -1.674189805984497070e+00
3.340000000000000000e+03 5.536750030517578125e+01 -1.370595073699951172e+01 1.077138304710388184e+00 8.243940353393554688e+00 2.796323776245117188e+00 -8.861204981803894043e-01
3.341000000000000000e+03 5.840694427490234375e+01 5.737630844116210938e+00 3.040136992931365967e-01 8.018401145935058594e+00 2.496724367141723633e+00 1.000816106796264648e+00
3.342000000000000000e+03 4.276906204223632812e+01 -2.436442947387695312e+01 -6.527073979377746582e-01 6.806663513183593750e+00 1.846186876296997070e+00 8.368585109710693359e-01
3.343000000000000000e+03 3.975430679321289062e+01 8.290125846862792969e+00 -2.592481076717376709e-01 6.076627254486083984e+00 1.745213747024536133e+00 -1.385504722595214844e+00
3.344000000000000000e+03 3.803050231933593750e+01 8.545613288879394531e+00 -9.185994416475296021e-02 5.241567134857177734e+00 1.544912219047546387e+00 -1.463304281234741211e+00
3.345000000000000000e+03 5.686201477050781250e+01 -1.024568176269531250e+01 1.537837266921997070e+00 7.911818027496337891e+00 2.834896564483642578e+00 -5.397762060165405273e-01
3.346000000000000000e+03 5.399814224243164062e+01 -1.855517196655273438e+01 9.135293215513229370e-02 8.418188095092773438e+00 2.552862167358398438e+00 -8.026983737945556641e-01
3.347000000000000000e+03 5.423791122436523438e+01 -2.027031707763671875e+01 -1.232171878218650818e-01 8.333427429199218750e+00 2.463063001632690430e+00 -7.258026599884033203e-01
3.348000000000000000e+03 5.324536132812500000e+01 -2.461951065063476562e+01 -5.699830651283264160e-01 8.076058387756347656e+00 2.251822710037231445e+00 -4.261316657066345215e-01
3.349000000000000000e+03 5.647013854980468750e+01 -2.370929718017578125e+01 -3.430361747741699219e-01 8.096858024597167969e+00 2.326146602630615234e+00 -6.565644145011901855e-01
3.350000000000000000e+03 4.665570068359375000e+01 -2.360740423202514648e+00 2.425429344177246094e+00 1.061598873138427734e+01 3.912425518035888672e+00 1.298857688903808594e+00
3.351000000000000000e+03 4.741981887817382812e+01 -6.582283496856689453e+00 4.759473323822021484e+00 9.678615570068359375e+00 4.331426620483398438e+00 -6.230999156832695007e-02
3.352000000000000000e+03 4.761472320556640625e+01 -5.495600223541259766e+00 4.459123611450195312e+00 9.640038490295410156e+00 4.229748725891113281e+00 5.695983767509460449e-01
3.353000000000000000e+03 4.793922805786132812e+01 -6.600240230560302734e+00 4.492305755615234375e+00 9.464535713195800781e+00 4.187052726745605469e+00 -6.018872559070587158e-02
3.354000000000000000e+03 4.061052703857421875e+01 3.237227916717529297e+00 6.327604409307241440e-03 7.380695819854736328e+00 2.216106891632080078e+00 -1.972021698951721191e+00
3.355000000000000000e+03 4.263170623779296875e+01 1.664049625396728516e-01 1.094595864415168762e-01 1.028127765655517578e+01 3.117221117019653320e+00 -1.382565021514892578e+00
3.356000000000000000e+03 4.488801956176757812e+01 -1.016339421272277832e+00 9.546363353729248047e-01 1.127003002166748047e+01 3.667399883270263672e+00 4.536678791046142578e-01
3.357000000000000000e+03 4.570477676391601562e+01 -2.189534425735473633e+00 2.035442352294921875e+00 1.123464202880859375e+01 3.981025457382202148e+00 1.139289736747741699e+00
3.358000000000000000e+03 4.548538208007812500e+01 -1.292205095291137695e+00 1.322997331619262695e+00 1.111828136444091797e+01 3.732383489608764648e+00 7.987319827079772949e-01
3.359000000000000000e+03 4.006973648071289062e+01 1.029456734657287598e+00 4.362587630748748779e-01 7.374371528625488281e+00 2.343189001083374023e+00 -2.639524698257446289e+00
3.360000000000000000e+03 4.580947875976562500e+01 -1.303114700317382812e+01 4.971910417079925537e-01 1.065784263610839844e+01 3.346509933471679688e+00 -4.871870279312133789e-01
3.361000000000000000e+03 4.491455459594726562e+01 -1.307975196838378906e+01 2.404716014862060547e-01 1.077007484436035156e+01 3.303163766860961914e+00 -9.002462029457092285e-02
3.362000000000000000e+03 4.619948577880859375e+01 -2.976652145385742188e+00 2.889274358749389648e+00 1.093817520141601562e+01 4.148234844207763672e+00 1.365531444549560547e+00
3.363000000000000000e+03 4.936859130859375000e+01 -9.425841331481933594e+00 2.976682901382446289e+00 9.206562995910644531e+00 3.654973745346069336e+00 -9.650553464889526367e-01
3.364000000000000000e+03 4.762869644165039062e+01 -9.331424713134765625e+00 3.335729837417602539e+00 9.961611747741699219e+00 3.989202499389648438e+00 -1.193447947502136230e+00
3.365000000000000000e+03 4.034501647949218750e+01 1.897290587425231934e+00 2.296253591775894165e-01 7.511353015899658203e+00 2.322293519973754883e+00 -2.298082828521728516e+00
3.366000000000000000e+03 3.981854248046875000e+01 1.581708669662475586e+00 4.236233830451965332e-01 7.054110527038574219e+00 2.243320226669311523e+00 -2.527007818222045898e+00
3.367000000000000000e+03 4.748085403442382812e+01 -1.135681915283203125e+01 1.840693831443786621e+00 1.020798015594482422e+01 3.614602088928222656e+00 -1.189481019973754883e+00
3.368000000000000000e+03 4.757066726684570312e+01 -1.095562744140625000e+01 2.176215410232543945e+00 1.013353919982910156e+01 3.692926406860351562e+00 -1.235044240951538086e+00
3.369000000000000000e+03 4.696411895751953125e+01 -1.129778194427490234e+01 1.802394509315490723e+00 1.049545097351074219e+01 3.689353704452514648e+00 -1.180380225181579590e+00
3.370000000000000000e+03 4.202015304565429688e+01 -1.432132244110107422e+01 -2.889541685581207275e-01 9.178521156311035156e+00 2.666869878768920898e+00 1.846489071846008301e+00
3.371000000000000000e+03 4.250806427001953125e+01 -1.535946655273437500e+01 -4.001309275627136230e-01 8.963744163513183594e+00 2.569083929061889648e+00 1.515211224555969238e+00
3.372000000000000000e+03 4.342401885986328125e+01 -1.570686721801757812e+01 -4.410065114498138428e-01 9.231785774230957031e+00 2.637233734130859375e+00 1.055651903152465820e+00
3.373000000000000000e+03 4.296921157836914062e+01 -1.669372940063476562e+01 -4.873248934745788574e-01 8.618715286254882812e+00 2.439417123794555664e+00 1.234905123710632324e+00
3.374000000000000000e+03 5.618669509887695312e+01 -4.610378742218017578e+00 1.877502679824829102e+00 7.884430408477783203e+00 2.928579807281494141e+00 3.835643231868743896e-01
3.375000000000000000e+03 5.482524108886718750e+01 -7.715070724487304688e+00 2.176786422729492188e+00 8.005724906921386719e+00 3.054753541946411133e+00 -2.078054994344711304e-01
3.376000000000000000e+03 5.591980743408203125e+01 -9.578373908996582031e+00 1.784023642539978027e+00 7.972042083740234375e+00 2.926819801330566406e+00 -4.812962710857391357e-01
3.377000000000000000e+03 3.997741699218750000e+01 3.043613910675048828e+00 1.595666259527206421e-01 6.877459526062011719e+00 2.111107826232910156e+00 -2.105190038681030273e+00
3.378000000000000000e+03 4.007934951782226562e+01 6.512749671936035156e+00 -1.890897452831268311e-01 6.459180355072021484e+00 1.881027102470397949e+00 -1.524449229240417480e+00
3.379000000000000000e+03 4.062612915039062500e+01 1.339348435401916504e+00 2.211617976427078247e-01 7.929033279418945312e+00 2.445058584213256836e+00 -2.370391607284545898e+00
3.380000000000000000e+03 4.145502471923828125e+01 9.235270619392395020e-01 1.133847460150718689e-01 8.878912925720214844e+00 2.697689294815063477e+00 -2.094129085540771484e+00
3.381000000000000000e+03 5.543408203125000000e+01 -6.619196414947509766e+00 2.113991498947143555e+00 7.928986072540283203e+00 3.012893438339233398e+00 1.002891920506954193e-02
3.382000000000000000e+03 5.507918930053710938e+01 -4.490527153015136719e+00 2.078250169754028320e+00 7.999644756317138672e+00 3.023368358612060547e+00 4.401552379131317139e-01
3.383000000000000000e+03 5.554622650146484375e+01 -7.966287136077880859e-01 1.434113264083862305e+00 8.120162963867187500e+00 2.866282701492309570e+00 9.088260531425476074e-01
3.384000000000000000e+03 5.710982894897460938e+01 2.688568592071533203e+00 7.463456988334655762e-01 8.070417404174804688e+00 2.645028829574584961e+00 1.005901455879211426e+00
3.385000000000000000e+03 5.622990798950195312e+01 -7.483748912811279297e+00 1.918903708457946777e+00 7.866354465484619141e+00 2.935577392578125000e+00 -1.302553862333297729e-01
3.386000000000000000e+03 4.254378128051757812e+01 -2.164622879028320312e+01 -6.062368750572204590e-01 7.150457382202148438e+00 1.963266134262084961e+00 1.043698787689208984e+00
3.387000000000000000e+03 4.350995635986328125e+01 -2.039725303649902344e+01 -6.442403197288513184e-01 7.730494022369384766e+00 2.125876188278198242e+00 9.289916157722473145e-01
3.388000000000000000e+03 3.823776245117187500e+01 1.035539245605468750e+01 -2.287258356809616089e-01 5.232822418212890625e+00 1.501228928565979004e+00 -1.295001983642578125e+00
3.389000000000000000e+03 3.951772308349609375e+01 5.684237957000732422e+00 -2.856939099729061127e-02 6.234131813049316406e+00 1.861668705940246582e+00 -1.763721585273742676e+00
3.390000000000000000e+03 5.612201690673828125e+01 -1.277404499053955078e+01 1.223269343376159668e+00 8.116612434387207031e+00 2.801964521408081055e+00 -8.126657009124755859e-01
3.391000000000000000e+03 5.399478149414062500e+01 -1.441435337066650391e+01 9.248188138008117676e-01 8.455659866333007812e+00 2.814143657684326172e+00 -9.503461718559265137e-01
3.392000000000000000e+03 5.540441513061523438e+01 -1.056220340728759766e+01 1.711578249931335449e+00 8.077426910400390625e+00 2.936701536178588867e+00 -6.365701556205749512e-01
3.393000000000000000e+03 5.704158782958984375e+01 5.988835334777832031e+00 2.591304481029510498e-01 8.098781585693359375e+00 2.507373571395874023e+00 9.989050626754760742e-01
3.394000000000000000e+03 5.418343734741210938e+01 3.115246057510375977e+00 6.738570928573608398e-01 8.381957054138183594e+00 2.716744422912597656e+00 1.054437160491943359e+00
3.395000000000000000e+03 5.502760696411132812e+01 -1.685785675048828125e+01 4.372956752777099609e-01 8.350831031799316406e+00 2.636437892913818359e+00 -9.006818532943725586e-01
3.396000000000000000e+03 5.388041687011718750e+01 -1.701715660095214844e+01 3.589691817760467529e-01 8.482539176940917969e+00 2.652452468872070312e+00 -8.826809525489807129e-01
3.397000000000000000e+03 5.582173156738281250e+01 8.239151954650878906e+00 -4.099102690815925598e-02 8.137703895568847656e+00 2.429013729095458984e+00 9.073211550712585449e-01
3.398000000000000000e+03 5.957403182983398438e+01 1.334628009796142578e+01 -2.784220576286315918e-01 7.909964084625244141e+00 2.289462566375732422e+00 8.240931034088134766e-01
3.399000000000000000e+03 4.611531829833984375e+01 -2.054608345031738281e+00 2.051877260208129883e+00 1.095665168762207031e+01 3.902558565139770508e+00 1.178652763366699219e+00
3.400000000000000000e+03 4.221970748901367188e+01 -5.023159459233283997e-02 1.500538885593414307e-01 1.018226146697998047e+01 3.099694728851318359e+00 -1.735139369964599609e+00
3.401000000000000000e+03 4.324256515502929688e+01 -2.156466245651245117e-02 1.739507615566253662e-01 1.065416622161865234e+01 3.248435258865356445e+00 -9.350157976150512695e-01
3.402000000000000000e+03 4.781593704223632812e+01 -1.058031654357910156e+01 2.419766664505004883e+00 1.002687644958496094e+01 3.733992815017700195e+00 -1.263419151306152344e+00
3.403000000000000000e+03 4.179141616821289062e+01 -1.708644181489944458e-01 2.024985551834106445e-01 9.944314002990722656e+00 3.044043779373168945e+00 -2.056346178054809570e+00
3.404000000000000000e+03 4.802246093750000000e+01 -9.024631500244140625e+00 3.486099004745483398e+00 9.710401535034179688e+00 3.958950281143188477e+00 -1.084138989448547363e+00
3.405000000000000000e+03 4.837598037719726562e+01 -8.667256355285644531e+00 3.576699972152709961e+00 9.499617576599121094e+00 3.922895193099975586e+00 -9.421253800392150879e-01
3.406000000000000000e+03 4.696780776977539062e+01 -1.186766910552978516e+01 1.446769475936889648e+00 1.044091606140136719e+01 3.566305637359619141e+00 -1.074826717376708984e+00
3.407000000000000000e+03 4.532728195190429688e+01 -7.806913256645202637e-01 9.678804874420166016e-01 1.097539424896240234e+01 3.582982301712036133e+00 5.648763775825500488e-01
3.408000000000000000e+03 4.391661453247070312e+01 -1.442441344261169434e-01 3.150117099285125732e-01 1.086663246154785156e+01 3.354493379592895508e+00 -4.081270694732666016e-01
3.409000000000000000e+03 4.348186492919921875e+01 -4.690056145191192627e-01 3.184961974620819092e-01 1.107678699493408203e+01 3.418585062026977539e+00 -6.642363667488098145e-01
3.410000000000000000e+03 4.733396148681640625e+01 -3.152342319488525391e+00 3.061439752578735352e+00 1.011747360229492188e+01 3.953674077987670898e+00 1.284435510635375977e+00
3.411000000000000000e+03 4.562194442749023438e+01 -1.747233867645263672e+00 1.674787402153015137e+00 1.118413257598876953e+01 3.857675790786743164e+00 9.878735542297363281e-01
3.412000000000000000e+03 4.842960357666015625e+01 -9.426091194152832031e+00 3.140317678451538086e+00 9.583891868591308594e+00 3.817262887954711914e+00 -1.101838111877441406e+00
3.413000000000000000e+03 4.785696792602539062e+01 -7.024096965789794922e+00 4.437751293182373047e+00 9.506876945495605469e+00 4.183388233184814453e+00 -2.904658019542694092e-01
3.414000000000000000e+03 4.485658264160156250e+01 -1.395508384704589844e+01 -1.538514345884323120e-02 1.032908439636230469e+01 3.094109773635864258e+00 1.425613313913345337e-01
3.415000000000000000e+03 4.638481521606445312e+01 -1.314500713348388672e+01 6.180784106254577637e-01 1.043821907043457031e+01 3.316889286041259766e+00 -6.424992680549621582e-01
3.416000000000000000e+03 4.167457962036132812e+01 3.775478601455688477e-01 1.489213109016418457e-01 9.421220779418945312e+00 2.871042490005493164e+00 -2.052692413330078125e+00
3.417000000000000000e+03 4.703834533691406250e+01 -1.251914691925048828e+01 1.082710742950439453e+00 1.031479644775390625e+01 3.419252157211303711e+00 -9.434651732444763184e-01
3.418000000000000000e+03 4.062775421142578125e+01 2.442358016967773438e+00 8.514132350683212280e-02 7.610205173492431641e+00 2.308604001998901367e+00 -2.124479055404663086e+00
3.419000000000000000e+03 4.012086105346679688e+01 2.399323701858520508e+00 2.060424983501434326e-01 7.139483451843261719e+00 2.203657865524291992e+00 -2.232041358947753906e+00
3.420000000000000000e+03 4.778088760375976562e+01 -7.354496479034423828e+00 4.361479282379150391e+00 9.565303802490234375e+00 4.178034782409667969e+00 -4.800292253494262695e-01
3.421000000000000000e+03 4.770225906372070312e+01 -3.387075424194335938e+00 3.212280511856079102e+00 9.915780067443847656e+00 3.938418149948120117e+00 1.248518109321594238e+00
3.422000000000000000e+03 4.794798660278320312e+01 -4.752635002136230469e+00 4.004717826843261719e+00 9.577219963073730469e+00 4.074581146240234375e+00 8.393836617469787598e-01
3.423000000000000000e+03 4.207326507568359375e+01 5.299988389015197754e-01 7.890114933252334595e-02 9.604538917541503906e+00 2.905031919479370117e+00 -1.793946385383605957e+00
3.424000000000000000e+03 4.430808639526367188e+01 -1.448655605316162109e+01 -2.387489378452301025e-01 1.002391719818115234e+01 2.935550451278686523e+00 5.500524640083312988e-01
3.425000000000000000e+03 4.883075714111328125e+01 -9.001640319824218750e+00 3.308393239974975586e+00 9.357851982116699219e+00 3.799873828887939453e+00 -9.567368626594543457e-01
3.426000000000000000e+03 5.440265655517578125e+01 -1.182633972167968750e+01 1.514853715896606445e+00 8.274249076843261719e+00 2.936730861663818359e+00 -8.324143886566162109e-01
3.427000000000000000e+03 4.445094299316406250e+01 -1.618988609313964844e+01 -4.377273321151733398e-01 9.316219329833984375e+00 2.663547754287719727e+00 6.475011110305786133e-01
3.428000000000000000e+03 4.074113082885742188e+01 4.122610092163085938e+00 -7.142409682273864746e-02 7.252365112304687500e+00 2.154282331466674805e+00 -1.787019729614257812e+00
3.429000000000000000e+03 4.830865097045898438e+01 -4.303170680999755859e+00 3.645698785781860352e+00 9.475302696228027344e+00 3.936300277709960938e+00 9.383023381233215332e-01
3.430000000000000000e+03 5.401678848266601562e+01 -6.913348197937011719e+00 2.380049943923950195e+00 8.069317817687988281e+00 3.134810447692871094e+00 -4.487256705760955811e-02
3.431000000000000000e+03 4.326903533935546875e+01 -1.838153648376464844e+01 -5.738476514816284180e-01 8.165517807006835938e+00 2.277500867843627930e+00 1.071736335754394531e+00
3.432000000000000000e+03 4.496825790405273438e+01 -1.795629882812500000e+01 -5.581236481666564941e-01 8.776105880737304688e+00 2.465394735336303711e+00 5.561521649360656738e-01
3.433000000000000000e+03 5.565310668945312500e+01 -2.046046257019042969e+00 1.677727818489074707e+00 8.039904594421386719e+00 2.915289640426635742e+00 7.932067513465881348e-01
3.434000000000000000e+03 4.877080535888671875e+01 -2.526179552078247070e+00 2.590323686599731445e+00 9.490530014038085938e+00 3.624256134033203125e+00 1.196799755096435547e+00
3.435000000000000000e+03 5.493934249877929688e+01 -3.260167837142944336e+00 1.948128700256347656e+00 8.054761886596679688e+00 3.000867366790771484e+00 6.309147477149963379e-01
3.436000000000000000e+03 5.606560134887695312e+01 1.240375116467475891e-01 1.249022841453552246e+00 8.088564872741699219e+00 2.801276445388793945e+00 9.465819597244262695e-01
3.437000000000000000e+03 5.707599639892578125e+01 4.362584590911865234e+00 4.844346642494201660e-01 8.097211837768554688e+00 2.574493885040283203e+00 1.019438385963439941e+00
3.438000000000000000e+03 5.400044250488281250e+01 -7.851478576660156250e+00 2.341279029846191406e+00 8.097587585449218750e+00 3.131659984588623047e+00 -2.522810995578765869e-01
3.439000000000000000e+03 4.097503280639648438e+01 1.027844715118408203e+01 -4.574957787990570068e-01 6.335042476654052734e+00 1.763264060020446777e+00 -1.073986172676086426e+00
3.440000000000000000e+03 4.090482711791992188e+01 1.180130290985107422e+01 -5.046744942665100098e-01 6.129665851593017578e+00 1.687497377395629883e+00 -9.769839644432067871e-01
3.441000000000000000e+03 5.477945327758789062e+01 -1.567885303497314453e+01 6.564028263092041016e-01 8.378143310546875000e+00 2.710363864898681641e+00 -9.252502918243408203e-01
3.442000000000000000e+03 5.544191360473632812e+01 6.407963275909423828e+00 1.534022688865661621e-01 8.209836006164550781e+00 2.508971452713012695e+00 9.609855413436889648e-01
3.443000000000000000e+03 5.608945083618164062e+01 -1.641384696960449219e+01 5.358539223670959473e-01 8.231646537780761719e+00 2.630249977111816406e+00 -9.000658988952636719e-01
3.444000000000000000e+03 5.286848831176757812e+01 -1.553555107116699219e+01 6.313023567199707031e-01 8.639740943908691406e+00 2.781312942504882812e+00 -9.409458637237548828e-01
3.445000000000000000e+03 4.798197174072265625e+01 -2.099074172973632812e+01 -6.110525131225585938e-01 8.402638435363769531e+00 2.337475776672363281e+00 2.046271460130810738e-03
3.446000000000000000e+03 4.664896774291992188e+01 -2.676123237609863281e+01 -8.063750267028808594e-01 7.408062934875488281e+00 1.980506420135498047e+00 2.852889299392700195e-01
3.447000000000000000e+03 4.455861282348632812e+01 -2.574507331848144531e+01 -7.510272860527038574e-01 7.118569374084472656e+00 1.910262584686279297e+00 5.448477864265441895e-01
3.448000000000000000e+03 4.301186752319335938e+01 3.799707293510437012e-01 7.637650519609451294e-02 1.030945682525634766e+01 3.115749835968017578e+00 -1.120934724807739258e+00
3.449000000000000000e+03 4.466479492187500000e+01 -3.866658508777618408e-01 5.782101750373840332e-01 1.097031784057617188e+01 3.464558362960815430e+00 1.219832077622413635e-01
3.450000000000000000e+03 4.184317398071289062e+01 1.742385387420654297e+00 -3.200868889689445496e-02 8.770826339721679688e+00 2.621645212173461914e+00 -1.747557044029235840e+00
3.451000000000000000e+03 4.521117782592773438e+01 -1.345676326751708984e+01 1.897774040699005127e-01 1.056664371490478516e+01 3.226926326751708984e+00 -1.382202953100204468e-01
3.452000000000000000e+03 4.805704116821289062e+01 -6.110854625701904297e+00 4.412383556365966797e+00 9.416011810302734375e+00 4.148518562316894531e+00 2.044001519680023193e-01
3.453000000000000000e+03 4.699095916748046875e+01 -3.498253822326660156e+00 3.386808395385742188e+00 1.033377742767333984e+01 4.116175651550292969e+00 1.315920233726501465e+00
3.454000000000000000e+03 4.576753997802734375e+01 -6.359502077102661133e-01 1.016745090484619141e+00 1.073517417907714844e+01 3.525575876235961914e+00 6.906944513320922852e-01
3.455000000000000000e+03 4.120956420898437500e+01 2.391222000122070312e+00 -8.802399970591068268e-03 8.015627861022949219e+00 2.402047634124755859e+00 -1.957345008850097656e+00
3.456000000000000000e+03 4.735639953613281250e+01 -3.791086673736572266e+00 3.582082748413085938e+00 1.006174564361572266e+01 4.093148708343505859e+00 1.230010747909545898e+00
3.457000000000000000e+03 4.539744186401367188e+01 -1.440543746948242188e+01 -1.440882403403520584e-02 1.015431308746337891e+01 3.041971445083618164e+00 -9.011561982333660126e-03
3.458000000000000000e+03 4.782151412963867188e+01 -4.039390087127685547e+00 3.654118776321411133e+00 9.754497528076171875e+00 4.022584915161132812e+00 1.096178889274597168e+00
3.459000000000000000e+03 4.703823471069335938e+01 -1.325820446014404297e+01 7.320104837417602539e-01 1.017429256439208984e+01 3.271891117095947266e+00 -7.721067667007446289e-01
3.460000000000000000e+03 4.824039459228515625e+01 -8.086036682128906250e+00 3.963961601257324219e+00 9.480478286743164062e+00 4.033331871032714844e+00 -7.413455843925476074e-01
3.461000000000000000e+03 4.799093246459960938e+01 -7.894468307495117188e+00 4.157897949218750000e+00 9.553324699401855469e+00 4.113367080688476562e+00 -7.213286757469177246e-01
3.462000000000000000e+03 4.866540527343750000e+01 -6.288726329803466797e+00 4.089820861816406250e+00 9.157528877258300781e+00 3.974205017089843750e+00 1.031381264328956604e-01
3.463000000000000000e+03 4.885489273071289062e+01 -5.802226066589355469e+00 3.968379020690917969e+00 9.110420227050781250e+00 3.923639774322509766e+00 3.245504200458526611e-01
3.464000000000000000e+03 4.568469619750976562e+01 -1.369249057769775391e+01 2.233848720788955688e-01 1.041907787322998047e+01 3.192738771438598633e+00 -2.629776000976562500e-01
3.465000000000000000e+03 4.626106643676757812e+01 -1.387895011901855469e+01 2.935577034950256348e-01 1.025204086303710938e+01 3.163679599761962891e+00 -4.069246053695678711e-01
3.466000000000000000e+03 4.796880340576171875e+01 -1.127054023742675781e+01 1.974725961685180664e+00 9.930431365966796875e+00 3.571547269821166992e+00 -1.193486809730529785e+00
3.467000000000000000e+03 4.193420410156250000e+01 1.108651638031005859e+00 2.004769816994667053e-02 9.130844116210937500e+00 2.745267391204833984e+00 -1.789850711822509766e+00
3.468000000000000000e+03 5.302359390258789062e+01 -1.422851753234863281e+01 9.763458371162414551e-01 8.600396156311035156e+00 2.873022556304931641e+00 -9.736160039901733398e-01
3.469000000000000000e+03 4.796800231933593750e+01 -9.704924583435058594e+00 2.995788574218750000e+00 9.829195022583007812e+00 3.847495079040527344e+00 -1.191609263420104980e+00
3.470000000000000000e+03 4.330118179321289062e+01 7.131910324096679688e-01 2.849927358329296112e-02 1.014665126800537109e+01 3.052545070648193359e+00 -9.400078654289245605e-01
3.471000000000000000e+03 4.494581985473632812e+01 -1.520250797271728516e+01 -2.686677575111389160e-01 9.762247085571289062e+00 2.848073959350585938e+00 3.582775890827178955e-01
3.472000000000000000e+03 4.393038940429687500e+01 -1.729948234558105469e+01 -5.320547223091125488e-01 8.737021446228027344e+00 2.461489915847778320e+00 8.828538656234741211e-01
3.473000000000000000e+03 4.072995758056640625e+01 7.499797344207763672e+00 -3.057157099246978760e-01 6.580204963684082031e+00 1.882346749305725098e+00 -1.357276797294616699e+00
3.474000000000000000e+03 4.089759826660156250e+01 5.912088394165039062e+00 -2.475843131542205811e-01 6.955326557159423828e+00 2.012322664260864258e+00 -1.487135410308837891e+00
3.475000000000000000e+03 5.527998733520507812e+01 -5.636343479156494141e+00 2.137862920761108398e+00 7.949266433715820312e+00 3.026138782501220703e+00 1.971614658832550049e-01
3.476000000000000000e+03 5.670144271850585938e+01 -3.851114511489868164e+00 1.724914669990539551e+00 7.863049030303955078e+00 2.876389026641845703e+00 4.904599487781524658e-01
3.477000000000000000e+03 5.511866378784179688e+01 -1.546225428581237793e+00 1.617607593536376953e+00 8.136562347412109375e+00 2.926250934600830078e+00 8.827386498451232910e-01
3.478000000000000000e+03 5.691007232666015625e+01 -5.610862970352172852e-01 1.289930820465087891e+00 7.983635425567626953e+00 2.782069921493530273e+00 8.718977570533752441e-01
3.479000000000000000e+03 5.429151916503906250e+01 -1.317037963867187500e+01 1.233191251754760742e+00 8.361013412475585938e+00 2.878261566162109375e+00 -9.159639477729797363e-01
3.480000000000000000e+03 5.435113906860351562e+01 -1.042747306823730469e+01 1.856909632682800293e+00 8.188766479492187500e+00 3.013702869415283203e+00 -6.831802725791931152e-01
3.481000000000000000e+03 3.903051376342773438e+01 1.504457664489746094e+01 -4.640398919582366943e-01 5.298815250396728516e+00 1.450432658195495605e+00 -9.143063426017761230e-01
3.482000000000000000e+03 4.023613739013671875e+01 1.350467491149902344e+01 -5.030491352081298828e-01 5.775095939636230469e+00 1.581614017486572266e+00 -9.365729689598083496e-01
3.483000000000000000e+03 4.058796310424804688e+01 9.201528549194335938e+00 -3.864727020263671875e-01 6.324366569519042969e+00 1.781368136405944824e+00 -1.209862232208251953e+00
3.484000000000000000e+03 4.218464660644531250e+01 9.986143112182617188e+00 -5.249195098876953125e-01 6.737317562103271484e+00 1.863719463348388672e+00 -9.448786973953247070e-01
3.485000000000000000e+03 4.178013610839843750e+01 6.741131782531738281e+00 -3.629542589187622070e-01 7.196723937988281250e+00 2.050130844116210938e+00 -1.236030697822570801e+00
3.486000000000000000e+03 4.157249832153320312e+01 8.628980636596679688e+00 -4.426066577434539795e-01 6.740996837615966797e+00 1.889517068862915039e+00 -1.128891468048095703e+00
3.487000000000000000e+03 4.665656280517578125e+01 -2.055381774902343750e+01 -6.495522260665893555e-01 8.363142013549804688e+00 2.314076900482177734e+00 2.402876168489456177e-01
3.488000000000000000e+03 5.385684204101562500e+01 -1.565985107421875000e+01 6.451218724250793457e-01 8.495639801025390625e+00 2.742228507995605469e+00 -9.339929819107055664e-01
3.489000000000000000e+03 5.202964782714843750e+01 -1.406936550140380859e+01 9.961026310920715332e-01 8.782816886901855469e+00 2.933675765991210938e+00 -9.992088079452514648e-01
3.490000000000000000e+03 5.552175521850585938e+01 4.589747428894042969e+00 4.438238441944122314e-01 8.240652084350585938e+00 2.605342864990234375e+00 1.022912144660949707e+00
3.491000000000000000e+03 5.416991043090820312e+01 -9.063796043395996094e+00 2.131561756134033203e+00 8.136746406555175781e+00 3.080492496490478516e+00 -4.834834933280944824e-01
3.492000000000000000e+03 4.810430526733398438e+01 -1.178242397308349609e+01 1.695240736007690430e+00 9.881152153015136719e+00 3.472917795181274414e+00 -1.148897171020507812e+00
3.493000000000000000e+03 5.425994491577148438e+01 9.395112991333007812e+00 -2.172680199146270752e-01 8.133376121520996094e+00 2.374832391738891602e+00 7.805114388465881348e-01
3.494000000000000000e+03 4.546665954589843750e+01 -2.381145095825195312e+01 -7.584571242332458496e-01 7.585289478302001953e+00 2.048049688339233398e+00 4.772776961326599121e-01
3.495000000000000000e+03 4.614022827148437500e+01 -2.207509231567382812e+01 -7.229912281036376953e-01 8.001010894775390625e+00 2.183406114578247070e+00 3.752505481243133545e-01
3.496000000000000000e+03 4.333684539794921875e+01 -2.782821655273437500e+01 -7.121845483779907227e-01 6.556175231933593750e+00 1.753197193145751953e+00 5.878136157989501953e-01
3.497000000000000000e+03 4.716415786743164062e+01 -2.161733388900756836e+00 2.347649574279785156e+00 1.029422760009765625e+01 3.792563199996948242e+00 1.278078436851501465e+00
3.498000000000000000e+03 4.731934356689453125e+01 -2.560453653335571289e+00 2.623693466186523438e+00 1.021330833435058594e+01 3.851100444793701172e+00 1.299608469009399414e+00
3.499000000000000000e+03 4.658048248291015625e+01 -1.871657252311706543e+00 2.016394138336181641e+00 1.062071418762207031e+01 3.791132688522338867e+00 1.196985602378845215e+00
3.500000000000000000e+03 4.822717666625976562e+01 -5.589462280273437500e+00 4.217538356781005859e+00 9.366919517517089844e+00 4.075337409973144531e+00 4.742561578750610352e-01
3.501000000000000000e+03 5.370605087280273438e+01 -2.977061510086059570e+00 2.085505962371826172e+00 8.229821205139160156e+00 3.094598054885864258e+00 7.451887726783752441e-01
3.502000000000000000e+03 4.921950531005859375e+01 -6.478141307830810547e+00 3.852550506591796875e+00 8.984885215759277344e+00 3.851230859756469727e+00 3.697711229324340820e-02
3.503000000000000000e+03 4.520092391967773438e+01 -1.578547209501266479e-01 6.289758086204528809e-01 1.071627712249755859e+01 3.403575658798217773e+00 3.179199397563934326e-01
3.504000000000000000e+03 4.362524795532226562e+01 3.306857645511627197e-01 1.365674734115600586e-01 1.049714565277099609e+01 3.190113782882690430e+00 -6.781480908393859863e-01
3.505000000000000000e+03 4.690032196044921875e+01 -1.403154373168945312e+01 3.883457779884338379e-01 1.001901340484619141e+01 3.122207641601562500e+00 -5.504990816116333008e-01
3.506000000000000000e+03 4.839365386962890625e+01 -1.090822792053222656e+01 2.221354961395263672e+00 9.754482269287109375e+00 3.592751026153564453e+00 -1.211197137832641602e+00
3.507000000000000000e+03 4.799201583862304688e+01 -8.392991065979003906e+00 3.877312660217285156e+00 9.630249977111816406e+00 4.052268981933593750e+00 -8.920313715934753418e-01
3.508000000000000000e+03 5.161266708374023438e+01 -1.665816116333007812e+01 2.988454997539520264e-01 8.779262542724609375e+00 2.723432540893554688e+00 -8.325709104537963867e-01
3.509000000000000000e+03 4.437800598144531250e+01 1.298254728317260742e+00 3.980855271220207214e-02 1.007559585571289062e+01 3.034621477127075195e+00 -3.941476643085479736e-01
3.510000000000000000e+03 4.702937316894531250e+01 -2.888524770736694336e+00 2.847548246383666992e+00 1.035866355895996094e+01 3.961863517761230469e+00 1.322799205780029297e+00
3.511000000000000000e+03 4.814707946777343750e+01 -3.603332996368408203e+00 3.293265342712402344e+00 9.662012100219726562e+00 3.886583328247070312e+00 1.151421189308166504e+00
3.512000000000000000e+03 4.571661758422851562e+01 -1.119580566883087158e-01 7.527981400489807129e-01 1.054618644714355469e+01 3.389695405960083008e+00 5.212939381599426270e-01
3.513000000000000000e+03 4.247874832153320312e+01 2.485153913497924805e+00 -1.701900064945220947e-01 8.802886962890625000e+00 2.589809179306030273e+00 -1.380049705505371094e+00
3.514000000000000000e+03 4.834310150146484375e+01 -7.218394756317138672e+00 4.137135028839111328e+00 9.317605018615722656e+00 4.036421775817871094e+00 -3.553148508071899414e-01
3.515000000000000000e+03 4.945791244506835938e+01 -6.041755199432373047e+00 3.759950637817382812e+00 8.926091194152832031e+00 3.805812597274780273e+00 1.914982050657272339e-01
3.516000000000000000e+03 4.124504089355468750e+01 1.593280434608459473e+00 8.009450882673263550e-02 8.359971046447753906e+00 2.532019853591918945e+00 -2.073594570159912109e+00
3.517000000000000000e+03 4.634484481811523438e+01 -9.102064371109008789e-01 1.311466336250305176e+00 1.059856700897216797e+01 3.573009967803955078e+00 9.291093349456787109e-01
3.518000000000000000e+03 4.589596176147460938e+01 -1.116406321525573730e+00 1.333785533905029297e+00 1.085411643981933594e+01 3.656370639801025391e+00 8.766123652458190918e-01
3.519000000000000000e+03 4.239934921264648438e+01 1.215639114379882812e+00 -3.230438381433486938e-02 9.413339614868164062e+00 2.814310550689697266e+00 -1.522392988204956055e+00
3.520000000000000000e+03 4.752044677734375000e+01 -1.185011482238769531e+01 1.563333392143249512e+00 1.018772506713867188e+01 3.525317668914794922e+00 -1.121790528297424316e+00
3.521000000000000000e+03 4.827362442016601562e+01 -7.764203071594238281e+00 4.092737197875976562e+00 9.415751457214355469e+00 4.052546501159667969e+00 -6.208642125129699707e-01
3.522000000000000000e+03 4.808935165405273438e+01 -7.479464054107666016e+00 4.185339927673339844e+00 9.444538116455078125e+00 4.088963508605957031e+00 -5.168456435203552246e-01
3.523000000000000000e+03 4.891329574584960938e+01 -9.859818458557128906e+00 2.800082683563232422e+00 9.451594352722167969e+00 3.675503253936767578e+00 -1.106202721595764160e+00
3.524000000000000000e+03 4.130046463012695312e+01 3.185442209243774414e+00 -9.389117360115051270e-02 7.838344573974609375e+00 2.323336124420166016e+00 -1.765135049819946289e+00
3.525000000000000000e+03 5.327848815917968750e+01 -1.173997592926025391e+01 1.639606833457946777e+00 8.446732521057128906e+00 3.025901794433593750e+00 -8.983596563339233398e-01
3.526000000000000000e+03 5.472502899169921875e+01 -4.185350537300109863e-01 1.457129359245300293e+00 8.205285072326660156e+00 2.898724317550659180e+00 9.638530015945434570e-01
3.527000000000000000e+03 5.379266357421875000e+01 -6.210053920745849609e+00 2.422054529190063477e+00 8.095640182495117188e+00 3.155308246612548828e+00 9.722754359245300293e-02
3.528000000000000000e+03 4.152981185913085938e+01 3.976857900619506836e+00 -1.829087734222412109e-01 7.771986484527587891e+00 2.276723384857177734e+00 -1.604562520980834961e+00
3.529000000000000000e+03 4.108218002319335938e+01 5.076885223388671875e+00 -2.119262963533401489e-01 7.196978092193603516e+00 2.095515489578247070e+00 -1.545561671257019043e+00
3.530000000000000000e+03 5.220721435546875000e+01 -3.602571487426757812e+00 2.471693277359008789e+00 8.427362442016601562e+00 3.269716739654541016e+00 7.380357384681701660e-01
3.531000000000000000e+03 4.333386230468750000e+01 1.348461341857910156e+01 -6.445983052253723145e-01 6.596699714660644531e+00 1.785630345344543457e+00 -6.417706012725830078e-01
3.532000000000000000e+03 5.442995452880859375e+01 -1.257812619209289551e+00 1.572298169136047363e+00 8.213723182678222656e+00 2.935806512832641602e+00 9.082076549530029297e-01
3.533000000000000000e+03 4.257085800170898438e+01 1.168689632415771484e+01 -5.875970125198364258e-01 6.600965976715087891e+00 1.804010748863220215e+00 -7.896093726158142090e-01
3.534000000000000000e+03 4.744495391845703125e+01 -1.639236831665039062e+01 -1.217070296406745911e-01 9.372187614440917969e+00 2.775144338607788086e+00 -2.952616512775421143e-01
3.535000000000000000e+03 4.555625915527343750e+01 -1.676883316040039062e+01 -3.942191302776336670e-01 9.249244689941406250e+00 2.656507730484008789e+00 2.674115598201751709e-01
3.536000000000000000e+03 4.981109237670898438e+01 5.516921997070312500e+00 -7.222995907068252563e-02 8.697385787963867188e+00 2.587546586990356445e+00 6.060779690742492676e-01
3.537000000000000000e+03 5.193182754516601562e+01 1.587451100349426270e+00 9.724100828170776367e-01 8.703331947326660156e+00 2.902722597122192383e+00 1.087356090545654297e+00
3.538000000000000000e+03 4.468668365478515625e+01 1.506493091583251953e+01 -6.968929767608642578e-01 6.691048622131347656e+00 1.798246622085571289e+00 -4.272519946098327637e-01
3.539000000000000000e+03 5.325695800781250000e+01 -1.048259735107421875e+01 1.970559835433959961e+00 8.360513687133789062e+00 3.099321842193603516e+00 -7.599393725395202637e-01
3.540000000000000000e+03 5.022583770751953125e+01 -1.133140754699707031e+01 1.959931612014770508e+00 9.124806404113769531e+00 3.325421333312988281e+00 -1.090636968612670898e+00
3.541000000000000000e+03 4.387589645385742188e+01 -2.281008911132812500e+01 -6.993136405944824219e-01 7.372812271118164062e+00 2.002049684524536133e+00 7.553766369819641113e-01
3.542000000000000000e+03 4.473883819580078125e+01 -2.131034851074218750e+01 -6.996468901634216309e-01 7.869307994842529297e+00 2.150898456573486328e+00 6.424985527992248535e-01
3.543000000000000000e+03 4.268799972534179688e+01 4.318581581115722656e+00 -3.153089880943298340e-01 8.197020530700683594e+00 2.364513397216796875e+00 -1.194758057594299316e+00
3.544000000000000000e+03 4.679006958007812500e+01 -1.560444355010986328e+01 -7.881719619035720825e-02 9.599532127380371094e+00 2.856214523315429688e+00 -2.285797297954559326e-01
3.545000000000000000e+03 5.272627639770507812e+01 -1.695264816284179688e+01 3.171408772468566895e-01 8.632921218872070312e+00 2.685018777847290039e+00 -8.585134744644165039e-01
3.546000000000000000e+03 5.409874343872070312e+01 4.618574619293212891e+00 3.990359008312225342e-01 8.368167877197265625e+00 2.630161046981811523e+00 1.004317760467529297e+00
3.547000000000000000e+03 5.768220520019531250e+01 1.115903091430664062e+01 -2.166852951049804688e-01 7.982404708862304688e+00 2.329715728759765625e+00 8.526380062103271484e-01
3.548000000000000000e+03 4.056928634643554688e+01 1.645512580871582031e+01 -5.593448877334594727e-01 5.620781898498535156e+00 1.518431067466735840e+00 -7.639840841293334961e-01
3.549000000000000000e+03 3.770695495605468750e+01 1.645159339904785156e+01 -4.162820577621459961e-01 4.841703891754150391e+00 1.327626466751098633e+00 -8.887340426445007324e-01
3.550000000000000000e+03 4.283986282348632812e+01 1.769311070442199707e+00 -1.006790623068809509e-01 9.282309532165527344e+00 2.754489183425903320e+00 -1.250737309455871582e+00
3.551000000000000000e+03 4.437999725341796875e+01 2.543398141860961914e-01 2.871946096420288086e-01 1.062721443176269531e+01 3.274322748184204102e+00 -1.949626654386520386e-01
3.552000000000000000e+03 4.291614532470703125e+01 8.146415948867797852e-01 -5.602576769888401031e-03 9.937105178833007812e+00 2.979450941085815430e+00 -1.197123050689697266e+00
3.553000000000000000e+03 4.315325546264648438e+01 3.560278892517089844e+00 -2.833712399005889893e-01 8.669628143310546875e+00 2.515877246856689453e+00 -1.070408105850219727e+00
3.554000000000000000e+03 4.773163223266601562e+01 -2.403892517089843750e+00 2.512655735015869141e+00 9.976298332214355469e+00 3.746686220169067383e+00 1.277195453643798828e+00
3.555000000000000000e+03 4.619705963134765625e+01 -5.000241994857788086e-01 1.076341986656188965e+00 1.053896236419677734e+01 3.484591245651245117e+00 7.946334481239318848e-01
3.556000000000000000e+03 4.971010971069335938e+01 -5.554586410522460938e+00 3.585775852203369141e+00 8.873454093933105469e+00 3.737768888473510742e+00 3.766790926456451416e-01
3.557000000000000000e+03 4.647867202758789062e+01 -1.380791306495666504e+00 1.642041921615600586e+00 1.061990547180175781e+01 3.678584098815917969e+00 1.068896293640136719e+00
3.558000000000000000e+03 4.602427291870117188e+01 -1.583804130554199219e+00 1.663219928741455078e+00 1.091300487518310547e+01 3.772867441177368164e+00 1.030206084251403809e+00
3.559000000000000000e+03 4.864779281616210938e+01 -3.823445081710815430e+00 3.308362007141113281e+00 9.404445648193359375e+00 3.813842296600341797e+00 1.025550007820129395e+00
3.560000000000000000e+03 4.966000366210937500e+01 -6.801229476928710938e+00 3.651291370391845703e+00 8.840643882751464844e+00 3.747580766677856445e+00 -1.143013685941696167e-01
3.561000000000000000e+03 4.804057312011718750e+01 -1.014488410949707031e+01 2.696882486343383789e+00 9.870112419128417969e+00 3.770098447799682617e+00 -1.245484352111816406e+00
3.562000000000000000e+03 4.964355850219726562e+01 -1.338797926902770996e+00 1.963770627975463867e+00 9.237093925476074219e+00 3.360259532928466797e+00 1.173581242561340332e+00
3.563000000000000000e+03 4.761107635498046875e+01 -2.788901329040527344e+00 2.803882837295532227e+00 1.001247692108154297e+01 3.844907999038696289e+00 1.277367472648620605e+00
3.564000000000000000e+03 4.285049057006835938e+01 1.286492705345153809e+00 -5.583989992737770081e-02 9.628484725952148438e+00 2.871793508529663086e+00 -1.238074421882629395e+00
3.565000000000000000e+03 5.408683013916015625e+01 -1.998131871223449707e+00 1.828592658042907715e+00 8.228894233703613281e+00 3.017246007919311523e+00 8.792720437049865723e-01
3.566000000000000000e+03 4.861700057983398438e+01 -1.034702205657958984e+01 2.557746171951293945e+00 9.626238822937011719e+00 3.655195713043212891e+00 -1.196306586265563965e+00
3.567000000000000000e+03 5.209671401977539062e+01 -6.894722938537597656e+00 2.852746725082397461e+00 8.344240188598632812e+00 3.359096050262451172e+00 -9.561982750892639160e-02
3.568000000000000000e+03 4.809079360961914062e+01 -1.233172035217285156e+01 1.373756527900695801e+00 9.880467414855957031e+00 3.376267194747924805e+00 -1.080009102821350098e+00
3.569000000000000000e+03 5.220457458496093750e+01 -1.167540359497070312e+01 1.736095309257507324e+00 8.647741317749023438e+00 3.115150928497314453e+00 -9.633041024208068848e-01
3.570000000000000000e+03 4.189264678955078125e+01 3.100898981094360352e+00 -1.629187315702438354e-01 8.223919868469238281e+00 2.418300390243530273e+00 -1.618670463562011719e+00
3.571000000000000000e+03 4.213240432739257812e+01 3.689022541046142578e+00 -2.263717204332351685e-01 8.133302688598632812e+00 2.372079133987426758e+00 -1.443599820137023926e+00
3.572000000000000000e+03 5.318981552124023438e+01 -1.298266601562500000e+01 1.314869284629821777e+00 8.531963348388671875e+00 2.954049825668334961e+00 -9.638803601264953613e-01
3.573000000000000000e+03 4.606203079223632812e+01 -1.468576908111572266e+01 2.723348699510097504e-02 1.001710891723632812e+01 3.013302564620971680e+00 -1.864600181579589844e-01
3.574000000000000000e+03 4.775124740600585938e+01 -1.345196247100830078e+01 8.034183382987976074e-01 9.902340888977050781e+00 3.211727619171142578e+00 -8.644372820854187012e-01
3.575000000000000000e+03 4.758412170410156250e+01 -1.423740482330322266e+01 4.569227099418640137e-01 9.797749519348144531e+00 3.076401710510253906e+00 -6.828982830047607422e-01
3.576000000000000000e+03 4.883705520629882812e+01 -4.562545776367187500e+00 3.594388246536254883e+00 9.243459701538085938e+00 3.851354360580444336e+00 7.946563959121704102e-01
3.577000000000000000e+03 4.848208999633789062e+01 -5.067282676696777344e+00 3.938290834426879883e+00 9.319528579711914062e+00 3.977345943450927734e+00 6.515104770660400391e-01
3.578000000000000000e+03 4.987618255615234375e+01 -7.340869426727294922e+00 3.468025922775268555e+00 8.820137977600097656e+00 3.686449050903320312e+00 -2.765063345432281494e-01
3.579000000000000000e+03 5.297332382202148438e+01 3.022885084152221680e+00 6.498270630836486816e-01 8.534305572509765625e+00 2.755239725112915039e+00 1.044511795043945312e+00
3.580000000000000000e+03 5.309664535522460938e+01 -9.245258331298828125e+00 2.305903196334838867e+00 8.294842720031738281e+00 3.180223703384399414e+00 -5.830161571502685547e-01
3.581000000000000000e+03 5.411730194091796875e+01 7.082311511039733887e-01 1.151258111000061035e+00 8.351621627807617188e+00 2.850863933563232422e+00 1.042960643768310547e+00
3.582000000000000000e+03 4.353890609741210938e+01 9.350624084472656250e+00 -5.755658745765686035e-01 7.211969375610351562e+00 1.990921020507812500e+00 -7.410094141960144043e-01
3.583000000000000000e+03 4.667282104492187500e+01 -1.741400146484375000e+01 -3.696798384189605713e-01 9.112812995910644531e+00 2.622939825057983398e+00 1.910188607871532440e-02
3.584000000000000000e+03 4.712680435180664062e+01 -1.925021743774414062e+01 -5.315514802932739258e-01 8.688388824462890625e+00 2.447051286697387695e+00 6.992513686418533325e-02
3.585000000000000000e+03 5.091471862792968750e+01 -2.079916381835937500e+01 -3.955992758274078369e-01 8.464562416076660156e+00 2.420688867568969727e+00 -4.391869604587554932e-01
3.586000000000000000e+03 4.920322036743164062e+01 -1.973458290100097656e+01 -4.198968112468719482e-01 8.619922637939453125e+00 2.460007905960083008e+00 -2.864607274532318115e-01
3.587000000000000000e+03 5.281901168823242188e+01 4.405409336090087891e+00 3.637215495109558105e-01 8.495605468750000000e+00 2.657798290252685547e+00 9.626528024673461914e-01
3.588000000000000000e+03 5.302610397338867188e+01 8.066428184509277344e+00 -1.566248089075088501e-01 8.262188911437988281e+00 2.431669473648071289e+00 7.691501975059509277e-01
3.589000000000000000e+03 5.221475982666015625e+01 -1.052061748504638672e+01 2.112035512924194336e+00 8.557410240173339844e+00 3.200833797454833984e+00 -8.494951725006103516e-01
3.590000000000000000e+03 4.870424652099609375e+01 -1.188362407684326172e+01 1.696546673774719238e+00 9.667097091674804688e+00 3.409093141555786133e+00 -1.130341529846191406e+00
3.591000000000000000e+03 4.391412734985351562e+01 1.972920799255371094e+01 -6.765835285186767578e-01 6.157716274261474609e+00 1.644339799880981445e+00 -3.874501287937164307e-01
3.592000000000000000e+03 3.918838882446289062e+01 1.801865577697753906e+01 -5.126172900199890137e-01 5.202691078186035156e+00 1.407022118568420410e+00 -7.574948668479919434e-01
3.593000000000000000e+03 4.417410278320312500e+01 1.094874382019042969e+01 -6.333313584327697754e-01 7.171409130096435547e+00 1.961423397064208984e+00 -5.830928087234497070e-01
3.594000000000000000e+03 5.177140808105468750e+01 9.394756317138671875e+00 -3.665749728679656982e-01 8.150288581848144531e+00 2.335114240646362305e+00 5.623926520347595215e-01
3.595000000000000000e+03 5.532942581176757812e+01 1.098221969604492188e+01 -2.925039231777191162e-01 8.014647483825683594e+00 2.316643238067626953e+00 7.650877833366394043e-01
3.596000000000000000e+03 5.644791030883789062e+01 1.241416454315185547e+01 -3.378666639328002930e-01 7.938789367675781250e+00 2.280276775360107422e+00 7.601069808006286621e-01
3.597000000000000000e+03 5.881797409057617188e+01 1.447564315795898438e+01 -3.463495373725891113e-01 7.880668163299560547e+00 2.260295629501342773e+00 7.695457339286804199e-01
3.598000000000000000e+03 4.707748794555664062e+01 -1.664488911628723145e+00 1.964011907577514648e+00 1.033886337280273438e+01 3.690862655639648438e+00 1.204934716224670410e+00
3.599000000000000000e+03 4.912292098999023438e+01 -6.934217929840087891e+00 3.875844001770019531e+00 9.034914016723632812e+00 3.873227357864379883e+00 -1.969856172800064087e-01
3.600000000000000000e+03 4.394636154174804688e+01 1.810364723205566406e+00 -9.693768620491027832e-02 9.747744560241699219e+00 2.895242214202880859e+00 -6.557223200798034668e-01
3.601000000000000000e+03 4.358958816528320312e+01 1.208247423171997070e+00 -3.292970359325408936e-02 9.962077140808105469e+00 2.978744268417358398e+00 -8.004752397537231445e-01
3.602000000000000000e+03 5.318788909912109375e+01 -4.095721244812011719e+00 2.394267559051513672e+00 8.232449531555175781e+00 3.188014984130859375e+00 5.851075053215026855e-01
3.603000000000000000e+03 4.846281051635742188e+01 -3.107279300689697266e+00 2.957541942596435547e+00 9.581197738647460938e+00 3.761621713638305664e+00 1.195858359336853027e+00
3.604000000000000000e+03 4.399762344360351562e+01 7.712882757186889648e-01 9.092190861701965332e-02 1.028619098663330078e+01 3.113133907318115234e+00 -5.166401267051696777e-01
3.605000000000000000e+03 4.555276870727539062e+01 1.132725000381469727e+00 2.819823324680328369e-01 1.013268470764160156e+01 3.124400138854980469e+00 1.908346712589263916e-01
3.606000000000000000e+03 4.923853302001953125e+01 -7.513295650482177734e+00 3.724939107894897461e+00 9.045813560485839844e+00 3.831225633621215820e+00 -4.062456488609313965e-01
3.607000000000000000e+03 5.250007247924804688e+01 -4.983971595764160156e+00 2.684795856475830078e+00 8.297045707702636719e+00 3.294552326202392578e+00 4.084863662719726562e-01
3.608000000000000000e+03 5.365057754516601562e+01 -1.186967015266418457e+00 1.677511215209960938e+00 8.335313796997070312e+00 3.003847360610961914e+00 9.630007147789001465e-01
3.609000000000000000e+03 4.759906387329101562e+01 -1.241932773590087891e+01 1.233362793922424316e+00 1.008901977539062500e+01 3.396714687347412109e+00 -1.016778826713562012e+00
3.610000000000000000e+03 4.912010192871093750e+01 -1.467321300506591797e+01 5.587666630744934082e-01 9.406051635742187500e+00 2.989445447921752930e+00 -8.321677446365356445e-01
3.611000000000000000e+03 4.867802429199218750e+01 -7.664528369903564453e+00 3.912035942077636719e+00 9.228796958923339844e+00 3.942249774932861328e+00 -5.212197899818420410e-01
3.612000000000000000e+03 4.184437561035156250e+01 2.434145927429199219e+00 -1.096636578440666199e-01 8.443207740783691406e+00 2.500063419342041016e+00 -1.684138417243957520e+00
3.613000000000000000e+03 5.213499450683593750e+01 -1.285656166076660156e+01 1.373126983642578125e+00 8.719980239868164062e+00 3.027932167053222656e+00 -1.007537245750427246e+00
3.614000000000000000e+03 4.913220977783203125e+01 -1.231657409667968750e+01 1.501109480857849121e+00 9.510496139526367188e+00 3.303481817245483398e+00 -1.115424394607543945e+00
3.615000000000000000e+03 4.915596389770507812e+01 -8.503487586975097656e+00 3.443932533264160156e+00 9.163565635681152344e+00 3.782249450683593750e+00 -7.678894400596618652e-01
3.616000000000000000e+03 4.238034820556640625e+01 1.802304863929748535e+00 -9.433176368474960327e-02 9.075288772583007812e+00 2.694287061691284180e+00 -1.484538674354553223e+00
3.617000000000000000e+03 4.347995376586914062e+01 2.129880666732788086e+00 -1.378763765096664429e-01 9.461112022399902344e+00 2.796970844268798828e+00 -8.608933091163635254e-01
3.618000000000000000e+03 4.998079299926757812e+01 -1.484907150268554688e+01 5.977400541305541992e-01 9.165141105651855469e+00 2.928864240646362305e+00 -8.830130100250244141e-01
3.619000000000000000e+03 5.399090194702148438e+01 -4.894219398498535156e+00 2.320773839950561523e+00 8.099608421325683594e+00 3.126114845275878906e+00 3.978937864303588867e-01
3.620000000000000000e+03 4.796077346801757812e+01 -1.283056926727294922e+01 1.089695692062377930e+00 9.926076889038085938e+00 3.304731845855712891e+00 -1.002854943275451660e+00
3.621000000000000000e+03 4.859558105468750000e+01 -1.298288249969482422e+01 1.123653769493103027e+00 9.686734199523925781e+00 3.243116378784179688e+00 -1.022728443145751953e+00
3.622000000000000000e+03 4.919430923461914062e+01 -4.047002792358398438e+00 3.274097919464111328e+00 9.165614128112792969e+00 3.731913805007934570e+00 9.042675495147705078e-01
3.623000000000000000e+03 5.301882934570312500e+01 1.666740417480468750e+00 9.723410606384277344e-01 8.539022445678710938e+00 2.853409051895141602e+00 1.080194473266601562e+00
3.624000000000000000e+03 5.168390274047851562e+01 -2.354539394378662109e+00 2.205471277236938477e+00 8.622621536254882812e+00 3.248427867889404297e+00 9.710789918899536133e-01
3.625000000000000000e+03 4.273875427246093750e+01 5.926371574401855469e+00 -4.086614251136779785e-01 7.751526355743408203e+00 2.202859401702880859e+00 -1.102361559867858887e+00
3.626000000000000000e+03 4.247451400756835938e+01 3.182143688201904297e+00 -2.223009020090103149e-01 8.531257629394531250e+00 2.492686986923217773e+00 -1.335662722587585449e+00
3.627000000000000000e+03 4.861286926269531250e+01 -1.882668304443359375e+01 -3.484691977500915527e-01 8.797916412353515625e+00 2.534834146499633789e+00 -2.668619453907012939e-01
3.628000000000000000e+03 4.769705200195312500e+01 -1.814083099365234375e+01 -3.521585762500762939e-01 8.955992698669433594e+00 2.581150293350219727e+00 -1.609227806329727173e-01
3.629000000000000000e+03 5.191617202758789062e+01 -8.496224403381347656e+00 2.693043947219848633e+00 8.454157829284667969e+00 3.344160556793212891e+00 -5.193872451782226562e-01
3.630000000000000000e+03 4.589282989501953125e+01 -1.564360904693603516e+01 -2.032788544893264771e-01 9.620326042175292969e+00 2.825114011764526367e+00 3.452733904123306274e-02
3.631000000000000000e+03 5.128588485717773438e+01 5.259654521942138672e+00 1.071463599801063538e-01 8.607834815979003906e+00 2.614494323730468750e+00 8.070865869522094727e-01
3.632000000000000000e+03 5.185565567016601562e+01 2.860784292221069336e+00 6.167932152748107910e-01 8.686450004577636719e+00 2.790972948074340820e+00 1.011789441108703613e+00
3.633000000000000000e+03 4.861212158203125000e+01 -1.240105915069580078e+01 1.401239037513732910e+00 9.719639778137207031e+00 3.336263656616210938e+00 -1.100972771644592285e+00
3.634000000000000000e+03 5.323513412475585938e+01 4.454689025878906250e-01 1.273183703422546387e+00 8.481231689453125000e+00 2.926324367523193359e+00 1.072172045707702637e+00
3.635000000000000000e+03 4.999004745483398438e+01 1.411681532859802246e+00 8.791823387145996094e-01 9.109072685241699219e+00 2.996476411819458008e+00 1.029748320579528809e+00
3.636000000000000000e+03 5.386921310424804688e+01 -1.864639520645141602e-01 1.451933383941650391e+00 8.360091209411621094e+00 2.943607330322265625e+00 1.047381520271301270e+00
3.637000000000000000e+03 5.186952972412109375e+01 -1.533310222625732422e+01 6.310708522796630859e-01 8.801803588867187500e+00 2.829862356185913086e+00 -9.315202832221984863e-01
3.638000000000000000e+03 4.272019577026367188e+01 7.934957027435302734e+00 -4.820181727409362793e-01 7.271382331848144531e+00 2.036809206008911133e+00 -9.643883705139160156e-01
3.639000000000000000e+03 5.089778137207031250e+01 -1.508420848846435547e+01 6.311009526252746582e-01 8.973285675048828125e+00 2.881316184997558594e+00 -9.160742759704589844e-01
3.640000000000000000e+03 5.065156936645507812e+01 6.285201072692871094e+00 -1.064582094550132751e-01 8.551896095275878906e+00 2.533631324768066406e+00 6.524022817611694336e-01
3.641000000000000000e+03 4.477314376831054688e+01 2.895170211791992188e+00 -1.752992272377014160e-01 9.360032081604003906e+00 2.755419969558715820e+00 -3.750796914100646973e-01
3.642000000000000000e+03 5.260853958129882812e+01 1.372613525390625000e+01 -5.614100098609924316e-01 7.774445533752441406e+00 2.163910627365112305e+00 4.475099742412567139e-01
3.643000000000000000e+03 5.172780609130859375e+01 7.124229907989501953e+00 -1.262951195240020752e-01 8.400949478149414062e+00 2.482396364212036133e+00 7.114627957344055176e-01
3.644000000000000000e+03 5.398520278930664062e+01 1.233701133728027344e+01 -4.382380545139312744e-01 7.939441204071044922e+00 2.250360965728759766e+00 6.235501766204833984e-01
3.645000000000000000e+03 4.352067947387695312e+01 1.649827194213867188e+01 -6.741715073585510254e-01 6.354810714721679688e+00 1.704191803932189941e+00 -5.128572583198547363e-01
3.646000000000000000e+03 4.769844436645507812e+01 -2.261150360107421875e+01 -7.028522491455078125e-01 8.098027229309082031e+00 2.218552350997924805e+00 1.208630800247192383e-01
3.647000000000000000e+03 4.528212738037109375e+01 5.268888473510742188e-01 4.033578038215637207e-01 1.043931388854980469e+01 3.252801656723022461e+00 1.996066719293594360e-01
3.648000000000000000e+03 4.480274200439453125e+01 8.134904503822326660e-01 2.370849251747131348e-01 1.033658027648925781e+01 3.172099351882934570e+00 -7.806997746229171753e-02
3.649000000000000000e+03 4.617861938476562500e+01 -9.124679118394851685e-02 8.606258630752563477e-01 1.040730857849121094e+01 3.380380153656005859e+00 6.793857812881469727e-01
3.650000000000000000e+03 4.697526550292968750e+01 -1.141674518585205078e+00 1.601496100425720215e+00 1.032156753540039062e+01 3.576919317245483398e+00 1.095315933227539062e+00
3.651000000000000000e+03 4.768840026855468750e+01 -1.961026668548583984e+00 2.246057987213134766e+00 1.000734138488769531e+01 3.676019668579101562e+00 1.247707843780517578e+00
3.652000000000000000e+03 4.950938034057617188e+01 -8.076028823852539062e+00 3.473394155502319336e+00 9.008427619934082031e+00 3.744546413421630859e+00 -6.046420931816101074e-01
3.653000000000000000e+03 5.033852386474609375e+01 -5.779050827026367188e+00 3.366101026535034180e+00 8.675340652465820312e+00 3.612432479858398438e+00 2.481423169374465942e-01
3.654000000000000000e+03 4.672906112670898438e+01 -1.479730415344238281e+01 1.059570685029029846e-01 9.856929779052734375e+00 2.988866090774536133e+00 -3.426288366317749023e-01
3.655000000000000000e+03 4.346432876586914062e+01 2.795344352722167969e+00 -2.221855968236923218e-01 9.096807479858398438e+00 2.662386655807495117e+00 -9.270231127738952637e-01
3.656000000000000000e+03 4.321136093139648438e+01 1.564574956893920898e+00 -8.495551347732543945e-02 9.629044532775878906e+00 2.863226652145385742e+00 -1.014128088951110840e+00
3.657000000000000000e+03 4.918677520751953125e+01 -1.036716842651367188e+01 2.474918127059936523e+00 9.390777587890625000e+00 3.559708833694458008e+00 -1.133320212364196777e+00
3.658000000000000000e+03 4.683089828491210938e+01 -6.087729930877685547e-01 1.249478697776794434e+00 1.030777263641357422e+01 3.467175483703613281e+00 9.590458273887634277e-01
3.659000000000000000e+03 4.416584396362304688e+01 3.047461032867431641e+00 -2.212549149990081787e-01 9.217822074890136719e+00 2.698970079421997070e+00 -6.208092570304870605e-01
3.660000000000000000e+03 4.972760772705078125e+01 -1.197402477264404297e+01 1.683411717414855957e+00 9.285019874572753906e+00 3.290529489517211914e+00 -1.095256805419921875e+00
3.661000000000000000e+03 5.173368072509765625e+01 5.018452405929565430e-01 1.242147803306579590e+00 8.729462623596191406e+00 2.991483211517333984e+00 1.093763113021850586e+00
3.662000000000000000e+03 4.750993347167968750e+01 -9.064691662788391113e-01 1.556267380714416504e+00 1.006184482574462891e+01 3.485433816909790039e+00 1.117581009864807129e+00
3.663000000000000000e+03 5.011387634277343750e+01 -1.283253002166748047e+01 1.352443337440490723e+00 9.203933715820312500e+00 3.166913270950317383e+00 -1.069839358329772949e+00
3.664000000000000000e+03 4.904845046997070312e+01 -1.137238502502441406e+01 2.003140449523925781e+00 9.523261070251464844e+00 3.457920551300048828e+00 -1.159548044204711914e+00
3.665000000000000000e+03 5.105254364013671875e+01 -1.393127250671386719e+01 9.808362126350402832e-01 8.975466728210449219e+00 2.986891031265258789e+00 -1.005025982856750488e+00
3.666000000000000000e+03 5.108432769775390625e+01 -1.275804519653320312e+01 1.409880518913269043e+00 8.956653594970703125e+00 3.109960317611694336e+00 -1.046839833259582520e+00
3.667000000000000000e+03 4.841316986083984375e+01 -1.719981193542480469e+01 -1.475887149572372437e-01 9.109663963317871094e+00 2.688622713088989258e+00 -3.952194452285766602e-01
3.668000000000000000e+03 4.733574676513671875e+01 -1.502121734619140625e+01 1.718039959669113159e-01 9.653863906860351562e+00 2.947700262069702148e+00 -4.861944019794464111e-01
3.669000000000000000e+03 5.035614395141601562e+01 -4.617669582366943359e+00 3.158462524414062500e+00 8.748236656188964844e+00 3.572009801864624023e+00 6.325986385345458984e-01
3.670000000000000000e+03 4.909722518920898438e+01 -5.314699649810791016e+00 3.798159122467041016e+00 9.067796707153320312e+00 3.859786748886108398e+00 5.008372664451599121e-01
3.671000000000000000e+03 5.273931121826171875e+01 -1.344139456748962402e+00 1.799298286437988281e+00 8.465955734252929688e+00 3.079576253890991211e+00 1.001984119415283203e+00
3.672000000000000000e+03 4.896604537963867188e+01 -3.303062677383422852e+00 2.957523584365844727e+00 9.350075721740722656e+00 3.692279577255249023e+00 1.103307247161865234e+00
3.673000000000000000e+03 5.240711975097656250e+01 -1.834005266427993774e-01 1.440053701400756836e+00 8.601707458496093750e+00 3.012528419494628906e+00 1.089446187019348145e+00
3.674000000000000000e+03 4.927757644653320312e+01 -1.379285049438476562e+01 8.904411196708679199e-01 9.428904533386230469e+00 3.095803737640380859e+00 -9.578371644020080566e-01
3.675000000000000000e+03 5.052250289916992188e+01 -8.567651748657226562e+00 3.021659135818481445e+00 8.764110565185546875e+00 3.535731077194213867e+00 -6.366959810256958008e-01
3.676000000000000000e+03 5.101854705810546875e+01 -7.833886146545410156e+00 3.065253973007202148e+00 8.579119682312011719e+00 3.493312120437622070e+00 -3.793229162693023682e-01
3.677000000000000000e+03 4.918462753295898438e+01 -1.649844932556152344e+01 6.560064107179641724e-02 9.182860374450683594e+00 2.774538278579711914e+00 -6.063052415847778320e-01
3.678000000000000000e+03 4.934816360473632812e+01 -1.810013198852539062e+01 -1.852812916040420532e-01 8.895870208740234375e+00 2.613176584243774414e+00 -4.529496431350708008e-01
3.679000000000000000e+03 5.343416595458984375e+01 -6.764718055725097656e+00 2.504170179367065430e+00 8.142226219177246094e+00 3.193918943405151367e+00 -1.855358853936195374e-02
3.680000000000000000e+03 5.075435256958007812e+01 -6.716778755187988281e+00 3.285647392272949219e+00 8.589565277099609375e+00 3.562563896179199219e+00 -5.767900124192237854e-02
3.681000000000000000e+03 5.262739562988281250e+01 -2.560222387313842773e+00 2.147075891494750977e+00 8.417573928833007812e+00 3.169394969940185547e+00 8.718831539154052734e-01
3.682000000000000000e+03 4.950266647338867188e+01 -1.088906288146972656e+01 2.236343622207641602e+00 9.345056533813476562e+00 3.474420070648193359e+00 -1.134713053703308105e+00
3.683000000000000000e+03 5.058864974975585938e+01 -1.621508789062500000e+01 3.064945936203002930e-01 8.959902763366699219e+00 2.779919147491455078e+00 -7.913687825202941895e-01
3.684000000000000000e+03 5.268383026123046875e+01 -8.217329025268554688e+00 2.561556100845336914e+00 8.300116539001464844e+00 3.258501768112182617e+00 -3.901294171810150146e-01
3.685000000000000000e+03 5.282466888427734375e+01 -6.365345954895019531e+00 2.680475473403930664e+00 8.230444908142089844e+00 3.273276090621948242e+00 6.713332235813140869e-02
3.686000000000000000e+03 5.212781143188476562e+01 -9.443800926208496094e+00 2.435075044631958008e+00 8.484967231750488281e+00 3.276012897491455078e+00 -6.946653127670288086e-01
3.687000000000000000e+03 5.006365585327148438e+01 -1.724778938293457031e+01 -2.372692251810804009e-04 8.945837020874023438e+00 2.683679819107055664e+00 -6.232116818428039551e-01
3.688000000000000000e+03 4.351939392089843750e+01 5.050201416015625000e+00 -3.912647068500518799e-01 8.266231536865234375e+00 2.362490177154541016e+00 -9.036036729812622070e-01
3.689000000000000000e+03 4.880905914306640625e+01 -1.589250445365905762e+00 2.089379072189331055e+00 9.517225265502929688e+00 3.481981515884399414e+00 1.204924702644348145e+00
3.690000000000000000e+03 5.051799011230468750e+01 -2.954421043395996094e+00 2.573075056076049805e+00 8.874946594238281250e+00 3.434406518936157227e+00 9.925677776336669922e-01
3.691000000000000000e+03 5.078504180908203125e+01 2.674072265625000000e+00 5.919231176376342773e-01 8.868438720703125000e+00 2.838108539581298828e+00 9.686666727066040039e-01
3.692000000000000000e+03 5.056450653076171875e+01 3.769638538360595703e+00 3.145776391029357910e-01 8.807361602783203125e+00 2.736581802368164062e+00 8.577667474746704102e-01
3.693000000000000000e+03 5.072226715087890625e+01 8.190976142883300781e+00 -3.149663209915161133e-01 8.310147285461425781e+00 2.398554086685180664e+00 5.225869417190551758e-01
3.694000000000000000e+03 5.140846633911132812e+01 1.201687145233154297e+01 -5.382063984870910645e-01 7.873164176940917969e+00 2.200487375259399414e+00 4.034468531608581543e-01
3.695000000000000000e+03 4.573475646972656250e+01 1.024216079711914062e+01 -6.293269991874694824e-01 7.609442234039306641e+00 2.094034433364868164e+00 -3.181871473789215088e-01
3.696000000000000000e+03 4.726013565063476562e+01 -2.452892875671386719e+01 -7.766129970550537109e-01 7.771244525909423828e+00 2.098389387130737305e+00 2.241309583187103271e-01
3.697000000000000000e+03 4.938085937500000000e+01 -2.286358451843261719e+01 -6.452169418334960938e-01 8.190182685852050781e+00 2.263489723205566406e+00 -1.241952255368232727e-01
3.698000000000000000e+03 4.915580749511718750e+01 -1.120161175727844238e+00 1.842767953872680664e+00 9.388118743896484375e+00 3.369265794754028320e+00 1.181353330612182617e+00
3.699000000000000000e+03 5.092247772216796875e+01 5.477092862129211426e-01 1.222009658813476562e+00 8.924735069274902344e+00 3.044023275375366211e+00 1.103945732116699219e+00
3.700000000000000000e+03 5.168619918823242188e+01 -7.255049347877502441e-01 1.679670810699462891e+00 8.744636535644531250e+00 3.127292156219482422e+00 1.097452044486999512e+00
3.701000000000000000e+03 4.937256240844726562e+01 4.614547252655029297e+00 4.852407053112983704e-02 8.853033065795898438e+00 2.670467138290405273e+00 6.348223686218261719e-01
3.702000000000000000e+03 4.998953628540039062e+01 1.454115295410156250e+01 -6.621111035346984863e-01 7.519174098968505859e+00 2.057118892669677734e+00 1.745683252811431885e-01
3.703000000000000000e+03 6.237245178222656250e+01 2.050653839111328125e+01 -3.720011413097381592e-01 7.817501544952392578e+00 2.233649969100952148e+00 6.352198123931884766e-01
3.704000000000000000e+03 4.220680618286132812e+01 1.803783035278320312e+01 -6.303001046180725098e-01 5.930187225341796875e+00 1.589966177940368652e+00 -5.757928490638732910e-01
3.705000000000000000e+03 4.732427978515625000e+01 5.619492053985595703e+00 -2.901875972747802734e-01 8.706701278686523438e+00 2.524954080581665039e+00 1.666380763053894043e-01
3.706000000000000000e+03 4.476789093017578125e+01 1.837567210197448730e+00 -1.511335023678839207e-03 9.837658882141113281e+00 2.950844287872314453e+00 -2.762501239776611328e-01
3.707000000000000000e+03 4.579283523559570312e+01 4.424014985561370850e-01 5.557460188865661621e-01 1.036650466918945312e+01 3.276675224304199219e+00 4.293866455554962158e-01
3.708000000000000000e+03 5.006155014038085938e+01 -6.372354507446289062e+00 3.525084018707275391e+00 8.738000869750976562e+00 3.678925514221191406e+00 4.255973920226097107e-02
3.709000000000000000e+03 4.515575790405273438e+01 1.409955024719238281e+00 1.548203527927398682e-01 1.001052570343017578e+01 3.049603939056396484e+00 -1.809203438460826874e-02
3.710000000000000000e+03 4.849260711669921875e+01 -1.367351913452148438e+01 8.275253772735595703e-01 9.658085823059082031e+00 3.145683526992797852e+00 -9.174995422363281250e-01
3.711000000000000000e+03 4.924950408935546875e+01 -2.760795831680297852e+00 2.680521011352539062e+00 9.293481826782226562e+00 3.592200756072998047e+00 1.152823328971862793e+00
3.712000000000000000e+03 5.017694473266601562e+01 -3.703316926956176758e+00 2.928344488143920898e+00 8.891873359680175781e+00 3.546065330505371094e+00 8.918428421020507812e-01
3.713000000000000000e+03 5.119106674194335938e+01 -8.605495452880859375e+00 2.846346616744995117e+00 8.603058815002441406e+00 3.434821844100952148e+00 -5.930371880531311035e-01
3.714000000000000000e+03 5.148611450195312500e+01 -6.884287357330322266e+00 3.046653032302856445e+00 8.457697868347167969e+00 3.451305150985717773e+00 -8.996172994375228882e-02
3.715000000000000000e+03 5.121747207641601562e+01 -9.484012603759765625e+00 2.589660644531250000e+00 8.685917854309082031e+00 3.382673501968383789e+00 -7.933645248413085938e-01
3.716000000000000000e+03 4.831924057006835938e+01 -1.448685073852539062e+01 5.170616507530212402e-01 9.610028266906738281e+00 3.038126945495605469e+00 -7.780768275260925293e-01
3.717000000000000000e+03 4.805182647705078125e+01 -1.544422054290771484e+01 1.776121705770492554e-01 9.510328292846679688e+00 2.906382083892822266e+00 -5.764446258544921875e-01
3.718000000000000000e+03 4.533518981933593750e+01 3.445881128311157227e+00 -2.019682079553604126e-01 9.249442100524902344e+00 2.714242219924926758e+00 -2.197701334953308105e-01
3.719000000000000000e+03 4.196389007568359375e+01 4.889996528625488281e+00 -2.972064614295959473e-01 7.700443267822265625e+00 2.220971107482910156e+00 -1.373161196708679199e+00
3.720000000000000000e+03 4.974298858642578125e+01 -1.037495613098144531e+01 2.433423995971679688e+00 9.193339347839355469e+00 3.488029003143310547e+00 -1.067447900772094727e+00
3.721000000000000000e+03 4.731499862670898438e+01 3.000989258289337158e-01 9.483568072319030762e-01 9.992040634155273438e+00 3.282119274139404297e+00 8.598254323005676270e-01
3.722000000000000000e+03 4.815501022338867188e+01 -1.274529814720153809e+00 1.839714169502258301e+00 9.777323722839355469e+00 3.485111474990844727e+00 1.188424348831176758e+00
3.723000000000000000e+03 4.301762771606445312e+01 2.353279352188110352e+00 -1.769447475671768188e-01 9.071260452270507812e+00 2.668294906616210938e+00 -1.164818048477172852e+00
3.724000000000000000e+03 4.980166625976562500e+01 -2.851781606674194336e+00 2.627831935882568359e+00 9.086765289306640625e+00 3.514379262924194336e+00 1.078140735626220703e+00
3.725000000000000000e+03 5.121289443969726562e+01 -1.296549797058105469e+00 1.900800824165344238e+00 8.812771797180175781e+00 3.214071750640869141e+00 1.109371304512023926e+00
3.726000000000000000e+03 5.054769897460937500e+01 -5.145042419433593750e+00 3.208568811416625977e+00 8.664547920227050781e+00 3.561935186386108398e+00 4.636383950710296631e-01
3.727000000000000000e+03 4.518617630004882812e+01 2.339310169219970703e+00 -3.170552104711532593e-02 9.622345924377441406e+00 2.877192020416259766e+00 -1.374972760677337646e-01
3.728000000000000000e+03 5.323388290405273438e+01 -5.596890926361083984e+00 2.568189144134521484e+00 8.183691024780273438e+00 3.225564002990722656e+00 2.541626393795013428e-01
3.729000000000000000e+03 5.160166931152343750e+01 -6.192770481109619141e+00 3.074697256088256836e+00 8.434571266174316406e+00 3.452780723571777344e+00 1.177379116415977478e-01
3.730000000000000000e+03 4.978068923950195312e+01 -4.288085937500000000e+00 3.190723180770874023e+00 8.945964813232421875e+00 3.641006469726562500e+00 7.815244197845458984e-01
3.731000000000000000e+03 4.995631790161132812e+01 -5.051311016082763672e+00 3.431694507598876953e+00 8.831748008728027344e+00 3.679032802581787109e+00 5.330380797386169434e-01
3.732000000000000000e+03 5.115499496459960938e+01 -1.159952640533447266e+01 1.818680524826049805e+00 8.885685920715332031e+00 3.211309909820556641e+00 -1.030186891555786133e+00
3.733000000000000000e+03 5.121722030639648438e+01 -1.049470901489257812e+01 2.254007101058959961e+00 8.781969070434570312e+00 3.310792922973632812e+00 -9.329226016998291016e-01
3.734000000000000000e+03 5.261383819580078125e+01 -7.083274364471435547e+00 2.730800867080688477e+00 8.277950286865234375e+00 3.302625417709350586e+00 -1.287646591663360596e-01
3.735000000000000000e+03 4.738183975219726562e+01 -3.243637979030609131e-01 1.231394648551940918e+00 1.003971099853515625e+01 3.381331443786621094e+00 9.894891977310180664e-01
3.736000000000000000e+03 5.091017532348632812e+01 1.569085836410522461e+00 9.148948788642883301e-01 8.913708686828613281e+00 2.948580980300903320e+00 1.068856239318847656e+00
3.737000000000000000e+03 5.039044570922851562e+01 -9.280292510986328125e+00 2.811024665832519531e+00 8.871372222900390625e+00 3.504719018936157227e+00 -8.345422744750976562e-01
3.738000000000000000e+03 4.972165298461914062e+01 -1.578715515136718750e+01 3.250842094421386719e-01 9.143861770629882812e+00 2.840683698654174805e+00 -7.568781375885009766e-01
3.739000000000000000e+03 5.167890167236328125e+01 -4.479026794433593750e+00 2.794099330902099609e+00 8.470013618469238281e+00 3.379234075546264648e+00 5.787783861160278320e-01
3.740000000000000000e+03 5.019005966186523438e+01 -1.709951043128967285e+00 2.128424882888793945e+00 9.063433647155761719e+00 3.357557535171508789e+00 1.152519583702087402e+00
3.741000000000000000e+03 4.940330123901367188e+01 -2.110318565368652344e+01 -5.294323563575744629e-01 8.434638023376464844e+00 2.371561765670776367e+00 -2.223224490880966187e-01
3.742000000000000000e+03 4.466646194458007812e+01 5.803056716918945312e+00 -4.518622756004333496e-01 8.351211547851562500e+00 2.369804620742797852e+00 -5.447086095809936523e-01
3.743000000000000000e+03 4.389361572265625000e+01 7.038751602172851562e+00 -4.978366792201995850e-01 7.852062702178955078e+00 2.206267833709716797e+00 -7.242808938026428223e-01
3.744000000000000000e+03 5.118402862548828125e+01 -1.771082431077957153e-01 1.501341342926025391e+00 8.855072021484375000e+00 3.106924057006835938e+00 1.117834091186523438e+00
3.745000000000000000e+03 5.030962753295898438e+01 4.769739627838134766e+00 1.177138760685920715e-01 8.756605148315429688e+00 2.662295579910278320e+00 7.512665390968322754e-01
3.746000000000000000e+03 4.637892150878906250e+01 9.480621218681335449e-01 5.038996338844299316e-01 1.007032394409179688e+01 3.172267198562622070e+00 5.128483176231384277e-01
3.747000000000000000e+03 4.959919357299804688e+01 9.035322189331054688e+00 -4.630980491638183594e-01 8.170388221740722656e+00 2.312186956405639648e+00 3.166968226432800293e-01
3.748000000000000000e+03 5.048431015014648438e+01 1.038589763641357422e+01 -4.889032244682312012e-01 8.030949592590332031e+00 2.262614011764526367e+00 3.673090934753417969e-01
3.749000000000000000e+03 4.847705459594726562e+01 9.714591979980468750e+00 -5.374134778976440430e-01 8.032357215881347656e+00 2.248483180999755859e+00 1.438512951135635376e-01
3.750000000000000000e+03 4.569889450073242188e+01 1.387986373901367188e+01 -6.940916180610656738e-01 7.041854858398437500e+00 1.904328942298889160e+00 -3.159704208374023438e-01
3.751000000000000000e+03 4.758226013183593750e+01 8.740108489990234375e+00 -5.416201949119567871e-01 8.086867332458496094e+00 2.263574123382568359e+00 1.493681222200393677e-02
3.752000000000000000e+03 4.484054183959960938e+01 1.253030109405517578e+01 -6.713556647300720215e-01 7.082145690917968750e+00 1.923236966133117676e+00 -4.459607005119323730e-01
3.753000000000000000e+03 4.953524017333984375e+01 -3.490405559539794922e+00 2.945290565490722656e+00 9.097120285034179688e+00 3.612723350524902344e+00 9.897002577781677246e-01
3.754000000000000000e+03 5.088323593139648438e+01 -4.055326461791992188e+00 2.877230167388916016e+00 8.670084953308105469e+00 3.464194536209106445e+00 7.352998852729797363e-01
3.755000000000000000e+03 4.594952392578125000e+01 9.649685621261596680e-01 4.028708040714263916e-01 1.017398929595947266e+01 3.173058032989501953e+00 3.640634417533874512e-01
3.756000000000000000e+03 4.629433059692382812e+01 4.058512747287750244e-01 6.970590353012084961e-01 1.022851657867431641e+01 3.277672529220581055e+00 5.955179333686828613e-01
3.757000000000000000e+03 5.222761154174804688e+01 -7.500613689422607422e+00 2.795977354049682617e+00 8.341917037963867188e+00 3.341368198394775391e+00 -2.221260368824005127e-01
3.758000000000000000e+03 4.918859863281250000e+01 -1.948944926261901855e+00 2.243851661682128906e+00 9.375473022460937500e+00 3.485797405242919922e+00 1.199065089225769043e+00
3.759000000000000000e+03 4.884991455078125000e+01 2.090914487838745117e+00 5.526148080825805664e-01 9.286871910095214844e+00 2.951845884323120117e+00 8.502603173255920410e-01
3.760000000000000000e+03 4.749346160888671875e+01 9.590774178504943848e-01 7.009226083755493164e-01 9.774931907653808594e+00 3.142756223678588867e+00 7.645400762557983398e-01
3.761000000000000000e+03 4.967170715332031250e+01 -2.303187608718872070e+00 2.404126882553100586e+00 9.178172111511230469e+00 3.474689722061157227e+00 1.138707876205444336e+00
3.762000000000000000e+03 4.997952651977539062e+01 -5.407791137695312500e-01 1.613381147384643555e+00 9.150540351867675781e+00 3.229176521301269531e+00 1.143609642982482910e+00
3.763000000000000000e+03 5.098812866210937500e+01 -5.991140842437744141e+00 3.209010839462280273e+00 8.536900520324707031e+00 3.523773431777954102e+00 1.717378348112106323e-01
3.764000000000000000e+03 5.218845367431640625e+01 -6.223875522613525391e+00 2.857641696929931641e+00 8.319160461425781250e+00 3.353040695190429688e+00 1.012470573186874390e-01
3.765000000000000000e+03 5.193543243408203125e+01 -5.632871150970458984e+00 2.888398408889770508e+00 8.376597404479980469e+00 3.379498720169067383e+00 2.706778943538665771e-01
3.766000000000000000e+03 5.125658798217773438e+01 -5.261881828308105469e+00 3.030930042266845703e+00 8.513366699218750000e+00 3.463289022445678711e+00 3.909768462181091309e-01
3.767000000000000000e+03 4.890734863281250000e+01 -1.562612628936767578e+01 2.480204552412033081e-01 9.318010330200195312e+00 2.869809389114379883e+00 -6.688626408576965332e-01
3.768000000000000000e+03 5.321060943603515625e+01 -7.573461532592773438e+00 2.517653703689575195e+00 8.195194244384765625e+00 3.213854551315307617e+00 -2.233356535434722900e-01
3.769000000000000000e+03 5.132844924926757812e+01 -3.247661590576171875e+00 2.524530649185180664e+00 8.629535675048828125e+00 3.346219778060913086e+00 8.650387525558471680e-01
3.770000000000000000e+03 4.929987335205078125e+01 -1.298692035675048828e+01 1.223526120185852051e+00 9.462955474853515625e+00 3.205944299697875977e+00 -1.065431118011474609e+00
3.771000000000000000e+03 4.977223587036132812e+01 2.438538312911987305e+00 5.657965540885925293e-01 9.077562332153320312e+00 2.893007755279541016e+00 9.145221114158630371e-01
3.772000000000000000e+03 4.436263275146484375e+01 2.342564821243286133e+00 -1.299701035022735596e-01 9.579433441162109375e+00 2.834839105606079102e+00 -5.301996469497680664e-01
3.773000000000000000e+03 4.499150848388671875e+01 4.460168838500976562e+00 -3.203263282775878906e-01 8.880949020385742188e+00 2.568186998367309570e+00 -3.931289911270141602e-01
3.774000000000000000e+03 4.400274276733398438e+01 4.024704456329345703e+00 -3.253064751625061035e-01 8.776331901550292969e+00 2.535307645797729492e+00 -7.124365568161010742e-01
3.775000000000000000e+03 5.085990524291992188e+01 -2.098090171813964844e+00 2.213304519653320312e+00 8.855542182922363281e+00 3.320653915405273438e+00 1.074457883834838867e+00
3.776000000000000000e+03 5.062975692749023438e+01 -8.620256781578063965e-01 1.743247509002685547e+00 8.970252037048339844e+00 3.214050054550170898e+00 1.129077315330505371e+00
3.777000000000000000e+03 5.013000869750976562e+01 -1.385107421875000000e+01 9.549673795700073242e-01 9.186693191528320312e+00 3.042498111724853516e+00 -9.919400215148925781e-01
3.778000000000000000e+03 4.946184539794921875e+01 3.522705078125000000e+00 2.507783770561218262e-01 8.982343673706054688e+00 2.769936561584472656e+00 7.444186806678771973e-01
3.779000000000000000e+03 4.501393508911132812e+01 8.494436264038085938e+00 -5.746693015098571777e-01 7.794319629669189453e+00 2.165894985198974609e+00 -4.534595012664794922e-01
3.780000000000000000e+03 4.688941192626953125e+01 1.462490463256835938e+01 -7.133329510688781738e-01 7.175110340118408203e+00 1.938533186912536621e+00 -1.720236986875534058e-01
3.781000000000000000e+03 4.769733810424804688e+01 1.147680187225341797e+01 -6.495421528816223145e-01 7.687736988067626953e+00 2.111458539962768555e+00 -5.705677345395088196e-02
3.782000000000000000e+03 4.680731582641601562e+01 1.326035594940185547e+01 -6.999017000198364258e-01 7.341280460357666016e+00 1.992413640022277832e+00 -1.883916407823562622e-01
3.783000000000000000e+03 4.787226104736328125e+01 6.793214797973632812e+00 -3.620041906833648682e-01 8.547345161437988281e+00 2.455602407455444336e+00 1.981336176395416260e-01
3.784000000000000000e+03 4.896004486083984375e+01 6.121839523315429688e+00 -2.096035033464431763e-01 8.625415802001953125e+00 2.524743556976318359e+00 4.302368462085723877e-01
3.785000000000000000e+03 4.797847747802734375e+01 -9.569223225116729736e-02 1.228753805160522461e+00 9.774769783020019531e+00 3.301057338714599609e+00 1.032575488090515137e+00
3.786000000000000000e+03 4.626522445678710938e+01 1.186546802520751953e+01 -6.689789295196533203e-01 7.431423664093017578e+00 2.028733491897583008e+00 -2.437325119972229004e-01
3.787000000000000000e+03 4.586640167236328125e+01 1.641831040382385254e+00 2.313399612903594971e-01 9.896604537963867188e+00 3.038383245468139648e+00 2.227086275815963745e-01
3.788000000000000000e+03 4.693048858642578125e+01 1.062342762947082520e+00 5.773055553436279297e-01 9.889939308166503906e+00 3.140173435211181641e+00 6.402540802955627441e-01
3.789000000000000000e+03 4.679895019531250000e+01 3.362985849380493164e-01 8.618754148483276367e-01 1.013059902191162109e+01 3.297742366790771484e+00 7.824043035507202148e-01
3.790000000000000000e+03 4.783052062988281250e+01 5.025189518928527832e-01 9.662228226661682129e-01 9.725337982177734375e+00 3.207468271255493164e+00 9.255843758583068848e-01
3.791000000000000000e+03 4.867911911010742188e+01 -1.114191532135009766e+00 1.800192952156066895e+00 9.591248512268066406e+00 3.417432308197021484e+00 1.186411261558532715e+00
3.792000000000000000e+03 4.807684707641601562e+01 -6.974689960479736328e-01 1.530762910842895508e+00 9.795395851135253906e+00 3.397847652435302734e+00 1.128216266632080078e+00
3.793000000000000000e+03 4.550358963012695312e+01 1.885169744491577148e+00 9.223804622888565063e-02 9.826910018920898438e+00 2.975744485855102539e+00 2.957750856876373291e-02
3.794000000000000000e+03 5.161207199096679688e+01 -7.655562877655029297e+00 2.914227962493896484e+00 8.458426475524902344e+00 3.411796331405639648e+00 -2.885025441646575928e-01
3.795000000000000000e+03 4.701003265380859375e+01 4.584727764129638672e+00 -2.023899257183074951e-01 8.896528244018554688e+00 2.608241558074951172e+00 1.549255400896072388e-01
3.796000000000000000e+03 4.803794479370117188e+01 1.583151102066040039e+00 5.917730927467346191e-01 9.527486801147460938e+00 3.035777807235717773e+00 7.833539843559265137e-01
3.797000000000000000e+03 4.602897644042968750e+01 6.031046867370605469e+00 -4.258881509304046631e-01 8.493163108825683594e+00 2.420182466506958008e+00 -1.920454502105712891e-01
3.798000000000000000e+03 4.614395141601562500e+01 3.700791358947753906e+00 -1.449628770351409912e-01 9.194556236267089844e+00 2.714877843856811523e+00 5.941903684288263321e-03
3.799000000000000000e+03 4.839775848388671875e+01 5.015518188476562500e+00 -1.106140539050102234e-01 8.877713203430175781e+00 2.630129814147949219e+00 4.455191195011138916e-01
3.800000000000000000e+03 4.644624328613281250e+01 1.635399818420410156e+01 -7.161533236503601074e-01 6.899827957153320312e+00 1.855102419853210449e+00 -2.185969948768615723e-01
3.801000000000000000e+03 4.818509674072265625e+01 1.301569271087646484e+01 -6.786915659904479980e-01 7.523297309875488281e+00 2.053381681442260742e+00 -2.074595727026462555e-02
3.802000000000000000e+03 4.722679901123046875e+01 9.971695899963378906e+00 -6.052589416503906250e-01 7.880042076110839844e+00 2.182435035705566406e+00 -8.261042833328247070e-02
3.803000000000000000e+03 4.979642105102539062e+01 1.273560714721679688e+01 -6.295254826545715332e-01 7.710091114044189453e+00 2.124169588088989258e+00 1.960167884826660156e-01
3.804000000000000000e+03 4.912453842163085938e+01 1.106686592102050781e+01 -5.796586871147155762e-01 7.896617412567138672e+00 2.195087671279907227e+00 1.770390570163726807e-01
3.805000000000000000e+03 4.842055892944335938e+01 8.617088794708251953e-01 9.208001494407653809e-01 9.550411224365234375e+00 3.141363382339477539e+00 9.608845114707946777e-01
3.806000000000000000e+03 4.627585601806640625e+01 2.949598789215087891e+00 -2.759758569300174713e-02 9.405656814575195312e+00 2.813417911529541016e+00 1.216090768575668335e-01
3.807000000000000000e+03 4.915748596191406250e+01 1.180931925773620605e+00 8.873524665832519531e-01 9.329016685485839844e+00 3.064910888671875000e+00 9.933107495307922363e-01
3.808000000000000000e+03 4.839830017089843750e+01 3.088829040527343750e+00 2.289267033338546753e-01 9.190939903259277344e+00 2.825960159301757812e+00 6.428165435791015625e-01
3.809000000000000000e+03 4.867076492309570312e+01 -5.274435281753540039e-01 1.519540667533874512e+00 9.575526237487792969e+00 3.328520298004150391e+00 1.143540501594543457e+00
3.810000000000000000e+03 4.860673904418945312e+01 1.428293585777282715e-01 1.216998934745788574e+00 9.554573059082031250e+00 3.231471776962280273e+00 1.065640807151794434e+00
3.811000000000000000e+03 4.624325942993164062e+01 1.401082754135131836e+00 3.221116364002227783e-01 9.969551086425781250e+00 3.087498903274536133e+00 3.788940012454986572e-01
3.812000000000000000e+03 4.602448654174804688e+01 4.700533390045166016e+00 -2.818654775619506836e-01 8.896425247192382812e+00 2.584367990493774414e+00 -1.129137426614761353e-01
3.813000000000000000e+03 4.930204772949218750e+01 -4.620561897754669189e-01 1.540753006935119629e+00 9.362599372863769531e+00 3.271005630493164062e+00 1.150216579437255859e+00
3.814000000000000000e+03 4.780848693847656250e+01 4.038776874542236328e+00 -1.741040311753749847e-02 9.047349929809570312e+00 2.708981990814208984e+00 4.324230551719665527e-01
3.815000000000000000e+03 4.568255233764648438e+01 2.726725339889526367e+00 -4.507989808917045593e-02 9.527168273925781250e+00 2.844626426696777344e+00 -1.407997868955135345e-02
3.816000000000000000e+03 5.143223953247070312e+01 1.518657970428466797e+01 -6.411786079406738281e-01 7.585346698760986328e+00 2.083250284194946289e+00 2.999040186405181885e-01
3.817000000000000000e+03 4.652438735961914062e+01 7.581803798675537109e+00 -5.055746436119079590e-01 8.232561111450195312e+00 2.318095922470092773e+00 -1.497533023357391357e-01
3.818000000000000000e+03 4.753570175170898438e+01 2.350624322891235352e+00 2.899792790412902832e-01 9.454988479614257812e+00 2.923490285873413086e+00 5.555683374404907227e-01
3.819000000000000000e+03 4.592744064331054688e+01 2.146791219711303711e+00 1.058587431907653809e-01 9.724827766418457031e+00 2.949205875396728516e+00 1.593727916479110718e-01
3.820000000000000000e+03 4.699776077270507812e+01 3.704503297805786133e+00 -3.632012754678726196e-02 9.202198028564453125e+00 2.749763250350952148e+00 2.559825181961059570e-01
3.821000000000000000e+03 4.681252670288085938e+01 1.772848367691040039e+00 3.293797969818115234e-01 9.765793800354003906e+00 3.028552055358886719e+00 4.755143821239471436e-01
3.822000000000000000e+03 5.110719299316406250e+01 1.813967704772949219e+01 -6.777129769325256348e-01 7.297488212585449219e+00 1.985932588577270508e+00 1.924466192722320557e-01
3.823000000000000000e+03 6.169737243652343750e+01 -2.619563102722167969e+01 -3.021112382411956787e-01 7.903327941894531250e+00 2.280364990234375000e+00 -6.510646343231201172e-01
3.824000000000000000e+03 6.340227890014648438e+01 1.476535034179687500e+01 -2.191912829875946045e-01 7.875166416168212891e+00 2.296792507171630859e+00 8.189146518707275391e-01
3.825000000000000000e+03 6.491773223876953125e+01 1.714082145690917969e+01 -2.265720367431640625e-01 7.893704414367675781e+00 2.300139665603637695e+00 7.525746822357177734e-01
3.826000000000000000e+03 6.573772430419921875e+01 1.965339088439941406e+01 -2.647560834884643555e-01 7.916352748870849609e+00 2.295479059219360352e+00 6.736513376235961914e-01
3.827000000000000000e+03 2.440091896057128906e+01 -2.370395278930664062e+01 2.858048081398010254e-01 1.147806763648986816e+00 4.300834834575653076e-01 3.033884167671203613e-01
3.828000000000000000e+03 2.604383277893066406e+01 -2.715778541564941406e+01 2.996399700641632080e-01 1.716499328613281250e+00 6.048417687416076660e-01 4.639025926589965820e-01
3.829000000000000000e+03 4.542229080200195312e+01 1.815207481384277344e+01 -7.090387940406799316e-01 6.566425323486328125e+00 1.757215976715087891e+00 -2.929473519325256348e-01
3.830000000000000000e+03 5.284287643432617188e+01 1.080152606964111328e+01 -4.028292000293731689e-01 8.038921356201171875e+00 2.290827751159667969e+00 5.991717576980590820e-01
3.831000000000000000e+03 6.820149230957031250e+01 -3.765407562255859375e+01 -3.115930259227752686e-01 7.861116409301757812e+00 2.264857053756713867e+00 -2.042623609304428101e-01
3.832000000000000000e+03 6.624102783203125000e+01 2.462554740905761719e+01 -2.793657183647155762e-01 7.966721057891845703e+00 2.306206703186035156e+00 5.140636563301086426e-01
3.833000000000000000e+03 3.769049453735351562e+01 1.955495643615722656e+01 -4.625184535980224609e-01 4.737337112426757812e+00 1.282445669174194336e+00 -7.344349026679992676e-01
3.834000000000000000e+03 3.625784683227539062e+01 1.774901390075683594e+01 -3.600555956363677979e-01 4.387746334075927734e+00 1.208307266235351562e+00 -8.693737983703613281e-01
3.835000000000000000e+03 6.835404205322265625e+01 3.473279190063476562e+01 -2.020551562309265137e-01 8.180274009704589844e+00 2.393465518951416016e+00 2.155916690826416016e-01
3.836000000000000000e+03 7.152581787109375000e+01 3.255678939819335938e+01 -1.335798501968383789e-01 8.410902023315429688e+00 2.483196735382080078e+00 2.267609983682632446e-01
3.837000000000000000e+03 3.959709548950195312e+01 -2.737887573242187500e+01 -4.648611843585968018e-01 5.560009956359863281e+00 1.528544545173645020e+00 9.148166179656982422e-01
3.838000000000000000e+03 4.168311309814453125e+01 -2.983674049377441406e+01 -6.345645189285278320e-01 5.997435092926025391e+00 1.608861207962036133e+00 6.217439770698547363e-01
3.839000000000000000e+03 2.367292404174804688e+01 2.376758384704589844e+01 -1.271698623895645142e-03 1.481954455375671387e+00 4.442048072814941406e-01 -4.375970959663391113e-01
3.840000000000000000e+03 2.262040328979492188e+01 2.558009529113769531e+01 3.068724088370800018e-02 1.355772376060485840e+00 4.159378707408905029e-01 -3.784732222557067871e-01
3.841000000000000000e+03 2.795776557922363281e+01 2.085422515869140625e+01 -9.878383576869964600e-02 2.320987462997436523e+00 6.666610836982727051e-01 -6.532135009765625000e-01
3.842000000000000000e+03 2.811416053771972656e+01 1.925872039794921875e+01 -1.131956428289413452e-01 2.266595840454101562e+00 6.460200548171997070e-01 -6.985458731651306152e-01
3.843000000000000000e+03 9.598357200622558594e+00 3.800178146362304688e+01 1.130523607134819031e-01 3.356892988085746765e-02 4.398638755083084106e-02 6.970304250717163086e-02
3.844000000000000000e+03 5.428573608398437500e+01 -2.660769844055175781e+01 -6.263828873634338379e-01 7.967586040496826172e+00 2.202360868453979492e+00 -4.083167612552642822e-01
3.845000000000000000e+03 6.138631820678710938e+01 1.395966339111328125e+01 -2.539365291595458984e-01 7.880789279937744141e+00 2.288055896759033203e+00 8.309910893440246582e-01
3.846000000000000000e+03 6.339496231079101562e+01 2.288522338867187500e+01 -3.629164993762969971e-01 7.826839447021484375e+00 2.239176988601684570e+00 5.706380009651184082e-01
3.847000000000000000e+03 3.552789306640625000e+01 -3.041152381896972656e+01 -2.245798707008361816e-01 4.302983760833740234e+00 1.223521113395690918e+00 7.384241819381713867e-01
3.848000000000000000e+03 3.763236236572265625e+01 -2.892742538452148438e+01 -3.442481160163879395e-01 4.914260864257812500e+00 1.371003866195678711e+00 8.425877690315246582e-01
3.849000000000000000e+03 5.255088424682617188e+01 -2.047741508483886719e+01 -2.595364749431610107e-01 8.426595687866210938e+00 2.450117826461791992e+00 -5.989571213722229004e-01
3.850000000000000000e+03 6.767729759216308594e+00 3.784635162353515625e+01 8.287295699119567871e-02 -2.018944025039672852e-01 -3.570643439888954163e-02 7.964873313903808594e-02
3.851000000000000000e+03 1.977167129516601562e+01 2.937612724304199219e+01 1.200864389538764954e-01 1.048853874206542969e+00 3.506820797920227051e-01 -1.827706247568130493e-01
3.852000000000000000e+03 1.644636535644531250e+01 2.977331733703613281e+01 1.686740517616271973e-01 5.544669628143310547e-01 2.169422954320907593e-01 -4.170846194028854370e-02
3.853000000000000000e+03 1.102802181243896484e+01 -3.503232955932617188e+01 2.254684716463088989e-01 -1.618902981281280518e-01 1.907345093786716461e-02 -1.567657887935638428e-01
3.854000000000000000e+03 1.754298591613769531e+01 -2.944178581237792969e+01 3.120320737361907959e-01 3.935079872608184814e-01 2.116620242595672607e-01 -4.007902368903160095e-02
3.855000000000000000e+03 7.144490814208984375e+01 -3.862991714477539062e+01 -1.965646445751190186e-01 7.909636974334716797e+00 2.313921689987182617e+00 -1.347095817327499390e-01
3.856000000000000000e+03 7.027447509765625000e+01 2.973915290832519531e+01 -1.695870608091354370e-01 8.264148712158203125e+00 2.428368330001831055e+00 3.229064643383026123e-01
3.857000000000000000e+03 2.851846885681152344e+01 -2.482456970214843750e+01 3.181567490100860596e-01 2.031279563903808594e+00 7.048308849334716797e-01 6.882789731025695801e-01
3.858000000000000000e+03 6.268011856079101562e+01 -3.215386581420898438e+01 -4.675160348415374756e-01 7.847583293914794922e+00 2.214020252227783203e+00 -4.432168304920196533e-01
3.859000000000000000e+03 6.507046508789062500e+01 -2.924450874328613281e+01 -3.035883605480194092e-01 7.820894718170166016e+00 2.255191802978515625e+00 -5.470563173294067383e-01
3.860000000000000000e+03 3.183487892150878906e+01 -2.252021980285644531e+01 3.361704647541046143e-01 2.752835750579833984e+00 9.267019033432006836e-01 1.068187713623046875e+00
3.861000000000000000e+03 1.985843086242675781e+01 -2.445113372802734375e+01 2.098159193992614746e-01 4.041778445243835449e-01 1.841981410980224609e-01 3.412245959043502808e-02
3.862000000000000000e+03 5.525212097167968750e+01 1.383631706237792969e+01 -4.607334136962890625e-01 7.853320598602294922e+00 2.217776060104370117e+00 6.385769248008728027e-01
3.863000000000000000e+03 8.135590553283691406e+00 -4.106447982788085938e+01 1.207610592246055603e-01 -4.493541717529296875e-01 -9.857793152332305908e-02 -4.405106604099273682e-02
3.864000000000000000e+03 1.307737350463867188e+01 -3.320420455932617188e+01 2.551354765892028809e-01 -3.936989977955818176e-02 6.472967565059661865e-02 -1.624425351619720459e-01
3.865000000000000000e+03 1.218836879730224609e+01 3.229199981689453125e+01 1.573753654956817627e-01 2.044947892427444458e-01 1.085610389709472656e-01 7.430834323167800903e-02
3.866000000000000000e+03 1.343077659606933594e+01 3.747888565063476562e+01 1.446092575788497925e-01 4.334583282470703125e-01 1.734202802181243896e-01 2.191202901303768158e-02
3.867000000000000000e+03 2.879983139038085938e+01 2.372852897644042969e+01 -1.469108611345291138e-01 2.602152824401855469e+00 7.365726232528686523e-01 -6.148796677589416504e-01
3.868000000000000000e+03 6.880896759033203125e+01 -3.237509536743164062e+01 -2.238315194845199585e-01 7.811539173126220703e+00 2.276312351226806641e+00 -3.945353925228118896e-01
3.869000000000000000e+03 8.393074989318847656e+00 4.092646026611328125e+01 7.795812189579010010e-02 -8.338283002376556396e-02 -1.627413555979728699e-03 2.711186371743679047e-02
3.870000000000000000e+03 1.236528301239013672e+01 -3.753134918212890625e+01 2.403088361024856567e-01 3.103791363537311554e-02 8.140402287244796753e-02 -8.955870568752288818e-02
3.871000000000000000e+03 2.297259712219238281e+01 -3.737918472290039062e+01 2.422246038913726807e-01 1.518278360366821289e+00 5.281509160995483398e-01 9.876701980829238892e-02
3.872000000000000000e+03 3.555847549438476562e+01 -3.730997085571289062e+01 -3.127675950527191162e-01 4.376022338867187500e+00 1.218976378440856934e+00 2.986502945423126221e-01
3.873000000000000000e+03 4.462071228027343750e+01 -3.820813369750976562e+01 -7.786381840705871582e-01 6.300520896911621094e+00 1.656564712524414062e+00 1.464838832616806030e-01
3.874000000000000000e+03 3.756125259399414062e+01 3.638619995117187500e+01 -3.729780018329620361e-01 4.331209182739257812e+00 1.187469363212585449e+00 -1.827885806560516357e-01
3.875000000000000000e+03 4.224026870727539062e+01 3.678769302368164062e+01 -4.864286184310913086e-01 5.184641361236572266e+00 1.409463882446289062e+00 -1.117241382598876953e-01
3.876000000000000000e+03 6.240816497802734375e+01 -3.589413452148437500e+01 -5.369367003440856934e-01 7.813863277435302734e+00 2.183078050613403320e+00 -2.693599462509155273e-01
3.877000000000000000e+03 6.058752059936523438e+01 3.613827133178710938e+01 -4.068074226379394531e-01 7.502753734588623047e+00 2.128783941268920898e+00 1.633798927068710327e-01
3.878000000000000000e+03 6.581029510498046875e+01 -3.526588058471679688e+01 -3.884234726428985596e-01 7.833997726440429688e+00 2.233672142028808594e+00 -3.013937175273895264e-01
3.879000000000000000e+03 6.400556182861328125e+01 3.716814804077148438e+01 -3.310356140136718750e-01 7.779784679412841797e+00 2.234624624252319336e+00 1.477727442979812622e-01
3.880000000000000000e+03 7.194034576416015625e+01 -4.113784027099609375e+01 -1.477064192295074463e-01 7.926560401916503906e+00 2.333656311035156250e+00 -4.094013944268226624e-02
3.881000000000000000e+03 3.258663177490234375e+01 4.056082916259765625e+01 -2.130937576293945312e-01 3.456536769866943359e+00 9.730328917503356934e-01 -5.874637886881828308e-02
3.882000000000000000e+03 3.264779281616210938e+01 3.643972015380859375e+01 -2.247576266527175903e-01 3.459827423095703125e+00 9.705209136009216309e-01 -1.982386857271194458e-01
3.883000000000000000e+03 1.972479057312011719e+01 3.722926330566406250e+01 1.276021599769592285e-01 1.170806884765625000e+00 3.895227015018463135e-01 -5.657861754298210144e-02
3.884000000000000000e+03 2.372693443298339844e+01 3.754844665527343750e+01 4.697541892528533936e-02 1.839202165603637695e+00 5.658532381057739258e-01 -1.072124466300010681e-01
3.885000000000000000e+03 1.698738098144531250e+01 3.563047790527343750e+01 1.504086554050445557e-01 8.013455271720886230e-01 2.855262458324432373e-01 -2.558574452996253967e-02
3.886000000000000000e+03 5.915225219726562500e+01 2.002902030944824219e+01 -4.637411832809448242e-01 7.725453853607177734e+00 2.178513765335083008e+00 5.934259295463562012e-01
3.887000000000000000e+03 2.579843521118164062e+01 3.069435310363769531e+01 -6.608427036553621292e-03 2.151037693023681641e+00 6.433287858963012695e-01 -3.390113115310668945e-01
3.888000000000000000e+03 5.904187011718750000e+01 -2.763883399963378906e+01 -4.675214886665344238e-01 7.941557884216308594e+00 2.242210865020751953e+00 -5.644708871841430664e-01
3.889000000000000000e+03 6.101812744140625000e+01 -2.861011314392089844e+01 -4.346120655536651611e-01 7.896202564239501953e+00 2.238476991653442383e+00 -5.558258891105651855e-01
3.890000000000000000e+03 4.079783630371093750e+01 1.963470458984375000e+01 -5.839899182319641113e-01 5.479537963867187500e+00 1.468664407730102539e+00 -6.230862140655517578e-01
3.891000000000000000e+03 3.599256134033203125e+01 2.080803680419921875e+01 -3.888114094734191895e-01 4.289282321929931641e+00 1.170141220092773438e+00 -7.077979445457458496e-01
3.892000000000000000e+03 6.019977188110351562e+01 1.639694213867187500e+01 -3.705109357833862305e-01 7.835860729217529297e+00 2.239604949951171875e+00 7.319564223289489746e-01
3.893000000000000000e+03 5.490703201293945312e+01 -2.389499855041503906e+01 -4.368877112865447998e-01 8.132621765136718750e+00 2.308720111846923828e+00 -5.766414403915405273e-01
3.894000000000000000e+03 5.284308242797851562e+01 -2.249781608581542969e+01 -4.460158050060272217e-01 8.252891540527343750e+00 2.342062711715698242e+00 -5.041109919548034668e-01
3.895000000000000000e+03 5.594020080566406250e+01 -2.832283401489257812e+01 -6.249606609344482422e-01 7.897831439971923828e+00 2.181861400604248047e+00 -4.243897497653961182e-01
3.896000000000000000e+03 2.864174842834472656e+01 -2.736755180358886719e+01 2.449317723512649536e-01 2.282922029495239258e+00 7.583561539649963379e-01 6.405988335609436035e-01
3.897000000000000000e+03 2.720352935791015625e+01 2.235632514953613281e+01 -9.701856970787048340e-02 2.173051834106445312e+00 6.228099465370178223e-01 -6.263464689254760742e-01
3.898000000000000000e+03 1.444163036346435547e+01 -3.090548896789550781e+01 2.916828393936157227e-01 5.816275998950004578e-02 1.049536764621734619e-01 -1.647542715072631836e-01
3.899000000000000000e+03 1.532695770263671875e+01 -3.525560379028320312e+01 2.927998602390289307e-01 3.039570450782775879e-01 1.790270805358886719e-01 -7.431174069643020630e-02
3.900000000000000000e+03 4.916771697998046875e+01 1.911430358886718750e+01 -7.105562090873718262e-01 6.991233825683593750e+00 1.884203314781188965e+00 9.907250292599201202e-03
3.901000000000000000e+03 4.843611907958984375e+01 1.674083518981933594e+01 -7.124102711677551270e-01 7.119800090789794922e+00 1.922217011451721191e+00 -2.502950467169284821e-02
3.902000000000000000e+03 2.330228233337402344e+01 3.251444625854492188e+01 7.041617482900619507e-02 1.704830169677734375e+00 5.325738787651062012e-01 -2.268114537000656128e-01
3.903000000000000000e+03 1.949595451354980469e+01 3.306429290771484375e+01 1.395775377750396729e-01 1.130012750625610352e+00 3.808770775794982910e-01 -1.085410788655281067e-01
3.904000000000000000e+03 6.489686584472656250e+01 2.846137237548828125e+01 -3.139295578002929688e-01 7.895835399627685547e+00 2.274571895599365234e+00 3.990774154663085938e-01
3.905000000000000000e+03 6.190177536010742188e+01 1.561421489715576172e+01 -2.876742482185363770e-01 7.865065574645996094e+00 2.273217439651489258e+00 7.872602939605712891e-01
3.906000000000000000e+03 6.783292388916015625e+01 -3.386183929443359375e+01 -2.833104133605957031e-01 7.838069915771484375e+00 2.266427755355834961e+00 -3.593800961971282959e-01
3.907000000000000000e+03 4.428809738159179688e+01 -3.230162429809570312e+01 -7.710286378860473633e-01 6.488069534301757812e+00 1.715112209320068359e+00 3.243374228477478027e-01
3.908000000000000000e+03 4.586532211303710938e+01 -2.948916816711425781e+01 -8.160584568977355957e-01 6.994936466217041016e+00 1.853663325309753418e+00 3.116307556629180908e-01
3.909000000000000000e+03 1.281133842468261719e+01 3.472515487670898438e+01 1.557661890983581543e-01 3.141871094703674316e-01 1.409859955310821533e-01 4.132587090134620667e-02
3.910000000000000000e+03 3.493743515014648438e+01 2.368057632446289062e+01 -3.458349704742431641e-01 3.956856727600097656e+00 1.083306550979614258e+00 -6.282073855400085449e-01
3.911000000000000000e+03 2.786552619934082031e+01 -3.154388236999511719e+01 1.782164573669433594e-01 2.346895217895507812e+00 7.575334906578063965e-01 4.411289989948272705e-01
3.912000000000000000e+03 3.103159904479980469e+01 -2.681911277770996094e+01 1.755982935428619385e-01 2.896072149276733398e+00 9.215011000633239746e-01 8.239610195159912109e-01
3.913000000000000000e+03 2.084660911560058594e+01 -2.630085563659667969e+01 2.826935648918151855e-01 6.651386022567749023e-01 2.843496501445770264e-01 1.091861724853515625e-01
3.914000000000000000e+03 1.938791847229003906e+01 -2.717356109619140625e+01 2.960050404071807861e-01 5.473179817199707031e-01 2.529969215393066406e-01 7.288786023855209351e-02
3.915000000000000000e+03 2.619511413574218750e+01 2.360581207275390625e+01 -8.175470679998397827e-02 2.031109333038330078e+00 5.848063826560974121e-01 -5.647729039192199707e-01
3.916000000000000000e+03 4.870125961303710938e+01 -2.997286605834960938e+01 -8.405569195747375488e-01 7.343866348266601562e+00 1.950992822647094727e+00 8.814714848995208740e-02
3.917000000000000000e+03 5.116612243652343750e+01 -2.936398315429687500e+01 -8.073595166206359863e-01 7.644550800323486328e+00 2.051157474517822266e+00 -1.153832674026489258e-01
3.918000000000000000e+03 3.332799148559570312e+01 2.035393905639648438e+01 -2.558924555778503418e-01 3.578594923019409180e+00 9.968107342720031738e-01 -7.770586013793945312e-01
3.919000000000000000e+03 4.721121215820312500e+01 2.015922164916992188e+01 -7.116586565971374512e-01 6.690276145935058594e+00 1.793585181236267090e+00 -1.351858228445053101e-01
3.920000000000000000e+03 2.009006309509277344e+01 -2.964648818969726562e+01 3.218041062355041504e-01 7.973354458808898926e-01 3.357418775558471680e-01 1.009072363376617432e-01
3.921000000000000000e+03 3.717965316772460938e+01 -3.311735153198242188e+01 -3.801662027835845947e-01 4.752869129180908203e+00 1.311810970306396484e+00 5.631336569786071777e-01
3.922000000000000000e+03 4.188153839111328125e+01 -3.462340545654296875e+01 -6.595711112022399902e-01 5.813207149505615234e+00 1.546090841293334961e+00 3.465814292430877686e-01
3.923000000000000000e+03 4.702347946166992188e+01 -3.500084304809570312e+01 -8.319655656814575195e-01 6.849654197692871094e+00 1.805306673049926758e+00 1.484539508819580078e-01
3.924000000000000000e+03 6.013676071166992188e+01 -3.138156318664550781e+01 -5.330388545989990234e-01 7.860511302947998047e+00 2.198241710662841797e+00 -4.386742711067199707e-01
3.925000000000000000e+03 5.523514938354492188e+01 3.240301895141601562e+01 -5.534441471099853516e-01 7.027293205261230469e+00 1.942154645919799805e+00 1.718161553144454956e-01
3.926000000000000000e+03 5.774750900268554688e+01 3.446427917480468750e+01 -4.725440144538879395e-01 7.291083335876464844e+00 2.045561790466308594e+00 1.657125055789947510e-01
3.927000000000000000e+03 6.915727233886718750e+01 3.199748229980468750e+01 -1.909134387969970703e-01 8.213875770568847656e+00 2.406888723373413086e+00 2.727295756340026855e-01
3.928000000000000000e+03 6.305589294433593750e+01 -2.915538597106933594e+01 -3.760125637054443359e-01 7.858736515045166016e+00 2.244817256927490234e+00 -5.484420061111450195e-01
3.929000000000000000e+03 5.282661437988281250e+01 -2.813935279846191406e+01 -7.345145344734191895e-01 7.856249332427978516e+00 2.136520385742187500e+00 -2.628574371337890625e-01
3.930000000000000000e+03 4.919267654418945312e+01 -2.490266799926757812e+01 -7.456165552139282227e-01 7.900022983551025391e+00 2.146322011947631836e+00 -1.753838174045085907e-02
3.931000000000000000e+03 6.060619354248046875e+01 2.175049400329589844e+01 -4.356586635112762451e-01 7.731018066406250000e+00 2.188607931137084961e+00 5.641427636146545410e-01
3.932000000000000000e+03 3.935362625122070312e+01 2.125296974182128906e+01 -5.323442816734313965e-01 5.097711563110351562e+00 1.369610190391540527e+00 -6.235802769660949707e-01
3.933000000000000000e+03 6.515405273437500000e+01 3.367634582519531250e+01 -2.877529263496398926e-01 7.886891365051269531e+00 2.279741525650024414e+00 2.533458173274993896e-01
3.934000000000000000e+03 2.472466278076171875e+01 2.684954261779785156e+01 -9.111480787396430969e-03 1.753017306327819824e+00 5.231717228889465332e-01 -4.130025804042816162e-01
3.935000000000000000e+03 6.004664611816406250e+01 1.457054805755615234e+01 -3.148204386234283447e-01 7.877683639526367188e+00 2.268858909606933594e+00 7.944887876510620117e-01
3.936000000000000000e+03 5.269729614257812500e+01 1.683253669738769531e+01 -6.282413601875305176e-01 7.544499397277832031e+00 2.074877262115478516e+00 3.608227968215942383e-01
3.937000000000000000e+03 1.688110542297363281e+01 -3.218552398681640625e+01 3.143172264099121094e-01 4.173929393291473389e-01 2.195130437612533569e-01 -5.877096578478813171e-02
3.938000000000000000e+03 4.875502395629882812e+01 2.499937629699707031e+01 -6.753180027008056641e-01 6.559599399566650391e+00 1.765284419059753418e+00 -1.542497705668210983e-02
3.939000000000000000e+03 2.134170722961425781e+01 2.743480300903320312e+01 6.731253862380981445e-02 1.223444819450378418e+00 3.872272074222564697e-01 -2.826237380504608154e-01
3.940000000000000000e+03 2.341847801208496094e+01 2.894075775146484375e+01 4.157848283648490906e-02 1.624361515045166016e+00 4.997819960117340088e-01 -3.388087749481201172e-01
3.941000000000000000e+03 3.973357009887695312e+01 2.418680763244628906e+01 -5.345301628112792969e-01 5.116901874542236328e+00 1.374711513519287109e+00 -5.207628011703491211e-01
3.942000000000000000e+03 2.741498947143554688e+01 2.786520957946777344e+01 -8.611941337585449219e-02 2.400967359542846680e+00 6.944543719291687012e-01 -4.482746422290802002e-01
3.943000000000000000e+03 2.540473937988281250e+01 2.493370246887207031e+01 -1.224733330309391022e-02 1.923840403556823730e+00 5.734779238700866699e-01 -4.472644925117492676e-01
3.944000000000000000e+03 4.967207717895507812e+01 -3.288193511962890625e+01 -8.512468934059143066e-01 7.266834735870361328e+00 1.924676418304443359e+00 3.860621899366378784e-02
3.945000000000000000e+03 4.887358093261718750e+01 -2.719899940490722656e+01 -8.099632263183593750e-01 7.630035400390625000e+00 2.046021699905395508e+00 6.384376436471939087e-02
3.946000000000000000e+03 4.390825653076171875e+01 2.306470870971679688e+01 -6.508352756500244141e-01 5.932326793670654297e+00 1.584447383880615234e+00 -3.216700255870819092e-01
3.947000000000000000e+03 4.242902374267578125e+01 2.133499526977539062e+01 -6.280652284622192383e-01 5.729780197143554688e+00 1.530514478683471680e+00 -4.600507318973541260e-01
3.948000000000000000e+03 2.412592124938964844e+01 3.462347793579101562e+01 3.026620112359523773e-02 1.835880875587463379e+00 5.598441362380981445e-01 -1.808976978063583374e-01
3.949000000000000000e+03 2.730198097229003906e+01 2.514832305908203125e+01 -8.424571901559829712e-02 2.362174034118652344e+00 6.833785176277160645e-01 -5.423161983489990234e-01
3.950000000000000000e+03 5.698661041259765625e+01 2.921600723266601562e+01 -5.300869345664978027e-01 7.292006969451904297e+00 2.028576135635375977e+00 2.675845324993133545e-01
3.951000000000000000e+03 5.409330749511718750e+01 -3.393329238891601562e+01 -8.064036369323730469e-01 7.583523273468017578e+00 2.033135890960693359e+00 -1.725166290998458862e-01
3.952000000000000000e+03 2.238680458068847656e+01 -2.836592292785644531e+01 3.138244152069091797e-01 1.055349230766296387e+00 4.107520878314971924e-01 2.081396132707595825e-01
3.953000000000000000e+03 6.672021484375000000e+01 3.071738624572753906e+01 -2.641509771347045898e-01 8.017297744750976562e+00 2.325943946838378906e+00 3.292569518089294434e-01
3.954000000000000000e+03 6.396873474121093750e+01 2.564555358886718750e+01 -3.429413735866546631e-01 7.846438407897949219e+00 2.251049041748046875e+00 4.853988587856292725e-01
3.955000000000000000e+03 2.954503822326660156e+01 -2.978507804870605469e+01 1.384024471044540405e-01 2.624308824539184570e+00 8.288133740425109863e-01 5.982239246368408203e-01
3.956000000000000000e+03 5.666584777832031250e+01 1.519894313812255859e+01 -4.545966982841491699e-01 7.810422420501708984e+00 2.206747770309448242e+00 6.600485444068908691e-01
3.957000000000000000e+03 5.786067962646484375e+01 -2.995240211486816406e+01 -6.007152795791625977e-01 7.865442276000976562e+00 2.179418087005615234e+00 -4.314923584461212158e-01
3.958000000000000000e+03 5.627183151245117188e+01 -3.214850616455078125e+01 -7.213555574417114258e-01 7.756308555603027344e+00 2.110486030578613281e+00 -3.068606257438659668e-01
3.959000000000000000e+03 6.212008285522460938e+01 3.270142745971679688e+01 -3.629162609577178955e-01 7.671857833862304688e+00 2.192682504653930664e+00 2.589894533157348633e-01
3.960000000000000000e+03 3.091227531433105469e+01 -3.472816467285156250e+01 -1.819511502981185913e-02 3.210238933563232422e+00 9.576131105422973633e-01 4.035170376300811768e-01
3.961000000000000000e+03 3.150496673583984375e+01 -3.779565429687500000e+01 -9.018979966640472412e-02 3.378976821899414062e+00 9.866361021995544434e-01 2.477515637874603271e-01
3.962000000000000000e+03 5.263502502441406250e+01 -3.775370788574218750e+01 -8.548821210861206055e-01 7.339359283447265625e+00 1.945343255996704102e+00 -6.015433371067047119e-02
3.963000000000000000e+03 5.327833175659179688e+01 3.488817596435546875e+01 -5.719138979911804199e-01 6.732105255126953125e+00 1.848057389259338379e+00 8.097016811370849609e-02
3.964000000000000000e+03 5.164386367797851562e+01 4.024838638305664062e+01 -5.378028154373168945e-01 6.533787727355957031e+00 1.798795461654663086e+00 1.516004186123609543e-02
3.965000000000000000e+03 5.583044052124023438e+01 2.046090507507324219e+01 -5.740272402763366699e-01 7.521127700805664062e+00 2.084130287170410156e+00 4.491216540336608887e-01
3.966000000000000000e+03 5.834275436401367188e+01 1.628455924987792969e+01 -4.259399175643920898e-01 7.813939094543457031e+00 2.216399669647216797e+00 6.899307966232299805e-01
3.967000000000000000e+03 5.554364013671875000e+01 1.692981147766113281e+01 -5.389789938926696777e-01 7.694377899169921875e+00 2.146619558334350586e+00 5.461724400520324707e-01
3.968000000000000000e+03 6.095096588134765625e+01 1.848908615112304688e+01 -3.891371190547943115e-01 7.812479019165039062e+00 2.227002620697021484e+00 6.829591989517211914e-01
3.969000000000000000e+03 5.105866622924804688e+01 -2.724567604064941406e+01 -7.597171664237976074e-01 7.787420272827148438e+00 2.108310937881469727e+00 -1.643315106630325317e-01
3.970000000000000000e+03 3.065188980102539062e+01 2.807674789428710938e+01 -1.783535927534103394e-01 3.007527112960815430e+00 8.487520217895507812e-01 -4.978055953979492188e-01
3.971000000000000000e+03 4.527051162719726562e+01 2.448118591308593750e+01 -6.558790206909179688e-01 6.076718807220458984e+00 1.626252055168151855e+00 -2.413457781076431274e-01
3.972000000000000000e+03 4.850847244262695312e+01 2.263733673095703125e+01 -6.995657086372375488e-01 6.665800094604492188e+00 1.789870262145996094e+00 -3.836320713162422180e-02
3.973000000000000000e+03 4.101348876953125000e+01 2.290449333190917969e+01 -5.800460577011108398e-01 5.361477375030517578e+00 1.434429407119750977e+00 -5.054576396942138672e-01
3.974000000000000000e+03 3.874973297119140625e+01 2.561203384399414062e+01 -4.756967723369598389e-01 4.785373210906982422e+00 1.292902827262878418e+00 -4.883731305599212646e-01
3.975000000000000000e+03 4.411759567260742188e+01 2.657719612121582031e+01 -6.099417805671691895e-01 5.747637271881103516e+00 1.541308641433715820e+00 -2.664319276809692383e-01
3.976000000000000000e+03 3.832527160644531250e+01 2.290549468994140625e+01 -4.909771978855133057e-01 4.816355705261230469e+00 1.297613620758056641e+00 -5.858361124992370605e-01
3.977000000000000000e+03 4.617097854614257812e+01 3.316059494018554688e+01 -5.822193026542663574e-01 5.874435901641845703e+00 1.587665081024169922e+00 -8.563317358493804932e-02
3.978000000000000000e+03 5.233060455322265625e+01 -3.155218696594238281e+01 -8.121109604835510254e-01 7.622051715850830078e+00 2.042982101440429688e+00 -1.306623667478561401e-01
3.979000000000000000e+03 5.246869659423828125e+01 2.028356170654296875e+01 -6.623748540878295898e-01 7.261507034301757812e+00 1.979739665985107422e+00 2.505493462085723877e-01
3.980000000000000000e+03 4.616354370117187500e+01 2.994120407104492188e+01 -6.175104975700378418e-01 5.965757369995117188e+00 1.604474067687988281e+00 -1.135254055261611938e-01
3.981000000000000000e+03 3.753453826904296875e+01 2.770697975158691406e+01 -4.342268705368041992e-01 4.515841007232666016e+00 1.224484205245971680e+00 -4.402810335159301758e-01
3.982000000000000000e+03 3.299233245849609375e+01 2.444189453125000000e+01 -2.667002677917480469e-01 3.470180511474609375e+00 9.610440731048583984e-01 -6.167888641357421875e-01
3.983000000000000000e+03 5.763862228393554688e+01 2.213510513305664062e+01 -5.328136086463928223e-01 7.569005489349365234e+00 2.110857486724853516e+00 4.725446999073028564e-01
3.984000000000000000e+03 5.735411834716796875e+01 1.840241622924804688e+01 -5.009241104125976562e-01 7.703391551971435547e+00 2.160740137100219727e+00 5.870915055274963379e-01
3.985000000000000000e+03 6.129484558105468750e+01 2.370922470092773438e+01 -4.373936951160430908e-01 7.720155239105224609e+00 2.184828519821166992e+00 5.180075764656066895e-01
3.986000000000000000e+03 5.418105316162109375e+01 2.246397781372070312e+01 -6.258414983749389648e-01 7.280241489410400391e+00 1.996320009231567383e+00 3.091142177581787109e-01
3.987000000000000000e+03 4.866614913940429688e+01 2.715334510803222656e+01 -6.462693214416503906e-01 6.418193817138671875e+00 1.731577396392822266e+00 -1.737781614065170288e-02
3.988000000000000000e+03 4.310266494750976562e+01 2.953997993469238281e+01 -5.686194300651550293e-01 5.454378128051757812e+00 1.465727567672729492e+00 -2.391474395990371704e-01
3.989000000000000000e+03 4.052453231811523438e+01 2.605001831054687500e+01 -5.426720976829528809e-01 5.164640426635742188e+00 1.386590480804443359e+00 -4.206352233886718750e-01
3.990000000000000000e+03 5.942935562133789062e+01 2.346158599853515625e+01 -4.857374429702758789e-01 7.647023200988769531e+00 2.148385763168334961e+00 4.915471076965332031e-01
3.991000000000000000e+03 5.858432388305664062e+01 2.610978126525878906e+01 -5.042381882667541504e-01 7.508751869201660156e+00 2.101354122161865234e+00 3.846066892147064209e-01
3.992000000000000000e+03 3.170014381408691406e+01 3.217948913574218750e+01 -2.072522193193435669e-01 3.267698049545288086e+00 9.181337952613830566e-01 -3.451560437679290771e-01
3.993000000000000000e+03 5.438202285766601562e+01 2.695788383483886719e+01 -6.048794388771057129e-01 7.096769809722900391e+00 1.947567105293273926e+00 2.306623160839080811e-01
3.994000000000000000e+03 3.365494155883789062e+01 2.721629142761230469e+01 -2.924553453922271729e-01 3.631280899047851562e+00 1.001647591590881348e+00 -5.053144693374633789e-01
3.995000000000000000e+03 4.682863616943359375e+01 2.504075050354003906e+01 -6.636564135551452637e-01 6.286489963531494141e+00 1.686850070953369141e+00 -1.380647718906402588e-01
3.996000000000000000e+03 5.231626510620117188e+01 2.435473632812500000e+01 -6.624959111213684082e-01 6.991028785705566406e+00 1.898559927940368652e+00 1.684754341840744019e-01
3.997000000000000000e+03 4.006416702270507812e+01 2.886014366149902344e+01 -4.957675635814666748e-01 4.964303493499755859e+00 1.340560793876647949e+00 -3.695268929004669189e-01
3.998000000000000000e+03 1.769153213500976562e+01 -7.698831081390380859e+00 -1.259984672069549561e-01 -1.880402714014053345e-01 -9.421162307262420654e-02 -1.563759446144104004e-01
3.999000000000000000e+03 3.914813995361328125e-01 -2.171124696731567383e+00 2.602022432256489992e-04 -1.760101258696522564e-05 7.278037082869559526e-05 1.106445415643975139e-04
4.000000000000000000e+03 3.834314346313476562e+01 -4.958339691162109375e+00 2.355052709579467773e+00 1.072213053703308105e+00 1.028179764747619629e+00 -1.965549349784851074e+00
4.001000000000000000e+03 3.941731262207031250e+01 -4.527117252349853516e+00 3.760705947875976562e+00 4.325468540191650391e+00 2.425852298736572266e+00 -4.624070644378662109e+00
4.002000000000000000e+03 4.059960174560546875e+01 -4.507686614990234375e+00 2.811944723129272461e+00 1.188944435119628906e+01 4.410416603088378906e+00 -6.107584476470947266e+00
4.003000000000000000e+03 4.079993057250976562e+01 -4.670954227447509766e+00 2.761855840682983398e+00 1.387848663330078125e+01 4.992102622985839844e+00 -6.139731407165527344e+00
4.004000000000000000e+03 4.099092483520507812e+01 -4.638535022735595703e+00 2.377462863922119141e+00 1.530571937561035156e+01 5.304954528808593750e+00 -5.530015468597412109e+00
4.005000000000000000e+03 4.118856048583984375e+01 -4.595971584320068359e+00 2.125635623931884766e+00 1.646518325805664062e+01 5.577245235443115234e+00 -4.687930107116699219e+00
4.006000000000000000e+03 4.134425354003906250e+01 -4.421236515045166016e+00 1.791576981544494629e+00 1.646114158630371094e+01 5.475815773010253906e+00 -3.926099538803100586e+00
4.007000000000000000e+03 4.152733993530273438e+01 -4.534615516662597656e+00 1.870470166206359863e+00 1.750972366333007812e+01 5.814058303833007812e+00 -3.120130777359008789e+00
4.008000000000000000e+03 4.182768249511718750e+01 -5.037747383117675781e+00 3.308672904968261719e+00 2.068488883972167969e+01 7.198068618774414062e+00 -7.193215489387512207e-01
4.009000000000000000e+03 4.197416305541992188e+01 -4.725179672241210938e+00 2.763504981994628906e+00 1.886808013916015625e+01 6.489475727081298828e+00 -7.153831720352172852e-01
4.010000000000000000e+03 4.272095489501953125e+01 -5.499637603759765625e+00 7.829411983489990234e+00 1.758025741577148438e+01 7.622900962829589844e+00 2.315096378326416016e+00
4.011000000000000000e+03 4.267999267578125000e+01 -4.967726707458496094e+00 4.957020759582519531e+00 1.731412124633789062e+01 6.681342124938964844e+00 1.629683613777160645e+00
4.012000000000000000e+03 4.268487930297851562e+01 -6.001630783081054688e+00 1.075683021545410156e+01 1.735557746887207031e+01 8.433722496032714844e+00 2.019353389739990234e+00
4.013000000000000000e+03 4.299696350097656250e+01 -5.973919391632080078e+00 1.002422332763671875e+01 1.584592628479003906e+01 7.761044979095458984e+00 1.679101705551147461e+00
4.014000000000000000e+03 4.302368164062500000e+01 -6.837223529815673828e+00 1.062910461425781250e+01 1.559650325775146484e+01 7.867682456970214844e+00 -1.177083253860473633e+00
4.015000000000000000e+03 4.302803039550781250e+01 -6.622310161590576172e+00 1.093701744079589844e+01 1.545078659057617188e+01 7.916341304779052734e+00 -4.444195032119750977e-01
4.016000000000000000e+03 4.290130996704101562e+01 -7.360999107360839844e+00 8.738669395446777344e+00 1.659474182128906250e+01 7.600023746490478516e+00 -2.440753936767578125e+00
4.017000000000000000e+03 4.330483245849609375e+01 -7.425174236297607422e+00 7.990236759185791016e+00 1.511596202850341797e+01 6.931859493255615234e+00 -2.104493856430053711e+00
4.018000000000000000e+03 4.280434799194335938e+01 -7.533926486968994141e+00 7.788132667541503906e+00 1.730625152587890625e+01 7.528315067291259766e+00 -2.586337566375732422e+00
4.019000000000000000e+03 4.228163909912109375e+01 -8.160025596618652344e+00 3.682016372680664062e+00 1.907729530334472656e+01 6.827793598175048828e+00 -9.839178323745727539e-01
4.020000000000000000e+03 4.172192382812500000e+01 -8.129929542541503906e+00 2.269008159637451172e+00 2.022419738769531250e+01 6.747961997985839844e+00 1.512134313583374023e+00
4.021000000000000000e+03 4.158222961425781250e+01 -8.541118621826171875e+00 1.419514060020446777e+00 1.786209297180175781e+01 5.784482002258300781e+00 2.740840435028076172e+00
4.022000000000000000e+03 4.120425796508789062e+01 -8.645521163940429688e+00 1.406000971794128418e+00 1.577350234985351562e+01 5.153851032257080078e+00 4.438417911529541016e+00
4.023000000000000000e+03 4.090428924560546875e+01 -8.783051490783691406e+00 1.676530957221984863e+00 1.359821987152099609e+01 4.582425594329833984e+00 5.164017200469970703e+00
4.024000000000000000e+03 4.101346206665039062e+01 -8.489419937133789062e+00 1.702247858047485352e+00 1.515307617187500000e+01 5.056597232818603516e+00 5.270674228668212891e+00
4.025000000000000000e+03 4.065592193603515625e+01 -8.690638542175292969e+00 2.092844963073730469e+00 1.219662570953369141e+01 4.286840915679931641e+00 5.794212818145751953e+00
4.026000000000000000e+03 4.025749206542968750e+01 -8.226718902587890625e+00 3.548828363418579102e+00 8.563000679016113281e+00 3.633548736572265625e+00 6.401501178741455078e+00
4.027000000000000000e+03 4.005603790283203125e+01 -8.523795127868652344e+00 3.174248456954956055e+00 7.747330665588378906e+00 3.276473760604858398e+00 5.898139953613281250e+00
4.028000000000000000e+03 3.986132049560546875e+01 -8.504417419433593750e+00 3.266299724578857422e+00 6.400122642517089844e+00 2.899926662445068359e+00 5.477957725524902344e+00
4.029000000000000000e+03 3.966505813598632812e+01 -8.498931884765625000e+00 3.257618188858032227e+00 5.206777095794677734e+00 2.539318561553955078e+00 5.023434638977050781e+00
4.030000000000000000e+03 3.946847915649414062e+01 -8.509706497192382812e+00 3.113098859786987305e+00 4.432627201080322266e+00 2.263717889785766602e+00 4.586298942565917969e+00
4.031000000000000000e+03 3.880132675170898438e+01 -8.641492843627929688e+00 2.405675649642944336e+00 2.513206005096435547e+00 1.475664496421813965e+00 3.255236625671386719e+00
4.032000000000000000e+03 1.294444084167480469e+00 2.750375270843505859e+00 2.647059773153159767e-05 -1.808485831134021282e-04 -4.631339470506645739e-05 6.722203397657722235e-05
4.033000000000000000e+03 1.784509658813476562e+01 -7.169113159179687500e+00 6.797651294618844986e-03 -4.320095852017402649e-02 -1.092099212110042572e-02 -4.029159247875213623e-02
4.034000000000000000e+03 1.823014259338378906e+01 -7.709861755371093750e+00 -2.359091192483901978e-01 -1.330378651618957520e-01 -1.106840968132019043e-01 -2.132196426391601562e-01
4.035000000000000000e+03 1.791659736633300781e+01 -7.129271984100341797e+00 -1.703706942498683929e-02 -9.241693653166294098e-03 -7.883628830313682556e-03 -3.171008825302124023e-02
4.036000000000000000e+03 3.840211105346679688e+01 -4.563318252563476562e+00 2.668250799179077148e+00 1.753060221672058105e+00 1.326393246650695801e+00 -2.538503170013427734e+00
4.037000000000000000e+03 3.800399780273437500e+01 -4.295265674591064453e+00 2.388131141662597656e+00 1.504382491111755371e+00 1.167754054069519043e+00 -2.333523035049438477e+00
4.038000000000000000e+03 2.497062206268310547e+00 2.735451221466064453e+00 -4.168709565419703722e-04 -7.967071724124252796e-05 -1.489624992245808244e-04 1.303254339291015640e-05
4.039000000000000000e+03 4.306526565551757812e+01 -5.491423130035400391e+00 7.707472801208496094e+00 1.594321346282958984e+01 7.095205783843994141e+00 2.123054742813110352e+00
4.040000000000000000e+03 3.827345275878906250e+01 -3.682874441146850586e+00 2.661289930343627930e+00 2.677239894866943359e+00 1.601558923721313477e+00 -3.163381576538085938e+00
4.041000000000000000e+03 1.005372619628906250e+01 -2.112809371948242188e+01 -2.387417852878570557e-01 -5.831059217453002930e-01 -2.465543150901794434e-01 -4.968351423740386963e-01
4.042000000000000000e+03 5.881270217895507812e+01 -3.448624038696289062e+01 -6.639146208763122559e-01 7.774321079254150391e+00 2.133121967315673828e+00 -2.771358489990234375e-01
4.043000000000000000e+03 4.336763000488281250e+01 -5.861611843109130859e+00 8.761696815490722656e+00 1.458566856384277344e+01 7.004209518432617188e+00 1.492202162742614746e+00
4.044000000000000000e+03 4.363518905639648438e+01 -5.791247367858886719e+00 8.158357620239257812e+00 1.388478374481201172e+01 6.612942218780517578e+00 1.421989917755126953e+00
4.045000000000000000e+03 3.858607482910156250e+01 -4.525852680206298828e+00 3.017423391342163086e+00 2.191044569015502930e+00 1.562540411949157715e+00 -2.993609189987182617e+00
4.046000000000000000e+03 4.310239791870117188e+01 -7.233918666839599609e+00 9.130956649780273438e+00 1.565557765960693359e+01 7.435960292816162109e+00 -2.104004859924316406e+00
4.047000000000000000e+03 4.328580474853515625e+01 -7.083209037780761719e+00 9.221725463867187500e+00 1.471720027923583984e+01 7.181677818298339844e+00 -1.508822321891784668e+00
4.048000000000000000e+03 4.117657470703125000e+01 -4.352283477783203125e+00 1.839391946792602539e+00 1.517169857025146484e+01 5.103327274322509766e+00 -4.524542808532714844e+00
4.049000000000000000e+03 3.970679855346679688e+01 -4.402216911315917969e+00 3.608834505081176758e+00 6.058236598968505859e+00 2.900121212005615234e+00 -5.371781349182128906e+00
4.050000000000000000e+03 3.955057907104492188e+01 -4.239061832427978516e+00 3.420559406280517578e+00 5.684338092803955078e+00 2.731469154357910156e+00 -5.025464534759521484e+00
4.051000000000000000e+03 1.854879856109619141e+00 -3.859760761260986328e+00 5.309119587764143944e-04 -3.579070908017456532e-04 5.190145384403876960e-05 2.580469117674510926e-05
4.052000000000000000e+03 4.208259201049804688e+01 -4.414199829101562500e+00 2.210889339447021484e+00 1.753285217285156250e+01 5.923122406005859375e+00 -7.985747456550598145e-01
4.053000000000000000e+03 4.234592437744140625e+01 -4.472205162048339844e+00 2.746764898300170898e+00 1.737215995788574219e+01 6.035677433013916016e+00 1.167451962828636169e-01
4.054000000000000000e+03 4.027673721313476562e+01 -8.828617095947265625e+00 2.453167438507080078e+00 9.502350807189941406e+00 3.586655616760253906e+00 5.791523456573486328e+00
4.055000000000000000e+03 3.984572601318359375e+01 -8.772891998291015625e+00 2.911758422851562500e+00 6.763948440551757812e+00 2.902712106704711914e+00 5.367981433868408203e+00
4.056000000000000000e+03 4.112770462036132812e+01 -8.899348258972167969e+00 1.292070269584655762e+00 1.468651676177978516e+01 4.793576240539550781e+00 4.439609527587890625e+00
4.057000000000000000e+03 7.759376525878906250e+01 -3.550067138671875000e+01 -3.124798089265823364e-02 8.031952857971191406e+00 2.400211572647094727e+00 -8.803009986877441406e-02
4.058000000000000000e+03 3.896812820434570312e+01 -4.110892295837402344e+00 3.192760944366455078e+00 3.611978292465209961e+00 2.041421890258789062e+00 -3.936012983322143555e+00
4.059000000000000000e+03 3.909041213989257812e+01 -3.794825792312622070e+00 2.996972560882568359e+00 4.583349704742431641e+00 2.274096727371215820e+00 -4.269613265991210938e+00
4.060000000000000000e+03 3.855972290039062500e+01 -4.719557285308837891e+00 2.662276744842529297e+00 1.661674618721008301e+00 1.297185420989990234e+00 -2.571118116378784180e+00
4.061000000000000000e+03 3.883875656127929688e+01 -4.362117767333984375e+00 3.272374391555786133e+00 2.925793886184692383e+00 1.859450459480285645e+00 -3.604885578155517578e+00
4.062000000000000000e+03 3.833211517333984375e+01 -4.259409427642822266e+00 2.743211269378662109e+00 2.040381193161010742e+00 1.435077786445617676e+00 -2.806603431701660156e+00
4.063000000000000000e+03 4.305956268310546875e+01 -7.541903018951416016e+00 7.704492568969726562e+00 1.595907211303710938e+01 7.099069595336914062e+00 -2.369296312332153320e+00
4.064000000000000000e+03 4.291993331909179688e+01 -8.351419448852539062e+00 4.148912429809570312e+00 1.648930740356445312e+01 6.191466331481933594e+00 -1.657669425010681152e+00
4.065000000000000000e+03 4.314826202392578125e+01 -8.047595024108886719e+00 5.644927978515625000e+00 1.586728763580322266e+01 6.453664779663085938e+00 -2.176298856735229492e+00
4.066000000000000000e+03 4.224755096435546875e+01 -8.461391448974609375e+00 2.512131690979003906e+00 1.835433959960937500e+01 6.259941577911376953e+00 -2.218305319547653198e-01
4.067000000000000000e+03 4.240623092651367188e+01 -8.405728340148925781e+00 3.038404226303100586e+00 1.782638931274414062e+01 6.259438514709472656e+00 -7.160557508468627930e-01
4.068000000000000000e+03 4.178914642333984375e+01 -8.941929817199707031e+00 1.160060644149780273e+00 1.647351264953613281e+01 5.290071964263916016e+00 2.163853645324707031e+00
4.069000000000000000e+03 4.137338256835937500e+01 -8.755930900573730469e+00 1.249418139457702637e+00 1.610848236083984375e+01 5.207370281219482422e+00 3.615023136138916016e+00
4.070000000000000000e+03 4.213499069213867188e+01 -8.848367691040039062e+00 1.606599330902099609e+00 1.704028892517089844e+01 5.594066619873046875e+00 8.138509392738342285e-01
4.071000000000000000e+03 2.247440576553344727e+00 3.698240280151367188e+01 1.062219124287366867e-02 -6.465157270431518555e-01 -1.907680481672286987e-01 2.909368090331554413e-02
4.072000000000000000e+03 4.394845581054687500e+01 -5.753458976745605469e+00 7.758849620819091797e+00 1.327979183197021484e+01 6.311592578887939453e+00 1.301611185073852539e+00
4.073000000000000000e+03 5.022963523864746094e+00 -3.231560897827148438e+01 9.092615544795989990e-02 -6.399567127227783203e-01 -1.647091656923294067e-01 -2.285389155149459839e-01
4.074000000000000000e+03 9.298031806945800781e+00 -2.266887664794921875e+01 -7.721225172281265259e-02 -5.204843878746032715e-01 -1.793089956045150757e-01 -4.829492270946502686e-01
4.075000000000000000e+03 4.562614440917968750e+00 -2.280220222473144531e+01 -8.618580549955368042e-02 -2.876248359680175781e-01 -1.121431961655616760e-01 -3.414146006107330322e-01
4.076000000000000000e+03 7.525466442108154297e+00 -2.473610877990722656e+01 1.762031204998493195e-02 -4.441196918487548828e-01 -1.279498189687728882e-01 -4.613955020904541016e-01
4.077000000000000000e+03 4.338677978515625000e+01 -4.546330928802490234e+00 4.471956253051757812e+00 1.500975131988525391e+01 5.844512462615966797e+00 1.690526723861694336e+00
4.078000000000000000e+03 4.007402038574218750e+01 -4.008200168609619141e+00 2.821287155151367188e+00 8.446418762207031250e+00 3.380311727523803711e+00 -5.434107780456542969e+00
4.079000000000000000e+03 4.041938400268554688e+01 -4.098207950592041016e+00 2.567347049713134766e+00 1.041963005065917969e+01 3.896093130111694336e+00 -5.630608558654785156e+00
4.080000000000000000e+03 3.876623916625976562e+01 -4.577623844146728516e+00 3.170480251312255859e+00 2.290357589721679688e+00 1.638251304626464844e+00 -3.239272594451904297e+00
4.081000000000000000e+03 3.972377777099609375e+01 -4.023423671722412109e+00 3.149217367172241211e+00 6.639290809631347656e+00 2.936552524566650391e+00 -5.228172779083251953e+00
4.082000000000000000e+03 4.132164001464843750e+01 -8.970402717590332031e+00 1.096924424171447754e+00 1.527160739898681641e+01 4.910559654235839844e+00 3.766436815261840820e+00
4.083000000000000000e+03 4.078512191772460938e+01 -4.430101394653320312e+00 2.438754796981811523e+00 1.310287189483642578e+01 4.662487983703613281e+00 -5.696659088134765625e+00
4.084000000000000000e+03 4.004351425170898438e+01 -8.842739105224609375e+00 2.673521518707275391e+00 8.072067260742187500e+00 3.223676681518554688e+00 5.576746463775634766e+00
4.085000000000000000e+03 4.149534606933593750e+01 -9.077370643615722656e+00 9.993199706077575684e-01 1.533273410797119141e+01 4.899616241455078125e+00 3.085850000381469727e+00
4.086000000000000000e+03 4.205529022216796875e+01 -9.103647232055664062e+00 1.203280687332153320e+00 1.626195526123046875e+01 5.239571094512939453e+00 1.353211522102355957e+00
4.087000000000000000e+03 3.292595148086547852e+00 4.659303665161132812e+00 2.692218695301562548e-04 3.264812985435128212e-04 1.787109504221007228e-04 -1.780899765435606241e-04
4.088000000000000000e+03 3.859043502807617188e+01 -4.279822349548339844e+00 3.069595575332641602e+00 2.642475128173828125e+00 1.713621258735656738e+00 -3.254854202270507812e+00
4.089000000000000000e+03 4.089960098266601562e+01 -9.499152183532714844e+00 1.055021286010742188e+00 1.214787673950195312e+01 3.960869550704956055e+00 4.431162834167480469e+00
4.090000000000000000e+03 4.114321517944335938e+01 -9.526928901672363281e+00 8.455560207366943359e-01 1.298367118835449219e+01 4.148767948150634766e+00 3.963133573532104492e+00
4.091000000000000000e+03 3.878129577636718750e+01 -3.819112777709960938e+00 2.907089471817016602e+00 3.765686035156250000e+00 2.001832723617553711e+00 -3.772815704345703125e+00
4.092000000000000000e+03 4.351119995117187500e+01 -7.608639717102050781e+00 7.217166423797607422e+00 1.463666534423828125e+01 6.556149482727050781e+00 -2.059634208679199219e+00
4.093000000000000000e+03 4.353954315185546875e+01 -7.245587825775146484e+00 8.437355041503906250e+00 1.417450428009033203e+01 6.783557891845703125e+00 -1.625978589057922363e+00
4.094000000000000000e+03 4.144256210327148438e+01 -4.104594707489013672e+00 1.481083631515502930e+00 1.563095378875732422e+01 5.133611202239990234e+00 -3.392502069473266602e+00
4.095000000000000000e+03 4.178931045532226562e+01 -3.870582818984985352e+00 1.355071425437927246e+00 1.552319622039794922e+01 5.063480377197265625e+00 -2.273314237594604492e+00
4.096000000000000000e+03 4.209912109375000000e+01 -9.689760208129882812e+00 7.219745516777038574e-01 1.454310417175292969e+01 4.579523563385009766e+00 1.672375321388244629e+00
4.097000000000000000e+03 4.401262283325195312e+01 -5.022517204284667969e+00 5.959093570709228516e+00 1.352582836151123047e+01 5.845476627349853516e+00 1.773411631584167480e+00
4.098000000000000000e+03 4.432043838500976562e+01 -5.179861068725585938e+00 6.224454879760742188e+00 1.278077507019042969e+01 5.701569080352783203e+00 1.558458805084228516e+00
4.099000000000000000e+03 4.306865692138671875e+01 -4.383364200592041016e+00 3.661259412765502930e+00 1.575415134429931641e+01 5.824623107910156250e+00 1.279460549354553223e+00
4.100000000000000000e+03 4.401487350463867188e+01 -6.088405132293701172e+00 8.089612960815429688e+00 1.294427871704101562e+01 6.310167789459228516e+00 7.119661569595336914e-01
4.101000000000000000e+03 4.429185104370117188e+01 -4.719317913055419922e+00 5.200773239135742188e+00 1.310312175750732422e+01 5.491168498992919922e+00 1.753798723220825195e+00
4.102000000000000000e+03 4.339690399169921875e+01 -6.061674594879150391e+00 9.262800216674804688e+00 1.431069469451904297e+01 7.072048664093017578e+00 1.053594946861267090e+00
4.103000000000000000e+03 4.403895187377929688e+01 -7.324161052703857422e+00 7.524288654327392578e+00 1.309961509704589844e+01 6.187170982360839844e+00 -1.418624639511108398e+00
4.104000000000000000e+03 2.146644020080566406e+01 3.440745544433593750e+01 9.714306145906448364e-02 1.431113004684448242e+00 4.584768116474151611e-01 -1.385245472192764282e-01
4.105000000000000000e+03 3.908614349365234375e+01 -8.903779029846191406e+00 2.638136625289916992e+00 3.850198984146118164e+00 1.946500658988952637e+00 4.056457042694091797e+00
4.106000000000000000e+03 4.345257568359375000e+01 -8.043901443481445312e+00 5.845026493072509766e+00 1.495714092254638672e+01 6.240650177001953125e+00 -2.146760940551757812e+00
4.107000000000000000e+03 3.987316894531250000e+01 -3.786405086517333984e+00 2.718578577041625977e+00 7.552319049835205078e+00 3.081269264221191406e+00 -5.101166725158691406e+00
4.108000000000000000e+03 8.819383621215820312e+00 -2.509019851684570312e+01 7.082672417163848877e-02 -4.574182629585266113e-01 -1.159774661064147949e-01 -4.447900354862213135e-01
4.109000000000000000e+03 8.816063880920410156e+00 -2.648148536682128906e+01 1.165454164147377014e-01 -4.399171769618988037e-01 -9.701152890920639038e-02 -4.125779271125793457e-01
4.110000000000000000e+03 6.716707611083984375e+01 -3.189665412902832031e+01 -2.921818494796752930e-01 7.818275928497314453e+00 2.257828235626220703e+00 -4.338035881519317627e-01
4.111000000000000000e+03 3.311176300048828125e+01 -3.143582916259765625e+01 -9.654945135116577148e-02 3.654806613922119141e+00 1.067477107048034668e+00 6.424546837806701660e-01
4.112000000000000000e+03 5.193497467041015625e+01 2.877167510986328125e+01 -6.221793889999389648e-01 6.785121917724609375e+00 1.848882794380187988e+00 1.119865477085113525e-01
4.113000000000000000e+03 5.053210449218750000e+01 2.612734413146972656e+01 -6.628648638725280762e-01 6.726920604705810547e+00 1.819216728210449219e+00 6.916222721338272095e-02
4.114000000000000000e+03 3.959649658203125000e+01 -3.776968002319335938e+00 2.904309988021850586e+00 6.459990978240966797e+00 2.809290170669555664e+00 -4.904189109802246094e+00
4.115000000000000000e+03 4.330669021606445312e+01 -6.384967803955078125e+00 1.007564735412597656e+01 1.446152877807617188e+01 7.361152648925781250e+00 3.038382530212402344e-01
4.116000000000000000e+03 4.026348876953125000e+01 -3.537406444549560547e+00 2.169124126434326172e+00 9.341601371765136719e+00 3.453217506408691406e+00 -5.045005798339843750e+00
4.117000000000000000e+03 4.361412429809570312e+01 -6.612877845764160156e+00 9.274338722229003906e+00 1.370494174957275391e+01 6.893784523010253906e+00 -3.040174245834350586e-01
4.118000000000000000e+03 4.332243728637695312e+01 -6.621655464172363281e+00 9.987676620483398438e+00 1.439505100250244141e+01 7.314818382263183594e+00 -3.586511015892028809e-01
4.119000000000000000e+03 4.217563629150390625e+01 -8.614723205566406250e+00 2.112575292587280273e+00 1.763677024841308594e+01 5.924803733825683594e+00 3.019993007183074951e-01
4.120000000000000000e+03 4.097205352783203125e+01 -4.083817958831787109e+00 1.786529660224914551e+00 1.344829177856445312e+01 4.570446491241455078e+00 -4.776810646057128906e+00
4.121000000000000000e+03 9.047285079956054688e+00 -3.856747627258300781e+00 -2.061580889858305454e-04 1.103320319089107215e-04 -2.874781603168230504e-05 7.488417322747409344e-04
4.122000000000000000e+03 4.104822540283203125e+01 -3.617991924285888672e+00 1.432801723480224609e+00 1.286027336120605469e+01 4.287922382354736328e+00 -4.186483383178710938e+00
4.123000000000000000e+03 4.000715255737304688e+01 -3.490900993347167969e+00 2.378649950027465820e+00 8.284738540649414062e+00 3.199016571044921875e+00 -4.991827964782714844e+00
4.124000000000000000e+03 4.257864379882812500e+01 -4.074047565460205078e+00 2.349844217300415039e+00 1.613976478576660156e+01 5.546882629394531250e+00 1.062754839658737183e-01
4.125000000000000000e+03 3.948280715942382812e+01 -8.776882171630859375e+00 2.899518728256225586e+00 5.084397315979003906e+00 2.395174741744995117e+00 4.810696125030517578e+00
4.126000000000000000e+03 3.993215942382812500e+01 -9.149435997009277344e+00 2.290938138961791992e+00 7.751662731170654297e+00 3.012780189514160156e+00 5.258389949798583984e+00
4.127000000000000000e+03 4.047906112670898438e+01 -9.493633270263671875e+00 1.466462373733520508e+00 1.013029479980468750e+01 3.479027271270751953e+00 4.883003711700439453e+00
4.128000000000000000e+03 4.425113677978515625e+01 -5.712355613708496094e+00 7.282392024993896484e+00 1.271547603607177734e+01 5.999360084533691406e+00 1.180262684822082520e+00
4.129000000000000000e+03 4.400492477416992188e+01 -6.411620140075683594e+00 8.361759185791015625e+00 1.286397933959960938e+01 6.367721557617187500e+00 1.277872323989868164e-01
4.130000000000000000e+03 4.163825225830078125e+01 -9.520626068115234375e+00 6.772921085357666016e-01 1.442379379272460938e+01 4.530325889587402344e+00 2.718885183334350586e+00
4.131000000000000000e+03 4.170265197753906250e+01 -9.217698097229003906e+00 9.352481365203857422e-01 1.534712409973144531e+01 4.884711742401123047e+00 2.532088041305541992e+00
4.132000000000000000e+03 4.195515823364257812e+01 -9.343710899353027344e+00 9.047991633415222168e-01 1.534730339050292969e+01 4.875630855560302734e+00 1.812611341476440430e+00
4.133000000000000000e+03 4.187917327880859375e+01 -9.592715263366699219e+00 7.030614614486694336e-01 1.463414001464843750e+01 4.601160526275634766e+00 2.156216621398925781e+00
4.134000000000000000e+03 4.133808898925781250e+01 -9.205197334289550781e+00 9.587534666061401367e-01 1.451292037963867188e+01 4.641502380371093750e+00 3.583998203277587891e+00
4.135000000000000000e+03 7.584465789794921875e+01 -3.618214035034179688e+01 -7.547216862440109253e-02 7.989085197448730469e+00 2.374083757400512695e+00 -1.356006711721420288e-01
4.136000000000000000e+03 7.619751739501953125e+01 -3.377395629882812500e+01 -4.314074292778968811e-02 7.904563426971435547e+00 2.358426809310913086e+00 -1.779181808233261108e-01
4.137000000000000000e+03 4.062430572509765625e+01 -9.742724418640136719e+00 1.128391504287719727e+00 1.061844348907470703e+01 3.524050474166870117e+00 4.482952594757080078e+00
4.138000000000000000e+03 4.119402694702148438e+01 -9.928039550781250000e+00 6.246740818023681641e-01 1.238062667846679688e+01 3.901590347290039062e+00 3.580257654190063477e+00
4.139000000000000000e+03 7.539668273925781250e+01 3.365602493286132812e+01 -3.746370971202850342e-02 8.835498809814453125e+00 2.639410495758056641e+00 1.287311166524887085e-01
4.140000000000000000e+03 4.020659637451171875e+01 -3.274322986602783203e+00 1.914512991905212402e+00 9.063049316406250000e+00 3.293268918991088867e+00 -4.689096450805664062e+00
4.141000000000000000e+03 3.858826828002929688e+01 -2.698826074600219727e+00 2.326905727386474609e+00 4.377776145935058594e+00 2.011404514312744141e+00 -3.681275367736816406e+00
4.142000000000000000e+03 4.041169738769531250e+01 -9.917738914489746094e+00 1.149321198463439941e+00 9.809999465942382812e+00 3.287796020507812500e+00 4.484987735748291016e+00
4.143000000000000000e+03 4.168950653076171875e+01 -3.330591678619384766e+00 1.013782143592834473e+00 1.389432811737060547e+01 4.472433090209960938e+00 -2.656047821044921875e+00
4.144000000000000000e+03 1.094462394714355469e+01 -2.481599235534667969e+01 9.380467981100082397e-02 -4.468035101890563965e-01 -1.058996468782424927e-01 -3.995765447616577148e-01
4.145000000000000000e+03 4.450798797607421875e+01 -5.641979694366455078e+00 6.850554466247558594e+00 1.226604270935058594e+01 5.734979152679443359e+00 1.115151643753051758e+00
4.146000000000000000e+03 4.340703964233398438e+01 -7.797698020935058594e+00 6.666496276855468750e+00 1.507992267608642578e+01 6.523925781250000000e+00 -2.241793394088745117e+00
4.147000000000000000e+03 4.426972579956054688e+01 -7.618428230285644531e+00 6.636022567749023438e+00 1.281736660003662109e+01 5.836016654968261719e+00 -1.589653372764587402e+00
4.148000000000000000e+03 4.089465713500976562e+01 -3.838070869445800781e+00 1.772981047630310059e+00 1.267481899261474609e+01 4.334340095520019531e+00 -4.650394916534423828e+00
4.149000000000000000e+03 8.601014137268066406e+00 -2.789315414428710938e+01 1.286053061485290527e-01 -4.441378116607666016e-01 -9.465974569320678711e-02 -3.752874732017517090e-01
4.150000000000000000e+03 8.494439125061035156e+00 -3.161628532409667969e+01 1.633500605821609497e-01 -4.072776734828948975e-01 -7.317828387022018433e-02 -2.707704603672027588e-01
4.151000000000000000e+03 4.278034973144531250e+01 -8.901099205017089844e+00 2.389486074447631836e+00 1.610994720458984375e+01 5.549829959869384766e+00 -6.430207490921020508e-01
4.152000000000000000e+03 4.274235153198242188e+01 -8.664266586303710938e+00 2.857224702835083008e+00 1.667709922790527344e+01 5.860297203063964844e+00 -8.967620730400085449e-01
4.153000000000000000e+03 1.830205917358398438e+01 2.317755889892578125e+01 3.265325352549552917e-02 5.232909321784973145e-01 1.667832583189010620e-01 -1.725630164146423340e-01
4.154000000000000000e+03 9.246246337890625000e+00 2.873740959167480469e+01 1.086876913905143738e-01 -8.519477397203445435e-02 7.047875318676233292e-03 2.031178325414657593e-01
4.155000000000000000e+03 2.417073440551757812e+01 1.123818492889404297e+01 7.709040772169828415e-03 8.010475635528564453e-01 2.426269948482513428e-01 -3.721556067466735840e-01
4.156000000000000000e+03 4.461979675292968750e+01 -5.850419044494628906e+00 7.016724109649658203e+00 1.203986930847167969e+01 5.716978073120117188e+00 8.677468895912170410e-01
4.157000000000000000e+03 4.363352584838867188e+01 -6.369013309478759766e+00 9.238670349121093750e+00 1.369106864929199219e+01 6.878921508789062500e+00 3.067374527454376221e-01
4.158000000000000000e+03 4.185091781616210938e+01 -9.840586662292480469e+00 5.566112399101257324e-01 1.396884918212890625e+01 4.357637882232666016e+00 2.368576765060424805e+00
4.159000000000000000e+03 4.164738082885742188e+01 -9.824797630310058594e+00 5.111048817634582520e-01 1.387246322631835938e+01 4.315070152282714844e+00 2.710222959518432617e+00
4.160000000000000000e+03 4.073781204223632812e+01 -3.023867607116699219e+00 1.330952644348144531e+00 1.084258270263671875e+01 3.652060747146606445e+00 -4.188347339630126953e+00
4.161000000000000000e+03 4.052717590332031250e+01 -3.435597419738769531e+00 1.767721414566040039e+00 1.044317626953125000e+01 3.663269281387329102e+00 -4.759810924530029297e+00
4.162000000000000000e+03 4.046099853515625000e+01 -3.142190694808959961e+00 1.661932110786437988e+00 9.926897048950195312e+00 3.476648807525634766e+00 -4.552688598632812500e+00
4.163000000000000000e+03 4.035440826416015625e+01 -2.834347963333129883e+00 1.539139151573181152e+00 9.431814193725585938e+00 3.291285991668701172e+00 -4.309324264526367188e+00
4.164000000000000000e+03 4.269885635375976562e+01 -3.806687116622924805e+00 2.119492292404174805e+00 1.539126873016357422e+01 5.253228187561035156e+00 4.284298978745937347e-03
4.165000000000000000e+03 4.474570083618164062e+01 -5.641843795776367188e+00 6.614024639129638672e+00 1.194047927856445312e+01 5.566350936889648438e+00 1.029614329338073730e+00
4.166000000000000000e+03 4.447716522216796875e+01 -5.387439727783203125e+00 6.484117031097412109e+00 1.246968841552734375e+01 5.686141967773437500e+00 1.367649435997009277e+00
4.167000000000000000e+03 4.372323989868164062e+01 -8.004939079284667969e+00 6.025658130645751953e+00 1.427124309539794922e+01 6.089070320129394531e+00 -2.094986915588378906e+00
4.168000000000000000e+03 4.302778244018554688e+01 -8.988042831420898438e+00 2.482187271118164062e+00 1.536142635345458984e+01 5.353084087371826172e+00 -8.319560289382934570e-01
4.169000000000000000e+03 4.085576629638671875e+01 -1.033695888519287109e+01 7.000228166580200195e-01 1.081664657592773438e+01 3.455000877380371094e+00 3.854362726211547852e+00
4.170000000000000000e+03 5.935974597930908203e+00 -5.584300518035888672e+00 4.176840302534401417e-04 -2.245531941298395395e-04 5.793924719910137355e-05 -4.446411039680242538e-04
4.171000000000000000e+03 4.107888793945312500e+01 -3.277960062026977539e+00 1.196821808815002441e+00 1.230732059478759766e+01 4.051242828369140625e+00 -3.888456583023071289e+00
4.172000000000000000e+03 4.079656219482421875e+01 -3.338285446166992188e+00 1.483393788337707520e+00 1.139386177062988281e+01 3.863176584243774414e+00 -4.403204441070556641e+00
4.173000000000000000e+03 6.677809143066406250e+01 -2.888241004943847656e+01 -2.494162023067474365e-01 7.786770343780517578e+00 2.261206150054931641e+00 -5.446680188179016113e-01
4.174000000000000000e+03 6.681523132324218750e+01 -2.695499610900878906e+01 -1.895751953125000000e-01 7.762594699859619141e+00 2.271905899047851562e+00 -5.968620181083679199e-01
4.175000000000000000e+03 4.210974502563476562e+01 -1.027903747558593750e+01 3.771874606609344482e-01 1.336625862121582031e+01 4.123034000396728516e+00 1.870875954627990723e+00
4.176000000000000000e+03 4.162448120117187500e+01 -1.047984409332275391e+01 3.440946340560913086e-01 1.241215896606445312e+01 3.826876163482666016e+00 2.685004711151123047e+00
4.177000000000000000e+03 4.190445327758789062e+01 -1.008104991912841797e+01 4.699306488037109375e-01 1.347307968139648438e+01 4.182903289794921875e+00 2.228377580642700195e+00
4.178000000000000000e+03 4.135914230346679688e+01 -2.813203811645507812e+00 8.796514272689819336e-01 1.229306030273437500e+01 3.951813459396362305e+00 -3.143530607223510742e+00
4.179000000000000000e+03 2.286684799194335938e+01 -1.702434301376342773e+00 -2.973212115466594696e-02 -1.383124589920043945e-01 -5.041337385773658752e-02 3.449688553810119629e-01
4.180000000000000000e+03 4.498171615600585938e+01 -4.752087593078613281e+00 5.143185615539550781e+00 1.192591285705566406e+01 5.120729446411132812e+00 1.528558969497680664e+00
4.181000000000000000e+03 4.427430725097656250e+01 -3.805718898773193359e+00 3.481213331222534180e+00 1.307523059844970703e+01 4.966933250427246094e+00 1.480997920036315918e+00
4.182000000000000000e+03 4.482415390014648438e+01 -3.784059047698974609e+00 3.573920726776123047e+00 1.228415966033935547e+01 4.757424354553222656e+00 1.493160486221313477e+00
4.183000000000000000e+03 4.255995559692382812e+01 -3.449840068817138672e+00 1.450852394104003906e+00 1.484533691406250000e+01 4.888856887817382812e+00 -7.383046150207519531e-01
4.184000000000000000e+03 4.277213287353515625e+01 -3.511419296264648438e+00 1.809004545211791992e+00 1.470267868041992188e+01 4.953505039215087891e+00 -1.373831778764724731e-01
4.185000000000000000e+03 4.239422988891601562e+01 -3.958585739135742188e+00 1.896397948265075684e+00 1.579322147369384766e+01 5.306885719299316406e+00 -5.589552521705627441e-01
4.186000000000000000e+03 4.487630844116210938e+01 -6.030497550964355469e+00 6.864169597625732422e+00 1.166421413421630859e+01 5.558515071868896484e+00 5.856578946113586426e-01
4.187000000000000000e+03 4.537002944946289062e+01 -5.843654155731201172e+00 6.246769905090332031e+00 1.119877243041992188e+01 5.233662605285644531e+00 6.904792785644531250e-01
4.188000000000000000e+03 4.660115814208984375e+01 2.324888038635253906e+01 -6.929220557212829590e-01 6.363205909729003906e+00 1.701085090637207031e+00 -1.718688160181045532e-01
4.189000000000000000e+03 4.496783065795898438e+01 -7.642716407775878906e+00 6.042422294616699219e+00 1.181382846832275391e+01 5.356874942779541016e+00 -1.296388864517211914e+00
4.190000000000000000e+03 4.003068923950195312e+01 -1.029893016815185547e+01 1.257292747497558594e+00 8.247148513793945312e+00 2.851332187652587891e+00 4.402498722076416016e+00
4.191000000000000000e+03 5.111941146850585938e+01 -2.280201530456542969e+01 -5.513348579406738281e-01 8.236815452575683594e+00 2.305644273757934570e+00 -3.361655771732330322e-01
4.192000000000000000e+03 2.453131103515625000e+01 1.551718616485595703e+01 -5.004545301198959351e-02 1.233538985252380371e+00 3.550480604171752930e-01 -5.181558132171630859e-01
4.193000000000000000e+03 3.285822677612304688e+01 2.217976570129394531e+01 -2.617028057575225830e-01 3.406115055084228516e+00 9.433236718177795410e-01 -7.057551741600036621e-01
4.194000000000000000e+03 3.435946655273437500e+01 2.176268005371093750e+01 -3.241237103939056396e-01 3.842741250991821289e+00 1.055585265159606934e+00 -7.035468220710754395e-01
4.195000000000000000e+03 3.380508422851562500e+01 -2.808646678924560547e+00 7.999697327613830566e-01 5.102203488349914551e-01 3.930570185184478760e-01 -5.892699360847473145e-01
4.196000000000000000e+03 4.215977478027343750e+01 -4.155993938446044922e+00 1.973459124565124512e+00 1.676836204528808594e+01 5.622546195983886719e+00 -8.582066297531127930e-01
4.197000000000000000e+03 4.456599807739257812e+01 -6.705716133117675781e+00 7.326045989990234375e+00 1.199144363403320312e+01 5.795247077941894531e+00 -2.826937735080718994e-01
4.198000000000000000e+03 7.654694080352783203e+00 -2.870121574401855469e+01 1.180944740772247314e-01 -4.657516181468963623e-01 -1.042971387505531311e-01 -3.554717302322387695e-01
4.199000000000000000e+03 4.063940811157226562e+01 -2.692819118499755859e+00 1.268442392349243164e+00 1.021767807006835938e+01 3.445836305618286133e+00 -4.043013095855712891e+00
4.200000000000000000e+03 4.022436904907226562e+01 -2.502105951309204102e+00 1.460269093513488770e+00 8.918915748596191406e+00 3.113755464553833008e+00 -4.149622440338134766e+00
4.201000000000000000e+03 4.371105575561523438e+01 -3.376789331436157227e+00 2.316676139831542969e+00 1.357654666900634766e+01 4.767966747283935547e+00 8.417440652847290039e-01
4.202000000000000000e+03 5.681562900543212891e+00 8.212202072143554688e+00 2.112666144967079163e-03 -4.578519437927752733e-04 4.964442341588437557e-04 -6.461290467996150255e-05
4.203000000000000000e+03 4.445041656494140625e+01 -8.389201164245605469e+00 4.947710990905761719e+00 1.284672546386718750e+01 5.338330745697021484e+00 -1.792369246482849121e+00
4.204000000000000000e+03 4.152063369750976562e+01 -2.225693464279174805e+00 6.644461154937744141e-01 1.161484813690185547e+01 3.683788299560546875e+00 -2.763905763626098633e+00
4.205000000000000000e+03 3.822810745239257812e+01 -1.603491187095642090e+00 1.827958583831787109e+00 4.536947250366210938e+00 1.909471750259399414e+00 -3.284154415130615234e+00
4.206000000000000000e+03 4.246398162841796875e+01 -3.049904823303222656e+00 1.091351270675659180e+00 1.402217674255371094e+01 4.534058570861816406e+00 -1.057498931884765625e+00
4.207000000000000000e+03 4.200312042236328125e+01 -2.281066417694091797e+00 6.218832731246948242e-01 1.244226837158203125e+01 3.919245481491088867e+00 -2.032447576522827148e+00
4.208000000000000000e+03 3.668537902832031250e+01 2.275268363952636719e+01 -4.254932701587677002e-01 4.454392910003662109e+00 1.208669900894165039e+00 -6.149966716766357422e-01
4.209000000000000000e+03 2.063279151916503906e+01 2.172756004333496094e+01 -2.008099295198917389e-02 8.043258786201477051e-01 2.352734655141830444e-01 -3.139377832412719727e-01
4.210000000000000000e+03 6.159722328186035156e+00 6.303257465362548828e+00 1.593194901943206787e-03 -1.972386671695858240e-04 4.187868617009371519e-04 -3.778626341954804957e-05
4.211000000000000000e+03 5.762823104858398438e+00 5.271970272064208984e+00 6.249403813853859901e-04 1.009660422823799308e-06 1.877850154414772987e-04 2.960294368676841259e-04
4.212000000000000000e+03 4.124712371826171875e+01 -1.086352062225341797e+01 3.387862741947174072e-01 1.114720344543457031e+01 3.445796728134155273e+00 3.088294267654418945e+00
4.213000000000000000e+03 4.238074874877929688e+01 -1.040568828582763672e+01 4.233240485191345215e-01 1.336948585510253906e+01 4.137842655181884766e+00 1.445304870605468750e+00
4.214000000000000000e+03 4.468555450439453125e+01 -9.773705482482910156e+00 2.569604635238647461e+00 1.248491191864013672e+01 4.516355037689208984e+00 -1.349707365036010742e+00
4.215000000000000000e+03 4.528575134277343750e+01 -8.118520736694335938e+00 5.187707424163818359e+00 1.154294776916503906e+01 5.019196510314941406e+00 -1.426688432693481445e+00
4.216000000000000000e+03 4.567296600341796875e+01 -4.953039169311523438e+00 5.133121013641357422e+00 1.108000850677490234e+01 4.863938808441162109e+00 1.200075984001159668e+00
4.217000000000000000e+03 2.644661712646484375e+01 9.213770866394042969e+00 1.641674190759658813e-01 1.141993403434753418e+00 3.918482661247253418e-01 -5.089048743247985840e-01
4.218000000000000000e+03 3.765584182739257812e+01 -1.430603027343750000e+00 1.790940880775451660e+00 3.788523912429809570e+00 1.673839449882507324e+00 -2.946781396865844727e+00
4.219000000000000000e+03 4.413187408447265625e+01 -2.988345623016357422e+00 2.174517869949340820e+00 1.292217350006103516e+01 4.529007434844970703e+00 9.124196171760559082e-01
4.220000000000000000e+03 4.392681503295898438e+01 -3.242715835571289062e+00 2.307345151901245117e+00 1.329542732238769531e+01 4.680831909179687500e+00 9.300789237022399902e-01
4.221000000000000000e+03 4.525735092163085938e+01 -6.446976184844970703e+00 6.554333209991455078e+00 1.120060634613037109e+01 5.326481819152832031e+00 3.248807042837142944e-02
4.222000000000000000e+03 4.525535964965820312e+01 -4.159086704254150391e+00 4.247711181640625000e+00 1.178227138519287109e+01 4.808994770050048828e+00 1.577543735504150391e+00
4.223000000000000000e+03 4.528367614746093750e+01 -3.890764474868774414e+00 3.838803768157958984e+00 1.176345634460449219e+01 4.680677890777587891e+00 1.511339426040649414e+00
4.224000000000000000e+03 4.531523895263671875e+01 -7.039701461791992188e+00 6.318057537078857422e+00 1.118818855285644531e+01 5.251873493194580078e+00 -6.278613805770874023e-01
4.225000000000000000e+03 3.967872238159179688e+01 -1.155918312072753906e+01 8.973543047904968262e-01 7.283494949340820312e+00 2.454254865646362305e+00 3.806662321090698242e+00
4.226000000000000000e+03 5.292945384979248047e+00 5.900039196014404297e+00 -1.211770795634947717e-04 7.463404472218826413e-05 -1.396290917909936979e-05 -3.034860710613429546e-04
4.227000000000000000e+03 4.038896179199218750e+01 -1.976915359497070312e+00 1.102438807487487793e+00 9.073012351989746094e+00 3.052635431289672852e+00 -3.723211288452148438e+00
4.228000000000000000e+03 4.080439758300781250e+01 -2.210685253143310547e+00 9.503381848335266113e-01 1.021509265899658203e+01 3.349629402160644531e+00 -3.563243150711059570e+00
4.229000000000000000e+03 4.087549591064453125e+01 -1.080489540100097656e+01 5.327929854393005371e-01 1.034948730468750000e+01 3.264683961868286133e+00 3.566247224807739258e+00
4.230000000000000000e+03 4.200428390502929688e+01 -1.103851985931396484e+01 1.690797060728073120e-01 1.209884452819824219e+01 3.680377244949340820e+00 2.128685235977172852e+00
4.231000000000000000e+03 3.829382324218750000e+01 -9.462291598320007324e-01 1.569129228591918945e+00 4.904329776763916016e+00 1.942037701606750488e+00 -3.212182283401489258e+00
4.232000000000000000e+03 3.877701950073242188e+01 -1.554217100143432617e+00 1.665313243865966797e+00 5.555647373199462891e+00 2.166288137435913086e+00 -3.535958051681518555e+00
4.233000000000000000e+03 3.799389266967773438e+01 -5.906721353530883789e-01 1.503360509872436523e+00 4.648317813873291016e+00 1.845503449440002441e+00 -3.034164667129516602e+00
4.234000000000000000e+03 6.491508483886718750e+01 1.412933444976806641e+01 -1.586497277021408081e-01 7.870658397674560547e+00 2.313602685928344727e+00 8.273605108261108398e-01
4.235000000000000000e+03 4.627334213256835938e+01 -5.550487518310546875e+00 5.325141429901123047e+00 1.043616580963134766e+01 4.728392124176025391e+00 7.081946134567260742e-01
4.236000000000000000e+03 4.436817550659179688e+01 -2.684924602508544922e+00 1.984734892845153809e+00 1.250281143188476562e+01 4.346263885498046875e+00 8.910193443298339844e-01
4.237000000000000000e+03 3.955471038818359375e+01 -1.184409141540527344e+01 8.558240532875061035e-01 6.978262901306152344e+00 2.350226163864135742e+00 3.704076051712036133e+00
4.238000000000000000e+03 3.996820068359375000e+01 -1.173045253753662109e+01 6.574494838714599609e-01 7.878220081329345703e+00 2.560700893402099609e+00 3.551658391952514648e+00
4.239000000000000000e+03 4.620351791381835938e+01 -4.801401615142822266e+00 4.743172168731689453e+00 1.065731334686279297e+01 4.620145320892333984e+00 1.138078570365905762e+00
4.240000000000000000e+03 4.329185485839843750e+01 -2.311303138732910156e+00 1.044000744819641113e+00 1.284880352020263672e+01 4.167841434478759766e+00 -2.401518374681472778e-01
4.241000000000000000e+03 4.135603332519531250e+01 -1.906000852584838867e+00 6.323148608207702637e-01 1.095885562896728516e+01 3.477350950241088867e+00 -2.858610153198242188e+00
4.242000000000000000e+03 4.543219757080078125e+01 -1.991348075866699219e+01 -6.544455885887145996e-01 8.328470230102539062e+00 2.302207231521606445e+00 4.923834502696990967e-01
4.243000000000000000e+03 2.944699478149414062e+01 1.323456478118896484e+01 4.024311900138854980e-02 2.336169958114624023e+00 7.129239439964294434e-01 -8.782724738121032715e-01
4.244000000000000000e+03 7.324279785156250000e+01 2.501862525939941406e+01 -7.837669551372528076e-02 8.365766525268554688e+00 2.486216783523559570e+00 3.723330497741699219e-01
4.245000000000000000e+03 4.516663742065429688e+01 -8.419307708740234375e+00 4.853824615478515625e+00 1.179689311981201172e+01 4.995215415954589844e+00 -1.582906842231750488e+00
4.246000000000000000e+03 7.344825744628906250e+01 2.359246253967285156e+01 -6.988701969385147095e-02 8.321415901184082031e+00 2.475458621978759766e+00 3.871878385543823242e-01
4.247000000000000000e+03 5.762665939331054688e+01 1.361789798736572266e+01 -3.565759658813476562e-01 7.897735595703125000e+00 2.262347936630249023e+00 7.616075277328491211e-01
4.248000000000000000e+03 5.867842864990234375e+01 1.232660293579101562e+01 -2.523290812969207764e-01 7.938620567321777344e+00 2.305887460708618164e+00 8.404626250267028809e-01
4.249000000000000000e+03 4.123763656616210938e+01 -1.129708480834960938e+01 2.425941228866577148e-01 1.060035324096679688e+01 3.252884387969970703e+00 2.958410978317260742e+00
4.250000000000000000e+03 4.096490097045898438e+01 -1.739901065826416016e+00 7.316619753837585449e-01 1.011885833740234375e+01 3.255156040191650391e+00 -3.178939104080200195e+00
4.251000000000000000e+03 4.059501647949218750e+01 -1.459651947021484375e+00 8.177450895309448242e-01 9.188352584838867188e+00 3.001829147338867188e+00 -3.327519178390502930e+00
4.252000000000000000e+03 4.184149551391601562e+01 -1.342270255088806152e+00 3.831953704357147217e-01 1.103759002685546875e+01 3.426235675811767578e+00 -2.201276302337646484e+00
4.253000000000000000e+03 4.156015396118164062e+01 -1.124483704566955566e+00 4.026542603969573975e-01 1.050816631317138672e+01 3.273246288299560547e+00 -2.418654203414916992e+00
4.254000000000000000e+03 4.244658660888671875e+01 -1.144442462921142578e+01 1.120565682649612427e-01 1.191356468200683594e+01 3.607686281204223633e+00 1.513622045516967773e+00
4.255000000000000000e+03 3.982090377807617188e+01 -1.203661918640136719e+01 6.372328400611877441e-01 7.563015937805175781e+00 2.460074663162231445e+00 3.519436359405517578e+00
4.256000000000000000e+03 3.900066757202148438e+01 8.938120305538177490e-02 1.010380864143371582e+00 6.153104782104492188e+00 2.149045705795288086e+00 -3.057922363281250000e+00
4.257000000000000000e+03 4.817921447753906250e+01 -1.971909332275390625e+01 -5.024543404579162598e-01 8.636404037475585938e+00 2.440184831619262695e+00 -1.100662201642990112e-01
4.258000000000000000e+03 4.604650497436523438e+01 -1.863000679016113281e+01 -5.479345321655273438e-01 8.740734100341796875e+00 2.457839727401733398e+00 2.869332730770111084e-01
4.259000000000000000e+03 2.881216621398925781e+01 9.166357994079589844e+00 2.432371228933334351e-01 1.751425266265869141e+00 5.983986854553222656e-01 -7.623860836029052734e-01
4.260000000000000000e+03 4.442030715942382812e+01 -2.064721822738647461e+00 1.410356998443603516e+00 1.208759117126464844e+01 4.049384593963623047e+00 5.746420025825500488e-01
4.261000000000000000e+03 4.475844573974609375e+01 -1.760411381721496582e+00 1.363899230957031250e+00 1.167212581634521484e+01 3.910807609558105469e+00 6.632488965988159180e-01
4.262000000000000000e+03 4.617134857177734375e+01 -6.943432807922363281e+00 5.619025230407714844e+00 1.044175815582275391e+01 4.818234920501708984e+00 -3.898482918739318848e-01
4.263000000000000000e+03 4.616594314575195312e+01 -5.260703563690185547e+00 5.200889110565185547e+00 1.060532379150390625e+01 4.741863727569580078e+00 9.172723889350891113e-01
4.264000000000000000e+03 3.849349212646484375e+01 -1.371048450469970703e+01 6.721107959747314453e-01 5.476043701171875000e+00 1.844446301460266113e+00 2.958426475524902344e+00
4.265000000000000000e+03 4.619080734252929688e+01 -9.281139373779296875e+00 3.552018880844116211e+00 1.096011352539062500e+01 4.353639602661132812e+00 -1.453733444213867188e+00
4.266000000000000000e+03 4.618009567260742188e+01 -9.868454933166503906e+00 2.940565109252929688e+00 1.103340053558349609e+01 4.192189693450927734e+00 -1.444487333297729492e+00
4.267000000000000000e+03 4.597368240356445312e+01 -5.069931030273437500e+00 5.135805130004882812e+00 1.079581546783447266e+01 4.779486179351806641e+00 1.063700318336486816e+00
4.268000000000000000e+03 7.254513549804687500e+01 -2.407883071899414062e+01 -3.133237361907958984e-02 7.519338130950927734e+00 2.246401786804199219e+00 -4.843089878559112549e-01
4.269000000000000000e+03 4.278810501098632812e+01 -1.131203937530517578e+01 2.318509966135025024e-01 1.230311870574951172e+01 3.760491132736206055e+00 1.060386538505554199e+00
4.270000000000000000e+03 2.430676841735839844e+01 -1.531805896759033203e+01 -1.130839958786964417e-01 3.781308531761169434e-01 7.951406389474868774e-02 -2.021382451057434082e-01
4.271000000000000000e+03 3.647992706298828125e+01 -1.389330005645751953e+01 9.267529249191284180e-01 3.464396476745605469e+00 1.317344903945922852e+00 2.435621738433837891e+00
4.272000000000000000e+03 3.122665023803710938e+01 -1.741301536560058594e+01 5.640740394592285156e-01 1.737215995788574219e+00 6.903870105743408203e-01 9.753223061561584473e-01
4.273000000000000000e+03 7.340745544433593750e+01 -2.366417312622070312e+01 -1.662319526076316833e-02 7.472030639648437500e+00 2.236622095108032227e+00 -4.513452947139739990e-01
4.274000000000000000e+03 3.151776123046875000e+01 -1.954263687133789062e+01 5.050572156906127930e-01 2.200576543807983398e+00 8.116900920867919922e-01 1.107028484344482422e+00
4.275000000000000000e+03 3.156722450256347656e+01 -2.095953941345214844e+01 4.263235926628112793e-01 2.454206466674804688e+00 8.641589879989624023e-01 1.093395471572875977e+00
4.276000000000000000e+03 4.616534423828125000e+01 -2.517266750335693359e+00 2.461344957351684570e+00 1.096610927581787109e+01 4.028236389160156250e+00 1.308790087699890137e+00
4.277000000000000000e+03 4.666498947143554688e+01 -2.816271305084228516e+00 2.782146453857421875e+00 1.057676029205322266e+01 4.007672309875488281e+00 1.335005998611450195e+00
4.278000000000000000e+03 4.702600097656250000e+01 -5.216298103332519531e+00 4.695175647735595703e+00 1.000738716125488281e+01 4.410768985748291016e+00 7.659979462623596191e-01
4.279000000000000000e+03 4.750744247436523438e+01 -4.426274776458740234e+00 3.983753681182861328e+00 9.853539466857910156e+00 4.151187896728515625e+00 1.028967499732971191e+00
4.280000000000000000e+03 4.526106262207031250e+01 -1.907296419143676758e+00 1.673090815544128418e+00 1.145709896087646484e+01 3.939056873321533203e+00 9.402720332145690918e-01
4.281000000000000000e+03 4.533659362792968750e+01 -2.616967201232910156e+00 2.357041120529174805e+00 1.161500358581542969e+01 4.191613674163818359e+00 1.216196775436401367e+00
4.282000000000000000e+03 4.689564514160156250e+01 -9.308518409729003906e+00 3.464127540588378906e+00 1.042684364318847656e+01 4.167291164398193359e+00 -1.326299309730529785e+00
4.283000000000000000e+03 4.685262680053710938e+01 -9.979914665222167969e+00 2.839163303375244141e+00 1.055591487884521484e+01 4.018523693084716797e+00 -1.373356342315673828e+00
4.284000000000000000e+03 4.117624664306640625e+01 -1.357982873916625977e+00 5.665792822837829590e-01 1.011390590667724609e+01 3.204145669937133789e+00 -2.846370458602905273e+00
4.285000000000000000e+03 4.347301483154296875e+01 -1.178369998931884766e+01 2.657662332057952881e-01 1.185322284698486328e+01 3.635696887969970703e+00 5.476838350296020508e-01
4.286000000000000000e+03 4.292416763305664062e+01 -1.473854303359985352e+00 5.109828710556030273e-01 1.187551403045654297e+01 3.715949058532714844e+00 -9.948508739471435547e-01
4.287000000000000000e+03 3.052868270874023438e+01 -1.820818138122558594e+01 5.306273698806762695e-01 1.675257563591003418e+00 6.617654561996459961e-01 8.935607075691223145e-01
4.288000000000000000e+03 4.132362747192382812e+01 -6.057134270668029785e-01 3.650864958763122559e-01 9.709808349609375000e+00 3.022468566894531250e+00 -2.496430158615112305e+00
4.289000000000000000e+03 4.663999938964843750e+01 -8.039084434509277344e+00 4.615914344787597656e+00 1.031322193145751953e+01 4.478741168975830078e+00 -1.022528290748596191e+00
4.290000000000000000e+03 5.488579559326171875e+01 -1.470322227478027344e+01 8.749535679817199707e-01 8.345998764038085938e+00 2.766285657882690430e+00 -9.288715124130249023e-01
4.291000000000000000e+03 5.626620483398437500e+01 -1.462156772613525391e+01 8.518136143684387207e-01 8.164278984069824219e+00 2.704827785491943359e+00 -8.759734034538269043e-01
4.292000000000000000e+03 4.118511199951171875e+01 -1.337301731109619141e+01 -6.615685671567916870e-02 8.933538436889648438e+00 2.660214424133300781e+00 2.450274705886840820e+00
4.293000000000000000e+03 4.749645233154296875e+01 -5.066464424133300781e+00 4.326868057250976562e+00 9.747138977050781250e+00 4.222202301025390625e+00 7.798883318901062012e-01
4.294000000000000000e+03 4.364884948730468750e+01 -1.152879714965820312e+01 4.661872386932373047e-01 1.211106872558593750e+01 3.773176670074462891e+00 2.469685673713684082e-01
4.295000000000000000e+03 5.244243621826171875e+01 5.819408893585205078e+00 9.252401441335678101e-02 8.462356567382812500e+00 2.566464185714721680e+00 8.569831848144531250e-01
4.296000000000000000e+03 4.707313537597656250e+01 -5.799762248992919922e+00 4.905019283294677734e+00 9.911896705627441406e+00 4.445074558258056641e+00 4.593908786773681641e-01
4.297000000000000000e+03 6.921719360351562500e+01 8.945631980895996094e+00 4.452760517597198486e-02 7.671907901763916016e+00 2.314930677413940430e+00 7.687443494796752930e-01
4.298000000000000000e+03 4.205342102050781250e+01 -1.307011985778808594e+01 -1.755345314741134644e-01 1.006639766693115234e+01 2.967258930206298828e+00 1.904294490814208984e+00
4.299000000000000000e+03 4.104959869384765625e+01 -8.405103534460067749e-02 3.707596361637115479e-01 8.965874671936035156e+00 2.800990104675292969e+00 -2.572743415832519531e+00
4.300000000000000000e+03 4.132220077514648438e+01 2.037560343742370605e-01 2.360610514879226685e-01 9.170615196228027344e+00 2.822002887725830078e+00 -2.290114879608154297e+00
4.301000000000000000e+03 2.720333862304687500e+01 -1.384553432464599609e+01 -6.451458204537630081e-03 4.390628933906555176e-01 1.297834366559982300e-01 -3.544804826378822327e-02
4.302000000000000000e+03 3.605050277709960938e+01 -1.423327255249023438e+01 8.838494420051574707e-01 3.247412919998168945e+00 1.239378690719604492e+00 2.223350524902343750e+00
4.303000000000000000e+03 3.678178024291992188e+01 -1.419040775299072266e+01 8.557789325714111328e-01 3.795196771621704102e+00 1.395292758941650391e+00 2.526378870010375977e+00
4.304000000000000000e+03 3.655977249145507812e+01 -1.470037078857421875e+01 7.979846596717834473e-01 3.804720163345336914e+00 1.380811452865600586e+00 2.395599126815795898e+00
4.305000000000000000e+03 4.080022430419921875e+01 -1.333690547943115234e+01 4.325471073389053345e-02 8.471239089965820312e+00 2.554347991943359375e+00 2.652165174484252930e+00
4.306000000000000000e+03 4.800775909423828125e+01 -2.936965227127075195e+00 2.902157545089721680e+00 9.789998054504394531e+00 3.807646512985229492e+00 1.238762855529785156e+00
4.307000000000000000e+03 4.708811950683593750e+01 -7.946768283843994141e+00 4.465370655059814453e+00 1.001036834716796875e+01 4.342721462249755859e+00 -8.907437324523925781e-01
4.308000000000000000e+03 3.572959136962890625e+01 1.431620955467224121e+00 1.182657837867736816e+00 3.084486961364746094e+00 1.280143380165100098e+00 -2.019694805145263672e+00
4.309000000000000000e+03 5.165744018554687500e+01 4.089433670043945312e+00 3.466436266899108887e-01 8.654473304748535156e+00 2.700335025787353516e+00 9.182637333869934082e-01
4.310000000000000000e+03 4.108464431762695312e+01 5.872110724449157715e-01 2.322625368833541870e-01 8.733646392822265625e+00 2.689772844314575195e+00 -2.333779811859130859e+00
4.311000000000000000e+03 5.623536300659179688e+01 -1.111342525482177734e+01 1.480609178543090820e+00 7.998453140258789062e+00 2.843718767166137695e+00 -6.454137563705444336e-01
4.312000000000000000e+03 4.940771484375000000e+01 -4.807433128356933594e+00 3.526029586791992188e+00 9.009112358093261719e+00 3.760542392730712891e+00 6.468940377235412598e-01
4.313000000000000000e+03 3.552812957763671875e+01 2.810999393463134766e+00 9.351025223731994629e-01 3.383918285369873047e+00 1.295706272125244141e+00 -1.901077270507812500e+00
4.314000000000000000e+03 6.846572113037109375e+01 4.280900001525878906e+00 2.372782379388809204e-01 7.512503623962402344e+00 2.324934720993041992e+00 7.115891575813293457e-01
4.315000000000000000e+03 4.826042175292968750e+01 -1.827175378799438477e+00 2.182751417160034180e+00 9.729087829589843750e+00 3.573551654815673828e+00 1.225468277931213379e+00
4.316000000000000000e+03 4.760669708251953125e+01 -1.456943154335021973e+00 1.904173135757446289e+00 1.004189491271972656e+01 3.583820343017578125e+00 1.200217604637145996e+00
4.317000000000000000e+03 6.179006195068359375e+01 -1.153373432159423828e+01 9.241958260536193848e-01 7.619665622711181641e+00 2.563158273696899414e+00 -4.768395721912384033e-01
4.318000000000000000e+03 6.264945220947265625e+01 -1.098984909057617188e+01 8.752752542495727539e-01 7.562763690948486328e+00 2.531411647796630859e+00 -4.075989425182342529e-01
4.319000000000000000e+03 5.038208389282226562e+01 -1.049155235290527344e+01 2.344934701919555664e+00 8.976986885070800781e+00 3.396576404571533203e+00 -9.995358586311340332e-01
4.320000000000000000e+03 4.853747558593750000e+01 -6.795711040496826172e+00 4.124819278717041016e+00 9.216177940368652344e+00 4.002299308776855469e+00 -1.522446721792221069e-01
4.321000000000000000e+03 5.671117401123046875e+01 1.236530900001525879e+00 9.826875329017639160e-01 8.065878868103027344e+00 2.714569807052612305e+00 9.800797700881958008e-01
4.322000000000000000e+03 3.560198211669921875e+01 6.431868553161621094e+00 3.780701458454132080e-01 3.944906234741210938e+00 1.296892881393432617e+00 -1.629023790359497070e+00
4.323000000000000000e+03 3.350676345825195312e+01 8.018076896667480469e+00 3.355971574783325195e-01 3.164981365203857422e+00 1.050173640251159668e+00 -1.326448678970336914e+00
4.324000000000000000e+03 4.656961441040039062e+01 -2.157508134841918945e-01 1.024165391921997070e+00 1.031378746032714844e+01 3.401385784149169922e+00 8.284469246864318848e-01
4.325000000000000000e+03 4.823804092407226562e+01 -2.397891521453857422e+00 2.517530441284179688e+00 9.721927642822265625e+00 3.671837568283081055e+00 1.244871020317077637e+00
4.326000000000000000e+03 6.855381011962890625e+01 -6.664373278617858887e-01 4.097099602222442627e-01 7.332486152648925781e+00 2.322658777236938477e+00 4.669559597969055176e-01
4.327000000000000000e+03 5.002289581298828125e+01 -9.866453170776367188e+00 2.625751256942749023e+00 9.023587226867675781e+00 3.494801759719848633e+00 -9.643767476081848145e-01
4.328000000000000000e+03 4.865425109863281250e+01 -8.216719627380371094e+00 3.712488174438476562e+00 9.305829048156738281e+00 3.905495405197143555e+00 -7.374244928359985352e-01
4.329000000000000000e+03 6.795073699951171875e+01 1.821676254272460938e+00 3.550361990928649902e-01 7.440762519836425781e+00 2.338739633560180664e+00 6.249275803565979004e-01
4.330000000000000000e+03 6.677342224121093750e+01 2.146650552749633789e+00 3.985544145107269287e-01 7.501281738281250000e+00 2.369951009750366211e+00 6.786516308784484863e-01
4.331000000000000000e+03 6.210853195190429688e+01 -9.845143318176269531e+00 9.911888241767883301e-01 7.559247493743896484e+00 2.565130949020385742e+00 -3.098454475402832031e-01
4.332000000000000000e+03 6.806714630126953125e+01 -3.325387716293334961e+00 5.093180537223815918e-01 7.298141002655029297e+00 2.342237710952758789e+00 3.055326044559478760e-01
4.333000000000000000e+03 6.735894012451171875e+01 -7.830350399017333984e+00 5.991467833518981934e-01 7.299168109893798828e+00 2.369494438171386719e+00 -6.180160492658615112e-02
4.334000000000000000e+03 6.803407287597656250e+01 7.026283740997314453e+00 1.329880952835083008e-01 7.628117084503173828e+00 2.328331470489501953e+00 7.895104289054870605e-01
4.335000000000000000e+03 7.035807037353515625e+01 -1.171418571472167969e+01 3.033722937107086182e-01 7.189948081970214844e+00 2.247996091842651367e+00 -2.809714972972869873e-01
4.336000000000000000e+03 4.026364898681640625e+01 5.229433059692382812e+00 -1.036230623722076416e-01 6.646605968475341797e+00 1.962894916534423828e+00 -1.724025249481201172e+00
4.337000000000000000e+03 3.609027481079101562e+01 4.165572643280029297e+00 6.623076796531677246e-01 3.997063636779785156e+00 1.397811412811279297e+00 -1.891517996788024902e+00
4.338000000000000000e+03 3.703034210205078125e+01 4.519145488739013672e+00 4.920339286327362061e-01 4.662960529327392578e+00 1.546498298645019531e+00 -1.950955033302307129e+00
4.339000000000000000e+03 5.622126388549804688e+01 -5.631925106048583984e+00 1.973150134086608887e+00 7.856368064880371094e+00 2.948855400085449219e+00 1.937566399574279785e-01
4.340000000000000000e+03 4.970870590209960938e+01 -8.908472061157226562e+00 3.113019704818725586e+00 9.020030021667480469e+00 3.639914989471435547e+00 -8.083317875862121582e-01
4.341000000000000000e+03 4.997246551513671875e+01 -7.910844326019287109e+00 3.355748653411865234e+00 8.822526931762695312e+00 3.653482675552368164e+00 -4.845339059829711914e-01
4.342000000000000000e+03 4.693801879882812500e+01 2.897778987884521484e+00 8.016394078731536865e-02 9.396817207336425781e+00 2.843094348907470703e+00 3.423441648483276367e-01
4.343000000000000000e+03 5.187472534179687500e+01 -1.458416700363159180e+00 1.911602377891540527e+00 8.657719612121582031e+00 3.170796632766723633e+00 1.053355216979980469e+00
4.344000000000000000e+03 5.628121948242187500e+01 -6.607785224914550781e+00 1.949427962303161621e+00 7.852458477020263672e+00 2.940566062927246094e+00 1.725509203970432281e-02
4.345000000000000000e+03 5.467682266235351562e+01 -6.769369602203369141e+00 2.262269973754882812e+00 8.005393028259277344e+00 3.080298900604248047e+00 -1.900396682322025299e-02
4.346000000000000000e+03 4.931135177612304688e+01 3.220340311527252197e-01 1.227765679359436035e+00 9.347743988037109375e+00 3.172652721405029297e+00 1.089750409126281738e+00
4.347000000000000000e+03 5.009696197509765625e+01 4.081888496875762939e-01 1.246031761169433594e+00 9.121124267578125000e+00 3.110146760940551758e+00 1.106454253196716309e+00
4.348000000000000000e+03 5.050065612792968750e+01 -7.933099269866943359e+00 3.229897975921630859e+00 8.707696914672851562e+00 3.581278562545776367e+00 -4.627577364444732666e-01
4.349000000000000000e+03 4.994100952148437500e+01 -8.408761024475097656e+00 3.229652166366577148e+00 8.898478507995605469e+00 3.638439178466796875e+00 -6.780518889427185059e-01
4.350000000000000000e+03 4.647035598754882812e+01 2.361443281173706055e+00 1.509705036878585815e-01 9.612874984741210938e+00 2.929153680801391602e+00 2.871153652667999268e-01
4.351000000000000000e+03 5.444182968139648438e+01 -5.850504398345947266e+00 2.284895896911621094e+00 8.022977828979492188e+00 3.092361927032470703e+00 1.653010994195938110e-01
4.352000000000000000e+03 5.054897308349609375e+01 -7.363312244415283203e+00 3.256422758102416992e+00 8.661083221435546875e+00 3.575251579284667969e+00 -2.457118779420852661e-01
4.353000000000000000e+03 1.488040065765380859e+01 1.046121835708618164e+00 -9.424259769730269909e-05 1.381221954943612218e-04 1.316388079430907965e-05 4.817156877834349871e-05
4.354000000000000000e+03 1.433596038818359375e+01 8.109902739524841309e-01 -3.520296377246268094e-05 8.967217581812292337e-06 -7.870724402891937643e-06 1.419820036971941590e-04
4.355000000000000000e+03 1.339948463439941406e+01 9.943951964378356934e-01 1.993497862713411450e-04 1.036002595355967060e-05 6.291294266702607274e-05 -6.512182721962744836e-07
4.356000000000000000e+03 1.399857616424560547e+01 1.078236818313598633e+00 -2.601178130134940147e-04 -7.709583587711676955e-05 -1.011640924843959510e-04 -2.817911990860011429e-05
4.357000000000000000e+03 1.342517852783203125e+01 2.516243755817413330e-01 -5.488039823831059039e-05 1.058860289049334824e-05 -1.328753842244623229e-05 7.187145001807948574e-06
4.358000000000000000e+03 1.503903388977050781e+01 3.840551078319549561e-01 -3.192058284184895456e-05 -4.063977394253015518e-05 -2.176810630771797150e-05 -2.750244129856582731e-05
4.359000000000000000e+03 1.424006271362304688e+01 2.423980534076690674e-01 2.596517151687294245e-05 2.982096884807106107e-05 1.673584301897790283e-05 -8.717275704839266837e-06
4.360000000000000000e+03 1.447602939605712891e+01 1.142013788223266602e+00 2.188273792853578925e-04 1.429864732926944271e-05 6.993780698394402862e-05 3.636797555373050272e-05
4.361000000000000000e+03 1.113503360748291016e+01 3.384475409984588623e-01 6.770982054149499163e-06 -1.181979860120918602e-05 -1.514644850431068335e-06 2.377616510784719139e-05
4.362000000000000000e+03 1.115649890899658203e+01 1.078244447708129883e+00 -2.067913010250777006e-04 -5.297892494127154350e-05 -7.793107215547934175e-05 -1.150237876572646201e-04
4.363000000000000000e+03 1.038435840606689453e+01 3.729175329208374023e-01 -1.144140187534503639e-04 -3.377687971806153655e-05 -4.445726881385780871e-05 -5.065770528744906187e-05
4.364000000000000000e+03 1.188578510284423828e+01 3.038018345832824707e-01 -7.481809007003903389e-05 3.874108369927853346e-05 -1.082310063793556765e-05 -2.807526107062585652e-05
4.365000000000000000e+03 1.263660717010498047e+01 2.689834535121917725e-01 4.317913771956227720e-05 -4.273352897143922746e-05 1.336820076858202810e-07 5.543287784348649438e-07
4.366000000000000000e+03 1.266393947601318359e+01 1.008509635925292969e+00 -1.598926901351660490e-04 -5.038026938564144075e-05 -6.308189040282741189e-05 -5.917922317166812718e-05
4.367000000000000000e+03 1.040289020538330078e+01 1.112849831581115723e+00 1.406282535754144192e-04 1.193345306091941893e-04 7.798883598297834396e-05 1.325652119703590870e-04
4.368000000000000000e+03 1.191018390655517578e+01 1.043463349342346191e+00 1.352431572740897536e-04 4.842130874749273062e-05 5.509933907887898386e-05 3.051190833502914757e-05
4.369000000000000000e+03 9.630480766296386719e+00 3.871794641017913818e-01 -1.307574075326556340e-05 1.202087660203687847e-04 3.213990567019209266e-05 6.747088627889752388e-05
4.370000000000000000e+03 8.873666763305664062e+00 3.829238712787628174e-01 -1.180168183054775000e-04 -2.153440000256523490e-04 -1.000082411337643862e-04 -7.835734868422150612e-05
4.371000000000000000e+03 9.660673141479492188e+00 1.127179503440856934e+00 -1.809697860153391957e-04 -1.789241214282810688e-04 -1.079681751434691250e-04 -1.750708324834704399e-04
4.372000000000000000e+03 8.116720199584960938e+00 3.805542886257171631e-01 -9.208823939843568951e-06 3.012766537722200155e-04 8.762034849496558309e-05 8.684250497026368976e-05
4.373000000000000000e+03 7.360193252563476562e+00 3.795430362224578857e-01 -1.179467071779072285e-04 -3.636111796367913485e-04 -1.444673689547926188e-04 -8.916424849303439260e-05
4.374000000000000000e+03 5.847065925598144531e+00 3.768712580204010010e-01 -1.124030532082542777e-04 -3.847371845040470362e-04 -1.491420698584988713e-04 -8.045982394833117723e-05
4.375000000000000000e+03 5.091114044189453125e+00 3.758820295333862305e-01 -7.691465725656598806e-06 3.423746675252914429e-04 1.004049627226777375e-04 6.744655547663569450e-05
4.376000000000000000e+03 3.579006433486938477e+00 3.681437373161315918e-01 5.644035809382330626e-06 1.989800221053883433e-04 6.138721801107749343e-05 4.095820258953608572e-05
4.377000000000000000e+03 2.823871612548828125e+00 3.614119887351989746e-01 -1.005852464004419744e-04 -1.377492153551429510e-04 -7.150033343350514770e-05 -3.197650949005037546e-05
4.378000000000000000e+03 2.070111274719238281e+00 3.578882515430450439e-01 3.195874523953534663e-05 9.772116754902526736e-05 3.890397420036606491e-05 3.946455035475082695e-05
4.379000000000000000e+03 2.362852334976196289e+00 1.097888231277465820e+00 -1.439354527974501252e-04 -1.114552433136850595e-04 -7.661720883334055543e-05 -1.174873523268615827e-05
4.380000000000000000e+03 1.328713655471801758e+00 3.659794926643371582e-01 -3.853384623653255403e-05 -5.443156987894326448e-05 -2.788962592603638768e-05 -7.546399842794926371e-07
4.381000000000000000e+03 1.647709608078002930e+00 1.105979442596435547e+00 7.833433483028784394e-05 1.167701120721176267e-04 5.853133188793435693e-05 4.056259058415889740e-05
4.382000000000000000e+03 6.516475677490234375e-01 3.939257264137268066e-01 -5.546411921386606991e-05 -3.357460809638723731e-05 -2.671161928446963429e-05 -6.675180338788777590e-05
4.383000000000000000e+03 3.489431142807006836e-01 9.570703506469726562e-01 1.304847828578203917e-04 7.698888657614588737e-05 6.224209937499836087e-05 1.997716753976419568e-05
4.384000000000000000e+03 3.090358018875122070e+00 1.101411938667297363e+00 1.204458603751845658e-04 1.572971668792888522e-04 8.332290599355474114e-05 1.738085120450705290e-05
4.385000000000000000e+03 3.819237709045410156e+00 1.108143687248229980e+00 -1.294924295507371426e-04 -2.112344227498397231e-04 -1.022180513245984912e-04 1.175032139144605026e-05
4.386000000000000000e+03 4.335169315338134766e+00 3.733847737312316895e-01 -1.021225762087851763e-04 -2.725659578572958708e-04 -1.124065602198243141e-04 -4.743466342915780842e-05
4.387000000000000000e+03 6.008533000946044922e+00 1.116871237754821777e+00 8.629430521978065372e-05 3.221892111469060183e-04 1.225450541824102402e-04 7.310950604733079672e-05
4.388000000000000000e+03 6.603851795196533203e+00 3.786112964153289795e-01 -5.049280844104941934e-06 3.922096220776438713e-04 1.161481050075963140e-04 8.968087786342948675e-05
4.389000000000000000e+03 8.930113792419433594e+00 1.122923851013183594e+00 1.150773678091354668e-04 2.373530733166262507e-04 1.057291301549412310e-04 1.775418786564841866e-04
4.390000000000000000e+03 8.199422836303710938e+00 1.120554327964782715e+00 -1.639128749957308173e-04 -2.791183651424944401e-04 -1.329093793174251914e-04 -1.609883329365402460e-04
4.391000000000000000e+03 7.469150543212890625e+00 1.119543075561523438e+00 1.047401747200638056e-04 3.117932938039302826e-04 1.249600318260490894e-04 1.439621119061484933e-04
4.392000000000000000e+03 6.739063739776611328e+00 1.118611335754394531e+00 -1.368692901451140642e-04 -3.267934662289917469e-04 -1.390988327329978347e-04 -1.042337680701166391e-04
4.393000000000000000e+03 5.278835773468017578e+00 1.115882039070129395e+00 -1.127426439779810607e-04 -3.038874128833413124e-04 -1.249890192411839962e-04 -3.466712951194494963e-05
4.394000000000000000e+03 4.549146175384521484e+00 1.113384723663330078e+00 7.449742406606674194e-05 2.712951973080635071e-04 1.037377878674305975e-04 1.188600163004593924e-05
4.395000000000000000e+03 9.968983530998229980e-01 1.133925795555114746e+00 -1.904927739815320820e-05 -1.773637923179194331e-04 -5.892392073292285204e-05 4.470296335057355464e-05
4.396000000000000000e+03 7.947246074676513672e+00 -3.790149092674255371e-01 -1.439784973626956344e-04 7.106494740583002567e-05 -2.187406607845332474e-05 8.333862206200137734e-05
4.397000000000000000e+03 8.798082351684570312e+00 -1.121163964271545410e+00 -8.584087481722235680e-05 6.200650386745110154e-05 -7.150312740122899413e-06 2.344724634895101190e-04
4.398000000000000000e+03 9.582462310791015625e+00 -3.862577378749847412e-01 -8.598853310104459524e-05 1.660765119595453143e-04 2.402639256615657359e-05 7.747940981062129140e-05
4.399000000000000000e+03 7.128131389617919922e+00 -3.778152763843536377e-01 -1.519203506177291274e-04 -1.202738076244713739e-05 -4.918432023259811103e-05 -7.059164636302739382e-05
4.400000000000000000e+03 6.302709579467773438e+00 -3.771458566188812256e-01 -1.773743133526295424e-04 -3.508275767671875656e-05 -6.373712676577270031e-05 8.353234443347901106e-05
4.401000000000000000e+03 5.439445972442626953e+00 -3.834656774997711182e-01 -1.556916249683126807e-04 8.351937867701053619e-05 -2.165167279599700123e-05 -9.264844265999272466e-05
4.402000000000000000e+03 4.549984931945800781e+00 -3.402172923088073730e-01 -6.975667201913893223e-05 -1.164777204394340515e-04 -5.587031773757189512e-05 3.399164415895938873e-05
4.403000000000000000e+03 4.365737915039062500e+00 -8.721476197242736816e-01 -4.196496738586574793e-04 6.647997361142188311e-05 -1.059509086189791560e-04 -1.728069037199020386e-04
4.404000000000000000e+03 2.784216165542602539e+00 -7.810403704643249512e-01 -1.113348844228312373e-04 1.083408060367219150e-04 -8.982233907772751991e-07 -2.423470577923581004e-04
4.405000000000000000e+03 1.180924773216247559e+00 -3.613742887973785400e-01 6.186245445860549808e-05 -6.727158324792981148e-05 -1.622738295736780856e-06 3.657398701761849225e-05
4.406000000000000000e+03 4.100910127162933350e-01 -5.529776215553283691e-01 -1.016575333778746426e-05 7.850538167986087501e-06 -6.945643349354213569e-07 -1.032867385220015422e-05
4.407000000000000000e+03 7.475960254669189453e-01 -1.101374268531799316e+00 -2.911248011514544487e-04 6.437604315578937531e-05 -6.802463030908256769e-05 -7.770920637995004654e-05
4.408000000000000000e+03 9.582078933715820312e+00 -1.126257777214050293e+00 -4.857378007727675140e-05 -8.954314398579299450e-05 -4.143507612752728164e-05 -1.524494582554325461e-04
4.409000000000000000e+03 8.013586997985839844e+00 -1.119014978408813477e+00 -8.380498184124007821e-05 -2.573149140516761690e-05 -3.286094215582124889e-05 -1.763906329870223999e-04
4.410000000000000000e+03 7.227835178375244141e+00 -1.117815256118774414e+00 -1.376399741275236011e-04 7.391633971565170214e-06 -3.907450445694848895e-05 2.322785294381901622e-04
4.411000000000000000e+03 6.435775756835937500e+00 -1.117145895957946777e+00 -6.475749250967055559e-05 6.543967174366116524e-05 2.046541283107217168e-07 -2.255287108710035682e-04
4.412000000000000000e+03 5.605874538421630859e+00 -1.123465657234191895e+00 -2.483031130395829678e-04 -8.716580487089231610e-05 -1.006406819215044379e-04 2.489009639248251915e-04
4.413000000000000000e+03 4.870606899261474609e+00 -1.221678614616394043e+00 1.903132797451689839e-04 1.759629958542063832e-04 1.098828797694295645e-04 -2.889788884203881025e-04
4.414000000000000000e+03 4.215381145477294922e+00 -1.291930317878723145e+00 1.102692203858168796e-05 -2.103894366882741451e-04 -5.980875357636250556e-05 2.943132712971419096e-04
4.415000000000000000e+03 3.483533143997192383e+00 -1.264367222785949707e+00 -2.274993603350594640e-04 1.469681446906179190e-04 -2.415936251054517925e-05 -4.115274641662836075e-04
4.416000000000000000e+03 2.720056772232055664e+00 -1.259521603584289551e+00 6.501250027213245630e-05 -4.778820584760978818e-05 5.167287326912628487e-06 2.851361641660332680e-04
4.417000000000000000e+03 1.356012225151062012e+00 -1.203287243843078613e+00 4.164220299571752548e-04 -5.107783363200724125e-05 1.096032647183164954e-04 6.132334237918257713e-05
4.418000000000000000e+03 1.973117947578430176e+00 -8.476541042327880859e-01 -1.803878403734415770e-04 -7.544307300122454762e-05 -7.674927473999559879e-05 1.858466275734826922e-04
4.419000000000000000e+03 8.765102386474609375e+00 -3.811639845371246338e-01 -1.120330780395306647e-04 -1.231727801496163011e-04 -7.056175672914832830e-05 -5.730926568503491580e-05
4.420000000000000000e+03 3.694828748703002930e+00 -2.827752828598022461e-01 -1.190378898172639310e-04 9.249851427739486098e-05 -7.961812116263899952e-06 -3.120155815850012004e-05
4.421000000000000000e+03 2.863922595977783203e+00 -2.815187871456146240e-01 -5.884287747903726995e-05 -5.071539999335072935e-05 -3.286748324171639979e-05 2.232309088867623359e-05
4.422000000000000000e+03 1.994147539138793945e+00 -3.323310017585754395e-01 -3.968589953728951514e-05 2.211746505054179579e-05 -5.270529527479084209e-06 -7.125516276573762298e-05
4.423000000000000000e+03 1.978801369667053223e+00 -1.275323033332824707e+00 -1.951423328137025237e-04 -6.235023465706035495e-05 -7.724776514805853367e-05 -3.003632882609963417e-04
4.424000000000000000e+03 3.578665971755981445e+00 -7.871425151824951172e-01 -1.381525817123474553e-05 -5.426528878160752356e-05 -2.042416417680215091e-05 1.721108274068683386e-04
4.425000000000000000e+03 1.511178874969482422e+01 -1.151870131492614746e+00 -3.192773147020488977e-05 -5.073561624158173800e-05 -2.479900467733386904e-05 -4.597887891577556729e-05
4.426000000000000000e+03 1.328532791137695312e+01 -1.267471551895141602e+00 3.339077738928608596e-05 4.403854472911916673e-05 2.322879663552157581e-05 8.234092092607170343e-05
4.427000000000000000e+03 1.480503654479980469e+01 -5.744030475616455078e-01 5.995247192913666368e-05 -2.257427468066453002e-06 1.730851363390684128e-05 1.290021009481279179e-05
4.428000000000000000e+03 1.453040313720703125e+01 -1.313965797424316406e+00 -9.858483099378645420e-05 6.538735760841518641e-05 -9.959241651813499629e-06 8.295204315800219774e-05
4.429000000000000000e+03 1.393833351135253906e+01 -1.278923630714416504e+00 2.317650796612724662e-06 -1.807077751436736435e-05 -4.725938197225332260e-06 -9.181853238260373473e-05
4.430000000000000000e+03 1.336329460144042969e+01 -5.279909372329711914e-01 -6.263815521379001439e-06 -1.119276421377435327e-04 -3.545743675203993917e-05 -4.301473745726980269e-05
4.431000000000000000e+03 1.411463356018066406e+01 -5.394020080566406250e-01 8.933843673730734736e-06 7.858507160563021898e-05 2.625567503855563700e-05 4.112248279852792621e-05
4.432000000000000000e+03 1.111242771148681641e+01 -4.403275847434997559e-01 -3.578276664484292269e-05 2.021568507188931108e-04 4.991222522221505642e-05 5.558333577937446535e-05
4.433000000000000000e+03 1.260764503479003906e+01 -5.095726251602172852e-01 1.030425664794165641e-05 1.362379989586770535e-04 4.396267831907607615e-05 3.481586463749408722e-05
4.434000000000000000e+03 1.185993289947509766e+01 -4.741277396678924561e-01 -7.807801921444479376e-06 -1.800203172024339437e-04 -5.634843910229392350e-05 -2.124700768035836518e-05
4.435000000000000000e+03 1.109096240997314453e+01 -1.180124521255493164e+00 9.917530405800789595e-06 -1.631035120226442814e-04 -4.595579594024457037e-05 -9.444823808735236526e-05
4.436000000000000000e+03 1.036482620239257812e+01 -4.067706167697906494e-01 -5.093749496154487133e-05 -2.051188494078814983e-04 -7.681690476601943374e-05 -4.244091906002722681e-05
4.437000000000000000e+03 1.034629440307617188e+01 -1.146702885627746582e+00 -6.604295776924118400e-05 1.262504520127549767e-04 1.806224827305413783e-05 2.081514830933883786e-04
4.438000000000000000e+03 1.258031177520751953e+01 -1.249099493026733398e+00 -1.711290678940713406e-05 -1.176088990177959204e-04 -4.041654392494820058e-05 -5.474586578202433884e-05
4.439000000000000000e+03 1.183553314208984375e+01 -1.213789224624633789e+00 -2.905051223933696747e-05 1.384574861731380224e-04 3.282209581811912358e-05 1.080958463717252016e-04
4.440000000000000000e+03 4.101736450195312500e+01 -6.556477546691894531e+00 3.397297286987304688e+01 7.002166271209716797e+00 1.229254150390625000e+01 1.296909999847412109e+01
4.441000000000000000e+03 4.102177810668945312e+01 -6.575439453125000000e+00 3.058423042297363281e+01 1.983242034912109375e+01 1.512499523162841797e+01 2.371653175354003906e+01
4.442000000000000000e+03 4.102979660034179688e+01 -6.593178749084472656e+00 2.791791725158691406e+01 3.198838806152343750e+01 1.797189140319824219e+01 2.723240470886230469e+01
4.443000000000000000e+03 4.104111480712890625e+01 -6.609017372131347656e+00 2.393807983398437500e+01 4.438491439819335938e+01 2.049689865112304688e+01 2.790603446960449219e+01
4.444000000000000000e+03 4.105530166625976562e+01 -6.622349739074707031e+00 2.057372856140136719e+01 5.554977798461914062e+01 2.283705139160156250e+01 2.561700439453125000e+01
4.445000000000000000e+03 4.107181549072265625e+01 -6.632664680480957031e+00 1.752035903930664062e+01 6.493408966064453125e+01 2.473633384704589844e+01 2.090087509155273438e+01
4.446000000000000000e+03 4.109001922607421875e+01 -6.639567852020263672e+00 1.619761657714843750e+01 7.156886291503906250e+01 2.632994270324707031e+01 1.450806236267089844e+01
4.447000000000000000e+03 4.110921859741210938e+01 -6.642795085906982422e+00 1.657519149780273438e+01 7.505977630615234375e+01 2.749048995971679688e+01 7.152593612670898438e+00
4.448000000000000000e+03 4.112867736816406250e+01 -6.642223358154296875e+00 1.906533432006835938e+01 7.536792755126953125e+01 2.832997894287109375e+01 1.198177263140678406e-01
4.449000000000000000e+03 4.114765167236328125e+01 -6.637873649597167969e+00 2.324745559692382812e+01 7.284032440185546875e+01 2.882633399963378906e+01 -5.867991924285888672e+00
4.450000000000000000e+03 4.116541671752929688e+01 -6.629912853240966797e+00 2.851744270324707031e+01 6.839378356933593750e+01 2.907336807250976562e+01 -9.913416862487792969e+00
4.451000000000000000e+03 4.118129348754882812e+01 -6.618646144866943359e+00 3.414645004272460938e+01 6.287533187866210938e+01 2.910653495788574219e+01 -1.180956745147705078e+01
4.452000000000000000e+03 4.119467544555664062e+01 -6.604503631591796875e+00 3.944427490234375000e+01 5.745740890502929688e+01 2.907050514221191406e+01 -1.152318286895751953e+01
4.453000000000000000e+03 4.120504379272460938e+01 -6.588027000427246094e+00 4.370589447021484375e+01 5.267473983764648438e+01 2.891419029235839844e+01 -9.464169502258300781e+00
4.454000000000000000e+03 4.121200942993164062e+01 -6.569847106933593750e+00 4.661143875122070312e+01 4.938991165161132812e+01 2.880040550231933594e+01 -6.129614353179931641e+00
4.455000000000000000e+03 4.121529769897460938e+01 -6.550659179687500000e+00 4.802301788330078125e+01 4.782232284545898438e+01 2.875360107421875000e+01 -2.011916875839233398e+00
4.456000000000000000e+03 4.121479034423828125e+01 -6.531197547912597656e+00 4.777570724487304688e+01 4.798552322387695312e+01 2.872836875915527344e+01 2.270013809204101562e+00
4.457000000000000000e+03 4.121050643920898438e+01 -6.512207031250000000e+00 4.598651504516601562e+01 5.003009414672851562e+01 2.880498313903808594e+01 6.184864044189453125e+00
4.458000000000000000e+03 4.120260620117187500e+01 -6.494414329528808594e+00 4.273318099975585938e+01 5.367865371704101562e+01 2.892354965209960938e+01 9.202033996582031250e+00
4.459000000000000000e+03 4.119139099121093750e+01 -6.478500366210937500e+00 3.822434234619140625e+01 5.860087966918945312e+01 2.904756736755371094e+01 1.080702304840087891e+01
4.460000000000000000e+03 4.117729187011718750e+01 -6.465074539184570312e+00 3.294518661499023438e+01 6.403863525390625000e+01 2.909514617919921875e+01 1.053054618835449219e+01
4.461000000000000000e+03 4.116085052490234375e+01 -6.454649448394775391e+00 2.749432945251464844e+01 6.934191894531250000e+01 2.905087471008300781e+01 8.063509941101074219e+00
4.462000000000000000e+03 4.114269256591796875e+01 -6.447625160217285156e+00 2.260505104064941406e+01 7.333214569091796875e+01 2.878116035461425781e+01 3.533203601837158203e+00
4.463000000000000000e+03 4.112351608276367188e+01 -6.444269657135009766e+00 1.901944351196289062e+01 7.520473480224609375e+01 2.826725387573242188e+01 -2.763044595718383789e+00
4.464000000000000000e+03 4.110405349731445312e+01 -6.444712162017822266e+00 1.721201705932617188e+01 7.414340209960937500e+01 2.740662574768066406e+01 -9.885217666625976562e+00
4.465000000000000000e+03 4.108504867553710938e+01 -6.448935031890869141e+00 1.752560424804687500e+01 6.988243865966796875e+01 2.622241210937500000e+01 -1.703384208679199219e+01
4.466000000000000000e+03 4.106723022460937500e+01 -6.456777095794677734e+00 1.940972709655761719e+01 6.257300186157226562e+01 2.459481811523437500e+01 -2.299374771118164062e+01
4.467000000000000000e+03 4.105128097534179688e+01 -6.467937946319580078e+00 2.281627464294433594e+01 5.274357223510742188e+01 2.266795349121093750e+01 -2.704081344604492188e+01
4.468000000000000000e+03 4.103780746459960938e+01 -6.481990814208984375e+00 2.630006599426269531e+01 4.138938140869140625e+01 2.030683517456054688e+01 -2.858176803588867188e+01
4.469000000000000000e+03 4.102732467651367188e+01 -6.498397827148437500e+00 3.008544540405273438e+01 2.912643623352050781e+01 1.776356506347656250e+01 -2.710000419616699219e+01
4.470000000000000000e+03 4.102024078369140625e+01 -6.516530990600585938e+00 3.227371978759765625e+01 1.737329673767089844e+01 1.489410400390625000e+01 -2.289506340026855469e+01
4.471000000000000000e+03 4.101682281494140625e+01 -6.535696506500244141e+00 3.445871734619140625e+01 5.713156700134277344e+00 1.205156135559082031e+01 -1.145879554748535156e+01
