# el_label, x, y, sXX, sYY, sZZ, sXY
1.000000000000000000e+00 2.283192253112792969e+01 -6.478185176849365234e+00 -7.751060485839843750e+00 -1.544207572937011719e+00 -2.788580417633056641e+00 -1.875604987144470215e+00
2.000000000000000000e+00 2.263323402404785156e+01 -6.466360092163085938e+00 -1.852230906486511230e+00 6.157644987106323242e-01 -3.709399104118347168e-01 8.863954544067382812e-01
3.000000000000000000e+00 2.243454551696777344e+01 -6.454535007476806641e+00 -2.597404718399047852e+00 -3.700169324874877930e-01 -8.902265429496765137e-01 1.776812821626663208e-01
4.000000000000000000e+00 2.223585510253906250e+01 -6.442709922790527344e+00 -2.382674694061279297e+00 1.433511227369308472e-01 -6.717970371246337891e-01 3.829106986522674561e-01
5.000000000000000000e+00 2.283417320251464844e+01 -6.536546707153320312e+00 6.983404159545898438e+00 -2.318326473236083984e+00 1.399523258209228516e+00 -5.409529805183410645e-01
6.000000000000000000e+00 2.263698387145996094e+01 -6.563629150390625000e+00 1.752479553222656250e+00 -8.820314705371856689e-02 4.992828965187072754e-01 3.455910980701446533e-01
7.000000000000000000e+00 2.243979263305664062e+01 -6.590711593627929688e+00 2.383250713348388672e+00 2.433326840400695801e-01 7.879750132560729980e-01 1.144332885742187500e+00
8.000000000000000000e+00 2.224260330200195312e+01 -6.617794036865234375e+00 1.390595078468322754e+00 -5.243350192904472351e-02 4.014484584331512451e-01 5.453208684921264648e-01
9.000000000000000000e+00 2.284774017333984375e+01 -6.593353748321533203e+00 1.374883747100830078e+01 -9.834932535886764526e-02 4.095146179199218750e+00 4.907891273498535156e+00
1.000000000000000000e+01 2.265959548950195312e+01 -6.658307075500488281e+00 8.108225822448730469e+00 3.015205822885036469e-02 2.441513299942016602e+00 2.744410514831542969e+00
1.100000000000000000e+01 2.247145080566406250e+01 -6.723260879516601562e+00 5.504247188568115234e+00 6.501631736755371094e-01 1.846323013305664062e+00 2.285339832305908203e+00
1.200000000000000000e+01 2.228330612182617188e+01 -6.788214683532714844e+00 5.073868274688720703e+00 7.417412996292114258e-01 1.744682908058166504e+00 2.299323558807373047e+00
1.300000000000000000e+01 2.287210845947265625e+01 -6.646431922912597656e+00 1.711500930786132812e+01 4.424603939056396484e+00 6.461884021759033203e+00 1.002347278594970703e+01
1.400000000000000000e+01 2.270020866394042969e+01 -6.746771335601806641e+00 1.096642208099365234e+01 2.367377042770385742e+00 4.000139713287353516e+00 6.325123310089111328e+00
1.500000000000000000e+01 2.252830886840820312e+01 -6.847110748291015625e+00 8.733628273010253906e+00 2.232348918914794922e+00 3.289793014526367188e+00 4.975947856903076172e+00
1.600000000000000000e+01 2.235641098022460938e+01 -6.947450160980224609e+00 6.957694530487060547e+00 2.001927137374877930e+00 2.687886476516723633e+00 4.086836338043212891e+00
1.700000000000000000e+01 2.290634346008300781e+01 -6.693750858306884766e+00 1.696290016174316406e+01 1.040352630615234375e+01 8.209927558898925781e+00 1.417633914947509766e+01
1.800000000000000000e+01 2.275726699829101562e+01 -6.825635910034179688e+00 1.213766098022460938e+01 6.817124843597412109e+00 5.686435699462890625e+00 9.623813629150390625e+00
1.900000000000000000e+01 2.260819053649902344e+01 -6.957521438598632812e+00 9.567936897277832031e+00 5.019820213317871094e+00 4.376327514648437500e+00 7.490836620330810547e+00
2.000000000000000000e+01 2.245911598205566406e+01 -7.089406490325927734e+00 8.203227043151855469e+00 4.662751674652099609e+00 3.859793424606323242e+00 6.594387054443359375e+00
2.100000000000000000e+01 2.294913673400878906e+01 -6.733499526977539062e+00 1.510850238800048828e+01 1.827995300292968750e+01 1.001653671264648438e+01 1.633679199218750000e+01
2.200000000000000000e+01 2.282858848571777344e+01 -6.891883850097656250e+00 1.125582408905029297e+01 1.166818523406982422e+01 6.877202510833740234e+00 1.172788047790527344e+01
2.300000000000000000e+01 2.270804023742675781e+01 -7.050267696380615234e+00 9.341990470886230469e+00 9.684101104736328125e+00 5.707827568054199219e+00 9.556860923767089844e+00
2.400000000000000000e+01 2.258749198913574219e+01 -7.208652019500732422e+00 7.829466819763183594e+00 7.758520603179931641e+00 4.676396369934082031e+00 8.113035202026367188e+00
2.500000000000000000e+01 2.299884796142578125e+01 -6.764156341552734375e+00 1.203209114074707031e+01 2.516085052490234375e+01 1.115788269042968750e+01 1.662559509277343750e+01
2.600000000000000000e+01 2.291144180297851562e+01 -6.942978858947753906e+00 9.727726936340332031e+00 1.815679168701171875e+01 8.365355491638183594e+00 1.208657932281494141e+01
2.700000000000000000e+01 2.282403564453125000e+01 -7.121800899505615234e+00 8.047907829284667969e+00 1.371503925323486328e+01 6.528883934020996094e+00 1.034622573852539062e+01
2.800000000000000000e+01 2.273662757873535156e+01 -7.300623416900634766e+00 6.741109848022460938e+00 1.258400821685791016e+01 5.797535419464111328e+00 9.061766624450683594e+00
2.900000000000000000e+01 2.305357742309570312e+01 -6.784548759460449219e+00 9.904522895812988281e+00 3.233340454101562500e+01 1.267137813568115234e+01 1.410070705413818359e+01
3.000000000000000000e+01 2.300265502929687500e+01 -6.976966381072998047e+00 7.476855278015136719e+00 2.307894706726074219e+01 9.166740417480468750e+00 1.164169311523437500e+01
3.100000000000000000e+01 2.295173645019531250e+01 -7.169383525848388672e+00 6.668698310852050781e+00 1.944121742248535156e+01 7.832974910736083984e+00 9.146576881408691406e+00
3.200000000000000000e+01 2.290081596374511719e+01 -7.361801147460937500e+00 5.676486015319824219e+00 1.541781997680664062e+01 6.328291893005371094e+00 8.789757728576660156e+00
3.300000000000000000e+01 2.311122894287109375e+01 -6.793896675109863281e+00 8.055930137634277344e+00 3.710962295532226562e+01 1.354966545104980469e+01 1.069393825531005859e+01
3.400000000000000000e+01 2.309874343872070312e+01 -6.992545604705810547e+00 6.576463222503662109e+00 2.772027778625488281e+01 1.028902244567871094e+01 9.044743537902832031e+00
3.500000000000000000e+01 2.308625602722167969e+01 -7.191194534301757812e+00 4.871085166931152344e+00 2.344417953491210938e+01 8.494579315185546875e+00 8.113780021667480469e+00
3.600000000000000000e+01 2.307377052307128906e+01 -7.389843463897705078e+00 4.830586433410644531e+00 2.090107154846191406e+01 7.719497203826904297e+00 6.078568458557128906e+00
3.700000000000000000e+01 2.316959762573242188e+01 -6.791841506958007812e+00 8.165298461914062500e+00 3.996492385864257812e+01 1.443906688690185547e+01 6.110424995422363281e+00
3.800000000000000000e+01 2.319602394104003906e+01 -6.989120483398437500e+00 6.268123626708984375e+00 3.086687469482421875e+01 1.114049911499023438e+01 6.224326610565185547e+00
3.900000000000000000e+01 2.322245025634765625e+01 -7.186399459838867188e+00 4.516728401184082031e+00 2.601849937438964844e+01 9.160568237304687500e+00 5.455105781555175781e+00
4.000000000000000000e+01 2.324887657165527344e+01 -7.383678436279296875e+00 3.830161094665527344e+00 2.477843666076660156e+01 8.582579612731933594e+00 5.478564739227294922e+00
4.100000000000000000e+01 2.322644805908203125e+01 -6.778462409973144531e+00 1.014739990234375000e+01 4.099230957031250000e+01 1.534191322326660156e+01 2.094278335571289062e+00
4.200000000000000000e+01 2.329077529907226562e+01 -6.966821670532226562e+00 6.914716243743896484e+00 3.203535461425781250e+01 1.168502140045166016e+01 2.674539566040039062e+00
4.300000000000000000e+01 2.335510444641113281e+01 -7.155181407928466797e+00 5.495174884796142578e+00 2.791689491271972656e+01 1.002362060546875000e+01 3.064348697662353516e+00
4.400000000000000000e+01 2.341943168640136719e+01 -7.343541145324707031e+00 4.477677822113037109e+00 2.336709403991699219e+01 8.353431701660156250e+00 3.277085065841674805e+00
4.500000000000000000e+01 2.327960777282714844e+01 -6.754271030426025391e+00 1.303209400177001953e+01 3.986527633666992188e+01 1.586921119689941406e+01 -1.359797000885009766e+00
4.600000000000000000e+01 2.337937545776367188e+01 -6.926503181457519531e+00 8.954166412353515625e+00 3.234089279174804688e+01 1.238851833343505859e+01 -1.989039182662963867e-01
4.700000000000000000e+01 2.347914314270019531e+01 -7.098735332489013672e+00 7.386877536773681641e+00 2.719594001770019531e+01 1.037484550476074219e+01 4.860138297080993652e-01
4.800000000000000000e+01 2.357890892028808594e+01 -7.270967483520507812e+00 5.977596282958984375e+00 2.380014419555664062e+01 8.933321952819824219e+00 -2.971524186432361603e-02
4.900000000000000000e+01 2.332704162597656250e+01 -6.720193862915039062e+00 1.665194511413574219e+01 3.793075942993164062e+01 1.637481117248535156e+01 -3.472828626632690430e+00
5.000000000000000000e+01 2.345842933654785156e+01 -6.869707107543945312e+00 1.175920867919921875e+01 3.105378150939941406e+01 1.284389686584472656e+01 -2.060183286666870117e+00
5.100000000000000000e+01 2.358981704711914062e+01 -7.019221305847167969e+00 9.735054016113281250e+00 2.624966049194335938e+01 1.079541492462158203e+01 -2.064707994461059570e+00
5.200000000000000000e+01 2.372120666503906250e+01 -7.168735027313232422e+00 8.187382698059082031e+00 2.381570243835449219e+01 9.600925445556640625e+00 -1.480577468872070312e+00
5.300000000000000000e+01 2.336693000793457031e+01 -6.677534103393554688e+00 2.009904289245605469e+01 3.583296585083007812e+01 1.677960395812988281e+01 -4.023360252380371094e+00
5.400000000000000000e+01 2.352491378784179688e+01 -6.798607826232910156e+00 1.512992382049560547e+01 2.885910034179687500e+01 1.319670772552490234e+01 -3.168984651565551758e+00
5.500000000000000000e+01 2.368289566040039062e+01 -6.919682025909423828e+00 1.189582347869873047e+01 2.535960006713867188e+01 1.117662715911865234e+01 -2.789339303970336914e+00
5.600000000000000000e+01 2.384087753295898438e+01 -7.040755748748779297e+00 1.084484863281250000e+01 2.222408676147460938e+01 9.920680046081542969e+00 -2.790561437606811523e+00
5.700000000000000000e+01 2.339775276184082031e+01 -6.627924442291259766e+00 2.341870498657226562e+01 3.344108963012695312e+01 1.705793762207031250e+01 -3.230410814285278320e+00
5.800000000000000000e+01 2.357628440856933594e+01 -6.715925216674804688e+00 1.764804649353027344e+01 2.716561698913574219e+01 1.344409942626953125e+01 -3.108283042907714844e+00
5.900000000000000000e+01 2.375481414794921875e+01 -6.803926467895507812e+00 1.484531211853027344e+01 2.344598388671875000e+01 1.148738861083984375e+01 -2.322175502777099609e+00
6.000000000000000000e+01 2.393334579467773438e+01 -6.891927242279052734e+00 1.189028453826904297e+01 2.154324531555175781e+01 1.003005886077880859e+01 -2.661780357360839844e+00
6.100000000000000000e+01 2.341832733154296875e+01 -6.573263645172119141e+00 2.553461456298828125e+01 3.196442413330078125e+01 1.724971199035644531e+01 -1.763424158096313477e+00
6.200000000000000000e+01 2.361057472229003906e+01 -6.624824047088623047e+00 1.970513343811035156e+01 2.555381584167480469e+01 1.357768535614013672e+01 -1.570355176925659180e+00
6.300000000000000000e+01 2.380282211303710938e+01 -6.676384449005126953e+00 1.653866577148437500e+01 2.216946983337402344e+01 1.161244106292724609e+01 -1.551842808723449707e+00
6.400000000000000000e+01 2.399506759643554688e+01 -6.727944850921630859e+00 1.419303512573242188e+01 2.034027099609375000e+01 1.035999202728271484e+01 -7.627381086349487305e-01
6.500000000000000000e+01 2.342786788940429688e+01 -6.515643119812011719e+00 2.638411331176757812e+01 3.077392959594726562e+01 1.714741325378417969e+01 4.854437708854675293e-01
6.600000000000000000e+01 2.362647247314453125e+01 -6.528789997100830078e+00 2.072768211364746094e+01 2.522918319702148438e+01 1.378705978393554688e+01 3.672080934047698975e-01
6.700000000000000000e+01 2.382507896423339844e+01 -6.541936874389648438e+00 1.707573699951171875e+01 2.126188278198242188e+01 1.150128650665283203e+01 2.482097297906875610e-01
6.800000000000000000e+01 2.402368545532226562e+01 -6.555083751678466797e+00 1.539914035797119141e+01 1.952647209167480469e+01 1.047768402099609375e+01 4.456317722797393799e-01
6.900000000000000000e+01 2.342600631713867188e+01 -6.457268238067626953e+00 2.623350334167480469e+01 3.160396385192871094e+01 1.735124015808105469e+01 2.651522397994995117e+00
7.000000000000000000e+01 2.362337112426757812e+01 -6.431498527526855469e+00 2.024093437194824219e+01 2.476015663146972656e+01 1.350032711029052734e+01 2.719217300415039062e+00
7.100000000000000000e+01 2.382073783874511719e+01 -6.405728340148925781e+00 1.678545188903808594e+01 2.234188842773437500e+01 1.173820209503173828e+01 2.072430133819580078e+00
7.200000000000000000e+01 2.401810455322265625e+01 -6.379958629608154297e+00 1.410304546356201172e+01 1.873168182373046875e+01 9.850418090820312500e+00 1.990346193313598633e+00
7.300000000000000000e+01 2.341281700134277344e+01 -6.400372505187988281e+00 2.433406639099121094e+01 3.252072525024414062e+01 1.705643844604492188e+01 5.117467403411865234e+00
7.400000000000000000e+01 2.360138893127441406e+01 -6.336671829223632812e+00 1.872977447509765625e+01 2.623923301696777344e+01 1.349070262908935547e+01 4.111838817596435547e+00
7.500000000000000000e+01 2.378996086120605469e+01 -6.272971630096435547e+00 1.512318992614746094e+01 2.286836624145507812e+01 1.139746665954589844e+01 4.123767852783203125e+00
7.600000000000000000e+01 2.397853469848632812e+01 -6.209271430969238281e+00 1.317862892150878906e+01 2.066449165344238281e+01 1.015293598175048828e+01 3.203462839126586914e+00
7.700000000000000000e+01 2.338880157470703125e+01 -6.347133159637451172e+00 2.169301223754882812e+01 3.412110137939453125e+01 1.674423408508300781e+01 6.389487266540527344e+00
7.800000000000000000e+01 2.356136512756347656e+01 -6.247939586639404297e+00 1.571306514739990234e+01 2.857444190979003906e+01 1.328625202178955078e+01 5.193178176879882812e+00
7.900000000000000000e+01 2.373392868041992188e+01 -6.148746490478515625e+00 1.309886264801025391e+01 2.376605033874511719e+01 1.105947399139404297e+01 4.614937782287597656e+00
8.000000000000000000e+01 2.390649223327636719e+01 -6.049553394317626953e+00 1.136380672454833984e+01 2.258121109008789062e+01 1.018350505828857422e+01 4.259634494781494141e+00
8.100000000000000000e+01 2.335488319396972656e+01 -6.299587249755859375e+00 1.802188301086425781e+01 3.704807662963867188e+01 1.652098655700683594e+01 6.502900600433349609e+00
8.200000000000000000e+01 2.350483322143554688e+01 -6.168697357177734375e+00 1.241549396514892578e+01 3.018368911743164062e+01 1.277975559234619141e+01 5.306111812591552734e+00
8.300000000000000000e+01 2.365478324890136719e+01 -6.037806987762451172e+00 1.013317966461181641e+01 2.634720230102539062e+01 1.094411468505859375e+01 3.820949077606201172e+00
8.400000000000000000e+01 2.380473327636718750e+01 -5.906916618347167969e+00 8.374361991882324219e+00 2.242443084716796875e+01 9.239638328552246094e+00 3.747910737991333008e+00
8.500000000000000000e+01 2.331235694885253906e+01 -6.259555339813232422e+00 1.372738552093505859e+01 3.953516387939453125e+01 1.597876548767089844e+01 5.398089408874511719e+00
8.600000000000000000e+01 2.343395614624023438e+01 -6.101976871490478516e+00 9.226183891296386719e+00 3.186753654479980469e+01 1.232811641693115234e+01 3.687685251235961914e+00
8.700000000000000000e+01 2.355555534362792969e+01 -5.944398403167724609e+00 6.977252960205078125e+00 2.800289916992187500e+01 1.049404525756835938e+01 2.795982599258422852e+00
8.800000000000000000e+01 2.367715263366699219e+01 -5.786819458007812500e+00 5.318630218505859375e+00 2.446206283569335938e+01 8.934207916259765625e+00 1.807776689529418945e+00
8.900000000000000000e+01 2.326284980773925781e+01 -6.228568077087402344e+00 9.724737167358398438e+00 4.110950088500976562e+01 1.525027084350585938e+01 2.806032657623291016e+00
9.000000000000000000e+01 2.335144424438476562e+01 -6.050331592559814453e+00 6.550063610076904297e+00 3.291545104980468750e+01 1.183965492248535156e+01 9.511299133300781250e-01
9.100000000000000000e+01 2.344003868103027344e+01 -5.872094631195068359e+00 4.391226291656494141e+00 2.808335494995117188e+01 9.742374420166015625e+00 7.415945529937744141e-01
9.200000000000000000e+01 2.352863311767578125e+01 -5.693858146667480469e+00 4.015167236328125000e+00 2.644482612609863281e+01 9.137998580932617188e+00 6.615239381790161133e-01
9.300000000000000000e+01 2.320825767517089844e+01 -6.207811832427978516e+00 6.980075836181640625e+00 4.158164596557617188e+01 1.456851577758789062e+01 -1.306077837944030762e+00
9.400000000000000000e+01 2.326045799255371094e+01 -6.015738010406494141e+00 4.510437011718750000e+00 3.219018173217773438e+01 1.101018524169921875e+01 -2.268566131591796875e+00
9.500000000000000000e+01 2.331265640258789062e+01 -5.823663711547851562e+00 3.285634040832519531e+00 2.749056816101074219e+01 9.232860565185546875e+00 -2.077716350555419922e+00
9.600000000000000000e+01 2.336485671997070312e+01 -5.631589412689208984e+00 3.250699281692504883e+00 2.395601844787597656e+01 8.162014961242675781e+00 -1.679671883583068848e+00
9.700000000000000000e+01 2.315066909790039062e+01 -6.198081016540527344e+00 5.747745513916015625e+00 3.992622756958007812e+01 1.370219230651855469e+01 -5.994443893432617188e+00
9.800000000000000000e+01 2.316447830200195312e+01 -5.999519348144531250e+00 3.669177055358886719e+00 2.996613693237304688e+01 1.009059429168701172e+01 -5.803040504455566406e+00
9.900000000000000000e+01 2.317828559875488281e+01 -5.800957679748535156e+00 3.419732570648193359e+00 2.492433166503906250e+01 8.503219604492187500e+00 -4.937813282012939453e+00
1.000000000000000000e+02 2.319209289550781250e+01 -5.602396488189697266e+00 2.151234388351440430e+00 2.142694664001464844e+01 7.073453903198242188e+00 -5.058915615081787109e+00
1.010000000000000000e+02 2.309228897094726562e+01 -6.199747562408447266e+00 5.569828510284423828e+00 3.577457809448242188e+01 1.240332221984863281e+01 -1.066392898559570312e+01
1.020000000000000000e+02 2.306717491149902344e+01 -6.002296924591064453e+00 4.823494911193847656e+00 2.610998344421386719e+01 9.280043601989746094e+00 -8.603510856628417969e+00
1.030000000000000000e+02 2.304206275939941406e+01 -5.804846286773681641e+00 3.429060935974121094e+00 2.109342575073242188e+01 7.356746196746826172e+00 -7.803921699523925781e+00
1.040000000000000000e+02 2.301695060729980469e+01 -5.607396125793457031e+00 2.986068487167358398e+00 1.873790931701660156e+01 6.517193317413330078e+00 -6.671825408935546875e+00
1.050000000000000000e+02 2.303534889221191406e+01 -6.212747573852539062e+00 7.899854183197021484e+00 2.992371940612792969e+01 1.134707164764404297e+01 -1.380358219146728516e+01
1.060000000000000000e+02 2.297227668762207031e+01 -6.023964405059814453e+00 5.866716384887695312e+00 2.048568534851074219e+01 7.905720710754394531e+00 -1.078116607666015625e+01
1.070000000000000000e+02 2.290920448303222656e+01 -5.835180759429931641e+00 4.921204090118408203e+00 1.691668510437011719e+01 6.551366806030273438e+00 -8.865302085876464844e+00
1.080000000000000000e+02 2.284613227844238281e+01 -5.646397590637207031e+00 3.889086008071899414e+00 1.417385768890380859e+01 5.418882846832275391e+00 -7.946279048919677734e+00
1.090000000000000000e+02 2.298203086853027344e+01 -6.236584663391113281e+00 1.029380893707275391e+01 2.183344459533691406e+01 9.638175964355468750e+00 -1.536209106445312500e+01
1.100000000000000000e+02 2.288341140747070312e+01 -6.063692092895507812e+00 7.818792343139648438e+00 1.481633186340332031e+01 6.790537357330322266e+00 -1.094169998168945312e+01
1.110000000000000000e+02 2.278479385375976562e+01 -5.890799999237060547e+00 6.066243171691894531e+00 1.146996307373046875e+01 5.260861873626708984e+00 -8.886329650878906250e+00
1.120000000000000000e+02 2.268617630004882812e+01 -5.717907428741455078e+00 4.988477230072021484e+00 1.032007884979248047e+01 4.592566967010498047e+00 -7.666738033294677734e+00
1.130000000000000000e+02 2.293437194824218750e+01 -6.270345687866210938e+00 1.300873565673828125e+01 1.374422073364257812e+01 8.025887489318847656e+00 -1.418092918395996094e+01
1.140000000000000000e+02 2.280398178100585938e+01 -6.119960308074951172e+00 8.655549049377441406e+00 8.483076095581054688e+00 5.141587257385253906e+00 -9.435366630554199219e+00
1.150000000000000000e+02 2.267359161376953125e+01 -5.969575405120849609e+00 6.931914329528808594e+00 7.174278736114501953e+00 4.231857776641845703e+00 -7.442222595214843750e+00
1.160000000000000000e+02 2.254320144653320312e+01 -5.819190502166748047e+00 5.425604343414306641e+00 5.971605777740478516e+00 3.419162988662719727e+00 -6.234376430511474609e+00
1.170000000000000000e+02 2.289419937133789062e+01 -6.312738895416259766e+00 1.341450691223144531e+01 5.659969329833984375e+00 5.722342967987060547e+00 -1.057715988159179688e+01
1.180000000000000000e+02 2.273702621459960938e+01 -6.190615653991699219e+00 8.551643371582031250e+00 3.698892831802368164e+00 3.675160646438598633e+00 -6.336994171142578125e+00
1.190000000000000000e+02 2.257985305786132812e+01 -6.068492889404296875e+00 5.884584426879882812e+00 3.391552209854125977e+00 2.782840967178344727e+00 -4.803365707397460938e+00
1.200000000000000000e+02 2.242267990112304688e+01 -5.946369647979736328e+00 5.036892414093017578e+00 3.480097055435180664e+00 2.555096864700317383e+00 -4.500185966491699219e+00
1.210000000000000000e+02 2.286304664611816406e+01 -6.362141609191894531e+00 1.136678123474121094e+01 -8.557244539260864258e-01 3.153316974639892578e+00 -4.618309497833251953e+00
1.220000000000000000e+02 2.268510627746582031e+01 -6.272953987121582031e+00 4.835511684417724609e+00 1.061427593231201172e+00 1.769081830978393555e+00 -2.343298435211181641e+00
1.230000000000000000e+02 2.250716400146484375e+01 -6.183766841888427734e+00 4.140786647796630859e+00 1.730023145675659180e+00 1.761242866516113281e+00 -2.855754137039184570e+00
1.240000000000000000e+02 2.232922363281250000e+01 -6.094579219818115234e+00 3.027647972106933594e+00 9.109193086624145508e-01 1.181570172309875488e+00 -1.907912611961364746e+00
1.250000000000000000e+02 2.284210777282714844e+01 -6.416664123535156250e+00 5.774507671594619751e-02 -2.974652051925659180e+00 -8.750721216201782227e-01 1.764713287353515625e+00
1.260000000000000000e+02 2.265020942687988281e+01 -6.363824844360351562e+00 1.851257562637329102e+00 1.253435850143432617e+00 9.314079880714416504e-01 -1.085793972015380859e+00
1.270000000000000000e+02 2.245830917358398438e+01 -6.310986042022705078e+00 4.985272288322448730e-01 -2.726298272609710693e-01 6.776922196149826050e-02 -2.650337517261505127e-01
1.280000000000000000e+02 2.226641082763671875e+01 -6.258146762847900391e+00 -9.991789236664772034e-03 2.723815441131591797e-01 7.871692627668380737e-02 -2.195127010345458984e-01
1.290000000000000000e+02 1.979736328125000000e+01 -7.108696937561035156e+00 5.368923544883728027e-01 2.330459505319595337e-01 2.309814840555191040e-01 -6.212881207466125488e-02
1.300000000000000000e+02 1.918515014648437500e+01 -7.075659751892089844e+00 2.208850234746932983e-01 2.393981963396072388e-01 1.380849629640579224e-01 -2.552089691162109375e-01
1.310000000000000000e+02 1.963678359985351562e+01 -6.536076068878173828e+00 -5.513349175453186035e-01 2.307917177677154541e-01 -9.616295248270034790e-02 -3.009701371192932129e-01
1.320000000000000000e+02 1.894053268432617188e+01 -5.967959403991699219e+00 -4.750277101993560791e-01 1.251465380191802979e-01 -1.049643531441688538e-01 -7.079797983169555664e-02
1.330000000000000000e+02 1.979512977600097656e+01 -6.764407157897949219e+00 -5.007109418511390686e-02 2.983379364013671875e-01 7.448005676269531250e-02 -2.060516625642776489e-01
1.340000000000000000e+02 1.871489524841308594e+01 -6.815587043762207031e+00 -3.092678785324096680e-01 5.280077457427978516e-02 -7.694013416767120361e-02 -3.639317750930786133e-01
1.350000000000000000e+02 1.821607589721679688e+01 -6.492440700531005859e+00 -2.017419338226318359e-01 -1.964085698127746582e-01 -1.194451525807380676e-01 -2.957251667976379395e-01
1.360000000000000000e+02 1.970186233520507812e+01 -6.045374870300292969e+00 -1.336801648139953613e+00 -9.003823250532150269e-02 -4.280519783496856689e-01 2.304479628801345825e-01
1.370000000000000000e+02 1.960873413085937500e+01 -6.913407802581787109e+00 9.550624340772628784e-02 2.348787039518356323e-01 9.911548346281051636e-02 -1.525513976812362671e-01
1.380000000000000000e+02 1.964689254760742188e+01 -7.294572830200195312e+00 8.221771717071533203e-01 3.721758425235748291e-01 3.583059012889862061e-01 -3.547102957963943481e-02
1.390000000000000000e+02 1.985827064514160156e+01 -6.944391250610351562e+00 2.991183996200561523e-01 2.951619327068328857e-01 1.782841086387634277e-01 -2.450590133666992188e-01
1.400000000000000000e+02 1.963457298278808594e+01 -6.287249565124511719e+00 -7.418553233146667480e-01 4.717576876282691956e-02 -2.084038555622100830e-01 -1.760517358779907227e-01
1.410000000000000000e+02 2.047699737548828125e+01 -4.888497352600097656e+00 1.020144462585449219e+00 7.871426343917846680e-01 5.421861410140991211e-01 -5.601541996002197266e-01
1.420000000000000000e+02 2.238307762145996094e+01 -5.640866279602050781e+00 4.536800384521484375e+00 5.532672405242919922e+00 3.020841836929321289e+00 -5.447343826293945312e+00
1.430000000000000000e+02 2.420013618469238281e+01 -5.693167686462402344e+00 7.370361804962158203e+00 1.920863342285156250e+01 7.973698616027832031e+00 3.341526746749877930e+00
1.440000000000000000e+02 2.416877746582031250e+01 -5.949212551116943359e+00 8.647522926330566406e+00 1.917400360107421875e+01 8.346458435058593750e+00 3.140141248703002930e+00
1.450000000000000000e+02 2.430329704284667969e+01 -6.583843708038330078e+00 1.190454769134521484e+01 1.711775398254394531e+01 8.706690788269042969e+00 7.497919797897338867e-01
1.460000000000000000e+02 2.183549690246582031e+01 -6.641914844512939453e+00 5.643767714500427246e-01 -6.060300394892692566e-02 1.511321365833282471e-01 4.081891775131225586e-01
1.470000000000000000e+02 2.143647384643554688e+01 -6.359119415283203125e+00 -2.282685995101928711e+00 -1.935703121125698090e-02 -6.906129121780395508e-01 3.056468367576599121e-01
1.480000000000000000e+02 2.229759788513183594e+01 -7.280062675476074219e+00 6.864943981170654297e+00 4.401790142059326172e+00 3.380020141601562500e+00 5.756002426147460938e+00
1.490000000000000000e+02 2.423215866088867188e+01 -6.361672878265380859e+00 1.434718418121337891e+01 1.749076843261718750e+01 9.551385879516601562e+00 2.074570655822753906e+00
1.500000000000000000e+02 2.398596191406250000e+01 -5.787654876708984375e+00 7.855693817138671875e+00 2.189129638671875000e+01 8.924097061157226562e+00 4.298563003540039062e+00
1.510000000000000000e+02 2.029848480224609375e+01 -5.892326354980468750e+00 -1.572482943534851074e+00 -3.240460455417633057e-01 -5.689586997032165527e-01 8.985171467065811157e-02
1.520000000000000000e+02 2.097500038146972656e+01 -5.684869766235351562e+00 2.449472062289714813e-02 1.674557477235794067e-01 5.758514255285263062e-02 -2.767683863639831543e-01
1.530000000000000000e+02 2.128907203674316406e+01 -6.051480293273925781e+00 -1.348639726638793945e+00 5.416629090905189514e-02 -3.883420526981353760e-01 1.974769383668899536e-01
1.540000000000000000e+02 2.136813545227050781e+01 -5.814195156097412109e+00 2.832149565219879150e-01 3.104913532733917236e-01 1.781118959188461304e-01 -4.873145818710327148e-01
1.550000000000000000e+02 2.036741256713867188e+01 -5.462517261505126953e+00 -4.640835151076316833e-02 6.080837547779083252e-02 4.320007283240556717e-03 1.883489638566970825e-01
1.560000000000000000e+02 2.213835906982421875e+01 -6.006791114807128906e+00 2.308958292007446289e+00 8.853914737701416016e-01 9.583049416542053223e-01 -1.708382487297058105e+00
1.570000000000000000e+02 2.207233428955078125e+01 -6.207704544067382812e+00 -4.191677570343017578e-01 -2.997677028179168701e-02 -1.347433626651763916e-01 -1.193931996822357178e-01
1.580000000000000000e+02 2.426492500305175781e+01 -6.798065185546875000e+00 1.119541072845458984e+01 1.752348899841308594e+01 8.615670204162597656e+00 -1.086441993713378906e+00
1.590000000000000000e+02 2.425433921813964844e+01 -6.141102790832519531e+00 1.095848178863525391e+01 1.772012138366699219e+01 8.603581428527832031e+00 2.265634298324584961e+00
1.600000000000000000e+02 2.389671897888183594e+01 -5.597948551177978516e+00 5.647746086120605469e+00 2.051539993286132812e+01 7.848943710327148438e+00 1.899417638778686523e+00
1.610000000000000000e+02 2.331511116027832031e+01 -5.207221984863281250e+00 1.578052759170532227e+00 1.864221000671386719e+01 6.066078662872314453e+00 -3.185040235519409180e+00
1.620000000000000000e+02 2.195299339294433594e+01 -5.176401615142822266e+00 3.171471357345581055e+00 4.160471916198730469e+00 2.199583053588867188e+00 -4.005585193634033203e+00
1.630000000000000000e+02 2.203786468505859375e+01 -6.428392410278320312e+00 -2.358997344970703125e+00 -1.614373028278350830e-01 -7.561303973197937012e-01 2.884490489959716797e-01
1.640000000000000000e+02 2.163889884948730469e+01 -6.384469509124755859e+00 -2.324133634567260742e+00 -4.302829876542091370e-02 -7.101485729217529297e-01 3.301773369312286377e-01
1.650000000000000000e+02 2.326671409606933594e+01 -7.710107803344726562e+00 3.222399234771728516e+00 1.941216659545898438e+01 6.790369510650634766e+00 4.708822250366210938e+00
1.660000000000000000e+02 2.395934677124023438e+01 -7.218141078948974609e+00 8.698364257812500000e+00 2.160904884338378906e+01 9.092224121093750000e+00 -2.112095832824707031e+00
1.670000000000000000e+02 2.179933166503906250e+01 -7.660975456237792969e+00 4.974189281463623047e+00 3.183754682540893555e+00 2.447383165359497070e+00 4.142209053039550781e+00
1.680000000000000000e+02 2.159608650207519531e+01 -7.661867141723632812e+00 4.589732646942138672e+00 2.486108541488647461e+00 2.122752428054809570e+00 3.360625267028808594e+00
1.690000000000000000e+02 2.081910133361816406e+01 -7.488900184631347656e+00 2.764161586761474609e+00 7.607598900794982910e-01 1.057476401329040527e+00 1.274022102355957031e+00
1.700000000000000000e+02 2.058746528625488281e+01 -6.480782032012939453e+00 -9.509819149971008301e-01 7.225154340267181396e-02 -2.636191248893737793e-01 2.781541272997856140e-02
1.710000000000000000e+02 2.024481010437011719e+01 -6.147808074951171875e+00 -1.766741752624511719e+00 5.584782734513282776e-02 -5.132681727409362793e-01 1.490020006895065308e-01
1.720000000000000000e+02 2.000522041320800781e+01 -7.388551235198974609e+00 1.276442050933837891e+00 5.572683215141296387e-01 5.501131415367126465e-01 3.567706644535064697e-01
1.730000000000000000e+02 2.101750373840332031e+01 -7.534213542938232422e+00 3.121015071868896484e+00 9.967167377471923828e-01 1.235319495201110840e+00 1.615767598152160645e+00
1.740000000000000000e+02 2.296592903137207031e+01 -7.666368007659912109e+00 3.958500623703002930e+00 1.572386837005615234e+01 5.904710769653320312e+00 6.585481643676757812e+00
1.750000000000000000e+02 2.265158271789550781e+01 -7.517405509948730469e+00 5.914258956909179688e+00 1.099460792541503906e+01 5.072659969329833984e+00 7.926470756530761719e+00
1.760000000000000000e+02 2.066797447204589844e+01 -7.186759471893310547e+00 1.575109124183654785e+00 3.708492219448089600e-01 5.837875008583068848e-01 5.209160447120666504e-01
1.770000000000000000e+02 2.053764152526855469e+01 -4.679078578948974609e+00 1.178271293640136719e+00 1.394939184188842773e+00 7.719631195068359375e-01 -1.010179638862609863e+00
1.780000000000000000e+02 2.172238349914550781e+01 -4.886850357055664062e+00 2.634738922119140625e+00 3.864504337310791016e+00 1.949772953987121582e+00 -3.596899747848510742e+00
1.790000000000000000e+02 2.248377799987792969e+01 -4.974500179290771484e+00 2.653912782669067383e+00 9.279259681701660156e+00 3.579951763153076172e+00 -5.564768791198730469e+00
1.800000000000000000e+02 2.315547561645507812e+01 -5.427763938903808594e+00 2.044059038162231445e+00 1.980060577392578125e+01 6.553399085998535156e+00 -4.776081085205078125e+00
1.810000000000000000e+02 2.257712745666503906e+01 -5.532819747924804688e+00 4.278425693511962891e+00 8.952526092529296875e+00 3.969285488128662109e+00 -6.686561107635498047e+00
1.820000000000000000e+02 2.223172760009765625e+01 -5.805302143096923828e+00 3.931808233261108398e+00 2.552479267120361328e+00 1.945286273956298828e+00 -3.561392545700073242e+00
1.830000000000000000e+02 2.365071678161621094e+01 -5.390593051910400391e+00 2.368374586105346680e+00 2.160151863098144531e+01 7.190968036651611328e+00 -1.865130960941314697e-01
1.840000000000000000e+02 2.193070983886718750e+01 -5.940040111541748047e+00 1.582145810127258301e+00 6.453110575675964355e-01 6.682370901107788086e-01 -1.241300821304321289e+00
1.850000000000000000e+02 2.445973205566406250e+01 -6.355407714843750000e+00 1.198328495025634766e+01 1.635540008544921875e+01 8.501605987548828125e+00 1.596599578857421875e+00
1.860000000000000000e+02 2.309907722473144531e+01 -5.096317768096923828e+00 1.323510408401489258e+00 1.647375106811523438e+01 5.339178562164306641e+00 -4.885775089263916016e+00
1.870000000000000000e+02 2.270204162597656250e+01 -5.261112689971923828e+00 2.884598016738891602e+00 1.148769760131835938e+01 4.311688899993896484e+00 -6.309110641479492188e+00
1.880000000000000000e+02 2.411141586303710938e+01 -7.013340950012207031e+00 1.099229240417480469e+01 1.935390853881835938e+01 9.103859901428222656e+00 -2.148652076721191406e+00
1.890000000000000000e+02 2.355028152465820312e+01 -7.584429264068603516e+00 4.312965393066406250e+00 2.085964202880859375e+01 7.551782131195068359e+00 1.669384956359863281e+00
1.900000000000000000e+02 2.432482910156250000e+01 -7.092612266540527344e+00 1.004536628723144531e+01 1.719947624206542969e+01 8.173452377319335938e+00 -1.973785758018493652e+00
1.910000000000000000e+02 2.379804801940917969e+01 -7.337829589843750000e+00 7.057677268981933594e+00 2.099393844604492188e+01 8.415484428405761719e+00 -1.322356939315795898e+00
1.920000000000000000e+02 2.204119873046875000e+01 -6.640358448028564453e+00 1.047901511192321777e+00 4.349454864859580994e-02 3.274188041687011719e-01 6.078796386718750000e-01
1.930000000000000000e+02 2.246706771850585938e+01 -7.428036212921142578e+00 6.634868621826171875e+00 7.810888290405273438e+00 4.333726882934570312e+00 7.330337047576904297e+00
1.940000000000000000e+02 2.398610305786132812e+01 -7.504504203796386719e+00 5.531752586364746094e+00 1.997106170654296875e+01 7.650844573974609375e+00 -8.532893061637878418e-01
1.950000000000000000e+02 2.200008964538574219e+01 -7.691073894500732422e+00 5.289877414703369141e+00 4.164585113525390625e+00 2.836338758468627930e+00 4.859038352966308594e+00
1.960000000000000000e+02 2.215703201293945312e+01 -7.082982540130615234e+00 6.094574928283691406e+00 1.911947846412658691e+00 2.401956796646118164e+00 3.804702043533325195e+00
1.970000000000000000e+02 2.259746742248535156e+01 -7.785423278808593750e+00 4.889910697937011719e+00 1.111447906494140625e+01 4.801316738128662109e+00 7.173419475555419922e+00
1.980000000000000000e+02 2.282461929321289062e+01 -7.575910091400146484e+00 4.803148746490478516e+00 1.485936164855957031e+01 5.898753166198730469e+00 8.003167152404785156e+00
1.990000000000000000e+02 2.268309974670410156e+01 -5.026519775390625000e+00 2.233596563339233398e+00 1.166352844238281250e+01 4.169137477874755859e+00 -5.736161708831787109e+00
2.000000000000000000e+02 2.192501068115234375e+01 -4.909866809844970703e+00 2.741957426071166992e+00 4.848762512207031250e+00 2.277215957641601562e+00 -4.043952941894531250e+00
2.010000000000000000e+02 2.237032890319824219e+01 -5.111970901489257812e+00 3.043187618255615234e+00 7.864608287811279297e+00 3.272338628768920898e+00 -5.379822254180908203e+00
2.020000000000000000e+02 2.247360420227050781e+01 -5.316387653350830078e+00 3.517617940902709961e+00 8.616779327392578125e+00 3.640319347381591797e+00 -6.101856231689453125e+00
2.030000000000000000e+02 2.289608955383300781e+01 -5.051712989807128906e+00 1.836447238922119141e+00 1.365716934204101562e+01 4.648085117340087891e+00 -5.491261959075927734e+00
2.040000000000000000e+02 2.073569488525390625e+01 -4.734107494354248047e+00 1.381145358085632324e+00 1.465868353843688965e+00 8.541041016578674316e-01 -1.214645743370056152e+00
2.050000000000000000e+02 2.090097045898437500e+01 -5.967202663421630859e+00 -1.441897511482238770e+00 2.698103524744510651e-02 -4.244749546051025391e-01 2.559803724288940430e-01
2.060000000000000000e+02 2.109762763977050781e+01 -6.005249500274658203e+00 -1.419250965118408203e+00 -7.304606586694717407e-02 -4.476891160011291504e-01 2.035310566425323486e-01
2.070000000000000000e+02 2.055830955505371094e+01 -5.650548458099365234e+00 -4.744909107685089111e-01 -8.434275165200233459e-03 -1.448775529861450195e-01 -2.643454819917678833e-02
2.080000000000000000e+02 2.167698478698730469e+01 -6.128861904144287109e+00 -9.960636496543884277e-01 2.074109204113483429e-02 -2.925967574119567871e-01 4.418753087520599365e-02
2.090000000000000000e+02 2.148080444335937500e+01 -6.094682216644287109e+00 -1.221717953681945801e+00 7.693703752011060715e-03 -3.642072677612304688e-01 8.901942521333694458e-02
2.100000000000000000e+02 2.187496757507324219e+01 -6.164431095123291016e+00 -7.413383126258850098e-01 1.031242758035659790e-01 -1.914642155170440674e-01 -4.352115094661712646e-02
2.110000000000000000e+02 2.123479843139648438e+01 -6.333223342895507812e+00 -2.220188140869140625e+00 -4.332239553332328796e-02 -6.790531277656555176e-01 2.843477427959442139e-01
2.120000000000000000e+02 2.004832267761230469e+01 -7.175874233245849609e+00 8.242216706275939941e-01 4.337233901023864746e-01 3.773835301399230957e-01 3.728498890995979309e-02
2.130000000000000000e+02 2.078846168518066406e+01 -6.546043395996093750e+00 -7.647622823715209961e-01 6.846011430025100708e-02 -2.088906615972518921e-01 5.607409030199050903e-02
2.140000000000000000e+02 2.044271469116210938e+01 -6.187065601348876953e+00 -1.917946577072143555e+00 -1.281299442052841187e-02 -5.792278647422790527e-01 2.280998229980468750e-01
2.150000000000000000e+02 2.033067893981933594e+01 -6.598242282867431641e+00 -6.753696799278259277e-01 3.872623294591903687e-02 -1.909930408000946045e-01 -1.910095848143100739e-02
2.160000000000000000e+02 2.039457893371582031e+01 -6.407166481018066406e+00 -1.141583442687988281e+00 1.532026333734393120e-03 -3.420154452323913574e-01 2.190453186631202698e-02
2.170000000000000000e+02 2.277937698364257812e+01 -7.826509952545166016e+00 4.501753807067871094e+00 1.252466106414794922e+01 5.107924461364746094e+00 6.844442367553710938e+00
2.180000000000000000e+02 2.239571762084960938e+01 -7.730578899383544922e+00 5.530866146087646484e+00 7.921356201171875000e+00 4.035666942596435547e+00 6.648272037506103516e+00
2.190000000000000000e+02 2.219277763366699219e+01 -7.713608741760253906e+00 5.515090465545654297e+00 6.222114562988281250e+00 3.521161556243896484e+00 6.063627243041992188e+00
2.200000000000000000e+02 2.195358085632324219e+01 -7.276586055755615234e+00 5.514023303985595703e+00 2.026503086090087891e+00 2.262157917022705078e+00 3.610357999801635742e+00
2.210000000000000000e+02 2.121187591552734375e+01 -7.589123249053955078e+00 3.611133098602294922e+00 1.325276255607604980e+00 1.480922818183898926e+00 2.173349380493164062e+00
2.220000000000000000e+02 2.110784149169921875e+01 -7.280017375946044922e+00 2.744059562683105469e+00 5.564129352569580078e-01 9.901417493820190430e-01 1.179779648780822754e+00
2.230000000000000000e+02 2.008619499206542969e+01 -6.965807914733886719e+00 4.764251112937927246e-01 1.988394260406494141e-01 2.025793641805648804e-01 -9.122825413942337036e-02
2.240000000000000000e+02 2.020870208740234375e+01 -7.415684223175048828e+00 1.512110352516174316e+00 4.965606629848480225e-01 6.026012897491455078e-01 4.258221685886383057e-01
2.250000000000000000e+02 2.039382171630859375e+01 -5.261767864227294922e+00 6.045023202896118164e-01 5.091809034347534180e-01 3.341049551963806152e-01 -2.203290909528732300e-01
2.260000000000000000e+02 2.050370788574218750e+01 -5.911633014678955078e+00 -1.415722489356994629e+00 8.462265878915786743e-02 -3.993299305438995361e-01 3.342455029487609863e-01
2.270000000000000000e+02 2.034118461608886719e+01 -5.671691894531250000e+00 -5.548837184906005859e-01 -1.408011913299560547e-01 -2.087054699659347534e-01 1.725397557020187378e-01
2.280000000000000000e+02 2.029431915283203125e+01 -6.969872474670410156e+00 5.462008714675903320e-01 2.141337841749191284e-01 2.281003892421722412e-01 3.399977833032608032e-02
2.290000000000000000e+02 2.015556335449218750e+01 -6.561035156250000000e+00 -4.260945022106170654e-01 -1.707273125648498535e-01 -1.790465414524078369e-01 -6.774514913558959961e-02
2.300000000000000000e+02 2.183958816528320312e+01 -6.408598423004150391e+00 -2.320408582687377930e+00 -1.777451485395431519e-02 -7.014549374580383301e-01 3.655197620391845703e-01
2.310000000000000000e+02 2.277342796325683594e+01 -5.462293148040771484e+00 3.433778762817382812e+00 1.309077358245849609e+01 4.957365512847900391e+00 -7.070213317871093750e+00
2.320000000000000000e+02 2.132064819335937500e+01 -4.828654289245605469e+00 2.134692430496215820e+00 2.399067163467407227e+00 1.360127806663513184e+00 -2.398679018020629883e+00
2.330000000000000000e+02 2.150623893737792969e+01 -5.154037952423095703e+00 2.363416910171508789e+00 2.083966016769409180e+00 1.334214806556701660e+00 -2.442285776138305664e+00
2.340000000000000000e+02 2.129350662231445312e+01 -5.129346847534179688e+00 2.067451953887939453e+00 1.741086363792419434e+00 1.142561435699462891e+00 -1.932095170021057129e+00
2.350000000000000000e+02 2.149592399597167969e+01 -5.443886280059814453e+00 1.943536400794982910e+00 1.327387452125549316e+00 9.812771677970886230e-01 -1.698216080665588379e+00
2.360000000000000000e+02 2.083721733093261719e+01 -6.270576477050781250e+00 -2.096787691116333008e+00 -9.968131780624389648e-03 -6.320267915725708008e-01 2.733367681503295898e-01
2.370000000000000000e+02 2.103527259826660156e+01 -6.304406166076660156e+00 -2.154705524444580078e+00 -4.762512445449829102e-02 -6.606992483139038086e-01 2.864457368850708008e-01
2.380000000000000000e+02 2.207123374938964844e+01 -6.864568710327148438e+00 4.043861389160156250e+00 4.247297346591949463e-01 1.340577363967895508e+00 1.774663329124450684e+00
2.390000000000000000e+02 2.152550125122070312e+01 -7.359767913818359375e+00 4.265549659729003906e+00 1.340483665466308594e+00 1.681810021400451660e+00 2.481891632080078125e+00
2.400000000000000000e+02 2.041134452819824219e+01 -7.440884590148925781e+00 1.843830704689025879e+00 5.410303473472595215e-01 7.154583334922790527e-01 6.482176780700683594e-01
2.410000000000000000e+02 2.126070785522460938e+01 -7.098812580108642578e+00 2.411247491836547852e+00 4.407863914966583252e-01 8.556101322174072266e-01 9.649330377578735352e-01
2.420000000000000000e+02 2.042247772216796875e+01 -5.064322948455810547e+00 7.311639189720153809e-01 3.276022672653198242e-01 3.176298737525939941e-01 -3.285308182239532471e-01
2.430000000000000000e+02 2.084218215942382812e+01 -5.352210044860839844e+00 7.987478375434875488e-01 4.767193198204040527e-01 3.826401531696319580e-01 -6.399222016334533691e-01
2.440000000000000000e+02 2.048088264465332031e+01 -6.989975452423095703e+00 8.298966288566589355e-01 1.813045442104339600e-01 3.033603429794311523e-01 1.470817476511001587e-01
2.450000000000000000e+02 2.099632453918457031e+01 -6.581953048706054688e+00 -6.395059227943420410e-01 3.257685154676437378e-02 -1.820787191390991211e-01 9.553636610507965088e-02
2.460000000000000000e+02 2.174149513244628906e+01 -5.436173915863037109e+00 2.691548585891723633e+00 1.903002858161926270e+00 1.378365397453308105e+00 -2.552046537399291992e+00
2.470000000000000000e+02 2.093040466308593750e+01 -4.763041019439697266e+00 1.715849041938781738e+00 1.802244901657104492e+00 1.055428147315979004e+00 -1.700657129287719727e+00
2.480000000000000000e+02 2.112437438964843750e+01 -4.795786857604980469e+00 2.011284351348876953e+00 2.100768804550170898e+00 1.233615875244140625e+00 -2.048734426498413086e+00
2.490000000000000000e+02 2.172329711914062500e+01 -5.902918338775634766e+00 8.710997104644775391e-01 5.183237791061401367e-01 4.168270230293273926e-01 -8.324439525604248047e-01
2.500000000000000000e+02 2.095821952819824219e+01 -6.875123977661132812e+00 8.724793791770935059e-01 1.734153479337692261e-01 3.137684166431427002e-01 3.311429321765899658e-01
2.510000000000000000e+02 2.047655487060546875e+01 -6.688368797302246094e+00 -2.362398803234100342e-01 5.883755162358283997e-02 -5.322069674730300903e-02 9.681331925094127655e-03
2.520000000000000000e+02 2.057537841796875000e+01 -6.830411911010742188e+00 2.047304958105087280e-01 1.528909951448440552e-01 1.072864457964897156e-01 9.832222014665603638e-02
2.530000000000000000e+02 2.054422950744628906e+01 -5.256173133850097656e+00 6.367387175559997559e-01 3.793751001358032227e-01 3.048341274261474609e-01 -3.357284963130950928e-01
2.540000000000000000e+02 2.199013710021972656e+01 -5.704872608184814453e+00 3.089027881622314453e+00 1.999627828598022461e+00 1.526596665382385254e+00 -2.820502758026123047e+00
2.550000000000000000e+02 2.199619865417480469e+01 -5.445576190948486328e+00 3.345651149749755859e+00 3.318886995315551758e+00 1.999361395835876465e+00 -3.631272792816162109e+00
2.560000000000000000e+02 2.104232025146484375e+01 -5.392783164978027344e+00 1.028828144073486328e+00 6.961429119110107422e-01 5.174913406372070312e-01 -7.892169356346130371e-01
2.570000000000000000e+02 2.162719917297363281e+01 -6.624233245849609375e+00 1.539125293493270874e-01 7.269068062305450439e-02 6.798096001148223877e-02 3.687674999237060547e-01
2.580000000000000000e+02 2.162164306640625000e+01 -6.844156742095947266e+00 1.874705672264099121e+00 1.393975168466567993e-01 6.042309403419494629e-01 7.863461375236511230e-01
2.590000000000000000e+02 2.160027503967285156e+01 -7.024558544158935547e+00 2.968477249145507812e+00 4.143891036510467529e-01 1.014859914779663086e+00 1.307317137718200684e+00
2.600000000000000000e+02 2.045497322082519531e+01 -7.203864097595214844e+00 1.362469196319580078e+00 3.472113311290740967e-01 5.129041671752929688e-01 3.888587653636932373e-01
2.610000000000000000e+02 2.025395393371582031e+01 -7.191991329193115234e+00 1.183010697364807129e+00 3.345538377761840820e-01 4.552693665027618408e-01 2.536499798297882080e-01
2.620000000000000000e+02 2.030520820617675781e+01 -6.771224975585937500e+00 1.265545934438705444e-01 1.023062914609909058e-01 6.865826249122619629e-02 -4.987405613064765930e-02
2.630000000000000000e+02 2.011833381652832031e+01 -6.761599540710449219e+00 -8.192323893308639526e-02 1.153635792434215546e-02 -2.111606486141681671e-02 -2.490557879209518433e-01
2.640000000000000000e+02 2.020134162902832031e+01 -6.357498645782470703e+00 -1.389544963836669922e+00 1.057593384757637978e-03 -4.165461957454681396e-01 2.005475759506225586e-01
2.650000000000000000e+02 2.061604309082031250e+01 -7.461977958679199219e+00 2.316311597824096680e+00 6.244944930076599121e-01 8.822417855262756348e-01 9.363504648208618164e-01
2.660000000000000000e+02 2.064015388488769531e+01 -6.230060577392578125e+00 -2.020612001419067383e+00 -3.460055217146873474e-02 -6.165637373924255371e-01 2.436328083276748657e-01
2.670000000000000000e+02 2.089693641662597656e+01 -7.189241409301757812e+00 1.993499636650085449e+00 4.131804108619689941e-01 7.220039963722229004e-01 7.068421244621276855e-01
2.680000000000000000e+02 2.140353393554687500e+01 -7.636382102966308594e+00 4.097695827484130859e+00 1.817901015281677246e+00 1.774679064750671387e+00 2.720183372497558594e+00
2.690000000000000000e+02 2.128614044189453125e+01 -7.395143508911132812e+00 3.582093954086303711e+00 1.028559207916259766e+00 1.383195996284484863e+00 1.869765162467956543e+00
2.700000000000000000e+02 2.139706230163574219e+01 -7.249107837677001953e+00 3.587051153182983398e+00 7.839906215667724609e-01 1.311312556266784668e+00 1.674453258514404297e+00
2.710000000000000000e+02 2.144470787048339844e+01 -7.474028110504150391e+00 4.095152854919433594e+00 1.545663952827453613e+00 1.692245125770568848e+00 2.482779502868652344e+00
2.720000000000000000e+02 2.055945777893066406e+01 -5.045956134796142578e+00 9.154043793678283691e-01 8.901695609092712402e-01 5.416721701622009277e-01 -5.022526383399963379e-01
2.730000000000000000e+02 2.071880912780761719e+01 -5.028238773345947266e+00 1.229174256324768066e+00 8.363295197486877441e-01 6.196511387825012207e-01 -8.906956315040588379e-01
2.740000000000000000e+02 2.089985275268554688e+01 -5.059179782867431641e+00 1.394407272338867188e+00 1.152182459831237793e+00 7.639769315719604492e-01 -1.091400027275085449e+00
2.750000000000000000e+02 2.109141349792480469e+01 -5.095363140106201172e+00 1.668041825294494629e+00 1.285671353340148926e+00 8.861139416694641113e-01 -1.516917347908020020e+00
2.760000000000000000e+02 2.151996231079101562e+01 -4.859404563903808594e+00 2.398570299148559570e+00 3.242571592330932617e+00 1.692342519760131836e+00 -2.938490390777587891e+00
2.770000000000000000e+02 2.216892242431640625e+01 -5.161503791809082031e+00 3.273550510406494141e+00 5.797328948974609375e+00 2.721263885498046875e+00 -4.763888835906982422e+00
2.780000000000000000e+02 2.212334442138671875e+01 -4.925928592681884766e+00 2.757736921310424805e+00 6.202572345733642578e+00 2.688092708587646484e+00 -4.602467060089111328e+00
2.790000000000000000e+02 2.230815696716308594e+01 -4.932177066802978516e+00 2.704251766204833984e+00 7.492422580718994141e+00 3.059002399444580078e+00 -4.921665191650390625e+00
2.800000000000000000e+02 2.329730606079101562e+01 -5.423999786376953125e+00 1.768074393272399902e+00 2.077571487426757812e+01 6.763136863708496094e+00 -2.928516387939453125e+00
2.810000000000000000e+02 2.297107887268066406e+01 -5.429646492004394531e+00 2.429586410522460938e+00 1.614487266540527344e+01 5.572338104248046875e+00 -6.435473918914794922e+00
2.820000000000000000e+02 2.120360183715820312e+01 -6.601267814636230469e+00 -4.819939434528350830e-01 4.443210735917091370e-02 -1.312685459852218628e-01 1.925922930240631104e-01
2.830000000000000000e+02 2.141516685485839844e+01 -6.609713077545166016e+00 -2.383853793144226074e-01 1.592775806784629822e-02 -6.673728674650192261e-02 2.629464566707611084e-01
2.840000000000000000e+02 2.070314407348632812e+01 -5.935579776763916016e+00 -1.478747963905334473e+00 -1.075859218835830688e-01 -4.759001731872558594e-01 2.257653474807739258e-01
2.850000000000000000e+02 2.077037620544433594e+01 -5.649192333221435547e+00 -1.561192721128463745e-01 2.114026546478271484e-01 1.658501476049423218e-02 -5.419133603572845459e-02
2.860000000000000000e+02 2.055253028869628906e+01 -5.433985710144042969e+00 3.893874585628509521e-01 2.703565061092376709e-01 1.979231983423233032e-01 -1.818714290857315063e-01
2.870000000000000000e+02 2.118637084960937500e+01 -5.729765415191650391e+00 2.491036802530288696e-01 2.970774173736572266e-01 1.638543307781219482e-01 -3.939545452594757080e-01
2.880000000000000000e+02 2.153181457519531250e+01 -5.881097793579101562e+00 4.273318052291870117e-01 2.497429996728897095e-01 2.031224370002746582e-01 -5.139009356498718262e-01
2.890000000000000000e+02 2.224516677856445312e+01 -5.407851696014404297e+00 3.809470415115356445e+00 5.075528144836425781e+00 2.665499448776245117e+00 -4.906335830688476562e+00
2.900000000000000000e+02 2.176854133605957031e+01 -7.426961421966552734e+00 5.065874576568603516e+00 2.262803554534912109e+00 2.198603391647338867e+00 3.510472059249877930e+00
2.910000000000000000e+02 2.211331939697265625e+01 -7.480137348175048828e+00 6.101053714752197266e+00 4.266998291015625000e+00 3.110415697097778320e+00 5.304697990417480469e+00
2.920000000000000000e+02 2.372908210754394531e+01 -7.581652164459228516e+00 4.546002388000488281e+00 2.063222312927246094e+01 7.553467750549316406e+00 5.565700531005859375e-01
2.930000000000000000e+02 2.366287422180175781e+01 -7.427099227905273438e+00 4.671970844268798828e+00 2.336732864379882812e+01 8.411789894104003906e+00 6.082515716552734375e-01
2.940000000000000000e+02 2.311341476440429688e+01 -5.288634777069091797e+00 1.692999720573425293e+00 1.672296333312988281e+01 5.524788856506347656e+00 -5.315534114837646484e+00
2.950000000000000000e+02 2.292055702209472656e+01 -5.259230613708496094e+00 2.107561349868774414e+00 1.531947612762451172e+01 5.228111267089843750e+00 -5.996867656707763672e+00
2.960000000000000000e+02 2.183985710144042969e+01 -6.883894443511962891e+00 3.162496089935302734e+00 4.336985051631927490e-01 1.078858375549316406e+00 1.403706192970275879e+00
2.970000000000000000e+02 2.141210937500000000e+01 -6.837206363677978516e+00 1.361184597015380859e+00 1.909715235233306885e-01 4.656468331813812256e-01 6.054884195327758789e-01
2.980000000000000000e+02 2.178242874145507812e+01 -7.106883049011230469e+00 4.133413314819335938e+00 8.731955885887145996e-01 1.501982688903808594e+00 2.162880182266235352e+00
2.990000000000000000e+02 2.068094444274902344e+01 -5.290001392364501953e+00 6.691449880599975586e-01 4.605036973953247070e-01 3.388946056365966797e-01 -3.785488009452819824e-01
3.000000000000000000e+02 2.125859642028808594e+01 -5.433829307556152344e+00 1.359962940216064453e+00 8.029889464378356934e-01 6.488855481147766113e-01 -1.184303402900695801e+00
3.010000000000000000e+02 2.074914741516113281e+01 -6.810676574707031250e+00 3.913917839527130127e-01 1.495183855295181274e-01 1.622730493545532227e-01 1.683029085397720337e-01
3.020000000000000000e+02 2.172834205627441406e+01 -5.169372081756591797e+00 2.793157100677490234e+00 2.986160039901733398e+00 1.733795166015625000e+00 -3.155085325241088867e+00
3.030000000000000000e+02 2.165396499633789062e+01 -7.260870456695556641e+00 4.472465515136718750e+00 1.206594109535217285e+00 1.703717947006225586e+00 2.415132284164428711e+00
3.040000000000000000e+02 2.159645080566406250e+01 -7.486865997314453125e+00 4.443489074707031250e+00 1.946563720703125000e+00 1.917015910148620605e+00 3.014327049255371094e+00
3.050000000000000000e+02 2.174673080444335938e+01 -5.677042007446289062e+00 2.080702304840087891e+00 1.292707324028015137e+00 1.012022852897644043e+00 -1.806220531463623047e+00
3.060000000000000000e+02 2.064979362487792969e+01 -6.973621368408203125e+00 9.630465507507324219e-01 2.186950594186782837e-01 3.545224964618682861e-01 2.010081261396408081e-01
3.070000000000000000e+02 2.119226455688476562e+01 -6.871347427368164062e+00 1.159721970558166504e+00 1.542878746986389160e-01 3.942029476165771484e-01 4.306776523590087891e-01
3.080000000000000000e+02 2.152424430847167969e+01 -5.684113025665283203e+00 1.240248203277587891e+00 6.776879429817199707e-01 5.753808617591857910e-01 -1.164664506912231445e+00
3.090000000000000000e+02 2.152217674255371094e+01 -7.146585464477539062e+00 3.452416181564331055e+00 6.413559317588806152e-01 1.228131651878356934e+00 1.623105764389038086e+00
3.100000000000000000e+02 2.143745040893554688e+01 -7.020373344421386719e+00 2.368273019790649414e+00 2.915459871292114258e-01 7.979456782341003418e-01 9.504703879356384277e-01
3.110000000000000000e+02 1.903007507324218750e+01 3.625954627990722656e+00 1.596223413944244385e-01 7.373744010925292969e+00 2.260010004043579102e+00 -9.783431887626647949e-01
3.120000000000000000e+02 2.001450920104980469e+01 5.478388786315917969e+00 5.581654906272888184e-01 7.912423133850097656e+00 2.541176557540893555e+00 -1.610825181007385254e+00
3.130000000000000000e+02 2.858462905883789062e+01 5.859333992004394531e+00 2.953442633152008057e-01 8.766629219055175781e+00 2.718591928482055664e+00 -5.224774479866027832e-01
3.140000000000000000e+02 3.270680618286132812e+01 6.256867885589599609e+00 4.610103666782379150e-01 8.532089233398437500e+00 2.697929859161376953e+00 1.319250166416168213e-01
3.150000000000000000e+02 4.181794357299804688e+01 3.042956829071044922e+00 9.315202832221984863e-01 7.858620643615722656e+00 2.637042284011840820e+00 4.822757542133331299e-01
3.160000000000000000e+02 5.084313964843750000e+01 -2.986245751380920410e-01 7.628014683723449707e-01 7.569931983947753906e+00 2.499819993972778320e+00 2.125079482793807983e-01
3.170000000000000000e+02 6.840911102294921875e+01 4.448511600494384766e+00 1.236480697989463806e-01 7.556808471679687500e+00 2.304136991500854492e+00 2.000302970409393311e-01
3.180000000000000000e+02 7.276294708251953125e+01 1.501055717468261719e+00 6.128605455160140991e-02 7.468108654022216797e+00 2.258818387985229492e+00 9.836139529943466187e-02
3.190000000000000000e+02 7.935054779052734375e+01 2.817657947540283203e+00 1.030685147270560265e-03 7.294162750244140625e+00 2.188558101654052734e+00 1.456078514456748962e-02
3.200000000000000000e+02 7.804840850830078125e+01 4.268230438232421875e+00 4.904486704617738724e-03 7.373876571655273438e+00 2.213634252548217773e+00 4.628361761569976807e-02
3.210000000000000000e+02 7.935332489013671875e+01 8.393514633178710938e+00 5.711971898563206196e-04 7.442708015441894531e+00 2.232983827590942383e+00 2.271423675119876862e-02
3.220000000000000000e+02 7.805546569824218750e+01 1.123111629486083984e+01 2.891764510422945023e-03 7.565348148345947266e+00 2.270472049713134766e+00 7.031816989183425903e-02
3.230000000000000000e+02 7.934292602539062500e+01 1.674599838256835938e+01 -8.720436744624748826e-05 7.756606101989746094e+00 2.326955795288085938e+00 2.904132008552551270e-02
3.240000000000000000e+02 7.181349945068359375e+01 2.137364959716796875e+01 -1.489272899925708771e-02 7.860538959503173828e+00 2.353693962097167969e+00 2.520715892314910889e-01
3.250000000000000000e+02 6.190646743774414062e+01 2.922043418884277344e+01 -1.974779516458511353e-01 7.884262084960937500e+00 2.306035280227661133e+00 3.093614876270294189e-01
3.260000000000000000e+02 5.490702056884765625e+01 3.601176834106445312e+01 -4.539971947669982910e-01 7.822895526885986328e+00 2.210669517517089844e+00 1.829553395509719849e-01
3.270000000000000000e+02 5.308810424804687500e+01 4.017898941040039062e+01 -5.233916640281677246e-01 7.795391559600830078e+00 2.181599855422973633e+00 6.443591415882110596e-02
3.280000000000000000e+02 4.844000244140625000e+01 4.000690841674804688e+01 -6.538537740707397461e-01 7.684109210968017578e+00 2.109076738357543945e+00 7.382362335920333862e-02
3.290000000000000000e+02 4.148079299926757812e+01 4.002563095092773438e+01 -8.187968134880065918e-01 7.427849292755126953e+00 1.982715725898742676e+00 5.391360074281692505e-02
3.300000000000000000e+02 4.390488433837890625e+01 2.790951538085937500e+01 -5.451815128326416016e-01 7.610257625579833984e+00 2.119522809982299805e+00 3.522392213344573975e-01
3.310000000000000000e+02 4.346536254882812500e+01 2.276998329162597656e+01 -3.635901212692260742e-01 7.650835990905761719e+00 2.186173915863037109e+00 4.391106963157653809e-01
3.320000000000000000e+02 4.177146911621093750e+01 1.640558815002441406e+01 -4.772113636136054993e-02 7.742628097534179688e+00 2.308471918106079102e+00 4.876286387443542480e-01
3.330000000000000000e+02 4.249531555175781250e+01 8.173195838928222656e+00 4.998080134391784668e-01 7.852931499481201172e+00 2.505821943283081055e+00 5.392924547195434570e-01
3.340000000000000000e+02 4.131583404541015625e+01 4.968978404998779297e+00 7.744824290275573730e-01 7.906535625457763672e+00 2.604305505752563477e+00 5.207827687263488770e-01
3.350000000000000000e+02 1.878571319580078125e+01 -5.585027337074279785e-01 5.528058856725692749e-03 2.736668586730957031e+00 8.226590156555175781e-01 -4.825436174869537354e-01
3.360000000000000000e+02 2.469291877746582031e+01 -5.278286457061767578e+00 5.426573753356933594e+00 1.643508148193359375e+01 6.558496475219726562e+00 2.626084804534912109e+00
3.370000000000000000e+02 2.431970214843750000e+01 -4.738246917724609375e+00 2.097606420516967773e+00 1.740933990478515625e+01 5.852083683013916016e+00 1.062679290771484375e+00
3.380000000000000000e+02 2.683630752563476562e+01 -8.689702033996582031e+00 3.996519804000854492e+00 1.132519149780273438e+01 4.596513748168945312e+00 -1.228552699089050293e+00
3.390000000000000000e+02 3.494377899169921875e+01 -1.644754791259765625e+01 3.895956277847290039e-01 8.379135131835937500e+00 2.630619287490844727e+00 -7.900527119636535645e-01
3.400000000000000000e+02 4.124718093872070312e+01 -2.330223846435546875e+01 -2.889670133590698242e-01 7.971904754638671875e+00 2.304881334304809570e+00 -6.245518922805786133e-01
3.410000000000000000e+02 4.863127517700195312e+01 -2.796855926513671875e+01 -3.596927523612976074e-01 7.924143791198730469e+00 2.269335269927978516e+00 -4.907473325729370117e-01
3.420000000000000000e+02 5.714735031127929688e+01 -4.053036117553710938e+01 -4.422855079174041748e-01 7.950057983398437500e+00 2.252331733703613281e+00 -6.352225691080093384e-02
3.430000000000000000e+02 6.202436065673828125e+01 -4.061429214477539062e+01 -2.903841733932495117e-01 7.916389465332031250e+00 2.287801504135131836e+00 -5.396363511681556702e-02
3.440000000000000000e+02 6.685710906982421875e+01 -4.050978469848632812e+01 -1.636438220739364624e-01 7.889420032501220703e+00 2.317732810974121094e+00 -4.348475113511085510e-02
3.450000000000000000e+02 7.100739288330078125e+01 -3.733615875244140625e+01 -8.649394661188125610e-02 7.880243778228759766e+00 2.338124990463256836e+00 -8.641882985830307007e-02
3.460000000000000000e+02 7.210281372070312500e+01 -3.025329589843750000e+01 -3.847851976752281189e-02 7.799190044403076172e+00 2.328213453292846680e+00 -1.671615988016128540e-01
3.470000000000000000e+02 7.140220642089843750e+01 -2.346125411987304688e+01 -6.097454112023115158e-03 7.686378002166748047e+00 2.304084300994873047e+00 -2.147400379180908203e-01
3.480000000000000000e+02 7.240954589843750000e+01 -1.805697822570800781e+01 2.573629282414913177e-02 7.580899715423583984e+00 2.281990766525268555e+00 -1.821909844875335693e-01
3.490000000000000000e+02 7.145086669921875000e+01 -9.448693275451660156e+00 8.142863214015960693e-02 7.479055881500244141e+00 2.268145322799682617e+00 -9.093444794416427612e-02
3.500000000000000000e+02 7.013729858398437500e+01 -3.943530321121215820e+00 1.182994991540908813e-01 7.479556083679199219e+00 2.279356718063354492e+00 1.218826882541179657e-02
3.510000000000000000e+02 7.289068603515625000e+01 -5.409244537353515625e+00 6.513558328151702881e-02 7.433977603912353516e+00 2.249733924865722656e+00 -1.525041088461875916e-02
3.520000000000000000e+02 6.340212249755859375e+01 -2.567880392074584961e+00 2.895063757896423340e-01 7.530457973480224609e+00 2.345989465713500977e+00 5.880656838417053223e-02
3.530000000000000000e+02 6.730441284179687500e+01 -5.177288532257080078e+00 1.826429516077041626e-01 7.509019374847412109e+00 2.307498693466186523e+00 -1.587446779012680054e-02
3.540000000000000000e+02 6.528701019287109375e+01 -1.207905006408691406e+01 1.797693222761154175e-01 7.564765453338623047e+00 2.323360443115234375e+00 -1.984870284795761108e-01
3.550000000000000000e+02 6.615959930419921875e+01 -1.786379432678222656e+01 8.175291866064071655e-02 7.632471561431884766e+00 2.314267396926879883e+00 -2.786511778831481934e-01
3.560000000000000000e+02 6.629433441162109375e+01 -2.429337692260742188e+01 -2.866521850228309631e-02 7.734792232513427734e+00 2.311838150024414062e+00 -2.995538413524627686e-01
3.570000000000000000e+02 6.533400726318359375e+01 -2.973317337036132812e+01 -1.174150928854942322e-01 7.816376686096191406e+00 2.309688329696655273e+00 -2.620788216590881348e-01
3.580000000000000000e+02 7.282086944580078125e+01 -3.290920257568359375e+01 -4.240741953253746033e-02 7.839461326599121094e+00 2.339116096496582031e+00 -1.292901188135147095e-01
3.590000000000000000e+02 2.549566268920898438e+01 -5.703293323516845703e+00 6.951632022857666016e+00 1.372750663757324219e+01 6.203741550445556641e+00 2.026731252670288086e+00
3.600000000000000000e+02 2.501075744628906250e+01 -7.160397529602050781e+00 8.404839515686035156e+00 1.472379112243652344e+01 6.938589096069335938e+00 -1.219817876815795898e+00
3.610000000000000000e+02 2.385176277160644531e+01 -8.633797645568847656e+00 2.035412311553955078e+00 1.609914207458496094e+01 5.440366268157958984e+00 1.793589115142822266e+00
3.620000000000000000e+02 2.428985214233398438e+01 -8.100018501281738281e+00 3.927282333374023438e+00 1.725019073486328125e+01 6.353241920471191406e+00 -5.053638219833374023e-01
3.630000000000000000e+02 2.890411949157714844e+01 -1.519658851623535156e+01 1.120148301124572754e-01 9.201855659484863281e+00 2.794161081314086914e+00 -2.754097580909729004e-01
3.640000000000000000e+02 3.552901077270507812e+01 -2.308155822753906250e+01 -5.005781054496765137e-01 8.015610694885253906e+00 2.254509925842285156e+00 -4.474154710769653320e-01
3.650000000000000000e+02 4.529950714111328125e+01 -3.286509704589843750e+01 -6.921762228012084961e-01 7.914456367492675781e+00 2.166683912277221680e+00 -3.295300304889678955e-01
3.660000000000000000e+02 4.730136489868164062e+01 -4.058153915405273438e+01 -7.661200165748596191e-01 7.925360202789306641e+00 2.147772073745727539e+00 -6.737399846315383911e-02
3.670000000000000000e+02 2.250300025939941406e+01 -8.157785415649414062e+00 3.728370666503906250e+00 9.965246200561523438e+00 4.108085155487060547e+00 6.066166877746582031e+00
3.680000000000000000e+02 1.990151405334472656e+01 -1.584191036224365234e+01 4.236242175102233887e-01 4.806055545806884766e+00 1.568904042243957520e+00 2.153497219085693359e+00
3.690000000000000000e+02 2.097397804260253906e+01 -2.622619819641113281e+01 -5.352367162704467773e-01 5.060805320739746094e+00 1.357670545578002930e+00 9.394467473030090332e-01
3.700000000000000000e+02 2.251344108581542969e+01 -2.797049713134765625e+01 -6.820927858352661133e-01 5.471796035766601562e+00 1.436910867691040039e+00 7.495798468589782715e-01
3.710000000000000000e+02 2.240229797363281250e+01 -4.046603775024414062e+01 -8.478309512138366699e-01 5.194576263427734375e+00 1.304023504257202148e+00 1.019128113985061646e-01
3.720000000000000000e+02 2.757329177856445312e+01 -4.041313552856445312e+01 -1.024852037429809570e+00 6.170968532562255859e+00 1.543834924697875977e+00 6.354784220457077026e-02
3.730000000000000000e+02 3.263047027587890625e+01 -4.072768402099609375e+01 -1.109024167060852051e+00 7.025517463684082031e+00 1.774948000907897949e+00 -5.865869112312793732e-03
3.740000000000000000e+02 2.850716018676757812e+01 -3.649636077880859375e+01 -1.027781963348388672e+00 6.415750503540039062e+00 1.616390585899353027e+00 1.389369815587997437e-01
3.750000000000000000e+02 3.112703323364257812e+01 -3.008866310119628906e+01 -9.729635119438171387e-01 7.183355331420898438e+00 1.863117575645446777e+00 7.891433686017990112e-02
3.760000000000000000e+02 2.730409240722656250e+01 -2.555498504638671875e+01 -8.426662683486938477e-01 6.955554008483886719e+00 1.833866238594055176e+00 4.219456315040588379e-01
3.770000000000000000e+02 2.573575210571289062e+01 -1.612986755371093750e+01 -3.362517356872558594e-01 8.583889007568359375e+00 2.474291086196899414e+00 8.034597039222717285e-01
3.780000000000000000e+02 1.498599433898925781e+01 -1.269649791717529297e+01 6.813181042671203613e-01 1.238643407821655273e+00 5.759884715080261230e-01 9.085533022880554199e-01
3.790000000000000000e+02 1.236480331420898438e+01 -1.586401367187500000e+01 6.427779793739318848e-01 8.959794044494628906e-01 4.616272151470184326e-01 7.495304942131042480e-01
3.800000000000000000e+02 1.568795490264892578e+01 -2.206910133361816406e+01 9.479127824306488037e-02 3.011916160583496094e+00 9.320122599601745605e-01 1.210715770721435547e+00
3.810000000000000000e+02 1.409835147857666016e+01 -1.542559146881103516e+01 7.027809619903564453e-01 1.449035406112670898e+00 6.455449461936950684e-01 1.018823981285095215e+00
3.820000000000000000e+02 1.883488655090332031e+01 -7.688414573669433594e+00 5.722600221633911133e-01 1.806290447711944580e-01 2.258667200803756714e-01 -3.828106448054313660e-03
3.830000000000000000e+02 1.057723236083984375e+01 -1.777445411682128906e+01 2.843828201293945312e-01 4.999873638153076172e-01 2.353110462427139282e-01 4.676987826824188232e-01
3.840000000000000000e+02 1.177578830718994141e+01 -1.948532676696777344e+01 3.073407113552093506e-01 1.342821121215820312e+00 4.950485527515411377e-01 8.491088151931762695e-01
3.850000000000000000e+02 1.906484365463256836e+00 -2.048966026306152344e+01 1.234232820570468903e-02 -7.422581315040588379e-02 -1.856504566967487335e-02 -7.357952743768692017e-02
3.860000000000000000e+02 6.247782707214355469e+00 -1.621445655822753906e+01 -5.841082334518432617e-02 -9.881740435957908630e-03 -2.048776857554912567e-02 4.401208460330963135e-02
3.870000000000000000e+02 5.070415496826171875e+00 -1.539454746246337891e+01 -4.249045252799987793e-02 1.805365830659866333e-02 -7.331037893891334534e-03 6.903341040015220642e-03
3.880000000000000000e+02 6.966670989990234375e+00 -1.500273418426513672e+01 -1.163714216090738773e-03 -5.947402678430080414e-03 -2.133335219696164131e-03 8.170585148036479950e-03
3.890000000000000000e+02 8.925448417663574219e+00 -1.135412216186523438e+01 -1.131346682086586952e-03 1.027050195261836052e-03 -3.128894968540407717e-05 1.863234327174723148e-03
3.900000000000000000e+02 9.722636222839355469e+00 -1.022350025177001953e+01 1.387900207191705704e-03 1.887587248347699642e-03 9.826462483033537865e-04 -7.902864017523825169e-04
3.910000000000000000e+02 1.223727035522460938e+01 -6.985914230346679688e+00 -1.045303652063012123e-03 -5.726781091652810574e-04 -4.853945283684879541e-04 7.851634291000664234e-04
3.920000000000000000e+02 1.211606216430664062e+01 -5.395295619964599609e+00 -5.431282916106283665e-04 -7.168820593506097794e-04 -3.780031111091375351e-04 6.054893019609153271e-04
3.930000000000000000e+02 1.153508567810058594e+01 -2.792990684509277344e+00 -8.583733870182186365e-05 -6.952423136681318283e-04 -2.343239029869437218e-04 5.878748488612473011e-04
3.940000000000000000e+02 1.245981502532958984e+01 -2.038697719573974609e+00 -2.746019454207271338e-04 -2.435734495520591736e-04 -1.554526243126019835e-04 3.652650048024952412e-04
3.950000000000000000e+02 1.101819992065429688e+01 -1.904170989990234375e+00 1.473581414757063612e-05 -6.313937483355402946e-04 -1.849973778007552028e-04 4.275609971955418587e-04
3.960000000000000000e+02 4.289943218231201172e+00 -1.924067378044128418e+00 2.317094913451001048e-04 -1.760858431225642562e-04 1.668709774094168097e-05 -3.606465907068923116e-05
3.970000000000000000e+02 1.619633555412292480e+00 -1.484553241729736328e+01 -6.698621436953544617e-03 -6.660173647105693817e-03 -4.007638432085514069e-03 -1.014277432113885880e-02
3.980000000000000000e+02 5.273762702941894531e+00 -1.729162025451660156e+01 -1.467678546905517578e-01 7.124131172895431519e-02 -2.265796437859535217e-02 -5.868031294085085392e-04
3.990000000000000000e+02 6.819540858268737793e-01 -2.482353019714355469e+01 6.097532808780670166e-03 -3.113562166690826416e-01 -9.157760441303253174e-02 -4.599869716912508011e-03
4.000000000000000000e+02 7.120724916458129883e-01 -3.190734481811523438e+01 -3.986991359852254391e-04 -1.605911701917648315e-01 -4.829696193337440491e-02 3.143913671374320984e-02
4.010000000000000000e+02 2.842388868331909180e+00 -3.781976318359375000e+01 2.415281161665916443e-02 4.039393365383148193e-01 1.284276396036148071e-01 1.343254148960113525e-01
4.020000000000000000e+02 8.058965802192687988e-01 -3.725559234619140625e+01 1.249861810356378555e-02 1.040166392922401428e-01 3.495457768440246582e-02 5.059191212058067322e-02
4.030000000000000000e+02 6.855668544769287109e+00 -3.103374099731445312e+01 -1.458890736103057861e-02 1.088403701782226562e+00 3.221444189548492432e-01 2.695919573307037354e-01
4.040000000000000000e+02 9.919280052185058594e+00 -2.551400375366210938e+01 1.269514560699462891e-01 1.462030649185180664e+00 4.766946434974670410e-01 5.533390641212463379e-01
4.050000000000000000e+02 1.015302467346191406e+01 -1.893611145019531250e+01 1.392811089754104614e-01 5.379018187522888184e-01 2.031548768281936646e-01 5.100187659263610840e-01
4.060000000000000000e+02 1.741697502136230469e+01 -4.086734008789062500e+01 -5.825249552726745605e-01 3.909832715988159180e+00 9.981923103332519531e-01 8.219127357006072998e-02
4.070000000000000000e+02 1.719869422912597656e+01 -2.825939559936523438e+01 -3.261781334877014160e-01 3.813906908035278320e+00 1.046318650245666504e+00 8.607488870620727539e-01
4.080000000000000000e+02 1.424433231353759766e+01 -2.428881072998046875e+01 4.521347954869270325e-02 2.648669958114624023e+00 8.081650733947753906e-01 1.016397476196289062e+00
4.090000000000000000e+02 4.240748214721679688e+01 -4.073892211914062500e+01 -9.339129328727722168e-01 7.796782493591308594e+00 2.058860778808593750e+00 -5.457032844424247742e-02
4.100000000000000000e+02 3.752593231201171875e+01 -4.080185317993164062e+01 -1.057945966720581055e+00 7.510910987854003906e+00 1.935889482498168945e+00 -2.976408414542675018e-02
4.110000000000000000e+02 3.421164703369140625e+01 -3.076601791381835938e+01 -9.578915834426879883e-01 7.462059020996093750e+00 1.951250195503234863e+00 -1.040465608239173889e-01
4.120000000000000000e+02 3.514664459228515625e+01 -2.540860557556152344e+01 -6.743289232254028320e-01 7.868652820587158203e+00 2.158297061920166016e+00 -3.244229257106781006e-01
4.130000000000000000e+02 4.071617507934570312e+01 -3.048001670837402344e+01 -7.497171759605407715e-01 7.854115486145019531e+00 2.131319522857666016e+00 -3.645885586738586426e-01
4.140000000000000000e+02 7.794511413574218750e+01 -4.162287521362304688e+01 -1.264398219063878059e-03 7.998232364654541016e+00 2.399090290069580078e+00 -3.563880745787173510e-04
4.150000000000000000e+02 7.793604278564453125e+01 -3.687484741210937500e+01 -7.123444695025682449e-03 7.960404396057128906e+00 2.385984182357788086e+00 -2.139884419739246368e-02
4.160000000000000000e+02 7.794369506835937500e+01 -3.049260139465332031e+01 -4.457215778529644012e-03 7.841844558715820312e+00 2.351216316223144531e+00 -5.463397130370140076e-02
4.170000000000000000e+02 7.808013153076171875e+01 -2.359351158142089844e+01 -4.170208994764834642e-04 7.651752471923828125e+00 2.295400619506835938e+00 -6.286117434501647949e-02
4.180000000000000000e+02 7.803323364257812500e+01 -1.666571617126464844e+01 3.026321530342102051e-03 7.455051422119140625e+00 2.237423181533813477e+00 -5.621228367090225220e-02
4.190000000000000000e+02 7.806138610839843750e+01 -9.689952850341796875e+00 5.531043279916048050e-03 7.313263893127441406e+00 2.195638418197631836e+00 -2.823401242494583130e-02
4.200000000000000000e+02 7.808331298828125000e+01 -2.719148635864257812e+00 6.169316824525594711e-03 7.280425548553466797e+00 2.185978412628173828e+00 9.801284410059452057e-03
4.210000000000000000e+02 7.936319732666015625e+01 -5.549134254455566406e+00 1.225726795382797718e-03 7.220956802368164062e+00 2.166654825210571289e+00 -1.798392040655016899e-03
4.220000000000000000e+02 7.796514129638671875e+01 1.955402374267578125e+01 1.434999430784955621e-04 7.860699176788330078e+00 2.358252763748168945e+00 8.202697336673736572e-02
4.230000000000000000e+02 7.926219177246093750e+01 2.372846984863281250e+01 -1.243025064468383789e-03 8.037899017333984375e+00 2.410996675491333008e+00 2.947243303060531616e-02
4.240000000000000000e+02 7.207635498046875000e+01 3.043931388854980469e+01 -5.728547275066375732e-02 8.037882804870605469e+00 2.394179105758666992e+00 1.718323975801467896e-01
4.250000000000000000e+02 6.259967422485351562e+01 4.091924285888671875e+01 -2.591226696968078613e-01 7.946678638458251953e+00 2.306266784667968750e+00 3.482407331466674805e-02
4.260000000000000000e+02 5.786597061157226562e+01 4.070058441162109375e+01 -3.798482418060302734e-01 7.880350589752197266e+00 2.250150680541992188e+00 4.408192634582519531e-02
4.270000000000000000e+02 7.634871673583984375e+01 2.228331375122070312e+01 -4.663210827857255936e-03 7.934094905853271484e+00 2.378829479217529297e+00 1.325960457324981689e-01
4.280000000000000000e+02 7.926681518554687500e+01 2.931785202026367188e+01 -8.260417962446808815e-04 8.222780227661132812e+00 2.466586112976074219e+00 2.288790047168731689e-02
4.290000000000000000e+02 6.703193664550781250e+01 3.786805725097656250e+01 -1.528185755014419556e-01 8.013191223144531250e+00 2.358111858367919922e+00 9.657087922096252441e-02
4.300000000000000000e+02 7.918634033203125000e+01 3.215939331054687500e+01 -5.367868579924106598e-04 8.295998573303222656e+00 2.488638401031494141e+00 1.987230964004993439e-02
4.310000000000000000e+02 7.915244293212890625e+01 3.746201705932617188e+01 -7.875664741732180119e-04 8.384340286254882812e+00 2.515065908432006836e+00 5.520985461771488190e-03
4.320000000000000000e+02 7.099389648437500000e+01 3.758539199829101562e+01 -7.919124513864517212e-02 8.100989341735839844e+00 2.406539440155029297e+00 8.228056877851486206e-02
4.330000000000000000e+02 7.623242187500000000e+01 3.802362060546875000e+01 -2.881836146116256714e-02 8.263776779174804688e+00 2.470487594604492188e+00 3.343215212225914001e-02
4.340000000000000000e+02 3.701873779296875000e+01 4.051315689086914062e+01 -9.228133559226989746e-01 7.135891914367675781e+00 1.863923549652099609e+00 3.022519871592521667e-02
4.350000000000000000e+02 3.958574295043945312e+01 3.556058502197265625e+01 -8.211804032325744629e-01 7.335394382476806641e+00 1.954264283180236816e+00 1.455287486314773560e-01
4.360000000000000000e+02 3.262029266357421875e+01 3.148310470581054688e+01 -8.300439715385437012e-01 6.851541042327880859e+00 1.806449174880981445e+00 6.902937591075897217e-02
4.370000000000000000e+02 3.948737335205078125e+01 2.225652694702148438e+01 -3.930180668830871582e-01 7.560031890869140625e+00 2.150104045867919922e+00 3.761377036571502686e-01
4.380000000000000000e+02 3.720268630981445312e+01 1.357614135742187500e+01 9.273140877485275269e-02 7.826449394226074219e+00 2.375754117965698242e+00 3.535362184047698975e-01
4.390000000000000000e+02 3.323118591308593750e+01 8.650766372680664062e+00 3.557185828685760498e-01 8.198605537414550781e+00 2.566297292709350586e+00 1.108241453766822815e-01
4.400000000000000000e+02 3.417203903198242188e+01 7.205641269683837891e+00 4.631902873516082764e-01 8.327876091003417969e+00 2.637320041656494141e+00 2.360323220491409302e-01
4.410000000000000000e+02 3.228855133056640625e+01 4.071553039550781250e+01 -9.726703763008117676e-01 6.684305191040039062e+00 1.713490366935729980e+00 2.635076176375150681e-03
4.420000000000000000e+02 3.191399765014648438e+01 3.722076034545898438e+01 -9.396009445190429688e-01 6.680552005767822266e+00 1.722285389900207520e+00 1.759606413543224335e-02
4.430000000000000000e+02 3.331367492675781250e+01 2.868522834777832031e+01 -7.488119006156921387e-01 7.013800621032714844e+00 1.879496574401855469e+00 1.088498607277870178e-01
4.440000000000000000e+02 2.905148506164550781e+01 2.733193588256835938e+01 -7.232330441474914551e-01 6.663019657135009766e+00 1.781935930252075195e+00 -7.238820940256118774e-02
4.450000000000000000e+02 2.796595954895019531e+01 1.455188941955566406e+01 2.040455341339111328e-01 7.406505107879638672e+00 2.283165216445922852e+00 -3.446374535560607910e-01
4.460000000000000000e+02 2.795204925537109375e+01 1.154860496520996094e+01 3.518784642219543457e-01 7.703455924987792969e+00 2.416600227355957031e+00 -4.932076334953308105e-01
4.470000000000000000e+02 2.806445503234863281e+01 6.706659793853759766e+00 3.176907002925872803e-01 8.524808883666992188e+00 2.652749776840209961e+00 -6.752528548240661621e-01
4.480000000000000000e+02 1.754519844055175781e+01 4.054166412353515625e+01 -6.322858333587646484e-01 4.093553066253662109e+00 1.038380146026611328e+00 -1.012384817004203796e-01
4.490000000000000000e+02 2.255422210693359375e+01 4.062503051757812500e+01 -8.420124650001525879e-01 5.206352710723876953e+00 1.309302091598510742e+00 -5.480289831757545471e-02
4.500000000000000000e+02 2.131588172912597656e+01 2.978753089904785156e+01 -6.814989447593688965e-01 5.247353076934814453e+00 1.369756221771240234e+00 -4.796881973743438721e-01
4.510000000000000000e+02 2.166847801208496094e+01 2.170053291320800781e+01 -2.904832363128662109e-01 5.962031841278076172e+00 1.701464653015136719e+00 -6.562991142272949219e-01
4.520000000000000000e+02 2.199070930480957031e+01 1.601429557800292969e+01 4.382542073726654053e-01 6.680566787719726562e+00 2.135646343231201172e+00 -8.935004472732543945e-01
4.530000000000000000e+02 2.022427177429199219e+01 9.864767074584960938e+00 1.126892209053039551e+00 7.751832008361816406e+00 2.663617134094238281e+00 -1.785236120223999023e+00
4.540000000000000000e+02 1.810695266723632812e+01 3.668666076660156250e+01 -6.368626952171325684e-01 4.221686363220214844e+00 1.075447082519531250e+00 -2.762055099010467529e-01
4.550000000000000000e+02 1.603869438171386719e+01 2.978147697448730469e+01 -4.311582446098327637e-01 3.871948480606079102e+00 1.032237052917480469e+00 -6.581661701202392578e-01
4.560000000000000000e+02 1.583690834045410156e+01 2.159479141235351562e+01 8.423149585723876953e-03 4.193226337432861328e+00 1.260494828224182129e+00 -1.241141796112060547e+00
4.570000000000000000e+02 1.291037750244140625e+01 1.744998168945312500e+01 1.744701147079467773e+00 1.975745081901550293e+00 1.116133928298950195e+00 -1.713405132293701172e+00
4.580000000000000000e+02 1.496890830993652344e+01 1.578958320617675781e+01 2.143845081329345703e+00 4.397619724273681641e+00 1.962439417839050293e+00 -2.690122127532958984e+00
4.590000000000000000e+02 1.814057159423828125e+01 1.553876018524169922e+01 9.116002321243286133e-01 6.095132350921630859e+00 2.102019786834716797e+00 -1.655794143676757812e+00
4.600000000000000000e+02 1.636222267150878906e+01 1.541277122497558594e+01 1.694900751113891602e+00 5.458820819854736328e+00 2.146116495132446289e+00 -2.378352642059326172e+00
4.610000000000000000e+02 1.800977134704589844e+01 9.074725151062011719e+00 9.023491144180297852e-01 9.302665710449218750e+00 3.061504364013671875e+00 -2.351936817169189453e+00
4.620000000000000000e+02 1.831322097778320312e+01 7.740440845489501953e+00 4.696162939071655273e-01 8.923265457153320312e+00 2.817864418029785156e+00 -1.857389450073242188e+00
4.630000000000000000e+02 1.257612609863281250e+01 4.075793838500976562e+01 -4.023019075393676758e-01 2.969717502593994141e+00 7.702246904373168945e-01 -8.672998100519180298e-02
4.640000000000000000e+02 8.003817558288574219e+00 4.108345413208007812e+01 -1.826127469539642334e-01 1.777483344078063965e+00 4.784612059593200684e-01 -4.312368482351303101e-02
4.650000000000000000e+02 7.672059535980224609e+00 3.233460617065429688e+01 -9.317493438720703125e-02 1.579434275627136230e+00 4.458777904510498047e-01 -3.725286126136779785e-01
4.660000000000000000e+02 5.757613182067871094e+00 2.433963584899902344e+01 1.911045908927917480e-01 5.380342006683349609e-01 2.187416404485702515e-01 -2.374855428934097290e-01
4.670000000000000000e+02 1.043244361877441406e+01 1.888905906677246094e+01 4.919584691524505615e-01 4.797392487525939941e-01 2.915093004703521729e-01 -6.162308454513549805e-01
4.680000000000000000e+02 1.174005126953125000e+01 1.822960472106933594e+01 1.230164527893066406e+00 1.058564305305480957e+00 6.866186261177062988e-01 -1.124998569488525391e+00
4.690000000000000000e+02 1.988547325134277344e+00 4.164974975585937500e+01 -9.950633347034454346e-02 5.511864423751831055e-01 1.355040371417999268e-01 -2.826450951397418976e-02
4.700000000000000000e+02 4.245460987091064453e+00 3.787286376953125000e+01 -1.240300480276346207e-02 8.498472571372985840e-01 2.512332797050476074e-01 -3.669402375817298889e-02
4.710000000000000000e+02 2.079780578613281250e+00 3.595944976806640625e+01 1.553942821919918060e-02 4.467958807945251465e-01 1.387005895376205444e-01 -1.292155385017395020e-01
4.720000000000000000e+02 2.036247014999389648e+00 2.890949249267578125e+01 1.124480366706848145e-02 1.109279468655586243e-01 3.665182739496231079e-02 -1.042814850807189941e-01
4.730000000000000000e+02 1.924845814704895020e+00 2.313453483581542969e+01 2.968501858413219452e-02 -9.076794236898422241e-02 -1.832487806677818298e-02 2.578926086425781250e-02
4.740000000000000000e+02 4.254456520080566406e+00 1.572300148010253906e+01 -5.059551820158958435e-02 3.168033808469772339e-02 -5.674553569406270981e-03 1.459770463407039642e-02
4.750000000000000000e+02 4.883225858211517334e-01 6.427319049835205078e+00 1.531090470962226391e-03 1.428243936970829964e-03 8.878002990968525410e-04 -7.584855193272233009e-04
4.760000000000000000e+02 6.060849189758300781e+00 1.860172748565673828e+00 1.351305254502221942e-04 1.335518463747575879e-04 8.060471009230241179e-05 8.657400612719357014e-04
4.770000000000000000e+02 8.114559173583984375e+00 2.572513103485107422e+00 -8.216277637984603643e-05 5.036688526161015034e-04 1.264518068637698889e-04 1.573885674588382244e-03
4.780000000000000000e+02 9.635638236999511719e+00 1.858244895935058594e+00 3.979071334470063448e-04 2.742049900916754268e-06 1.201947598019614816e-04 -8.059464162215590477e-04
4.790000000000000000e+02 1.392449474334716797e+01 1.747772455215454102e+00 -3.085356438532471657e-04 5.291061243042349815e-04 6.617114559048786759e-05 3.630776336649432778e-05
4.800000000000000000e+02 1.444503879547119141e+01 6.250308513641357422e+00 8.219263399951159954e-04 4.962655366398394108e-04 3.954575513489544392e-04 4.792589170392602682e-04
4.810000000000000000e+02 1.181234264373779297e+01 9.551002502441406250e+00 1.371691934764385223e-03 5.466823000460863113e-03 2.051554620265960693e-03 3.196294419467449188e-03
4.820000000000000000e+02 1.132531166076660156e+01 1.233633232116699219e+01 -5.308991763740777969e-03 -3.910180181264877319e-03 -2.765751676633954048e-03 -6.981960497796535492e-03
4.830000000000000000e+02 1.216833972930908203e+01 1.123131752014160156e+01 4.701503086835145950e-03 5.026638507843017578e-03 2.918442478403449059e-03 2.979297190904617310e-03
4.840000000000000000e+02 9.416604995727539062e+00 1.445572948455810547e+01 -9.369261562824249268e-03 -1.110342983156442642e-02 -6.141807418316602707e-03 -1.794287748634815216e-02
4.850000000000000000e+02 7.870913982391357422e+00 1.688828277587890625e+01 -6.708941608667373657e-02 -1.545737385749816895e-01 -6.649895012378692627e-02 -9.771178662776947021e-02
4.860000000000000000e+02 1.753138899803161621e+00 2.171967506408691406e+01 2.271300554275512695e-02 -1.105748564004898071e-01 -2.635855600237846375e-02 5.867204442620277405e-02
4.870000000000000000e+02 1.148081302642822266e+00 3.848893165588378906e+00 -9.451829246245324612e-04 -1.983025140361860394e-04 -3.430456272326409817e-04 9.218370541930198669e-04
4.880000000000000000e+02 1.325263786315917969e+01 2.469451904296875000e+00 9.131042170338332653e-04 -3.812503418885171413e-04 1.595561625435948372e-04 -4.335785051807761192e-04
4.890000000000000000e+02 2.697171020507812500e+01 -5.219480037689208984e+00 4.999013900756835938e+00 1.144760417938232422e+01 4.933985233306884766e+00 1.604929804801940918e+00
4.900000000000000000e+02 3.423491668701171875e+01 -8.279977798461914062e+00 2.393591165542602539e+00 8.288876533508300781e+00 3.204740285873413086e+00 -4.399794936180114746e-01
4.910000000000000000e+02 4.335853576660156250e+01 -1.434533691406250000e+01 7.301901578903198242e-01 7.794036388397216797e+00 2.557267904281616211e+00 -6.519663333892822266e-01
4.920000000000000000e+02 5.251832962036132812e+01 -2.216514396667480469e+01 1.519315293990075588e-03 7.810160636901855469e+00 2.343503952026367188e+00 -5.291354656219482422e-01
4.930000000000000000e+02 6.062762451171875000e+01 -3.022984695434570312e+01 -2.060461491346359253e-01 7.858848094940185547e+00 2.295840501785278320e+00 -3.166205883026123047e-01
4.940000000000000000e+02 5.561572265625000000e+01 -2.185021591186523438e+01 3.760077804327011108e-02 7.769051074981689453e+00 2.341995477676391602e+00 -4.724107384681701660e-01
4.950000000000000000e+02 5.644743728637695312e+01 -2.555015945434570312e+01 -1.232647299766540527e-01 7.828963756561279297e+00 2.311709642410278320e+00 -4.443601667881011963e-01
4.960000000000000000e+02 6.059337997436523438e+01 -1.717628097534179688e+01 1.649838536977767944e-01 7.655634880065917969e+00 2.346185684204101562e+00 -3.540811538696289062e-01
4.970000000000000000e+02 5.292340469360351562e+01 -1.367339324951171875e+01 4.676444530487060547e-01 7.632878303527832031e+00 2.430156946182250977e+00 -4.158702492713928223e-01
4.980000000000000000e+02 3.390954208374023438e+01 -1.654512643814086914e+00 1.810941815376281738e+00 8.639398574829101562e+00 3.135102272033691406e+00 6.111018061637878418e-01
4.990000000000000000e+02 3.548651885986328125e+01 -3.083064079284667969e+00 1.997608304023742676e+00 8.290618896484375000e+00 3.086468219757080078e+00 4.215475320816040039e-01
5.000000000000000000e+02 5.654555892944335938e+01 -9.216551780700683594e+00 4.804071784019470215e-01 7.558776855468750000e+00 2.411755084991455078e+00 -1.956654340028762817e-01
5.010000000000000000e+02 5.762669754028320312e+01 -7.817785739898681641e+00 4.657126963138580322e-01 7.546914577484130859e+00 2.403788089752197266e+00 -1.370781362056732178e-01
5.020000000000000000e+02 5.593807220458984375e+01 -6.484735488891601562e+00 5.458396673202514648e-01 7.540033340454101562e+00 2.425761938095092773e+00 -9.627425670623779297e-02
5.030000000000000000e+02 4.228578567504882812e+01 -9.455721855163574219e+00 1.299247384071350098e+00 7.716621875762939453e+00 2.704760789871215820e+00 -4.033223688602447510e-01
5.040000000000000000e+02 4.124920654296875000e+01 -8.072187423706054688e+00 1.457974076271057129e+00 7.726331233978271484e+00 2.755291461944580078e+00 -3.025782108306884766e-01
5.050000000000000000e+02 5.808217239379882812e+01 -1.045553302764892578e+01 4.047816097736358643e-01 7.568106651306152344e+00 2.391866445541381836e+00 -2.251126468181610107e-01
5.060000000000000000e+02 5.895420837402343750e+01 -1.604721641540527344e+01 2.240497469902038574e-01 7.646945476531982422e+00 2.361298561096191406e+00 -3.611824214458465576e-01
5.070000000000000000e+02 7.263129425048828125e+01 -1.238428783416748047e+01 5.269360169768333435e-02 7.489703178405761719e+00 2.262719154357910156e+00 -1.233372241258621216e-01
5.080000000000000000e+02 6.464013671875000000e+01 -1.330182933807373047e+01 1.764147877693176270e-01 7.579973220825195312e+00 2.326916456222534180e+00 -2.289967387914657593e-01
5.090000000000000000e+02 4.993240737915039062e+01 -2.071756124496459961e+00 8.572391867637634277e-01 7.560150146484375000e+00 2.525216817855834961e+00 1.357406228780746460e-01
5.100000000000000000e+02 5.249498367309570312e+01 -9.082938194274902344e+00 6.662757992744445801e-01 7.566322803497314453e+00 2.469779729843139648e+00 -2.436211109161376953e-01
5.110000000000000000e+02 2.661392974853515625e+01 -6.006738185882568359e+00 6.136382102966308594e+00 1.127919769287109375e+01 5.224673748016357422e+00 8.720710277557373047e-01
5.120000000000000000e+02 4.033370971679687500e+01 -6.586614131927490234e+00 1.605217099189758301e+00 7.752113819122314453e+00 2.807199239730834961e+00 -1.558529734611511230e-01
5.130000000000000000e+02 2.585179519653320312e+01 -1.018465614318847656e+01 1.645857572555541992e+00 1.191368961334228516e+01 4.067864418029785156e+00 -3.651502728462219238e-01
5.140000000000000000e+02 3.604216384887695312e+01 -1.274746704101562500e+01 1.248580932617187500e+00 8.232248306274414062e+00 2.844248771667480469e+00 -8.219912052154541016e-01
5.150000000000000000e+02 4.880163574218750000e+01 -1.782767295837402344e+01 2.933263182640075684e-01 7.764558792114257812e+00 2.417365550994873047e+00 -5.942089557647705078e-01
5.160000000000000000e+02 4.798305892944335938e+01 -1.523246955871582031e+01 5.101906061172485352e-01 7.719310760498046875e+00 2.468850374221801758e+00 -5.664770603179931641e-01
5.170000000000000000e+02 7.223121643066406250e+01 -1.966761016845703125e+01 1.700376719236373901e-02 7.612643241882324219e+00 2.288894176483154297e+00 -1.945120990276336670e-01
5.180000000000000000e+02 6.464318084716796875e+01 -1.717901992797851562e+01 1.105871945619583130e-01 7.632806777954101562e+00 2.323018312454223633e+00 -2.928789556026458740e-01
5.190000000000000000e+02 7.935063171386718750e+01 -1.251887035369873047e+01 9.824736043810844421e-04 7.313602447509765625e+00 2.194375514984130859e+00 -1.462285965681076050e-02
5.200000000000000000e+02 3.086169052124023438e+01 -2.216684150695800781e+01 -6.519109010696411133e-01 7.960824012756347656e+00 2.192673921585083008e+00 -6.881392747163772583e-02
5.210000000000000000e+02 2.541020202636718750e+01 -2.438838577270507812e+01 -7.647984623908996582e-01 6.677710056304931641e+00 1.773873448371887207e+00 6.601215004920959473e-01
5.220000000000000000e+02 3.633654022216796875e+01 -1.441354084014892578e+01 8.767657279968261719e-01 8.242584228515625000e+00 2.735805034637451172e+00 -8.540524840354919434e-01
5.230000000000000000e+02 4.629131317138671875e+01 -1.844451332092285156e+01 2.689138054847717285e-01 7.828084945678710938e+00 2.429099559783935547e+00 -6.611696481704711914e-01
5.240000000000000000e+02 7.323696899414062500e+01 -2.419933700561523438e+01 -6.764544639736413956e-03 7.691800594329833984e+00 2.305510759353637695e+00 -1.759089082479476929e-01
5.250000000000000000e+02 6.431326293945312500e+01 -2.386907005310058594e+01 -2.463326416909694672e-02 7.740820884704589844e+00 2.314856290817260742e+00 -3.315271437168121338e-01
5.260000000000000000e+02 7.935806274414062500e+01 -2.226459312438964844e+01 -2.329609415028244257e-04 7.601046085357666016e+00 2.280243873596191406e+00 -2.239751629531383514e-02
5.270000000000000000e+02 5.952829718589782715e-01 -1.769665336608886719e+01 -6.483479402959346771e-03 -6.342890858650207520e-02 -2.097371593117713928e-02 -2.232664637267589569e-02
5.280000000000000000e+02 5.555654168128967285e-01 -1.071375274658203125e+01 1.764689222909510136e-04 3.339449176564812660e-03 1.054775435477495193e-03 8.489591418765485287e-04
5.290000000000000000e+02 6.710355877876281738e-01 -2.340314102172851562e+01 3.284898353740572929e-03 -2.910518646240234375e-01 -8.633008599281311035e-02 -1.438372954726219177e-02
5.300000000000000000e+02 1.153121566772460938e+01 -2.239548301696777344e+01 2.402694374322891235e-01 1.555497407913208008e+00 5.387300252914428711e-01 8.031411767005920410e-01
5.310000000000000000e+02 2.839758110046386719e+01 -2.901618957519531250e+01 -9.442317485809326172e-01 6.847877025604248047e+00 1.771093606948852539e+00 2.772822082042694092e-01
5.320000000000000000e+02 2.446221923828125000e+01 -2.984953689575195312e+01 -8.394502997398376465e-01 5.925515651702880859e+00 1.525819540023803711e+00 5.041103363037109375e-01
5.330000000000000000e+02 4.229281616210937500e+01 -2.634208488464355469e+01 -4.814247786998748779e-01 7.935850620269775391e+00 2.236327886581420898e+00 -5.315386056900024414e-01
5.340000000000000000e+02 4.942077636718750000e+01 -2.068852615356445312e+01 8.943448215723037720e-02 7.818484306335449219e+00 2.372375488281250000e+00 -5.978170633316040039e-01
5.350000000000000000e+02 7.935660552978515625e+01 -2.642852210998535156e+01 -1.428862560715060681e-05 7.740221500396728516e+00 2.322062253952026367e+00 -2.183177694678306580e-02
5.360000000000000000e+02 7.034496068954467773e-01 -3.049177169799804688e+01 6.110453512519598007e-03 -2.169601172208786011e-01 -6.325490027666091919e-02 2.561617828905582428e-02
5.370000000000000000e+02 8.725044250488281250e+00 -3.525389099121093750e+01 -1.209264621138572693e-01 1.741413354873657227e+00 4.861460626125335693e-01 2.574120759963989258e-01
5.380000000000000000e+02 3.758261871337890625e+01 -3.409179687500000000e+01 -9.793871045112609863e-01 7.615530490875244141e+00 1.990842938423156738e+00 -1.720818877220153809e-01
5.390000000000000000e+02 5.109966659545898438e+01 -3.211919021606445312e+01 -4.899296462535858154e-01 7.939783573150634766e+00 2.234956264495849609e+00 -3.515594303607940674e-01
5.400000000000000000e+02 5.786542129516601562e+01 -2.950201606750488281e+01 -2.302955240011215210e-01 7.869488239288330078e+00 2.291757822036743164e+00 -3.623974621295928955e-01
5.410000000000000000e+02 7.932473754882812500e+01 -3.338301086425781250e+01 -1.195685006678104401e-03 7.931818485260009766e+00 2.379186868667602539e+00 -1.466032490134239197e-02
5.420000000000000000e+02 7.268544769287109375e+01 4.314806461334228516e+00 5.530650913715362549e-02 7.504528999328613281e+00 2.267950534820556641e+00 1.403967589139938354e-01
5.430000000000000000e+02 7.257752227783203125e+01 8.580600738525390625e+00 4.072006791830062866e-02 7.579515933990478516e+00 2.286070823669433594e+00 1.927483677864074707e-01
5.440000000000000000e+02 6.303924942016601562e+01 1.755345535278320312e+01 1.128793228417634964e-03 7.759699344635009766e+00 2.328248500823974609e+00 4.124324023723602295e-01
5.450000000000000000e+02 5.862728881835937500e+01 2.470127487182617188e+01 -1.735140532255172729e-01 7.822439193725585938e+00 2.294677495956420898e+00 4.067564606666564941e-01
5.460000000000000000e+02 5.186876678466796875e+01 3.332590484619140625e+01 -4.960455894470214844e-01 7.771781921386718750e+00 2.182720899581909180e+00 2.478887736797332764e-01
5.470000000000000000e+02 6.456723022460937500e+01 2.466204404830932617e+00 2.242445796728134155e-01 7.555657863616943359e+00 2.333970785140991211e+00 1.921726316213607788e-01
5.480000000000000000e+02 6.520529937744140625e+01 1.159103107452392578e+01 9.322044998407363892e-02 7.668916702270507812e+00 2.328641176223754883e+00 3.501028120517730713e-01
5.490000000000000000e+02 6.048754882812500000e+01 1.649391746520996094e+01 2.202951535582542419e-02 7.741340637207031250e+00 2.329010963439941406e+00 4.463000297546386719e-01
5.500000000000000000e+02 5.508663558959960938e+01 2.366781616210937500e+01 -2.064924389123916626e-01 7.794375896453857422e+00 2.276365041732788086e+00 4.460501670837402344e-01
5.510000000000000000e+02 5.731204986572265625e+01 4.916980564594268799e-01 4.721513986587524414e-01 7.551716804504394531e+00 2.407160520553588867e+00 1.908957809209823608e-01
5.520000000000000000e+02 5.963579940795898438e+01 8.270170211791992188e+00 2.364556044340133667e-01 7.632477283477783203e+00 2.360679864883422852e+00 3.825400173664093018e-01
5.530000000000000000e+02 4.669274902343750000e+01 1.483815479278564453e+01 7.583155483007431030e-02 7.756466865539550781e+00 2.349689483642578125e+00 5.513681173324584961e-01
5.540000000000000000e+02 4.503345108032226562e+01 2.035979843139648438e+01 -2.202701121568679810e-01 7.710469245910644531e+00 2.247059822082519531e+00 4.915924072265625000e-01
5.550000000000000000e+02 5.340984344482421875e+01 1.286847114562988281e+00 5.956570506095886230e-01 7.570114135742187500e+00 2.449731349945068359e+00 2.622420191764831543e-01
5.560000000000000000e+02 5.028585433959960938e+01 8.208967208862304688e+00 4.154022932052612305e-01 7.684270381927490234e+00 2.429901838302612305e+00 4.934095740318298340e-01
5.570000000000000000e+02 3.949816894531250000e+01 8.811562538146972656e+00 4.480388462543487549e-01 7.961602687835693359e+00 2.522892475128173828e+00 4.914065599441528320e-01
5.580000000000000000e+02 7.254233551025390625e+01 1.138013839721679688e+01 2.942346595227718353e-02 7.636812210083007812e+00 2.299870729446411133e+00 2.162434607744216919e-01
5.590000000000000000e+02 7.261798095703125000e+01 1.647347068786621094e+01 7.542980369180440903e-03 7.753807067871093750e+00 2.328404903411865234e+00 2.393657267093658447e-01
5.600000000000000000e+02 6.382232284545898438e+01 2.703867149353027344e+01 -1.353292018175125122e-01 7.883637428283691406e+00 2.324492454528808594e+00 3.252641856670379639e-01
5.610000000000000000e+02 5.331150054931640625e+01 2.785847663879394531e+01 -3.337978422641754150e-01 7.792458057403564453e+00 2.237597942352294922e+00 3.795233368873596191e-01
5.620000000000000000e+02 6.505826568603515625e+01 1.007405662536621094e+01 1.183781027793884277e-01 7.645976543426513672e+00 2.329306364059448242e+00 3.348519504070281982e-01
5.630000000000000000e+02 6.006887817382812500e+01 1.457330417633056641e+01 6.907121092081069946e-02 7.716549873352050781e+00 2.335686445236206055e+00 4.479876160621643066e-01
5.640000000000000000e+02 5.200222015380859375e+01 1.361257934570312500e+01 1.409906446933746338e-01 7.715008258819580078e+00 2.356799602508544922e+00 5.303153991699218750e-01
5.650000000000000000e+02 3.460239028930664062e+01 1.171994018554687500e+01 1.901576220989227295e-01 7.927904129028320312e+00 2.435418605804443359e+00 2.228503376245498657e-01
5.660000000000000000e+02 2.657512283325195312e+01 1.072039031982421875e+01 4.575716853141784668e-01 7.707944393157958984e+00 2.449654817581176758e+00 -7.055357694625854492e-01
5.670000000000000000e+02 1.988270187377929688e+01 1.109278678894042969e+01 1.137837886810302734e+00 7.504644393920898438e+00 2.592744827270507812e+00 -1.772920608520507812e+00
5.680000000000000000e+02 7.224612426757812500e+01 1.889465713500976562e+01 -2.350822789594531059e-03 7.807418346405029297e+00 2.341520309448242188e+00 2.468791455030441284e-01
5.690000000000000000e+02 6.443197631835937500e+01 2.078541183471679688e+01 -4.660102352499961853e-02 7.810184955596923828e+00 2.329075098037719727e+00 3.803013861179351807e-01
5.700000000000000000e+02 6.103882217407226562e+01 1.836009407043457031e+01 -1.834562607109546661e-02 7.765589714050292969e+00 2.324173212051391602e+00 4.375418722629547119e-01
5.710000000000000000e+02 5.182542800903320312e+01 1.884104728698730469e+01 -8.083434402942657471e-02 7.751433372497558594e+00 2.301179647445678711e+00 5.234635472297668457e-01
5.720000000000000000e+02 3.438463592529296875e+01 1.856288337707519531e+01 -2.141923010349273682e-01 7.508970260620117188e+00 2.188433408737182617e+00 2.081519067287445068e-01
5.730000000000000000e+02 2.763337516784667969e+01 1.735985565185546875e+01 -3.175672143697738647e-02 7.143996238708496094e+00 2.133671760559082031e+00 -2.345333099365234375e-01
5.740000000000000000e+02 2.139747619628906250e+01 1.825244712829589844e+01 1.317791193723678589e-01 6.263757228851318359e+00 1.918660879135131836e+00 -8.071222305297851562e-01
5.750000000000000000e+02 2.666069269180297852e+00 2.094962310791015625e+01 1.494243834167718887e-02 -1.559963915497064590e-03 4.014742095023393631e-03 7.926961779594421387e-02
5.760000000000000000e+02 7.243923950195312500e+01 2.445378494262695312e+01 -3.070514649152755737e-02 7.932632446289062500e+00 2.370578289031982422e+00 2.256660163402557373e-01
5.770000000000000000e+02 6.212849807739257812e+01 2.520553588867187500e+01 -1.361506879329681396e-01 7.849379062652587891e+00 2.313968658447265625e+00 3.684720098972320557e-01
5.780000000000000000e+02 5.767165756225585938e+01 2.863368988037109375e+01 -2.569229602813720703e-01 7.839939594268798828e+00 2.274904966354370117e+00 3.493188023567199707e-01
5.790000000000000000e+02 5.233109283447265625e+01 2.477898216247558594e+01 -2.846871912479400635e-01 7.772848606109619141e+00 2.246448516845703125e+00 4.367572069168090820e-01
5.800000000000000000e+02 3.732880783081054688e+01 2.378464889526367188e+01 -4.877778887748718262e-01 7.427274703979492188e+00 2.081849098205566406e+00 2.965429425239562988e-01
5.810000000000000000e+02 2.772914695739746094e+01 2.559064865112304688e+01 -6.394631266593933105e-01 6.590566635131835938e+00 1.785331130027770996e+00 -1.275057494640350342e-01
5.820000000000000000e+02 1.862488365173339844e+01 2.322706222534179688e+01 -3.061212003231048584e-01 4.999292373657226562e+00 1.407951354980468750e+00 -9.402714371681213379e-01
5.830000000000000000e+02 6.998004436492919922e+00 2.384166908264160156e+01 2.539174556732177734e-01 7.181485891342163086e-01 2.916198074817657471e-01 -3.339130878448486328e-01
5.840000000000000000e+02 7.021962738037109375e+01 3.018119239807128906e+01 -8.189117908477783203e-02 8.002102851867675781e+00 2.376063585281372070e+00 2.020951509475708008e-01
5.850000000000000000e+02 6.338605880737304688e+01 3.423276519775390625e+01 -2.237001955509185791e-01 7.938679695129394531e+00 2.314493894577026367e+00 1.966486573219299316e-01
5.860000000000000000e+02 3.477870178222656250e+01 3.336199569702148438e+01 -8.669084906578063965e-01 7.031242370605468750e+00 1.849300146102905273e+00 1.053775325417518616e-01
5.870000000000000000e+02 2.978679275512695312e+01 3.062461280822753906e+01 -8.140332698822021484e-01 6.608325958251953125e+00 1.738287806510925293e+00 -4.183799400925636292e-02
5.880000000000000000e+02 2.171537637710571289e+00 3.175047492980957031e+01 -4.833080805838108063e-03 2.992433905601501465e-01 8.832309395074844360e-02 -1.102733314037322998e-01
5.890000000000000000e+02 1.531551122665405273e+00 9.095170021057128906e+00 -2.044390188530087471e-03 2.095334464684128761e-03 1.528324537503067404e-05 -2.659006277099251747e-04
5.900000000000000000e+02 1.953153800964355469e+01 -3.206931352615356445e+00 4.995854496955871582e-01 1.310307741165161133e+00 5.429679751396179199e-01 -8.713681101799011230e-01
5.910000000000000000e+02 2.120470428466796875e+01 -4.456742763519287109e+00 1.976414322853088379e+00 2.929425477981567383e+00 1.471751928329467773e+00 -2.508881092071533203e+00
5.920000000000000000e+02 2.157387542724609375e+01 -4.576970577239990234e+00 2.290070533752441406e+00 4.106655120849609375e+00 1.919017672538757324e+00 -3.464979887008666992e+00
5.930000000000000000e+02 2.248989295959472656e+01 -4.718665599822998047e+00 2.059318304061889648e+00 9.618427276611328125e+00 3.503323793411254883e+00 -5.147952079772949219e+00
5.940000000000000000e+02 2.334066772460937500e+01 -4.798300266265869141e+00 6.340880393981933594e-01 1.654881286621093750e+01 5.154870033264160156e+00 -3.440644741058349609e+00
5.950000000000000000e+02 2.375052070617675781e+01 -4.892085552215576172e+00 1.482589960098266602e+00 1.796819877624511719e+01 5.835236549377441406e+00 -6.236422061920166016e-01
5.960000000000000000e+02 1.949902915954589844e+01 -7.700585842132568359e+00 1.204755544662475586e+00 5.871540904045104980e-01 5.375729203224182129e-01 2.875270247459411621e-01
5.970000000000000000e+02 1.764019966125488281e+01 -7.543053150177001953e+00 -5.544037371873855591e-02 -1.026996731758117676e+00 -3.247311115264892578e-01 -3.412549793720245361e-01
5.980000000000000000e+02 1.816481971740722656e+01 -7.583853721618652344e+00 2.583041191101074219e-01 -7.306854426860809326e-02 5.557067692279815674e-02 -9.513881802558898926e-02
5.990000000000000000e+02 1.993809890747070312e+01 -7.717474460601806641e+00 1.789857149124145508e+00 5.955793261528015137e-01 7.156309485435485840e-01 5.549770593643188477e-01
6.000000000000000000e+02 1.654069709777832031e+01 -1.036165428161621094e+01 4.863112270832061768e-01 4.215929508209228516e-01 2.723712623119354248e-01 5.557833313941955566e-01
6.010000000000000000e+02 1.414421844482421875e+01 -1.378406333923339844e+01 7.660595178604125977e-01 1.234171152114868164e+00 6.000691652297973633e-01 9.443008303642272949e-01
6.020000000000000000e+02 1.146586227416992188e+01 -1.686568260192871094e+01 6.053411364555358887e-01 7.352217435836791992e-01 4.021688699722290039e-01 6.391182541847229004e-01
6.030000000000000000e+02 7.468748569488525391e+00 -1.374122047424316406e+01 -8.664333727210760117e-04 8.579810149967670441e-03 2.314013196155428886e-03 2.701145596802234650e-03
6.040000000000000000e+02 1.140623378753662109e+01 -8.055870056152343750e+00 1.133386278524994850e-03 9.341411641798913479e-04 6.202582153491675854e-04 -8.438577642664313316e-04
6.050000000000000000e+02 1.057296848297119141e+01 -3.326345920562744141e+00 1.570696040289476514e-04 -8.796417387202382088e-04 -2.167716447729617357e-04 2.868041337933391333e-04
6.060000000000000000e+02 1.313453960418701172e+01 -2.064844846725463867e+00 2.462893316987901926e-04 1.391191035509109497e-04 1.156225262093357742e-04 -2.521038113627582788e-04
6.070000000000000000e+02 1.493306922912597656e+01 -2.300327539443969727e+00 -1.847672247095033526e-04 -1.347995421383529902e-04 -9.587002568878233433e-05 1.318898575846105814e-04
6.080000000000000000e+02 1.435534191131591797e+01 -2.174657583236694336e+00 1.176098230644129217e-04 1.429197145625948906e-04 7.815886056050658226e-05 -1.513942843303084373e-04
6.090000000000000000e+02 1.375485134124755859e+01 -2.096826553344726562e+00 -1.673818915151059628e-04 -1.002923308988101780e-04 -8.030227036215364933e-05 1.839916803874075413e-04
6.100000000000000000e+02 1.174009037017822266e+01 -1.978413105010986328e+00 1.704350579530000687e-04 4.892547731287777424e-04 1.979069493245333433e-04 -5.086311139166355133e-04
6.110000000000000000e+02 1.029496955871582031e+01 -1.838415145874023438e+00 -6.462085480052337516e-07 6.641601794399321079e-04 1.990541932173073292e-04 -3.625456301961094141e-04
6.120000000000000000e+02 9.560366630554199219e+00 -1.809199094772338867e+00 2.346849396417383105e-05 -5.604677135124802589e-04 -1.610997715033590794e-04 1.833169953897595406e-04
6.130000000000000000e+02 8.815871238708496094e+00 -1.815966725349426270e+00 1.057076151482760906e-04 4.915354074910283089e-04 1.791729155229404569e-04 -1.538591750431805849e-04
6.140000000000000000e+02 7.318612575531005859e+00 -1.852187871932983398e+00 2.344789681956171989e-04 2.761752111837267876e-04 1.531962479930371046e-04 -1.379786044708453119e-05
6.150000000000000000e+02 5.806802749633789062e+00 -1.882489323616027832e+00 1.957714557647705078e-04 1.347827492281794548e-04 9.916626004269346595e-05 4.525831172941252589e-05
6.160000000000000000e+02 3.527319192886352539e+00 -1.968019604682922363e+00 -1.531728048576042056e-05 1.475307653890922666e-04 3.966404619859531522e-05 1.083576862583868206e-04
6.170000000000000000e+02 5.049002647399902344e+00 -1.898622989654541016e+00 3.522611223161220551e-05 -6.529331585625186563e-05 -9.020161087391898036e-06 2.874109304684679955e-05
6.180000000000000000e+02 4.458475589752197266e+00 -2.750681877136230469e+00 -1.213691284647211432e-04 5.805370892630890012e-05 -1.899462586152367294e-05 7.032017947494750842e-06
6.190000000000000000e+02 2.765056610107421875e+00 -2.030752658843994141e+00 2.258693275507539511e-04 -1.162256885436363518e-04 3.289309097453951836e-05 -4.247945526003604755e-06
6.200000000000000000e+02 1.994244694709777832e+00 -2.085526943206787109e+00 -2.056951489066705108e-04 1.376401341985911131e-04 -2.041650259343441576e-05 3.217410703655332327e-04
6.210000000000000000e+02 1.210398554801940918e+00 -2.146692276000976562e+00 1.863225188571959734e-04 1.039283233694732189e-04 8.707524830242618918e-05 -1.877397880889475346e-04
6.220000000000000000e+02 2.040356159210205078e+00 -4.162104415893554688e+01 -9.878797084093093872e-02 3.221915066242218018e-01 6.702106446027755737e-02 2.797421440482139587e-02
6.230000000000000000e+02 6.285333633422851562e+00 -3.791521453857421875e+01 -7.755220681428909302e-02 1.214648365974426270e+00 3.411288559436798096e-01 8.857476711273193359e-02
6.240000000000000000e+02 1.026216626167297363e+00 -3.862321472167968750e+01 -1.273566624149680138e-03 1.862419694662094116e-01 5.549051985144615173e-02 5.407523363828659058e-02
6.250000000000000000e+02 6.107996702194213867e-01 -3.475139236450195312e+01 -8.093151263892650604e-03 -5.359360948204994202e-02 -1.850602775812149048e-02 2.029575407505035400e-02
6.260000000000000000e+02 7.338723540306091309e-01 -3.336267852783203125e+01 -2.071695635095238686e-03 -1.006511598825454712e-01 -3.081685677170753479e-02 2.903090603649616241e-02
6.270000000000000000e+02 6.896803379058837891e-01 -2.907460212707519531e+01 9.850094793364405632e-04 -2.612550258636474609e-01 -7.808100432157516479e-02 1.843423768877983093e-02
6.280000000000000000e+02 6.822370290756225586e-01 -2.765882492065429688e+01 4.249117337167263031e-03 -2.932730317115783691e-01 -8.670717477798461914e-02 1.297915168106555939e-02
6.290000000000000000e+02 6.827204823493957520e-01 -2.624274826049804688e+01 3.314542351290583611e-03 -3.114271163940429688e-01 -9.243377298116683960e-02 5.112370476126670837e-03
6.300000000000000000e+02 6.541492342948913574e-01 -2.198170661926269531e+01 6.047412753105163574e-03 -2.494577169418334961e-01 -7.302308827638626099e-02 -2.421746030449867249e-02
6.310000000000000000e+02 1.955800056457519531e+00 -2.193452644348144531e+01 1.563475094735622406e-02 -9.057211875915527344e-02 -2.248121052980422974e-02 -5.529612302780151367e-02
6.320000000000000000e+02 5.491763949394226074e-01 -1.629251289367675781e+01 -2.658827928826212883e-03 -2.105764485895633698e-02 -7.114941719919443130e-03 -1.029035635292530060e-02
6.330000000000000000e+02 5.387789011001586914e-01 -1.490010261535644531e+01 -2.392614027485251427e-03 -2.007309813052415848e-03 -1.319977105595171452e-03 -3.649404272437095642e-03
6.340000000000000000e+02 5.480349063873291016e-01 -1.350915241241455078e+01 2.314395824214443564e-04 3.632399719208478928e-03 1.159151783213019371e-03 -6.617979379370808601e-04
6.350000000000000000e+02 3.946289777755737305e+00 -1.364912223815917969e+01 -1.050705555826425552e-02 6.262732786126434803e-04 -2.964234678074717522e-03 -2.761295763775706291e-03
6.360000000000000000e+02 5.431637763977050781e-01 -9.314681053161621094e+00 2.494333311915397644e-04 2.072544069960713387e-03 6.965931970626115799e-04 2.221296163043007255e-04
6.370000000000000000e+02 5.350250601768493652e-01 -7.917985439300537109e+00 -3.218520723748952150e-04 1.097916509024798870e-03 2.328193222638219595e-04 4.399367026053369045e-04
6.380000000000000000e+02 5.408008694648742676e-01 -6.522396564483642578e+00 4.912879085168242455e-04 5.843805847689509392e-04 3.227005654480308294e-04 3.897661736118607223e-05
6.390000000000000000e+02 7.362933349609375000e+01 -3.781536865234375000e+01 -5.164411291480064392e-02 7.894873619079589844e+00 2.352968692779541016e+00 -5.949100106954574585e-02
6.400000000000000000e+02 5.222454071044921875e+01 -4.047334671020507812e+01 -6.007783412933349609e-01 7.959383010864257812e+00 2.207581520080566406e+00 -6.650994718074798584e-02
6.410000000000000000e+02 1.266000938415527344e+01 -4.100268554687500000e+01 -3.422705531120300293e-01 2.714932203292846680e+00 7.117984890937805176e-01 6.435213238000869751e-02
6.420000000000000000e+02 7.859732055664062500e+01 4.024886703491210938e+01 -5.772457923740148544e-03 8.372116088867187500e+00 2.509903192520141602e+00 -1.206029951572418213e-02
6.430000000000000000e+02 7.805245208740234375e+01 4.173886489868164062e+01 1.641037315130233765e-02 8.363548278808593750e+00 2.513987541198730469e+00 -4.569752141833305359e-03
6.440000000000000000e+02 7.877516937255859375e+01 3.878943252563476562e+01 -1.057512406259775162e-02 8.381844520568847656e+00 2.511380910873413086e+00 -4.541942384093999863e-03
6.450000000000000000e+02 7.775032043457031250e+01 3.664331817626953125e+01 -9.754899889230728149e-03 8.299884796142578125e+00 2.487038850784301758e+00 3.385524079203605652e-02
6.460000000000000000e+02 7.917007446289062500e+01 3.493630599975585938e+01 -4.598002415150403976e-03 8.352867126464843750e+00 2.504480600357055664e+00 1.470530405640602112e-02
6.470000000000000000e+02 7.744886016845703125e+01 3.377426528930664062e+01 -7.258878089487552643e-03 8.248236656188964844e+00 2.472293376922607422e+00 4.842353984713554382e-02
6.480000000000000000e+02 7.916501617431640625e+01 3.355777740478515625e+01 -8.062761626206338406e-04 8.325865745544433594e+00 2.497518062591552734e+00 1.881723664700984955e-02
6.490000000000000000e+02 7.924188995361328125e+01 3.073743057250976562e+01 -9.156591841019690037e-04 8.261715888977050781e+00 2.478240251541137695e+00 2.125273458659648895e-02
6.500000000000000000e+02 7.627802276611328125e+01 2.819487953186035156e+01 -1.540604606270790100e-02 8.102817535400390625e+00 2.426223278045654297e+00 1.089959368109703064e-01
6.510000000000000000e+02 7.924819946289062500e+01 2.651601791381835938e+01 -2.246411051601171494e-03 8.136377334594726562e+00 2.440239191055297852e+00 2.712852507829666138e-02
6.520000000000000000e+02 7.594261169433593750e+01 2.521724700927734375e+01 -1.071937102824449539e-02 8.012756347656250000e+00 2.400611162185668945e+00 1.343027204275131226e-01
6.530000000000000000e+02 7.924878692626953125e+01 2.512492179870605469e+01 4.668134497478604317e-04 8.088311195373535156e+00 2.426633358001708984e+00 2.866204828023910522e-02
6.540000000000000000e+02 7.930842590332031250e+01 2.093008995056152344e+01 2.470008039381355047e-04 7.928238391876220703e+00 2.378545522689819336e+00 3.015811927616596222e-02
6.550000000000000000e+02 7.932349395751953125e+01 1.953324699401855469e+01 -1.174694625660777092e-04 7.871193408966064453e+00 2.361322641372680664e+00 3.009229153394699097e-02
6.560000000000000000e+02 7.933477783203125000e+01 1.813872528076171875e+01 6.181085482239723206e-04 7.813781738281250000e+00 2.344319820404052734e+00 2.952536568045616150e-02
6.570000000000000000e+02 7.935125732421875000e+01 1.396395015716552734e+01 9.492978279013186693e-05 7.644578933715820312e+00 2.293402194976806641e+00 2.762981504201889038e-02
6.580000000000000000e+02 7.935274505615234375e+01 1.257067108154296875e+01 7.432660204358398914e-04 7.590670108795166016e+00 2.277424097061157227e+00 2.667888253927230835e-02
6.590000000000000000e+02 7.935374450683593750e+01 1.117839336395263672e+01 3.452286473475396633e-04 7.538745403289794922e+00 2.261727094650268555e+00 2.556616440415382385e-02
6.600000000000000000e+02 7.935236358642578125e+01 7.000568389892578125e+00 1.035513239912688732e-03 7.399489402770996094e+00 2.220157623291015625e+00 2.093465253710746765e-02
6.610000000000000000e+02 7.935092163085937500e+01 5.606698513031005859e+00 7.757529383525252342e-04 7.360103607177734375e+00 2.208263874053955078e+00 1.903236471116542816e-02
6.620000000000000000e+02 7.935012054443359375e+01 4.212726593017578125e+00 1.174860633909702301e-03 7.324861049652099609e+00 2.197810888290405273e+00 1.689276844263076782e-02
6.630000000000000000e+02 7.935506439208984375e+01 3.004311025142669678e-02 1.178830978460609913e-03 7.247666358947753906e+00 2.174653530120849609e+00 9.392198175191879272e-03
6.640000000000000000e+02 7.935814666748046875e+01 -1.365235090255737305e+00 1.329946098849177361e-03 7.232423782348632812e+00 2.170125961303710938e+00 6.634612567722797394e-03
6.650000000000000000e+02 7.808879089355468750e+01 -4.113323688507080078e+00 6.081223953515291214e-03 7.276508331298828125e+00 2.184776782989501953e+00 2.087803091853857040e-03
6.660000000000000000e+02 7.936325073242187500e+01 -4.154517173767089844e+00 1.342182047665119171e-03 7.218947887420654297e+00 2.166086912155151367e+00 9.926388738676905632e-04
6.670000000000000000e+02 7.935835266113281250e+01 -8.335492134094238281e+00 1.192302326671779156e-03 7.242269515991210938e+00 2.173038482666015625e+00 -7.347514852881431580e-03
6.680000000000000000e+02 7.805300903320312500e+01 -1.108676052093505859e+01 5.182358901947736740e-03 7.334220886230468750e+00 2.201821088790893555e+00 -3.511191904544830322e-02
6.690000000000000000e+02 7.935206604003906250e+01 -1.112452793121337891e+01 1.067618839442729950e-03 7.285060405731201172e+00 2.185838460922241211e+00 -1.239194162189960480e-02
6.700000000000000000e+02 7.934942626953125000e+01 -1.530425071716308594e+01 8.094233926385641098e-04 7.382866382598876953e+00 2.215102672576904297e+00 -1.840957440435886383e-02
6.710000000000000000e+02 7.803140258789062500e+01 -1.806346130371093750e+01 2.206947654485702515e-03 7.492115020751953125e+00 2.248296499252319336e+00 -5.919949710369110107e-02
6.720000000000000000e+02 7.934783935546875000e+01 -1.809381675720214844e+01 6.196197355166077614e-04 7.464855194091796875e+00 2.239642381668090820e+00 -2.110489085316658020e-02
6.730000000000000000e+02 7.936047363281250000e+01 -2.365330123901367188e+01 1.886384561657905579e-04 7.647803306579589844e+00 2.294397592544555664e+00 -2.238709852099418640e-02
6.740000000000000000e+02 7.808212280273437500e+01 -2.496589469909667969e+01 -6.588567630387842655e-04 7.692443847656250000e+00 2.307535409927368164e+00 -6.205143406987190247e-02
6.750000000000000000e+02 7.936045074462890625e+01 -2.504157447814941406e+01 -3.318944945931434631e-04 7.694383144378662109e+00 2.308215379714965820e+00 -2.217366546392440796e-02
6.760000000000000000e+02 7.933232116699218750e+01 -2.920810699462890625e+01 -3.433384408708661795e-04 7.827267169952392578e+00 2.348077297210693359e+00 -2.065378054976463318e-02
6.770000000000000000e+02 7.790702819824218750e+01 -3.190468215942382812e+01 -5.435746628791093826e-03 7.874269485473632812e+00 2.360650062561035156e+00 -4.944735392928123474e-02
6.780000000000000000e+02 7.931243896484375000e+01 -3.199909210205078125e+01 -1.078443834558129311e-03 7.901304721832275391e+00 2.370067834854125977e+00 -1.700370013713836670e-02
6.790000000000000000e+02 7.935751342773437500e+01 -3.609510040283203125e+01 -6.687070708721876144e-04 7.976871967315673828e+00 2.392860889434814453e+00 -8.315061219036579132e-03
6.800000000000000000e+02 7.925474548339843750e+01 -3.740652465820312500e+01 -2.154412446543574333e-03 7.989239215850830078e+00 2.396125555038452148e+00 -4.928311798721551895e-03
6.810000000000000000e+02 7.901091003417968750e+01 -3.869709014892578125e+01 4.917160185868851840e-05 7.995527267456054688e+00 2.398672819137573242e+00 -3.868131898343563080e-03
6.820000000000000000e+02 7.862570953369140625e+01 -4.004433441162109375e+01 -2.358084777370095253e-03 7.997897624969482422e+00 2.398661851882934570e+00 -1.688348478637635708e-03
6.830000000000000000e+02 1.183451080322265625e+01 3.760818862915039062e+01 -3.610871732234954834e-01 2.781935214996337891e+00 7.262544631958007812e-01 -2.400042563676834106e-01
6.840000000000000000e+02 2.744800567626953125e+01 4.068434143066406250e+01 -9.456431865692138672e-01 6.021112918853759766e+00 1.522640943527221680e+00 -2.290316857397556305e-02
6.850000000000000000e+02 4.504949569702148438e+01 3.798110198974609375e+01 -7.225402593612670898e-01 7.583096981048583984e+00 2.058166980743408203e+00 1.050350591540336609e-01
6.860000000000000000e+02 1.123109936714172363e+00 1.942806005477905273e+00 2.307861577719449997e-04 4.294989921618252993e-04 1.980855449801310897e-04 -6.450779619626700878e-04
6.870000000000000000e+02 3.175569772720336914e+00 2.727038383483886719e+00 1.055172178894281387e-03 -2.095632662530988455e-04 2.536826650612056255e-04 -1.254564383998513222e-03
6.880000000000000000e+02 5.297333240509033203e+00 2.609211921691894531e+00 -2.951340138679370284e-05 6.355632649501785636e-05 1.021287880575982854e-05 9.059734875336289406e-04
6.890000000000000000e+02 1.494598388671875000e+00 6.369228839874267578e+00 -1.370172365568578243e-03 1.171042211353778839e-03 -5.973903898848220706e-05 4.271924262866377831e-04
6.900000000000000000e+02 5.129219293594360352e-01 9.216710090637207031e+00 2.702529076486825943e-03 3.575385781005024910e-03 1.883374410681426525e-03 -1.052948762662708759e-03
6.910000000000000000e+02 5.765595436096191406e-01 1.201207065582275391e+01 2.890209201723337173e-03 5.821785423904657364e-03 2.613598480820655823e-03 -6.412713555619120598e-04
6.920000000000000000e+02 1.741953730583190918e+00 1.179489421844482422e+01 -3.945704549551010132e-03 1.190040959045290947e-03 -8.266990189440548420e-04 6.196532049216330051e-04
6.930000000000000000e+02 6.279793381690979004e-01 1.765250968933105469e+01 -9.305085986852645874e-04 -7.712499797344207764e-02 -2.341665141284465790e-02 2.285583689808845520e-02
6.940000000000000000e+02 7.757568359375000000e+00 1.851067543029785156e+01 -1.903612464666366577e-01 -3.377636522054672241e-02 -6.724128127098083496e-02 -8.773346245288848877e-02
6.950000000000000000e+02 5.887854695320129395e-01 2.191707992553710938e+01 7.125800941139459610e-03 -2.721405923366546631e-01 -7.950443774461746216e-02 2.287270501255989075e-02
6.960000000000000000e+02 6.325205564498901367e-01 2.333474922180175781e+01 2.602415392175316811e-03 -3.120280802249908447e-01 -9.282770007848739624e-02 1.266537327319383621e-02
6.970000000000000000e+02 6.458714604377746582e-01 2.477103042602539062e+01 1.135293766856193542e-02 -3.207602798938751221e-01 -9.282220900058746338e-02 -3.692506579682230949e-03
6.980000000000000000e+02 6.767126321792602539e-01 2.901866340637207031e+01 -1.959746470674872398e-03 -1.773400157690048218e-01 -5.378992855548858643e-02 -3.587393835186958313e-02
6.990000000000000000e+02 6.987376809120178223e-01 3.043088722229003906e+01 3.079530084505677223e-03 -1.016496643424034119e-01 -2.957103960216045380e-02 -3.754205256700515747e-02
7.000000000000000000e+02 2.097505092620849609e+00 3.031724548339843750e+01 -2.662575105205178261e-03 2.036651074886322021e-01 6.030076369643211365e-02 -1.138349175453186035e-01
7.010000000000000000e+02 7.215209007263183594e-01 3.184945678710937500e+01 -2.624927321448922157e-03 -2.723939716815948486e-02 -8.959297090768814087e-03 -3.757354617118835449e-02
7.020000000000000000e+02 6.952611207962036133e-01 3.605937194824218750e+01 -1.016286294907331467e-02 2.028236389160156250e-01 5.779823288321495056e-02 -3.417824581265449524e-02
7.030000000000000000e+02 2.288610219955444336e+00 3.823444747924804688e+01 2.486751601099967957e-02 5.687664151191711426e-01 1.780901849269866943e-01 -1.215815097093582153e-01
7.040000000000000000e+02 8.548383712768554688e-01 3.876713180541992188e+01 -1.837204210460186005e-02 4.022276103496551514e-01 1.151566728949546814e-01 -5.268197506666183472e-02
7.050000000000000000e+02 1.230280160903930664e+00 4.011164474487304688e+01 4.049756377935409546e-02 5.070855617523193359e-01 1.642749309539794922e-01 -8.333731442689895630e-02
7.060000000000000000e+02 1.037496566772460938e+01 1.846789598464965820e+00 2.685061772353947163e-04 -1.981360692298039794e-04 2.111102912749629468e-05 1.010109786875545979e-03
7.070000000000000000e+02 8.915299415588378906e+00 1.857168912887573242e+00 1.594799978192895651e-04 8.848709694575518370e-05 7.439012551913037896e-05 1.249949447810649872e-03
7.080000000000000000e+02 8.200427055358886719e+00 1.855189681053161621e+00 7.100399816408753395e-04 -3.207512490916997194e-04 1.167866139439865947e-04 -9.723370894789695740e-04
7.090000000000000000e+02 7.487590312957763672e+00 1.854294896125793457e+00 1.245633611688390374e-04 1.973699691006913781e-04 9.657999908085912466e-05 1.134923310019075871e-03
7.100000000000000000e+02 5.346264839172363281e+00 1.867425918579101562e+00 7.836421718820929527e-04 -2.944698790088295937e-04 1.467516849515959620e-04 -1.033710548654198647e-03
7.110000000000000000e+02 4.632069110870361328e+00 1.878030776977539062e+00 3.834104427369311452e-05 9.481905726715922356e-05 3.994803046225570142e-05 6.144648068584501743e-04
7.120000000000000000e+02 3.918349981307983398e+00 1.889647126197814941e+00 7.822780753485858440e-04 -2.152782835764810443e-04 1.700999273452907801e-04 -1.004871330223977566e-03
7.130000000000000000e+02 3.209337472915649414e+00 1.896644353866577148e+00 -2.719844633247703314e-04 2.544161980040371418e-04 -5.270482233754592016e-06 3.401268622837960720e-04
7.140000000000000000e+02 2.511444330215454102e+00 1.894555926322937012e+00 5.892560584470629692e-04 -8.716297452338039875e-05 1.506279222667217255e-04 -6.393664516508579254e-04
7.150000000000000000e+02 1.818780660629272461e+00 1.893517851829528809e+00 -1.137251238105818629e-04 2.660361133166588843e-05 -2.613645301607903093e-05 2.084369625663384795e-04
7.160000000000000000e+02 1.263383483886718750e+01 1.760327577590942383e+00 3.979931643698364496e-04 -1.269365166081115603e-04 8.131698996294289827e-05 -4.689812340075150132e-05
7.170000000000000000e+02 1.331466197967529297e+01 1.737620949745178223e+00 1.944484538398683071e-04 1.223649305757135153e-04 9.504401532467454672e-05 6.958317244425415993e-04
7.180000000000000000e+02 1.513074398040771484e+01 1.858816027641296387e+00 2.446165599394589663e-04 -9.264822001568973064e-04 -2.045596920652315021e-04 -9.603145299479365349e-04
7.190000000000000000e+02 1.339782714843750000e+01 3.109451532363891602e+00 -8.305039373226463795e-04 -2.005530288442969322e-03 -8.508102619089186192e-04 -1.646766177145764232e-04
7.200000000000000000e+02 1.475495243072509766e+01 3.606561422348022461e+00 -3.773678618017584085e-04 -3.590764245018362999e-04 -2.209332888014614582e-04 5.714762373827397823e-04
7.210000000000000000e+02 1.405228424072265625e+01 7.552157402038574219e+00 -1.530621550045907497e-03 1.875818124972283840e-04 -4.029119154438376427e-04 -9.720092639327049255e-04
7.220000000000000000e+02 1.351544284820556641e+01 8.814661979675292969e+00 2.338306279852986336e-03 1.817566342651844025e-03 1.246761763468384743e-03 1.219659112393856049e-03
7.230000000000000000e+02 1.288337421417236328e+01 1.004483413696289062e+01 -3.141916589811444283e-03 -5.801655352115631104e-04 -1.116624567657709122e-03 -2.809164347127079964e-03
7.240000000000000000e+02 1.029130744934082031e+01 1.166680908203125000e+01 6.981756450841203332e-05 1.316113118082284927e-02 3.969284705817699432e-03 4.318953957408666611e-03
7.250000000000000000e+02 9.397379875183105469e+00 1.270621871948242188e+01 6.491549720522016287e-05 -1.278550550341606140e-02 -3.816177137196063995e-03 -4.982651211321353912e-03
7.260000000000000000e+02 8.452085494995117188e+00 1.556984424591064453e+01 2.324573695659637451e-02 2.669636346399784088e-02 1.498263049870729446e-02 1.707813143730163574e-02
7.270000000000000000e+02 1.577343654632568359e+01 1.719532394409179688e+01 8.467972278594970703e-01 4.750724792480468750e+00 1.679256558418273926e+00 -1.806873440742492676e+00
7.280000000000000000e+02 1.669946289062500000e+01 1.288148689270019531e+01 1.406314134597778320e+00 6.797488212585449219e+00 2.461140632629394531e+00 -2.991640329360961914e+00
7.290000000000000000e+02 1.715652656555175781e+01 1.164631271362304688e+01 1.422907829284667969e+00 7.618562221527099609e+00 2.712440967559814453e+00 -3.031014442443847656e+00
7.300000000000000000e+02 1.761863327026367188e+01 1.037970924377441406e+01 1.236282348632812500e+00 8.749892234802246094e+00 2.995852231979370117e+00 -2.891397714614868164e+00
7.310000000000000000e+02 1.858104133605957031e+01 6.394732475280761719e+00 3.982678651809692383e-01 8.695357322692871094e+00 2.728087663650512695e+00 -1.556524515151977539e+00
7.320000000000000000e+02 1.881788444519042969e+01 5.032019615173339844e+00 2.952582240104675293e-01 8.351047515869140625e+00 2.593891859054565430e+00 -1.241341590881347656e+00
7.330000000000000000e+02 1.885661125183105469e+01 7.570885419845581055e-01 4.603425040841102600e-02 4.389156341552734375e+00 1.330557107925415039e+00 -5.627036094665527344e-01
7.340000000000000000e+02 2.002028083801269531e+01 -4.086678981781005859e+00 9.502553939819335938e-01 1.323249220848083496e+00 6.820514202117919922e-01 -8.627517223358154297e-01
7.350000000000000000e+02 1.918622398376464844e+01 -3.835191965103149414e+00 3.558096289634704590e-01 3.450134992599487305e-01 2.102469354867935181e-01 -2.807189226150512695e-01
7.360000000000000000e+02 1.905283737182617188e+01 -2.690156221389770508e+00 8.558497577905654907e-02 7.349084615707397461e-01 2.461480200290679932e-01 -6.316567659378051758e-01
7.370000000000000000e+02 1.879536628723144531e+01 -1.794990539550781250e+00 -6.471836240962147713e-04 1.102094411849975586e+00 3.304341733455657959e-01 -4.725901186466217041e-01
7.380000000000000000e+02 2.057715797424316406e+01 -4.266676425933837891e+00 1.429478645324707031e+00 1.898356795310974121e+00 9.983506202697753906e-01 -1.505985617637634277e+00
7.390000000000000000e+02 2.213190841674804688e+01 -4.708062648773193359e+00 2.384991884231567383e+00 6.415441513061523438e+00 2.640130043029785156e+00 -4.394389152526855469e+00
7.400000000000000000e+02 2.269942283630371094e+01 -4.725129127502441406e+00 1.717536330223083496e+00 1.134361553192138672e+01 3.918345451354980469e+00 -4.856904029846191406e+00
7.410000000000000000e+02 2.204213523864746094e+01 -4.175094127655029297e+00 1.550822377204895020e+00 6.705621242523193359e+00 2.476933002471923828e+00 -4.009059906005859375e+00
7.420000000000000000e+02 2.098360252380371094e+01 -4.456453323364257812e+00 1.820411562919616699e+00 2.495606422424316406e+00 1.294805407524108887e+00 -2.185587406158447266e+00
7.430000000000000000e+02 2.291663551330566406e+01 -4.750832080841064453e+00 1.230945587158203125e+00 1.352265262603759766e+01 4.426079273223876953e+00 -4.746238231658935547e+00
7.440000000000000000e+02 2.185119819641113281e+01 -4.330094337463378906e+00 1.888642549514770508e+00 5.752582550048828125e+00 2.292367458343505859e+00 -3.870938062667846680e+00
7.450000000000000000e+02 1.833974647521972656e+01 -8.895005226135253906e+00 8.973940014839172363e-01 5.231974720954895020e-01 4.261774420738220215e-01 7.846097350120544434e-01
7.460000000000000000e+02 2.227239418029785156e+01 -8.404466629028320312e+00 3.862358093261718750e+00 8.456858634948730469e+00 3.695765256881713867e+00 5.587040424346923828e+00
7.470000000000000000e+02 2.486429405212402344e+01 -8.869240760803222656e+00 2.677575111389160156e+00 1.386974525451660156e+01 4.964196205139160156e+00 -3.354886770248413086e-01
7.480000000000000000e+02 2.212727928161621094e+01 -8.006085395812988281e+00 4.688614368438720703e+00 6.694386005401611328e+00 3.414900064468383789e+00 5.780581951141357422e+00
7.490000000000000000e+02 2.114686584472656250e+01 -7.832569122314453125e+00 3.755193948745727539e+00 1.876810312271118164e+00 1.689601302146911621e+00 2.538253307342529297e+00
7.500000000000000000e+02 2.136777496337890625e+01 -8.090366363525390625e+00 4.156948089599609375e+00 2.864787101745605469e+00 2.106520414352416992e+00 3.515726566314697266e+00
7.510000000000000000e+02 2.095135879516601562e+01 -7.799708843231201172e+00 3.290932178497314453e+00 1.381763577461242676e+00 1.401808738708496094e+00 1.978036999702453613e+00
7.520000000000000000e+02 1.754482460021972656e+01 -1.073583221435546875e+01 1.080589652061462402e+00 1.056789517402648926e+00 6.412137150764465332e-01 1.308953523635864258e+00
7.530000000000000000e+02 2.075727653503417969e+01 -7.759829998016357422e+00 2.963475704193115234e+00 1.120689034461975098e+00 1.225249409675598145e+00 1.631042361259460449e+00
7.540000000000000000e+02 2.038501358032226562e+01 -7.706279754638671875e+00 2.349105119705200195e+00 8.606913089752197266e-01 9.629389643669128418e-01 1.039069056510925293e+00
7.550000000000000000e+02 2.017659950256347656e+01 -7.706156253814697266e+00 2.014131069183349609e+00 7.938095927238464355e-01 8.423821926116943359e-01 7.302548885345458984e-01
7.560000000000000000e+02 2.062561035156250000e+01 -7.934844970703125000e+00 2.975078821182250977e+00 1.195814251899719238e+00 1.251267910003662109e+00 1.674730062484741211e+00
7.570000000000000000e+02 2.057723045349121094e+01 -7.711954116821289062e+00 2.626861333847045898e+00 8.714385628700256348e-01 1.049489974975585938e+00 1.301768302917480469e+00
7.580000000000000000e+02 1.452232360839843750e+01 1.738656044006347656e+00 -7.550515001639723778e-04 1.903893135022372007e-04 -1.693986559985205531e-04 7.380688912235200405e-04
7.590000000000000000e+02 1.463117313385009766e+01 2.562130928039550781e+00 1.563410391099750996e-03 1.479933736845850945e-03 9.130032267421483994e-04 -3.842303995043039322e-04
7.600000000000000000e+02 1.188682746887207031e+01 1.792691946029663086e+00 1.223031867993995547e-04 -1.749428483890369534e-04 -1.579189665790181607e-05 4.417815071064978838e-04
7.610000000000000000e+02 1.453197193145751953e+01 -3.394084930419921875e+00 2.306070236954838037e-04 5.052017513662576675e-04 2.207426296081393957e-04 -1.829141547204926610e-04
7.620000000000000000e+02 1.407252025604248047e+01 -3.047750711441040039e+00 -3.808488836511969566e-04 7.343965080508496612e-06 -1.120514716603793204e-04 4.780854578712023795e-05
7.630000000000000000e+02 1.713689041137695312e+01 -9.172444343566894531e+00 2.971648573875427246e-01 -1.816197484731674194e-01 3.466352820396423340e-02 1.795356422662734985e-01
7.640000000000000000e+02 1.952710151672363281e+01 -8.280280113220214844e+00 1.619107365608215332e+00 8.746291995048522949e-01 7.481209635734558105e-01 8.993735313415527344e-01
7.650000000000000000e+02 3.881780624389648438e+00 3.528849840164184570e+00 8.571211365051567554e-04 2.424745980533771217e-05 2.644105697982013226e-04 -1.540537108667194843e-03
7.660000000000000000e+02 9.544236183166503906e+00 2.587631464004516602e+00 1.108477008529007435e-04 2.428147563477978110e-04 1.060987342498265207e-04 1.675719860941171646e-03
7.670000000000000000e+02 7.412487506866455078e+00 2.568699836730957031e+00 9.306169813498854637e-04 -8.053984493017196655e-04 3.756557271117344499e-05 -1.216393895447254181e-03
7.680000000000000000e+02 6.774842262268066406e+00 1.855932354927062988e+00 8.148804772645235062e-04 -3.935372806154191494e-04 1.264029560843482614e-04 -1.009568688459694386e-03
7.690000000000000000e+02 6.710814952850341797e+00 2.572157144546508789e+00 -4.921108484268188477e-05 3.353786305524408817e-04 8.585026807850226760e-05 1.219429192133247852e-03
7.700000000000000000e+02 8.024119377136230469e+00 3.311066150665283203e+00 1.075540436431765556e-03 -1.338213100098073483e-03 -7.880180055508390069e-05 -1.422807108610868454e-03
7.710000000000000000e+02 5.947838783264160156e+00 4.024458408355712891e+00 1.029657432809472084e-03 -8.722916827537119389e-04 4.720973083749413490e-05 -1.346175209619104862e-03
7.720000000000000000e+02 1.512770533561706543e+00 7.744227409362792969e+00 2.075807889923453331e-03 9.794059442356228828e-04 9.165641386061906815e-04 -1.941483002156019211e-03
7.730000000000000000e+02 2.386478900909423828e+00 3.678689479827880859e+00 1.561120734550058842e-03 -5.930859479121863842e-04 2.904104185290634632e-04 -1.188306952826678753e-03
7.740000000000000000e+02 1.294215798377990723e+00 2.741573095321655273e+00 -4.154996713623404503e-05 -5.809640279039740562e-04 -1.867542014224454761e-04 4.919634666293859482e-04
7.750000000000000000e+02 1.113083648681640625e+01 1.822053670883178711e+00 1.381429465254768729e-04 2.722030039876699448e-04 1.231037895195186138e-04 -3.819073317572474480e-04
7.760000000000000000e+02 8.718458175659179688e+00 3.327262639999389648e+00 -2.802846429403871298e-04 8.464805432595312595e-04 1.698587875580415130e-04 2.084134612232446671e-03
7.770000000000000000e+02 1.362454032897949219e+01 -4.766084671020507812e+00 -9.461010340601205826e-04 -2.803786483127623796e-04 -3.679438959807157516e-04 4.129364970140159130e-04
7.780000000000000000e+02 1.299393939971923828e+01 -5.886439800262451172e+00 1.003900426439940929e-03 4.959121579304337502e-04 4.499437636695802212e-04 -5.929730832576751709e-04
7.790000000000000000e+02 1.354659557342529297e+01 -2.896175146102905273e+00 4.112132592126727104e-04 3.905441189999692142e-05 1.350803067907691002e-04 -5.159364663995802402e-04
7.800000000000000000e+02 8.127252578735351562e+00 -2.521524429321289062e+00 2.008660958381369710e-04 2.630608796607702971e-04 1.391780970152467489e-04 -7.786917558405548334e-05
7.810000000000000000e+02 8.822255134582519531e+00 2.580194473266601562e+00 6.769610336050391197e-04 -6.031339289620518684e-04 2.214813684986438602e-05 -1.249411958269774914e-03
7.820000000000000000e+02 1.359496212005615234e+01 3.913978576660156250e+00 -3.659024660009890795e-04 1.471414929255843163e-03 3.316537186037749052e-04 -9.234152967110276222e-04
7.830000000000000000e+02 1.257084369659423828e+01 2.528413772583007812e+00 -4.770734813064336777e-05 -3.533580165822058916e-04 -1.203196079586632550e-04 2.689844986889511347e-04
7.840000000000000000e+02 1.105133533477783203e+01 2.579602479934692383e+00 3.883425961248576641e-04 -2.409283333690837026e-04 4.422428173711523414e-05 1.235121162608265877e-03
7.850000000000000000e+02 8.069066047668457031e+00 -1.833721756935119629e+00 -4.639057442545890808e-05 -3.922731557395309210e-04 -1.315991248702630401e-04 -1.276973944186465815e-05
7.860000000000000000e+02 1.321368312835693359e+01 -3.547661542892456055e+00 -4.085594846401363611e-04 -7.295567193068563938e-04 -3.414348466321825981e-04 8.135351818054914474e-04
7.870000000000000000e+02 7.407026290893554688e+00 -2.575424909591674805e+00 -1.076181506505236030e-04 -2.310564013896510005e-04 -1.016023670672439039e-04 -5.570732537307776511e-05
7.880000000000000000e+02 1.139061164855957031e+01 -6.411894798278808594e+00 6.297040381468832493e-04 9.026344050653278828e-04 4.597015504259616137e-04 -6.759429234080016613e-04
7.890000000000000000e+02 7.765622615814208984e+00 -5.087890625000000000e+00 5.926240701228380203e-04 4.682452708948403597e-04 3.182608052156865597e-04 -8.425774285569787025e-04
7.900000000000000000e+02 6.563941955566406250e+00 -1.868323683738708496e+00 -3.850006032735109329e-05 -2.472639316692948341e-04 -8.572920341975986958e-05 -7.269792695296928287e-05
7.910000000000000000e+02 6.672008514404296875e+00 -2.618754386901855469e+00 2.954418014269322157e-04 1.341023598797619343e-04 1.288632483920082450e-04 -2.781922012218274176e-05
7.920000000000000000e+02 5.192904472351074219e+00 -2.693714618682861328e+00 3.046236524824053049e-04 -3.971948672187863849e-07 9.126793884206563234e-05 6.910310912644490600e-05
7.930000000000000000e+02 1.609363317489624023e+00 -8.031693458557128906e+00 7.435118895955383778e-04 5.908838938921689987e-04 4.003187350463122129e-04 2.850989403668791056e-04
7.940000000000000000e+02 3.970319032669067383e+00 -3.618667840957641602e+00 -3.334850771352648735e-04 3.115653817076236010e-04 -6.575902261829469353e-06 -1.168034796137362719e-04
7.950000000000000000e+02 1.627654314041137695e+00 -6.706779003143310547e+00 -4.430112603586167097e-04 2.087468892568722367e-04 -7.027931133052334189e-05 7.564589614048600197e-04
7.960000000000000000e+02 5.216942429542541504e-01 -3.624928951263427734e+00 5.335254827514290810e-04 2.946797576441895217e-05 1.688980410108342767e-04 -8.045145477808546275e-06
7.970000000000000000e+02 4.088342189788818359e-01 -2.197419643402099609e+00 -5.245580105111002922e-04 -8.076025551417842507e-05 -1.815954747144132853e-04 2.931955714302603155e-05
7.980000000000000000e+02 5.784716010093688965e-01 -5.089170932769775391e+00 -4.471480206120759249e-04 1.883278164314106107e-04 -7.764605834381654859e-05 1.960716472240164876e-04
7.990000000000000000e+02 2.320755958557128906e+01 -8.310406684875488281e+00 2.311823844909667969e+00 1.534687900543212891e+01 5.297610759735107422e+00 4.108879089355468750e+00
8.000000000000000000e+02 2.505978393554687500e+01 -7.892856121063232422e+00 5.606765270233154297e+00 1.502823638916015625e+01 6.190500736236572266e+00 -1.535308957099914551e+00
8.010000000000000000e+02 2.516654968261718750e+01 -6.466420650482177734e+00 9.239562034606933594e+00 1.392939186096191406e+01 6.950685977935791016e+00 8.399631381034851074e-01
8.020000000000000000e+02 2.631255340576171875e+01 -6.752434253692626953e+00 6.450847148895263672e+00 1.153597545623779297e+01 5.396046638488769531e+00 -3.618590161204338074e-02
8.030000000000000000e+02 2.593710327148437500e+01 -7.949539184570312500e+00 5.817059040069580078e+00 1.240218734741210938e+01 5.465774059295654297e+00 -1.370780467987060547e+00
8.040000000000000000e+02 2.108344841003417969e+01 1.440615773200988770e+00 -4.795747622847557068e-02 7.110111236572265625e+00 2.118646144866943359e+00 -2.109794139862060547e+00
8.050000000000000000e+02 1.857273292541503906e+01 -3.525660991668701172e+00 7.837170362472534180e-02 -6.568037271499633789e-01 -1.735296100378036499e-01 -1.465950161218643188e-01
8.060000000000000000e+02 2.082335281372070312e+01 -3.850677728652954102e+00 1.417646288871765137e+00 3.034430980682373047e+00 1.335623145103454590e+00 -2.059847354888916016e+00
8.070000000000000000e+02 8.734874725341796875e+00 -1.845523071289062500e+01 -1.540156155824661255e-01 5.393538996577262878e-02 -3.002406843006610870e-02 2.515220642089843750e-01
8.080000000000000000e+02 7.130599975585937500e+00 -1.724406051635742188e+01 -1.852268576622009277e-01 -6.180219724774360657e-02 -7.410871237516403198e-02 8.274324238300323486e-02
8.090000000000000000e+02 1.254627132415771484e+01 1.934554100036621094e+01 6.873598694801330566e-01 2.145237445831298828e+00 8.497791886329650879e-01 -1.429872751235961914e+00
8.100000000000000000e+02 8.994961738586425781e+00 2.062164497375488281e+01 4.802376329898834229e-01 4.816683828830718994e-01 2.885718047618865967e-01 -5.188029408454895020e-01
8.110000000000000000e+02 1.906280136108398438e+01 9.438013076782226562e+00 1.138929009437561035e+00 8.185233116149902344e+00 2.797248601913452148e+00 -2.098144292831420898e+00
8.120000000000000000e+02 1.628012847900390625e+01 1.407208061218261719e+01 1.781600832939147949e+00 6.086455821990966797e+00 2.360416889190673828e+00 -2.926366329193115234e+00
8.130000000000000000e+02 1.474558544158935547e+01 1.779590606689453125e+01 1.045009016990661621e+00 3.928693056106567383e+00 1.492110610008239746e+00 -1.947401762008666992e+00
8.140000000000000000e+02 1.397894096374511719e+01 1.661199951171875000e+01 1.986482024192810059e+00 2.860368728637695312e+00 1.454055190086364746e+00 -2.284019947052001953e+00
8.150000000000000000e+02 1.902416419982910156e+01 2.168554544448852539e+00 1.172684952616691589e-01 6.127563953399658203e+00 1.873449683189392090e+00 -7.755421400070190430e-01
8.160000000000000000e+02 2.102024078369140625e+01 3.087906599044799805e+00 1.800907254219055176e-01 7.459072113037109375e+00 2.291748762130737305e+00 -1.891998887062072754e+00
8.170000000000000000e+02 6.297471523284912109e-01 1.622285461425781250e+01 -7.217969745397567749e-03 -3.302485123276710510e-02 -1.207284629344940186e-02 1.463897712528705597e-02
8.180000000000000000e+02 1.939188194274902344e+01 8.125659942626953125e+00 8.676912188529968262e-01 8.402948379516601562e+00 2.781191825866699219e+00 -1.969490528106689453e+00
8.190000000000000000e+02 1.954273033142089844e+01 1.218294239044189453e+01 1.175505995750427246e+00 7.273404121398925781e+00 2.534672975540161133e+00 -1.790948629379272461e+00
8.200000000000000000e+02 1.812405586242675781e+01 1.312660503387451172e+01 1.287208557128906250e+00 6.898313999176025391e+00 2.455656766891479492e+00 -2.268701791763305664e+00
8.210000000000000000e+02 2.038345909118652344e+01 4.160321235656738281e+00 3.890514075756072998e-01 7.581550598144531250e+00 2.391180515289306641e+00 -1.709218621253967285e+00
8.220000000000000000e+02 1.969954299926757812e+01 6.802440643310546875e+00 6.192516088485717773e-01 8.264878273010253906e+00 2.665239095687866211e+00 -1.700901627540588379e+00
8.230000000000000000e+02 2.018144989013671875e+01 1.957144737243652344e+00 8.564261347055435181e-02 6.616963386535644531e+00 2.010781764984130859e+00 -1.672229766845703125e+00
8.240000000000000000e+02 1.802938842773437500e+01 1.428063774108886719e+01 1.192934155464172363e+00 6.340891838073730469e+00 2.260147809982299805e+00 -1.933962702751159668e+00
8.250000000000000000e+02 1.961333084106445312e+01 -4.708540439605712891e-01 -3.736595436930656433e-02 4.086709499359130859e+00 1.214802980422973633e+00 -1.388658165931701660e+00
8.260000000000000000e+02 1.979131889343261719e+01 6.851747632026672363e-01 -3.038093820214271545e-02 5.373625278472900391e+00 1.602973341941833496e+00 -1.419411778450012207e+00
8.270000000000000000e+02 3.618241786956787109e+00 -1.775593566894531250e+01 -7.483274489641189575e-02 4.598236829042434692e-02 -8.655112236738204956e-03 -6.083802133798599243e-02
8.280000000000000000e+02 2.631284713745117188e+00 -1.601578521728515625e+01 -2.599852718412876129e-02 -1.843842095695436001e-03 -8.352710865437984467e-03 -2.775605022907257080e-02
8.290000000000000000e+02 1.326126098632812500e+01 -1.483303737640380859e+01 7.139696478843688965e-01 1.049766898155212402e+00 5.291209816932678223e-01 8.597016930580139160e-01
8.300000000000000000e+02 1.256292152404785156e+01 -1.750362777709960938e+01 4.274226427078247070e-01 1.198828577995300293e+00 4.878753721714019775e-01 7.602637410163879395e-01
8.310000000000000000e+02 1.019157505035400391e+01 -2.474448204040527344e+00 1.196492303279228508e-04 -7.087767589837312698e-04 -1.767382636899128556e-04 3.011351509485393763e-04
8.320000000000000000e+02 2.173565101623535156e+01 -7.951231479644775391e+00 4.697143077850341797e+00 3.935201168060302734e+00 2.589703321456909180e+00 4.259757518768310547e+00
8.330000000000000000e+02 1.582650566101074219e+01 -1.157345676422119141e+01 5.622766613960266113e-01 8.812251687049865723e-01 4.330505430698394775e-01 7.813277840614318848e-01
8.340000000000000000e+02 1.764289474487304688e+01 -1.184799385070800781e+01 1.171772599220275879e+00 1.718672990798950195e+00 8.671336770057678223e-01 1.715158820152282715e+00
8.350000000000000000e+02 1.573107147216796875e+01 -1.337448692321777344e+01 8.977265954017639160e-01 1.428775191307067871e+00 6.979505419731140137e-01 1.167678833007812500e+00
8.360000000000000000e+02 1.390867424011230469e+01 -3.818948268890380859e+00 1.028680126182734966e-03 -3.590485139284282923e-04 2.008894953178241849e-04 -2.271145494887605309e-04
8.370000000000000000e+02 1.330968952178955078e+01 -1.647653388977050781e+01 6.389960646629333496e-01 1.330208897590637207e+00 5.907614827156066895e-01 9.041111469268798828e-01
8.380000000000000000e+02 1.662174224853515625e+01 -1.242799091339111328e+01 1.026647806167602539e+00 1.425326704978942871e+00 7.355923652648925781e-01 1.364978551864624023e+00
8.390000000000000000e+02 1.055448818206787109e+01 -9.126434326171875000e+00 -1.134390127845108509e-03 -4.946049302816390991e-04 -4.886985407210886478e-04 1.154424855485558510e-03
8.400000000000000000e+02 9.711015701293945312e+00 -8.430666923522949219e+00 6.475567352026700974e-04 1.355413114652037621e-03 6.008909549564123154e-04 -8.395749609917402267e-04
8.410000000000000000e+02 1.057118606567382812e+01 -7.411717414855957031e+00 -7.488151313737034798e-04 -5.659212474711239338e-04 -3.944209020119160414e-04 7.203756831586360931e-04
8.420000000000000000e+02 1.684705615043640137e+00 -1.075395393371582031e+01 5.138269043527543545e-04 5.783574306406080723e-04 3.276553179603070021e-04 4.751382803078740835e-04
8.430000000000000000e+02 8.158234596252441406e+00 -1.252080535888671875e+01 1.922664814628660679e-03 4.937929101288318634e-03 2.058178186416625977e-03 1.528813008917495608e-04
8.440000000000000000e+02 1.066434288024902344e+01 -4.450000762939453125e+00 8.386246008740272373e-06 -8.710606489330530167e-04 -2.588023198768496513e-04 3.025431069545447826e-04
8.450000000000000000e+02 7.750107574462890625e+01 3.233215332031250000e+01 -5.524841602891683578e-03 8.230766296386718750e+00 2.467572450637817383e+00 5.374886468052864075e-02
8.460000000000000000e+02 7.925382232666015625e+01 3.624458312988281250e+01 -2.307593356817960739e-03 8.371447563171386719e+00 2.510741949081420898e+00 8.698353543877601624e-03
8.470000000000000000e+02 7.934698486328125000e+01 -2.781631469726562500e+01 -3.562158381100744009e-04 7.784787178039550781e+00 2.335329294204711914e+00 -2.138068526983261108e-02
8.480000000000000000e+02 7.730473327636718750e+01 -3.782253646850585938e+01 -9.509901516139507294e-03 7.957861900329589844e+00 2.384505510330200195e+00 -2.168027311563491821e-02
8.490000000000000000e+02 7.935099792480468750e+01 -3.474996185302734375e+01 -2.081065205857157707e-03 7.957213401794433594e+00 2.386539697647094727e+00 -1.113309804350137711e-02
8.500000000000000000e+02 7.935354614257812500e+01 -2.087716865539550781e+01 4.060344363097101450e-04 7.554566860198974609e+00 2.266491889953613281e+00 -2.226487174630165100e-02
8.510000000000000000e+02 7.807109069824218750e+01 -2.633341026306152344e+01 -1.274270471185445786e-03 7.732052803039550781e+00 2.319233655929565430e+00 -6.107752397656440735e-02
8.520000000000000000e+02 7.931771087646484375e+01 -3.060462188720703125e+01 -1.040614792145788670e-03 7.866451263427734375e+00 2.359623193740844727e+00 -1.914583519101142883e-02
8.530000000000000000e+02 7.802400970458984375e+01 -3.463215637207031250e+01 -5.988738033920526505e-03 7.927709102630615234e+00 2.376516103744506836e+00 -3.449321910738945007e-02
8.540000000000000000e+02 7.792687988281250000e+01 -3.329383468627929688e+01 -6.362167187035083771e-03 7.902347087860107422e+00 2.368795394897460938e+00 -4.169642925262451172e-02
8.550000000000000000e+02 7.506678771972656250e+01 -3.736731719970703125e+01 -2.805635333061218262e-02 7.915940761566162109e+00 2.366365194320678711e+00 -5.395967140793800354e-02
8.560000000000000000e+02 7.638703918457031250e+01 -3.890199661254882812e+01 -1.196977403014898300e-02 7.959096908569335938e+00 2.384138107299804688e+00 -2.853453531861305237e-02
8.570000000000000000e+02 7.805056762695312500e+01 1.400946998596191406e+01 1.960123190656304359e-03 7.660064697265625000e+00 2.298607349395751953e+00 7.595732063055038452e-02
8.580000000000000000e+02 7.934826660156250000e+01 1.535506820678710938e+01 6.673840689472854137e-04 7.700057029724121094e+00 2.310217380523681641e+00 2.837480418384075165e-02
8.590000000000000000e+02 7.791264343261718750e+01 2.095060157775878906e+01 -7.745175389572978020e-04 7.910928726196289062e+00 2.373046398162841797e+00 8.351150155067443848e-02
8.600000000000000000e+02 7.928609466552734375e+01 2.232841682434082031e+01 1.105004557757638395e-04 7.984345912933349609e+00 2.395336866378784180e+00 3.054035641252994537e-02
8.610000000000000000e+02 7.777383422851562500e+01 3.084101295471191406e+01 -4.937850404530763626e-03 8.207852363586425781e+00 2.460874319076538086e+00 5.604790151119232178e-02
8.620000000000000000e+02 7.777142333984375000e+01 2.801195335388183594e+01 -6.945192348212003708e-03 8.137385368347167969e+00 2.439131975173950195e+00 6.922359764575958252e-02
8.630000000000000000e+02 7.925998687744140625e+01 2.791177749633789062e+01 -6.663652020506560802e-04 8.180953025817871094e+00 2.454085826873779297e+00 2.433804050087928772e-02
8.640000000000000000e+02 7.768355560302734375e+01 2.519366073608398438e+01 -4.696110263466835022e-03 8.052725791931152344e+00 2.414408922195434570e+00 8.059908449649810791e-02
8.650000000000000000e+02 7.775027465820312500e+01 2.377453994750976562e+01 -3.230400616303086281e-03 8.007010459899902344e+00 2.401134014129638672e+00 8.442811667919158936e-02
8.660000000000000000e+02 7.800048065185546875e+01 1.816307449340820312e+01 7.708928023930639029e-05 7.810466289520263672e+00 2.343163013458251953e+00 8.122049272060394287e-02
8.670000000000000000e+02 7.804160308837890625e+01 1.539388465881347656e+01 9.902938036248087883e-04 7.709454536437988281e+00 2.313133478164672852e+00 7.803691923618316650e-02
8.680000000000000000e+02 7.802582550048828125e+01 1.677723884582519531e+01 1.109291799366474152e-03 7.759605884552001953e+00 2.328214645385742188e+00 7.973370701074600220e-02
8.690000000000000000e+02 7.805381774902343750e+01 1.261909389495849609e+01 1.967614516615867615e-03 7.611695289611816406e+00 2.284098863601684570e+00 7.343321293592453003e-02
8.700000000000000000e+02 7.673913574218750000e+01 1.126730918884277344e+01 6.488614715635776520e-03 7.587619781494140625e+00 2.278232574462890625e+00 1.111158281564712524e-01
8.710000000000000000e+02 7.805399322509765625e+01 8.451600074768066406e+00 3.827097592875361443e-03 7.479549407958984375e+00 2.245012998580932617e+00 6.247458234429359436e-02
8.720000000000000000e+02 7.935376739501953125e+01 9.786004066467285156e+00 8.660432649776339531e-04 7.489258289337158203e+00 2.247037410736083984e+00 2.421203628182411194e-02
8.730000000000000000e+02 7.806593322753906250e+01 7.785736024379730225e-02 5.978022702038288116e-03 7.303761482238769531e+00 2.192921876907348633e+00 2.522823959589004517e-02
8.740000000000000000e+02 7.935239410400390625e+01 1.423567891120910645e+00 1.289233681745827198e-03 7.268325328826904297e+00 2.180884361267089844e+00 1.202658656984567642e-02
8.750000000000000000e+02 7.673536682128906250e+01 7.100950241088867188e+00 1.060633454471826553e-02 7.475954532623291016e+00 2.245968341827392578e+00 9.112279862165451050e-02
8.760000000000000000e+02 7.936154937744140625e+01 -6.942440509796142578e+00 1.324902055785059929e-03 7.228757858276367188e+00 2.169024944305419922e+00 -4.626690875738859177e-03
8.770000000000000000e+02 7.782792663574218750e+01 2.941935920715332031e+01 -4.449776839464902878e-03 8.177540779113769531e+00 2.451927185058593750e+00 5.983863770961761475e-02
8.780000000000000000e+02 7.935019683837890625e+01 -1.391148567199707031e+01 8.684176136739552021e-04 7.346323013305664062e+00 2.204157352447509766e+00 -1.658330298960208893e-02
8.790000000000000000e+02 7.934940338134765625e+01 -1.948723411560058594e+01 3.485735942376777530e-05 7.509079933166503906e+00 2.252734422683715820e+00 -2.175996080040931702e-02
8.800000000000000000e+02 7.405998229980468750e+01 3.636112213134765625e+01 -4.194090887904167175e-02 8.174706459045410156e+00 2.439829587936401367e+00 7.418960332870483398e-02
8.810000000000000000e+02 7.805557250976562500e+01 9.842660903930664062e+00 2.974705304950475693e-03 7.521169662475585938e+00 2.257243394851684570e+00 6.672786921262741089e-02
8.820000000000000000e+02 7.677630615234375000e+01 1.012598276138305664e-01 1.467582117766141891e-02 7.351166248321533203e+00 2.209752559661865234e+00 3.970842808485031128e-02
8.830000000000000000e+02 7.805111694335937500e+01 2.869499683380126953e+00 5.503376945853233337e-03 7.346143245697021484e+00 2.205493927001953125e+00 3.969808667898178101e-02
8.840000000000000000e+02 7.807501220703125000e+01 -1.320913553237915039e+00 5.964140873402357101e-03 7.289590835571289062e+00 2.188666343688964844e+00 1.762403547763824463e-02
8.850000000000000000e+02 7.936126708984375000e+01 -2.760323047637939453e+00 1.241482794284820557e-03 7.222795009613037109e+00 2.167211055755615234e+00 3.857696196064352989e-03
8.860000000000000000e+02 7.807276916503906250e+01 -8.293115615844726562e+00 5.836767610162496567e-03 7.296557426452636719e+00 2.190718412399291992e+00 -2.099634706974029541e-02
8.870000000000000000e+02 7.808829498291015625e+01 -5.508181095123291016e+00 6.124249193817377090e-03 7.277990341186523438e+00 2.185234308242797852e+00 -5.773165263235569000e-03
8.880000000000000000e+02 7.935458374023437500e+01 -9.730140686035156250e+00 1.200102502480149269e-03 7.261147022247314453e+00 2.178704023361206055e+00 -9.972254745662212372e-03
8.890000000000000000e+02 7.804315948486328125e+01 -1.387487220764160156e+01 4.251454491168260574e-03 7.387992382049560547e+00 2.217673063278198242e+00 -4.705090448260307312e-02
8.900000000000000000e+02 7.804718780517578125e+01 -1.248281097412109375e+01 4.714114125818014145e-03 7.359312057495117188e+00 2.209207773208618164e+00 -4.135038331151008606e-02
8.910000000000000000e+02 7.934804534912109375e+01 -1.669926643371582031e+01 5.485540023073554039e-04 7.422558307647705078e+00 2.226932048797607422e+00 -1.983001641929149628e-02
8.920000000000000000e+02 7.803520202636718750e+01 -1.945801734924316406e+01 1.677754451520740986e-03 7.530841827392578125e+00 2.259755849838256836e+00 -6.178289651870727539e-02
8.930000000000000000e+02 7.643809795379638672e+00 2.015600967407226562e+01 1.926998943090438843e-01 1.808943152427673340e-01 1.120782643556594849e-01 -1.035478562116622925e-01
8.940000000000000000e+02 9.014355659484863281e+00 1.889108657836914062e+01 -4.905790835618972778e-02 1.160852238535881042e-02 -1.123481523245573044e-02 -3.579180538654327393e-01
8.950000000000000000e+02 1.357257723808288574e+00 -4.003328704833984375e+01 3.431228920817375183e-02 2.827088534832000732e-01 9.510634839534759521e-02 8.573396503925323486e-02
8.960000000000000000e+02 7.041381597518920898e-01 3.743138504028320312e+01 2.533277124166488647e-02 2.972034513950347900e-01 9.676086902618408203e-02 -5.469042435288429260e-02
8.970000000000000000e+02 7.219270467758178711e-01 3.466756439208984375e+01 1.879310002550482750e-03 1.256471574306488037e-01 3.825794160366058350e-02 -4.349131509661674500e-02
8.980000000000000000e+02 7.337411642074584961e-01 3.326437759399414062e+01 3.271037479862570763e-03 4.664296284317970276e-02 1.497420016676187515e-02 -3.863056376576423645e-02
8.990000000000000000e+02 6.608202457427978516e-01 2.761010169982910156e+01 8.747303858399391174e-03 -2.465724200010299683e-01 -7.134753465652465820e-02 -2.948652021586894989e-02
9.000000000000000000e+02 6.509799957275390625e-01 2.619691658020019531e+01 1.901386189274489880e-03 -2.975578606128692627e-01 -8.869694918394088745e-02 -1.738441735506057739e-02
9.010000000000000000e+02 5.802383422851562500e-01 -3.599058914184570312e+01 1.091535110026597977e-02 1.695577800273895264e-02 8.361338637769222260e-03 2.600561827421188354e-02
9.020000000000000000e+02 2.120232582092285156e+00 -3.329419708251953125e+01 8.245522156357765198e-03 1.697191894054412842e-01 5.338941141963005066e-02 8.139583468437194824e-02
9.030000000000000000e+02 3.244226217269897461e+00 2.600987434387207031e+01 6.549583375453948975e-02 2.173512279987335205e-01 8.485411852598190308e-02 -9.949284791946411133e-02
9.040000000000000000e+02 3.184302091598510742e+00 2.459757804870605469e+01 6.392937153577804565e-02 1.439116448163986206e-01 6.235230714082717896e-02 -5.935613065958023071e-02
9.050000000000000000e+02 2.204799175262451172e+00 3.459511947631835938e+01 4.758675582706928253e-03 3.998058140277862549e-01 1.213693469762802124e-01 -1.000300645828247070e-01
9.060000000000000000e+02 2.237047672271728516e+00 3.318640518188476562e+01 -3.207115805707871914e-04 3.706249892711639404e-01 1.110912859439849854e-01 -1.066515520215034485e-01
9.070000000000000000e+02 3.184964179992675781e+00 3.922394561767578125e+01 -1.227018889039754868e-02 5.846451520919799805e-01 1.717124730348587036e-01 -8.332181721925735474e-02
9.080000000000000000e+02 2.109574794769287109e+00 -3.050810241699218750e+01 1.118728891015052795e-02 9.168256074190139771e-02 3.086095675826072693e-02 6.857331842184066772e-02
9.090000000000000000e+02 2.040056943893432617e+00 -2.767819595336914062e+01 1.547750923782587051e-02 -1.965422742068767548e-02 -1.253015594556927681e-03 4.617808014154434204e-02
9.100000000000000000e+02 2.333180189132690430e+00 -3.650128173828125000e+01 1.198357250541448593e-02 2.762688100337982178e-01 8.647570759057998657e-02 8.749932050704956055e-02
9.110000000000000000e+02 5.879340171813964844e-01 2.051527595520019531e+01 -9.767441079020500183e-04 -2.033447921276092529e-01 -6.129645928740501404e-02 3.186727315187454224e-02
9.120000000000000000e+02 6.233713030815124512e-01 1.909100151062011719e+01 -2.902763895690441132e-03 -1.345186233520507812e-01 -4.122641682624816895e-02 2.738495729863643646e-02
9.130000000000000000e+02 6.293509006500244141e-01 1.480847740173339844e+01 1.054424908943474293e-03 -8.170816116034984589e-03 -2.134917536750435829e-03 6.163188256323337555e-03
9.140000000000000000e+02 6.125634908676147461e-01 1.340869998931884766e+01 -4.853710532188415527e-03 2.846402814611792564e-03 -6.021923036314547062e-04 2.863069064915180206e-03
9.150000000000000000e+02 5.015658736228942871e-01 7.821990966796875000e+00 -2.094463678076863289e-03 2.460964024066925049e-03 1.099501678254455328e-04 1.692083606030791998e-04
9.160000000000000000e+02 6.338838338851928711e-01 -1.911950683593750000e+01 -3.266181738581508398e-04 -1.226368919014930725e-01 -3.688905388116836548e-02 -2.939611859619617462e-02
9.170000000000000000e+02 1.917219758033752441e+00 -1.899137115478515625e+01 -1.425810344517230988e-02 -4.287060722708702087e-02 -1.713861338794231415e-02 -7.353479415178298950e-02
9.180000000000000000e+02 1.632175087928771973e+00 -9.381905555725097656e+00 -2.401220990577712655e-04 7.224597502499818802e-04 1.447012909920886159e-04 1.431711250916123390e-03
9.190000000000000000e+02 5.028712272644042969e+00 -4.025444030761718750e+01 -7.551521062850952148e-02 8.655407428741455078e-01 2.370076626539230347e-01 -8.726128377020359039e-03
9.200000000000000000e+02 3.503054380416870117e+00 -3.903876495361328125e+01 -1.419156882911920547e-02 4.412889480590820312e-01 1.281292140483856201e-01 6.137685477733612061e-02
9.210000000000000000e+02 4.692720890045166016e+00 -3.589965820312500000e+01 -3.343136515468358994e-03 7.708191275596618652e-01 2.302428036928176880e-01 1.239266991615295410e-01
9.220000000000000000e+02 1.586814999580383301e+00 -3.533482742309570312e+01 7.045179605484008789e-03 1.540786474943161011e-01 4.833715036511421204e-02 8.063529431819915771e-02
9.230000000000000000e+02 2.148955583572387695e+00 -3.192182731628417969e+01 -2.700615674257278442e-03 1.206762939691543579e-01 3.539270535111427307e-02 6.687548011541366577e-02
9.240000000000000000e+02 3.383667945861816406e+00 -2.774261665344238281e+01 2.835817821323871613e-02 2.403285354375839233e-01 8.060601353645324707e-02 9.317040443420410156e-02
9.250000000000000000e+02 2.055041074752807617e+00 -2.481844902038574219e+01 2.203737199306488037e-02 -7.705733925104141235e-02 -1.650599017739295959e-02 -1.786801614798605442e-03
9.260000000000000000e+02 2.051367044448852539e+00 -2.625935745239257812e+01 2.122445032000541687e-02 -5.465940013527870178e-02 -1.003048475831747055e-02 2.344705723226070404e-02
9.270000000000000000e+02 6.426485180854797363e-01 -2.055375671386718750e+01 -5.177869461476802826e-04 -1.892576664686203003e-01 -5.693263560533523560e-02 -3.046323172748088837e-02
9.280000000000000000e+02 4.168851375579833984e+00 -1.915777587890625000e+01 -3.436393290758132935e-02 8.013713359832763672e-02 1.373196020722389221e-02 -7.067394256591796875e-02
9.290000000000000000e+02 1.626325845718383789e+00 -1.616766357421875000e+01 -1.296452991664409637e-02 -1.436521578580141068e-02 -8.198923431336879730e-03 -2.369994856417179108e-02
9.300000000000000000e+02 1.698067665100097656e+00 -1.213507843017578125e+01 -1.450781594030559063e-03 1.145898568211123347e-04 -4.008575342595577240e-04 1.098669948987662792e-03
9.310000000000000000e+02 5.579901933670043945e-01 -1.211222934722900391e+01 -8.101026760414242744e-04 4.538718145340681076e-03 1.118584652431309223e-03 8.965623237600084394e-06
9.320000000000000000e+02 8.062940597534179688e+00 -1.061640930175781250e+01 4.983753897249698639e-04 2.399660646915435791e-03 8.694107527844607830e-04 -1.519536017440259457e-03
9.330000000000000000e+02 5.343297481536865234e+00 -3.493526697158813477e+00 -5.328285624273121357e-05 -2.278267493238672614e-04 -8.433288166997954249e-05 -5.032443732488900423e-05
9.340000000000000000e+02 3.722416400909423828e+00 -2.861675024032592773e+00 3.802233259193599224e-04 -3.472279058769345284e-04 9.898622920445632190e-06 -1.137508934334618971e-05
9.350000000000000000e+02 2.979749441146850586e+00 -3.092660188674926758e+00 -8.423507824772968888e-05 3.439010179135948420e-04 7.789977826178073883e-05 1.371238759020343423e-04
9.360000000000000000e+02 2.195156574249267578e+00 -3.227714061737060547e+00 7.055886089801788330e-04 -2.776843612082302570e-04 1.283712772419676185e-04 -1.801774051273241639e-04
9.370000000000000000e+02 1.413590073585510254e+00 -3.417909145355224609e+00 -1.319081729889148846e-05 5.880909156985580921e-04 1.724700268823653460e-04 3.871028020512312651e-04
9.380000000000000000e+02 4.498416781425476074e-01 5.053402900695800781e+00 -8.380372310057282448e-04 8.586354670114815235e-04 6.179462616273667663e-06 2.280447370139881968e-04
9.390000000000000000e+02 3.155633211135864258e+00 3.637864351272583008e+00 -4.881788045167922974e-04 -7.793428812874481082e-05 -1.698339328868314624e-04 8.949229959398508072e-04
9.400000000000000000e+02 1.607203125953674316e+00 1.043985939025878906e+01 2.353263553231954575e-03 1.488981186412274837e-03 1.152673386968672276e-03 -2.016729209572076797e-03
9.410000000000000000e+02 5.378420352935791016e-01 1.061337757110595703e+01 -3.001447534188628197e-03 5.132748745381832123e-03 6.393904332071542740e-04 1.036637627294112463e-06
9.420000000000000000e+02 1.873967409133911133e+00 1.316052532196044922e+01 -2.862034365534782410e-03 -8.577595581300556660e-04 -1.115938182920217514e-03 4.000584594905376434e-03
9.430000000000000000e+02 1.913492083549499512e+00 1.455663967132568359e+01 -1.289258338510990143e-02 -2.697760472074151039e-03 -4.677102901041507721e-03 1.431773602962493896e-02
9.440000000000000000e+02 1.882371902465820312e+00 1.599150657653808594e+01 -1.448885072022676468e-02 -1.150790043175220490e-02 -7.799025624990463257e-03 3.162954002618789673e-02
9.450000000000000000e+02 1.924950480461120605e+00 2.466459465026855469e+01 3.477011993527412415e-02 -6.680470705032348633e-02 -9.610376320779323578e-03 -1.661812514066696167e-02
9.460000000000000000e+02 9.339114189147949219e+00 1.100015926361083984e+01 1.604936551302671432e-03 -1.027624588459730148e-02 -2.601392799988389015e-03 6.459582946263253689e-04
9.470000000000000000e+02 1.243674182891845703e+01 8.440978050231933594e+00 -1.807808759622275829e-03 -1.656247652135789394e-03 -1.039216876961290836e-03 -2.457896014675498009e-03
9.480000000000000000e+02 1.467483901977539062e+01 4.921159267425537109e+00 -2.899775863625109196e-04 3.318678936921060085e-04 1.256709128938382491e-05 -2.983734011650085449e-04
9.490000000000000000e+02 1.181868553161621094e+01 2.561552286148071289e+00 -1.564280100865289569e-04 5.304877413436770439e-04 1.122179164667613804e-04 -3.764416323974728584e-04
9.500000000000000000e+02 1.038695144653320312e+01 1.339274787902832031e+01 9.273841045796871185e-03 1.430804561823606491e-02 7.074566092342138290e-03 6.651764269918203354e-03
9.510000000000000000e+02 8.474598884582519531e+00 1.029792976379394531e+01 -3.467317903414368629e-03 7.616982795298099518e-03 1.244899467565119267e-03 -1.839938806369900703e-03
9.520000000000000000e+02 8.442819595336914062e+00 1.380435943603515625e+01 -7.503705564886331558e-03 2.274644188582897186e-02 4.572820849716663361e-03 5.185114685446023941e-03
9.530000000000000000e+02 1.176446342468261719e+01 3.342337131500244141e+00 7.134722545742988586e-04 -5.917557864449918270e-04 3.651493534562177956e-05 1.506789121776819229e-03
9.540000000000000000e+02 7.294184684753417969e+00 -1.178865718841552734e+01 -2.143718535080552101e-03 1.816553995013237000e-03 -9.814937948249280453e-05 1.085678377421572804e-04
9.550000000000000000e+02 1.777772521972656250e+01 -8.343749046325683594e+00 1.786159425973892212e-01 -3.971998095512390137e-01 -6.557516753673553467e-02 5.909049883484840393e-02
9.560000000000000000e+02 2.312189674377441406e+01 -4.798532962799072266e+00 9.811845421791076660e-01 1.493123722076416016e+01 4.773726463317871094e+00 -4.243673801422119141e+00
9.570000000000000000e+02 2.140197753906250000e+01 -4.513693332672119141e+00 2.145589828491210938e+00 3.672950983047485352e+00 1.745562314987182617e+00 -2.832061529159545898e+00
9.580000000000000000e+02 2.176297760009765625e+01 -4.609227657318115234e+00 2.404022216796875000e+00 4.692721366882324219e+00 2.129023075103759766e+00 -3.662774324417114258e+00
9.590000000000000000e+02 2.195040702819824219e+01 -8.187142372131347656e+00 4.465888977050781250e+00 6.136944770812988281e+00 3.180850267410278320e+00 5.198355197906494141e+00
9.600000000000000000e+02 2.273429107666015625e+01 -8.266240119934082031e+00 3.210378408432006836e+00 1.190717124938964844e+01 4.535264968872070312e+00 6.197310447692871094e+00
9.610000000000000000e+02 2.231342697143554688e+01 -8.067129135131835938e+00 4.300405025482177734e+00 8.170943260192871094e+00 3.741404294967651367e+00 6.221045494079589844e+00
9.620000000000000000e+02 2.153492355346679688e+01 -7.904588222503662109e+00 4.484209537506103516e+00 2.932801246643066406e+00 2.225103139877319336e+00 3.631495714187622070e+00
9.630000000000000000e+02 2.134315109252929688e+01 -7.866410255432128906e+00 4.115327835083007812e+00 2.198219060897827148e+00 1.894064188003540039e+00 3.021374940872192383e+00
9.640000000000000000e+02 2.070867729187011719e+01 -8.216885566711425781e+00 3.160994768142700195e+00 1.842069506645202637e+00 1.500919342041015625e+00 2.253274679183959961e+00
9.650000000000000000e+02 1.893354797363281250e+01 -8.444260597229003906e+00 1.092257976531982422e+00 6.397953033447265625e-01 5.196160078048706055e-01 7.366073131561279297e-01
9.660000000000000000e+02 2.601828765869140625e+01 -4.931010723114013672e+00 4.262448310852050781e+00 1.291915702819824219e+01 5.154481887817382812e+00 1.965687394142150879e+00
9.670000000000000000e+02 3.881342887878417969e+00 2.691050529479980469e+00 -2.008724404731765389e-04 2.426543869660235941e-05 -5.298210089677013457e-05 6.812308565713465214e-04
9.680000000000000000e+02 4.591051101684570312e+00 2.646221876144409180e+00 8.769361302256584167e-04 -2.678037271834909916e-04 1.827397209126502275e-04 -1.315845060162246227e-03
9.690000000000000000e+02 6.004994869232177734e+00 2.584813594818115234e+00 9.309556335210800171e-04 -5.810363218188285828e-04 1.049757775035686791e-04 -1.234425581060349941e-03
9.700000000000000000e+02 5.274434089660644531e+00 3.361219406127929688e+00 1.027210499159991741e-03 -4.956428310833871365e-04 1.594703062437474728e-04 -1.522785518318414688e-03
9.710000000000000000e+02 5.966233730316162109e+00 3.311925172805786133e+00 -9.761751425685361028e-05 1.338523725280538201e-04 1.087045893655158579e-05 1.183273037895560265e-03
9.720000000000000000e+02 1.028869056701660156e+01 2.588416814804077148e+00 1.637642271816730499e-04 -8.072615855780895799e-06 4.670748239732347429e-05 -1.005328726023435593e-03
9.730000000000000000e+02 7.338579654693603516e+00 3.297716140747070312e+00 -3.261787642259150743e-04 7.619578973390161991e-04 1.307337515754625201e-04 1.570752705447375774e-03
9.740000000000000000e+02 6.655328273773193359e+00 3.294939756393432617e+00 1.107179909013211727e-03 -1.081909518688917160e-03 7.581098998343804851e-06 -1.292773289605975151e-03
9.750000000000000000e+02 4.585393905639648438e+00 3.437662124633789062e+00 -1.719811698421835899e-04 -1.586706493981182575e-04 -9.919554577209055424e-05 8.730762056075036526e-04
9.760000000000000000e+02 1.866759300231933594e+00 2.657961845397949219e+00 2.856630890164524317e-04 1.647775789024308324e-04 1.351321989204734564e-04 -6.055528647266328335e-04
9.770000000000000000e+02 1.018374252319335938e+01 3.352873086929321289e+00 1.557766663609072566e-04 3.163061919622123241e-04 1.416248560417443514e-04 2.140329452231526375e-03
9.780000000000000000e+02 9.520138740539550781e+00 -2.424279451370239258e+00 -1.253126538358628750e-05 5.577876581810414791e-04 1.635769294807687402e-04 -2.562658919487148523e-04
9.790000000000000000e+02 1.191890144348144531e+01 -3.946041107177734375e+00 -3.671703743748366833e-04 -6.827461184002459049e-04 -3.149749536532908678e-04 5.766222020611166954e-04
9.800000000000000000e+02 1.085389232635498047e+01 -2.617071151733398438e+00 -7.054198067635297775e-05 8.347764378413558006e-04 2.292703284183517098e-04 -4.857177264057099819e-04
9.810000000000000000e+02 1.133735370635986328e+01 -4.915554523468017578e+00 2.794283791445195675e-04 9.830174967646598816e-04 3.787337627727538347e-04 -6.189153064042329788e-04
9.820000000000000000e+02 1.271465778350830078e+01 -4.354925632476806641e+00 3.759204992093145847e-04 7.795383571647107601e-04 3.466376510914415121e-04 -6.220343639142811298e-04
9.830000000000000000e+02 1.226336383819580078e+01 -2.949329614639282227e+00 4.405625513754785061e-04 3.666835254989564419e-04 2.421738317934796214e-04 -5.960730486549437046e-04
9.840000000000000000e+02 1.355438709259033203e+01 4.997537612915039062e+00 5.416594794951379299e-04 1.485264365328475833e-04 2.070557820843532681e-04 1.306622405536472797e-03
9.850000000000000000e+02 9.434714317321777344e+00 3.342149734497070312e+00 5.785887478850781918e-04 -7.917717448435723782e-04 -6.395489617716521025e-05 -1.557715004310011864e-03
9.860000000000000000e+02 1.260674190521240234e+01 4.098215579986572266e+00 1.006789039820432663e-03 -7.951392908580601215e-04 6.349491741275414824e-05 1.763002364896237850e-03
9.870000000000000000e+02 1.258075332641601562e+01 3.291229248046875000e+00 -5.168653442524373531e-04 1.500946120359003544e-03 2.952242211904376745e-04 -3.636208130046725273e-04
9.880000000000000000e+02 9.314248085021972656e+00 4.129482269287109375e+00 -4.550355661194771528e-04 1.138584106229245663e-03 2.050645416602492332e-04 2.652822760865092278e-03
9.890000000000000000e+02 6.798670768737792969e+00 -3.400218486785888672e+00 -1.128161384258419275e-04 -2.071893977699801326e-04 -9.600166231393814087e-05 2.415706603642320260e-07
9.900000000000000000e+02 2.720898389816284180e+00 -6.926545143127441406e+00 8.176567498594522476e-04 1.411486882716417313e-04 2.876416256185621023e-04 2.022035550908185542e-05
9.910000000000000000e+02 7.665153980255126953e+00 -4.166172504425048828e+00 -3.752773627638816833e-04 -4.058742342749610543e-05 -1.247594336746260524e-04 9.069787483895197511e-05
9.920000000000000000e+02 8.831274986267089844e+00 -2.461138010025024414e+00 1.743218854244332761e-05 -3.734737401828169823e-04 -1.068124693119898438e-04 3.055588604183867574e-05
9.930000000000000000e+02 5.931071281433105469e+00 -2.655513763427734375e+00 -4.129366789129562676e-05 -1.919418136822059751e-04 -6.997064338065683842e-05 -4.826200893148779869e-05
9.940000000000000000e+02 5.470262050628662109e+00 -4.318985939025878906e+00 4.582583496812731028e-04 3.067985016969032586e-05 1.466814574087038636e-04 1.925843207573052496e-05
9.950000000000000000e+02 4.039278030395507812e+00 -4.280057907104492188e+00 7.879941840656101704e-04 2.139418502338230610e-04 3.005808102898299694e-04 3.147115930914878845e-04
9.960000000000000000e+02 1.721174716949462891e+00 -5.366571426391601562e+00 7.109472062438726425e-04 5.361565854400396347e-04 3.741311375051736832e-04 -1.431280397810041904e-04
9.970000000000000000e+02 2.442984199523925781e+01 -9.257827758789062500e+00 1.824508070945739746e+00 1.423160362243652344e+01 4.816833496093750000e+00 3.922639489173889160e-01
9.980000000000000000e+02 2.063235855102539062e+01 4.643353223800659180e-01 -1.124752536416053772e-01 6.264264583587646484e+00 1.845536828041076660e+00 -2.057458639144897461e+00
9.990000000000000000e+02 2.165881729125976562e+01 4.907507419586181641e+00 4.553197324275970459e-01 7.915843009948730469e+00 2.511348724365234375e+00 -1.892112135887145996e+00
1.000000000000000000e+03 2.123587989807128906e+01 6.051147460937500000e+00 6.169083714485168457e-01 7.914322376251220703e+00 2.559369325637817383e+00 -1.813996195793151855e+00
1.001000000000000000e+03 2.603117752075195312e+01 -7.369796752929687500e+00 6.327445030212402344e+00 1.198048782348632812e+01 5.492379665374755859e+00 -7.238317131996154785e-01
1.002000000000000000e+03 2.737275505065917969e+01 -7.058054447174072266e+00 5.331245422363281250e+00 1.056695175170898438e+01 4.769459247589111328e+00 -1.883970201015472412e-01
1.003000000000000000e+03 2.532866287231445312e+01 -4.553589344024658203e+00 3.119204998016357422e+00 1.401966381072998047e+01 5.141660690307617188e+00 1.756188273429870605e+00
1.004000000000000000e+03 1.083331871032714844e+01 9.043467521667480469e+00 -2.128376509062945843e-04 -5.499215330928564072e-03 -1.713615842163562775e-03 -2.172046573832631111e-03
1.005000000000000000e+03 1.109760570526123047e+01 1.062636756896972656e+01 -1.933445222675800323e-03 -5.417312029749155045e-03 -2.205227036029100418e-03 -4.160968586802482605e-03
1.006000000000000000e+03 1.333034324645996094e+01 6.153900623321533203e+00 -1.145937014371156693e-03 -2.559058339102193713e-05 -3.514582640491425991e-04 -1.345243188552558422e-03
1.007000000000000000e+03 5.785640239715576172e+00 -1.416150951385498047e+01 -1.266842149198055267e-02 -1.002217270433902740e-02 -6.807178258895874023e-03 1.209932100027799606e-02
1.008000000000000000e+03 6.548439502716064453e+00 -1.298690700531005859e+01 4.892089636996388435e-04 -1.108984928578138351e-03 -1.859327749116346240e-04 -4.009775817394256592e-03
1.009000000000000000e+03 1.869870185852050781e+01 1.071213626861572266e+01 1.254790067672729492e+00 7.965035438537597656e+00 2.765947818756103516e+00 -2.141908645629882812e+00
1.010000000000000000e+03 2.087517356872558594e+01 7.286928653717041016e+00 8.283669948577880859e-01 7.951180934906005859e+00 2.633864402770996094e+00 -1.803808569908142090e+00
1.011000000000000000e+03 1.119562911987304688e+01 -3.635210037231445312e+00 -1.648417310207150877e-05 9.626338141970336437e-04 2.838448854163289070e-04 -4.886832903139293194e-04
1.012000000000000000e+03 9.684287071228027344e+00 -3.521221876144409180e+00 1.225627347594127059e-04 -3.663306997623294592e-04 -7.313039532164111733e-05 -1.488089183112606406e-04
1.013000000000000000e+03 1.786860275268554688e+01 -9.692823410034179688e+00 9.497988820075988770e-01 6.226264238357543945e-01 4.717275798320770264e-01 1.003765940666198730e+00
1.014000000000000000e+03 7.935148239135742188e+00 -2.016747093200683594e+01 2.209321111440658569e-01 2.561468482017517090e-01 1.431236863136291504e-01 1.683506071567535400e-01
1.015000000000000000e+03 7.584885120391845703e+00 -1.866653060913085938e+01 -1.276975125074386597e-01 2.698837593197822571e-02 -3.021274320781230927e-02 7.434525340795516968e-02
1.016000000000000000e+03 1.006938648223876953e+01 4.136795043945312500e+00 3.698980726767331362e-04 -8.217852446250617504e-04 -1.355661515844985843e-04 -2.005487214773893356e-03
1.017000000000000000e+03 3.911467194557189941e-01 3.795323848724365234e+00 3.842690202873200178e-04 4.353436524979770184e-04 2.458837989252060652e-04 -2.948392357211560011e-04
1.018000000000000000e+03 9.764378547668457031e+00 -6.718138694763183594e+00 2.947784087155014277e-04 1.075443113222718239e-03 4.110664594918489456e-04 -7.427592645399272442e-04
1.019000000000000000e+03 1.488168621063232422e+01 -1.876960372924804688e+01 4.227623641490936279e-01 2.306447029113769531e+00 8.187627792358398438e-01 1.243140459060668945e+00
1.020000000000000000e+03 1.499588489532470703e+01 -1.600906562805175781e+01 7.293957471847534180e-01 1.872990489006042480e+00 7.807158827781677246e-01 1.200105667114257812e+00
1.021000000000000000e+03 8.887701988220214844e+00 -2.005041694641113281e+01 3.113322556018829346e-01 4.421792030334472656e-01 2.260534316301345825e-01 3.781821131706237793e-01
1.022000000000000000e+03 1.975479125976562500e+01 -2.270379066467285156e+00 1.458121836185455322e-01 2.872375488281250000e+00 9.054562449455261230e-01 -1.403194665908813477e+00
1.023000000000000000e+03 2.140192413330078125e+01 -8.343925476074218750e+00 3.800380945205688477e+00 3.641779661178588867e+00 2.232648134231567383e+00 3.747371673583984375e+00
1.024000000000000000e+03 3.583996057510375977e+00 2.173363876342773438e+01 6.669770926237106323e-02 8.538806438446044922e-02 4.562573134899139404e-02 5.136048793792724609e-02
1.025000000000000000e+03 1.932525444030761719e+01 -1.068775558471679688e+01 1.751860380172729492e+00 2.678104877471923828e+00 1.328989505767822266e+00 2.467456102371215820e+00
1.026000000000000000e+03 7.814402770996093750e+01 -3.585649108886718750e+01 -7.857440970838069916e-03 7.949382305145263672e+00 2.382457494735717773e+00 -2.556929551064968109e-02
1.027000000000000000e+03 7.471397399902343750e+01 -3.335110473632812500e+01 -2.977801859378814697e-02 7.858222007751464844e+00 2.348533153533935547e+00 -9.965899586677551270e-02
1.028000000000000000e+03 7.709239959716796875e+01 -3.598663330078125000e+01 -1.607075333595275879e-02 7.930793762207031250e+00 2.374417066574096680e+00 -4.097355157136917114e-02
1.029000000000000000e+03 7.542725372314453125e+01 -2.226639175415039062e+01 1.779704936780035496e-03 7.632854938507080078e+00 2.290390253067016602e+00 -1.321443468332290649e-01
1.030000000000000000e+03 7.799810028076171875e+01 -2.908674621582031250e+01 -2.825179835781455040e-03 7.806924343109130859e+00 2.341229915618896484e+00 -5.786745622754096985e-02
1.031000000000000000e+03 7.538877868652343750e+01 1.536965084075927734e+01 5.447356961667537689e-03 7.719810009002685547e+00 2.317577123641967773e+00 1.633894592523574829e-01
1.032000000000000000e+03 7.672406005859375000e+01 1.539896392822265625e+01 3.246959764510393143e-03 7.715744495391845703e+00 2.315697431564331055e+00 1.228096932172775269e-01
1.033000000000000000e+03 7.740110015869140625e+01 3.521600341796875000e+01 -1.141556259244680405e-02 8.272635459899902344e+00 2.478365898132324219e+00 4.145882651209831238e-02
1.034000000000000000e+03 7.608973693847656250e+01 3.204619598388671875e+01 -1.518141385167837143e-02 8.188356399536132812e+00 2.451952457427978516e+00 8.192341029644012451e-02
1.035000000000000000e+03 7.806726837158203125e+01 -2.221718597412109375e+01 4.539892252068966627e-04 7.610738754272460938e+00 2.283357858657836914e+00 -6.312996149063110352e-02
1.036000000000000000e+03 7.679644012451171875e+01 -2.356520652770996094e+01 -6.070174276828765869e-04 7.657249450683593750e+00 2.296992778778076172e+00 -9.869442135095596313e-02
1.037000000000000000e+03 7.656300354003906250e+01 -3.034633064270019531e+01 -9.775676764547824860e-03 7.822381019592285156e+00 2.343781709671020508e+00 -8.728653192520141602e-02
1.038000000000000000e+03 7.804350280761718750e+01 -2.770325851440429688e+01 -1.779669313691556454e-03 7.770348548889160156e+00 2.330570697784423828e+00 -5.975761264562606812e-02
1.039000000000000000e+03 7.667351531982421875e+01 -2.893350410461425781e+01 -6.806501187384128571e-03 7.791107177734375000e+00 2.335290193557739258e+00 -9.064546972513198853e-02
1.040000000000000000e+03 7.674530029296875000e+01 -2.757446861267089844e+01 -4.602272994816303253e-03 7.759585380554199219e+00 2.326494932174682617e+00 -9.318921715021133423e-02
1.041000000000000000e+03 7.680505371093750000e+01 -2.490860557556152344e+01 -2.073641633614897728e-03 7.692856788635253906e+00 2.307235002517700195e+00 -9.746750444173812866e-02
1.042000000000000000e+03 7.552202606201171875e+01 -2.358899879455566406e+01 -1.132564735598862171e-03 7.664320468902587891e+00 2.298956394195556641e+00 -1.311209201812744141e-01
1.043000000000000000e+03 7.641479492187500000e+01 -3.328565979003906250e+01 -1.554673817008733749e-02 7.880417823791503906e+00 2.359461307525634766e+00 -7.144974917173385620e-02
1.044000000000000000e+03 7.663180541992187500e+01 -3.471923446655273438e+01 -1.692842133343219757e-02 7.906598567962646484e+00 2.366901159286499023e+00 -5.691577494144439697e-02
1.045000000000000000e+03 7.487226104736328125e+01 -4.013176727294921875e+01 -2.317469194531440735e-02 7.927849769592285156e+00 2.371402502059936523e+00 -3.030960261821746826e-02
1.046000000000000000e+03 7.783869934082031250e+01 2.235558891296386719e+01 -1.764511223882436752e-03 7.958945274353027344e+00 2.387154102325439453e+00 8.349359035491943359e-02
1.047000000000000000e+03 7.658695220947265625e+01 1.950787925720214844e+01 -1.148679992184042931e-03 7.849533557891845703e+00 2.354515552520751953e+00 1.294009089469909668e-01
1.048000000000000000e+03 7.482276153564453125e+01 2.208245658874511719e+01 -8.028727024793624878e-03 7.908419132232666016e+00 2.370117187500000000e+00 1.757672280073165894e-01
1.049000000000000000e+03 7.648903656005859375e+01 2.088684654235839844e+01 -2.130398526787757874e-03 7.891929626464843750e+00 2.366939783096313477e+00 1.301319003105163574e-01
1.050000000000000000e+03 7.674156188964843750e+01 1.264765739440917969e+01 5.622065160423517227e-03 7.628980159759521484e+00 2.290380716323852539e+00 1.156979501247406006e-01
1.051000000000000000e+03 7.539025878906250000e+01 8.526234626770019531e+00 1.736793853342533112e-02 7.537537574768066406e+00 2.266471624374389648e+00 1.321687996387481689e-01
1.052000000000000000e+03 7.673857879638671875e+01 1.402687263488769531e+01 4.063214641064405441e-03 7.671829223632812500e+00 2.302767753601074219e+00 1.195672824978828430e-01
1.053000000000000000e+03 7.616205596923828125e+01 2.371694946289062500e+01 -7.241663057357072830e-03 7.973145961761474609e+00 2.389771223068237305e+00 1.330904513597488403e-01
1.054000000000000000e+03 7.769415283203125000e+01 2.660321426391601562e+01 -4.710938315838575363e-03 8.093977928161621094e+00 2.426779985427856445e+00 7.582695782184600830e-02
1.055000000000000000e+03 7.804864501953125000e+01 -2.084205245971679688e+01 7.065531099215149879e-04 7.570584774017333984e+00 2.271387338638305664e+00 -6.277193874120712280e-02
1.056000000000000000e+03 7.675801849365234375e+01 -2.220743751525878906e+01 5.934063228778541088e-04 7.621755599975585938e+00 2.286704778671264648e+00 -9.963338077068328857e-02
1.057000000000000000e+03 7.804864501953125000e+01 5.663739681243896484e+00 4.765381105244159698e-03 7.405480384826660156e+00 2.223073720932006836e+00 5.230364575982093811e-02
1.058000000000000000e+03 7.674661254882812500e+01 2.899523258209228516e+00 1.343634724617004395e-02 7.390075206756591797e+00 2.221053361892700195e+00 6.247828900814056396e-02
1.059000000000000000e+03 7.535308837890625000e+01 -1.523157310485839844e+01 1.756234280765056610e-02 7.482121944427490234e+00 2.249905347824096680e+00 -1.087203100323677063e-01
1.060000000000000000e+03 7.547981262207031250e+01 -8.241792678833007812e+00 2.699419669806957245e-02 7.383277893066406250e+00 2.223081588745117188e+00 -4.315064847469329834e-02
1.061000000000000000e+03 7.803877258300781250e+01 -1.526726245880126953e+01 3.630494466051459312e-03 7.419944763183593750e+00 2.227072477340698242e+00 -5.183316394686698914e-02
1.062000000000000000e+03 7.549758148193359375e+01 -1.293100714683532715e+00 2.795549109578132629e-02 7.379284858703613281e+00 2.222172021865844727e+00 3.689631447196006775e-02
1.063000000000000000e+03 7.678109741210937500e+01 -8.264373779296875000e+00 1.456720754504203796e-02 7.343293190002441406e+00 2.207358121871948242e+00 -3.270015493035316467e-02
1.064000000000000000e+03 7.589090728759765625e+01 3.465930938720703125e+01 -1.616685278713703156e-02 8.221789360046386719e+00 2.461686849594116211e+00 6.425537168979644775e-02
1.065000000000000000e+03 7.805127716064453125e+01 7.058599948883056641e+00 3.994379658252000809e-03 7.440887928009033203e+00 2.233464717864990234e+00 5.774816870689392090e-02
1.066000000000000000e+03 7.673487091064453125e+01 5.703806400299072266e+00 1.145372912287712097e-02 7.444174766540527344e+00 2.236688613891601562e+00 8.256011456251144409e-02
1.067000000000000000e+03 7.680289459228515625e+01 -2.698750972747802734e+00 1.519976742565631866e-02 7.329579353332519531e+00 2.203433752059936523e+00 1.548349671065807343e-02
1.068000000000000000e+03 7.676163482666015625e+01 -9.664107322692871094e+00 1.388283632695674896e-02 7.358123779296875000e+00 2.211601972579956055e+00 -4.429778456687927246e-02
1.069000000000000000e+03 7.669190216064453125e+01 -1.665140533447265625e+01 7.661195006221532822e-03 7.484396934509277344e+00 2.247617483139038086e+00 -8.860343694686889648e-02
1.070000000000000000e+03 7.478693389892578125e+01 3.320630264282226562e+01 -3.105716407299041748e-02 8.161127090454101562e+00 2.439020872116088867e+00 9.745746105909347534e-02
1.071000000000000000e+03 7.277349853515625000e+01 3.420639801025390625e+01 -5.597990006208419800e-02 8.106937408447265625e+00 2.415287256240844727e+00 1.144253686070442200e-01
1.072000000000000000e+03 7.649886322021484375e+01 3.083229827880859375e+01 -1.183810271322727203e-02 8.174090385437011719e+00 2.448675632476806641e+00 8.125131577253341675e-02
1.073000000000000000e+03 7.665010833740234375e+01 1.813403511047363281e+01 8.631370728835463524e-04 7.804557323455810547e+00 2.341626167297363281e+00 1.274992078542709351e-01
1.074000000000000000e+03 7.673754119873046875e+01 9.883983612060546875e+00 8.119822479784488678e-03 7.548226833343505859e+00 2.266904115676879883e+00 1.054192110896110535e-01
1.075000000000000000e+03 7.805732727050781250e+01 1.472452402114868164e+00 5.614636465907096863e-03 7.322666168212890625e+00 2.198484182357788086e+00 3.266779333353042603e-02
1.076000000000000000e+03 7.679128265380859375e+01 -1.299279808998107910e+00 1.505779847502708435e-02 7.338060379028320312e+00 2.205935478210449219e+00 2.759568765759468079e-02
1.077000000000000000e+03 7.808251953125000000e+01 -6.900815963745117188e+00 5.999490153044462204e-03 7.284752845764160156e+00 2.187225580215454102e+00 -1.340614724904298782e-02
1.078000000000000000e+03 7.670843505859375000e+01 -1.524642372131347656e+01 9.224272333085536957e-03 7.453158378601074219e+00 2.238714933395385742e+00 -8.193650096654891968e-02
1.079000000000000000e+03 7.673780822753906250e+01 4.302777290344238281e+00 1.275806967169046402e-02 7.415374279022216797e+00 2.228439807891845703e+00 7.296275347471237183e-02
1.080000000000000000e+03 7.680730438232421875e+01 -5.483569145202636719e+00 1.520321331918239594e-02 7.326911926269531250e+00 2.202634572982788086e+00 -8.859400637447834015e-03
1.081000000000000000e+03 7.680899810791015625e+01 -4.092228412628173828e+00 1.528104674071073532e-02 7.325829505920410156e+00 2.202333211898803711e+00 3.190551884472370148e-03
1.082000000000000000e+03 7.542145538330078125e+01 -1.105038166046142578e+01 2.416551485657691956e-02 7.413713932037353516e+00 2.231363773345947266e+00 -7.301348447799682617e-02
1.083000000000000000e+03 7.672049713134765625e+01 -1.385291099548339844e+01 1.062217634171247482e-02 7.424584388732910156e+00 2.230561971664428711e+00 -7.380194962024688721e-02
1.084000000000000000e+03 7.674433135986328125e+01 -1.106538581848144531e+01 1.300102379173040390e-02 7.376976966857910156e+00 2.216993331909179688e+00 -5.504304170608520508e-02
1.085000000000000000e+03 7.671078491210937500e+01 -2.084416580200195312e+01 2.493560314178466797e-03 7.586413860321044922e+00 2.276672124862670898e+00 -9.958245605230331421e-02
1.086000000000000000e+03 7.667967987060546875e+01 -1.805916404724121094e+01 5.785359535366296768e-03 7.517906665802001953e+00 2.257107496261596680e+00 -9.432534128427505493e-02
1.087000000000000000e+03 7.531986236572265625e+01 -1.664661026000976562e+01 1.435230579227209091e-02 7.511227130889892578e+00 2.257673740386962891e+00 -1.186828389763832092e-01
1.088000000000000000e+03 7.483098506927490234e+00 1.307494354248046875e+01 5.521759856492280960e-03 -1.458189170807600021e-02 -2.718039555475115776e-03 8.301614783704280853e-03
1.089000000000000000e+03 1.144472694396972656e+01 8.044676780700683594e+00 1.818936470954213291e-05 5.086711607873439789e-03 1.531470217742025852e-03 3.049414837732911110e-03
1.090000000000000000e+03 1.294919776916503906e+01 7.307710647583007812e+00 1.249203807674348354e-03 2.031638287007808685e-03 9.842526633292436600e-04 2.021505031734704971e-03
1.091000000000000000e+03 8.864953994750976562e+00 -9.496677398681640625e+00 -1.077396795153617859e-03 3.585047579690581188e-06 -3.221435181330889463e-04 7.321212906390428543e-04
1.092000000000000000e+03 1.835104370117187500e+01 1.193960762023925781e+01 1.159424543380737305e+00 7.545619010925292969e+00 2.611513137817382812e+00 -2.237938880920410156e+00
1.093000000000000000e+03 1.957374572753906250e+01 1.430095958709716797e+01 8.770748376846313477e-01 6.746629238128662109e+00 2.287111282348632812e+00 -1.520719289779663086e+00
1.094000000000000000e+03 4.710077285766601562e+00 3.645785522460937500e+01 -5.813087895512580872e-02 1.015817523002624512e+00 2.873059809207916260e-01 -1.191609799861907959e-01
1.095000000000000000e+03 1.987050771713256836e+00 2.751360511779785156e+01 2.015974558889865875e-02 3.596454486250877380e-02 1.683728769421577454e-02 -8.325020223855972290e-02
1.096000000000000000e+03 3.496140718460083008e+00 3.018848800659179688e+01 -1.070653903298079967e-03 4.889951646327972412e-01 1.463773548603057861e-01 -1.867732703685760498e-01
1.097000000000000000e+03 1.947684049606323242e+00 2.610661888122558594e+01 2.590170875191688538e-02 -2.380737289786338806e-02 6.283008260652422905e-04 -5.576839670538902283e-02
1.098000000000000000e+03 3.327628612518310547e+00 2.740095329284667969e+01 4.973990470170974731e-02 3.043646812438964844e-01 1.062313765287399292e-01 -1.492777764797210693e-01
1.099000000000000000e+03 6.343456268310546875e+00 3.014599990844726562e+01 -1.036519370973110199e-02 1.164138436317443848e+00 3.461319506168365479e-01 -3.329932391643524170e-01
1.100000000000000000e+03 3.610541343688964844e+00 3.162612724304199219e+01 -9.307272732257843018e-03 6.033128499984741211e-01 1.782016754150390625e-01 -1.981828957796096802e-01
1.101000000000000000e+03 3.415861845016479492e+00 2.878714179992675781e+01 2.519364096224308014e-02 4.009583294391632080e-01 1.278456002473831177e-01 -1.759718656539916992e-01
1.102000000000000000e+03 5.910314083099365234e+00 3.836800765991210938e+01 -8.344851434230804443e-02 1.342839837074279785e+00 3.778173923492431641e-01 -9.913472831249237061e-02
1.103000000000000000e+03 1.989905357360839844e+00 3.720372772216796875e+01 -2.303043194115161896e-02 4.853660166263580322e-01 1.387006789445877075e-01 -8.773171156644821167e-02
1.104000000000000000e+03 3.811930179595947266e+00 3.465076446533203125e+01 -9.732937440276145935e-03 8.076911568641662598e-01 2.393874675035476685e-01 -1.619704216718673706e-01
1.105000000000000000e+03 3.858922719955444336e+00 3.313043212890625000e+01 -2.326058596372604370e-02 7.463657855987548828e-01 2.169315665960311890e-01 -1.860851496458053589e-01
1.106000000000000000e+03 3.455465078353881836e+00 -3.542987442016601562e+01 7.291173562407493591e-03 4.796231687068939209e-01 1.460742950439453125e-01 6.831442564725875854e-02
1.107000000000000000e+03 3.493907928466796875e+00 -3.050420951843261719e+01 8.280286565423011780e-03 3.920250236988067627e-01 1.200915873050689697e-01 1.268958896398544312e-01
1.108000000000000000e+03 2.055108308792114258e+00 -2.908893966674804688e+01 8.279438130557537079e-03 3.484295681118965149e-02 1.293671876192092896e-02 6.130383536219596863e-02
1.109000000000000000e+03 4.742950916290283203e+00 -2.791907119750976562e+01 5.131213739514350891e-02 4.786295294761657715e-01 1.589825004339218140e-01 1.555847823619842529e-01
1.110000000000000000e+03 3.203902006149291992e+00 2.311567115783691406e+01 7.921658456325531006e-02 8.721076697111129761e-02 4.992820695042610168e-02 2.333090640604496002e-03
1.111000000000000000e+03 5.477576732635498047e+00 -1.024731063842773438e+01 7.080107752699404955e-05 -3.510628594085574150e-03 -1.031948253512382507e-03 4.385583742987364531e-04
1.112000000000000000e+03 1.658919930458068848e+00 -1.350727748870849609e+01 -3.389552002772688866e-03 -5.831131711602210999e-04 -1.191799528896808624e-03 -3.424288006499409676e-03
1.113000000000000000e+03 1.743511557579040527e+00 2.042691230773925781e+01 -3.576448652893304825e-03 -9.129957854747772217e-02 -2.846280671656131744e-02 7.053003460168838501e-02
1.114000000000000000e+03 1.889124870300292969e+00 1.896907043457031250e+01 -7.944901473820209503e-03 -5.555811151862144470e-02 -1.905090361833572388e-02 7.091220468282699585e-02
1.115000000000000000e+03 5.559476852416992188e+00 1.828090286254882812e+01 -8.527714014053344727e-02 1.183003336191177368e-01 9.906959719955921173e-03 2.008510380983352661e-02
1.116000000000000000e+03 5.439436435699462891e+00 1.331147384643554688e+01 -1.392044033855199814e-02 9.936986316461116076e-05 -4.146321211010217667e-03 3.460775478743016720e-04
1.117000000000000000e+03 2.019713163375854492e+00 -2.337295532226562500e+01 2.583781629800796509e-02 -9.009753167629241943e-02 -1.927791535854339600e-02 -3.143015503883361816e-02
1.118000000000000000e+03 3.119472265243530273e+00 -2.043384552001953125e+01 1.012030802667140961e-02 2.274133637547492981e-02 9.858493693172931671e-03 -7.904531061649322510e-02
1.119000000000000000e+03 3.922883272171020508e+00 5.266894817352294922e+00 2.120561432093381882e-03 -1.967965392395853996e-03 4.577881554723717272e-05 -1.265335828065872192e-03
1.120000000000000000e+03 2.532505512237548828e+00 7.701444149017333984e+00 -1.660376903600990772e-03 1.272765803150832653e-03 -1.162833359558135271e-04 9.437530366085411515e-07
1.121000000000000000e+03 4.515880584716796875e+00 1.450689697265625000e+01 -2.694305777549743652e-02 8.408462628722190857e-03 -5.560378078371286392e-03 -4.257816821336746216e-03
1.122000000000000000e+03 1.866435170173645020e+00 1.745110511779785156e+01 -1.773549430072307587e-02 -2.388670481741428375e-02 -1.248665992170572281e-02 5.080635845661163330e-02
1.123000000000000000e+03 3.466917037963867188e+00 1.995285606384277344e+01 1.074341053026728332e-04 5.313556641340255737e-02 1.597290113568305969e-02 8.175961673259735107e-02
1.124000000000000000e+03 2.520360469818115234e+00 8.982503890991210938e+00 2.461476949974894524e-03 -7.078662165440618992e-04 5.260832840576767921e-04 -2.203981857746839523e-03
1.125000000000000000e+03 3.013206958770751953e+00 -4.683663368225097656e+00 6.984976935200393200e-04 5.826874403282999992e-04 3.843555459752678871e-04 -6.128269887994974852e-05
1.126000000000000000e+03 2.057084321975708008e+00 -4.234838962554931641e+00 -7.372708059847354889e-04 -5.317248869687318802e-04 -3.806987078860402107e-04 3.774312499444931746e-04
1.127000000000000000e+03 1.796861290931701660e+00 -1.752547073364257812e+01 -2.052999474108219147e-02 -2.338466420769691467e-02 -1.317439693957567215e-02 -4.902249947190284729e-02
1.128000000000000000e+03 7.146440029144287109e+00 -9.827901840209960938e+00 -8.929123869165778160e-04 -6.150240660645067692e-04 -4.523809475358575583e-04 -6.811165803810581565e-05
1.129000000000000000e+03 3.376171350479125977e+00 -2.911093521118164062e+01 2.565659396350383759e-02 2.939133644104003906e-01 9.587098658084869385e-02 1.116291210055351257e-01
1.130000000000000000e+03 3.249074935913085938e+00 -2.184833717346191406e+01 4.929345846176147461e-02 4.901143163442611694e-02 2.949146740138530731e-02 -5.755561962723731995e-02
1.131000000000000000e+03 4.419460296630859375e+00 -3.754874420166015625e+01 4.195388872176408768e-03 6.631681323051452637e-01 2.002090513706207275e-01 2.729735709726810455e-02
1.132000000000000000e+03 4.492983341217041016e+00 -1.821450805664062500e+01 -4.657358676195144653e-02 7.683422416448593140e-02 9.078190661966800690e-03 -8.757886290550231934e-02
1.133000000000000000e+03 2.689648151397705078e+00 -8.144469261169433594e+00 -1.121090754168108106e-04 -3.983629576396197081e-04 -1.531416055513545871e-04 1.047289581038057804e-03
1.134000000000000000e+03 6.482857704162597656e+00 -1.934360313415527344e+01 1.396365743130445480e-02 1.429426074028015137e-01 4.707188159227371216e-02 -3.265741467475891113e-02
1.135000000000000000e+03 2.549128293991088867e+00 -3.443954086303710938e+01 -2.534641884267330170e-03 2.888822853565216064e-01 8.590429276227951050e-02 9.007643908262252808e-02
1.136000000000000000e+03 5.951581478118896484e+00 -3.371526718139648438e+01 -1.626903377473354340e-02 1.019123792648315430e+00 3.008564412593841553e-01 1.842250972986221313e-01
1.137000000000000000e+03 3.418272972106933594e+00 -3.344651031494140625e+01 9.263015352189540863e-03 4.912335872650146484e-01 1.501489877700805664e-01 1.032172814011573792e-01
1.138000000000000000e+03 3.425614595413208008e+00 -2.632219123840332031e+01 5.070484429597854614e-02 1.870704591274261475e-01 7.133258879184722900e-02 7.072540372610092163e-02
1.139000000000000000e+03 4.900526046752929688e+00 -2.487269020080566406e+01 9.774943441152572632e-02 3.723573386669158936e-01 1.410320252180099487e-01 9.804255515336990356e-02
1.140000000000000000e+03 2.723027944564819336e+00 -1.483379745483398438e+01 -1.635750383138656616e-02 1.011491403914988041e-03 -4.603804089128971100e-03 -1.380852051079273224e-02
1.141000000000000000e+03 2.794000864028930664e+00 -1.355137634277343750e+01 -9.863478131592273712e-03 -2.154337940737605095e-03 -3.605344565585255623e-03 -2.493738429620862007e-03
1.142000000000000000e+03 2.642985343933105469e+00 1.021598720550537109e+01 -2.264611423015594482e-03 -8.466571307508274913e-05 -7.047831313684582710e-04 -1.276561124541331083e-05
1.143000000000000000e+03 3.272207260131835938e+00 1.433210563659667969e+01 -1.873502321541309357e-02 3.913223743438720703e-03 -4.446540027856826782e-03 9.840109385550022125e-03
1.144000000000000000e+03 6.851573467254638672e+00 1.667009925842285156e+01 -1.066505461931228638e-01 1.311839930713176727e-02 -2.805964462459087372e-02 -7.808872312307357788e-02
1.145000000000000000e+03 5.613082885742187500e+00 1.672011947631835938e+01 -7.675540447235107422e-02 5.670613795518875122e-02 -6.014779210090637207e-03 -1.042645983397960663e-02
1.146000000000000000e+03 4.323514461517333984e+00 1.701433944702148438e+01 -6.356013566255569458e-02 6.257356703281402588e-02 -2.959705307148396969e-04 3.512895107269287109e-02
1.147000000000000000e+03 5.343441963195800781e+00 1.534059143066406250e+01 -5.175980925559997559e-02 2.627427503466606140e-02 -7.645660080015659332e-03 -1.201166119426488876e-02
1.148000000000000000e+03 7.458896636962890625e+00 1.509135246276855469e+01 1.155640464276075363e-02 -3.970897197723388672e-02 -8.445770479738712311e-03 -1.302261278033256531e-02
1.149000000000000000e+03 3.704674959182739258e+00 -9.392800331115722656e+00 6.725341518176719546e-05 -1.638961839489638805e-03 -4.715124960057437420e-04 4.899294581264257431e-04
1.150000000000000000e+03 8.848704338073730469e+00 -7.662108421325683594e+00 -5.681007169187068939e-04 -4.821151669602841139e-04 -3.150647680740803480e-04 3.685715491883456707e-04
1.151000000000000000e+03 7.953166007995605469e+00 -8.701044082641601562e+00 2.934887597803026438e-04 1.373882871121168137e-03 5.002114921808242798e-04 -1.278648967854678631e-03
1.152000000000000000e+03 1.194411373138427734e+01 7.040656566619873047e+00 -9.119049063883721828e-04 -2.155135618522763252e-03 -9.201121283695101738e-04 -2.217796398326754570e-03
1.153000000000000000e+03 2.289006042480468750e+01 5.575669765472412109e+00 4.456937313079833984e-01 8.144845962524414062e+00 2.577162027359008789e+00 -1.791915297508239746e+00
1.154000000000000000e+03 1.656923294067382812e+01 1.845687484741210938e+01 5.006855130195617676e-01 4.794938564300537109e+00 1.588687300682067871e+00 -1.443807125091552734e+00
1.155000000000000000e+03 1.931495666503906250e+01 1.750012397766113281e+01 4.300233721733093262e-01 5.967558860778808594e+00 1.919274687767028809e+00 -1.183238148689270020e+00
1.156000000000000000e+03 1.952972984313964844e+01 1.321566677093505859e+01 1.025944352149963379e+00 6.940664768218994141e+00 2.389982700347900391e+00 -1.600999712944030762e+00
1.157000000000000000e+03 1.490608501434326172e+01 -1.438387775421142578e+01 8.151692152023315430e-01 1.510127663612365723e+00 6.975890994071960449e-01 1.073584437370300293e+00
1.158000000000000000e+03 1.644916725158691406e+01 -1.410503292083740234e+01 9.872774481773376465e-01 1.954545259475708008e+00 8.825468420982360840e-01 1.511694788932800293e+00
1.159000000000000000e+03 1.570549678802490234e+01 -1.500780582427978516e+01 8.366407752037048340e-01 1.901967644691467285e+00 8.215824961662292480e-01 1.323362350463867188e+00
1.160000000000000000e+03 1.193142318725585938e+01 -1.843422317504882812e+01 2.957674562931060791e-01 1.232032179832458496e+00 4.583398997783660889e-01 8.045170307159423828e-01
1.161000000000000000e+03 1.432548522949218750e+01 -1.707067680358886719e+01 5.484431982040405273e-01 1.834295034408569336e+00 7.148214578628540039e-01 1.101776123046875000e+00
1.162000000000000000e+03 2.054994392395019531e+01 8.572540283203125000e+00 9.934680461883544922e-01 7.870131492614746094e+00 2.659079790115356445e+00 -1.784366846084594727e+00
1.163000000000000000e+03 2.112563705444335938e+01 1.161501598358154297e+01 1.019427776336669922e+00 7.270084381103515625e+00 2.486853599548339844e+00 -1.429827451705932617e+00
1.164000000000000000e+03 1.683968544006347656e+01 1.675876235961914062e+01 9.388030767440795898e-01 5.131422996520996094e+00 1.821067810058593750e+00 -1.658701658248901367e+00
1.165000000000000000e+03 1.279984664916992188e+01 2.138393211364746094e+01 2.922796308994293213e-01 2.633467912673950195e+00 8.777242302894592285e-01 -1.331012010574340820e+00
1.166000000000000000e+03 1.141561508178710938e+01 2.026152610778808594e+01 5.413767099380493164e-01 1.445234179496765137e+00 5.959832668304443359e-01 -1.196567296981811523e+00
1.167000000000000000e+03 3.894639492034912109e+00 -1.493406009674072266e+01 -2.883333526551723480e-02 5.579383578151464462e-03 -6.976185832172632217e-03 -4.610581789165735245e-03
1.168000000000000000e+03 4.981020450592041016e+00 -8.484480857849121094e+00 -4.082694431417621672e-05 -1.976201077923178673e-03 -6.051083910278975964e-04 3.464872133918106556e-04
1.169000000000000000e+03 9.066122055053710938e+00 -3.796069335937500000e+01 -1.661366522312164307e-01 1.812603473663330078e+00 4.939400255680084229e-01 1.722766309976577759e-01
1.170000000000000000e+03 4.805310726165771484e+00 4.043470001220703125e+01 -8.721734583377838135e-02 1.021148800849914551e+00 2.801794409751892090e-01 -3.777655307203531265e-03
1.171000000000000000e+03 2.169516563415527344e+01 -8.257507324218750000e+00 4.084152698516845703e+00 4.705345630645751953e+00 2.636849403381347656e+00 4.443502902984619141e+00
1.172000000000000000e+03 2.346175765991210938e+01 -4.083604812622070312e+00 2.526372373104095459e-01 1.439760589599609375e+01 4.395072937011718750e+00 -2.317374944686889648e+00
1.173000000000000000e+03 2.019536972045898438e+01 -8.573697090148925781e+00 2.497486114501953125e+00 1.854746818542480469e+00 1.305669903755187988e+00 1.979211330413818359e+00
1.174000000000000000e+03 2.097341346740722656e+01 -4.166761398315429688e+00 1.700755238533020020e+00 3.006954431533813477e+00 1.412312865257263184e+00 -2.277132749557495117e+00
1.175000000000000000e+03 2.159153938293457031e+01 -3.914513587951660156e+00 1.412691593170166016e+00 5.465886116027832031e+00 2.063573360443115234e+00 -3.190287113189697266e+00
1.176000000000000000e+03 2.305389595031738281e+01 -8.973997116088867188e+00 1.898138046264648438e+00 1.233892250061035156e+01 4.271118164062500000e+00 3.844289064407348633e+00
1.177000000000000000e+03 2.136643981933593750e+01 1.944163441658020020e-01 -1.904986798763275146e-01 7.129605770111083984e+00 2.081732273101806641e+00 -2.342668533325195312e+00
1.178000000000000000e+03 2.259615516662597656e+01 -8.888021469116210938e+00 2.448743581771850586e+00 1.068879127502441406e+01 3.941260337829589844e+00 4.960119724273681641e+00
1.179000000000000000e+03 2.364028167724609375e+01 -1.018050003051757812e+01 8.894734978675842285e-01 1.161414623260498047e+01 3.751085758209228516e+00 2.560044288635253906e+00
1.180000000000000000e+03 1.882780456542968750e+01 -9.334144592285156250e+00 1.466616749763488770e+00 1.173109769821166992e+00 7.919179201126098633e-01 1.401647090911865234e+00
1.181000000000000000e+03 2.639920425415039062e+01 -4.210281848907470703e+00 3.123830080032348633e+00 1.237388896942138672e+01 4.649315834045410156e+00 1.553988933563232422e+00
1.182000000000000000e+03 2.219653892517089844e+01 -8.845555305480957031e+00 2.991979837417602539e+00 8.255695343017578125e+00 3.374302625656127930e+00 5.148346424102783203e+00
1.183000000000000000e+03 1.998870658874511719e+01 -2.868273496627807617e+00 3.658872544765472412e-01 2.586360454559326172e+00 8.856743574142456055e-01 -1.396699190139770508e+00
1.184000000000000000e+03 8.601716041564941406e+00 4.112244606018066406e+00 1.197027275338768959e-03 -1.825837418437004089e-03 -1.886430400190874934e-04 -1.705560367554426193e-03
1.185000000000000000e+03 1.003494930267333984e+01 -3.068331480026245117e+00 -1.718157291179522872e-04 8.584759780205786228e-04 2.059980615740641952e-04 -2.705387305468320847e-04
1.186000000000000000e+03 8.901619911193847656e+00 -3.137088298797607422e+00 8.068303577601909637e-05 1.972500758711248636e-04 8.337993494933471084e-05 -1.442701613996177912e-04
1.187000000000000000e+03 7.922131061553955078e+00 4.081178665161132812e+00 -6.949151284061372280e-04 1.403504866175353527e-03 2.125769242411479354e-04 2.003489527851343155e-03
1.188000000000000000e+03 7.145197391510009766e+00 4.806859970092773438e+00 -1.162864034995436668e-03 1.651766360737383366e-03 1.466707035433501005e-04 1.283610472455620766e-03
1.189000000000000000e+03 3.724570274353027344e+00 6.444199085235595703e+00 -1.067738165147602558e-03 9.716011118143796921e-04 -2.884113018808420748e-05 6.232412852114066482e-05
1.190000000000000000e+03 2.433929204940795898e+00 4.892905712127685547e+00 -8.910637698136270046e-04 1.326203637290745974e-04 -2.275330189149826765e-04 6.532937404699623585e-04
1.191000000000000000e+03 4.774797439575195312e+00 5.154386520385742188e+00 -5.497100210050120950e-05 -1.604640157893300056e-03 -4.978833603672683239e-04 1.842031255364418030e-03
1.192000000000000000e+03 1.402854204177856445e+00 4.990930557250976562e+00 1.236918615177273750e-03 7.314835675060749054e-04 5.905206780880689621e-04 -1.561456709168851376e-03
1.193000000000000000e+03 1.700858950614929199e+00 3.378358125686645508e+00 -2.904155116993933916e-04 1.583368983119726181e-03 3.878860443364828825e-04 -6.989910616539418697e-04
1.194000000000000000e+03 7.525858402252197266e+00 -3.342082023620605469e+00 3.703567199409008026e-04 7.955026376293972135e-05 1.349720987491309643e-04 -1.491023285780102015e-04
1.195000000000000000e+03 1.061306953430175781e+01 -5.825652599334716797e+00 -3.066833887714892626e-04 -7.735129911452531815e-04 -3.240589285269379616e-04 5.487508606165647507e-04
1.196000000000000000e+03 1.096325683593750000e+01 3.353699684143066406e+00 -2.359634236199781299e-04 1.984311238629743457e-04 -1.125969083659583703e-05 -1.329583581537008286e-03
1.197000000000000000e+03 1.161267757415771484e+01 4.987514019012451172e+00 7.338263676501810551e-04 8.305435185320675373e-04 4.693109658546745777e-04 3.094433108344674110e-03
1.198000000000000000e+03 1.076380252838134766e+01 4.939921855926513672e+00 -4.606839138432405889e-05 -9.890015935525298119e-04 -3.105209907516837120e-04 -2.648353110998868942e-03
1.199000000000000000e+03 9.949160575866699219e+00 -5.211302757263183594e+00 -1.272611843887716532e-04 1.065842690877616405e-03 2.815744373947381973e-04 -4.044647503178566694e-04
1.200000000000000000e+03 4.637915134429931641e+00 -3.540498733520507812e+00 4.819912428501993418e-04 -1.009087718557566404e-04 1.143247427535243332e-04 1.871641143225133419e-04
1.201000000000000000e+03 6.330231189727783203e+00 -5.145406246185302734e+00 5.664451164193451405e-04 -1.344276097370311618e-04 1.296052505495026708e-04 -2.082022401737049222e-04
1.202000000000000000e+03 4.745323181152343750e+00 -4.334800243377685547e+00 -1.224387524416670203e-04 -3.878657880704849958e-04 -1.530913723399862647e-04 -3.037305032194126397e-05
1.203000000000000000e+03 7.046549797058105469e+00 -5.052584171295166016e+00 2.407966239843517542e-04 -4.696942050941288471e-04 -6.866927287774160504e-05 -3.918985385098494589e-05
1.204000000000000000e+03 8.230050086975097656e+00 -3.259361505508422852e+00 -1.294857793254777789e-04 -1.204546933877281845e-04 -7.498214108636602759e-05 -5.248377419775351882e-05
1.205000000000000000e+03 3.839728593826293945e+00 -7.130456924438476562e+00 2.912192394433077425e-05 -8.569445926696062088e-04 -2.483467978890985250e-04 7.911410648375749588e-04
1.206000000000000000e+03 3.402963161468505859e+00 -3.925354719161987305e+00 -2.523581497371196747e-04 -6.789949256926774979e-04 -2.794059109874069691e-04 3.582432400435209274e-04
1.207000000000000000e+03 3.844085454940795898e+00 -6.033415794372558594e+00 8.544463780708611012e-04 -8.702508057467639446e-05 2.302263892488554120e-04 -1.486222172388806939e-04
1.208000000000000000e+03 2.805508852005004883e+00 -5.756822586059570312e+00 -2.022038970608264208e-04 -4.835035069845616817e-04 -2.057122183032333851e-04 6.809422047808766365e-04
1.209000000000000000e+03 1.171126270294189453e+01 4.142766952514648438e+00 -7.854835712350904942e-04 4.255966341588646173e-04 -1.079660796676762402e-04 -1.834532595239579678e-03
1.210000000000000000e+03 2.032816314697265625e+01 -1.343660593032836914e+00 5.220714211463928223e-02 4.706897258758544922e+00 1.427731275558471680e+00 -1.950015902519226074e+00
1.211000000000000000e+03 1.960548210144042969e+01 -1.481139540672302246e+00 6.316936016082763672e-02 3.361796855926513672e+00 1.027489900588989258e+00 -1.413945913314819336e+00
1.212000000000000000e+03 2.587092971801757812e+01 -9.171710968017578125e+00 2.832820892333984375e+00 1.259849739074707031e+01 4.629395484924316406e+00 -8.618392348289489746e-01
1.213000000000000000e+03 2.539315605163574219e+01 -8.612097740173339844e+00 3.495818614959716797e+00 1.384699058532714844e+01 5.202842712402343750e+00 -1.003188967704772949e+00
1.214000000000000000e+03 2.774177360534667969e+01 -6.343456268310546875e+00 5.127915859222412109e+00 1.035259628295898438e+01 4.644153594970703125e+00 3.324154913425445557e-01
1.215000000000000000e+03 1.012903213500976562e+01 1.002613544464111328e+01 -2.098433207720518112e-03 1.022790558636188507e-02 2.438841853290796280e-03 2.563834888860583305e-03
1.216000000000000000e+03 9.960494041442871094e+00 8.518311500549316406e+00 -2.152167726308107376e-03 7.634589448571205139e-03 1.644726493395864964e-03 1.636409899219870567e-03
1.217000000000000000e+03 2.917181730270385742e+00 1.147768497467041016e+01 -1.051465515047311783e-04 -1.875677844509482384e-03 -5.942473071627318859e-04 -9.970689425244927406e-04
1.218000000000000000e+03 9.093524932861328125e+00 -3.838987112045288086e+00 -5.304123260430060327e-05 1.706274342723190784e-04 3.527586159179918468e-05 -1.518398585176328197e-05
1.219000000000000000e+03 1.809082984924316406e+01 -1.280635356903076172e+01 1.179106116294860840e+00 2.554510354995727539e+00 1.120084881782531738e+00 2.040635824203491211e+00
1.220000000000000000e+03 2.181153488159179688e+01 2.314477920532226562e+00 -1.923031359910964966e-02 7.761816024780273438e+00 2.322775602340698242e+00 -2.117088556289672852e+00
1.221000000000000000e+03 6.679057598114013672e+00 1.834527015686035156e+01 -1.077154651284217834e-01 1.191090196371078491e-01 3.418066073209047318e-03 -1.381089724600315094e-02
1.222000000000000000e+03 3.082347154617309570e+00 1.724423599243164062e+01 -3.507590293884277344e-02 1.796945556998252869e-02 -5.131934303790330887e-03 5.731628835201263428e-02
1.223000000000000000e+03 9.962569236755371094e+00 4.941908359527587891e+00 -6.306080613285303116e-04 1.392781734466552734e-03 2.286521048517897725e-04 3.481886116787791252e-03
1.224000000000000000e+03 4.064335346221923828e+00 1.093288803100585938e+01 -3.254638286307454109e-03 -2.388455905020236969e-03 -1.692928257398307323e-03 1.359681133180856705e-03
1.225000000000000000e+03 1.013916397094726562e+01 -2.042115020751953125e+01 2.357515394687652588e-01 7.898744344711303711e-01 3.076877892017364502e-01 6.247292160987854004e-01
1.226000000000000000e+03 3.136119842529296875e+00 -1.902507972717285156e+01 -7.317282725125551224e-03 2.041995339095592499e-02 3.930801060050725937e-03 -8.879774063825607300e-02
1.227000000000000000e+03 5.980766296386718750e+00 -1.817552947998046875e+01 -1.144726872444152832e-01 1.293016970157623291e-01 4.448701161891222000e-03 -4.644487425684928894e-02
1.228000000000000000e+03 1.010558986663818359e+01 -3.981711626052856445e+00 -1.867442333605140448e-04 8.814479806460440159e-04 2.084111183648929000e-04 -1.573237823322415352e-04
1.229000000000000000e+03 6.950440406799316406e+00 -2.072142791748046875e+01 1.288028210401535034e-01 2.325505167245864868e-01 1.084059998393058777e-01 8.844298869371414185e-02
1.230000000000000000e+03 2.210264968872070312e+01 7.808519363403320312e+00 8.120892643928527832e-01 7.817809581756591797e+00 2.588969707489013672e+00 -1.676190853118896484e+00
1.231000000000000000e+03 9.262231826782226562e+00 9.407732963562011719e+00 1.560242148116230965e-03 -7.908554747700691223e-03 -1.904493779875338078e-03 1.897831098176538944e-03
1.232000000000000000e+03 1.253245735168457031e+01 5.021039962768554688e+00 -1.005278667435050011e-03 2.361762599321082234e-04 -2.307307295268401504e-04 -1.791911665350198746e-03
1.233000000000000000e+03 8.455968856811523438e+00 1.199806404113769531e+01 -6.655757315456867218e-03 1.294560078531503677e-02 1.886953134089708328e-03 -1.329190330579876900e-03
1.234000000000000000e+03 5.798291683197021484e+00 1.121566295623779297e+01 -3.693766659125685692e-03 -3.981298301368951797e-03 -2.302519511431455612e-03 2.421872224658727646e-03
1.235000000000000000e+03 1.354988670349121094e+01 2.037618827819824219e+01 3.913868367671966553e-01 2.878964662551879883e+00 9.811054468154907227e-01 -1.509913921356201172e+00
1.236000000000000000e+03 1.365930938720703125e+01 1.852248954772949219e+01 9.603552818298339844e-01 2.821901321411132812e+00 1.134676933288574219e+00 -1.700830221176147461e+00
1.237000000000000000e+03 7.540420532226562500e+01 1.401816940307617188e+01 8.015834726393222809e-03 7.680880546569824219e+00 2.306668996810913086e+00 1.593043804168701172e-01
1.238000000000000000e+03 7.547828674316406250e+01 1.060112267732620239e-01 2.729156985878944397e-02 7.391361713409423828e+00 2.225595951080322266e+00 5.269086360931396484e-02
1.239000000000000000e+03 7.416846466064453125e+01 -8.211019515991210938e+00 4.301366955041885376e-02 7.417174339294433594e+00 2.238056421279907227e+00 -5.210682004690170288e-02
1.240000000000000000e+03 7.679764556884765625e+01 -6.872663974761962891e+00 1.495630573481321335e-02 7.332783222198486328e+00 2.204321861267089844e+00 -2.098659425973892212e-02
1.241000000000000000e+03 7.550315856933593750e+01 -6.850666522979736328e+00 2.779950201511383057e-02 7.373878479003906250e+00 2.220503330230712891e+00 -2.739134803414344788e-02
1.242000000000000000e+03 7.421617126464843750e+01 -4.067965030670166016e+00 4.513644799590110779e-02 7.403538703918457031e+00 2.234602451324462891e+00 5.828624591231346130e-03
1.243000000000000000e+03 7.403102111816406250e+01 -1.242618370056152344e+01 3.534414991736412048e-02 7.463744163513183594e+00 2.249726533889770508e+00 -1.055570840835571289e-01
1.244000000000000000e+03 7.673073577880859375e+01 -1.246229553222656250e+01 1.183645986020565033e-02 7.399214744567871094e+00 2.223315477371215820e+00 -6.504516303539276123e-02
1.245000000000000000e+03 7.545114898681640625e+01 -9.645106315612792969e+00 2.597210183739662170e-02 7.396687030792236328e+00 2.226797819137573242e+00 -5.831076949834823608e-02
1.246000000000000000e+03 7.551313018798828125e+01 -2.690599679946899414e+00 2.825419977307319641e-02 7.371380329132080078e+00 2.219890356063842773e+00 2.063165046274662018e-02
1.247000000000000000e+03 7.551958465576171875e+01 -4.081977367401123047e+00 2.836744487285614014e-02 7.367896556854248047e+00 2.218879222869873047e+00 4.575406666845083237e-03
1.248000000000000000e+03 7.676032257080078125e+01 1.498796463012695312e+00 1.426073163747787476e-02 7.368618488311767578e+00 2.214863777160644531e+00 5.129586532711982727e-02
1.249000000000000000e+03 7.545507049560546875e+01 1.505253314971923828e+00 2.628478594124317169e-02 7.407319068908691406e+00 2.230081081390380859e+00 6.819816678762435913e-02
1.250000000000000000e+03 7.539200592041015625e+01 7.129609107971191406e+00 1.947777532041072845e-02 7.505980491638183594e+00 2.257637500762939453e+00 1.220385506749153137e-01
1.251000000000000000e+03 7.218093872070312500e+01 3.222480010986328125e+01 -5.998555943369865417e-02 8.069416999816894531e+00 2.402829408645629883e+00 1.463777273893356323e-01
1.252000000000000000e+03 7.537494659423828125e+01 3.110766792297363281e+01 -2.437216974794864655e-02 8.142429351806640625e+00 2.435417175292968750e+00 1.099739968776702881e-01
1.253000000000000000e+03 7.393109130859375000e+01 -1.663177490234375000e+01 2.376635000109672546e-02 7.533546447753906250e+00 2.267193794250488281e+00 -1.454214751720428467e-01
1.254000000000000000e+03 7.541174316406250000e+01 4.317926406860351562e+00 2.349464967846870422e-02 7.450412273406982422e+00 2.242172002792358398e+00 9.729029983282089233e-02
1.255000000000000000e+03 7.539939117431640625e+01 5.727029323577880859e+00 2.189491316676139832e-02 7.476709365844726562e+00 2.249581336975097656e+00 1.102737337350845337e-01
1.256000000000000000e+03 7.409538269042968750e+01 2.905594348907470703e+00 4.010863974690437317e-02 7.458391189575195312e+00 2.249549865722656250e+00 1.020751968026161194e-01
1.257000000000000000e+03 7.673670196533203125e+01 8.494440078735351562e+00 9.063120931386947632e-03 7.510779857635498047e+00 2.255952835083007812e+00 9.885094314813613892e-02
1.258000000000000000e+03 7.538891601562500000e+01 9.916293144226074219e+00 1.473176758736371994e-02 7.571169376373291016e+00 2.275770425796508789e+00 1.411546319723129272e-01
1.259000000000000000e+03 7.528248596191406250e+01 -1.807703208923339844e+01 1.092725619673728943e-02 7.541849613189697266e+00 2.265833139419555664e+00 -1.259830594062805176e-01
1.260000000000000000e+03 7.668187713623046875e+01 -1.946164321899414062e+01 3.886693157255649567e-03 7.552219867706298828e+00 2.266831874847412109e+00 -9.743731468915939331e-02
1.261000000000000000e+03 7.527196502685546875e+01 -1.950649642944335938e+01 7.289402652531862259e-03 7.573334217071533203e+00 2.274187088012695312e+00 -1.315578371286392212e-01
1.262000000000000000e+03 7.539210510253906250e+01 1.129491233825683594e+01 1.269529666751623154e-02 7.606367111206054688e+00 2.285718679428100586e+00 1.484161764383316040e-01
1.263000000000000000e+03 7.399642181396484375e+01 9.950246810913085938e+00 2.398100122809410095e-02 7.590974807739257812e+00 2.284486770629882812e+00 1.743173152208328247e-01
1.264000000000000000e+03 7.536708831787109375e+01 -2.874419975280761719e+01 -1.139992102980613708e-02 7.779369831085205078e+00 2.330390930175781250e+00 -1.198673546314239502e-01
1.265000000000000000e+03 7.430463409423828125e+01 -2.369083976745605469e+01 -2.102936385199427605e-03 7.671775817871093750e+00 2.300901889801025391e+00 -1.565518230199813843e-01
1.266000000000000000e+03 7.669544982910156250e+01 1.676644897460937500e+01 1.603024429641664028e-03 7.760393142700195312e+00 2.328598976135253906e+00 1.254200637340545654e-01
1.267000000000000000e+03 7.527324676513671875e+01 1.804496002197265625e+01 5.436799256131052971e-04 7.798224449157714844e+00 2.339630365371704102e+00 1.696832627058029175e-01
1.268000000000000000e+03 7.502542114257812500e+01 2.071890830993652344e+01 -5.302073433995246887e-03 7.873456001281738281e+00 2.360446214675903320e+00 1.746428608894348145e-01
1.269000000000000000e+03 7.517140197753906250e+01 1.937873268127441406e+01 -1.225383370183408260e-03 7.835500717163085938e+00 2.350282669067382812e+00 1.717760860919952393e-01
1.270000000000000000e+03 7.397802734375000000e+01 1.661434173583984375e+01 5.029114894568920135e-03 7.756740093231201172e+00 2.328530788421630859e+00 2.044797986745834351e-01
1.271000000000000000e+03 7.552618408203125000e+01 -2.487671470642089844e+01 -4.367976915091276169e-03 7.696078777313232422e+00 2.307513236999511719e+00 -1.287376433610916138e-01
1.272000000000000000e+03 7.678695678710937500e+01 -2.623990631103515625e+01 -3.380182664841413498e-03 7.727035999298095703e+00 2.317096710205078125e+00 -9.540937095880508423e-02
1.273000000000000000e+03 7.414124298095703125e+01 -2.606042289733886719e+01 -9.790320880711078644e-03 7.721114635467529297e+00 2.313397169113159180e+00 -1.571383774280548096e-01
1.274000000000000000e+03 7.312591552734375000e+01 2.799968147277832031e+01 -4.341710731387138367e-02 8.018619537353515625e+00 2.392560720443725586e+00 1.840684115886688232e-01
1.275000000000000000e+03 7.293216705322265625e+01 2.309772872924804688e+01 -1.901906169950962067e-02 7.911751747131347656e+00 2.367819786071777344e+00 2.206213921308517456e-01
1.276000000000000000e+03 7.599720764160156250e+01 2.674238204956054688e+01 -1.450981106609106064e-02 8.054544448852539062e+00 2.412010192871093750e+00 1.260793954133987427e-01
1.277000000000000000e+03 7.439919281005859375e+01 2.725115013122558594e+01 -2.504926919937133789e-02 8.027205467224121094e+00 2.400646924972534180e+00 1.625798493623733521e-01
1.278000000000000000e+03 7.644548034667968750e+01 2.955918884277343750e+01 -1.479696109890937805e-02 8.143602371215820312e+00 2.438641548156738281e+00 9.413014352321624756e-02
1.279000000000000000e+03 7.485568237304687500e+01 2.855825424194335938e+01 -2.634214609861373901e-02 8.074819564819335938e+00 2.414543151855468750e+00 1.379217505455017090e-01
1.280000000000000000e+03 7.396467590332031250e+01 -2.979874420166015625e+01 -2.261440269649028778e-02 7.796841144561767578e+00 2.332267999649047852e+00 -1.387431174516677856e-01
1.281000000000000000e+03 7.387052917480468750e+01 -3.606605911254882812e+01 -4.833484813570976257e-02 7.886678695678710938e+00 2.351503133773803711e+00 -8.213692903518676758e-02
1.282000000000000000e+03 7.510528564453125000e+01 2.986595344543457031e+01 -2.348658628761768341e-02 8.107172966003417969e+00 2.425105810165405273e+00 1.229833811521530151e-01
1.283000000000000000e+03 7.644157409667968750e+01 -3.180786895751953125e+01 -1.397096645087003708e-02 7.851734638214111328e+00 2.351329088211059570e+00 -8.085753768682479858e-02
1.284000000000000000e+03 7.521434020996093750e+01 -3.013034629821777344e+01 -1.660265587270259857e-02 7.806519031524658203e+00 2.336974859237670898e+00 -1.155120581388473511e-01
1.285000000000000000e+03 7.512712860107421875e+01 -3.508023071289062500e+01 -3.367431461811065674e-02 7.887685298919677734e+00 2.356203317642211914e+00 -8.116263151168823242e-02
1.286000000000000000e+03 7.609999084472656250e+01 -3.657415771484375000e+01 -2.415855042636394501e-02 7.930713176727294922e+00 2.371966361999511719e+00 -4.700876027345657349e-02
1.287000000000000000e+03 3.106951236724853516e+00 1.581385517120361328e+01 -3.661580383777618408e-02 1.751511543989181519e-02 -5.730207078158855438e-03 2.738681435585021973e-02
1.288000000000000000e+03 3.523798942565917969e+00 -1.614040565490722656e+01 -4.828801751136779785e-02 2.371450886130332947e-02 -7.372052874416112900e-03 -2.258955687284469604e-02
1.289000000000000000e+03 4.393711090087890625e+00 -1.662655830383300781e+01 -6.321996450424194336e-02 3.430377319455146790e-02 -8.674857206642627716e-03 -8.138265460729598999e-03
1.290000000000000000e+03 5.442718505859375000e+00 1.969664192199707031e+01 -2.216180786490440369e-03 1.504904925823211670e-01 4.448229074478149414e-02 5.336091294884681702e-02
1.291000000000000000e+03 4.185850143432617188e+00 2.063884162902832031e+01 2.704867534339427948e-02 1.157252863049507141e-01 4.283218830823898315e-02 7.031413912773132324e-02
1.292000000000000000e+03 4.372398376464843750e+00 1.839013671875000000e+01 -4.540479183197021484e-02 8.950257301330566406e-02 1.322933565825223923e-02 5.926854163408279419e-02
1.293000000000000000e+03 4.452682018280029297e+00 2.452619361877441406e+01 1.136860027909278870e-01 3.352645635604858398e-01 1.346851736307144165e-01 -1.150071918964385986e-01
1.294000000000000000e+03 4.843251228332519531e+00 2.866446304321289062e+01 3.342106193304061890e-02 7.000355124473571777e-01 2.200369685888290405e-01 -2.480085343122482300e-01
1.295000000000000000e+03 3.241940498352050781e+00 1.284436416625976562e+01 -1.085689850151538849e-02 9.393407963216304779e-04 -2.975267125293612480e-03 3.000693628564476967e-03
1.296000000000000000e+03 4.043213367462158203e+00 -1.243913459777832031e+01 -4.778190515935420990e-03 -3.674015402793884277e-03 -2.535661915317177773e-03 8.154420647770166397e-04
1.297000000000000000e+03 2.703344106674194336e+00 -9.412280082702636719e+00 1.285230624489486217e-03 -6.575938896276056767e-04 1.882910437416285276e-04 5.881746183149516582e-04
1.298000000000000000e+03 2.857338428497314453e+00 -1.075605583190917969e+01 -1.342992181889712811e-03 -1.047706115059554577e-03 -7.172094774432480335e-04 1.165805850178003311e-03
1.299000000000000000e+03 5.053983211517333984e+00 -1.888865852355957031e+01 -2.054890617728233337e-02 9.083143621683120728e-02 2.108475752174854279e-02 -6.821564584970474243e-02
1.300000000000000000e+03 3.396463871002197266e+00 -2.331707572937011719e+01 5.280266702175140381e-02 9.159591048955917358e-02 4.331957548856735229e-02 -1.455017086118459702e-02
1.301000000000000000e+03 5.403050422668457031e+00 -1.994845962524414062e+01 1.110586524009704590e-02 1.473600864410400391e-01 4.753978550434112549e-02 -3.707090392708778381e-02
1.302000000000000000e+03 3.455206871032714844e+00 -2.482751464843750000e+01 6.045884266495704651e-02 1.375984847545623779e-01 5.941719561815261841e-02 2.483332529664039612e-02
1.303000000000000000e+03 4.534826278686523438e+00 -2.166266632080078125e+01 7.513562589883804321e-02 1.588884592056274414e-01 7.020722329616546631e-02 -2.526826784014701843e-02
1.304000000000000000e+03 5.397304534912109375e+00 2.300639343261718750e+01 2.065409421920776367e-01 3.500603139400482178e-01 1.669803708791732788e-01 -1.168896332383155823e-01
1.305000000000000000e+03 4.553271770477294922e+00 2.588750267028808594e+01 1.132005080580711365e-01 4.512022137641906738e-01 1.693208217620849609e-01 -1.870498359203338623e-01
1.306000000000000000e+03 4.833441257476806641e+00 -2.320875167846679688e+01 1.071061640977859497e-01 2.724715769290924072e-01 1.138733252882957458e-01 4.054744541645050049e-02
1.307000000000000000e+03 3.675391197204589844e+00 -3.202803802490234375e+01 -8.043720386922359467e-03 5.024735331535339355e-01 1.483289450407028198e-01 1.254524141550064087e-01
1.308000000000000000e+03 4.625597476959228516e+00 -2.917123222351074219e+01 3.690783679485321045e-02 5.316193103790283203e-01 1.705581545829772949e-01 1.715006828308105469e-01
1.309000000000000000e+03 4.321486473083496094e+00 9.223740577697753906e+00 5.276510491967201233e-04 -4.247469827532768250e-03 -1.115945749916136265e-03 5.248278612270951271e-04
1.310000000000000000e+03 5.357133388519287109e+00 3.272598266601562500e+01 -4.238502308726310730e-02 1.047850370407104492e+00 3.016396164894104004e-01 -2.531455457210540771e-01
1.311000000000000000e+03 6.076414108276367188e+00 3.653035736083984375e+01 -8.978742361068725586e-02 1.317075371742248535e+00 3.681863844394683838e-01 -1.615673154592514038e-01
1.312000000000000000e+03 5.652428150177001953e+00 -1.214919757843017578e+01 -1.888757920823991299e-03 -6.225152872502803802e-03 -2.434173133224248886e-03 1.655605621635913849e-03
1.313000000000000000e+03 2.898466110229492188e+00 -1.217139244079589844e+01 -1.079304493032395840e-03 -1.850243424996733665e-03 -8.788643754087388515e-04 -8.232197724282741547e-04
1.314000000000000000e+03 6.085659027099609375e+00 9.310343742370605469e+00 -9.300381061621010303e-04 -3.486870322376489639e-03 -1.325072487816214561e-03 2.864568494260311127e-03
1.315000000000000000e+03 4.791480541229248047e+00 -3.034877395629882812e+01 1.190894749015569687e-02 6.500414609909057617e-01 1.985851228237152100e-01 1.879041343927383423e-01
1.316000000000000000e+03 5.298097610473632812e+00 -3.184567260742187500e+01 -2.288940548896789551e-02 7.946551442146301270e-01 2.315297126770019531e-01 1.873648166656494141e-01
1.317000000000000000e+03 6.647755146026611328e+00 3.401214599609375000e+01 -8.975610882043838501e-02 1.419770836830139160e+00 3.990043997764587402e-01 -2.865268290042877197e-01
1.318000000000000000e+03 4.934803485870361328e+00 3.145432472229003906e+01 -2.737481892108917236e-02 8.578588366508483887e-01 2.491451948881149292e-01 -2.514390647411346436e-01
1.319000000000000000e+03 3.575487613677978516e+00 7.786638736724853516e+00 2.193341730162501335e-03 -2.307088812813162804e-03 -3.412410296732559800e-05 -1.617316738702356815e-03
1.320000000000000000e+03 3.916950225830078125e+00 -5.056273937225341797e+00 -1.222390128532424569e-04 -6.053732940927147865e-04 -2.182836906285956502e-04 1.835340226534754038e-04
1.321000000000000000e+03 6.471702098846435547e+00 -3.573284149169921875e+01 -6.513267010450363159e-02 1.185062408447265625e+00 3.359789252281188965e-01 1.451177746057510376e-01
1.322000000000000000e+03 6.958117961883544922e+00 -7.816117286682128906e+00 -1.703646266832947731e-04 -1.181284664198756218e-03 -4.054947930853813887e-04 1.421120396116748452e-05
1.323000000000000000e+03 1.657068824768066406e+01 -1.800047302246093750e+01 4.825975298881530762e-01 2.919843673706054688e+00 1.020732402801513672e+00 1.506194829940795898e+00
1.324000000000000000e+03 1.723980712890625000e+01 -1.334481525421142578e+01 1.099515199661254883e+00 2.170711517333984375e+00 9.810680150985717773e-01 1.756500124931335449e+00
1.325000000000000000e+03 6.513520717620849609e+00 1.987201309204101562e+01 -4.528381861746311188e-03 1.811613738536834717e-01 5.298990011215209961e-02 2.079982124269008636e-02
1.326000000000000000e+03 4.423263549804687500e+00 1.961427497863769531e+01 -1.353599131107330322e-02 1.172600835561752319e-01 3.111722879111766815e-02 6.641868501901626587e-02
1.327000000000000000e+03 1.367611312866210938e+01 -1.814829063415527344e+01 4.304272532463073730e-01 1.829369783401489258e+00 6.779391169548034668e-01 1.044349789619445801e+00
1.328000000000000000e+03 6.397452831268310547e+00 -1.100395774841308594e+01 3.394604427739977837e-04 7.845238724257797003e-05 1.253738446393981576e-04 -3.425063798204064369e-03
1.329000000000000000e+03 2.058584213256835938e+01 1.272609138488769531e+01 9.599730968475341797e-01 7.060444831848144531e+00 2.406125307083129883e+00 -1.399817228317260742e+00
1.330000000000000000e+03 8.560790061950683594e+00 2.223071861267089844e+01 3.674634993076324463e-01 8.075170516967773438e-01 3.524941802024841309e-01 -5.463315844535827637e-01
1.331000000000000000e+03 2.454216384887695312e+01 5.162939548492431641e+00 2.627859413623809814e-01 8.542871475219726562e+00 2.641697168350219727e+00 -1.551009178161621094e+00
1.332000000000000000e+03 1.653408622741699219e+01 -1.561579608917236328e+01 8.233745694160461426e-01 2.447327375411987305e+00 9.812105894088745117e-01 1.584480285644531250e+00
1.333000000000000000e+03 4.695703506469726562e+00 -1.133798313140869141e+01 -1.144493231549859047e-03 -1.645367592573165894e-03 -8.369582355953752995e-04 -1.126073650084435940e-03
1.334000000000000000e+03 1.540730667114257812e+01 -1.760921478271484375e+01 5.325940847396850586e-01 2.363721370697021484e+00 8.688946366310119629e-01 1.323447823524475098e+00
1.335000000000000000e+03 1.593337917327880859e+01 -1.654747009277343750e+01 6.603692173957824707e-01 2.393084526062011719e+00 9.160361289978027344e-01 1.418992638587951660e+00
1.336000000000000000e+03 7.578837585449218750e+01 4.034735870361328125e+01 -1.750464923679828644e-02 8.285398483276367188e+00 2.480368137359619141e+00 3.663099929690361023e-02
1.337000000000000000e+03 2.145911788940429688e+01 1.034760665893554688e+01 1.004373192787170410e+00 7.471678256988525391e+00 2.542815446853637695e+00 -1.491709947586059570e+00
1.338000000000000000e+03 1.609761047363281250e+01 2.003047561645507812e+01 2.250984311103820801e-01 4.303596973419189453e+00 1.358608603477478027e+00 -1.434507608413696289e+00
1.339000000000000000e+03 1.972772979736328125e+01 1.546665859222412109e+01 7.418210506439208984e-01 6.402415752410888672e+00 2.143270969390869141e+00 -1.321774959564208984e+00
1.340000000000000000e+03 1.753664970397949219e+01 1.780995368957519531e+01 4.249030947685241699e-01 5.301855564117431641e+00 1.718027591705322266e+00 -1.370972633361816406e+00
1.341000000000000000e+03 1.445897293090820312e+01 1.957597923278808594e+01 4.336147606372833252e-01 3.577939748764038086e+00 1.203466296195983887e+00 -1.582560777664184570e+00
1.342000000000000000e+03 1.423089027404785156e+01 -2.003206443786621094e+01 2.981951832771301270e-01 2.237016916275024414e+00 7.605636119842529297e-01 1.140191674232482910e+00
1.343000000000000000e+03 2.513994407653808594e+01 7.862380504608154297e+00 5.376300215721130371e-01 8.039582252502441406e+00 2.573163509368896484e+00 -1.222518801689147949e+00
1.344000000000000000e+03 2.202478790283203125e+01 -3.812200069427490234e+00 1.174651622772216797e+00 7.448651790618896484e+00 2.586991071701049805e+00 -3.825001716613769531e+00
1.345000000000000000e+03 2.252743339538574219e+01 -9.410805702209472656e+00 1.881235837936401367e+00 9.543021202087402344e+00 3.427277088165283203e+00 4.340604782104492188e+00
1.346000000000000000e+03 2.189677619934082031e+01 -8.746395111083984375e+00 3.308747291564941406e+00 6.656756401062011719e+00 2.989651203155517578e+00 4.877999782562255859e+00
1.347000000000000000e+03 2.394566154479980469e+01 -4.345058917999267578e+00 8.831475377082824707e-01 1.539359092712402344e+01 4.883021354675292969e+00 -1.020298719406127930e+00
1.348000000000000000e+03 2.232249641418457031e+01 -4.059461593627929688e+00 1.136251926422119141e+00 8.749341964721679688e+00 2.965677976608276367e+00 -4.043193817138671875e+00
1.349000000000000000e+03 1.988710784912109375e+01 -9.407985687255859375e+00 2.175610780715942383e+00 2.295131206512451172e+00 1.341222524642944336e+00 2.346954822540283203e+00
1.350000000000000000e+03 1.921658325195312500e+01 -8.991443634033203125e+00 1.636592268943786621e+00 1.236376166343688965e+00 8.618904948234558105e-01 1.468498826026916504e+00
1.351000000000000000e+03 1.859485435485839844e+01 -9.964359283447265625e+00 1.417084455490112305e+00 1.414906978607177734e+00 8.495973944664001465e-01 1.617182850837707520e+00
1.352000000000000000e+03 2.008495330810546875e+01 -3.442413091659545898e+00 7.774605751037597656e-01 2.133035421371459961e+00 8.731487989425659180e-01 -1.327300548553466797e+00
1.353000000000000000e+03 2.067219734191894531e+01 -3.340412139892578125e+00 9.029662013053894043e-01 3.253947973251342773e+00 1.247074246406555176e+00 -1.995202779769897461e+00
1.354000000000000000e+03 2.428743362426757812e+01 -3.762352466583251953e+00 3.847766816616058350e-01 1.473720741271972656e+01 4.536594867706298828e+00 -5.812319517135620117e-01
1.355000000000000000e+03 2.482492637634277344e+01 -4.112721443176269531e+00 1.776355385780334473e+00 1.498138141632080078e+01 5.027320861816406250e+00 1.076649785041809082e+00
1.356000000000000000e+03 2.128338432312011719e+01 -3.150463819503784180e+00 8.221641182899475098e-01 5.433178901672363281e+00 1.876602888107299805e+00 -2.852494716644287109e+00
1.357000000000000000e+03 1.995977020263671875e+01 -8.158072471618652344e+00 2.014521837234497070e+00 1.018102169036865234e+00 9.097871780395507812e-01 1.061794400215148926e+00
1.358000000000000000e+03 2.288776397705078125e+01 -9.467823028564453125e+00 1.482444882392883301e+00 1.101593112945556641e+01 3.749512910842895508e+00 3.938112735748291016e+00
1.359000000000000000e+03 2.354466819763183594e+01 -9.248995780944824219e+00 1.396968126296997070e+00 1.304059982299804688e+01 4.331270217895507812e+00 3.023996353149414062e+00
1.360000000000000000e+03 2.051173973083496094e+01 -9.440134048461914062e+00 2.501628160476684570e+00 3.354402303695678711e+00 1.756809115409851074e+00 3.026066064834594727e+00
1.361000000000000000e+03 2.040365409851074219e+01 -4.953492283821105957e-01 -1.013013646006584167e-01 5.441880702972412109e+00 1.602173805236816406e+00 -1.952262401580810547e+00
1.362000000000000000e+03 1.866189384460449219e+01 -1.162384891510009766e+01 1.396998167037963867e+00 2.479027509689331055e+00 1.162807703018188477e+00 2.214397907257080078e+00
1.363000000000000000e+03 2.265078544616699219e+01 -9.779505729675292969e+00 1.522155761718750000e+00 9.699807167053222656e+00 3.366588830947875977e+00 3.819158554077148438e+00
1.364000000000000000e+03 3.962972879409790039e+00 4.376593112945556641e+00 -1.471005380153656006e-04 -3.404552990105003119e-04 -1.462667423766106367e-04 3.020465082954615355e-04
1.365000000000000000e+03 6.994694709777832031e+00 5.552613735198974609e+00 2.485098782926797867e-03 -3.066936042159795761e-03 -1.745511690387502313e-04 -4.918450140394270420e-04
1.366000000000000000e+03 6.600923061370849609e+00 4.019735336303710938e+00 -4.320118168834596872e-04 6.696201744489371777e-04 7.128250581445172429e-05 1.273134141229093075e-03
1.367000000000000000e+03 5.399450302124023438e+00 4.799993515014648438e+00 3.444827452767640352e-04 7.115832413546741009e-04 3.168198163621127605e-04 -1.811747206375002861e-03
1.368000000000000000e+03 5.295116901397705078e+00 4.109541893005371094e+00 4.793880725628696382e-05 -5.922075943090021610e-04 -1.632806379348039627e-04 1.375549123622477055e-03
1.369000000000000000e+03 8.466757774353027344e+00 4.952773571014404297e+00 -9.709318983368575573e-04 1.816011150367558002e-03 2.535237872507423162e-04 2.681398531422019005e-03
1.370000000000000000e+03 7.256549835205078125e+00 4.045589447021484375e+00 1.470665214583277702e-03 -1.911686151288449764e-03 -1.323062606388702989e-04 -1.274985494092106819e-03
1.371000000000000000e+03 9.197175025939941406e+00 7.974425792694091797e+00 1.447716727852821350e-03 -6.327541079372167587e-03 -1.463947352021932602e-03 1.624047057703137398e-03
1.372000000000000000e+03 4.636636734008789062e+00 4.262269020080566406e+00 1.350532169453799725e-03 -3.842119185719639063e-04 2.898960665334016085e-04 -1.867301529273390770e-03
1.373000000000000000e+03 8.393937110900878906e+00 -4.066719532012939453e+00 3.245085244998335838e-04 -5.973249062662944198e-05 7.943280797917395830e-05 -1.542364625493064523e-04
1.374000000000000000e+03 5.021735668182373047e+00 -7.264024257659912109e+00 1.313794055022299290e-03 -9.517677244730293751e-04 1.086078846128657460e-04 -4.928386188112199306e-04
1.375000000000000000e+03 6.478041648864746094e+00 -6.082970142364501953e+00 -6.021209992468357086e-04 -4.021444765385240316e-04 -3.012796514667570591e-04 3.408736665733158588e-04
1.376000000000000000e+03 2.779326248168945312e+01 -9.466748237609863281e+00 3.158236503601074219e+00 1.055707454681396484e+01 4.114593029022216797e+00 -1.121047496795654297e+00
1.377000000000000000e+03 2.662869644165039062e+01 -7.894451618194580078e+00 5.247990131378173828e+00 1.144748497009277344e+01 5.008642673492431641e+00 -1.020666837692260742e+00
1.378000000000000000e+03 1.853783035278320312e+01 -1.360750198364257812e+01 1.060490965843200684e+00 3.215824842453002930e+00 1.282894730567932129e+00 2.224433422088623047e+00
1.379000000000000000e+03 6.930512428283691406e+00 -4.216252803802490234e+00 3.603434888646006584e-04 9.408451296621933579e-05 1.363284100079908967e-04 -3.534657007548958063e-04
1.380000000000000000e+03 6.197676181793212891e+00 -4.276106834411621094e+00 3.187691254424862564e-05 -3.931028186343610287e-04 -1.083677780115976930e-04 -9.506416972726583481e-06
1.381000000000000000e+03 5.572326660156250000e+00 -5.184456825256347656e+00 4.265137613401748240e-05 -4.935906617902219296e-04 -1.352817926090210676e-04 1.294765243073925376e-04
1.382000000000000000e+03 2.815294075012207031e+01 -5.464409828186035156e+00 4.443244457244873047e+00 1.016281032562255859e+01 4.381816387176513672e+00 8.371664285659790039e-01
1.383000000000000000e+03 2.828817558288574219e+01 -4.467101097106933594e+00 3.593328475952148438e+00 1.043196201324462891e+01 4.207587242126464844e+00 1.263241887092590332e+00
1.384000000000000000e+03 2.402946472167968750e+01 -9.720355987548828125e+00 9.531353712081909180e-01 1.344295120239257812e+01 4.318825721740722656e+00 1.839292049407958984e+00
1.385000000000000000e+03 1.086938571929931641e+01 4.141909122467041016e+00 3.412596124690026045e-04 4.431818088050931692e-04 2.353324234718456864e-04 2.699335804209113121e-03
1.386000000000000000e+03 1.141005420684814453e+01 5.872071743011474609e+00 -5.901778349652886391e-04 -1.654985942877829075e-03 -6.735491333529353142e-04 -2.403857884928584099e-03
1.387000000000000000e+03 2.538247489929199219e+01 -9.512918472290039062e+00 2.194828033447265625e+00 1.293453884124755859e+01 4.538810253143310547e+00 -3.874309360980987549e-01
1.388000000000000000e+03 2.179508399963378906e+01 9.541500210762023926e-01 -2.123458236455917358e-01 7.679547309875488281e+00 2.240160465240478516e+00 -2.300057411193847656e+00
1.389000000000000000e+03 2.530591964721679688e+01 -3.478621721267700195e+00 1.154253602027893066e+00 1.352836132049560547e+01 4.404784202575683594e+00 7.319134473800659180e-01
1.390000000000000000e+03 2.098289680480957031e+01 -1.352467775344848633e+00 -9.494290687143802643e-03 6.000036716461181641e+00 1.797162771224975586e+00 -2.380823135375976562e+00
1.391000000000000000e+03 2.115482711791992188e+01 -6.261181831359863281e-01 -1.354981064796447754e-01 6.509068489074707031e+00 1.912071228027343750e+00 -2.384591341018676758e+00
1.392000000000000000e+03 2.247765159606933594e+01 6.654203414916992188e+00 6.546875834465026855e-01 7.970280170440673828e+00 2.587490320205688477e+00 -1.758081316947937012e+00
1.393000000000000000e+03 2.176808357238769531e+01 9.049645423889160156e+00 9.580532908439636230e-01 7.694211959838867188e+00 2.595679521560668945e+00 -1.601102828979492188e+00
1.394000000000000000e+03 7.587162494659423828e+00 1.121984863281250000e+01 7.317374111153185368e-04 -7.264765445142984390e-03 -1.959908520802855492e-03 7.260147482156753540e-03
1.395000000000000000e+03 6.587449073791503906e+00 1.221354389190673828e+01 -2.798429923132061958e-03 -4.502955358475446701e-03 -2.190415514633059502e-03 -7.221725769340991974e-03
1.396000000000000000e+03 1.851409149169921875e+01 -1.076843070983886719e+01 1.509539008140563965e+00 1.909946918487548828e+00 1.025845766067504883e+00 1.976589798927307129e+00
1.397000000000000000e+03 8.503525733947753906e+00 8.747392654418945312e+00 -1.820817356929183006e-03 5.267060361802577972e-03 1.033872948028147221e-03 -1.492038252763450146e-03
1.398000000000000000e+03 2.740690612792968750e+01 -7.795251369476318359e+00 4.832265377044677734e+00 1.062396240234375000e+01 4.636868476867675781e+00 -7.568253874778747559e-01
1.399000000000000000e+03 2.769753837585449219e+01 -8.647499084472656250e+00 3.932739734649658203e+00 1.057260131835937500e+01 4.351602554321289062e+00 -1.061983346939086914e+00
1.400000000000000000e+03 8.566857337951660156e+00 7.430621623992919922e+00 -6.537451408803462982e-04 3.667994635179638863e-03 9.042748715728521347e-04 -1.143122557550668716e-03
1.401000000000000000e+03 9.197643280029296875e+00 4.967100620269775391e+00 1.164698856882750988e-03 -1.927359378896653652e-03 -2.287981624249368906e-04 -1.985235838219523430e-03
1.402000000000000000e+03 1.056010055541992188e+01 7.620099544525146484e+00 6.951712421141564846e-04 -5.259733647108078003e-03 -1.369368634186685085e-03 -1.300588366575539112e-03
1.403000000000000000e+03 1.231354427337646484e+01 6.026770114898681641e+00 7.513910531997680664e-04 1.636959263123571873e-03 7.165050483308732510e-04 2.537815365940332413e-03
1.404000000000000000e+03 1.717327499389648438e+01 -1.480650615692138672e+01 8.973782658576965332e-01 2.580285072326660156e+00 1.043299078941345215e+00 1.749617934226989746e+00
1.405000000000000000e+03 2.088455200195312500e+01 1.477850151062011719e+01 6.821241974830627441e-01 6.678010463714599609e+00 2.208040475845336914e+00 -1.117268204689025879e+00
1.406000000000000000e+03 2.333815574645996094e+01 4.579392433166503906e+00 2.671525776386260986e-01 8.336237907409667969e+00 2.581017017364501953e+00 -1.809395551681518555e+00
1.407000000000000000e+03 2.217525482177734375e+01 3.911392927169799805e+00 2.525332272052764893e-01 8.072992324829101562e+00 2.497657537460327148e+00 -1.980567693710327148e+00
1.408000000000000000e+03 7.047408580780029297e+00 8.659391403198242188e+00 8.186209925042930990e-06 6.897450075484812260e-04 2.093793737003579736e-04 -2.338234800845384598e-03
1.409000000000000000e+03 2.564920663833618164e+00 6.312100887298583984e+00 1.967644784599542618e-03 -4.082019440829753876e-04 4.678328696172684431e-04 -2.124208724126219749e-03
1.410000000000000000e+03 9.041623115539550781e+00 -5.934368133544921875e+00 1.333920226898044348e-04 -7.663110154680907726e-04 -1.898757036542519927e-04 2.216221910202875733e-04
1.411000000000000000e+03 9.440662384033203125e+00 -4.544389724731445312e+00 2.092572249239310622e-04 -4.940371145494282246e-04 -8.543395961169153452e-05 -1.659032277530059218e-04
1.412000000000000000e+03 6.430337905883789062e+00 1.431091022491455078e+01 -1.868448592722415924e-02 -7.850057445466518402e-03 -7.960363291203975677e-03 -2.470261231064796448e-02
1.413000000000000000e+03 5.088958263397216797e+00 1.009722232818603516e+01 -6.386511959135532379e-04 -1.436899299733340740e-03 -6.226651603356003761e-04 -2.186317928135395050e-03
1.414000000000000000e+03 7.344186401367187500e+01 -3.116604042053222656e+01 -3.060354851186275482e-02 7.814117431640625000e+00 2.335054159164428711e+00 -1.362148970365524292e-01
1.415000000000000000e+03 7.544194793701171875e+01 -2.743382072448730469e+01 -8.515887893736362457e-03 7.752546787261962891e+00 2.323209285736083984e+00 -1.230496466159820557e-01
1.416000000000000000e+03 7.405448913574218750e+01 -2.855292892456054688e+01 -1.787777245044708252e-02 7.772060394287109375e+00 2.326254844665527344e+00 -1.445997208356857300e-01
1.417000000000000000e+03 7.329160308837890625e+01 2.176492500305175781e+01 -1.326751057058572769e-02 7.884081840515136719e+00 2.361244201660156250e+00 2.173025906085968018e-01
1.418000000000000000e+03 7.453268432617187500e+01 2.347912025451660156e+01 -1.381973549723625183e-02 7.942896366119384766e+00 2.378722906112670898e+00 1.786758154630661011e-01
1.419000000000000000e+03 7.532313537597656250e+01 -2.090852546691894531e+01 3.889480605721473694e-03 7.604154586791992188e+00 2.282413244247436523e+00 -1.325303912162780762e-01
1.420000000000000000e+03 7.407259368896484375e+01 -2.245234107971191406e+01 1.420395215973258018e-03 7.649658203125000000e+00 2.295323610305786133e+00 -1.615480333566665649e-01
1.421000000000000000e+03 7.540102386474609375e+01 1.266062259674072266e+01 1.005701906979084015e-02 7.642890453338623047e+00 2.295884132385253906e+00 1.544925868511199951e-01
1.422000000000000000e+03 7.404003906250000000e+01 1.531429576873779297e+01 9.032851085066795349e-03 7.721999168395996094e+00 2.319309711456298828e+00 2.003750801086425781e-01
1.423000000000000000e+03 7.534445190429687500e+01 1.671055412292480469e+01 3.478172235190868378e-03 7.758893013000488281e+00 2.328711271286010742e+00 1.669548451900482178e-01
1.424000000000000000e+03 7.400449371337890625e+01 8.554277420043945312e+00 2.769253216683864594e-02 7.560164451599121094e+00 2.276357173919677734e+00 1.634899973869323730e-01
1.425000000000000000e+03 7.342868041992187500e+01 2.621830940246582031e+01 -2.619259431958198547e-02 7.989450454711914062e+00 2.388977289199829102e+00 1.860971003770828247e-01
1.426000000000000000e+03 7.414122009277343750e+01 2.492722129821777344e+01 -1.902732439339160919e-02 7.974411487579345703e+00 2.386615276336669922e+00 1.799340844154357910e-01
1.427000000000000000e+03 7.537360382080078125e+01 -1.383753681182861328e+01 1.981343515217304230e-02 7.456681251525878906e+00 2.242948293685913086e+00 -9.818812459707260132e-02
1.428000000000000000e+03 7.397898864746093750e+01 -1.520989513397216797e+01 2.802931331098079681e-02 7.507461071014404297e+00 2.260647058486938477e+00 -1.333786994218826294e-01
1.429000000000000000e+03 7.416050720214843750e+01 1.041475236415863037e-01 4.336089640855789185e-02 7.425377845764160156e+00 2.240621805191040039e+00 6.481806188821792603e-02
1.430000000000000000e+03 7.412887573242187500e+01 1.501479506492614746e+00 4.220639541745185852e-02 7.440104484558105469e+00 2.244693279266357422e+00 8.369378000497817993e-02
1.431000000000000000e+03 7.543048858642578125e+01 2.908981084823608398e+00 2.533489838242530823e-02 7.427153110504150391e+00 2.235746383666992188e+00 8.316403627395629883e-02
1.432000000000000000e+03 7.551593017578125000e+01 -5.467700958251953125e+00 2.825560979545116425e-02 7.368720054626464844e+00 2.219092607498168945e+00 -1.162848528474569321e-02
1.433000000000000000e+03 7.419692993164062500e+01 -6.822244167327880859e+00 4.419295489788055420e-02 7.408658027648925781e+00 2.235855340957641602e+00 -3.306628763675689697e-02
1.434000000000000000e+03 7.412776184082031250e+01 -9.615470886230468750e+00 4.124192520976066589e-02 7.429462909698486328e+00 2.241211414337158203e+00 -7.098870724439620972e-02
1.435000000000000000e+03 7.399857330322265625e+01 1.132675647735595703e+01 1.986196078360080719e-02 7.622673034667968750e+00 2.292760372161865234e+00 1.833227723836898804e-01
1.436000000000000000e+03 7.420580291748046875e+01 -2.682036161422729492e+00 4.508623480796813965e-02 7.406947612762451172e+00 2.235610246658325195e+00 2.574039809405803680e-02
1.437000000000000000e+03 7.399917602539062500e+01 -1.381831550598144531e+01 3.212907537817955017e-02 7.484360694885253906e+00 2.254946947097778320e+00 -1.199984103441238403e-01
1.438000000000000000e+03 7.539424896240234375e+01 -1.244833278656005859e+01 2.225147932767868042e-02 7.433918476104736328e+00 2.236850976943969727e+00 -8.617997914552688599e-02
1.439000000000000000e+03 7.421225738525390625e+01 -5.446598052978515625e+00 4.498545825481414795e-02 7.404221057891845703e+00 2.234761953353881836e+00 -1.360001694411039352e-02
1.440000000000000000e+03 7.406365203857421875e+01 4.319414615631103516e+00 3.800455480813980103e-02 7.479754447937011719e+00 2.255327701568603516e+00 1.195201724767684937e-01
1.441000000000000000e+03 7.384910583496093750e+01 -1.809397888183593750e+01 1.752934791147708893e-02 7.564163684844970703e+00 2.274507761001586914e+00 -1.568040698766708374e-01
1.442000000000000000e+03 7.379559326171875000e+01 -1.958530044555664062e+01 1.070749480277299881e-02 7.594294548034667969e+00 2.281500577926635742e+00 -1.623014509677886963e-01
1.443000000000000000e+03 7.386531829833984375e+01 1.789260864257812500e+01 1.648289617151021957e-03 7.789889812469482422e+00 2.337461471557617188e+00 2.083855420351028442e-01
1.444000000000000000e+03 7.421481323242187500e+01 -2.484003639221191406e+01 -5.718347150832414627e-03 7.698573112487792969e+00 2.307856559753417969e+00 -1.571566760540008545e-01
1.445000000000000000e+03 7.409796905517578125e+01 -2.730260086059570312e+01 -1.561363879591226578e-02 7.753434181213378906e+00 2.321346044540405273e+00 -1.509645134210586548e-01
1.446000000000000000e+03 7.549082183837890625e+01 -2.615141296386718750e+01 -6.561907008290290833e-03 7.724084854125976562e+00 2.315256834030151367e+00 -1.261047273874282837e-01
1.447000000000000000e+03 7.357115936279296875e+01 2.898459625244140625e+01 -3.582403808832168579e-02 8.044923782348632812e+00 2.402729988098144531e+00 1.627405583858489990e-01
1.448000000000000000e+03 7.401773071289062500e+01 7.149503231048583984e+00 3.163513168692588806e-02 7.531219005584716797e+00 2.268856287002563477e+00 1.505569219589233398e-01
1.449000000000000000e+03 7.387220764160156250e+01 -2.105874061584472656e+01 5.991704296320676804e-03 7.621801376342773438e+00 2.288337945938110352e+00 -1.645963191986083984e-01
1.450000000000000000e+03 7.400755310058593750e+01 3.173259353637695312e+01 -3.631930053234100342e-02 8.105730056762695312e+00 2.420823097229003906e+00 1.252912431955337524e-01
1.451000000000000000e+03 7.015530395507812500e+01 3.481011199951171875e+01 -9.517524391412734985e-02 8.055476188659667969e+00 2.388090372085571289e+00 1.313390880823135376e-01
1.452000000000000000e+03 7.493862152099609375e+01 -3.163514518737792969e+01 -2.277426607906818390e-02 7.833356380462646484e+00 2.343174457550048828e+00 -1.109116822481155396e-01
1.453000000000000000e+03 7.404504394531250000e+01 1.399942302703857422e+01 1.264595240354537964e-02 7.687487602233886719e+00 2.310039997100830078e+00 1.957829892635345459e-01
1.454000000000000000e+03 7.354066467285156250e+01 2.045810508728027344e+01 -6.279720924794673920e-03 7.852925777435302734e+00 2.353993892669677734e+00 2.136982977390289307e-01
1.455000000000000000e+03 7.372389984130859375e+01 1.916945457458496094e+01 -3.312697634100914001e-03 7.823131561279296875e+00 2.345945596694946289e+00 2.113385498523712158e-01
1.456000000000000000e+03 7.369304656982421875e+01 3.026905250549316406e+01 -3.811569511890411377e-02 8.076194763183593750e+00 2.411423921585083008e+00 1.456237733364105225e-01
1.457000000000000000e+03 4.907426357269287109e+00 3.009078216552734375e+01 1.068722084164619446e-02 7.900351881980895996e-01 2.402167171239852905e-01 -2.612565159797668457e-01
1.458000000000000000e+03 5.824963092803955078e+00 -2.965318107604980469e+01 2.883620560169219971e-02 8.196014165878295898e-01 2.545312941074371338e-01 2.312936037778854370e-01
1.459000000000000000e+03 1.028771114349365234e+01 6.388721466064453125e+00 1.014091074466705322e-03 -5.079911090433597565e-03 -1.219746074639260769e-03 5.046550359111279249e-05
1.460000000000000000e+03 4.690192699432373047e+00 2.726141738891601562e+01 8.220990002155303955e-02 5.958489775657653809e-01 2.034176588058471680e-01 -2.304193377494812012e-01
1.461000000000000000e+03 6.348667621612548828e+00 2.851512908935546875e+01 4.167946055531501770e-02 1.056733965873718262e+00 3.295240104198455811e-01 -3.511838614940643311e-01
1.462000000000000000e+03 1.179288005828857422e+01 -2.087320518493652344e+01 2.389137446880340576e-01 1.412021994590759277e+00 4.952807128429412842e-01 8.274610638618469238e-01
1.463000000000000000e+03 4.793922901153564453e+00 -2.647474479675292969e+01 7.850924134254455566e-02 4.421596229076385498e-01 1.562006622552871704e-01 1.236818432807922363e-01
1.464000000000000000e+03 6.135177135467529297e+00 -9.020995140075683594e+00 6.327652372419834137e-04 3.196943725924938917e-04 2.857378858607262373e-04 -1.937382156029343605e-03
1.465000000000000000e+03 4.364677429199218750e+00 2.325859260559082031e+01 1.326890438795089722e-01 2.546810209751129150e-01 1.162110194563865662e-01 -6.563310325145721436e-02
1.466000000000000000e+03 1.225812721252441406e+01 2.265766525268554688e+01 2.533588707447052002e-01 2.370141744613647461e+00 7.870501875877380371e-01 -1.184860944747924805e+00
1.467000000000000000e+03 1.162315464019775391e+01 2.787688255310058594e+01 -5.886138975620269775e-02 2.431107521057128906e+00 7.116738557815551758e-01 -7.658336758613586426e-01
1.468000000000000000e+03 5.790204524993896484e+00 -2.127779960632324219e+01 1.140469759702682495e-01 2.417420446872711182e-01 1.067367047071456909e-01 9.401354007422924042e-03
1.469000000000000000e+03 4.618508338928222656e+00 1.217676830291748047e+01 -5.432002246379852295e-03 -2.372767543420195580e-03 -2.341431099921464920e-03 -2.183032454922795296e-03
1.470000000000000000e+03 4.285721302032470703e+00 -2.030927085876464844e+01 3.255164623260498047e-02 1.023277416825294495e-01 4.046381637454032898e-02 -7.756138592958450317e-02
1.471000000000000000e+03 7.641656398773193359e+00 -2.216436576843261719e+01 2.373122721910476685e-01 5.646950602531433105e-01 2.406021952629089355e-01 2.685574293136596680e-01
1.472000000000000000e+03 5.847764968872070312e+00 2.574024200439453125e+01 1.534265428781509399e-01 6.877006292343139648e-01 2.523381710052490234e-01 -2.938612103462219238e-01
1.473000000000000000e+03 8.000308036804199219e+00 -6.773499011993408203e+00 6.548715464305132627e-05 1.015659188851714134e-03 3.243438841309398413e-04 -8.079618564806878567e-04
1.474000000000000000e+03 8.281355857849121094e+00 -2.374007987976074219e+01 2.001273334026336670e-01 8.607646822929382324e-01 3.182676136493682861e-01 3.777492344379425049e-01
1.475000000000000000e+03 6.160108089447021484e+00 3.163956260681152344e+01 -5.293877422809600830e-02 1.184950470924377441e+00 3.396035134792327881e-01 -3.028144836425781250e-01
1.476000000000000000e+03 5.183639049530029297e+00 2.103833007812500000e+01 8.988440036773681641e-02 1.877486854791641235e-01 8.328992128372192383e-02 1.663616113364696503e-02
1.477000000000000000e+03 4.672342300415039062e+00 2.218553161621093750e+01 1.413127034902572632e-01 2.150431275367736816e-01 1.069067493081092834e-01 -8.077546022832393646e-03
1.478000000000000000e+03 4.450970172882080078e+00 -3.440586090087890625e+01 -1.929621957242488861e-02 6.894800066947937012e-01 2.010551244020462036e-01 1.380146145820617676e-01
1.479000000000000000e+03 7.724216461181640625e+00 -3.302619552612304688e+01 -5.766486749053001404e-02 1.377211570739746094e+00 3.958640098571777344e-01 2.999004423618316650e-01
1.480000000000000000e+03 1.098847866058349609e+01 -3.176392364501953125e+01 -1.229797303676605225e-01 2.174401283264160156e+00 6.154264807701110840e-01 4.216686189174652100e-01
1.481000000000000000e+03 7.311812877655029297e+00 2.160849380493164062e+01 3.497167825698852539e-01 4.151212275028228760e-01 2.294514030218124390e-01 -2.668426036834716797e-01
1.482000000000000000e+03 6.052421092987060547e+00 2.704616737365722656e+01 1.005500853061676025e-01 8.857784271240234375e-01 2.958985567092895508e-01 -3.374260067939758301e-01
1.483000000000000000e+03 6.186442852020263672e+00 -2.828694915771484375e+01 6.446618586778640747e-02 8.362690806388854980e-01 2.702205777168273926e-01 2.357199192047119141e-01
1.484000000000000000e+03 7.342189311981201172e+00 -2.680765724182128906e+01 1.049499511718750000e-01 9.063768982887268066e-01 3.033980727195739746e-01 3.152527511119842529e-01
1.485000000000000000e+03 3.596539020538330078e+00 9.896295547485351562e+00 1.219551195390522480e-03 -1.680037355981767178e-03 -1.381458714604377747e-04 -1.852538669481873512e-03
1.486000000000000000e+03 3.453490972518920898e+00 8.930741310119628906e+00 -1.702293986454606056e-03 6.207953556440770626e-04 -3.244495892431586981e-04 -4.087101842742413282e-04
1.487000000000000000e+03 4.645377635955810547e+00 8.082910537719726562e+00 -9.047496132552623749e-04 3.769749309867620468e-04 -1.583324192324653268e-04 6.985135405557230115e-05
1.488000000000000000e+03 3.797244548797607422e+00 -8.274118423461914062e+00 9.793795179575681686e-04 -4.829387762583792210e-04 1.489322166889905930e-04 5.235391654423438013e-05
1.489000000000000000e+03 4.835662841796875000e+00 -6.157367229461669922e+00 2.252026206406299025e-05 -5.017494549974799156e-04 -1.437687460565939546e-04 3.217563062207773328e-05
1.490000000000000000e+03 4.774950504302978516e+00 -5.191590309143066406e+00 5.435090861283242702e-04 1.176878795376978815e-04 1.983590773306787014e-04 4.173499473836272955e-05
1.491000000000000000e+03 1.295898914337158203e+01 -1.918024826049804688e+01 3.433438539505004883e-01 1.631702184677124023e+00 5.925137996673583984e-01 9.341893792152404785e-01
1.492000000000000000e+03 1.415900135040283203e+01 2.213122177124023438e+01 1.355294138193130493e-01 3.238956928253173828e+00 1.012345910072326660e+00 -1.356534123420715332e+00
1.493000000000000000e+03 1.004847621917724609e+01 2.292834854125976562e+01 3.661648929119110107e-01 1.381677508354187012e+00 5.243527293205261230e-01 -8.131899833679199219e-01
1.494000000000000000e+03 6.094728946685791016e+00 -6.938017368316650391e+00 5.324457888491451740e-04 3.469931834843009710e-04 2.638316946104168892e-04 -6.313944468274712563e-04
1.495000000000000000e+03 1.766175842285156250e+01 -1.937038230895996094e+01 2.213248759508132935e-01 3.672072649002075195e+00 1.168019294738769531e+00 1.545928239822387695e+00
1.496000000000000000e+03 1.995773506164550781e+01 1.862825584411621094e+01 1.300446391105651855e-01 5.890480518341064453e+00 1.806157588958740234e+00 -9.392407536506652832e-01
1.497000000000000000e+03 1.776550865173339844e+01 -1.815242958068847656e+01 3.580390810966491699e-01 3.627821922302246094e+00 1.195758342742919922e+00 1.671969413757324219e+00
1.498000000000000000e+03 2.414091682434082031e+01 6.184687614440917969e+00 4.543079733848571777e-01 8.236950874328613281e+00 2.607377767562866211e+00 -1.559034585952758789e+00
1.499000000000000000e+03 1.796556854248046875e+01 -1.546876525878906250e+01 7.647023200988769531e-01 3.275575399398803711e+00 1.212083339691162109e+00 1.928990483283996582e+00
1.500000000000000000e+03 1.625292587280273438e+01 -1.919482803344726562e+01 3.298545181751251221e-01 2.951046943664550781e+00 9.842704534530639648e-01 1.409758925437927246e+00
1.501000000000000000e+03 1.547204017639160156e+01 1.894631576538085938e+01 4.041346907615661621e-01 4.200333595275878906e+00 1.381340503692626953e+00 -1.492622971534729004e+00
1.502000000000000000e+03 2.258039474487304688e+01 1.224639415740966797e+01 7.811097502708435059e-01 7.210408210754394531e+00 2.397455215454101562e+00 -1.111171483993530273e+00
1.503000000000000000e+03 2.051670074462890625e+01 1.675923538208007812e+01 4.370813965797424316e-01 6.277144432067871094e+00 2.014267683029174805e+00 -1.034361481666564941e+00
1.504000000000000000e+03 1.847000503540039062e+01 1.987286758422851562e+01 3.751764073967933655e-02 5.315888404846191406e+00 1.606021881103515625e+00 -1.111900329589843750e+00
1.505000000000000000e+03 7.204008483886718750e+01 4.077989196777343750e+01 -6.126998364925384521e-02 8.138345718383789062e+00 2.423122882843017578e+00 2.892367355525493622e-02
1.506000000000000000e+03 2.376163673400878906e+01 7.253295898437500000e+00 5.985661745071411133e-01 8.012136459350585938e+00 2.583210706710815430e+00 -1.526907920837402344e+00
1.507000000000000000e+03 2.337182807922363281e+01 8.344278335571289062e+00 7.388525009155273438e-01 7.838185787200927734e+00 2.573111534118652344e+00 -1.485197782516479492e+00
1.508000000000000000e+03 2.303075218200683594e+01 -3.982352495193481445e+00 4.287360906600952148e-01 1.217619323730468750e+01 3.781478881835937500e+00 -3.516987562179565430e+00
1.509000000000000000e+03 2.447334671020507812e+01 -3.119472026824951172e+00 2.023504823446273804e-01 1.353904151916503906e+01 4.122417926788330078e+00 -5.571503639221191406e-01
1.510000000000000000e+03 2.259715080261230469e+01 -1.769790291786193848e+00 -2.670666575431823730e-01 9.180828094482421875e+00 2.674128293991088867e+00 -2.690133810043334961e+00
1.511000000000000000e+03 2.264979553222656250e+01 -3.987277507781982422e+00 7.116179466247558594e-01 1.045618724822998047e+01 3.350341558456420898e+00 -4.050476074218750000e+00
1.512000000000000000e+03 2.322558021545410156e+01 -1.060611438751220703e+01 8.197398781776428223e-01 1.044077205657958984e+01 3.378153562545776367e+00 2.882074117660522461e+00
1.513000000000000000e+03 2.125446510314941406e+01 -4.087913036346435547e+00 1.788813233375549316e+00 3.597058534622192383e+00 1.615761518478393555e+00 -2.793651580810546875e+00
1.514000000000000000e+03 2.158600807189941406e+01 -9.062047004699707031e+00 3.069594860076904297e+00 5.881319999694824219e+00 2.685274362564086914e+00 4.379054069519042969e+00
1.515000000000000000e+03 2.578501892089843750e+01 -3.881507158279418945e+00 2.291717290878295898e+00 1.321420955657958984e+01 4.651778221130371094e+00 1.395096540451049805e+00
1.516000000000000000e+03 2.314623069763183594e+01 -1.224734306335449219e+00 -4.468660354614257812e-01 9.935973167419433594e+00 2.846732139587402344e+00 -2.304675817489624023e+00
1.517000000000000000e+03 2.722408485412597656e+01 -4.414222717285156250e+00 3.539088010787963867e+00 1.147641468048095703e+01 4.504650592803955078e+00 1.573998808860778809e+00
1.518000000000000000e+03 2.499300193786621094e+01 -3.010096311569213867e+00 4.750499129295349121e-01 1.328730010986328125e+01 4.128705024719238281e+00 1.437780540436506271e-02
1.519000000000000000e+03 2.213685226440429688e+01 -9.630654335021972656e+00 2.092240095138549805e+00 8.098328590393066406e+00 3.057170629501342773e+00 4.235444545745849609e+00
1.520000000000000000e+03 2.324649429321289062e+01 -9.748536109924316406e+00 1.190259337425231934e+00 1.159450912475585938e+01 3.835430622100830078e+00 3.147024393081665039e+00
1.521000000000000000e+03 1.956248664855957031e+01 -1.139947319030761719e+01 1.541268587112426758e+00 3.449026107788085938e+00 1.497088432312011719e+00 2.694967269897460938e+00
1.522000000000000000e+03 5.936918735504150391e+00 4.683978557586669922e+00 -4.833495404454879463e-05 6.762395787518471479e-05 5.786701422039186582e-06 9.645761456340551376e-04
1.523000000000000000e+03 8.282991409301757812e+00 5.869738578796386719e+00 2.246103715151548386e-03 -3.605034202337265015e-03 -4.076791810803115368e-04 -1.962113659828901291e-03
1.524000000000000000e+03 9.925753593444824219e+00 5.768556594848632812e+00 2.462018164806067944e-04 2.088585752062499523e-04 1.365181087749078870e-04 -3.436155617237091064e-03
1.525000000000000000e+03 7.792643547058105469e+00 4.885690212249755859e+00 1.974330050870776176e-03 -3.200389910489320755e-03 -3.678179637063294649e-04 -1.391156460158526897e-03
1.526000000000000000e+03 2.606367683410644531e+01 -8.630496025085449219e+00 4.053598880767822266e+00 1.277513885498046875e+01 5.048621177673339844e+00 -1.517348289489746094e+00
1.527000000000000000e+03 2.706673622131347656e+01 -9.495183944702148438e+00 3.018223285675048828e+00 1.126074504852294922e+01 4.283690452575683594e+00 -1.147418975830078125e+00
1.528000000000000000e+03 6.515509128570556641e+00 4.745215415954589844e+00 1.584770041517913342e-03 -2.035869518294930458e-03 -1.353298430331051350e-04 -7.317392155528068542e-04
1.529000000000000000e+03 2.086994361877441406e+01 -8.523079872131347656e+00 3.209663391113281250e+00 2.619565963745117188e+00 1.748768806457519531e+00 2.872622489929199219e+00
1.530000000000000000e+03 7.341562271118164062e+00 -5.882242202758789062e+00 1.549814478494226933e-04 -7.200293475762009621e-04 -1.695143728284165263e-04 -9.755884093465283513e-05
1.531000000000000000e+03 1.896792221069335938e+01 -1.246653366088867188e+01 1.230552911758422852e+00 3.156743288040161133e+00 1.316188812255859375e+00 2.422621011734008789e+00
1.532000000000000000e+03 1.782385826110839844e+01 -1.411174583435058594e+01 9.948384761810302734e-01 2.831213474273681641e+00 1.147815585136413574e+00 1.941813111305236816e+00
1.533000000000000000e+03 5.687569141387939453e+00 -6.077423095703125000e+00 2.062069543171674013e-04 -1.087289856513962150e-04 2.924339241872075945e-05 -3.885612240992486477e-04
1.534000000000000000e+03 2.188928222656250000e+01 -2.864640951156616211e+00 4.277707338333129883e-01 7.333096981048583984e+00 2.328260421752929688e+00 -3.181234836578369141e+00
1.535000000000000000e+03 1.063611888885498047e+01 5.713852882385253906e+00 -1.091832600650377572e-04 2.270553726702928543e-03 6.484111654572188854e-04 3.823287086561322212e-03
1.536000000000000000e+03 2.492150497436523438e+01 -9.868202209472656250e+00 1.424548745155334473e+00 1.270364665985107422e+01 4.238458633422851562e+00 3.732571601867675781e-01
1.537000000000000000e+03 2.644230270385742188e+01 -9.871495246887207031e+00 2.272386074066162109e+00 1.179553127288818359e+01 4.220375537872314453e+00 -8.597692251205444336e-01
1.538000000000000000e+03 2.667341423034667969e+01 -2.944491624832153320e+00 1.512812614440917969e+00 1.187062168121337891e+01 4.015030384063720703e+00 9.657915234565734863e-01
1.539000000000000000e+03 1.780140495300292969e+01 -1.704227066040039062e+01 5.305051803588867188e-01 3.478756427764892578e+00 1.202778458595275879e+00 1.779446721076965332e+00
1.540000000000000000e+03 2.941691780090332031e+01 -4.129508972167968750e+00 3.148953914642333984e+00 9.793057441711425781e+00 3.882603406906127930e+00 9.870926141738891602e-01
1.541000000000000000e+03 1.105325317382812500e+01 6.745560169219970703e+00 -4.148849111516028643e-04 4.522785078734159470e-03 1.232370152138173580e-03 2.789075719192624092e-03
1.542000000000000000e+03 2.889397621154785156e+01 -6.945842266082763672e+00 4.277575492858886719e+00 9.602585792541503906e+00 4.164048671722412109e+00 -1.570573896169662476e-01
1.543000000000000000e+03 7.703687191009521484e+00 9.524633407592773438e+00 2.591151278465986252e-04 -5.321925505995750427e-03 -1.518843113444745541e-03 5.088754463940858841e-03
1.544000000000000000e+03 8.231081008911132812e+00 6.756042003631591797e+00 -1.388783915899693966e-03 2.175457775592803955e-04 -3.513714473228901625e-04 4.538299050182104111e-03
1.545000000000000000e+03 2.229354858398437500e+01 -1.000200080871582031e+01 1.560958385467529297e+00 8.736695289611816406e+00 3.089296102523803711e+00 3.866192340850830078e+00
1.546000000000000000e+03 6.799487113952636719e+00 1.033372211456298828e+01 -1.654322113608941436e-04 -1.271672430448234081e-03 -4.311313969083130360e-04 -3.058227244764566422e-03
1.547000000000000000e+03 1.892400550842285156e+01 -1.429800224304199219e+01 8.906650543212890625e-01 3.749190568923950195e+00 1.391956686973571777e+00 2.269948005676269531e+00
1.548000000000000000e+03 2.275617599487304688e+01 3.035471200942993164e+00 8.612643927335739136e-03 8.310866355895996094e+00 2.495843648910522461e+00 -2.009021043777465820e+00
1.549000000000000000e+03 2.191076087951660156e+01 1.364900112152099609e+01 7.412717342376708984e-01 7.002488136291503906e+00 2.323127985000610352e+00 -1.099702715873718262e+00
1.550000000000000000e+03 2.004874610900878906e+01 2.140528297424316406e+01 -2.202313095331192017e-01 5.614930152893066406e+00 1.618409752845764160e+00 -8.381673693656921387e-01
1.551000000000000000e+03 6.263283729553222656e+00 2.125133895874023438e+01 2.022484391927719116e-01 2.166674286127090454e-01 1.256747543811798096e-01 -2.434960007667541504e-02
1.552000000000000000e+03 8.618855476379394531e+00 -2.130100250244140625e+01 2.231202572584152222e-01 6.133386492729187012e-01 2.509376704692840576e-01 3.989990353584289551e-01
1.553000000000000000e+03 6.197721958160400391e+00 -2.519143867492675781e+01 1.324797719717025757e-01 5.670638680458068848e-01 2.098630964756011963e-01 1.942335814237594604e-01
1.554000000000000000e+03 2.577576637268066406e+01 5.678339481353759766e+00 2.753869891166687012e-01 8.623661994934082031e+00 2.669714689254760742e+00 -1.236888289451599121e+00
1.555000000000000000e+03 9.763277053833007812e+00 7.135924339294433594e+00 -2.095055766403675079e-03 6.144353188574314117e-03 1.214789226651191711e-03 1.612377469427883625e-03
1.556000000000000000e+03 7.027139282226562500e+01 -2.577322006225585938e+01 -2.685456164181232452e-02 7.734713077545166016e+00 2.312357425689697266e+00 -2.267382293939590454e-01
1.557000000000000000e+03 6.973295593261718750e+01 -3.004253005981445312e+01 -6.332805007696151733e-02 7.801755428314208984e+00 2.321528196334838867e+00 -1.983528435230255127e-01
1.558000000000000000e+03 7.105796051025390625e+01 -3.168932342529296875e+01 -5.784158408641815186e-02 7.819468021392822266e+00 2.328487873077392578e+00 -1.650172472000122070e-01
1.559000000000000000e+03 9.246970176696777344e+00 2.886259078979492188e+01 2.249954035505652428e-03 1.784156560897827148e+00 5.359219908714294434e-01 -5.543036460876464844e-01
1.560000000000000000e+03 9.587739944458007812e+00 3.256637954711914062e+01 -1.544533669948577881e-01 2.030529975891113281e+00 5.628229379653930664e-01 -4.509852528572082520e-01
1.561000000000000000e+03 7.274432373046875000e+01 -2.285834693908691406e+01 -3.012545406818389893e-03 7.671631813049316406e+00 2.300585746765136719e+00 -1.892240196466445923e-01
1.562000000000000000e+03 7.190088653564453125e+01 2.587135887145996094e+01 -3.748351335525512695e-02 7.954997062683105469e+00 2.375253915786743164e+00 2.229423671960830688e-01
1.563000000000000000e+03 7.142375183105468750e+01 2.263977622985839844e+01 -2.495802752673625946e-02 7.882740020751953125e+00 2.357334613800048828e+00 2.554628252983093262e-01
1.564000000000000000e+03 7.134560394287109375e+01 1.624075889587402344e+01 1.155214291065931320e-02 7.746193408966064453e+00 2.327323675155639648e+00 2.672394812107086182e-01
1.565000000000000000e+03 7.270733642578125000e+01 1.525360107421875000e+01 1.357171684503555298e-02 7.721888065338134766e+00 2.320637941360473633e+00 2.336231321096420288e-01
1.566000000000000000e+03 7.105859375000000000e+01 1.003446388244628906e+01 4.833932965993881226e-02 7.621748924255371094e+00 2.301026582717895508e+00 2.359554618597030640e-01
1.567000000000000000e+03 7.256769561767578125e+01 -1.658208274841308594e+01 3.401346504688262939e-02 7.553641796112060547e+00 2.276296615600585938e+00 -1.705603450536727905e-01
1.568000000000000000e+03 7.287522888183593750e+01 -6.773478507995605469e+00 6.414750963449478149e-02 7.438006401062011719e+00 2.250646352767944336e+00 -3.749818354845046997e-02
1.569000000000000000e+03 7.279280090332031250e+01 -9.554701805114746094e+00 5.996339768171310425e-02 7.456777572631835938e+00 2.255022287368774414e+00 -8.177851140499114990e-02
1.570000000000000000e+03 7.127217864990234375e+01 4.317893028259277344e+00 7.614997029304504395e-02 7.524672508239746094e+00 2.280246734619140625e+00 1.598015427589416504e-01
1.571000000000000000e+03 7.407958221435546875e+01 -1.102325534820556641e+01 3.904634341597557068e-02 7.445190906524658203e+00 2.245271205902099609e+00 -8.886671811342239380e-02
1.572000000000000000e+03 7.271677398681640625e+01 -1.096485519409179688e+01 5.679622665047645569e-02 7.471641063690185547e+00 2.258531093597412109e+00 -1.031332984566688538e-01
1.573000000000000000e+03 7.287123107910156250e+01 -2.660897731781005859e+00 6.571232527494430542e-02 7.437124252319335938e+00 2.250850915908813477e+00 3.060855343937873840e-02
1.574000000000000000e+03 7.288823699951171875e+01 -4.038539409637451172e+00 6.564591825008392334e-02 7.433784008026123047e+00 2.249829053878784180e+00 7.758471649140119553e-03
1.575000000000000000e+03 7.418667602539062500e+01 -1.290896058082580566e+00 4.456210881471633911e-02 7.414350509643554688e+00 2.237673759460449219e+00 4.534585401415824890e-02
1.576000000000000000e+03 7.284465026855468750e+01 -1.279527187347412109e+00 6.470637768507003784e-02 7.443901062011718750e+00 2.252582311630249023e+00 5.370129644870758057e-02
1.577000000000000000e+03 7.280390167236328125e+01 1.097961962223052979e-01 6.347814202308654785e-02 7.454544544219970703e+00 2.255406856536865234e+00 7.631211727857589722e-02
1.578000000000000000e+03 7.403874969482421875e+01 5.736817836761474609e+00 3.480491042137145996e-02 7.504309654235839844e+00 2.261734247207641602e+00 1.359396874904632568e-01
1.579000000000000000e+03 7.402072906494140625e+01 1.267427444458007812e+01 1.655882783234119415e-02 7.654615879058837891e+00 2.301352500915527344e+00 1.900482475757598877e-01
1.580000000000000000e+03 7.254910278320312500e+01 9.991379737854003906e+00 3.464757651090621948e-02 7.608001708984375000e+00 2.292794704437255859e+00 2.058956325054168701e-01
1.581000000000000000e+03 7.218663787841796875e+01 2.709879302978515625e+01 -4.243649542331695557e-02 7.984494686126708984e+00 2.382617473602294922e+00 2.092317342758178711e-01
1.582000000000000000e+03 7.197201538085937500e+01 -2.789151382446289062e+01 -2.782003208994865417e-02 7.761353969573974609e+00 2.320060253143310547e+00 -1.863375902175903320e-01
1.583000000000000000e+03 2.197808647155761719e+01 -1.984727382659912109e-02 -2.798960208892822266e-01 7.789265155792236328e+00 2.252810716629028320e+00 -2.460424661636352539e+00
1.584000000000000000e+03 2.381138992309570312e+01 3.649717330932617188e+00 6.731641292572021484e-02 8.663734436035156250e+00 2.619315147399902344e+00 -1.812492489814758301e+00
1.585000000000000000e+03 7.326751232147216797e+00 -2.542780876159667969e+01 1.633743196725845337e-01 8.380365371704101562e-01 3.004232645034790039e-01 2.995056211948394775e-01
1.586000000000000000e+03 1.058484840393066406e+01 2.148410415649414062e+01 4.601484835147857666e-01 1.242214202880859375e+00 5.107088088989257812e-01 -9.688252210617065430e-01
1.587000000000000000e+03 4.597446441650390625e+00 -9.630427360534667969e+00 5.560268764384090900e-04 -9.661313961260020733e-04 -1.230313646374270320e-04 -8.293601567856967449e-04
1.588000000000000000e+03 7.867236137390136719e+00 2.860053253173828125e+01 2.884006127715110779e-02 1.405377984046936035e+00 4.302654266357421875e-01 -4.687459468841552734e-01
1.589000000000000000e+03 7.864974975585937500e+00 8.004371643066406250e+00 1.287359773414209485e-04 -4.001562483608722687e-03 -1.161847962066531181e-03 4.228229168802499771e-03
1.590000000000000000e+03 4.846484184265136719e+00 6.831343650817871094e+00 2.194467931985855103e-03 -3.461628453806042671e-03 -3.801482089329510927e-04 -7.153325132094323635e-04
1.591000000000000000e+03 7.361847877502441406e+00 7.131148338317871094e+00 8.675428689457476139e-04 3.411815850995481014e-04 3.626173420343548059e-04 -2.819062210619449615e-03
1.592000000000000000e+03 9.917550086975097656e+00 -2.197332382202148438e+01 2.736239135265350342e-01 9.925084114074707031e-01 3.798396885395050049e-01 5.488839745521545410e-01
1.593000000000000000e+03 2.469041633605957031e+01 8.958361625671386719e+00 6.316688656806945801e-01 7.814463615417480469e+00 2.533839702606201172e+00 -1.197835445404052734e+00
1.594000000000000000e+03 1.319583797454833984e+01 -2.298266410827636719e+01 1.388895511627197266e-01 2.209691047668457031e+00 7.045741677284240723e-01 9.521635174751281738e-01
1.595000000000000000e+03 1.371444129943847656e+01 -2.153988647460937500e+01 2.048218548297882080e-01 2.224998474121093750e+00 7.289460897445678711e-01 1.061947941780090332e+00
1.596000000000000000e+03 6.810493469238281250e+01 2.954523468017578125e+01 -1.085976958274841309e-01 7.960638523101806641e+00 2.355612277984619141e+00 2.424132078886032104e-01
1.597000000000000000e+03 1.886209869384765625e+01 -1.691696739196777344e+01 4.228750169277191162e-01 4.122178077697753906e+00 1.363515973091125488e+00 1.912477850914001465e+00
1.598000000000000000e+03 8.213393211364746094e+00 2.372252273559570312e+01 3.086095154285430908e-01 9.588785767555236816e-01 3.802464306354522705e-01 -5.230849385261535645e-01
1.599000000000000000e+03 1.403616333007812500e+01 2.337503242492675781e+01 7.045109290629625320e-03 3.294066190719604492e+00 9.903333783149719238e-01 -1.158439874649047852e+00
1.600000000000000000e+03 1.686372375488281250e+01 -1.697992134094238281e+01 5.861883759498596191e-01 2.908490419387817383e+00 1.048403620719909668e+00 1.593911170959472656e+00
1.601000000000000000e+03 2.466577339172363281e+01 1.670645141601562500e+01 1.683388948440551758e-01 6.883215904235839844e+00 2.115466356277465820e+00 -5.303728580474853516e-01
1.602000000000000000e+03 8.522895812988281250e+00 -3.008573722839355469e+01 -1.266203005798161030e-03 1.422649860382080078e+00 4.264150857925415039e-01 3.518120050430297852e-01
1.603000000000000000e+03 1.550505161285400391e+01 2.285276222229003906e+01 -1.275324523448944092e-01 4.028989791870117188e+00 1.170437216758728027e+00 -1.159113168716430664e+00
1.604000000000000000e+03 1.461004829406738281e+01 2.119395446777343750e+01 1.405513286590576172e-01 3.526819229125976562e+00 1.100211143493652344e+00 -1.357400774955749512e+00
1.605000000000000000e+03 1.592529201507568359e+01 -2.052874946594238281e+01 2.046365141868591309e-01 2.968838453292846680e+00 9.520424604415893555e-01 1.315606474876403809e+00
1.606000000000000000e+03 1.755965423583984375e+01 -2.069534301757812500e+01 8.152172714471817017e-02 3.704539060592651367e+00 1.135818243026733398e+00 1.431712269783020020e+00
1.607000000000000000e+03 7.260047149658203125e+01 -1.518393325805664062e+01 4.229098185896873474e-02 7.527445316314697266e+00 2.270920991897583008e+00 -1.548715680837631226e-01
1.608000000000000000e+03 4.903414249420166016e+00 -1.320604324340820312e+01 -1.105476543307304382e-02 4.302018205635249615e-04 -3.187369089573621750e-03 1.641772803850471973e-03
1.609000000000000000e+03 2.541310119628906250e+01 6.725451946258544922e+00 3.933901488780975342e-01 8.340695381164550781e+00 2.620225667953491211e+00 -1.245491743087768555e+00
1.610000000000000000e+03 6.488901615142822266e+00 2.250673866271972656e+01 2.592709660530090332e-01 4.544439911842346191e-01 2.141144871711730957e-01 -2.330004572868347168e-01
1.611000000000000000e+03 7.261302185058593750e+01 7.164662361145019531e+00 4.601310566067695618e-02 7.552224636077880859e+00 2.279471397399902344e+00 1.773426532745361328e-01
1.612000000000000000e+03 7.266330718994140625e+01 1.400440216064453125e+01 1.866580173373222351e-02 7.693279266357421875e+00 2.313583612442016602e+00 2.283384501934051514e-01
1.613000000000000000e+03 8.554744720458984375e+00 -2.712081527709960938e+01 8.540260046720504761e-02 1.285534858703613281e+00 4.112812280654907227e-01 3.866154551506042480e-01
1.614000000000000000e+03 7.234416198730468750e+01 2.896818733215332031e+01 -5.012157931923866272e-02 8.024374008178710938e+00 2.392275810241699219e+00 1.846222728490829468e-01
1.615000000000000000e+03 2.563675308227539062e+01 1.168797969818115234e+01 5.107430815696716309e-01 7.531721591949462891e+00 2.412739515304565430e+00 -7.847506999969482422e-01
1.616000000000000000e+03 2.299154281616210938e+01 9.505913734436035156e+00 8.216150999069213867e-01 7.632630825042724609e+00 2.536273717880249023e+00 -1.375176668167114258e+00
1.617000000000000000e+03 2.230403900146484375e+01 -3.324274063110351562e+00 5.936648845672607422e-01 8.588686943054199219e+00 2.754705667495727539e+00 -3.467032432556152344e+00
1.618000000000000000e+03 2.370056533813476562e+01 -3.514793872833251953e+00 5.022846907377243042e-02 1.317633724212646484e+01 3.967969655990600586e+00 -1.999071002006530762e+00
1.619000000000000000e+03 2.238366127014160156e+01 -2.470828056335449219e+00 3.283043578267097473e-02 9.008665084838867188e+00 2.712448596954345703e+00 -3.055413246154785156e+00
1.620000000000000000e+03 2.101885414123535156e+01 -8.871879577636718750e+00 3.108508825302124023e+00 3.661250114440917969e+00 2.030927658081054688e+00 3.413626194000244141e+00
1.621000000000000000e+03 2.256137657165527344e+01 -6.229242086410522461e-01 -3.562407791614532471e-01 8.760151863098144531e+00 2.521173477172851562e+00 -2.504858732223510742e+00
1.622000000000000000e+03 2.406114959716796875e+01 -1.070997714996337891e+01 5.723236203193664551e-01 1.166250705718994141e+01 3.670449256896972656e+00 1.842388987541198730e+00
1.623000000000000000e+03 2.039431953430175781e+01 -1.005783176422119141e+01 2.200796842575073242e+00 3.803635835647583008e+00 1.801329851150512695e+00 3.145674228668212891e+00
1.624000000000000000e+03 2.617872238159179688e+01 -3.265289783477783203e+00 1.536174416542053223e+00 1.244913387298583984e+01 4.195592403411865234e+00 1.011440753936767578e+00
1.625000000000000000e+03 2.535656929016113281e+01 -2.570356607437133789e+00 4.281162917613983154e-01 1.267881488800048828e+01 3.932079553604125977e+00 1.159565970301628113e-01
1.626000000000000000e+03 1.932148742675781250e+01 -9.469829559326171875e+00 1.764756917953491211e+00 1.715630412101745605e+00 1.044116139411926270e+00 1.852774858474731445e+00
1.627000000000000000e+03 9.133719444274902344e+00 5.877028942108154297e+00 -1.135846134275197983e-03 2.012233715504407883e-03 2.629162918310612440e-04 3.782196436077356339e-03
1.628000000000000000e+03 2.038722419738769531e+01 -2.056990146636962891e+00 2.068749964237213135e-01 4.320921421051025391e+00 1.358338952064514160e+00 -2.043524026870727539e+00
1.629000000000000000e+03 2.757937049865722656e+01 -1.012129402160644531e+01 2.299047231674194336e+00 1.079546356201171875e+01 3.928353071212768555e+00 -1.055170774459838867e+00
1.630000000000000000e+03 2.192644882202148438e+01 -1.068275451660156250e+01 1.439574241638183594e+00 7.390612125396728516e+00 2.649055957794189453e+00 3.670921802520751953e+00
1.631000000000000000e+03 1.927302551269531250e+01 -1.003466224670410156e+01 1.877215504646301270e+00 2.150784730911254883e+00 1.208400130271911621e+00 2.207706689834594727e+00
1.632000000000000000e+03 1.983371925354003906e+01 -1.220690155029296875e+01 1.266023039817810059e+00 4.100000381469726562e+00 1.609807014465332031e+00 2.739078044891357422e+00
1.633000000000000000e+03 2.810682296752929688e+01 -3.548961877822875977e+00 2.594704866409301758e+00 1.082054901123046875e+01 4.024576187133789062e+00 1.267731666564941406e+00
1.634000000000000000e+03 1.986814117431640625e+01 -9.978139877319335938e+00 2.123311519622802734e+00 2.763775110244750977e+00 1.466125965118408203e+00 2.627922773361206055e+00
1.635000000000000000e+03 2.536017036437988281e+01 -1.044712066650390625e+01 1.155709505081176758e+00 1.214007472991943359e+01 3.988735437393188477e+00 1.538404077291488647e-01
1.636000000000000000e+03 1.930839538574218750e+01 -1.328348445892333984e+01 1.067025780677795410e+00 3.836448192596435547e+00 1.471042156219482422e+00 2.486167430877685547e+00
1.637000000000000000e+03 7.028386116027832031e+00 6.286639213562011719e+00 -9.237961494363844395e-04 -1.382551505230367184e-03 -6.919043371453881264e-04 3.491702955216169357e-03
1.638000000000000000e+03 2.141581344604492188e+01 -1.681306481361389160e+00 1.831842935644090176e-03 6.625513076782226562e+00 1.988203406333923340e+00 -2.657977342605590820e+00
1.639000000000000000e+03 2.665257072448730469e+01 -3.556353092193603516e+00 2.274130105972290039e+00 1.209613990783691406e+01 4.311080932617187500e+00 1.409525394439697266e+00
1.640000000000000000e+03 2.826284217834472656e+01 -7.624334335327148438e+00 4.375932216644287109e+00 9.931279182434082031e+00 4.292163372039794922e+00 -5.286189913749694824e-01
1.641000000000000000e+03 1.904752349853515625e+01 -1.498374652862548828e+01 7.331427335739135742e-01 3.988281011581420898e+00 1.416427135467529297e+00 2.202270507812500000e+00
1.642000000000000000e+03 1.737317848205566406e+01 -1.621145629882812500e+01 6.704341173171997070e-01 3.099190711975097656e+00 1.130887389183044434e+00 1.752488851547241211e+00
1.643000000000000000e+03 2.231570053100585938e+01 5.053817033767700195e-01 -3.040510416030883789e-01 8.233439445495605469e+00 2.378816366195678711e+00 -2.348763227462768555e+00
1.644000000000000000e+03 2.246510696411132812e+01 1.618026852607727051e+00 -1.911496669054031372e-01 8.270778656005859375e+00 2.423888921737670898e+00 -2.180870771408081055e+00
1.645000000000000000e+03 5.831457614898681641e+00 7.183719635009765625e+00 -1.450504641979932785e-03 1.893638866022229195e-03 1.329402584815397859e-04 -2.651231770869344473e-04
1.646000000000000000e+03 8.549145698547363281e+00 -2.542279052734375000e+01 1.531973630189895630e-01 1.138983607292175293e+00 3.876543045043945312e-01 4.093976914882659912e-01
1.647000000000000000e+03 7.265140533447265625e+01 5.740315437316894531e+00 5.109605565667152405e-02 7.526983737945556641e+00 2.273423910140991211e+00 1.595194488763809204e-01
1.648000000000000000e+03 7.284500885009765625e+01 -8.154038429260253906e+00 6.224673986434936523e-02 7.445426464080810547e+00 2.252301931381225586e+00 -5.987913906574249268e-02
1.649000000000000000e+03 7.272418975830078125e+01 2.899970769882202148e+00 5.881458520889282227e-02 7.484555244445800781e+00 2.263010978698730469e+00 1.196102723479270935e-01
1.650000000000000000e+03 7.144680786132812500e+01 -1.250833272933959961e+00 8.925693482160568237e-02 7.469435691833496094e+00 2.267607688903808594e+00 6.203806027770042419e-02
1.651000000000000000e+03 7.149451446533203125e+01 -2.623820304870605469e+00 9.010906517505645752e-02 7.462420463562011719e+00 2.265758752822875977e+00 3.598543256521224976e-02
1.652000000000000000e+03 7.198276519775390625e+01 -2.509922981262207031e+01 -1.474307943135499954e-02 7.715275764465332031e+00 2.310159683227539062e+00 -1.988120228052139282e-01
1.653000000000000000e+03 6.351074695587158203e+00 5.482684612274169922e+00 -7.954949978739023209e-04 1.145451329648494720e-03 1.049869024427607656e-04 3.837019612547010183e-04
1.654000000000000000e+03 6.982952117919921875e+01 4.350542068481445312e+00 1.004811376333236694e-01 7.542037963867187500e+00 2.292755842208862305e+00 1.800907254219055176e-01
1.655000000000000000e+03 7.154542541503906250e+01 -5.353050231933593750e+00 8.897422999143600464e-02 7.458975791931152344e+00 2.264384984970092773e+00 -1.591588370501995087e-02
1.656000000000000000e+03 2.661641311645507812e+01 7.130603313446044922e+00 3.765941262245178223e-01 8.374866485595703125e+00 2.625438213348388672e+00 -1.012736320495605469e+00
1.657000000000000000e+03 7.721313953399658203e+00 2.494944000244140625e+01 2.087857723236083984e-01 1.058155655860900879e+00 3.800823986530303955e-01 -4.845899343490600586e-01
1.658000000000000000e+03 7.129269409179687500e+01 -1.647473526000976562e+01 4.343536496162414551e-02 7.567782402038574219e+00 2.283365249633789062e+00 -1.880661994218826294e-01
1.659000000000000000e+03 7.098548889160156250e+01 -1.785049247741699219e+01 3.719421476125717163e-02 7.590548038482666016e+00 2.288322687149047852e+00 -2.034860700368881226e-01
1.660000000000000000e+03 7.258632659912109375e+01 1.271899127960205078e+01 2.352506667375564575e-02 7.665351867675781250e+00 2.306663036346435547e+00 2.237270325422286987e-01
1.661000000000000000e+03 7.101264953613281250e+01 1.146982574462890625e+01 3.916060552000999451e-02 7.650235652923583984e+00 2.306818962097167969e+00 2.486155480146408081e-01
1.662000000000000000e+03 7.134445953369140625e+01 -1.085336017608642578e+01 7.774889469146728516e-02 7.492923259735107422e+00 2.271201610565185547e+00 -1.148965135216712952e-01
1.663000000000000000e+03 7.069233703613281250e+01 1.859387588500976562e+01 -2.604385372251272202e-03 7.794599056243896484e+00 2.337598323822021484e+00 2.826198041439056396e-01
1.664000000000000000e+03 7.086064910888671875e+01 1.733200454711914062e+01 5.226117093116044998e-03 7.770603656768798828e+00 2.332748889923095703e+00 2.786684334278106689e-01
1.665000000000000000e+03 7.107418823242187500e+01 1.284385871887207031e+01 3.192920237779617310e-02 7.675711154937744141e+00 2.312292098999023438e+00 2.555996179580688477e-01
1.666000000000000000e+03 7.258123016357421875e+01 -1.379887771606445312e+01 4.591559991240501404e-02 7.508612632751464844e+00 2.266358375549316406e+00 -1.403231471776962280e-01
1.667000000000000000e+03 6.278148651123046875e+00 -2.280165481567382812e+01 1.651382893323898315e-01 4.138174653053283691e-01 1.736867278814315796e-01 1.291016787290573120e-01
1.668000000000000000e+03 7.206642150878906250e+01 2.013600921630859375e+01 -9.616614319384098053e-03 7.836731433868408203e+00 2.348134517669677734e+00 2.500633001327514648e-01
1.669000000000000000e+03 7.056941986083984375e+01 1.980513763427734375e+01 -1.126381289213895798e-02 7.822547435760498047e+00 2.343385219573974609e+00 2.821325957775115967e-01
1.670000000000000000e+03 2.427452468872070312e+01 2.740864276885986328e+00 -1.400488317012786865e-01 9.059349060058593750e+00 2.675790071487426758e+00 -1.732477664947509766e+00
1.671000000000000000e+03 7.835497379302978516e+00 3.037727737426757812e+01 -4.547528922557830811e-02 1.543023467063903809e+00 4.492644369602203369e-01 -4.319149255752563477e-01
1.672000000000000000e+03 1.100444126129150391e+01 3.023353958129882812e+01 -1.298791915178298950e-01 2.300577402114868164e+00 6.512094736099243164e-01 -5.797745585441589355e-01
1.673000000000000000e+03 7.235491943359375000e+01 -2.132493591308593750e+01 6.610953249037265778e-03 7.642564296722412109e+00 2.294752597808837891e+00 -1.969687193632125854e-01
1.674000000000000000e+03 7.298188018798828125e+01 -2.902705192565917969e+01 -2.397881075739860535e-02 7.774890899658203125e+00 2.325273513793945312e+00 -1.602057069540023804e-01
1.675000000000000000e+03 7.103503417968750000e+01 -2.905029296875000000e+01 -4.465382173657417297e-02 7.785995483398437500e+00 2.322402477264404297e+00 -1.920404881238937378e-01
1.676000000000000000e+03 7.288571166992187500e+01 -2.659354591369628906e+01 -1.729581505060195923e-02 7.736650466918945312e+00 2.315806388854980469e+00 -1.765862852334976196e-01
1.677000000000000000e+03 1.158573818206787109e+01 2.388721656799316406e+01 2.063377052545547485e-01 2.134433984756469727e+00 7.022314667701721191e-01 -1.011300325393676758e+00
1.678000000000000000e+03 1.451123428344726562e+01 -2.634480667114257812e+01 -7.443965226411819458e-02 2.889335155487060547e+00 8.444686532020568848e-01 9.169251918792724609e-01
1.679000000000000000e+03 7.153716278076171875e+01 -6.702171325683593750e+00 8.711656928062438965e-02 7.462140083312988281e+00 2.264776945114135742e+00 -4.116848483681678772e-02
1.680000000000000000e+03 7.118444824218750000e+01 7.177464485168457031e+00 6.269638985395431519e-02 7.569727897644042969e+00 2.289727210998535156e+00 2.020640075206756592e-01
1.681000000000000000e+03 6.974952697753906250e+01 7.188182353973388672e+00 8.101215958595275879e-02 7.583273887634277344e+00 2.299285888671875000e+00 2.246498465538024902e-01
1.682000000000000000e+03 1.686464500427246094e+01 2.103423309326171875e+01 -7.115762680768966675e-02 4.631638526916503906e+00 1.368144154548645020e+00 -1.154577851295471191e+00
1.683000000000000000e+03 1.829966926574707031e+01 2.149184036254882812e+01 -1.616269946098327637e-01 5.083992958068847656e+00 1.476709723472595215e+00 -1.061547398567199707e+00
1.684000000000000000e+03 1.134293842315673828e+01 -2.396708488464355469e+01 1.698364168405532837e-01 1.689360141754150391e+00 5.577589869499206543e-01 7.137617468833923340e-01
1.685000000000000000e+03 7.121248626708984375e+01 -1.523550128936767578e+01 5.670645460486412048e-02 7.548516273498535156e+00 2.281566858291625977e+00 -1.774483919143676758e-01
1.686000000000000000e+03 7.019604682922363281e+00 2.618958091735839844e+01 1.455096155405044556e-01 1.007395267486572266e+00 3.458714485168457031e-01 -3.996826410293579102e-01
1.687000000000000000e+03 7.125826263427734375e+01 1.411508274078369141e+01 2.473681792616844177e-02 7.700235366821289062e+00 2.317491769790649414e+00 2.598406076431274414e-01
1.688000000000000000e+03 7.062934875488281250e+01 -1.945051002502441406e+01 2.737673372030258179e-02 7.623157501220703125e+00 2.295160293579101562e+00 -2.217415422201156616e-01
1.689000000000000000e+03 1.903355598449707031e+01 -1.934674072265625000e+01 7.850901037454605103e-02 4.413431644439697266e+00 1.347582221031188965e+00 1.624658107757568359e+00
1.690000000000000000e+03 7.963789939880371094e+00 3.589342880249023438e+01 -1.513350009918212891e-01 1.827538251876831055e+00 5.028609633445739746e-01 -2.534522414207458496e-01
1.691000000000000000e+03 7.095593261718750000e+01 2.829893875122070312e+01 -6.257323920726776123e-02 7.984869480133056641e+00 2.376688957214355469e+00 2.167648077011108398e-01
1.692000000000000000e+03 1.913486862182617188e+01 -2.066325378417968750e+01 -5.721305683255195618e-02 4.489854812622070312e+00 1.329792499542236328e+00 1.481146454811096191e+00
1.693000000000000000e+03 2.660387229919433594e+01 8.196283340454101562e+00 4.334421753883361816e-01 8.139658927917480469e+00 2.571930408477783203e+00 -9.100562334060668945e-01
1.694000000000000000e+03 8.258416175842285156e+00 2.701707458496093750e+01 1.102841719985008240e-01 1.396031856536865234e+00 4.518948197364807129e-01 -5.277668833732604980e-01
1.695000000000000000e+03 8.964354515075683594e+00 2.568268966674804688e+01 1.601351052522659302e-01 1.414143443107604980e+00 4.722835421562194824e-01 -5.969431996345520020e-01
1.696000000000000000e+03 9.327484130859375000e+00 -3.216046142578125000e+01 -7.331722974777221680e-02 1.666430473327636719e+00 4.779339730739593506e-01 3.357681930065155029e-01
1.697000000000000000e+03 2.342432975769042969e+01 1.498084068298339844e+01 4.449592232704162598e-01 6.926422119140625000e+00 2.211414337158203125e+00 -7.576549649238586426e-01
1.698000000000000000e+03 2.301929092407226562e+01 1.761878013610839844e+01 1.312608122825622559e-01 6.582542419433593750e+00 2.014140844345092773e+00 -6.402524113655090332e-01
1.699000000000000000e+03 2.451040840148925781e+01 -2.522532224655151367e+00 -1.653717309236526489e-01 1.241541767120361328e+01 3.675013780593872070e+00 -9.556137323379516602e-01
1.700000000000000000e+03 2.394573783874511719e+01 -2.967800378799438477e+00 -2.005974352359771729e-01 1.282158088684082031e+01 3.786295175552368164e+00 -1.638029575347900391e+00
1.701000000000000000e+03 2.317527770996093750e+01 -3.208180427551269531e+00 -7.771583646535873413e-02 1.159757328033447266e+01 3.455957174301147461e+00 -2.753772258758544922e+00
1.702000000000000000e+03 2.110097694396972656e+01 -2.520274877548217773e+00 3.789854645729064941e-01 5.428822040557861328e+00 1.742342352867126465e+00 -2.574036359786987305e+00
1.703000000000000000e+03 2.094353675842285156e+01 -1.936150670051574707e+00 1.457838267087936401e-01 5.408911228179931641e+00 1.666408419609069824e+00 -2.393761396408081055e+00
1.704000000000000000e+03 2.194532394409179688e+01 -1.382141947746276855e+00 -1.377279460430145264e-01 7.689647674560546875e+00 2.265575885772705078e+00 -2.697164773941040039e+00
1.705000000000000000e+03 2.110737037658691406e+01 -9.366740226745605469e+00 2.795433521270751953e+00 4.689980030059814453e+00 2.245624065399169922e+00 3.759062290191650391e+00
1.706000000000000000e+03 2.273511123657226562e+01 -2.861236810684204102e+00 -6.328807026147842407e-02 9.933801651000976562e+00 2.961153984069824219e+00 -3.104312658309936523e+00
1.707000000000000000e+03 2.275526809692382812e+01 -1.097708225250244141e+01 8.946300148963928223e-01 9.063418388366699219e+00 2.987414598464965820e+00 3.154386520385742188e+00
1.708000000000000000e+03 1.962306404113769531e+01 -1.408310794830322266e+01 8.363232612609863281e-01 4.312084197998046875e+00 1.544522166252136230e+00 2.435635089874267578e+00
1.709000000000000000e+03 2.577085685729980469e+01 -2.864770650863647461e+00 9.650186896324157715e-01 1.258586597442626953e+01 4.065265178680419922e+00 5.713235139846801758e-01
1.710000000000000000e+03 2.089645576477050781e+01 -1.043644046783447266e+01 1.968897700309753418e+00 5.057511806488037109e+00 2.107922792434692383e+00 3.506709575653076172e+00
1.711000000000000000e+03 2.423979377746582031e+01 -1.420361328125000000e+01 -1.364840716123580933e-01 8.825417518615722656e+00 2.606679916381835938e+00 1.558538794517517090e+00
1.712000000000000000e+03 2.290115737915039062e+01 -1.014619922637939453e+01 1.168106794357299805e+00 1.005488872528076172e+01 3.366898775100708008e+00 3.468299388885498047e+00
1.713000000000000000e+03 2.256039047241210938e+01 -1.241774201393127441e+00 -3.467757403850555420e-01 8.925349235534667969e+00 2.573571920394897461e+00 -2.654162406921386719e+00
1.714000000000000000e+03 2.187579727172851562e+01 -6.953043937683105469e-01 -2.410090863704681396e-01 7.659710407257080078e+00 2.225610494613647461e+00 -2.588560342788696289e+00
1.715000000000000000e+03 2.448876571655273438e+01 -1.027877330780029297e+01 8.864118456840515137e-01 1.245668601989746094e+01 4.002929210662841797e+00 9.772351384162902832e-01
1.716000000000000000e+03 2.495397949218750000e+01 -1.086509704589843750e+01 7.941955327987670898e-01 1.171553897857666016e+01 3.752920150756835938e+00 7.679247260093688965e-01
1.717000000000000000e+03 1.982482719421386719e+01 -1.492057037353515625e+01 6.155554652214050293e-01 4.622913837432861328e+00 1.571540713310241699e+00 2.302167654037475586e+00
1.718000000000000000e+03 2.030958938598632812e+01 -1.100528621673583984e+01 1.677367806434631348e+00 4.248986721038818359e+00 1.777906417846679688e+00 3.026538133621215820e+00
1.719000000000000000e+03 2.078246116638183594e+01 -1.147841358184814453e+01 1.419438600540161133e+00 5.135222434997558594e+00 1.966398358345031738e+00 3.187951326370239258e+00
1.720000000000000000e+03 2.320715332031250000e+01 1.929562985897064209e-01 -4.403063356876373291e-01 9.239425659179687500e+00 2.639735698699951172e+00 -2.190365076065063477e+00
1.721000000000000000e+03 7.589080810546875000e+00 5.718467235565185547e+00 -2.087195403873920441e-03 3.865051548928022385e-03 5.333568551577627659e-04 7.590430905111134052e-04
1.722000000000000000e+03 9.002356529235839844e+00 6.759416580200195312e+00 1.966247800737619400e-03 -5.038274917751550674e-03 -9.216081234626471996e-04 -1.411423436366021633e-03
1.723000000000000000e+03 2.008702850341796875e+01 -1.305186462402343750e+01 9.931653141975402832e-01 4.611363887786865234e+00 1.681358695030212402e+00 2.702469587326049805e+00
1.724000000000000000e+03 2.038740921020507812e+01 -1.387977790832519531e+01 7.428677678108215332e-01 5.070053577423095703e+00 1.743876457214355469e+00 2.564564704895019531e+00
1.725000000000000000e+03 2.789723396301269531e+01 -2.832433223724365234e+00 1.932017922401428223e+00 1.098341369628906250e+01 3.874629497528076172e+00 1.092670679092407227e+00
1.726000000000000000e+03 3.012702178955078125e+01 -5.022379398345947266e+00 3.462244033813476562e+00 9.341349601745605469e+00 3.841078042984008789e+00 6.418693661689758301e-01
1.727000000000000000e+03 2.708832931518554688e+01 -1.068965148925781250e+01 1.678513288497924805e+00 1.092144966125488281e+01 3.779989004135131836e+00 -7.379247546195983887e-01
1.728000000000000000e+03 2.869359016418457031e+01 -9.734827041625976562e+00 2.801111936569213867e+00 1.003409004211425781e+01 3.850560665130615234e+00 -1.071894645690917969e+00
1.729000000000000000e+03 5.675396919250488281e+00 8.198111534118652344e+00 1.702802488580346107e-03 -2.803115639835596085e-03 -3.300939279142767191e-04 -1.800896483473479748e-03
1.730000000000000000e+03 6.526575088500976562e+00 7.751895904541015625e+00 7.244299049489200115e-04 -4.327000118792057037e-03 -1.080770976841449738e-03 3.484843065962195396e-03
1.731000000000000000e+03 2.295492744445800781e+01 9.256395101547241211e-01 -3.705186843872070312e-01 8.785126686096191406e+00 2.524382352828979492e+00 -2.207587242126464844e+00
1.732000000000000000e+03 2.331532859802246094e+01 2.194685220718383789e+00 -1.856560558080673218e-01 8.731732368469238281e+00 2.563822984695434570e+00 -1.996435165405273438e+00
1.733000000000000000e+03 7.017864227294921875e+01 -6.614995479583740234e+00 1.140607520937919617e-01 7.482185840606689453e+00 2.278873920440673828e+00 -4.380186647176742554e-02
1.734000000000000000e+03 7.152787017822265625e+01 -3.991997957229614258e+00 8.991423994302749634e-02 7.459084033966064453e+00 2.264699459075927734e+00 9.830710478127002716e-03
1.735000000000000000e+03 7.123703765869140625e+01 5.748855113983154297e+00 6.997393071651458740e-02 7.546053886413574219e+00 2.284808397293090820e+00 1.823235899209976196e-01
1.736000000000000000e+03 2.065949630737304688e+01 -1.476125621795654297e+01 4.827789962291717529e-01 5.396555423736572266e+00 1.763800382614135742e+00 2.392813920974731445e+00
1.737000000000000000e+03 6.988150024414062500e+01 -2.396512985229492188e+01 -1.169977895915508270e-02 7.704087257385253906e+00 2.307716131210327148e+00 -2.407867014408111572e-01
1.738000000000000000e+03 6.889855194091796875e+01 -2.816652870178222656e+01 -5.852998048067092896e-02 7.778001785278320312e+00 2.315841436386108398e+00 -2.335373759269714355e-01
1.739000000000000000e+03 7.010722351074218750e+01 -9.295154571533203125e+00 1.066108494997024536e-01 7.496786117553710938e+00 2.281018972396850586e+00 -9.772967547178268433e-02
1.740000000000000000e+03 6.997439575195312500e+01 -1.066814041137695312e+01 1.012245640158653259e-01 7.509932041168212891e+00 2.283346891403198242e+00 -1.248567178845405579e-01
1.741000000000000000e+03 7.018501281738281250e+01 -1.597372436523437500e+01 6.048304587602615356e-02 7.570422649383544922e+00 2.289271831512451172e+00 -1.991515755653381348e-01
1.742000000000000000e+03 6.960644531250000000e+01 -1.740275192260742188e+01 5.464064329862594604e-02 7.599294185638427734e+00 2.296180486679077148e+00 -2.239608615636825562e-01
1.743000000000000000e+03 6.990048217773437500e+01 1.566422879695892334e-01 1.162304431200027466e-01 7.500062942504882812e+00 2.284888029098510742e+00 9.930523484945297241e-02
1.744000000000000000e+03 7.129804229736328125e+01 2.905651807785034180e+00 8.099522441625595093e-02 7.506992340087890625e+00 2.276396274566650391e+00 1.366612762212753296e-01
1.745000000000000000e+03 6.946055603027343750e+01 1.310791778564453125e+01 4.048058390617370605e-02 7.687180995941162109e+00 2.318298578262329102e+00 2.914929389953613281e-01
1.746000000000000000e+03 6.940088653564453125e+01 1.157420063018798828e+01 5.287651345133781433e-02 7.659651756286621094e+00 2.313758373260498047e+00 2.807341217994689941e-01
1.747000000000000000e+03 6.936096954345703125e+01 1.896643447875976562e+01 -7.458161097019910812e-03 7.799686908721923828e+00 2.337668657302856445e+00 3.051140010356903076e-01
1.748000000000000000e+03 6.813887786865234375e+01 1.760121917724609375e+01 3.235201817005872726e-03 7.770713806152343750e+00 2.332184791564941406e+00 3.314084410667419434e-01
1.749000000000000000e+03 6.875610351562500000e+01 -5.226302146911621094e+00 1.483378708362579346e-01 7.496040344238281250e+00 2.293313503265380859e+00 -1.699711009860038757e-02
1.750000000000000000e+03 7.150995635986328125e+01 -8.063744544982910156e+00 8.509746938943862915e-02 7.468809127807617188e+00 2.266171932220458984e+00 -6.601588428020477295e-02
1.751000000000000000e+03 7.016587066650390625e+01 -7.944841384887695312e+00 1.103418320417404175e-01 7.487781524658203125e+00 2.279437065124511719e+00 -7.106076925992965698e-02
1.752000000000000000e+03 7.105490875244140625e+01 -1.382955741882324219e+01 6.547347456216812134e-02 7.531925201416015625e+00 2.279219627380371094e+00 -1.622932404279708862e-01
1.753000000000000000e+03 7.119738006591796875e+01 -1.229773139953613281e+01 7.346043735742568970e-02 7.510320186614990234e+00 2.275134086608886719e+00 -1.392000168561935425e-01
1.754000000000000000e+03 2.658992767333984375e+01 -1.138231754302978516e+01 1.066644191741943359e+00 1.092331981658935547e+01 3.596989154815673828e+00 -3.455520272254943848e-01
1.755000000000000000e+03 7.146374511718750000e+01 1.524089527130126953e+01 1.757574267685413361e-02 7.724078178405761719e+00 2.322496175765991211e+00 2.607291638851165771e-01
1.756000000000000000e+03 2.533089065551757812e+01 3.255856513977050781e+00 -4.602312296628952026e-02 9.240984916687011719e+00 2.758488655090332031e+00 -1.392047047615051270e+00
1.757000000000000000e+03 7.133563995361328125e+01 1.514488220214843750e+00 8.454692363739013672e-02 7.491868019104003906e+00 2.272924423217773438e+00 1.126511543989181519e-01
1.758000000000000000e+03 6.931126594543457031e+00 -2.417678642272949219e+01 1.669237315654754639e-01 6.308447718620300293e-01 2.393305599689483643e-01 2.188277244567871094e-01
1.759000000000000000e+03 6.707425689697265625e+01 -2.018171882629394531e+01 3.822550177574157715e-02 7.661684036254882812e+00 2.309972763061523438e+00 -2.824149131774902344e-01
1.760000000000000000e+03 7.112471771240234375e+01 8.599719047546386719e+00 5.546426773071289062e-02 7.594498634338378906e+00 2.294988870620727539e+00 2.197117656469345093e-01
1.761000000000000000e+03 9.396142005920410156e+00 3.049052429199218750e+01 -8.217558264732360840e-02 1.859665632247924805e+00 5.332470536231994629e-01 -5.244211554527282715e-01
1.762000000000000000e+03 9.558599472045898438e+00 2.763799476623535156e+01 3.668377548456192017e-02 1.799738049507141113e+00 5.509265661239624023e-01 -6.003215909004211426e-01
1.763000000000000000e+03 2.273714637756347656e+01 1.079087352752685547e+01 8.619735836982727051e-01 7.457265377044677734e+00 2.495771646499633789e+00 -1.261997938156127930e+00
1.764000000000000000e+03 2.394744110107421875e+01 1.097706794738769531e+01 7.321933507919311523e-01 7.480956554412841797e+00 2.463944911956787109e+00 -1.103410124778747559e+00
1.765000000000000000e+03 7.037074279785156250e+01 2.097462844848632812e+01 -1.880693994462490082e-02 7.841462135314941406e+00 2.346796512603759766e+00 2.821846902370452881e-01
1.766000000000000000e+03 6.910841369628906250e+01 2.123516845703125000e+01 -2.463038824498653412e-02 7.837733268737792969e+00 2.343930959701538086e+00 3.034978508949279785e-01
1.767000000000000000e+03 1.277162265777587891e+01 -2.601033592224121094e+01 1.826725527644157410e-02 2.301628828048706055e+00 6.959688067436218262e-01 7.663915157318115234e-01
1.768000000000000000e+03 2.422515678405761719e+01 1.234355449676513672e+01 6.205076575279235840e-01 7.324714660644531250e+00 2.383566617965698242e+00 -9.090632796287536621e-01
1.769000000000000000e+03 1.182879066467285156e+01 -2.715673446655273438e+01 2.584050782024860382e-02 2.128767013549804688e+00 6.463822722434997559e-01 6.702318191528320312e-01
1.770000000000000000e+03 6.970825958251953125e+01 -2.235619735717773438e+01 2.418284770101308823e-03 7.682057857513427734e+00 2.305342674255371094e+00 -2.463552504777908325e-01
1.771000000000000000e+03 7.007448577880859375e+01 2.210327529907226562e+01 -2.818164601922035217e-02 7.863791465759277344e+00 2.350682973861694336e+00 2.825735807418823242e-01
1.772000000000000000e+03 6.931007385253906250e+01 2.327654838562011719e+01 -4.080286994576454163e-02 7.877850532531738281e+00 2.351114273071289062e+00 2.882959842681884766e-01
1.773000000000000000e+03 1.931060028076171875e+01 -2.346266555786132812e+01 -2.595610022544860840e-01 4.536585807800292969e+00 1.283107399940490723e+00 1.251745223999023438e+00
1.774000000000000000e+03 7.082279205322265625e+01 2.398290061950683594e+01 -3.463589772582054138e-02 7.904011249542236328e+00 2.360812664031982422e+00 2.578194141387939453e-01
1.775000000000000000e+03 7.011617279052734375e+01 2.556117248535156250e+01 -5.151541531085968018e-02 7.926164150238037109e+00 2.362394571304321289e+00 2.569694817066192627e-01
1.776000000000000000e+03 2.763843917846679688e+01 7.707393169403076172e+00 3.650862872600555420e-01 8.300774574279785156e+00 2.599758386611938477e+00 -7.330682277679443359e-01
1.777000000000000000e+03 2.568922233581542969e+01 9.839706420898437500e+00 5.501268506050109863e-01 7.794754981994628906e+00 2.503464698791503906e+00 -9.734005928039550781e-01
1.778000000000000000e+03 1.867650604248046875e+01 1.852475738525390625e+01 2.807774543762207031e-01 5.554588317871093750e+00 1.750609755516052246e+00 -1.215580582618713379e+00
1.779000000000000000e+03 6.894100952148437500e+01 -1.524544048309326172e+01 8.236111700534820557e-02 7.573398590087890625e+00 2.296727895736694336e+00 -2.080896794795989990e-01
1.780000000000000000e+03 6.816658020019531250e+01 -3.120247268676757812e+01 -9.410383552312850952e-02 7.822283744812011719e+00 2.318454027175903320e+00 -2.043774425983428955e-01
1.781000000000000000e+03 7.054524230957031250e+01 -2.756439018249511719e+01 -3.677670657634735107e-02 7.759473323822021484e+00 2.316808938980102539e+00 -2.105493545532226562e-01
1.782000000000000000e+03 6.840808868408203125e+01 -2.620071029663085938e+01 -4.153046384453773499e-02 7.749689102172851562e+00 2.312447547912597656e+00 -2.559421658515930176e-01
1.783000000000000000e+03 6.976766967773437500e+01 -1.209087371826171875e+01 9.581381827592849731e-02 7.525667190551757812e+00 2.286444425582885742e+00 -1.498566120862960815e-01
1.784000000000000000e+03 6.986231994628906250e+01 1.448023319244384766e+01 2.676058188080787659e-02 7.714498043060302734e+00 2.322377681732177734e+00 2.907174825668334961e-01
1.785000000000000000e+03 1.618633651733398438e+01 2.552542114257812500e+01 -2.999066114425659180e-01 4.082047462463378906e+00 1.134642243385314941e+00 -9.810499548912048340e-01
1.786000000000000000e+03 1.292219066619873047e+01 2.714572715759277344e+01 -1.126627027988433838e-01 2.830737829208374023e+00 8.154225349426269531e-01 -8.290037512779235840e-01
1.787000000000000000e+03 6.975041961669921875e+01 -3.335548782348632812e+01 -7.986421883106231689e-02 7.839822769165039062e+00 2.327987670898437500e+00 -1.572971493005752563e-01
1.788000000000000000e+03 7.192425537109375000e+01 -3.494253540039062500e+01 -6.353421509265899658e-02 7.857979774475097656e+00 2.338333606719970703e+00 -1.180011406540870667e-01
1.789000000000000000e+03 1.097513103485107422e+01 2.516548728942871094e+01 1.322130560874938965e-01 1.985733985900878906e+00 6.353840827941894531e-01 -8.142539262771606445e-01
1.790000000000000000e+03 6.835409545898437500e+01 2.472348976135253906e+01 -5.965129286050796509e-02 7.892179012298583984e+00 2.349758386611938477e+00 2.946754097938537598e-01
1.791000000000000000e+03 2.064964103698730469e+01 -2.047884178161621094e+01 -2.130440175533294678e-01 5.267148017883300781e+00 1.516231298446655273e+00 1.480061888694763184e+00
1.792000000000000000e+03 2.151877403259277344e+01 -1.884259414672851562e+01 -2.036140859127044678e-01 5.834207057952880859e+00 1.689177870750427246e+00 1.638573050498962402e+00
1.793000000000000000e+03 2.778550529479980469e+01 4.037336349487304688e+00 1.791650801897048950e-01 9.224740982055664062e+00 2.821171760559082031e+00 -6.509881019592285156e-01
1.794000000000000000e+03 2.698162078857421875e+01 6.161805152893066406e+00 2.995495200157165527e-01 8.584303855895996094e+00 2.665155887603759766e+00 -9.374687075614929199e-01
1.795000000000000000e+03 2.348424530029296875e+01 -2.718110561370849609e+00 -2.747074961662292480e-01 1.164484024047851562e+01 3.411039590835571289e+00 -2.274289846420288086e+00
1.796000000000000000e+03 2.224336433410644531e+01 -1.130130195617675781e+01 9.399222731590270996e-01 7.956445217132568359e+00 2.668910264968872070e+00 3.237682104110717773e+00
1.797000000000000000e+03 2.360925292968750000e+01 -1.114127349853515625e+01 5.644668340682983398e-01 1.038907337188720703e+01 3.286062002182006836e+00 2.344596862792968750e+00
1.798000000000000000e+03 2.140284729003906250e+01 -9.856098175048828125e+00 2.268824338912963867e+00 5.836448192596435547e+00 2.431581735610961914e+00 3.899214506149291992e+00
1.799000000000000000e+03 2.411742210388183594e+01 -2.473248720169067383e+00 -2.987949550151824951e-01 1.228997230529785156e+01 3.597353219985961914e+00 -1.405998706817626953e+00
1.800000000000000000e+03 2.494208335876464844e+01 -2.461322307586669922e+00 -1.909208856523036957e-02 1.267321968078613281e+01 3.796238422393798828e+00 -5.099393725395202637e-01
1.801000000000000000e+03 2.374032592773437500e+01 -2.238541126251220703e+00 -3.968675136566162109e-01 1.159195327758789062e+01 3.358525753021240234e+00 -1.927648067474365234e+00
1.802000000000000000e+03 2.164165115356445312e+01 -2.266592741012573242e+00 1.910155713558197021e-01 6.913671493530273438e+00 2.131406068801879883e+00 -2.808486938476562500e+00
1.803000000000000000e+03 2.059503364562988281e+01 -1.210060882568359375e+01 1.242446422576904297e+00 5.002577304840087891e+00 1.873507142066955566e+00 3.012637138366699219e+00
1.804000000000000000e+03 2.246565628051757812e+01 -1.045784759521484375e+01 1.260272264480590820e+00 8.934013366699218750e+00 3.058285713195800781e+00 3.548986673355102539e+00
1.805000000000000000e+03 2.133940124511718750e+01 -1.100018405914306641e+01 1.515970706939697266e+00 6.149238586425781250e+00 2.299562931060791016e+00 3.483831882476806641e+00
1.806000000000000000e+03 2.663760185241699219e+01 -2.258241653442382812e+00 1.004817843437194824e+00 1.170619010925292969e+01 3.813302278518676758e+00 6.837212443351745605e-01
1.807000000000000000e+03 2.609132766723632812e+01 -2.140803575515747070e+00 5.738686919212341309e-01 1.193238925933837891e+01 3.751877307891845703e+00 3.025932013988494873e-01
1.808000000000000000e+03 2.118508529663085938e+01 -1.195878028869628906e+01 1.110293626785278320e+00 6.098614692687988281e+00 2.162672519683837891e+00 3.177223920822143555e+00
1.809000000000000000e+03 2.412701606750488281e+01 -1.279145050048828125e+01 6.780938804149627686e-02 9.576622009277343750e+00 2.893329381942749023e+00 1.677026152610778809e+00
1.810000000000000000e+03 1.895281791687011719e+01 -1.810717582702636719e+01 2.395377606153488159e-01 4.295353889465332031e+00 1.360467553138732910e+00 1.763053894042968750e+00
1.811000000000000000e+03 1.997360610961914062e+01 -1.685227012634277344e+01 2.757638990879058838e-01 4.902912139892578125e+00 1.553602814674377441e+00 2.011193037033081055e+00
1.812000000000000000e+03 2.975358200073242188e+01 -2.283562421798706055e+00 2.001952171325683594e+00 9.915460586547851562e+00 3.575223684310913086e+00 9.529598951339721680e-01
1.813000000000000000e+03 2.548211097717285156e+01 -1.145011329650878906e+01 6.441473960876464844e-01 1.114695453643798828e+01 3.537330627441406250e+00 4.274215400218963623e-01
1.814000000000000000e+03 2.737620353698730469e+01 -1.210799884796142578e+01 8.654108047485351562e-01 1.031045913696289062e+01 3.352760791778564453e+00 -4.836610257625579834e-01
1.815000000000000000e+03 2.943994903564453125e+01 -5.955392837524414062e+00 3.930399656295776367e+00 9.449841499328613281e+00 4.014072418212890625e+00 4.029014408588409424e-01
1.816000000000000000e+03 3.089529800415039062e+01 -2.763447523117065430e+00 2.246527910232543945e+00 9.378824234008789062e+00 3.487605571746826172e+00 8.258544206619262695e-01
1.817000000000000000e+03 3.009669685363769531e+01 -7.620110034942626953e+00 3.633616209030151367e+00 9.179954528808593750e+00 3.844071388244628906e+00 -4.191096127033233643e-01
1.818000000000000000e+03 2.011257171630859375e+01 -1.796321105957031250e+01 9.693160653114318848e-02 5.008249759674072266e+00 1.531554341316223145e+00 1.834382653236389160e+00
1.819000000000000000e+03 2.588592147827148438e+01 -1.087404346466064453e+01 1.137388467788696289e+00 1.149523830413818359e+01 3.789788007736206055e+00 -7.793277502059936523e-02
1.820000000000000000e+03 6.749017333984375000e+01 -8.899267196655273438e+00 1.609541773796081543e-01 7.522305488586425781e+00 2.304977893829345703e+00 -1.095313206315040588e-01
1.821000000000000000e+03 6.835828399658203125e+01 -1.173694705963134766e+01 1.223927512764930725e-01 7.537314891815185547e+00 2.297912359237670898e+00 -1.582689881324768066e-01
1.822000000000000000e+03 6.782152557373046875e+01 1.371817970275878906e+01 4.423707723617553711e-02 7.701848506927490234e+00 2.323825597763061523e+00 3.246321380138397217e-01
1.823000000000000000e+03 6.795865631103515625e+01 1.139216423034667969e+01 6.586941331624984741e-02 7.663035392761230469e+00 2.318671464920043945e+00 3.037275373935699463e-01
1.824000000000000000e+03 2.871257209777832031e+01 -8.645640373229980469e+00 3.680602073669433594e+00 9.839591026306152344e+00 4.056057929992675781e+00 -8.747559189796447754e-01
1.825000000000000000e+03 6.824319458007812500e+01 -1.682004356384277344e+01 7.351259887218475342e-02 7.602903366088867188e+00 2.302924633026123047e+00 -2.384525686502456665e-01
1.826000000000000000e+03 6.859172058105468750e+01 -2.057116127014160156e+01 2.688967064023017883e-02 7.656109809875488281e+00 2.304899930953979492e+00 -2.602812051773071289e-01
1.827000000000000000e+03 2.494952011108398438e+01 4.195099830627441406e+00 9.774392098188400269e-02 8.854777336120605469e+00 2.685756206512451172e+00 -1.493078947067260742e+00
1.828000000000000000e+03 6.489637756347656250e+01 -2.165532684326171875e+01 2.225361950695514679e-02 7.699290275573730469e+00 2.316462993621826172e+00 -3.217946887016296387e-01
1.829000000000000000e+03 6.820283508300781250e+01 2.001318168640136719e+01 -1.736832037568092346e-02 7.810504436492919922e+00 2.337940931320190430e+00 3.251978158950805664e-01
1.830000000000000000e+03 7.042227172851562500e+01 1.560361289978027344e+01 1.803511753678321838e-02 7.732952594757080078e+00 2.325296401977539062e+00 2.833150625228881836e-01
1.831000000000000000e+03 7.017079925537109375e+01 -5.286352157592773438e+00 1.158277317881584167e-01 7.479291915893554688e+00 2.278535842895507812e+00 -1.641090959310531616e-02
1.832000000000000000e+03 1.269584560394287109e+01 2.975073051452636719e+01 -2.218405306339263916e-01 2.931736946105957031e+00 8.129689693450927734e-01 -6.416743993759155273e-01
1.833000000000000000e+03 1.045165252685546875e+01 2.864197921752929688e+01 -1.377432234585285187e-02 2.097173929214477539e+00 6.250199079513549805e-01 -6.338383555412292480e-01
1.834000000000000000e+03 1.284225177764892578e+01 -2.434486961364746094e+01 8.271855115890502930e-02 2.196557044982910156e+00 6.837826967239379883e-01 8.323231935501098633e-01
1.835000000000000000e+03 1.493682479858398438e+01 -2.875422096252441406e+01 -1.980583071708679199e-01 3.116295099258422852e+00 8.754709959030151367e-01 7.766428589820861816e-01
1.836000000000000000e+03 3.166430473327636719e+01 7.680737972259521484e+00 3.625286519527435303e-01 8.391518592834472656e+00 2.626214265823364258e+00 -6.991203874349594116e-02
1.837000000000000000e+03 7.098575592041015625e+01 -2.191851043701171875e+01 5.970288999378681183e-03 7.661702156066894531e+00 2.300301790237426758e+00 -2.219546735286712646e-01
1.838000000000000000e+03 6.910099029541015625e+01 -1.895472717285156250e+01 4.161105677485466003e-02 7.627638339996337891e+00 2.300774812698364258e+00 -2.446799576282501221e-01
1.839000000000000000e+03 2.490267372131347656e+01 1.061767292022705078e+01 6.281915903091430664e-01 7.594624996185302734e+00 2.466845035552978516e+00 -1.004641532897949219e+00
1.840000000000000000e+03 2.616368675231933594e+01 4.680834293365478516e+00 1.521651744842529297e-01 8.945717811584472656e+00 2.729364871978759766e+00 -1.158579826354980469e+00
1.841000000000000000e+03 1.426276874542236328e+01 2.513722038269042969e+01 -1.365575343370437622e-01 3.374430418014526367e+00 9.713618755340576172e-01 -9.811705350875854492e-01
1.842000000000000000e+03 7.138735961914062500e+01 1.309575736522674561e-01 8.733054995536804199e-02 7.479166984558105469e+00 2.269949197769165039e+00 8.781030029058456421e-02
1.843000000000000000e+03 2.649415206909179688e+01 3.687254667282104492e+00 6.681632250547409058e-02 9.254830360412597656e+00 2.796493768692016602e+00 -1.014362692832946777e+00
1.844000000000000000e+03 2.100198173522949219e+01 -2.200330352783203125e+01 -3.599628806114196777e-01 5.346344470977783203e+00 1.495914459228515625e+00 1.287175416946411133e+00
1.845000000000000000e+03 2.323918533325195312e+01 -1.929680252075195312e+01 -4.270083308219909668e-01 6.585837841033935547e+00 1.847648859024047852e+00 1.343395471572875977e+00
1.846000000000000000e+03 6.917247009277343750e+01 2.742061996459960938e+01 -7.143794000148773193e-02 7.943373680114746094e+00 2.361580848693847656e+00 2.538374662399291992e-01
1.847000000000000000e+03 1.037317752838134766e+01 2.652691268920898438e+01 7.868728041648864746e-02 1.907579898834228516e+00 5.958801507949829102e-01 -7.330420613288879395e-01
1.848000000000000000e+03 1.752189254760742188e+01 -2.212918090820312500e+01 -3.914056345820426941e-02 3.785933732986450195e+00 1.124037981033325195e+00 1.323879718780517578e+00
1.849000000000000000e+03 1.034810352325439453e+01 3.496273040771484375e+01 -2.349610924720764160e-01 2.315403223037719727e+00 6.241326332092285156e-01 -3.943894207477569580e-01
1.850000000000000000e+03 6.718112182617187500e+01 -2.893403434753417969e+01 -8.753857761621475220e-02 7.797131061553955078e+00 2.312877893447875977e+00 -2.487050294876098633e-01
1.851000000000000000e+03 6.993434143066406250e+01 3.235159683227539062e+01 -9.198257327079772949e-02 8.023034095764160156e+00 2.379315376281738281e+00 1.730778068304061890e-01
1.852000000000000000e+03 2.506258392333984375e+01 1.396588802337646484e+01 4.334137439727783203e-01 7.191058635711669922e+00 2.287341833114624023e+00 -6.730802655220031738e-01
1.853000000000000000e+03 2.632288551330566406e+01 1.566169166564941406e+01 1.852933615446090698e-01 7.145781993865966797e+00 2.199322700500488281e+00 -4.170450568199157715e-01
1.854000000000000000e+03 8.450683593750000000e+00 3.838517379760742188e+01 -1.911617666482925415e-01 1.927187323570251465e+00 5.208076834678649902e-01 -1.538021862506866455e-01
1.855000000000000000e+03 2.309175872802734375e+01 -2.432757854461669922e+00 -2.658543884754180908e-01 1.064374542236328125e+01 3.113367319107055664e+00 -2.659987211227416992e+00
1.856000000000000000e+03 2.362922859191894531e+01 -1.449870228767395020e+00 -5.096471905708312988e-01 1.072670841217041016e+01 3.065118312835693359e+00 -2.052760362625122070e+00
1.857000000000000000e+03 2.082269668579101562e+01 -1.285759162902832031e+01 8.881072998046875000e-01 5.489556312561035156e+00 1.913299083709716797e+00 2.868471622467041016e+00
1.858000000000000000e+03 2.400477600097656250e+01 -1.056335091590881348e+00 -5.161622166633605957e-01 1.070236206054687500e+01 3.055860042572021484e+00 -1.776955366134643555e+00
1.859000000000000000e+03 2.254563713073730469e+01 -4.649914801120758057e-03 -3.950584530830383301e-01 8.599382400512695312e+00 2.461297273635864258e+00 -2.432608842849731445e+00
1.860000000000000000e+03 2.404357147216796875e+01 -1.171979427337646484e+01 2.834619283676147461e-01 1.043369102478027344e+01 3.215145826339721680e+00 1.807900547981262207e+00
1.861000000000000000e+03 2.500665092468261719e+01 -1.192066669464111328e+01 3.178807497024536133e-01 1.071928691864013672e+01 3.311150074005126953e+00 9.967856407165527344e-01
1.862000000000000000e+03 2.435259246826171875e+01 -2.110298156738281250e+00 -3.082169592380523682e-01 1.194144821166992188e+01 3.489969491958618164e+00 -1.233125925064086914e+00
1.863000000000000000e+03 2.557988929748535156e+01 -1.907087445259094238e+00 1.262898892164230347e-01 1.211437797546386719e+01 3.672200441360473633e+00 -1.269635558128356934e-01
1.864000000000000000e+03 2.472732353210449219e+01 1.829472780227661133e+00 -2.740799486637115479e-01 9.566086769104003906e+00 2.787601947784423828e+00 -1.557552218437194824e+00
1.865000000000000000e+03 2.380691337585449219e+01 1.317650437355041504e+00 -3.501859903335571289e-01 9.325374603271484375e+00 2.692556619644165039e+00 -1.883823275566101074e+00
1.866000000000000000e+03 2.150276756286621094e+01 -1.453661727905273438e+01 3.417623043060302734e-01 6.268643856048583984e+00 1.983121752738952637e+00 2.388770818710327148e+00
1.867000000000000000e+03 2.171143531799316406e+01 -1.162936782836914062e+01 1.027789831161499023e+00 6.937019824981689453e+00 2.389442920684814453e+00 3.238157272338867188e+00
1.868000000000000000e+03 2.356909179687500000e+01 -1.217170619964599609e+01 3.054090440273284912e-01 9.388227462768554688e+00 2.908090829849243164e+00 2.170109272003173828e+00
1.869000000000000000e+03 2.114678192138671875e+01 -1.365527915954589844e+01 5.950057506561279297e-01 5.940778732299804688e+00 1.960735321044921875e+00 2.660735368728637695e+00
1.870000000000000000e+03 2.033530235290527344e+01 -1.916938591003417969e+01 -5.917057767510414124e-02 5.141244888305664062e+00 1.524622321128845215e+00 1.653758049011230469e+00
1.871000000000000000e+03 2.901081275939941406e+01 -3.143945217132568359e+00 2.416415214538574219e+00 1.026211547851562500e+01 3.803559303283691406e+00 1.132379412651062012e+00
1.872000000000000000e+03 2.844836807250976562e+01 -2.481990098953247070e+00 1.782378911972045898e+00 1.060707664489746094e+01 3.716836690902709961e+00 9.955437183380126953e-01
1.873000000000000000e+03 2.451337432861328125e+01 -1.129170322418212891e+01 4.681573510169982910e-01 1.118472862243652344e+01 3.495865821838378906e+00 1.276574134826660156e+00
1.874000000000000000e+03 2.262072944641113281e+01 -1.193899822235107422e+01 6.068707704544067383e-01 8.314511299133300781e+00 2.676414728164672852e+00 2.853904962539672852e+00
1.875000000000000000e+03 2.889024925231933594e+01 -1.753421664237976074e+00 1.468697905540466309e+00 1.041537952423095703e+01 3.565223217010498047e+00 8.612796068191528320e-01
1.876000000000000000e+03 3.070715904235839844e+01 -6.712629795074462891e+00 3.470001459121704102e+00 8.952133178710937500e+00 3.726640462875366211e+00 -5.015391111373901367e-02
1.877000000000000000e+03 2.837488365173339844e+01 -1.061569595336914062e+01 2.086660861968994141e+00 1.020425319671630859e+01 3.687274217605590820e+00 -1.008108377456665039e+00
1.878000000000000000e+03 2.995482444763183594e+01 -8.862363815307617188e+00 3.219835281372070312e+00 9.309644699096679688e+00 3.758844137191772461e+00 -7.670343518257141113e-01
1.879000000000000000e+03 2.745129203796386719e+01 5.155217170715332031e+00 2.349491119384765625e-01 8.899777412414550781e+00 2.740417957305908203e+00 -7.797966599464416504e-01
1.880000000000000000e+03 6.800047302246093750e+01 -1.315836238861083984e+01 1.180075034499168396e-01 7.556141853332519531e+00 2.302244901657104492e+00 -1.889919191598892212e-01
1.881000000000000000e+03 6.877310180664062500e+01 -9.107066154479980469e+00 1.334794610738754272e-01 7.511883258819580078e+00 2.293608903884887695e+00 -1.050388887524604797e-01
1.882000000000000000e+03 2.672261810302734375e+01 2.692887306213378906e+00 1.306778844445943832e-02 9.593878746032714844e+00 2.882083892822265625e+00 -8.619538545608520508e-01
1.883000000000000000e+03 6.822648620605468750e+01 3.047669410705566406e+00 1.396635174751281738e-01 7.541306972503662109e+00 2.304291248321533203e+00 1.724662780761718750e-01
1.884000000000000000e+03 6.980452728271484375e+01 2.939770460128784180e+00 1.077319458127021790e-01 7.524775028228759766e+00 2.289752006530761719e+00 1.530801206827163696e-01
1.885000000000000000e+03 2.680239105224609375e+01 1.297256278991699219e+01 3.542265892028808594e-01 7.467703819274902344e+00 2.346579074859619141e+00 -5.268464684486389160e-01
1.886000000000000000e+03 6.712677764892578125e+01 1.244497585296630859e+01 6.346601992845535278e-02 7.680012702941894531e+00 2.323043584823608398e+00 3.273436129093170166e-01
1.887000000000000000e+03 2.789615631103515625e+01 -1.136368560791015625e+01 1.365497231483459473e+00 1.033495616912841797e+01 3.510136127471923828e+00 -7.632364630699157715e-01
1.888000000000000000e+03 6.763707733154296875e+01 -1.844425392150878906e+01 6.023062765598297119e-02 7.630793094635009766e+00 2.307307004928588867e+00 -2.624240815639495850e-01
1.889000000000000000e+03 6.823351287841796875e+01 -2.230937004089355469e+01 2.944602398201823235e-03 7.689746856689453125e+00 2.307807445526123047e+00 -2.705018818378448486e-01
1.890000000000000000e+03 9.776514053344726562e+00 -2.368789291381835938e+01 2.038867324590682983e-01 1.183267235755920410e+00 4.161461889743804932e-01 5.584039688110351562e-01
1.891000000000000000e+03 2.273321533203125000e+01 -2.149633407592773438e+01 -4.825122356414794922e-01 6.063860893249511719e+00 1.674404621124267578e+00 1.190988898277282715e+00
1.892000000000000000e+03 2.120050811767578125e+01 -1.774451446533203125e+01 -3.120523691177368164e-02 5.715196609497070312e+00 1.705197334289550781e+00 1.834655284881591797e+00
1.893000000000000000e+03 6.801081848144531250e+01 2.228368949890136719e+01 -3.977807611227035522e-02 7.847878932952880859e+00 2.342430353164672852e+00 3.192457258701324463e-01
1.894000000000000000e+03 1.133047676086425781e+01 -2.557444381713867188e+01 7.978873699903488159e-02 1.760047793388366699e+00 5.519509315490722656e-01 6.550837159156799316e-01
1.895000000000000000e+03 1.957918357849121094e+01 2.508389282226562500e+01 -4.723072648048400879e-01 5.097430706024169922e+00 1.387537002563476562e+00 -7.436144948005676270e-01
1.896000000000000000e+03 2.041892623901367188e+01 2.273852920532226562e+01 -3.580241501331329346e-01 5.577283859252929688e+00 1.565778017044067383e+00 -7.615623474121093750e-01
1.897000000000000000e+03 1.404389286041259766e+01 2.874891471862792969e+01 -2.780940234661102295e-01 3.274255514144897461e+00 8.988484144210815430e-01 -7.139219045639038086e-01
1.898000000000000000e+03 1.689780807495117188e+01 2.401485252380371094e+01 -2.668102085590362549e-01 4.418581485748291016e+00 1.245531439781188965e+00 -1.007852315902709961e+00
1.899000000000000000e+03 9.540699958801269531e+00 2.434564208984375000e+01 2.441049367189407349e-01 1.427109360694885254e+00 5.013642907142639160e-01 -7.125100493431091309e-01
1.900000000000000000e+03 6.586809539794921875e+01 2.852591514587402344e+01 -1.223597228527069092e-01 7.917971611022949219e+00 2.338683605194091797e+00 2.839828133583068848e-01
1.901000000000000000e+03 2.504490852355957031e+01 -1.847747206687927246e+00 -1.708533912897109985e-01 1.199131679534912109e+01 3.546139001846313477e+00 -6.896374821662902832e-01
1.902000000000000000e+03 2.496341896057128906e+01 -5.254321098327636719e-01 -3.644941747188568115e-01 1.086249160766601562e+01 3.149399280548095703e+00 -1.145500779151916504e+00
1.903000000000000000e+03 2.299861526489257812e+01 -1.768528580665588379e+00 -4.142530858516693115e-01 1.006018066406250000e+01 2.893778324127197266e+00 -2.572314739227294922e+00
1.904000000000000000e+03 2.277035331726074219e+01 -2.146185159683227539e+00 -2.597517371177673340e-01 9.644281387329101562e+00 2.815358877182006836e+00 -2.786951065063476562e+00
1.905000000000000000e+03 2.460548019409179688e+01 -1.737345695495605469e+00 -2.852503359317779541e-01 1.176415538787841797e+01 3.443671703338623047e+00 -1.080928564071655273e+00
1.906000000000000000e+03 2.403700065612792969e+01 3.579024076461791992e-01 -4.740222990512847900e-01 9.878510475158691406e+00 2.821346521377563477e+00 -1.800593852996826172e+00
1.907000000000000000e+03 2.527944183349609375e+01 1.133897542953491211e+00 -3.069418370723724365e-01 1.003928184509277344e+01 2.919702053070068359e+00 -1.286167621612548828e+00
1.908000000000000000e+03 2.208905982971191406e+01 -1.653591346740722656e+01 -5.664851516485214233e-02 6.393002033233642578e+00 1.900905966758728027e+00 1.931110024452209473e+00
1.909000000000000000e+03 2.086584472656250000e+01 -1.571565246582031250e+01 2.724176645278930664e-01 5.565555095672607422e+00 1.751391887664794922e+00 2.204285621643066406e+00
1.910000000000000000e+03 2.185640525817871094e+01 -1.337565898895263672e+01 4.576981067657470703e-01 6.834997653961181641e+00 2.187808752059936523e+00 2.650424718856811523e+00
1.911000000000000000e+03 2.148558235168457031e+01 -1.261892795562744141e+01 7.865889072418212891e-01 6.475989818572998047e+00 2.178773641586303711e+00 2.938439369201660156e+00
1.912000000000000000e+03 2.207955360412597656e+01 -1.229783630371093750e+01 6.872920393943786621e-01 7.413019657135009766e+00 2.430093526840209961e+00 2.919582605361938477e+00
1.913000000000000000e+03 2.654612159729003906e+01 -1.536105990409851074e+00 4.452369213104248047e-01 1.141905784606933594e+01 3.559288501739501953e+00 2.154662907123565674e-01
1.914000000000000000e+03 2.727280044555664062e+01 -2.169901609420776367e+00 1.197736859321594238e+00 1.129841518402099609e+01 3.748845577239990234e+00 7.729290127754211426e-01
1.915000000000000000e+03 2.229576110839843750e+01 -1.423549842834472656e+01 1.916722059249877930e-01 7.121354579925537109e+00 2.193907976150512695e+00 2.322306156158447266e+00
1.916000000000000000e+03 2.307023429870605469e+01 -1.262100601196289062e+01 3.009305000305175781e-01 8.605302810668945312e+00 2.671869993209838867e+00 2.425884723663330078e+00
1.917000000000000000e+03 3.370315170288085938e+01 -4.803318500518798828e+00 2.513462305068969727e+00 8.431639671325683594e+00 3.283530473709106445e+00 2.930688858032226562e-01
1.918000000000000000e+03 3.059097671508789062e+01 -4.006643295288085938e+00 2.812647581100463867e+00 9.344350814819335938e+00 3.647099494934082031e+00 7.872918844223022461e-01
1.919000000000000000e+03 2.324745368957519531e+01 -5.478106141090393066e-01 -4.644955992698669434e-01 9.649485588073730469e+00 2.755496978759765625e+00 -2.225352287292480469e+00
1.920000000000000000e+03 3.134357261657714844e+01 -7.787971496582031250e+00 3.124583244323730469e+00 8.796655654907226562e+00 3.576371669769287109e+00 -4.173443019390106201e-01
1.921000000000000000e+03 2.365790557861328125e+01 -1.335557270050048828e+01 4.346812516450881958e-02 8.800930023193359375e+00 2.653319358825683594e+00 1.879925131797790527e+00
1.922000000000000000e+03 2.608448600769042969e+01 -1.355013751983642578e+01 7.431880384683609009e-02 9.719544410705566406e+00 2.938158988952636719e+00 5.137080550193786621e-01
1.923000000000000000e+03 2.678207015991210938e+01 -1.284939002990722656e+01 4.456002414226531982e-01 1.014175224304199219e+01 3.176205635070800781e+00 -4.906781017780303955e-02
1.924000000000000000e+03 2.608918762207031250e+01 -1.209145736694335938e+01 5.094672441482543945e-01 1.055043506622314453e+01 3.317970514297485352e+00 2.010592818260192871e-01
1.925000000000000000e+03 2.758840370178222656e+01 -1.361951541900634766e+01 3.459613919258117676e-01 9.753780364990234375e+00 3.029922723770141602e+00 -1.821347922086715698e-01
1.926000000000000000e+03 2.204467773437500000e+01 -2.004601478576660156e+01 -3.368053138256072998e-01 5.963700771331787109e+00 1.688068628311157227e+00 1.415427446365356445e+00
1.927000000000000000e+03 2.184497070312500000e+01 -1.551420116424560547e+01 1.134873330593109131e-01 6.393649101257324219e+00 1.952140927314758301e+00 2.124688863754272461e+00
1.928000000000000000e+03 6.860771179199218750e+01 -2.570352315902709961e+00 1.507238298654556274e-01 7.500054836273193359e+00 2.295233488082885742e+00 4.634535312652587891e-02
1.929000000000000000e+03 6.981921386718750000e+01 1.547862648963928223e+00 1.117690354585647583e-01 7.512024402618408203e+00 2.287137985229492188e+00 1.272371560335159302e-01
1.930000000000000000e+03 2.983910942077636719e+01 -1.026892948150634766e+01 2.381270647048950195e+00 9.480752944946289062e+00 3.558607101440429688e+00 -1.040350198745727539e+00
1.931000000000000000e+03 3.074497604370117188e+01 1.123323321342468262e+00 8.662482500076293945e-01 9.414942741394042969e+00 3.084357500076293945e+00 4.197522103786468506e-01
1.932000000000000000e+03 2.427021408081054688e+01 -2.038172149658203125e+01 -5.726467370986938477e-01 6.946783065795898438e+00 1.912240862846374512e+00 1.048282146453857422e+00
1.933000000000000000e+03 3.143680000305175781e+01 5.303997516632080078e+00 4.453724622726440430e-01 8.735398292541503906e+00 2.754231214523315430e+00 2.107040397822856903e-02
1.934000000000000000e+03 3.043259811401367188e+01 6.418217182159423828e+00 3.496930301189422607e-01 8.614032745361328125e+00 2.689117670059204102e+00 -2.215836495161056519e-01
1.935000000000000000e+03 6.815480804443359375e+01 1.604745149612426758e+00 1.472972631454467773e-01 7.528759956359863281e+00 2.302817106246948242e+00 1.430157124996185303e-01
1.936000000000000000e+03 6.690740966796875000e+01 2.109178161621093750e+01 -3.594188019633293152e-02 7.824997425079345703e+00 2.336716651916503906e+00 3.449103534221649170e-01
1.937000000000000000e+03 6.727384185791015625e+01 -6.511366844177246094e+00 1.807728856801986694e-01 7.512427806854248047e+00 2.307960271835327148e+00 -5.151043459773063660e-02
1.938000000000000000e+03 6.999079895019531250e+01 -1.221611738204956055e+00 1.178333908319473267e-01 7.490245342254638672e+00 2.282423496246337891e+00 7.019580900669097900e-02
1.939000000000000000e+03 6.695397949218750000e+01 -1.129439926147460938e+01 1.559904664754867554e-01 7.543807029724121094e+00 2.309939146041870117e+00 -1.620382964611053467e-01
1.940000000000000000e+03 6.944237518310546875e+01 1.650387954711914062e+01 1.247166283428668976e-02 7.752417564392089844e+00 2.329466819763183594e+00 3.049024045467376709e-01
1.941000000000000000e+03 6.847277069091796875e+01 1.518021011352539062e+01 2.585606463253498077e-02 7.727783203125000000e+00 2.326091766357421875e+00 3.200883567333221436e-01
1.942000000000000000e+03 6.559638977050781250e+01 1.305358505249023438e+01 6.694112718105316162e-02 7.693195343017578125e+00 2.328040838241577148e+00 3.573929369449615479e-01
1.943000000000000000e+03 6.667249298095703125e+01 1.129715538024902344e+01 8.356985449790954590e-02 7.660918712615966797e+00 2.323346614837646484e+00 3.250918388366699219e-01
1.944000000000000000e+03 2.896593475341796875e+01 8.324134826660156250e+00 3.308815658092498779e-01 8.311816215515136719e+00 2.592809200286865234e+00 -4.717320501804351807e-01
1.945000000000000000e+03 6.440807342529296875e+01 3.106709861755371094e+01 -1.811332106590270996e-01 7.929039955139160156e+00 2.324372053146362305e+00 2.568111419677734375e-01
1.946000000000000000e+03 1.769754219055175781e+01 -2.374404335021972656e+01 -1.448051929473876953e-01 3.912350416183471680e+00 1.130263566970825195e+00 1.202024459838867188e+00
1.947000000000000000e+03 2.409621047973632812e+01 -2.617082214355468750e+01 -7.497955560684204102e-01 6.116891384124755859e+00 1.610128760337829590e+00 7.267241477966308594e-01
1.948000000000000000e+03 1.923663139343261719e+01 -2.205615997314453125e+01 -1.806940883398056030e-01 4.490029335021972656e+00 1.292800664901733398e+00 1.350366353988647461e+00
1.949000000000000000e+03 2.382520103454589844e+01 -2.303372573852539062e+01 -6.337708830833435059e-01 6.323677062988281250e+00 1.706971883773803711e+00 9.697981476783752441e-01
1.950000000000000000e+03 2.529183769226074219e+01 -2.165880584716796875e+01 -6.642917394638061523e-01 7.062354087829589844e+00 1.919418811798095703e+00 8.134465217590332031e-01
1.951000000000000000e+03 1.786696815490722656e+01 2.560633850097656250e+01 -4.081184566020965576e-01 4.689393520355224609e+00 1.284382462501525879e+00 -8.391904830932617188e-01
1.952000000000000000e+03 2.193265724182128906e+01 2.001218605041503906e+01 -1.468225419521331787e-01 6.144783496856689453e+00 1.799388289451599121e+00 -6.457647681236267090e-01
1.953000000000000000e+03 2.920827102661132812e+01 6.963359832763671875e+00 3.208879828453063965e-01 8.541374206542968750e+00 2.658678770065307617e+00 -4.103615880012512207e-01
1.954000000000000000e+03 2.400042724609375000e+01 -1.808085560798645020e+00 -4.364802539348602295e-01 1.136147308349609375e+01 3.277498006820678711e+00 -1.652033805847167969e+00
1.955000000000000000e+03 2.507588195800781250e+01 -1.207599043846130371e+00 -2.370680272579193115e-01 1.148503971099853516e+01 3.374391555786132812e+00 -8.651175498962402344e-01
1.956000000000000000e+03 2.561187744140625000e+01 -1.211436271667480469e+00 -3.320445865392684937e-02 1.150679302215576172e+01 3.442076683044433594e+00 -4.404503405094146729e-01
1.957000000000000000e+03 2.579460334777832031e+01 1.088158935308456421e-01 -1.801921278238296509e-01 1.069012451171875000e+01 3.152979850769042969e+00 -7.645820975303649902e-01
1.958000000000000000e+03 2.789099121093750000e+01 -2.191904783248901367e+00 1.370593667030334473e+00 1.096910572052001953e+01 3.701909780502319336e+00 8.843787908554077148e-01
1.959000000000000000e+03 2.729262542724609375e+01 -1.337361454963684082e+00 6.733886599540710449e-01 1.108270072937011719e+01 3.526826858520507812e+00 4.256734251976013184e-01
1.960000000000000000e+03 2.299806594848632812e+01 -1.383384132385253906e+01 9.295330941677093506e-02 7.884657859802246094e+00 2.393283367156982422e+00 2.158018112182617188e+00
1.961000000000000000e+03 2.336675071716308594e+01 -1.971216320991516113e+00 -4.376287460327148438e-01 1.069062805175781250e+01 3.075899839401245117e+00 -2.281203269958496094e+00
1.962000000000000000e+03 2.326242828369140625e+01 -1.644092750549316406e+01 -2.239479422569274902e-01 7.264136791229248047e+00 2.112056493759155273e+00 1.642820477485656738e+00
1.963000000000000000e+03 2.410182762145996094e+01 -1.831150245666503906e+01 -4.556303024291992188e-01 7.213534832000732422e+00 2.027371406555175781e+00 1.245049834251403809e+00
1.964000000000000000e+03 2.249864959716796875e+01 -1.302682781219482422e+01 3.745217323303222656e-01 7.735505104064941406e+00 2.433007955551147461e+00 2.556979894638061523e+00
1.965000000000000000e+03 2.394399642944335938e+01 -4.892714321613311768e-01 -4.727495908737182617e-01 1.035509109497070312e+01 2.964702606201171875e+00 -1.796514153480529785e+00
1.966000000000000000e+03 2.463138961791992188e+01 -1.261384963989257812e+00 -3.647491037845611572e-01 1.130150604248046875e+01 3.281027078628540039e+00 -1.162166953086853027e+00
1.967000000000000000e+03 3.164244842529296875e+01 8.704512119293212891e-01 1.029113888740539551e+00 9.246028900146484375e+00 3.082542896270751953e+00 5.167354345321655273e-01
1.968000000000000000e+03 2.102577209472656250e+01 -1.670601081848144531e+01 1.082246899604797363e-01 5.651134014129638672e+00 1.727807521820068359e+00 2.005721807479858398e+00
1.969000000000000000e+03 2.317760276794433594e+01 -1.760205078125000000e+01 -3.117512166500091553e-01 6.956870555877685547e+00 1.993535876274108887e+00 1.524624109268188477e+00
1.970000000000000000e+03 3.230273056030273438e+01 -3.050734758377075195e+00 2.272586345672607422e+00 8.896140098571777344e+00 3.350617885589599609e+00 6.600541472434997559e-01
1.971000000000000000e+03 3.150385284423828125e+01 -5.725149154663085938e+00 3.206757545471191406e+00 8.830997467041015625e+00 3.611326456069946289e+00 2.498130053281784058e-01
1.972000000000000000e+03 2.494446563720703125e+01 3.173715770244598389e-01 -3.740808069705963135e-01 1.033313751220703125e+01 2.987717151641845703e+00 -1.308585047721862793e+00
1.973000000000000000e+03 2.874693298339843750e+01 -1.199239826202392578e+01 1.190300226211547852e+00 9.902294158935546875e+00 3.327778339385986328e+00 -8.157689571380615234e-01
1.974000000000000000e+03 2.932753562927246094e+01 -1.126844310760498047e+01 1.744395852088928223e+00 9.652506828308105469e+00 3.419070959091186523e+00 -9.428075551986694336e-01
1.975000000000000000e+03 6.877737426757812500e+01 -6.532304763793945312e+00 1.424613893032073975e-01 7.498449802398681641e+00 2.292273283004760742e+00 -4.637499898672103882e-02
1.976000000000000000e+03 6.721514892578125000e+01 -1.004396343231201172e+01 1.555023789405822754e-01 7.532392978668212891e+00 2.306368589401245117e+00 -1.337249130010604858e-01
1.977000000000000000e+03 2.596531105041503906e+01 1.577515721321105957e+00 -1.710444241762161255e-01 9.946052551269531250e+00 2.932502508163452148e+00 -1.014166712760925293e+00
1.978000000000000000e+03 2.567621612548828125e+01 2.361427783966064453e+00 -1.267753094434738159e-01 9.618963241577148438e+00 2.847656488418579102e+00 -1.196624755859375000e+00
1.979000000000000000e+03 2.785042572021484375e+01 2.859515428543090820e+00 1.480541527271270752e-01 9.567932128906250000e+00 2.914795875549316406e+00 -5.067343115806579590e-01
1.980000000000000000e+03 2.824241065979003906e+01 -1.282056140899658203e+01 8.148978948593139648e-01 9.899168014526367188e+00 3.214219808578491211e+00 -5.526288151741027832e-01
1.981000000000000000e+03 2.683894538879394531e+01 1.719169378280639648e+00 -2.485705167055130005e-02 9.986518859863281250e+00 2.988498449325561523e+00 -6.714227795600891113e-01
1.982000000000000000e+03 2.765533065795898438e+01 6.624926924705505371e-01 2.473843991756439209e-01 1.031289958953857422e+01 3.168085336685180664e+00 -1.264636665582656860e-01
1.983000000000000000e+03 6.832683563232421875e+01 1.622886359691619873e-01 1.491852849721908569e-01 7.516279697418212891e+00 2.299639463424682617e+00 1.096708253026008606e-01
1.984000000000000000e+03 2.550696182250976562e+01 -1.264248561859130859e+01 2.290297150611877441e-01 1.019551277160644531e+01 3.127362728118896484e+00 6.725062727928161621e-01
1.985000000000000000e+03 6.980923461914062500e+01 5.776524543762207031e+00 9.014647454023361206e-02 7.562199592590332031e+00 2.295703887939453125e+00 2.037474364042282104e-01
1.986000000000000000e+03 6.839335632324218750e+01 5.829048156738281250e+00 1.116987466812133789e-01 7.574163913726806641e+00 2.305758714675903320e+00 2.233548313379287720e-01
1.987000000000000000e+03 6.682607269287109375e+01 -1.620356559753417969e+01 9.827071428298950195e-02 7.604422092437744141e+00 2.310807943344116211e+00 -2.497564703226089478e-01
1.988000000000000000e+03 6.680857849121093750e+01 2.360078620910644531e+01 -6.262581050395965576e-02 7.862038612365722656e+00 2.339823722839355469e+00 3.278008997440338135e-01
1.989000000000000000e+03 6.693440246582031250e+01 1.609687614440917969e+01 2.108830586075782776e-02 7.742199897766113281e+00 2.328986406326293945e+00 3.503089547157287598e-01
1.990000000000000000e+03 6.870819091796875000e+01 -3.906972646713256836e+00 1.501372456550598145e-01 7.496311664581298828e+00 2.293934583663940430e+00 1.466295495629310608e-02
1.991000000000000000e+03 6.742504119873046875e+01 -7.777496337890625000e+00 1.727028489112854004e-01 7.515935897827148438e+00 2.306591510772705078e+00 -8.046252280473709106e-02
1.992000000000000000e+03 2.701188468933105469e+01 -1.919755172729492188e+01 -5.803982019424438477e-01 7.989438056945800781e+00 2.222712039947509766e+00 5.064391493797302246e-01
1.993000000000000000e+03 2.441997337341308594e+01 -1.516706848144531250e+01 -2.552854120731353760e-01 8.443471908569335938e+00 2.456455945968627930e+00 1.377857923507690430e+00
1.994000000000000000e+03 6.724884033203125000e+01 -3.893096923828125000e+00 1.852534711360931396e-01 7.509193897247314453e+00 2.308334112167358398e+00 1.475928165018558502e-02
1.995000000000000000e+03 1.862432479858398438e+01 3.012660026550292969e+01 -5.779181718826293945e-01 4.611779689788818359e+00 1.210158467292785645e+00 -5.642543435096740723e-01
1.996000000000000000e+03 6.820692443847656250e+01 8.586654663085937500e+00 9.053835272789001465e-02 7.615234851837158203e+00 2.311732053756713867e+00 2.674122750759124756e-01
1.997000000000000000e+03 7.007354736328125000e+01 -2.587016582489013672e+00 1.183021292090415955e-01 7.483714103698730469e+00 2.280604839324951172e+00 4.149181395769119263e-02
1.998000000000000000e+03 6.847550201416015625e+01 -1.217306852340698242e+00 1.507567316293716431e-01 7.507030963897705078e+00 2.297336339950561523e+00 7.812931388616561890e-02
1.999000000000000000e+03 2.985087585449218750e+01 1.421743583679199219e+01 1.345185339450836182e-01 7.569725513458251953e+00 2.311273336410522461e+00 -1.689805835485458374e-01
2.000000000000000000e+03 1.263843631744384766e+01 -2.917850875854492188e+01 -1.094006448984146118e-01 2.495342493057250977e+00 7.157825827598571777e-01 6.408438086509704590e-01
2.001000000000000000e+03 6.686692047119140625e+01 3.526907920837402344e+00 1.640049368143081665e-01 7.554027080535888672e+00 2.315409660339355469e+00 1.946153491735458374e-01
2.002000000000000000e+03 6.668759155273437500e+01 8.904507756233215332e-02 1.864382326602935791e-01 7.528118610382080078e+00 2.314367055892944336e+00 1.176858395338058472e-01
2.003000000000000000e+03 2.583843994140625000e+01 1.852734565734863281e+01 -9.047002345323562622e-02 6.845207214355468750e+00 2.026421070098876953e+00 -3.307768106460571289e-01
2.004000000000000000e+03 2.085717391967773438e+01 -2.360554695129394531e+01 -4.272283315658569336e-01 5.215939998626708984e+00 1.436613559722900391e+00 1.154534935951232910e+00
2.005000000000000000e+03 2.648203468322753906e+01 -2.275315666198730469e+01 -7.425118684768676758e-01 7.124447345733642578e+00 1.914580702781677246e+00 5.695061087608337402e-01
2.006000000000000000e+03 1.832213783264160156e+01 2.762363433837890625e+01 -5.187547206878662109e-01 4.650718688964843750e+00 1.239589214324951172e+00 -7.164391279220581055e-01
2.007000000000000000e+03 1.982129669189453125e+01 -2.478559684753417969e+01 -3.839305043220520020e-01 4.747570514678955078e+00 1.309092044830322266e+00 1.088484764099121094e+00
2.008000000000000000e+03 6.550389862060546875e+01 2.226258659362792969e+01 -5.949248746037483215e-02 7.835552692413330078e+00 2.332818031311035156e+00 3.573068380355834961e-01
2.009000000000000000e+03 2.140975379943847656e+01 2.429810714721679688e+01 -4.897585809230804443e-01 5.592201709747314453e+00 1.530732870101928711e+00 -6.280114650726318359e-01
2.010000000000000000e+03 2.391954612731933594e+01 1.956167793273925781e+01 -1.444240808486938477e-01 6.523876667022705078e+00 1.913835763931274414e+00 -4.928106069564819336e-01
2.011000000000000000e+03 6.698683929443359375e+01 1.880721855163574219e+01 -8.874189108610153198e-03 7.786708831787109375e+00 2.333350419998168945e+00 3.503896296024322510e-01
2.012000000000000000e+03 6.352921676635742188e+01 1.190572357177734375e+01 1.047216802835464478e-01 7.676456928253173828e+00 2.334353446960449219e+00 3.789822459220886230e-01
2.013000000000000000e+03 6.470391082763671875e+01 -2.738357543945312500e+01 -9.014649689197540283e-02 7.788997650146484375e+00 2.309655427932739258e+00 -3.018059730529785156e-01
2.014000000000000000e+03 6.630191802978515625e+01 -3.236559295654296875e+01 -1.389050334692001343e-01 7.842389583587646484e+00 2.311045408248901367e+00 -2.110512405633926392e-01
2.015000000000000000e+03 6.880918884277343750e+01 -7.820183277130126953e+00 1.409342437982559204e-01 7.502250194549560547e+00 2.292955398559570312e+00 -7.430744916200637817e-02
2.016000000000000000e+03 6.948858642578125000e+01 -1.364227294921875000e+01 8.802515268325805664e-02 7.547489166259765625e+00 2.290654420852661133e+00 -1.788118928670883179e-01
2.017000000000000000e+03 6.811678314208984375e+01 -3.530412673950195312e+01 -1.198838651180267334e-01 7.861932754516601562e+00 2.322614669799804688e+00 -1.391444206237792969e-01
2.018000000000000000e+03 1.142841243743896484e+01 3.207086181640625000e+01 -2.194663137197494507e-01 2.480256080627441406e+00 6.782369017601013184e-01 -5.360947251319885254e-01
2.019000000000000000e+03 6.811507415771484375e+01 9.982495307922363281e+00 7.815777510404586792e-02 7.637885093688964844e+00 2.314812898635864258e+00 2.847743928432464600e-01
2.020000000000000000e+03 6.683030700683593750e+01 7.189533710479736328e+00 1.251482963562011719e-01 7.601812362670898438e+00 2.318088054656982422e+00 2.676365971565246582e-01
2.021000000000000000e+03 2.975304985046386719e+01 1.215511131286621094e+01 2.422697693109512329e-01 7.787306308746337891e+00 2.408872842788696289e+00 -2.551564574241638184e-01
2.022000000000000000e+03 2.283704185485839844e+01 -1.524017333984375000e+01 -3.654193133115768433e-02 7.338212966918945312e+00 2.190501213073730469e+00 1.932903409004211426e+00
2.023000000000000000e+03 2.598947334289550781e+01 8.581588268280029297e-01 -1.862962394952774048e-01 1.038130474090576172e+01 3.058502435684204102e+00 -8.359192013740539551e-01
2.024000000000000000e+03 2.809284210205078125e+01 -1.442517399787902832e+00 1.073582530021667480e+00 1.070982551574707031e+01 3.535022497177124023e+00 6.557668447494506836e-01
2.025000000000000000e+03 3.126918601989746094e+01 -1.476259231567382812e+00 1.700748205184936523e+00 9.355509757995605469e+00 3.316877603530883789e+00 7.651197314262390137e-01
2.026000000000000000e+03 2.516815948486328125e+01 -1.395948982238769531e+01 -1.003977581858634949e-01 9.335534095764160156e+00 2.770540952682495117e+00 1.036943316459655762e+00
2.027000000000000000e+03 2.252345848083496094e+01 -1.837317466735839844e+01 -3.009165525436401367e-01 6.421084880828857422e+00 1.836050510406494141e+00 1.551456451416015625e+00
2.028000000000000000e+03 2.542651367187500000e+01 -1.506256580352783203e+01 -2.506816685199737549e-01 8.847636222839355469e+00 2.579086303710937500e+00 9.008352756500244141e-01
2.029000000000000000e+03 2.617498397827148438e+01 -9.226304888725280762e-01 1.011880934238433838e-01 1.123707389831542969e+01 3.401478528976440430e+00 -1.893515139818191528e-01
2.030000000000000000e+03 2.658345603942871094e+01 -1.602159291505813599e-01 9.642147272825241089e-02 1.082872676849365234e+01 3.277544498443603516e+00 -2.641174793243408203e-01
2.031000000000000000e+03 3.200490570068359375e+01 -4.428433895111083984e+00 2.730309486389160156e+00 8.830856323242187500e+00 3.468349695205688477e+00 5.225238204002380371e-01
2.032000000000000000e+03 3.383286666870117188e+01 -3.192060232162475586e+00 2.158273696899414062e+00 8.541730880737304688e+00 3.210001230239868164e+00 5.160632133483886719e-01
2.033000000000000000e+03 3.321796798706054688e+01 -6.360974311828613281e+00 2.756664514541625977e+00 8.418707847595214844e+00 3.352611780166625977e+00 -3.443774580955505371e-02
2.034000000000000000e+03 6.583814239501953125e+01 -5.108597278594970703e+00 2.190990597009658813e-01 7.518328666687011719e+00 2.321228265762329102e+00 -1.404903829097747803e-02
2.035000000000000000e+03 2.841572570800781250e+01 -1.431272888183593750e+01 2.288727313280105591e-01 9.440096855163574219e+00 2.900690793991088867e+00 -2.811723351478576660e-01
2.036000000000000000e+03 2.924632072448730469e+01 -1.354833316802978516e+01 6.740663051605224609e-01 9.455678939819335938e+00 3.038923501968383789e+00 -6.060162782669067383e-01
2.037000000000000000e+03 2.510300445556640625e+01 -1.771204566955566406e+01 -4.555551707744598389e-01 7.725397109985351562e+00 2.180952548980712891e+00 1.009665369987487793e+00
2.038000000000000000e+03 2.692226219177246094e+01 -1.446646022796630859e+01 -2.079908549785614014e-02 9.388052940368652344e+00 2.810176134109497070e+00 2.274836003780364990e-01
2.039000000000000000e+03 6.747096252441406250e+01 -1.464886283874511719e+01 1.100592762231826782e-01 7.578022956848144531e+00 2.306424617767333984e+00 -2.196467369794845581e-01
2.040000000000000000e+03 6.536610412597656250e+01 -1.552956771850585938e+01 1.291892379522323608e-01 7.604150772094726562e+00 2.320001840591430664e+00 -2.596618831157684326e-01
2.041000000000000000e+03 6.452757263183593750e+01 -3.415780782699584961e+00 2.560493350028991699e-01 7.526471138000488281e+00 2.334756135940551758e+00 3.211616352200508118e-02
2.042000000000000000e+03 6.578592681884765625e+01 -6.299193382263183594e+00 2.161686271429061890e-01 7.521444320678710938e+00 2.321283817291259766e+00 -5.229096859693527222e-02
2.043000000000000000e+03 3.297796249389648438e+01 1.628437042236328125e+01 -6.552714854478836060e-02 7.577071666717529297e+00 2.253463268280029297e+00 1.110458001494407654e-01
2.044000000000000000e+03 3.091710853576660156e+01 1.765830421447753906e+01 -1.202405542135238647e-01 7.375051021575927734e+00 2.176443099975585938e+00 1.903732540085911751e-03
2.045000000000000000e+03 6.562403869628906250e+01 -2.727397441864013672e+00 2.284258008003234863e-01 7.521475315093994141e+00 2.324970245361328125e+00 5.139976367354393005e-02
2.046000000000000000e+03 1.824993133544921875e+01 -2.551680564880371094e+01 -2.918353676795959473e-01 4.138853073120117188e+00 1.154105305671691895e+00 1.071442484855651855e+00
2.047000000000000000e+03 1.313443565368652344e+01 -3.176762771606445312e+01 -2.073162198066711426e-01 2.739025592803955078e+00 7.595127820968627930e-01 5.450149774551391602e-01
2.048000000000000000e+03 6.714058685302734375e+01 4.611167907714843750e+00 1.449943631887435913e-01 7.565649986267089844e+00 2.313193321228027344e+00 2.164127975702285767e-01
2.049000000000000000e+03 2.905781364440917969e+01 2.855336189270019531e+00 3.255372345447540283e-01 9.468711853027343750e+00 2.938274621963500977e+00 -1.859104335308074951e-01
2.050000000000000000e+03 2.996975898742675781e+01 1.038165950775146484e+01 2.909113168716430664e-01 8.026768684387207031e+00 2.495303869247436523e+00 -2.970972955226898193e-01
2.051000000000000000e+03 3.057129859924316406e+01 8.992860794067382812e+00 3.111383616924285889e-01 8.217198371887207031e+00 2.558501005172729492e+00 -2.173824757337570190e-01
2.052000000000000000e+03 6.586398315429687500e+01 2.801127910614013672e+00 1.894427239894866943e-01 7.552443504333496094e+00 2.322565793991088867e+00 1.867258846759796143e-01
2.053000000000000000e+03 3.132619857788085938e+01 -9.207104682922363281e+00 2.718992948532104492e+00 8.870787620544433594e+00 3.476934194564819336e+00 -7.599079608917236328e-01
2.054000000000000000e+03 3.123162651062011719e+01 -1.077698135375976562e+01 2.091987848281860352e+00 9.047048568725585938e+00 3.341710805892944336e+00 -9.631339907646179199e-01
2.055000000000000000e+03 6.956687927246093750e+01 1.004361629486083984e+01 6.328468769788742065e-02 7.630435466766357422e+00 2.308115959167480469e+00 2.623738944530487061e-01
2.056000000000000000e+03 2.689978408813476562e+01 -2.111309814453125000e+01 -6.726720333099365234e-01 7.523616790771484375e+00 2.055283546447753906e+00 5.395661592483520508e-01
2.057000000000000000e+03 6.663747406005859375e+01 9.971400260925292969e+00 9.685176610946655273e-02 7.643622875213623047e+00 2.322142362594604492e+00 3.110181987285614014e-01
2.058000000000000000e+03 1.049201297760009766e+01 -2.955756187438964844e+01 -3.432838991284370422e-02 1.892929673194885254e+00 5.575803518295288086e-01 4.652859568595886230e-01
2.059000000000000000e+03 6.441781616210937500e+01 1.519717884063720703e+01 4.159926250576972961e-02 7.725530624389648438e+00 2.330138921737670898e+00 3.876995146274566650e-01
2.060000000000000000e+03 6.245599746704101562e+01 -1.382458686828613281e+01 2.134356796741485596e-01 7.597489356994628906e+00 2.343277454376220703e+00 -2.668447494506835938e-01
2.061000000000000000e+03 6.389250946044921875e+01 -1.898972511291503906e+01 8.237421512603759766e-02 7.664355754852294922e+00 2.324018955230712891e+00 -3.228450417518615723e-01
2.062000000000000000e+03 2.842167854309082031e+01 9.863883972167968750e+00 3.452982902526855469e-01 8.011559486389160156e+00 2.507057428359985352e+00 -5.065862536430358887e-01
2.063000000000000000e+03 6.618510437011718750e+01 1.451891803741455078e+01 4.444202780723571777e-02 7.715453624725341797e+00 2.327968597412109375e+00 3.591306507587432861e-01
2.064000000000000000e+03 2.503888511657714844e+01 2.163475608825683594e+01 -3.507696688175201416e-01 6.476381778717041016e+00 1.837683677673339844e+00 -3.478007912635803223e-01
2.065000000000000000e+03 1.921260452270507812e+01 -2.741614151000976562e+01 -4.455227553844451904e-01 4.457708358764648438e+00 1.203655600547790527e+00 8.941013216972351074e-01
2.066000000000000000e+03 2.448913383483886719e+01 2.503856277465820312e+01 -5.766815543174743652e-01 6.132313728332519531e+00 1.666689634323120117e+00 -3.465922772884368896e-01
2.067000000000000000e+03 2.640994644165039062e+01 2.364747428894042969e+01 -5.209177136421203613e-01 6.532612800598144531e+00 1.803508520126342773e+00 -2.103950679302215576e-01
2.068000000000000000e+03 6.636509704589843750e+01 -8.351520538330078125e+00 1.924460679292678833e-01 7.527102470397949219e+00 2.315864562988281250e+00 -9.961804747581481934e-02
2.069000000000000000e+03 6.318499755859375000e+01 -3.027047920227050781e+01 -1.616027504205703735e-01 7.837939262390136719e+00 2.302900791168212891e+00 -2.825564444065093994e-01
2.070000000000000000e+03 6.296724700927734375e+01 -2.784390258789062500e+01 -1.199704483151435852e-01 7.810681819915771484e+00 2.307213306427001953e+00 -3.243404328823089600e-01
2.071000000000000000e+03 1.867245483398437500e+01 3.314572143554687500e+01 -6.264207363128662109e-01 4.484762191772460938e+00 1.157502412796020508e+00 -4.348829388618469238e-01
2.072000000000000000e+03 6.693743896484375000e+01 3.481069183349609375e+01 -1.474566459655761719e-01 7.997775077819824219e+00 2.355095624923706055e+00 1.593641489744186401e-01
2.073000000000000000e+03 6.733416748046875000e+01 4.096829605102539062e+01 -1.544322073459625244e-01 8.023563385009765625e+00 2.360739231109619141e+00 2.896463871002197266e-02
2.074000000000000000e+03 2.791343879699707031e+01 -1.513973617553710938e+01 3.260730300098657608e-03 9.229911804199218750e+00 2.769951820373535156e+00 -5.334414914250373840e-02
2.075000000000000000e+03 6.550843811035156250e+01 -1.966832160949707031e+01 5.702937766909599304e-02 7.664742469787597656e+00 2.316531419754028320e+00 -3.037050366401672363e-01
2.076000000000000000e+03 1.238510704040527344e+01 3.374594879150390625e+01 -2.979672849178314209e-01 2.786707162857055664e+00 7.466219663619995117e-01 -4.512020349502563477e-01
2.077000000000000000e+03 6.552127075195312500e+01 -1.088182544708251953e+01 1.933675557374954224e-01 7.549801349639892578e+00 2.322950839996337891e+00 -1.669877767562866211e-01
2.078000000000000000e+03 6.658815765380859375e+01 -1.262839889526367188e+01 1.501411348581314087e-01 7.561160087585449219e+00 2.313390493392944336e+00 -1.959080547094345093e-01
2.079000000000000000e+03 6.830518341064453125e+01 7.200400352478027344e+00 1.020343229174613953e-01 7.593596935272216797e+00 2.308689355850219727e+00 2.462543994188308716e-01
2.080000000000000000e+03 2.562134361267089844e+01 -5.842146873474121094e-01 -1.868256479501724243e-01 1.095141506195068359e+01 3.229376792907714844e+00 -7.058873176574707031e-01
2.081000000000000000e+03 2.923816871643066406e+01 -8.013567328453063965e-01 1.142331600189208984e+00 1.014758300781250000e+01 3.386974334716796875e+00 6.486431956291198730e-01
2.082000000000000000e+03 3.018746376037597656e+01 -1.155638694763183594e+00 1.453930854797363281e+00 9.750443458557128906e+00 3.361312389373779297e+00 7.540399432182312012e-01
2.083000000000000000e+03 2.742443847656250000e+01 -3.740815222263336182e-01 4.130638837814331055e-01 1.070751380920410156e+01 3.336173295974731445e+00 1.037575677037239075e-01
2.084000000000000000e+03 2.521953773498535156e+01 -1.906307792663574219e+01 -5.537402629852294922e-01 7.469251155853271484e+00 2.074653148651123047e+00 9.337386488914489746e-01
2.085000000000000000e+03 2.359200668334960938e+01 -1.472786712646484375e+01 -1.054449975490570068e-01 8.063369750976562500e+00 2.387377500534057617e+00 1.763363957405090332e+00
2.086000000000000000e+03 3.012532424926757812e+01 2.540263175964355469e+00 5.057182908058166504e-01 9.341148376464843750e+00 2.954060077667236328e+00 6.575099378824234009e-02
2.087000000000000000e+03 2.661487960815429688e+01 -1.741043472290039062e+01 -4.449455142021179199e-01 8.401785850524902344e+00 2.387052297592163086e+00 5.638999938964843750e-01
2.088000000000000000e+03 3.260577011108398438e+01 -3.223623633384704590e-01 1.424739241600036621e+00 8.998117446899414062e+00 3.126857042312622070e+00 6.444242000579833984e-01
2.089000000000000000e+03 2.780336952209472656e+01 1.737262129783630371e+00 1.771934032440185547e-01 9.918525695800781250e+00 3.028715610504150391e+00 -3.320259749889373779e-01
2.090000000000000000e+03 3.277348709106445312e+01 -7.886781215667724609e+00 2.768649816513061523e+00 8.511903762817382812e+00 3.384166240692138672e+00 -3.972449302673339844e-01
2.091000000000000000e+03 6.511461639404296875e+01 -7.499207019805908203e+00 2.274965792894363403e-01 7.528740882873535156e+00 2.326871156692504883e+00 -8.405610173940658569e-02
2.092000000000000000e+03 6.711114501953125000e+01 -2.598417758941650391e+00 1.891264766454696655e-01 7.512097358703613281e+00 2.310367107391357422e+00 5.068198963999748230e-02
2.093000000000000000e+03 6.578182220458984375e+01 -3.913517475128173828e+00 2.225482910871505737e-01 7.518620491027832031e+00 2.322350740432739258e+00 1.388881634920835495e-02
2.094000000000000000e+03 6.700769042968750000e+01 5.852130889892578125e+00 1.370751708745956421e-01 7.582083702087402344e+00 2.315747499465942383e+00 2.420276254415512085e-01
2.095000000000000000e+03 2.822743415832519531e+01 -2.351433753967285156e+01 -7.825174927711486816e-01 7.383347988128662109e+00 1.980249166488647461e+00 3.382421731948852539e-01
2.096000000000000000e+03 2.999999046325683594e+01 -1.462420558929443359e+01 4.215254485607147217e-01 9.081477165222167969e+00 2.850900888442993164e+00 -5.749186277389526367e-01
2.097000000000000000e+03 6.669409942626953125e+01 8.576750755310058594e+00 1.122430860996246338e-01 7.621865749359130859e+00 2.320232629776000977e+00 2.900851964950561523e-01
2.098000000000000000e+03 2.977058792114257812e+01 -1.238601875305175781e+01 1.226107716560363770e+00 9.485698699951171875e+00 3.213541746139526367e+00 -8.695621490478515625e-01
2.099000000000000000e+03 3.274710464477539062e+01 -9.444516181945800781e+00 2.413386344909667969e+00 8.590855598449707031e+00 3.301272630691528320e+00 -7.160317301750183105e-01
2.100000000000000000e+03 3.030795097351074219e+01 4.422534942626953125e+00 4.061914980411529541e-01 8.993301391601562500e+00 2.819847822189331055e+00 -9.738299250602722168e-02
2.101000000000000000e+03 2.880724906921386719e+01 1.630367517471313477e+00 3.783638477325439453e-01 9.821247100830078125e+00 3.059883356094360352e+00 -2.481610514223575592e-02
2.102000000000000000e+03 6.336046600341796875e+01 1.019905471801757812e+01 1.384686380624771118e-01 7.651699066162109375e+00 2.337050199508666992e+00 3.618300557136535645e-01
2.103000000000000000e+03 3.094268798828125000e+01 3.347366333007812500e+00 5.351654291152954102e-01 9.093447685241699219e+00 2.888584136962890625e+00 1.150592863559722900e-01
2.104000000000000000e+03 6.479852294921875000e+01 1.285854816436767578e+00 2.266106456518173218e-01 7.545663356781005859e+00 2.331682205200195312e+00 1.602601557970046997e-01
2.105000000000000000e+03 6.644094085693359375e+01 1.477345705032348633e+00 1.849215626716613770e-01 7.539868831634521484e+00 2.317437171936035156e+00 1.538702249526977539e-01
2.106000000000000000e+03 6.224852752685546875e+01 -1.815377616882324219e+01 1.173183023929595947e-01 7.662510395050048828e+00 2.333948612213134766e+00 -3.401700854301452637e-01
2.107000000000000000e+03 6.690089416503906250e+01 -1.267789721488952637e+00 1.864122599363327026e-01 7.519554138183593750e+00 2.311789989471435547e+00 8.497269451618194580e-02
2.108000000000000000e+03 6.526079559326171875e+01 -1.413161277770996094e+00 2.325838059186935425e-01 7.527606010437011719e+00 2.328057050704956055e+00 8.722700178623199463e-02
2.109000000000000000e+03 1.644930839538574219e+01 -2.604466056823730469e+01 -1.915496289730072021e-01 3.527508735656738281e+00 1.000787734985351562e+00 9.838140606880187988e-01
2.110000000000000000e+03 6.317777633666992188e+01 -1.008392524719238281e+01 2.583578824996948242e-01 7.553915500640869141e+00 2.343682050704956055e+00 -1.675612181425094604e-01
2.111000000000000000e+03 3.138739395141601562e+01 1.033219337463378906e+01 2.716851532459259033e-01 8.058161735534667969e+00 2.498954057693481445e+00 -9.591353684663772583e-02
2.112000000000000000e+03 6.203243255615234375e+01 1.406056785583496094e+01 7.303842902183532715e-02 7.708990097045898438e+00 2.334608554840087891e+00 4.182882010936737061e-01
2.113000000000000000e+03 6.592710113525390625e+01 1.987099456787109375e+01 -2.820271439850330353e-02 7.804148197174072266e+00 2.332783699035644531e+00 3.643291890621185303e-01
2.114000000000000000e+03 6.048316955566406250e+01 -2.211589431762695312e+01 2.227521874010562897e-02 7.736764430999755859e+00 2.327711820602416992e+00 -3.937781155109405518e-01
2.115000000000000000e+03 6.542761993408203125e+01 2.517449951171875000e+01 -9.415218234062194824e-02 7.873999118804931641e+00 2.333954095840454102e+00 3.308327198028564453e-01
2.116000000000000000e+03 6.392510604858398438e+01 2.362257766723632812e+01 -9.095874428749084473e-02 7.845036983489990234e+00 2.326223373413085938e+00 3.658420145511627197e-01
2.117000000000000000e+03 1.639624595642089844e+01 -3.443928527832031250e+01 -4.637702405452728271e-01 3.677139043807983398e+00 9.640106558799743652e-01 4.234686195850372314e-01
2.118000000000000000e+03 1.569314861297607422e+01 -3.147166442871093750e+01 -3.477347791194915771e-01 3.406594753265380859e+00 9.176580309867858887e-01 6.151514649391174316e-01
2.119000000000000000e+03 2.879908752441406250e+01 -2.153400039672851562e+01 -6.982917189598083496e-01 7.813786506652832031e+00 2.134648561477661133e+00 2.381332218647003174e-01
2.120000000000000000e+03 2.058074760437011719e+01 -2.955161285400390625e+01 -6.015761494636535645e-01 4.839937686920166016e+00 1.271508455276489258e+00 7.292841076850891113e-01
2.121000000000000000e+03 1.057217407226562500e+01 -3.387327194213867188e+01 -1.572689712047576904e-01 2.115477561950683594e+00 5.874625444412231445e-01 3.436019420623779297e-01
2.122000000000000000e+03 1.307729244232177734e+01 -3.465222167968750000e+01 -2.770924270153045654e-01 2.732783555984497070e+00 7.367073893547058105e-01 3.774271011352539062e-01
2.123000000000000000e+03 6.309706878662109375e+01 -1.636814308166503906e+01 1.483725458383560181e-01 7.629391670227050781e+00 2.333329200744628906e+00 -3.041186332702636719e-01
2.124000000000000000e+03 1.625485038757324219e+01 2.750277709960937500e+01 -3.696729540824890137e-01 4.017125606536865234e+00 1.094235777854919434e+00 -8.181521296501159668e-01
2.125000000000000000e+03 2.833031272888183594e+01 -5.300517678260803223e-01 7.626777291297912598e-01 1.047809219360351562e+01 3.372231006622314453e+00 4.288970232009887695e-01
2.126000000000000000e+03 2.678945732116699219e+01 7.708442211151123047e-01 2.304881066083908081e-02 1.036970996856689453e+01 3.117827653884887695e+00 -4.635706543922424316e-01
2.127000000000000000e+03 3.149582672119140625e+01 -2.486204057931900024e-01 1.304820537567138672e+00 9.295417785644531250e+00 3.180071353912353516e+00 6.341639161109924316e-01
2.128000000000000000e+03 2.857687950134277344e+01 5.037299990653991699e-01 5.316098332405090332e-01 1.015035724639892578e+01 3.204590082168579102e+00 1.771615594625473022e-01
2.129000000000000000e+03 3.553169250488281250e+01 -8.301876068115234375e+00 2.103033781051635742e+00 8.105301856994628906e+00 3.062500476837158203e+00 -4.140328764915466309e-01
2.130000000000000000e+03 3.251958084106445312e+01 -1.658109188079833984e+00 1.820837616920471191e+00 8.961082458496093750e+00 3.234575986862182617e+00 7.019053697586059570e-01
2.131000000000000000e+03 3.137223434448242188e+01 -1.428295230865478516e+01 6.752839684486389160e-01 8.945775985717773438e+00 2.886317968368530273e+00 -7.869076728820800781e-01
2.132000000000000000e+03 2.761673545837402344e+01 -1.640416717529296875e+01 -2.721170783042907715e-01 8.806127548217773438e+00 2.560203075408935547e+00 2.048561275005340576e-01
2.133000000000000000e+03 3.282024002075195312e+01 -1.268047237396240234e+01 1.325664281845092773e+00 8.697647094726562500e+00 3.006993293762207031e+00 -9.255182743072509766e-01
2.134000000000000000e+03 3.297164154052734375e+01 2.640849351882934570e+00 8.261547684669494629e-01 8.852088928222656250e+00 2.903473138809204102e+00 4.052591919898986816e-01
2.135000000000000000e+03 3.495062637329101562e+01 5.603621006011962891e+00 6.183153390884399414e-01 8.396508216857910156e+00 2.704447031021118164e+00 3.638812601566314697e-01
2.136000000000000000e+03 3.000397300720214844e+01 -1.791876220703125000e+01 -2.847913205623626709e-01 8.544463157653808594e+00 2.477901458740234375e+00 -1.739633381366729736e-01
2.137000000000000000e+03 2.979415512084960938e+01 1.393750429153442383e+00 6.253759264945983887e-01 9.630092620849609375e+00 3.076640367507934570e+00 2.069354504346847534e-01
2.138000000000000000e+03 3.203014755249023438e+01 1.847497701644897461e+00 8.556685447692871094e-01 9.083647727966308594e+00 2.981794834136962891e+00 4.186789393424987793e-01
2.139000000000000000e+03 2.907240486145019531e+01 -1.657334518432617188e+01 -1.474133431911468506e-01 8.792080879211425781e+00 2.593400478363037109e+00 -1.359452903270721436e-01
2.140000000000000000e+03 5.959980392456054688e+01 1.047034549713134766e+01 1.837631314992904663e-01 7.660497188568115234e+00 2.353278160095214844e+00 4.172610938549041748e-01
2.141000000000000000e+03 6.193806457519531250e+01 6.353031635284423828e+00 2.336876243352890015e-01 7.602874755859375000e+00 2.350968837738037109e+00 3.120982348918914795e-01
2.142000000000000000e+03 6.425902557373046875e+01 5.333792686462402344e+00 1.984744966030120850e-01 7.587865352630615234e+00 2.335901975631713867e+00 2.676563262939453125e-01
2.143000000000000000e+03 6.316145324707031250e+01 1.377575755119323730e+00 2.724638879299163818e-01 7.551759719848632812e+00 2.347267150878906250e+00 1.792537122964859009e-01
2.144000000000000000e+03 6.394785690307617188e+01 3.504774332046508789e+00 2.268508821725845337e-01 7.567585468292236328e+00 2.338330984115600586e+00 2.236339151859283447e-01
2.145000000000000000e+03 6.530411529541015625e+01 7.083724975585937500e+00 1.532278209924697876e-01 7.606261253356933594e+00 2.327846765518188477e+00 2.861058413982391357e-01
2.146000000000000000e+03 2.642123222351074219e+01 -1.543265628814697266e+01 -2.662270963191986084e-01 8.983999252319335938e+00 2.615331649780273438e+00 5.919967293739318848e-01
2.147000000000000000e+03 6.421749114990234375e+01 -8.790664672851562500e+00 2.423323541879653931e-01 7.541661262512207031e+00 2.335197925567626953e+00 -1.267557293176651001e-01
2.148000000000000000e+03 6.065061569213867188e+01 -1.026608657836914062e+01 3.261449038982391357e-01 7.562819004058837891e+00 2.366689205169677734e+00 -1.950266808271408081e-01
2.149000000000000000e+03 3.274707031250000000e+01 -1.101550102233886719e+01 1.876201868057250977e+00 8.646012306213378906e+00 3.156664371490478516e+00 -8.772616982460021973e-01
2.150000000000000000e+03 3.430063247680664062e+01 -1.115107536315917969e+01 1.736200094223022461e+00 8.407846450805664062e+00 3.043213844299316406e+00 -8.196082711219787598e-01
2.151000000000000000e+03 2.917454338073730469e+01 -1.954895401000976562e+01 -5.151334404945373535e-01 8.227273941040039062e+00 2.313642263412475586e+00 6.230615824460983276e-02
2.152000000000000000e+03 6.137607574462890625e+01 -2.007359313964843750e+01 7.494673132896423340e-02 7.698119163513183594e+00 2.331919908523559570e+00 -3.708034157752990723e-01
2.153000000000000000e+03 3.475212478637695312e+01 -7.123436927795410156e+00 2.396370410919189453e+00 8.191712379455566406e+00 3.176424980163574219e+00 -2.017432004213333130e-01
2.154000000000000000e+03 3.724373245239257812e+01 -2.835986614227294922e+00 1.783694386482238770e+00 8.062916755676269531e+00 2.953983306884765625e+00 3.328318595886230469e-01
2.155000000000000000e+03 6.334530639648437500e+01 -5.884465575218200684e-02 2.807887196540832520e-01 7.541076183319091797e+00 2.346559524536132812e+00 1.365162730216979980e-01
2.156000000000000000e+03 6.276493453979492188e+01 -7.741980075836181641e+00 2.956999242305755615e-01 7.539821147918701172e+00 2.350656270980834961e+00 -1.040164306759834290e-01
2.157000000000000000e+03 6.363857650756835938e+01 1.921311950683593750e+01 -2.460672147572040558e-02 7.782600402832031250e+00 2.327398061752319336e+00 4.004888534545898438e-01
2.158000000000000000e+03 6.249589157104492188e+01 1.582781505584716797e+01 3.401815146207809448e-02 7.735027790069580078e+00 2.330713748931884766e+00 4.184809029102325439e-01
2.159000000000000000e+03 6.389133453369140625e+01 1.356692790985107422e+01 7.184613496065139771e-02 7.701027393341064453e+00 2.331861972808837891e+00 3.881160318851470947e-01
2.160000000000000000e+03 6.125356292724609375e+01 -4.448646545410156250e+00 3.634777665138244629e-01 7.530712127685546875e+00 2.368257045745849609e+00 1.734345220029354095e-03
2.161000000000000000e+03 5.675062942504882812e+01 2.016675949096679688e+01 -8.911339193582534790e-02 7.774649143218994141e+00 2.305660724639892578e+00 4.761048853397369385e-01
2.162000000000000000e+03 3.198675155639648438e+01 1.412194919586181641e+01 8.064237236976623535e-02 7.698599338531494141e+00 2.333772420883178711e+00 1.681834831833839417e-02
2.163000000000000000e+03 3.158312988281250000e+01 1.213283634185791016e+01 1.943411827087402344e-01 7.870521545410156250e+00 2.419458866119384766e+00 -4.766607284545898438e-02
2.164000000000000000e+03 2.045730972290039062e+01 2.721075057983398438e+01 -5.785597562789916992e-01 5.182099819183349609e+00 1.381062150001525879e+00 -5.976161956787109375e-01
2.165000000000000000e+03 2.606671142578125000e+01 -2.766163444519042969e+01 -8.676982522010803223e-01 6.504001140594482422e+00 1.690890908241271973e+00 4.828890860080718994e-01
2.166000000000000000e+03 3.048246383666992188e+01 -1.297643035650253296e-02 1.110457062721252441e+00 9.610538482666015625e+00 3.216298580169677734e+00 5.783578753471374512e-01
2.167000000000000000e+03 3.252475738525390625e+01 8.920261263847351074e-01 1.125040888786315918e+00 8.990653038024902344e+00 3.034708261489868164e+00 5.417258739471435547e-01
2.168000000000000000e+03 2.952333068847656250e+01 2.656198143959045410e-01 8.305211663246154785e-01 9.898059844970703125e+00 3.218574285507202148e+00 4.313050210475921631e-01
2.169000000000000000e+03 3.556669616699218750e+01 -4.745641231536865234e+00 2.217572689056396484e+00 8.156835556030273438e+00 3.112322330474853516e+00 1.737809926271438599e-01
2.170000000000000000e+03 3.153474044799804688e+01 -1.573850345611572266e+01 2.806682884693145752e-01 8.783869743347167969e+00 2.719361543655395508e+00 -6.192516088485717773e-01
2.171000000000000000e+03 3.443795394897460938e+01 -1.276100540161132812e+01 1.293472647666931152e+00 8.437509536743164062e+00 2.919294595718383789e+00 -8.736876845359802246e-01
2.172000000000000000e+03 3.695947647094726562e+01 8.824016571044921875e+00 4.139892458915710449e-01 8.065851211547851562e+00 2.543952226638793945e+00 3.937781453132629395e-01
2.173000000000000000e+03 3.630236816406250000e+01 1.143808174133300781e+01 2.152344733476638794e-01 7.941842079162597656e+00 2.447122812271118164e+00 3.205245137214660645e-01
2.174000000000000000e+03 3.615327835083007812e+01 -6.328494071960449219e+00 2.205192327499389648e+00 8.056211471557617188e+00 3.078421115875244141e+00 -8.378651738166809082e-02
2.175000000000000000e+03 3.545675277709960938e+01 -1.447820544242858887e+00 1.710791110992431641e+00 8.385354995727539062e+00 3.028843879699707031e+00 5.325073599815368652e-01
2.176000000000000000e+03 3.298637008666992188e+01 -1.439591789245605469e+01 8.003503084182739258e-01 8.671802520751953125e+00 2.841645717620849609e+00 -8.570348024368286133e-01
2.177000000000000000e+03 3.036371994018554688e+01 -1.591579627990722656e+01 1.568978726863861084e-01 8.850558280944824219e+00 2.702236890792846680e+00 -5.106987953186035156e-01
2.178000000000000000e+03 6.465331268310546875e+01 -5.547067165374755859e+00 2.519519627094268799e-01 7.526133537292480469e+00 2.333425521850585938e+00 -3.032237291336059570e-02
2.179000000000000000e+03 6.608031463623046875e+01 4.488349437713623047e+00 1.750567853450775146e-01 7.570111751556396484e+00 2.323550462722778320e+00 2.279122471809387207e-01
2.180000000000000000e+03 3.484634399414062500e+01 1.763800859451293945e+00 1.095005750656127930e+00 8.571634292602539062e+00 2.899991989135742188e+00 5.375258922576904297e-01
2.181000000000000000e+03 3.221651458740234375e+01 3.994391918182373047e+00 6.038038134574890137e-01 8.828171730041503906e+00 2.829592704772949219e+00 2.241633385419845581e-01
2.182000000000000000e+03 3.645046997070312500e+01 6.444437503814697266e+00 5.958642363548278809e-01 8.224159240722656250e+00 2.646007061004638672e+00 4.106570482254028320e-01
2.183000000000000000e+03 3.384591674804687500e+01 -1.707443594932556152e-01 1.446270227432250977e+00 8.726617813110351562e+00 3.051866531372070312e+00 6.139967441558837891e-01
2.184000000000000000e+03 6.333774948120117188e+01 -1.240629100799560547e+01 2.217021435499191284e-01 7.576565265655517578e+00 2.339480161666870117e+00 -2.234969288110733032e-01
2.185000000000000000e+03 6.137282562255859375e+01 -6.647675991058349609e+00 3.483681976795196533e-01 7.536985874176025391e+00 2.365606307983398438e+00 -7.543233036994934082e-02
2.186000000000000000e+03 6.372882461547851562e+01 -6.592316627502441406e+00 2.761589884757995605e-01 7.531751155853271484e+00 2.342373132705688477e+00 -6.353750824928283691e-02
2.187000000000000000e+03 6.027296066284179688e+01 -7.809400558471679688e+00 3.737210035324096680e-01 7.544342517852783203e+00 2.375419139862060547e+00 -1.207739785313606262e-01
2.188000000000000000e+03 6.428228759765625000e+01 -1.122820186614990234e+01 2.138886451721191406e-01 7.560877323150634766e+00 2.332429885864257812e+00 -1.861775666475296021e-01
2.189000000000000000e+03 6.154467010498046875e+01 -1.542726802825927734e+01 1.954798400402069092e-01 7.624553680419921875e+00 2.346010208129882812e+00 -3.104790747165679932e-01
2.190000000000000000e+03 6.390071105957031250e+01 -1.474091529846191406e+01 1.675646305084228516e-01 7.602850914001464844e+00 2.331124544143676758e+00 -2.656864523887634277e-01
2.191000000000000000e+03 6.501910400390625000e+01 4.031566143035888672e+00 2.026423960924148560e-01 7.569557666778564453e+00 2.331660032272338867e+00 2.306004315614700317e-01
2.192000000000000000e+03 6.162640380859375000e+01 1.893462896347045898e+00 3.133009374141693115e-01 7.557479381561279297e+00 2.361234188079833984e+00 2.030314058065414429e-01
2.193000000000000000e+03 6.313689041137695312e+01 -2.095090675354003906e+01 4.309953376650810242e-02 7.701257705688476562e+00 2.323307275772094727e+00 -3.472833633422851562e-01
2.194000000000000000e+03 6.236635589599609375e+01 -2.302040481567382812e+01 -6.791332270950078964e-03 7.739307403564453125e+00 2.319754838943481445e+00 -3.655968010425567627e-01
2.195000000000000000e+03 3.029994201660156250e+01 -2.427150917053222656e+01 -7.983684539794921875e-01 7.619858264923095703e+00 2.046447038650512695e+00 8.849621564149856567e-02
2.196000000000000000e+03 3.167932891845703125e+01 -1.874663734436035156e+01 -2.800637483596801758e-01 8.360330581665039062e+00 2.424080133438110352e+00 -3.659743964672088623e-01
2.197000000000000000e+03 3.118648338317871094e+01 -1.254059600830078125e+01 1.289248585700988770e+00 9.055597305297851562e+00 3.103453874588012695e+00 -9.141116142272949219e-01
2.198000000000000000e+03 6.169947814941406250e+01 1.222757434844970703e+01 1.164013221859931946e-01 7.682575225830078125e+00 2.339693069458007812e+00 4.092404246330261230e-01
2.199000000000000000e+03 3.313713836669921875e+01 1.178664588928222656e+01 1.940262913703918457e-01 7.917420387268066406e+00 2.433434009552001953e+00 7.991561293601989746e-02
2.200000000000000000e+03 3.109536170959472656e+01 2.254160881042480469e+00 7.073480486869812012e-01 9.196464538574218750e+00 2.971143722534179688e+00 2.926698327064514160e-01
2.201000000000000000e+03 6.816842651367187500e+01 -2.421354866027832031e+01 -2.052385546267032623e-02 7.722557544708251953e+00 2.310610055923461914e+00 -2.674654424190521240e-01
2.202000000000000000e+03 6.660682678222656250e+01 -2.210368156433105469e+01 1.092319283634424210e-02 7.696014881134033203e+00 2.312081336975097656e+00 -2.973060607910156250e-01
2.203000000000000000e+03 6.348399734497070312e+01 -2.589991188049316406e+01 -6.963622570037841797e-02 7.774968147277832031e+00 2.311599493026733398e+00 -3.330676555633544922e-01
2.204000000000000000e+03 2.949558448791503906e+01 -2.656768226623535156e+01 -8.855549693107604980e-01 7.250525951385498047e+00 1.909491419792175293e+00 1.939807385206222534e-01
2.205000000000000000e+03 6.502030181884765625e+01 -1.659786701202392578e-02 2.295717298984527588e-01 7.536934375762939453e+00 2.329951763153076172e+00 1.288969814777374268e-01
2.206000000000000000e+03 2.238303756713867188e+01 -3.193272209167480469e+01 -7.590268850326538086e-01 5.244783401489257812e+00 1.345726966857910156e+00 5.207414031028747559e-01
2.207000000000000000e+03 2.690287971496582031e+01 -3.166132354736328125e+01 -9.549258947372436523e-01 6.411240100860595703e+00 1.636894345283508301e+00 3.111759424209594727e-01
2.208000000000000000e+03 6.270748138427734375e+01 2.192456436157226562e+01 -7.642690837383270264e-02 7.815702438354492188e+00 2.321782588958740234e+00 3.969802558422088623e-01
2.209000000000000000e+03 6.720439910888671875e+01 2.645342826843261719e+01 -8.725097775459289551e-02 7.905939579010009766e+00 2.345606565475463867e+00 2.929939925670623779e-01
2.210000000000000000e+03 6.204547500610351562e+01 -1.137903118133544922e+01 2.691328525543212891e-01 7.570602893829345703e+00 2.351920604705810547e+00 -2.142401188611984253e-01
2.211000000000000000e+03 6.000813674926757812e+01 -1.435346794128417969e+01 2.536403238773345947e-01 7.614763736724853516e+00 2.360521316528320312e+00 -3.125099837779998779e-01
2.212000000000000000e+03 3.700545501708984375e+01 -7.877483367919921875e+00 1.962007880210876465e+00 7.981751441955566406e+00 2.983127832412719727e+00 -3.338833153247833252e-01
2.213000000000000000e+03 3.723194122314453125e+01 -1.111269593238830566e+00 1.573586344718933105e+00 8.149301528930664062e+00 2.916866540908813477e+00 4.636754393577575684e-01
2.214000000000000000e+03 3.627834320068359375e+01 2.378009557723999023e+00 1.050861477851867676e+00 8.356018066406250000e+00 2.822063684463500977e+00 5.291825532913208008e-01
2.215000000000000000e+03 3.524456405639648438e+01 1.647120416164398193e-01 1.403450489044189453e+00 8.480406761169433594e+00 2.965157270431518555e+00 5.708876848220825195e-01
2.216000000000000000e+03 3.357315826416015625e+01 1.271563887596130371e+00 1.127747774124145508e+00 8.795264244079589844e+00 2.976903676986694336e+00 5.544510483741760254e-01
2.217000000000000000e+03 3.127360725402832031e+01 -2.029803276062011719e+01 -4.486414194107055664e-01 8.213513374328613281e+00 2.329461574554443359e+00 -2.348206192255020142e-01
2.218000000000000000e+03 3.335676574707031250e+01 -2.069017601013183594e+01 -3.662328720092773438e-01 8.183435440063476562e+00 2.345160722732543945e+00 -4.203449487686157227e-01
2.219000000000000000e+03 6.002828216552734375e+01 -5.461311340332031250e+00 4.058729410171508789e-01 7.532813072204589844e+00 2.381605863571166992e+00 -4.130969196557998657e-02
2.220000000000000000e+03 6.240016555786132812e+01 -3.508412599563598633e+00 3.214400708675384521e-01 7.531925201416015625e+00 2.356009721755981445e+00 3.119214810431003571e-02
2.221000000000000000e+03 6.173526000976562500e+01 -8.957071304321289062e+00 3.118426203727722168e-01 7.549970626831054688e+00 2.358543872833251953e+00 -1.462734192609786987e-01
2.222000000000000000e+03 3.566754913330078125e+01 4.024401187896728516e+00 8.089951276779174805e-01 8.405426979064941406e+00 2.764326572418212891e+00 4.571991264820098877e-01
2.223000000000000000e+03 5.860970306396484375e+01 -2.105097770690917969e+01 5.991358309984207153e-02 7.732702732086181641e+00 2.337785005569458008e+00 -4.199744760990142822e-01
2.224000000000000000e+03 5.757542419433593750e+01 1.069761848449707031e+01 2.030526995658874512e-01 7.667155742645263672e+00 2.361062526702880859e+00 4.477734863758087158e-01
2.225000000000000000e+03 6.283058166503906250e+01 4.668318748474121094e+00 2.410597354173660278e-01 7.582874298095703125e+00 2.347180128097534180e+00 2.672005295753479004e-01
2.226000000000000000e+03 6.181486511230468750e+01 -4.214948415756225586e-01 3.287854194641113281e-01 7.543258666992187500e+00 2.361613273620605469e+00 1.288489699363708496e-01
2.227000000000000000e+03 3.468299102783203125e+01 -1.450942611694335938e+01 8.521145582199096680e-01 8.432127952575683594e+00 2.785272836685180664e+00 -8.753530979156494141e-01
2.228000000000000000e+03 3.595769500732421875e+01 -1.119574356079101562e+01 1.609368324279785156e+00 8.177143096923828125e+00 2.935953378677368164e+00 -7.408715486526489258e-01
2.229000000000000000e+03 6.153529357910156250e+01 1.032218456268310547e+01 1.599649041891098022e-01 7.656260013580322266e+00 2.344867467880249023e+00 3.891316950321197510e-01
2.230000000000000000e+03 6.340632247924804688e+01 8.480763435363769531e+00 1.681909859180450439e-01 7.626963615417480469e+00 2.338546276092529297e+00 3.340012729167938232e-01
2.231000000000000000e+03 6.007104873657226562e+01 3.873926162719726562e+00 3.227196335792541504e-01 7.579082489013671875e+00 2.370540618896484375e+00 2.718408703804016113e-01
2.232000000000000000e+03 6.077806854248046875e+01 2.325473213195800781e+01 -1.195345222949981689e-01 7.821266651153564453e+00 2.310519456863403320e+00 4.057115614414215088e-01
2.233000000000000000e+03 3.567221450805664062e+01 9.504961013793945312e+00 3.389811217784881592e-01 8.083645820617675781e+00 2.526788234710693359e+00 3.014474213123321533e-01
2.234000000000000000e+03 6.649670410156250000e+01 -2.663801765441894531e+01 -6.208178773522377014e-02 7.768866539001464844e+00 2.312035560607910156e+00 -2.826414704322814941e-01
2.235000000000000000e+03 3.262249374389648438e+01 -2.492533683776855469e+01 -7.550817728042602539e-01 7.773589134216308594e+00 2.105552196502685547e+00 -1.483828574419021606e-01
2.236000000000000000e+03 3.309360122680664062e+01 -2.270035552978515625e+01 -5.784404277801513672e-01 8.007088661193847656e+00 2.228594541549682617e+00 -2.926229536533355713e-01
2.237000000000000000e+03 6.156950378417968750e+01 -2.516241836547851562e+01 -6.283453106880187988e-02 7.777839660644531250e+00 2.314501523971557617e+00 -3.677709996700286865e-01
2.238000000000000000e+03 6.506197357177734375e+01 1.688060379028320312e+01 1.295103970915079117e-02 7.753288745880126953e+00 2.329871892929077148e+00 3.816882669925689697e-01
2.239000000000000000e+03 6.175926208496093750e+01 2.016841125488281250e+01 -5.189491063356399536e-02 7.790444374084472656e+00 2.321564674377441406e+00 4.202068150043487549e-01
2.240000000000000000e+03 3.781920623779296875e+01 -1.126593303680419922e+01 1.434230685234069824e+00 7.996034622192382812e+00 2.829079627990722656e+00 -6.722019314765930176e-01
2.241000000000000000e+03 3.766935729980468750e+01 -9.559522628784179688e+00 1.673208951950073242e+00 7.952003955841064453e+00 2.887563943862915039e+00 -5.232370495796203613e-01
2.242000000000000000e+03 3.529458236694335938e+01 -1.860396766662597656e+01 3.491260856389999390e-02 8.269481658935546875e+00 2.491318225860595703e+00 -6.851651668548583984e-01
2.243000000000000000e+03 5.895623397827148438e+01 1.925395393371582031e+01 -4.894102364778518677e-02 7.771947383880615234e+00 2.316901922225952148e+00 4.581994116306304932e-01
2.244000000000000000e+03 5.599074935913085938e+01 1.557396793365478516e+01 5.372339487075805664e-02 7.726608276367187500e+00 2.334099531173706055e+00 4.998379647731781006e-01
2.245000000000000000e+03 3.731001281738281250e+01 -4.302395343780517578e+00 1.941430568695068359e+00 7.994042396545410156e+00 2.980641841888427734e+00 1.589104831218719482e-01
2.246000000000000000e+03 3.109274291992187500e+01 -1.684376525878906250e+01 6.732368469238281250e-02 8.729973793029785156e+00 2.639189243316650391e+00 -4.968293309211730957e-01
2.247000000000000000e+03 3.304135513305664062e+01 -1.615209770202636719e+01 3.365293741226196289e-01 8.596723556518554688e+00 2.679975748062133789e+00 -7.393761277198791504e-01
2.248000000000000000e+03 3.776863479614257812e+01 -1.409106063842773438e+01 9.049463868141174316e-01 8.093528747558593750e+00 2.699542760848999023e+00 -8.213189840316772461e-01
2.249000000000000000e+03 5.782251358032226562e+01 1.295781230926513672e+01 1.264568567276000977e-01 7.696516036987304688e+00 2.346891880035400391e+00 4.676977097988128662e-01
2.250000000000000000e+03 5.755280685424804688e+01 8.272994995117187500e+00 2.764042913913726807e-01 7.637120723724365234e+00 2.374057531356811523e+00 4.098154008388519287e-01
2.251000000000000000e+03 3.793013763427734375e+01 -5.709646224975585938e+00 1.918361425399780273e+00 7.920851707458496094e+00 2.951763868331909180e+00 -8.713035844266414642e-03
2.252000000000000000e+03 3.877533340454101562e+01 -3.384783506393432617e+00 1.691376805305480957e+00 7.903954982757568359e+00 2.878599643707275391e+00 2.203350067138671875e-01
2.253000000000000000e+03 5.917639160156250000e+01 -9.072375297546386719e+00 3.898384273052215576e-01 7.555422306060791016e+00 2.383578062057495117e+00 -1.697479635477066040e-01
2.254000000000000000e+03 6.102234268188476562e+01 -1.280107402801513672e+01 2.687852978706359863e-01 7.589805603027343750e+00 2.357577323913574219e+00 -2.605817019939422607e-01
2.255000000000000000e+03 6.136857223510742188e+01 -2.397752046585083008e+00 3.523086309432983398e-01 7.535749912261962891e+00 2.366417646408081055e+00 7.248021662235260010e-02
2.256000000000000000e+03 6.012656021118164062e+01 -3.234416007995605469e+00 3.982786238193511963e-01 7.534834384918212891e+00 2.379933834075927734e+00 4.699065163731575012e-02
2.257000000000000000e+03 3.756615447998046875e+01 -1.275619506835937500e+01 1.182443499565124512e+00 8.069396018981933594e+00 2.775552034378051758e+00 -7.622823715209960938e-01
2.258000000000000000e+03 6.248490142822265625e+01 -1.679943203926086426e+00 3.145701885223388672e-01 7.537464618682861328e+00 2.355610370635986328e+00 9.008228778839111328e-02
2.259000000000000000e+03 3.244835662841796875e+01 -1.755971717834472656e+01 8.747465908527374268e-03 8.495735168457031250e+00 2.551344871520996094e+00 -5.548653602600097656e-01
2.260000000000000000e+03 3.698057937622070312e+01 -1.627480888366699219e+01 5.181640982627868652e-01 8.187143325805664062e+00 2.611592054367065430e+00 -8.238800764083862305e-01
2.261000000000000000e+03 6.190517425537109375e+01 3.431730031967163086e+00 2.782050967216491699e-01 7.572968959808349609e+00 2.355352163314819336e+00 2.459352761507034302e-01
2.262000000000000000e+03 6.018745422363281250e+01 2.149272203445434570e+00 3.535999953746795654e-01 7.561671733856201172e+00 2.374581575393676758e+00 2.253204137086868286e-01
2.263000000000000000e+03 6.333166503906250000e+01 2.652969121932983398e+00 2.503605782985687256e-01 7.561976909637451172e+00 2.343701362609863281e+00 2.092452347278594971e-01
2.264000000000000000e+03 6.159241104125976562e+01 8.354833602905273438e+00 2.030658423900604248e-01 7.629333496093750000e+00 2.349719762802124023e+00 3.583937287330627441e-01
2.265000000000000000e+03 3.387791824340820312e+01 1.323448181152343750e+01 1.027992963790893555e-01 7.818604469299316406e+00 2.376421213150024414e+00 1.639041453599929810e-01
2.266000000000000000e+03 3.425877380371093750e+01 9.893140792846679688e+00 3.064835667610168457e-01 8.072050094604492188e+00 2.513560056686401367e+00 2.084310352802276611e-01
2.267000000000000000e+03 3.569303131103515625e+01 7.923374652862548828e+00 4.520370364189147949e-01 8.171842575073242188e+00 2.587163925170898438e+00 3.372636437416076660e-01
2.268000000000000000e+03 5.847949600219726562e+01 -1.317815685272216797e+01 3.247054815292358398e-01 7.602188110351562500e+00 2.378068208694458008e+00 -3.046782910823822021e-01
2.269000000000000000e+03 3.719741058349609375e+01 4.858392238616943359e+00 7.635304331779479980e-01 8.216033935546875000e+00 2.693869352340698242e+00 4.837394952774047852e-01
2.270000000000000000e+03 3.797182464599609375e+01 7.482259750366210938e+00 5.276557803153991699e-01 8.063558578491210938e+00 2.577364206314086914e+00 4.626490175724029541e-01
2.271000000000000000e+03 5.991407394409179688e+01 6.004953384399414062e+00 2.877027094364166260e-01 7.601483345031738281e+00 2.366755962371826172e+00 3.296454548835754395e-01
2.272000000000000000e+03 5.767505264282226562e+01 -2.700920104980468750e+00 4.875285923480987549e-01 7.535602569580078125e+00 2.406939268112182617e+00 7.373778522014617920e-02
2.273000000000000000e+03 5.879471588134765625e+01 -6.573885440826416016e+00 4.369551539421081543e-01 7.539613246917724609e+00 2.392970561981201172e+00 -8.562870323657989502e-02
2.274000000000000000e+03 5.589084625244140625e+01 1.337623596191406250e+01 1.280702203512191772e-01 7.702951908111572266e+00 2.349306583404541016e+00 4.904383718967437744e-01
2.275000000000000000e+03 5.977075576782226562e+01 1.257063770294189453e+01 1.247659623622894287e-01 7.689215183258056641e+00 2.344194412231445312e+00 4.400062859058380127e-01
2.276000000000000000e+03 3.840956115722656250e+01 1.401098728179931641e+00 1.193480610847473145e+00 8.109057426452636719e+00 2.790761232376098633e+00 5.136951804161071777e-01
2.277000000000000000e+03 3.678287506103515625e+01 6.654201745986938477e-01 1.303025960922241211e+00 8.272881507873535156e+00 2.872772216796875000e+00 5.323605537414550781e-01
2.278000000000000000e+03 3.466043090820312500e+01 -2.793337821960449219e+01 -8.416536450386047363e-01 7.674267768859863281e+00 2.049784183502197266e+00 -1.988319456577301025e-01
2.279000000000000000e+03 3.426239013671875000e+01 3.313105106353759766e+00 8.301063776016235352e-01 8.604947090148925781e+00 2.830516099929809570e+00 4.391987025737762451e-01
2.280000000000000000e+03 5.973387908935546875e+01 2.127454757690429688e+01 -8.923330903053283691e-02 7.795675277709960938e+00 2.311932563781738281e+00 4.359434247016906738e-01
2.281000000000000000e+03 5.734118652343750000e+01 -1.480795001983642578e+01 2.984385490417480469e-01 7.633110046386718750e+00 2.379464626312255859e+00 -3.655129075050354004e-01
2.282000000000000000e+03 4.181125640869140625e+01 -5.916319370269775391e+00 1.484509944915771484e+00 7.699368953704833984e+00 2.755163669586181641e+00 -8.885248005390167236e-02
2.283000000000000000e+03 6.089692687988281250e+01 8.469935059547424316e-01 3.515956401824951172e-01 7.548662662506103516e+00 2.370077371597290039e+00 1.767046153545379639e-01
2.284000000000000000e+03 3.511001205444335938e+01 1.496624088287353516e+01 1.172088086605072021e-02 7.738338947296142578e+00 2.325017929077148438e+00 2.415953278541564941e-01
2.285000000000000000e+03 3.784300613403320312e+01 3.159619092941284180e+00 9.705111980438232422e-01 8.180088043212890625e+00 2.745179891586303711e+00 5.152838826179504395e-01
2.286000000000000000e+03 3.905736923217773438e+01 -3.662116825580596924e-01 1.397656917572021484e+00 7.992805004119873047e+00 2.817138671875000000e+00 4.321336150169372559e-01
2.287000000000000000e+03 3.868383789062500000e+01 -7.290507793426513672e+00 1.796936273574829102e+00 7.848669528961181641e+00 2.893681764602661133e+00 -2.438402771949768066e-01
2.288000000000000000e+03 5.488060379028320312e+01 -8.024834632873535156e+00 5.717251896858215332e-01 7.547751903533935547e+00 2.435843229293823242e+00 -1.619343310594558716e-01
2.289000000000000000e+03 5.572947692871093750e+01 1.127667427062988281e+01 2.072564065456390381e-01 7.678935050964355469e+00 2.365857601165771484e+00 4.762739837169647217e-01
2.290000000000000000e+03 3.558675384521484375e+01 -2.083430290222167969e+01 -2.641221880912780762e-01 8.138715744018554688e+00 2.362378120422363281e+00 -5.587339997291564941e-01
2.291000000000000000e+03 5.875030517578125000e+01 -4.150104522705078125e+00 4.606019556522369385e-01 7.529877662658691406e+00 2.397143840789794922e+00 1.456139795482158661e-02
2.292000000000000000e+03 5.729010772705078125e+01 -5.191689014434814453e+00 5.163406729698181152e-01 7.531834125518798828e+00 2.414452314376831055e+00 -4.002656787633895874e-02
2.293000000000000000e+03 6.048463439941406250e+01 -1.154899477958679199e+00 3.755238354206085205e-01 7.541973114013671875e+00 2.375249147415161133e+00 1.154379695653915405e-01
2.294000000000000000e+03 3.804958343505859375e+01 1.033984375000000000e+01 3.114972710609436035e-01 7.953455448150634766e+00 2.479485988616943359e+00 4.259992539882659912e-01
2.295000000000000000e+03 5.785264205932617188e+01 -1.787142562866210938e+01 1.798878163099288940e-01 7.683204650878906250e+00 2.358927726745605469e+00 -4.087340831756591797e-01
2.296000000000000000e+03 5.625039672851562500e+01 1.785222053527832031e+01 -2.211993187665939331e-02 7.750482082366943359e+00 2.318508625030517578e+00 4.939132332801818848e-01
2.297000000000000000e+03 5.389166259765625000e+01 1.593346786499023438e+01 4.440881311893463135e-02 7.729913711547851562e+00 2.332296848297119141e+00 5.185406804084777832e-01
2.298000000000000000e+03 3.969647216796875000e+01 -1.196023178100585938e+01 1.197142958641052246e+00 7.890733718872070312e+00 2.726362943649291992e+00 -6.560367941856384277e-01
2.299000000000000000e+03 3.953776931762695312e+01 -8.979963302612304688e+00 1.558427214622497559e+00 7.823021411895751953e+00 2.814434528350830078e+00 -4.307706058025360107e-01
2.300000000000000000e+03 5.552996063232421875e+01 1.023670673370361328e+00 5.271318554878234863e-01 7.560507297515869141e+00 2.426291704177856445e+00 2.304251790046691895e-01
2.301000000000000000e+03 3.762073516845703125e+01 -1.845762634277343750e+01 1.819484382867813110e-01 8.149522781372070312e+00 2.499441146850585938e+00 -7.557356953620910645e-01
2.302000000000000000e+03 3.965806961059570312e+01 -4.930410385131835938e+00 1.665818452835083008e+00 7.809712886810302734e+00 2.842659473419189453e+00 4.265907779335975647e-02
2.303000000000000000e+03 4.021774673461914062e+01 -1.911227345466613770e+00 1.461041450500488281e+00 7.855154037475585938e+00 2.794858694076538086e+00 2.866456508636474609e-01
2.304000000000000000e+03 4.063526153564453125e+01 6.926532387733459473e-01 1.199848532676696777e+00 7.890678882598876953e+00 2.727158308029174805e+00 4.334215521812438965e-01
2.305000000000000000e+03 5.959451675415039062e+01 1.672359704971313477e-01 3.951694369316101074e-01 7.547409057617187500e+00 2.382773637771606445e+00 1.518388390541076660e-01
2.306000000000000000e+03 5.837725448608398438e+01 -6.165174841880798340e-01 4.323394894599914551e-01 7.546042919158935547e+00 2.393514633178710938e+00 1.413672566413879395e-01
2.307000000000000000e+03 5.916739654541015625e+01 -1.934059977531433105e+00 4.255144000053405762e-01 7.538115024566650391e+00 2.389088869094848633e+00 9.568941593170166016e-02
2.308000000000000000e+03 5.612702560424804688e+01 -1.655845451354980469e+01 2.527438700199127197e-01 7.672302246093750000e+00 2.377513885498046875e+00 -4.184117019176483154e-01
2.309000000000000000e+03 5.961227416992187500e+01 -1.905277061462402344e+01 1.185928136110305786e-01 7.693316459655761719e+00 2.343572854995727539e+00 -3.917808830738067627e-01
2.310000000000000000e+03 4.007804107666015625e+01 2.286637783050537109e+00 1.065945506095886230e+00 7.969605922698974609e+00 2.710665464401245117e+00 4.925470352172851562e-01
2.311000000000000000e+03 5.394644546508789062e+01 1.363039588928222656e+01 1.328274756669998169e-01 7.711162090301513672e+00 2.353196859359741211e+00 5.129960775375366211e-01
2.312000000000000000e+03 5.550236129760742188e+01 8.020092010498046875e+00 3.271296620368957520e-01 7.639547824859619141e+00 2.390003204345703125e+00 4.303458034992218018e-01
2.313000000000000000e+03 5.576618576049804688e+01 -1.351451396942138672e+01 3.889065384864807129e-01 7.616362571716308594e+00 2.401580810546875000e+00 -3.588516414165496826e-01
2.314000000000000000e+03 3.804063415527343750e+01 -2.085549926757812500e+01 -1.417802125215530396e-01 8.084650039672851562e+00 2.382860898971557617e+00 -6.602463126182556152e-01
2.315000000000000000e+03 4.133821868896484375e+01 -4.525598526000976562e+00 1.501544117927551270e+00 7.734452247619628906e+00 2.770798921585083008e+00 5.102084204554557800e-02
2.316000000000000000e+03 4.189002609252929688e+01 -2.938400506973266602e+00 1.414506316184997559e+00 7.740034103393554688e+00 2.746361970901489258e+00 1.730975061655044556e-01
2.317000000000000000e+03 4.166460800170898438e+01 -3.876438736915588379e-01 1.226631283760070801e+00 7.805327892303466797e+00 2.709587812423706055e+00 3.570042252540588379e-01
2.318000000000000000e+03 5.797908782958984375e+01 3.579985618591308594e+00 3.926786184310913086e-01 7.580324172973632812e+00 2.391901016235351562e+00 2.871856987476348877e-01
2.319000000000000000e+03 5.583657455444335938e+01 -3.512390375137329102e+00 5.805090069770812988e-01 7.532596111297607422e+00 2.433931589126586914e+00 4.202609136700630188e-02
2.320000000000000000e+03 5.518354034423828125e+01 -1.352094650268554688e+00 5.866418480873107910e-01 7.540796756744384766e+00 2.438231468200683594e+00 1.288755387067794800e-01
2.321000000000000000e+03 5.399885559082031250e+01 -4.967956066131591797e+00 6.556545495986938477e-01 7.536005973815917969e+00 2.457498073577880859e+00 -2.536401152610778809e-02
2.322000000000000000e+03 5.695979690551757812e+01 -1.194636726379394531e+01 4.050032496452331543e-01 7.587924003601074219e+00 2.397878170013427734e+00 -2.910793721675872803e-01
2.323000000000000000e+03 4.530936050415039062e+01 1.334712409973144531e+01 1.534959673881530762e-01 7.771276473999023438e+00 2.377431869506835938e+00 5.537220835685729980e-01
2.324000000000000000e+03 3.923931121826171875e+01 1.214394283294677734e+01 2.007637023925781250e-01 7.868863582611083984e+00 2.420888185501098633e+00 4.525462985038757324e-01
2.325000000000000000e+03 5.000861740112304688e+01 1.339079570770263672e+01 1.605940759181976318e-01 7.729515075683593750e+00 2.367032766342163086e+00 5.465063452720642090e-01
2.326000000000000000e+03 5.247740936279296875e+01 1.138973140716552734e+01 2.283831685781478882e-01 7.697328090667724609e+00 2.377713441848754883e+00 5.137197375297546387e-01
2.327000000000000000e+03 5.956755065917968750e+01 -1.167370891571044922e+01 3.310177028179168701e-01 7.579792022705078125e+00 2.373242855072021484e+00 -2.496614307165145874e-01
2.328000000000000000e+03 5.757133102416992188e+01 -2.320752906799316406e+01 -1.413491554558277130e-02 7.776906967163085938e+00 2.328831672668457031e+00 -4.415690004825592041e-01
2.329000000000000000e+03 3.236931610107421875e+01 1.983424758911132812e+01 -2.945142388343811035e-01 7.343462944030761719e+00 2.114684581756591797e+00 1.131235659122467041e-01
2.330000000000000000e+03 2.928823280334472656e+01 1.602011489868164062e+01 1.688519492745399475e-02 7.376876831054687500e+00 2.218128681182861328e+00 -1.362353265285491943e-01
2.331000000000000000e+03 3.846257781982421875e+01 1.577070808410644531e+01 -3.157623484730720520e-02 7.736353874206542969e+00 2.311433315277099609e+00 3.962021172046661377e-01
2.332000000000000000e+03 5.156207275390625000e+01 -1.533525562286376953e+01 4.193367958068847656e-01 7.677021026611328125e+00 2.428907394409179688e+00 -4.919798374176025391e-01
2.333000000000000000e+03 5.123211288452148438e+01 -1.750134849548339844e+01 2.904483675956726074e-01 7.729576587677001953e+00 2.406007528305053711e+00 -5.373302102088928223e-01
2.334000000000000000e+03 4.207896804809570312e+01 -1.163564014434814453e+01 1.094879388809204102e+00 7.775317192077636719e+00 2.661058902740478516e+00 -5.746505260467529297e-01
2.335000000000000000e+03 4.477772140502929688e+01 -1.003875827789306641e+01 1.060816287994384766e+00 7.652743816375732422e+00 2.614068031311035156e+00 -4.044442176818847656e-01
2.336000000000000000e+03 4.355420684814453125e+01 -3.761118173599243164e+00 1.272136569023132324e+00 7.661802291870117188e+00 2.680181503295898438e+00 7.064694911241531372e-02
2.337000000000000000e+03 5.575014114379882812e+01 5.705284595489501953e+00 3.948559165000915527e-01 7.610339164733886719e+00 2.401558637619018555e+00 3.714396953582763672e-01
2.338000000000000000e+03 5.404021453857421875e+01 -9.595443725585937500e+00 5.782597661018371582e-01 7.565805912017822266e+00 2.443219661712646484e+00 -2.381001710891723633e-01
2.339000000000000000e+03 5.546843338012695312e+01 -1.072035598754882812e+01 4.950264990329742432e-01 7.573221683502197266e+00 2.420474529266357422e+00 -2.634354829788208008e-01
2.340000000000000000e+03 4.901849365234375000e+01 1.007169532775878906e+01 3.415333926677703857e-01 7.714020252227783203e+00 2.416666030883789062e+00 5.254195332527160645e-01
2.341000000000000000e+03 5.190826034545898438e+01 7.561295509338378906e+00 4.275845587253570557e-01 7.654807090759277344e+00 2.424717426300048828e+00 4.613642990589141846e-01
2.342000000000000000e+03 4.058522415161132812e+01 6.964097023010253906e+00 5.948203206062316895e-01 7.942204952239990234e+00 2.561107635498046875e+00 5.252953767776489258e-01
2.343000000000000000e+03 4.469539260864257812e+01 8.896636009216308594e+00 4.399967789649963379e-01 7.786998748779296875e+00 2.468098640441894531e+00 5.426169037818908691e-01
2.344000000000000000e+03 5.312755966186523438e+01 9.482082366943359375e+00 3.127472102642059326e-01 7.670937061309814453e+00 2.395105123519897461e+00 4.814425706863403320e-01
2.345000000000000000e+03 4.290582275390625000e+01 -7.158754825592041016e+00 1.350378394126892090e+00 7.664437770843505859e+00 2.704444885253906250e+00 -2.015038430690765381e-01
2.346000000000000000e+03 3.975896453857421875e+01 -2.753036308288574219e+01 -6.364954113960266113e-01 7.893778800964355469e+00 2.177185058593750000e+00 -4.556916058063507080e-01
2.347000000000000000e+03 3.830630874633789062e+01 -2.344868659973144531e+01 -4.086477458477020264e-01 7.999514102935791016e+00 2.277259826660156250e+00 -5.555807352066040039e-01
2.348000000000000000e+03 5.477767944335937500e+01 -1.840662193298339844e+01 1.933936625719070435e-01 7.714199066162109375e+00 2.372277975082397461e+00 -4.682442545890808105e-01
2.349000000000000000e+03 5.673094558715820312e+01 -1.980137825012207031e+01 1.137613356113433838e-01 7.726346492767333984e+00 2.352032423019409180e+00 -4.467660486698150635e-01
2.350000000000000000e+03 3.642728805541992188e+01 1.722704124450683594e+01 -1.319127827882766724e-01 7.644605159759521484e+00 2.253807783126831055e+00 3.076550960540771484e-01
2.351000000000000000e+03 3.167064476013183594e+01 2.329343605041503906e+01 -5.084216594696044922e-01 7.122861862182617188e+00 1.984332084655761719e+00 8.150205016136169434e-02
2.352000000000000000e+03 3.786046981811523438e+01 1.965283775329589844e+01 -2.643600702285766602e-01 7.583094596862792969e+00 2.195620536804199219e+00 3.502397239208221436e-01
2.353000000000000000e+03 4.458271026611328125e+01 -2.455469608306884766e+00 1.177391648292541504e+00 7.644910812377929688e+00 2.646690607070922852e+00 1.603984832763671875e-01
2.354000000000000000e+03 5.139514541625976562e+01 -1.210366916656494141e+01 5.953494906425476074e-01 7.611328601837158203e+00 2.462003469467163086e+00 -3.815793693065643311e-01
2.355000000000000000e+03 3.891024017333984375e+01 -1.336229038238525391e+01 1.012330174446105957e+00 7.981100559234619141e+00 2.698029279708862305e+00 -7.573764324188232422e-01
2.356000000000000000e+03 4.391216278076171875e+01 -8.566324234008789062e+00 1.212293148040771484e+00 7.650755405426025391e+00 2.658914566040039062e+00 -2.995546162128448486e-01
2.357000000000000000e+03 4.460678482055664062e+01 -3.703845664858818054e-02 1.062182307243347168e+00 7.692839145660400391e+00 2.626506328582763672e+00 3.223453164100646973e-01
2.358000000000000000e+03 4.364807891845703125e+01 3.642390966415405273e+00 8.435477018356323242e-01 7.787549972534179688e+00 2.589329242706298828e+00 4.745599925518035889e-01
2.359000000000000000e+03 4.312011718750000000e+01 -1.333474159240722656e+00 1.224247217178344727e+00 7.723514080047607422e+00 2.684328556060791016e+00 2.769756913185119629e-01
2.360000000000000000e+03 5.778544235229492188e+01 5.865911006927490234e+00 3.479216992855072021e-01 7.604349136352539062e+00 2.385681152343750000e+00 3.522137999534606934e-01
2.361000000000000000e+03 5.368439483642578125e+01 3.516974210739135742e+00 5.234836339950561523e-01 7.594237327575683594e+00 2.435316324234008789e+00 3.339208066463470459e-01
2.362000000000000000e+03 5.859463882446289062e+01 1.650634407997131348e+00 4.145984649658203125e-01 7.558385848999023438e+00 2.391895294189453125e+00 2.224508821964263916e-01
2.363000000000000000e+03 3.951753616333007812e+01 4.061995029449462891e+00 8.676575422286987305e-01 8.031381607055664062e+00 2.669711828231811523e+00 5.193120837211608887e-01
2.364000000000000000e+03 4.322207260131835938e+01 5.773913860321044922e+00 6.838657855987548828e-01 7.820412158966064453e+00 2.551283359527587891e+00 5.181229114532470703e-01
2.365000000000000000e+03 4.054542541503906250e+01 -2.064211273193359375e+01 -2.920451946556568146e-02 8.009975433349609375e+00 2.394231081008911133e+00 -6.990230679512023926e-01
2.366000000000000000e+03 3.997583389282226562e+01 -1.833085441589355469e+01 2.732512056827545166e-01 8.024135589599609375e+00 2.489216089248657227e+00 -7.632266283035278320e-01
2.367000000000000000e+03 5.449911880493164062e+01 -1.512641906738281250e+01 3.445850610733032227e-01 7.655063629150390625e+00 2.399894714355468750e+00 -4.270699620246887207e-01
2.368000000000000000e+03 5.175945281982421875e+01 5.814560413360595703e+00 4.899321198463439941e-01 7.637646675109863281e+00 2.438273668289184570e+00 4.218396544456481934e-01
2.369000000000000000e+03 4.217817306518554688e+01 1.230478882789611816e+00 1.081208705902099609e+00 7.813480854034423828e+00 2.668406724929809570e+00 4.165735840797424316e-01
2.370000000000000000e+03 4.073934555053710938e+01 -1.049577808380126953e+01 1.309176445007324219e+00 7.803103923797607422e+00 2.733684062957763672e+00 -5.232395529747009277e-01
2.371000000000000000e+03 4.503989028930664062e+01 -4.664586067199707031e+00 1.170727610588073730e+00 7.619050502777099609e+00 2.636933326721191406e+00 -1.653551356866955757e-03
2.372000000000000000e+03 4.985280609130859375e+01 -1.061440086364746094e+01 7.281879782676696777e-01 7.595390796661376953e+00 2.497073650360107422e+00 -3.453828692436218262e-01
2.373000000000000000e+03 5.295134353637695312e+01 -1.098730444908142090e+00 6.714106202125549316e-01 7.549496173858642578e+00 2.466272115707397461e+00 1.544722914695739746e-01
2.374000000000000000e+03 5.375968551635742188e+01 5.643001079559326172e+00 4.469834268093109131e-01 7.620683193206787109e+00 2.420300006866455078e+00 3.930923044681549072e-01
2.375000000000000000e+03 4.416914367675781250e+01 -5.989170551300048828e+00 1.259224891662597656e+00 7.628107547760009766e+00 2.666199684143066406e+00 -9.950154274702072144e-02
2.376000000000000000e+03 5.135407638549804688e+01 1.720204472541809082e+00 6.669304370880126953e-01 7.589060783386230469e+00 2.476797342300415039e+00 2.977549433708190918e-01
2.377000000000000000e+03 4.939746475219726562e+01 2.171290159225463867e+00 7.285288572311401367e-01 7.619449615478515625e+00 2.504393577575683594e+00 3.378456234931945801e-01
2.378000000000000000e+03 5.476664733886718750e+01 9.958843231201171875e+00 2.639605402946472168e-01 7.667871952056884766e+00 2.379549741744995117e+00 4.705489575862884521e-01
2.379000000000000000e+03 5.362373352050781250e+01 7.639520645141601562e+00 3.835343122482299805e-01 7.643688201904296875e+00 2.408166646957397461e+00 4.459460675716400146e-01
2.380000000000000000e+03 5.085282897949218750e+01 -6.899275779724121094e+00 7.918936014175415039e-01 7.551133632659912109e+00 2.502908229827880859e+00 -1.327849626541137695e-01
2.381000000000000000e+03 4.609025955200195312e+01 7.492957711219787598e-01 9.378916025161743164e-01 7.661044597625732422e+00 2.579680919647216797e+00 3.338306546211242676e-01
2.382000000000000000e+03 4.985395812988281250e+01 -1.387656116485595703e+01 5.483541488647460938e-01 7.663727283477783203e+00 2.463624477386474609e+00 -4.861920475959777832e-01
2.383000000000000000e+03 4.732676315307617188e+01 -4.426187515258789062e+00 1.008311629295349121e+00 7.583402633666992188e+00 2.577514410018920898e+00 8.774445392191410065e-03
2.384000000000000000e+03 4.825619506835937500e+01 -1.074403166770935059e+00 9.204256534576416016e-01 7.590239048004150391e+00 2.553199529647827148e+00 2.057813555002212524e-01
2.385000000000000000e+03 4.935136032104492188e+01 -7.960167407989501953e+00 8.606225848197937012e-01 7.567210674285888672e+00 2.528349876403808594e+00 -2.028808444738388062e-01
2.386000000000000000e+03 4.708708953857421875e+01 -8.476046562194824219e+00 9.823579788208007812e-01 7.589731693267822266e+00 2.571626901626586914e+00 -2.576142847537994385e-01
2.387000000000000000e+03 5.295845413208007812e+01 -7.038928031921386719e+00 7.019610404968261719e-01 7.541338920593261719e+00 2.472990036010742188e+00 -1.284608989953994751e-01
2.388000000000000000e+03 4.602581024169921875e+01 -3.458866357803344727e+00 1.088206410408020020e+00 7.608664989471435547e+00 2.609061479568481445e+00 7.569969445466995239e-02
2.389000000000000000e+03 4.613619232177734375e+01 -9.370335578918457031e+00 1.023534297943115234e+00 7.618812084197998047e+00 2.592703819274902344e+00 -3.432873487472534180e-01
2.390000000000000000e+03 4.559466934204101562e+01 -8.114358901977539062e+00 1.110822677612304688e+00 7.612054824829101562e+00 2.616863250732421875e+00 -2.478875964879989624e-01
2.391000000000000000e+03 4.746335601806640625e+01 8.805046081542968750e-01 8.693203926086425781e-01 7.632663249969482422e+00 2.550595045089721680e+00 3.140011727809906006e-01
2.392000000000000000e+03 4.577293777465820312e+01 2.231812477111816406e+00 8.735978007316589355e-01 7.690665721893310547e+00 2.569278955459594727e+00 3.930390477180480957e-01
2.393000000000000000e+03 4.586939620971679688e+01 -6.715285301208496094e+00 1.133409261703491211e+00 7.595839977264404297e+00 2.618774890899658203e+00 -1.516943126916885376e-01
2.394000000000000000e+03 4.864861297607421875e+01 -3.442338466644287109e+00 9.359228014945983887e-01 7.567822933197021484e+00 2.551123857498168945e+00 6.918377429246902466e-02
2.395000000000000000e+03 5.189302062988281250e+01 -3.395091772079467773e+00 7.548394799232482910e-01 7.540797710418701172e+00 2.488691091537475586e+00 4.691879823803901672e-02
2.396000000000000000e+03 4.779349136352539062e+01 -7.127677440643310547e+00 9.678537249565124512e-01 7.573505878448486328e+00 2.562407970428466797e+00 -1.738509088754653931e-01
2.397000000000000000e+03 4.752770996093750000e+01 4.324431896209716797e+00 6.910440921783447266e-01 7.678696155548095703e+00 2.510922193527221680e+00 4.350690543651580811e-01
2.398000000000000000e+03 4.838729476928710938e+01 -9.427395820617675781e+00 8.766449093818664551e-01 7.590987682342529297e+00 2.540289640426635742e+00 -3.036606609821319580e-01
2.399000000000000000e+03 5.079430389404296875e+01 -8.839727401733398438e+00 7.351086139678955078e-01 7.567022323608398438e+00 2.490639209747314453e+00 -2.456975728273391724e-01
2.400000000000000000e+03 5.156493759155273438e+01 9.101151466369628906e+00 3.437669277191162109e-01 7.680810928344726562e+00 2.407373428344726562e+00 4.959652423858642578e-01
2.401000000000000000e+03 4.966810989379882812e+01 6.360852718353271484e+00 5.127401351928710938e-01 7.668889999389648438e+00 2.454488992691040039e+00 4.673513770103454590e-01
2.402000000000000000e+03 4.578789520263671875e+01 -1.150862979888916016e+01 8.922174572944641113e-01 7.669815540313720703e+00 2.568609952926635742e+00 -4.787897467613220215e-01
2.403000000000000000e+03 4.901480102539062500e+01 4.110121130943298340e-01 8.247907161712646484e-01 7.599124431610107422e+00 2.527174472808837891e+00 2.734348475933074951e-01
2.404000000000000000e+03 4.646342086791992188e+01 -5.423283576965332031e+00 1.095491647720336914e+00 7.589780330657958984e+00 2.605581760406494141e+00 -6.557136029005050659e-02
2.405000000000000000e+03 5.001330184936523438e+01 -4.996006011962890625e+00 8.581472635269165039e-01 7.548585891723632812e+00 2.522019863128662109e+00 -4.143095389008522034e-02
2.406000000000000000e+03 5.160391998291015625e+01 3.801847934722900391e+00 5.762503743171691895e-01 7.612154006958007812e+00 2.456521272659301758e+00 3.718905150890350342e-01
2.407000000000000000e+03 4.843579864501953125e+01 -1.208631801605224609e+01 7.224605679512023926e-01 7.642145156860351562e+00 2.509381771087646484e+00 -4.512479603290557861e-01
2.408000000000000000e+03 5.314015197753906250e+01 -1.674671363830566406e+01 2.815361618995666504e-01 7.697098731994628906e+00 2.393590450286865234e+00 -4.789350628852844238e-01
2.409000000000000000e+03 4.805614852905273438e+01 -5.643085479736328125e+00 9.766277074813842773e-01 7.565733909606933594e+00 2.562708377838134766e+00 -8.558785915374755859e-02
2.410000000000000000e+03 4.954390716552734375e+01 4.159785270690917969e+00 6.358908414840698242e-01 7.641098499298095703e+00 2.483096837997436523e+00 4.084390699863433838e-01
2.411000000000000000e+03 4.555383300781250000e+01 4.122464656829833984e+00 7.589075565338134766e-01 7.725584506988525391e+00 2.545347690582275391e+00 4.593360126018524170e-01
2.412000000000000000e+03 5.075969314575195312e+01 1.094925785064697266e+01 2.741598784923553467e-01 7.701703548431396484e+00 2.392759084701538086e+00 5.202947258949279785e-01
2.413000000000000000e+03 4.719060897827148438e+01 -1.060459423065185547e+01 8.805688619613647461e-01 7.625532627105712891e+00 2.551830530166625977e+00 -3.932781815528869629e-01
2.414000000000000000e+03 4.755719375610351562e+01 2.409317731857299805e+00 7.914881706237792969e-01 7.651443004608154297e+00 2.532879352569580078e+00 3.742706775665283203e-01
2.415000000000000000e+03 4.335453796386718750e+01 -1.080124950408935547e+01 1.102172255516052246e+00 7.710053920745849609e+00 2.643667936325073242e+00 -4.881822466850280762e-01
2.416000000000000000e+03 4.207960510253906250e+01 -1.817872428894042969e+01 3.036561310291290283e-01 7.941552162170410156e+00 2.473562479019165039e+00 -7.440766692161560059e-01
2.417000000000000000e+03 5.166979598999023438e+01 -1.999343872070312500e+01 1.267773211002349854e-01 7.775248050689697266e+00 2.370607614517211914e+00 -5.482731461524963379e-01
2.418000000000000000e+03 4.744977569580078125e+01 6.645042896270751953e+00 5.500575304031372070e-01 7.706861972808837891e+00 2.477075815200805664e+00 4.985894858837127686e-01
2.419000000000000000e+03 4.288142776489257812e+01 -1.279642581939697266e+01 9.064204096794128418e-01 7.776865005493164062e+00 2.604985713958740234e+00 -6.042163372039794922e-01
2.420000000000000000e+03 4.685419464111328125e+01 -1.317657375335693359e+01 7.167595028877258301e-01 7.686959743499755859e+00 2.521115779876708984e+00 -5.258383750915527344e-01
2.421000000000000000e+03 4.587174606323242188e+01 -1.591600227355957031e+01 5.096454024314880371e-01 7.772819042205810547e+00 2.484739303588867188e+00 -6.360085606575012207e-01
2.422000000000000000e+03 4.688372039794921875e+01 -2.142334365844726562e+01 2.772266790270805359e-02 7.867299079895019531e+00 2.368506431579589844e+00 -6.381006240844726562e-01
2.423000000000000000e+03 5.370663833618164062e+01 -2.041869163513183594e+01 1.115071475505828857e-01 7.762319564819335938e+00 2.362148046493530273e+00 -5.093796849250793457e-01
2.424000000000000000e+03 4.150075912475585938e+01 -1.448353195190429688e+01 7.961278557777404785e-01 7.881378650665283203e+00 2.603251934051513672e+00 -7.107688188552856445e-01
2.425000000000000000e+03 4.514919281005859375e+01 -1.390539836883544922e+01 7.071040868759155273e-01 7.742064476013183594e+00 2.534750699996948242e+00 -5.893992781639099121e-01
2.426000000000000000e+03 4.137944030761718750e+01 -1.280639457702636719e+01 9.844351410865783691e-01 7.841089725494384766e+00 2.647657394409179688e+00 -6.497197151184082031e-01
2.427000000000000000e+03 4.431965637207031250e+01 -1.223536682128906250e+01 9.020956158638000488e-01 7.714728832244873047e+00 2.585047483444213867e+00 -5.500363111495971680e-01
2.428000000000000000e+03 4.635819625854492188e+01 1.163655757904052734e+01 2.669160664081573486e-01 7.761441707611083984e+00 2.408507347106933594e+00 5.563258528709411621e-01
2.429000000000000000e+03 4.382957458496093750e+01 -1.621184539794921875e+01 5.191850066184997559e-01 7.830663204193115234e+00 2.504954338073730469e+00 -6.896171569824218750e-01
2.430000000000000000e+03 4.701781845092773438e+01 9.237769126892089844e+00 3.936173021793365479e-01 7.735515594482421875e+00 2.438740015029907227e+00 5.341274142265319824e-01
2.431000000000000000e+03 4.973964691162109375e+01 1.618486022949218750e+01 2.762146852910518646e-02 7.744565486907958984e+00 2.331655979156494141e+00 5.471479892730712891e-01
2.432000000000000000e+03 5.403303146362304688e+01 1.842788124084472656e+01 -5.072638392448425293e-02 7.750737190246582031e+00 2.310003280639648438e+00 5.137111544609069824e-01
2.433000000000000000e+03 2.901526832580566406e+01 1.912879943847656250e+01 -2.127775251865386963e-01 7.116181373596191406e+00 2.071021318435668945e+00 -8.817356824874877930e-02
2.434000000000000000e+03 4.247376251220703125e+01 1.249674224853515625e+01 2.113708704710006714e-01 7.809966564178466797e+00 2.406401157379150391e+00 5.275892615318298340e-01
2.435000000000000000e+03 4.111622619628906250e+01 1.040389537811279297e+01 3.355047702789306641e-01 7.867909431457519531e+00 2.461024284362792969e+00 5.160437226295471191e-01
2.436000000000000000e+03 2.252624702453613281e+01 2.631501007080078125e+01 -6.113435029983520508e-01 5.689156532287597656e+00 1.523343920707702637e+00 -4.992561638355255127e-01
2.437000000000000000e+03 2.585393905639648438e+01 2.714245033264160156e+01 -7.022004723548889160e-01 6.225127220153808594e+00 1.656877994537353516e+00 -2.133812904357910156e-01
2.438000000000000000e+03 2.837980651855468750e+01 2.234841346740722656e+01 -4.461950063705444336e-01 6.854110717773437500e+00 1.922374725341796875e+00 -9.586918354034423828e-02
2.439000000000000000e+03 3.736324691772460938e+01 -2.818373870849609375e+01 -7.731146216392517090e-01 7.787197113037109375e+00 2.104224681854248047e+00 -3.299477100372314453e-01
2.440000000000000000e+03 6.007370376586914062e+01 2.690168380737304688e+01 -1.939697712659835815e-01 7.849428653717041016e+00 2.296637535095214844e+00 3.637407124042510986e-01
2.441000000000000000e+03 6.729978179931640625e+01 3.200392532348632812e+01 -1.362272948026657104e-01 7.979994297027587891e+00 2.353130102157592773e+00 2.062027156352996826e-01
2.442000000000000000e+03 5.991147994995117188e+01 3.379090499877929688e+01 -3.038976788520812988e-01 7.892655372619628906e+00 2.276627302169799805e+00 2.281801104545593262e-01
2.443000000000000000e+03 4.525188064575195312e+01 6.343432903289794922e+00 6.148790717124938965e-01 7.762259006500244141e+00 2.513141393661499023e+00 5.133301615715026855e-01
2.444000000000000000e+03 4.973442077636718750e+01 1.902633476257324219e+01 -1.104157343506813049e-01 7.747619152069091797e+00 2.291161060333251953e+00 5.230848789215087891e-01
2.445000000000000000e+03 2.544784927368164062e+01 3.141311454772949219e+01 -8.177688717842102051e-01 5.936802864074707031e+00 1.535710215568542480e+00 -1.888218224048614502e-01
2.446000000000000000e+03 2.232130050659179688e+01 3.297571182250976562e+01 -7.691827416419982910e-01 5.299093246459960938e+00 1.358973264694213867e+00 -3.014450967311859131e-01
2.447000000000000000e+03 1.827859306335449219e+01 -3.074280166625976562e+01 -4.954746961593627930e-01 4.153326511383056641e+00 1.097355604171752930e+00 6.784353852272033691e-01
2.448000000000000000e+03 3.000907707214355469e+01 -3.308807754516601562e+01 -1.023670792579650879e+00 6.832957267761230469e+00 1.742785930633544922e+00 1.411627680063247681e-01
2.449000000000000000e+03 4.288634872436523438e+01 -1.998192787170410156e+01 1.103638485074043274e-01 7.928429126739501953e+00 2.411638021469116211e+00 -7.087237834930419922e-01
2.450000000000000000e+03 1.451019859313964844e+01 3.549028396606445312e+01 -4.613031148910522461e-01 3.398104906082153320e+00 8.810405135154724121e-01 -3.296196460723876953e-01
2.451000000000000000e+03 4.185989379882812500e+01 -1.633573150634765625e+01 5.034447312355041504e-01 7.912109851837158203e+00 2.524666547775268555e+00 -7.470511794090270996e-01
2.452000000000000000e+03 5.425715637207031250e+01 -1.219544315338134766e+01 4.902303218841552734e-01 7.600351810455322266e+00 2.427174568176269531e+00 -3.448894321918487549e-01
2.453000000000000000e+03 5.289155578613281250e+01 -1.079938697814941406e+01 5.926409363746643066e-01 7.585147380828857422e+00 2.453336477279663086e+00 -3.090120851993560791e-01
2.454000000000000000e+03 8.169734001159667969e+00 -4.099332046508789062e+01 -1.552444547414779663e-01 1.619351029396057129e+00 4.392319619655609131e-01 4.803339019417762756e-02
2.455000000000000000e+03 4.450393295288085938e+01 1.143682765960693359e+01 2.764484286308288574e-01 7.788273811340332031e+00 2.419416666030883789e+00 5.501616001129150391e-01
2.456000000000000000e+03 6.527074432373046875e+01 -3.664458465576171875e+01 -1.835180371999740601e-01 7.881113052368164062e+00 2.309278488159179688e+00 -1.345417797565460205e-01
2.457000000000000000e+03 3.196978378295898438e+01 -2.738235664367675781e+01 -8.868261575698852539e-01 7.491304397583007812e+00 1.981343388557434082e+00 -1.322337053716182709e-02
2.458000000000000000e+03 4.785848617553710938e+01 1.898105430603027344e+01 -1.243418827652931213e-01 7.742968559265136719e+00 2.285588026046752930e+00 5.229719281196594238e-01
2.459000000000000000e+03 3.581648254394531250e+01 2.103035354614257812e+01 -3.582403063774108887e-01 7.462409019470214844e+00 2.131250619888305664e+00 2.648040354251861572e-01
2.460000000000000000e+03 6.385266876220703125e+01 -3.319226455688476562e+01 -1.877133697271347046e-01 7.863246440887451172e+00 2.302659988403320312e+00 -2.222404181957244873e-01
2.461000000000000000e+03 4.290408325195312500e+01 3.378543090820312500e+01 -7.348234057426452637e-01 7.507621288299560547e+00 2.031839370727539062e+00 2.072969675064086914e-01
2.462000000000000000e+03 6.113691711425781250e+01 -3.686974334716796875e+01 -2.839495837688446045e-01 7.906207084655761719e+00 2.286677122116088867e+00 -1.530213057994842529e-01
2.463000000000000000e+03 5.655123519897460938e+01 -3.648108291625976562e+01 -4.106930494308471680e-01 7.936867237091064453e+00 2.257852077484130859e+00 -1.950753331184387207e-01
2.464000000000000000e+03 2.479681396484375000e+01 -3.456188201904296875e+01 -9.141278862953186035e-01 5.787913322448730469e+00 1.462135672569274902e+00 2.987550795078277588e-01
2.465000000000000000e+03 1.702564811706542969e+01 -3.760980224609375000e+01 -5.385202765464782715e-01 3.837446451187133789e+00 9.896779060363769531e-01 2.494797855615615845e-01
2.466000000000000000e+03 4.210395431518554688e+01 -3.722570800781250000e+01 -9.134641289710998535e-01 7.803754329681396484e+00 2.067087173461914062e+00 -1.607370823621749878e-01
2.467000000000000000e+03 3.757555770874023438e+01 -3.741462326049804688e+01 -1.035250067710876465e+00 7.548601627349853516e+00 1.954005479812622070e+00 -9.500046074390411377e-02
2.468000000000000000e+03 4.670981979370117188e+01 -3.662625122070312500e+01 -7.444766759872436523e-01 7.922982692718505859e+00 2.153551816940307617e+00 -2.079356908798217773e-01
2.469000000000000000e+03 5.883771896362304688e+01 3.715093612670898438e+01 -3.504551649093627930e-01 7.889793872833251953e+00 2.261801481246948242e+00 1.333303600549697876e-01
2.470000000000000000e+03 6.290957641601562500e+01 3.766465377807617188e+01 -2.519127428531646729e-01 7.946227550506591797e+00 2.308294534683227539e+00 1.109479442238807678e-01
2.471000000000000000e+03 2.274653053283691406e+01 3.674549865722656250e+01 -8.277816772460937500e-01 5.299507141113281250e+00 1.341517567634582520e+00 -1.678536236286163330e-01
2.472000000000000000e+03 7.158332824707031250e+01 -4.058620834350585938e+01 -7.362898439168930054e-02 7.895081043243408203e+00 2.346435546875000000e+00 -3.519920632243156433e-02
2.473000000000000000e+03 1.283456039428710938e+01 -3.784200286865234375e+01 -3.210461139678955078e-01 2.724215507507324219e+00 7.209508419036865234e-01 2.167509198188781738e-01
2.474000000000000000e+03 4.362416839599609375e+01 1.476520442962646484e+01 5.976748466491699219e-02 7.759410858154296875e+00 2.345753431320190430e+00 5.280742049217224121e-01
2.475000000000000000e+03 1.964905166625976562e+01 -3.353980636596679688e+01 -6.394341588020324707e-01 4.546153545379638672e+00 1.172015905380249023e+00 5.088056921958923340e-01
2.476000000000000000e+03 5.957610702514648438e+01 -2.431832885742187500e+01 -5.042487382888793945e-02 7.780301094055175781e+00 2.318962812423706055e+00 -4.055661261081695557e-01
2.477000000000000000e+03 6.063449859619140625e+01 -3.334686660766601562e+01 -2.581626772880554199e-01 7.886807441711425781e+00 2.288593530654907227e+00 -2.434223294258117676e-01
2.478000000000000000e+03 6.093824386596679688e+01 -2.751410675048828125e+01 -1.312323808670043945e-01 7.818125247955322266e+00 2.306067943572998047e+00 -3.539102673530578613e-01
2.479000000000000000e+03 3.783209228515625000e+01 -2.588960266113281250e+01 -6.023915410041809082e-01 7.905958175659179688e+00 2.191069841384887695e+00 -4.420306682586669922e-01
2.480000000000000000e+03 3.374649047851562500e+01 2.222703170776367188e+01 -4.315106570720672607e-01 7.311977863311767578e+00 2.064140081405639648e+00 1.721640825271606445e-01
2.481000000000000000e+03 5.617268371582031250e+01 2.623059654235839844e+01 -2.451357245445251465e-01 7.817468166351318359e+00 2.271699666976928711e+00 3.971187174320220947e-01
2.482000000000000000e+03 2.135199356079101562e+01 -3.672229385375976562e+01 -7.787674665451049805e-01 4.972972869873046875e+00 1.258261561393737793e+00 2.899583876132965088e-01
2.483000000000000000e+03 5.057429122924804688e+01 -2.363456344604492188e+01 -1.029769703745841980e-01 7.858849048614501953e+00 2.326761484146118164e+00 -5.520789623260498047e-01
2.484000000000000000e+03 4.630059432983398438e+01 1.819355583190917969e+01 -9.743718802928924561e-02 7.743004322052001953e+00 2.293670177459716797e+00 5.280069708824157715e-01
2.485000000000000000e+03 3.274963760375976562e+01 2.576333427429199219e+01 -6.161118149757385254e-01 7.097983837127685547e+00 1.944561600685119629e+00 1.070908233523368835e-01
2.486000000000000000e+03 4.401787567138671875e+01 -1.835477066040039062e+01 2.687432765960693359e-01 7.870491981506347656e+00 2.441770553588867188e+00 -7.038540840148925781e-01
2.487000000000000000e+03 3.984774780273437500e+01 1.808753776550292969e+01 -1.628943830728530884e-01 7.678596496582031250e+00 2.254710674285888672e+00 4.272959232330322266e-01
2.488000000000000000e+03 4.047103881835937500e+01 1.418749618530273438e+01 8.081050962209701538e-02 7.794500350952148438e+00 2.362593173980712891e+00 4.725651443004608154e-01
2.489000000000000000e+03 4.146431732177734375e+01 2.046321487426757812e+01 -2.760528028011322021e-01 7.654357910156250000e+00 2.213491439819335938e+00 4.380559027194976807e-01
2.490000000000000000e+03 3.899172592163085938e+01 2.683700942993164062e+01 -5.997667908668518066e-01 7.436098575592041016e+00 2.050899505615234375e+00 3.004092872142791748e-01
2.491000000000000000e+03 3.037850570678710938e+01 2.110308647155761719e+01 -3.601728379726409912e-01 7.136444568634033203e+00 2.032881498336791992e+00 5.000855308026075363e-03
2.492000000000000000e+03 3.750391387939453125e+01 -3.093860054016113281e+01 -8.829510807991027832e-01 7.692665576934814453e+00 2.042914390563964844e+00 -2.544510364532470703e-01
2.493000000000000000e+03 5.753170013427734375e+01 2.246653175354003906e+01 -1.414964050054550171e-01 7.799625873565673828e+00 2.297438859939575195e+00 4.441802799701690674e-01
2.494000000000000000e+03 5.709027481079101562e+01 3.287670135498046875e+01 -3.577538728713989258e-01 7.852737903594970703e+00 2.248495340347290039e+00 2.637181878089904785e-01
2.495000000000000000e+03 5.944913482666015625e+01 3.098996734619140625e+01 -2.605116963386535645e-01 7.872074604034423828e+00 2.283468961715698242e+00 2.931376695632934570e-01
2.496000000000000000e+03 5.194223785400390625e+01 2.171553230285644531e+01 -1.976365000009536743e-01 7.760556697845458984e+00 2.268876075744628906e+00 4.908106029033660889e-01
2.497000000000000000e+03 3.078081893920898438e+01 2.834405136108398438e+01 -7.498255968093872070e-01 6.783961772918701172e+00 1.810240745544433594e+00 3.509821137413382530e-03
2.498000000000000000e+03 3.367479705810546875e+01 -3.388145446777343750e+01 -1.037620782852172852e+00 7.249965667724609375e+00 1.863703489303588867e+00 -4.562138766050338745e-02
2.499000000000000000e+03 3.306674194335937500e+01 -3.722966003417968750e+01 -1.085859537124633789e+00 7.102478027343750000e+00 1.804985642433166504e+00 -1.985346339643001556e-02
2.500000000000000000e+03 2.751776885986328125e+01 2.915338134765625000e+01 -7.724608182907104492e-01 6.404255390167236328e+00 1.689538359642028809e+00 -1.247496977448463440e-01
2.501000000000000000e+03 5.440324401855468750e+01 2.102678108215332031e+01 -1.411191076040267944e-01 7.773337841033935547e+00 2.289665699005126953e+00 4.867638051509857178e-01
2.502000000000000000e+03 4.363832855224609375e+01 -2.951881790161132812e+01 -6.136515736579895020e-01 7.909100055694580078e+00 2.188634634017944336e+00 -4.401468336582183838e-01
2.503000000000000000e+03 4.516021728515625000e+01 -2.538381576538085938e+01 -3.222240209579467773e-01 7.929002761840820312e+00 2.282033681869506836e+00 -5.745611190795898438e-01
2.504000000000000000e+03 4.802143859863281250e+01 -2.466787528991699219e+01 -2.113244384527206421e-01 7.901340484619140625e+00 2.307004690170288086e+00 -5.714854598045349121e-01
2.505000000000000000e+03 2.963821411132812500e+01 2.432934379577636719e+01 -5.637962818145751953e-01 6.888326644897460938e+00 1.897359132766723633e+00 -2.820315584540367126e-02
2.506000000000000000e+03 5.430780792236328125e+01 -2.397643089294433594e+01 -6.549430638551712036e-02 7.822985649108886719e+00 2.327247381210327148e+00 -4.956154823303222656e-01
2.507000000000000000e+03 4.144316101074218750e+01 2.501302146911621094e+01 -4.868361055850982666e-01 7.573659896850585938e+00 2.126047134399414062e+00 3.737470507621765137e-01
2.508000000000000000e+03 4.713670730590820312e+01 2.160286903381347656e+01 -2.397784143686294556e-01 7.731066703796386719e+00 2.247386455535888672e+00 4.901998341083526611e-01
2.509000000000000000e+03 4.947952651977539062e+01 2.201150894165039062e+01 -2.305899262428283691e-01 7.743894577026367188e+00 2.253991365432739258e+00 4.913368225097656250e-01
2.510000000000000000e+03 4.410176849365234375e+01 -2.234908485412597656e+01 -1.058799251914024353e-01 7.925506114959716797e+00 2.345887899398803711e+00 -6.548444032669067383e-01
2.511000000000000000e+03 3.505239868164062500e+01 2.497216796875000000e+01 -5.674784779548645020e-01 7.273138523101806641e+00 2.011698007583618164e+00 2.062062025070190430e-01
2.512000000000000000e+03 5.495340728759765625e+01 3.067068672180175781e+01 -3.537249267101287842e-01 7.822592735290527344e+00 2.240660429000854492e+00 3.152459263801574707e-01
2.513000000000000000e+03 5.267676162719726562e+01 -2.615546417236328125e+01 -2.085451930761337280e-01 7.874538898468017578e+00 2.299798011779785156e+00 -4.882866144180297852e-01
2.514000000000000000e+03 4.604107666015625000e+01 2.484832382202148438e+01 -4.017545878887176514e-01 7.692555427551269531e+00 2.187240123748779297e+00 4.269455373287200928e-01
2.515000000000000000e+03 4.918407058715820312e+01 2.555126190185546875e+01 -3.707943856716156006e-01 7.738052845001220703e+00 2.210177421569824219e+00 4.250612258911132812e-01
2.516000000000000000e+03 4.778990554809570312e+01 1.670003890991210938e+01 -2.021403750404715538e-03 7.746707439422607422e+00 2.323405742645263672e+00 5.451543331146240234e-01
2.517000000000000000e+03 4.833924102783203125e+01 3.553491210937500000e+01 -5.931025147438049316e-01 7.702374935150146484e+00 2.132781744003295898e+00 1.914109140634536743e-01
2.518000000000000000e+03 4.150782394409179688e+01 -3.377339935302734375e+01 -8.551395535469055176e-01 7.817338943481445312e+00 2.088659763336181641e+00 -2.591249346733093262e-01
2.519000000000000000e+03 3.178691482543945312e+01 3.409669494628906250e+01 -9.018059968948364258e-01 6.690284729003906250e+00 1.736543655395507812e+00 3.959088772535324097e-02
2.520000000000000000e+03 2.829599380493164062e+01 3.341403961181640625e+01 -8.747833371162414551e-01 6.283804893493652344e+00 1.622706413269042969e+00 -8.894585818052291870e-02
2.521000000000000000e+03 3.623434448242187500e+01 2.822613525390625000e+01 -6.959481239318847656e-01 7.235225200653076172e+00 1.961783170700073242e+00 2.034707665443420410e-01
2.522000000000000000e+03 4.089264678955078125e+01 3.012112236022949219e+01 -6.727623939514160156e-01 7.471234321594238281e+00 2.039541721343994141e+00 2.645053565502166748e-01
2.523000000000000000e+03 3.774776840209960938e+01 3.178624916076660156e+01 -7.860287427902221680e-01 7.258654117584228516e+00 1.941787600517272949e+00 1.831010729074478149e-01
2.524000000000000000e+03 5.384559249877929688e+01 -3.079056739807128906e+01 -3.720279335975646973e-01 7.913122177124023438e+00 2.262328147888183594e+00 -3.650361299514770508e-01
2.525000000000000000e+03 5.687974929809570312e+01 -3.267729949951171875e+01 -3.366863131523132324e-01 7.911178588867187500e+00 2.272347688674926758e+00 -2.930686473846435547e-01
2.526000000000000000e+03 5.870063018798828125e+01 -2.675929641723632812e+01 -1.367041468620300293e-01 7.826686859130859375e+00 2.306994676589965820e+00 -3.932062387466430664e-01
2.527000000000000000e+03 4.629290771484375000e+01 3.147575187683105469e+01 -5.825367569923400879e-01 7.665267944335937500e+00 2.124819278717041016e+00 2.912966310977935791e-01
2.528000000000000000e+03 2.744700050354003906e+01 3.693162918090820312e+01 -9.228053689002990723e-01 6.073609352111816406e+00 1.545241117477416992e+00 -7.067541033029556274e-02
2.529000000000000000e+03 4.616014099121093750e+01 -2.837853813171386719e+01 -4.860715270042419434e-01 7.926261901855468750e+00 2.232057094573974609e+00 -4.845741093158721924e-01
2.530000000000000000e+03 4.990517044067382812e+01 2.947910881042480469e+01 -4.588208198547363281e-01 7.741895675659179688e+00 2.184922456741333008e+00 3.426082432270050049e-01
2.531000000000000000e+03 4.787899017333984375e+01 -3.091624259948730469e+01 -5.487277507781982422e-01 7.932236194610595703e+00 2.215052366256713867e+00 -3.832143843173980713e-01
2.532000000000000000e+03 5.160022735595703125e+01 -3.618291854858398438e+01 -5.695800185203552246e-01 7.952872753143310547e+00 2.214987754821777344e+00 -2.225853651762008667e-01
2.533000000000000000e+03 3.598309326171875000e+01 3.671527481079101562e+01 -8.842048645019531250e-01 7.078400611877441406e+00 1.858258605003356934e+00 7.950311899185180664e-02
2.534000000000000000e+03 3.872840106487274170e-01 2.098252058029174805e+00 -5.073659121990203857e-04 -1.517071359558030963e-04 -1.977219217224046588e-04 3.683938994072377682e-04
2.535000000000000000e+03 2.079578781127929688e+01 -4.406076908111572266e+00 1.639934182167053223e+00 2.367675781250000000e+00 1.202283024787902832e+00 -1.785733699798583984e+00
2.536000000000000000e+03 2.161744308471679688e+01 -4.303855419158935547e+00 1.961149930953979492e+00 5.003782272338867188e+00 2.089479684829711914e+00 -3.438771009445190430e+00
2.537000000000000000e+03 2.195247077941894531e+01 -4.655802726745605469e+00 2.374992132186889648e+00 5.715049743652343750e+00 2.427012681961059570e+00 -4.171159267425537109e+00
2.538000000000000000e+03 2.204697990417480469e+01 -4.419483184814453125e+00 2.049264907836914062e+00 6.641964435577392578e+00 2.607368707656860352e+00 -4.187235355377197266e+00
2.539000000000000000e+03 2.230221366882324219e+01 -4.729240894317626953e+00 2.274162292480468750e+00 7.927003383636474609e+00 3.060349702835083008e+00 -4.827431678771972656e+00
2.540000000000000000e+03 2.222733497619628906e+01 -4.528311729431152344e+00 2.057453870773315430e+00 7.640865802764892578e+00 2.909495830535888672e+00 -4.527937412261962891e+00
2.541000000000000000e+03 2.269321823120117188e+01 -4.368838310241699219e+00 1.173092722892761230e+00 1.088501644134521484e+01 3.617432832717895508e+00 -4.508239269256591797e+00
2.542000000000000000e+03 2.298056602478027344e+01 -4.387891769409179688e+00 8.820754885673522949e-01 1.300672245025634766e+01 4.166639328002929688e+00 -3.756972551345825195e+00
2.543000000000000000e+03 2.326548576354980469e+01 -4.502059936523437500e+00 4.302274286746978760e-01 1.551162719726562500e+01 4.782556533813476562e+00 -3.367279291152954102e+00
2.544000000000000000e+03 2.194842910766601562e+01 -7.955155849456787109e+00 4.809069633483886719e+00 5.080187797546386719e+00 2.966777324676513672e+00 5.091363430023193359e+00
2.545000000000000000e+03 2.099052238464355469e+01 -8.048332214355468750e+00 3.547742366790771484e+00 1.957276105880737305e+00 1.651505589485168457e+00 2.529668092727661133e+00
2.546000000000000000e+03 2.022063827514648438e+01 -8.031426429748535156e+00 2.411000967025756836e+00 1.271515369415283203e+00 1.104754924774169922e+00 1.299482703208923340e+00
2.547000000000000000e+03 6.914130449295043945e-01 3.044124603271484375e+00 8.782512741163372993e-04 8.423352846875786781e-04 5.161759327165782452e-04 -8.998214034363627434e-04
2.548000000000000000e+03 2.496399879455566406e+00 2.723386526107788086e+00 -5.808013374917209148e-04 4.693928640335798264e-04 -3.342253330629318953e-05 1.283898309338837862e-04
2.549000000000000000e+03 1.385220432281494141e+01 2.566479444503784180e+00 1.098852022551000118e-03 7.965806289575994015e-04 5.686297663487493992e-04 1.492497045546770096e-03
2.550000000000000000e+03 2.130804061889648438e+01 -3.691149950027465820e+00 1.268055677413940430e+00 4.935868263244628906e+00 1.861177206039428711e+00 -2.908264636993408203e+00
2.551000000000000000e+03 2.053755760192871094e+01 -2.698919296264648438e+00 4.666428267955780029e-01 3.911606788635253906e+00 1.313474893569946289e+00 -2.084635019302368164e+00
2.552000000000000000e+03 1.974289512634277344e+01 -8.833715438842773438e+00 2.024928331375122070e+00 1.606558322906494141e+00 1.089445948600769043e+00 1.745371103286743164e+00
2.553000000000000000e+03 2.040861320495605469e+01 -8.243542671203613281e+00 2.816849946975708008e+00 1.657632231712341309e+00 1.342344641685485840e+00 1.894809007644653320e+00
2.554000000000000000e+03 2.041797065734863281e+01 -7.976128578186035156e+00 2.760576486587524414e+00 1.224426746368408203e+00 1.195500969886779785e+00 1.521596908569335938e+00
2.555000000000000000e+03 2.281071853637695312e+01 -3.618511915206909180e+00 3.688692450523376465e-01 1.097443389892578125e+01 3.402991056442260742e+00 -3.638195276260375977e+00
2.556000000000000000e+03 2.242727470397949219e+01 -4.408349037170410156e+00 1.519493103027343750e+00 9.161478996276855469e+00 3.204291582107543945e+00 -4.510726451873779297e+00
2.557000000000000000e+03 1.296389865875244141e+01 -2.916701078414916992e+00 -3.282487450633198023e-04 6.056898928363807499e-05 -8.030392200453206897e-05 3.671126032713800669e-04
2.558000000000000000e+03 2.199600601196289062e+01 -8.439449310302734375e+00 3.802999734878540039e+00 6.748075008392333984e+00 3.165322303771972656e+00 5.148416042327880859e+00
2.559000000000000000e+03 2.186478424072265625e+01 -9.349987030029296875e+00 2.656488418579101562e+00 7.336688041687011719e+00 2.997952938079833984e+00 4.587109088897705078e+00
2.560000000000000000e+03 2.115285110473632812e+01 -8.276466369628906250e+00 3.684818506240844727e+00 2.832091569900512695e+00 1.955072999000549316e+00 3.155094623565673828e+00
2.561000000000000000e+03 3.072220087051391602e+00 3.732952117919921875e+01 2.209092956036329269e-03 6.049006581306457520e-01 1.821329295635223389e-01 -1.407322585582733154e-01
2.562000000000000000e+03 2.058566474914550781e+01 -8.864166259765625000e+00 2.851243495941162109e+00 2.702845811843872070e+00 1.666226744651794434e+00 2.728846788406372070e+00
2.563000000000000000e+03 1.524715328216552734e+01 2.053427124023437500e+01 1.451404094696044922e-01 3.997875452041625977e+00 1.242904782295227051e+00 -1.375819563865661621e+00
2.564000000000000000e+03 2.861363410949707031e+00 -1.704820251464843750e+01 -3.658717125654220581e-02 1.359624788165092468e-02 -6.897276733070611954e-03 -4.740542918443679810e-02
2.565000000000000000e+03 3.921639680862426758e+00 -1.044430541992187500e+01 5.325253587216138840e-04 -3.012675791978836060e-03 -7.440451299771666527e-04 6.032772944308817387e-04
2.566000000000000000e+03 2.377166175842285156e+01 2.869797897338867188e+01 -7.077023983001708984e-01 5.729809284210205078e+00 1.506632089614868164e+00 -3.417431712150573730e-01
2.567000000000000000e+03 1.810340309143066406e+01 1.679914093017578125e+01 7.485869526863098145e-01 5.765833854675292969e+00 1.954326272010803223e+00 -1.424601078033447266e+00
2.568000000000000000e+03 2.174138069152832031e+01 -8.541681289672851562e+00 3.674283027648925781e+00 5.566960811614990234e+00 2.772373199462890625e+00 4.654687404632568359e+00
2.569000000000000000e+03 2.142281532287597656e+01 -8.705135345458984375e+00 3.393079280853271484e+00 4.581561088562011719e+00 2.392392158508300781e+00 4.029677391052246094e+00
2.570000000000000000e+03 6.065714836120605469e+00 -3.450269699096679688e+00 3.411914221942424774e-04 7.572094182251021266e-05 1.250737113878130913e-04 -5.315023736329749227e-05
2.571000000000000000e+03 2.186175346374511719e+01 -1.009259605407714844e+01 1.828417181968688965e+00 7.252931118011474609e+00 2.724404573440551758e+00 3.973565340042114258e+00
2.572000000000000000e+03 2.312649726867675781e+01 -1.155489063262939453e+01 5.232914090156555176e-01 9.377015113830566406e+00 2.970092058181762695e+00 2.673922538757324219e+00
2.573000000000000000e+03 3.434367656707763672e+00 3.607850265502929688e+01 -4.123517719563096762e-04 7.135057449340820312e-01 2.139280140399932861e-01 -9.901867806911468506e-02
2.574000000000000000e+03 1.246909236907958984e+01 2.533137893676757812e+01 2.100182883441448212e-02 2.599462747573852539e+00 7.861393690109252930e-01 -9.898362159729003906e-01
2.575000000000000000e+03 3.292715311050415039e+00 4.642309665679931641e+00 1.667066535446792841e-04 1.485930639319121838e-03 4.957912024110555649e-04 -1.883424236439168453e-03
2.576000000000000000e+03 1.556510925292968750e+01 3.248848342895507812e+01 -4.582582414150238037e-01 3.733750820159912109e+00 9.826477766036987305e-01 -5.016438961029052734e-01
2.577000000000000000e+03 2.010070037841796875e+01 1.999692916870117188e+01 -7.437250763177871704e-02 5.769509792327880859e+00 1.708541154861450195e+00 -9.120212793350219727e-01
2.578000000000000000e+03 1.321868419647216797e+01 3.186943244934082031e+01 -3.123673200607299805e-01 3.034812450408935547e+00 8.167335391044616699e-01 -5.165770053863525391e-01
2.579000000000000000e+03 3.145884037017822266e+00 1.870942115783691406e+01 -2.516987547278404236e-02 3.224102780222892761e-02 2.121345838531851768e-03 7.833205908536911011e-02
2.580000000000000000e+03 2.213822555541992188e+01 -1.975210070610046387e+00 -5.996508896350860596e-02 8.134385108947753906e+00 2.422326087951660156e+00 -2.967388868331909180e+00
2.581000000000000000e+03 9.506938934326171875e+00 -3.012478590011596680e+00 8.249961683759465814e-05 -3.407190670259296894e-04 -7.746584014967083931e-05 1.003090947051532567e-04
2.582000000000000000e+03 8.601422309875488281e+00 -5.002013206481933594e+00 -3.753342898562550545e-04 3.375999513082206249e-04 -1.132029774453258142e-05 -1.561160206620115787e-05
2.583000000000000000e+03 1.839619827270507812e+01 -1.472264671325683594e+01 8.618828058242797852e-01 3.421760320663452148e+00 1.285092949867248535e+00 2.099620103836059570e+00
2.584000000000000000e+03 2.731249046325683594e+01 -3.634978055953979492e+00 2.597996711730957031e+00 1.141545581817626953e+01 4.204035758972167969e+00 1.355510711669921875e+00
2.585000000000000000e+03 1.709973144531250000e+01 1.974684143066406250e+01 1.253210008144378662e-01 4.938914299011230469e+00 1.519270658493041992e+00 -1.251232862472534180e+00
2.586000000000000000e+03 1.588561630249023438e+01 -2.394951057434082031e+01 -2.597988396883010864e-02 3.193509101867675781e+00 9.502587318420410156e-01 1.115609169006347656e+00
2.587000000000000000e+03 2.728694343566894531e+01 -2.905243635177612305e+00 1.733518958091735840e+00 1.142657279968261719e+01 3.948027610778808594e+00 1.101450920104980469e+00
2.588000000000000000e+03 4.326158142089843750e+01 1.853375816345214844e+01 -1.535042226314544678e-01 7.706664085388183594e+00 2.265948057174682617e+00 4.946671426296234131e-01
2.589000000000000000e+03 2.242205619812011719e+01 -2.464685249328613281e+01 -5.770667791366577148e-01 5.677871704101562500e+00 1.530241489410400391e+00 9.820101857185363770e-01
2.590000000000000000e+03 1.444262886047363281e+01 2.708473205566406250e+01 -2.374537140130996704e-01 3.440234899520874023e+00 9.608343243598937988e-01 -8.351708054542541504e-01
2.591000000000000000e+03 2.316138839721679688e+01 2.303084564208984375e+01 -4.346130788326263428e-01 6.098915576934814453e+00 1.699290752410888672e+00 -4.876230061054229736e-01
2.592000000000000000e+03 2.428971099853515625e+01 -1.460420250892639160e+00 -4.215540587902069092e-01 1.123229980468750000e+01 3.243223667144775391e+00 -1.519276618957519531e+00
2.593000000000000000e+03 1.997403335571289062e+01 -1.047750568389892578e+01 1.934246540069580078e+00 3.496652364730834961e+00 1.629269599914550781e+00 2.886980056762695312e+00
2.594000000000000000e+03 5.311922073364257812e+00 3.520499420166015625e+01 -4.395423829555511475e-02 1.153777837753295898e+00 3.329470753669738770e-01 -1.725359410047531128e-01
2.595000000000000000e+03 1.008224487304687500e+01 -2.743288040161132812e+01 5.461486428976058960e-02 1.682923316955566406e+00 5.212614536285400391e-01 5.097702145576477051e-01
2.596000000000000000e+03 6.115967273712158203e+00 -2.670597648620605469e+01 9.807888418436050415e-02 6.974031329154968262e-01 2.386446148157119751e-01 2.264664322137832642e-01
2.597000000000000000e+03 2.410608673095703125e+01 9.927900314331054688e+00 7.301024198532104492e-01 7.644565582275390625e+00 2.512400388717651367e+00 -1.205822825431823730e+00
2.598000000000000000e+03 2.451232528686523438e+01 -1.230441856384277344e+01 1.886571794748306274e-01 1.025509738922119141e+01 3.133126497268676758e+00 1.376680493354797363e+00
2.599000000000000000e+03 3.066082954406738281e+01 2.629451942443847656e+01 -6.611279249191284180e-01 6.882233619689941406e+00 1.866331696510314941e+00 2.053673937916755676e-02
2.600000000000000000e+03 5.524398040771484375e+01 -2.805432510375976562e+01 -2.370827496051788330e-01 7.874179363250732422e+00 2.291129112243652344e+00 -4.155606627464294434e-01
2.601000000000000000e+03 5.137351989746093750e+01 -2.879371643066406250e+01 -3.419246971607208252e-01 7.913506031036376953e+00 2.271474361419677734e+00 -4.591487944126129150e-01
2.602000000000000000e+03 5.180923843383789062e+01 1.612775421142578125e+01 3.827178850769996643e-02 7.736911296844482422e+00 2.332554817199707031e+00 5.358584523200988770e-01
2.603000000000000000e+03 5.805424118041992188e+01 1.509752655029296875e+01 6.251009553670883179e-02 7.721606731414794922e+00 2.335235118865966797e+00 4.742739200592041016e-01
2.604000000000000000e+03 5.841108703613281250e+01 1.719196128845214844e+01 3.197233658283948898e-03 7.747003078460693359e+00 2.325060129165649414e+00 4.724114537239074707e-01
2.605000000000000000e+03 2.683896064758300781e+01 9.486290931701660156e+00 4.551922976970672607e-01 7.929358005523681641e+00 2.515365123748779297e+00 -7.928910255432128906e-01
2.606000000000000000e+03 2.442684364318847656e+01 -7.371435761451721191e-01 -4.303593933582305908e-01 1.078519153594970703e+01 3.106449604034423828e+00 -1.468828916549682617e+00
2.607000000000000000e+03 1.890462684631347656e+01 -1.583880519866943359e+01 5.899057984352111816e-01 4.009240150451660156e+00 1.379743695259094238e+00 2.054867267608642578e+00
2.608000000000000000e+03 7.713271141052246094e+00 -2.825337982177734375e+01 6.288287788629531860e-02 1.153167128562927246e+00 3.648149967193603516e-01 3.470599353313446045e-01
2.609000000000000000e+03 6.150010585784912109e+00 6.295017719268798828e+00 2.669998444616794586e-03 -4.073278978466987610e-03 -4.209840844850987196e-04 -7.244344451464712620e-04
2.610000000000000000e+03 5.751943111419677734e+00 5.266427516937255859e+00 1.327154343016445637e-03 -2.816745080053806305e-03 -4.468772094696760178e-04 2.076438431686256081e-05
2.611000000000000000e+03 5.286669254302978516e+00 5.890180110931396484e+00 -7.004252984188497066e-04 2.073735697194933891e-03 4.119930963497608900e-04 -1.148610142990946770e-03
2.612000000000000000e+03 4.494226455688476562e+01 1.664427185058593750e+01 -3.980987519025802612e-02 7.743481636047363281e+00 2.311101436614990234e+00 5.303385257720947266e-01
2.613000000000000000e+03 3.423568725585937500e+01 -9.656245231628417969e+00 2.136427164077758789e+00 8.334113121032714844e+00 3.141161918640136719e+00 -6.738050580024719238e-01
2.614000000000000000e+03 2.482243537902832031e+01 -1.298657608032226562e+01 5.447256192564964294e-02 9.795722007751464844e+00 2.955058336257934570e+00 1.223880052566528320e+00
2.615000000000000000e+03 2.455949783325195312e+01 -1.636721229553222656e+01 -3.213368654251098633e-01 8.036396980285644531e+00 2.314517974853515625e+00 1.214437961578369141e+00
2.616000000000000000e+03 2.707224845886230469e+01 2.040612792968750000e+01 -2.782609164714813232e-01 6.862421035766601562e+00 1.975247979164123535e+00 -2.050091624259948730e-01
2.617000000000000000e+03 3.583099746704101562e+01 -9.706000328063964844e+00 1.889991164207458496e+00 8.136056900024414062e+00 3.007814407348632812e+00 -6.046184301376342773e-01
2.618000000000000000e+03 2.219873809814453125e+01 -1.751424407958984375e+01 -1.561051905155181885e-01 6.388144969940185547e+00 1.869611978530883789e+00 1.771707892417907715e+00
2.619000000000000000e+03 4.808555221557617188e+01 1.263403415679931641e+01 2.031226754188537598e-01 7.742904186248779297e+00 2.383808135986328125e+00 5.557612776756286621e-01
2.620000000000000000e+03 5.412053680419921875e+01 1.162992668151855469e+01 2.065744400024414062e-01 7.690207004547119141e+00 2.369034290313720703e+00 5.020849704742431641e-01
2.621000000000000000e+03 2.950583076477050781e+01 5.235241889953613281e+00 3.063092231750488281e-01 8.896592140197753906e+00 2.760870456695556641e+00 -3.466634452342987061e-01
2.622000000000000000e+03 7.005619049072265625e+01 -2.095664596557617188e+01 1.468564476817846298e-02 7.652708053588867188e+00 2.300218105316162109e+00 -2.368492335081100464e-01
2.623000000000000000e+03 6.544126129150390625e+01 1.850990104675292969e+01 -9.362339973449707031e-03 7.778462886810302734e+00 2.330730199813842773e+00 3.738140165805816650e-01
2.624000000000000000e+03 7.241621398925781250e+01 1.766997337341308594e+01 1.553890877403318882e-03 7.782623767852783203e+00 2.335253238677978516e+00 2.432972043752670288e-01
2.625000000000000000e+03 6.966925811767578125e+01 8.600777626037597656e+00 7.228725403547286987e-02 7.606187343597412109e+00 2.303542375564575195e+00 2.440938353538513184e-01
2.626000000000000000e+03 3.854280090332031250e+01 -1.556294345855712891e+01 6.587940454483032227e-01 8.082140922546386719e+00 2.622280597686767578e+00 -8.106899857521057129e-01
2.627000000000000000e+03 3.994827270507812500e+01 -1.638420486450195312e+01 5.201063156127929688e-01 8.019041061401367188e+00 2.561744213104248047e+00 -7.926653623580932617e-01
2.628000000000000000e+03 3.354187393188476562e+01 4.804228305816650391e+00 6.204372644424438477e-01 8.591535568237304688e+00 2.763591766357421875e+00 2.957226932048797607e-01
2.629000000000000000e+03 2.911623954772949219e+01 4.108750820159912109e+00 3.065302371978759766e-01 9.153623580932617188e+00 2.838046073913574219e+00 -3.119469285011291504e-01
2.630000000000000000e+03 6.369594573974609375e+01 6.824113845825195312e+00 1.854407042264938354e-01 7.607168674468994141e+00 2.337782859802246094e+00 3.010393679141998291e-01
2.631000000000000000e+03 3.284224700927734375e+01 1.012593746185302734e+01 2.711160480976104736e-01 8.066623687744140625e+00 2.501321792602539062e+00 4.394044727087020874e-02
2.632000000000000000e+03 3.883713912963867188e+01 5.845539569854736328e+00 6.931183934211730957e-01 8.063487052917480469e+00 2.626981735229492188e+00 5.052772164344787598e-01
2.633000000000000000e+03 3.982737350463867188e+01 -1.475184535980224609e+01 8.078922629356384277e-01 7.975016117095947266e+00 2.634872436523437500e+00 -7.639730572700500488e-01
2.634000000000000000e+03 3.332950973510742188e+01 -1.883633995056152344e+01 -1.394738852977752686e-01 8.362627029418945312e+00 2.466945886611938477e+00 -5.476346015930175781e-01
2.635000000000000000e+03 6.603222656250000000e+01 -1.402991485595703125e+01 1.406110525131225586e-01 7.581744670867919922e+00 2.316706657409667969e+00 -2.269099801778793335e-01
2.636000000000000000e+03 6.510036468505859375e+01 8.555403709411621094e+00 1.365466415882110596e-01 7.626521587371826172e+00 2.328920364379882812e+00 3.128753602504730225e-01
2.637000000000000000e+03 4.578855133056640625e+01 -1.276074409484863281e+00 1.062617421150207520e+00 7.634350776672363281e+00 2.609090328216552734e+00 2.254505753517150879e-01
2.638000000000000000e+03 4.689241409301757812e+01 -2.607559263706207275e-01 9.612436890602111816e-01 7.624115467071533203e+00 2.575607776641845703e+00 2.716788649559020996e-01
2.639000000000000000e+03 4.279681015014648438e+01 -5.017250061035156250e+00 1.362837910652160645e+00 7.674898624420166016e+00 2.711320877075195312e+00 -9.081947617232799530e-03
2.640000000000000000e+03 6.860627746582031250e+01 -1.040187263488769531e+01 1.272976249456405640e-01 7.523096561431884766e+00 2.295118331909179688e+00 -1.302410215139389038e-01
2.641000000000000000e+03 6.564157104492187500e+01 5.710139751434326172e+00 1.649890244007110596e-01 7.588045597076416016e+00 2.325910329818725586e+00 2.577854394912719727e-01
2.642000000000000000e+03 4.394861984252929688e+01 1.644164204597473145e+00 9.835103154182434082e-01 7.742985248565673828e+00 2.617948532104492188e+00 4.022191166877746582e-01
2.643000000000000000e+03 4.717771911621093750e+01 -2.313708066940307617e+00 1.010333418846130371e+00 7.592213153839111328e+00 2.580764055252075195e+00 1.445932090282440186e-01
2.644000000000000000e+03 5.582156753540039062e+01 3.373377084732055664e+00 4.607312679290771484e-01 7.582832813262939453e+00 2.413069248199462891e+00 3.036321997642517090e-01
2.645000000000000000e+03 6.573381805419921875e+01 -9.574948310852050781e+00 1.993034631013870239e-01 7.539256095886230469e+00 2.321567773818969727e+00 -1.348877549171447754e-01
2.646000000000000000e+03 6.246950912475585938e+01 -5.560677051544189453e+00 3.214026093482971191e-01 7.530976772308349609e+00 2.355713844299316406e+00 -3.798506408929824829e-02
2.647000000000000000e+03 5.705223464965820312e+01 -1.125035285949707031e+00 5.014590024948120117e-01 7.542232036590576172e+00 2.413107395172119141e+00 1.314146965742111206e-01
2.648000000000000000e+03 6.359176635742187500e+01 -4.519755363464355469e+00 2.877856492996215820e-01 7.526971340179443359e+00 2.344427108764648438e+00 -9.609982953406870365e-04
2.649000000000000000e+03 6.371776962280273438e+01 -1.436695933341979980e+00 2.744044661521911621e-01 7.534357070922851562e+00 2.342628479003906250e+00 8.995770663022994995e-02
2.650000000000000000e+03 1.852266502380371094e+01 -4.407144546508789062e+00 -6.622561812400817871e-02 -9.602006673812866211e-01 -3.079278767108917236e-01 1.815683543682098389e-01
2.651000000000000000e+03 1.957845115661621094e+01 -5.180261611938476562e+00 -6.289001554250717163e-02 1.382692251354455948e-02 -1.471892744302749634e-02 2.845444083213806152e-01
2.652000000000000000e+03 2.014430809020996094e+01 -5.244915485382080078e+00 1.286973804235458374e-01 1.648143678903579712e-01 8.805352449417114258e-02 4.677275195717811584e-02
2.653000000000000000e+03 1.869651222229003906e+01 -5.348534584045410156e+00 -1.728889644145965576e-01 -2.172294259071350098e-01 -1.170355156064033508e-01 1.939663141965866089e-01
2.654000000000000000e+03 1.982592773437500000e+01 -5.764863967895507812e+00 -9.883401989936828613e-01 2.398014813661575317e-02 -2.893080115318298340e-01 3.800501823425292969e-01
2.655000000000000000e+03 2.014933776855468750e+01 -5.430729389190673828e+00 -4.816456139087677002e-02 8.665030449628829956e-02 1.154572330415248871e-02 2.652676999568939209e-01
2.656000000000000000e+03 1.924360847473144531e+01 -4.843995571136474609e+00 1.233896240592002869e-01 -1.697571724653244019e-01 -1.391026377677917480e-02 2.649964392185211182e-01
2.657000000000000000e+03 2.016617012023925781e+01 -4.798342704772949219e+00 8.236989974975585938e-01 4.891934394836425781e-01 3.938677310943603516e-01 -4.188239872455596924e-01
2.658000000000000000e+03 1.907945442199707031e+01 -4.434232711791992188e+00 1.386970579624176025e-01 -8.716149628162384033e-02 1.546066906303167343e-02 1.298034191131591797e-01
2.659000000000000000e+03 2.013150215148925781e+01 -5.021075248718261719e+00 6.272535920143127441e-01 4.322102069854736328e-01 3.178391456604003906e-01 -2.515887618064880371e-01
2.660000000000000000e+03 2.008361244201660156e+01 -4.562956809997558594e+00 9.396183490753173828e-01 7.387465834617614746e-01 5.035094618797302246e-01 -5.392248034477233887e-01
2.661000000000000000e+03 1.991240692138671875e+01 -5.362590789794921875e+00 -1.710661798715591431e-01 7.765077054500579834e-02 -2.802462503314018250e-02 2.058109194040298462e-01
2.662000000000000000e+03 1.928272438049316406e+01 -5.416006088256835938e+00 -4.059420824050903320e-01 -5.968237668275833130e-02 -1.396873444318771362e-01 2.703491449356079102e-01
2.663000000000000000e+03 1.884659194946289062e+01 -4.958564281463623047e+00 1.801112443208694458e-01 -2.886516451835632324e-01 -3.256211802363395691e-02 2.522482275962829590e-01
2.664000000000000000e+03 2.004365158081054688e+01 -5.585003852844238281e+00 -4.006407260894775391e-01 1.016108170151710510e-01 -8.970896899700164795e-02 3.036735653877258301e-01
2.665000000000000000e+03 1.968365097045898438e+01 -4.899328231811523438e+00 2.554552257061004639e-01 2.356570363044738770e-01 1.473336815834045410e-01 1.399729400873184204e-01
2.666000000000000000e+03 1.970347404479980469e+01 -4.620974540710449219e+00 5.576204657554626465e-01 6.721044182777404785e-01 3.689174652099609375e-01 -2.243642359972000122e-01
2.667000000000000000e+03 1.488040065765380859e+01 1.046121835708618164e+00 -1.493492396548390388e-03 -1.627241261303424835e-03 -9.362201089970767498e-04 7.088899292284622788e-05
2.668000000000000000e+03 1.433596038818359375e+01 8.109902739524841309e-01 -1.044629956595599651e-03 6.148957763798534870e-04 -1.289202627958729863e-04 -8.958454127423465252e-04
2.669000000000000000e+03 1.339948463439941406e+01 9.943951964378356934e-01 -1.777782745193690062e-04 1.013677392620593309e-04 -2.292315912200137973e-05 9.216398029820993543e-05
2.670000000000000000e+03 1.399857616424560547e+01 1.078236818313598633e+00 1.766538334777578712e-04 7.064139354042708874e-04 2.649203233886510134e-04 1.457959442632272840e-04
2.671000000000000000e+03 1.342517852783203125e+01 2.516243755817413330e-01 -4.570651799440383911e-05 -7.023441867204383016e-05 -3.478228245512582362e-05 -1.458749829907901585e-05
2.672000000000000000e+03 1.503903388977050781e+01 3.840551078319549561e-01 5.275135845295153558e-05 1.330690865870565176e-04 5.574613533099181950e-05 1.276876864721998572e-04
2.673000000000000000e+03 1.424006271362304688e+01 2.423980534076690674e-01 1.570216991240158677e-04 -7.154159538913518190e-05 2.564403075666632503e-05 -1.192632698803208768e-04
2.674000000000000000e+03 1.447602939605712891e+01 1.142013788223266602e+00 -2.990840584971010685e-04 2.198180736741051078e-04 -2.377979035372845829e-05 -3.494541670079343021e-05
2.675000000000000000e+03 1.113503360748291016e+01 3.384475409984588623e-01 2.583868626970797777e-04 5.948303733021020889e-04 2.559651620686054230e-04 -2.877168117265682667e-05
2.676000000000000000e+03 1.115649890899658203e+01 1.078244447708129883e+00 2.093516959575936198e-04 -4.834177671000361443e-04 -8.221981988754123449e-05 3.960845351684838533e-04
2.677000000000000000e+03 1.038435840606689453e+01 3.729175329208374023e-01 3.380412817932665348e-04 -6.718154181726276875e-04 -1.001322452793829143e-04 1.461796055082231760e-04
2.678000000000000000e+03 1.188578510284423828e+01 3.038018345832824707e-01 8.177856943802908063e-05 -5.002920515835285187e-04 -1.255540555575862527e-04 1.177150115836411715e-04
2.679000000000000000e+03 1.263660717010498047e+01 2.689834535121917725e-01 2.747964754234999418e-05 3.613995213527232409e-04 1.166637521237134933e-04 3.960431968152988702e-06
2.680000000000000000e+03 1.266393947601318359e+01 1.008509635925292969e+00 4.253617953509092331e-05 -1.429665571777150035e-04 -3.012911292898934335e-05 3.122569178231060505e-04
2.681000000000000000e+03 1.040289020538330078e+01 1.112849831581115723e+00 2.750771527644246817e-04 5.017222720198333263e-04 2.330398274352774024e-04 -2.589269715826958418e-04
2.682000000000000000e+03 1.191018390655517578e+01 1.043463349342346191e+00 2.721204946283251047e-04 3.083460323978215456e-04 1.741399610182270408e-04 -6.509058584924787283e-05
2.683000000000000000e+03 9.630480766296386719e+00 3.871794641017913818e-01 4.527292621787637472e-04 6.414125673472881317e-04 3.282425459474325180e-04 -1.104790426325052977e-04
2.684000000000000000e+03 8.873666763305664062e+00 3.829238712787628174e-01 5.248037632554769516e-04 -5.298497853800654411e-04 -1.513810843789542560e-06 2.271277335239574313e-04
2.685000000000000000e+03 9.660673141479492188e+00 1.127179503440856934e+00 3.818130353465676308e-04 -4.485206154640763998e-04 -2.001227039727382362e-05 6.462761666625738144e-04
2.686000000000000000e+03 8.116720199584960938e+00 3.805542886257171631e-01 6.072036339901387691e-04 3.407259937375783920e-04 2.843788824975490570e-04 -1.849394320743158460e-04
2.687000000000000000e+03 7.360193252563476562e+00 3.795430362224578857e-01 6.496006972156465054e-04 -1.570220774738118052e-04 1.477735786465927958e-04 2.446301514282822609e-04
2.688000000000000000e+03 5.847065925598144531e+00 3.768712580204010010e-01 6.448950734920799732e-04 2.045518049271777272e-04 2.548340708017349243e-04 2.558068372309207916e-04
2.689000000000000000e+03 5.091114044189453125e+00 3.758820295333862305e-01 4.916384350508451462e-04 -3.601890057325363159e-04 3.943482079193927348e-05 -3.520995378494262695e-04
2.690000000000000000e+03 3.579006433486938477e+00 3.681437373161315918e-01 2.746725804172456264e-04 -4.833183775190263987e-04 -6.259373913053423166e-05 -3.737014194484800100e-04
2.691000000000000000e+03 2.823871612548828125e+00 3.614119887351989746e-01 2.128901978721842170e-04 4.346478672232478857e-04 1.942614180734381080e-04 2.245536743430420756e-04
2.692000000000000000e+03 2.070111274719238281e+00 3.578882515430450439e-01 6.581512570846825838e-05 -3.113379061687737703e-04 -7.365683995885774493e-05 -2.778030757326632738e-04
2.693000000000000000e+03 2.362852334976196289e+00 1.097888231277465820e+00 4.984818224329501390e-05 1.155877980636432767e-04 4.963079481967724860e-05 1.601716649020090699e-04
2.694000000000000000e+03 1.328713655471801758e+00 3.659794926643371582e-01 6.833527731942012906e-05 2.183988108299672604e-04 8.602022717241197824e-05 1.968497381312772632e-04
2.695000000000000000e+03 1.647709608078002930e+00 1.105979442596435547e+00 1.697895204415544868e-04 9.004508319776505232e-05 7.795038254698738456e-05 -3.660082293208688498e-04
2.696000000000000000e+03 6.516475677490234375e-01 3.939257264137268066e-01 4.717676711152307689e-05 -8.745039667701348662e-05 -1.208208868774818256e-05 -1.509409048594534397e-04
2.697000000000000000e+03 3.489431142807006836e-01 9.570703506469726562e-01 1.960697409231215715e-04 4.772477404912933707e-05 7.313835521927103400e-05 -1.315609551966190338e-04
2.698000000000000000e+03 3.090358018875122070e+00 1.101411938667297363e+00 3.650040889624506235e-04 -1.452869619242846966e-04 6.591513374587520957e-05 -5.393035244196653366e-04
2.699000000000000000e+03 3.819237709045410156e+00 1.108143687248229980e+00 2.684710489120334387e-04 1.361728209303691983e-04 1.213931609527207911e-04 3.210835857316851616e-04
2.700000000000000000e+03 4.335169315338134766e+00 3.733847737312316895e-01 4.826321091968566179e-04 4.484331293497234583e-04 2.793195599224418402e-04 2.734466397669166327e-04
2.701000000000000000e+03 6.008533000946044922e+00 1.116871237754821777e+00 4.989994922652840614e-04 -6.230775761650875211e-05 1.310075167566537857e-04 -6.746935541741549969e-04
2.702000000000000000e+03 6.603851795196533203e+00 3.786112964153289795e-01 6.324070272967219353e-04 -5.294994116411544383e-05 1.738371211104094982e-04 -2.610072260722517967e-04
2.703000000000000000e+03 8.930113792419433594e+00 1.122923851013183594e+00 4.373237898107618093e-04 3.368637408129870892e-04 2.322562650078907609e-04 -4.965169355273246765e-04
2.704000000000000000e+03 8.199422836303710938e+00 1.120554327964782715e+00 4.833942803088575602e-04 -2.796748885884881020e-04 6.111581751611083746e-05 7.265908061526715755e-04
2.705000000000000000e+03 7.469150543212890625e+00 1.119543075561523438e+00 5.223900079727172852e-04 1.069669888238422573e-04 1.888070983113721013e-04 -6.127075757831335068e-04
2.706000000000000000e+03 6.739063739776611328e+00 1.118611335754394531e+00 5.476757069118320942e-04 -9.730465535540133715e-05 1.351113169221207500e-04 6.318170344457030296e-04
2.707000000000000000e+03 5.278835773468017578e+00 1.115882039070129395e+00 5.096357199363410473e-04 2.655543175933416933e-05 1.608573511475697160e-04 4.815108841285109520e-04
2.708000000000000000e+03 4.549146175384521484e+00 1.113384723663330078e+00 4.166537255514413118e-04 -1.332065148744732141e-04 8.503416756866499782e-05 -6.938339211046695709e-04
2.709000000000000000e+03 9.968983530998229980e-01 1.133925795555114746e+00 -1.993719197344034910e-04 -6.472301174653694034e-05 -7.922847726149484515e-05 3.496156423352658749e-04
2.710000000000000000e+03 7.947246074676513672e+00 -3.790149092674255371e-01 3.524289786582812667e-05 -6.015382823534309864e-04 -1.698886189842596650e-04 4.847588934353552759e-05
2.711000000000000000e+03 8.798082351684570312e+00 -1.121163964271545410e+00 -1.168333528767107055e-05 -4.522594972513616085e-04 -1.391828409396111965e-04 7.816835568519309163e-05
2.712000000000000000e+03 9.582462310791015625e+00 -3.862577378749847412e-01 7.214306151581695303e-06 -6.050697411410510540e-04 -1.793566189007833600e-04 6.655495963059365749e-05
2.713000000000000000e+03 7.128131389617919922e+00 -3.778152763843536377e-01 1.442156790290027857e-04 5.307528190314769745e-04 2.024905552389100194e-04 -6.727889558533206582e-05
2.714000000000000000e+03 6.302709579467773438e+00 -3.771458566188812256e-01 5.641104871756397188e-05 -4.539118381217122078e-04 -1.192502313642762601e-04 6.053812103345990181e-05
2.715000000000000000e+03 5.439445972442626953e+00 -3.834656774997711182e-01 9.581688209436833858e-05 3.460124426055699587e-04 1.325487974099814892e-04 -1.190608418255578727e-05
2.716000000000000000e+03 4.549984931945800781e+00 -3.402172923088073730e-01 3.792311326833441854e-05 -2.995156100951135159e-04 -7.847774395486339927e-05 -8.985240128822624683e-06
2.717000000000000000e+03 4.365737915039062500e+00 -8.721476197242736816e-01 5.315282614901661873e-04 2.213894040323793888e-04 2.258752938359975815e-04 2.434313937555998564e-04
2.718000000000000000e+03 2.784216165542602539e+00 -7.810403704643249512e-01 1.630862243473529816e-04 -2.299855841556563973e-04 -2.006980685109738261e-05 3.435661783441901207e-04
2.719000000000000000e+03 1.180924773216247559e+00 -3.613742887973785400e-01 -2.772547013591974974e-04 2.105111634591594338e-04 -2.002306428039446473e-05 3.651518636615946889e-05
2.720000000000000000e+03 4.100910127162933350e-01 -5.529776215553283691e-01 -4.759905277751386166e-05 -1.820359757402911782e-04 -6.889051292091608047e-05 -1.138025618274696171e-04
2.721000000000000000e+03 7.475960254669189453e-01 -1.101374268531799316e+00 9.445589967072010040e-04 3.388790646567940712e-04 3.850314242299646139e-04 2.618726575747132301e-04
2.722000000000000000e+03 9.582078933715820312e+00 -1.126257777214050293e+00 8.602786692790687084e-05 4.897455219179391861e-04 1.727320195641368628e-04 -1.993820333154872060e-04
2.723000000000000000e+03 8.013586997985839844e+00 -1.119014978408813477e+00 1.554648333694785833e-04 3.993954451289027929e-04 1.664580777287483215e-04 -7.815075514372438192e-05
2.724000000000000000e+03 7.227835178375244141e+00 -1.117815256118774414e+00 -2.016830876527819782e-05 -3.263876424171030521e-04 -1.039667913573794067e-04 -2.068139338007313199e-06
2.725000000000000000e+03 6.435775756835937500e+00 -1.117145895957946777e+00 1.836846495280042291e-04 1.827573869377374649e-04 1.099326109397225082e-04 7.877505368014681153e-07
2.726000000000000000e+03 5.605874538421630859e+00 -1.123465657234191895e+00 1.023956501740030944e-04 -6.478717114077880979e-05 1.128254189097788185e-05 -2.607023998280055821e-05
2.727000000000000000e+03 4.870606899261474609e+00 -1.221678614616394043e+00 -7.478529732907190919e-05 -2.926035667769610882e-04 -1.102166570490226150e-04 -1.628431637072935700e-04
2.728000000000000000e+03 4.215381145477294922e+00 -1.291930317878723145e+00 -2.233709092251956463e-04 3.104707866441458464e-04 2.612996649986598641e-05 1.287261693505570292e-04
2.729000000000000000e+03 3.483533143997192383e+00 -1.264367222785949707e+00 3.513521223794668913e-04 -1.730338699417188764e-04 5.349547427613288164e-05 1.952732127392664552e-04
2.730000000000000000e+03 2.720056772232055664e+00 -1.259521603584289551e+00 -4.300353339203866199e-06 -8.382641681237146258e-05 -2.643803054525051266e-05 -1.715553953545168042e-04
2.731000000000000000e+03 1.356012225151062012e+00 -1.203287243843078613e+00 -7.444765651598572731e-04 -7.389863021671772003e-04 -4.450388660188764334e-04 -1.224991137860342860e-05
2.732000000000000000e+03 1.973117947578430176e+00 -8.476541042327880859e-01 4.689456545747816563e-04 3.973797138314694166e-04 2.598976134322583675e-04 -5.017310613766312599e-04
2.733000000000000000e+03 8.765102386474609375e+00 -3.811639845371246338e-01 8.808705024421215057e-05 6.338308448903262615e-04 2.165753830922767520e-04 -7.199618994491174817e-05
2.734000000000000000e+03 3.694828748703002930e+00 -2.827752828598022461e-01 8.141332364175468683e-05 2.485501172486692667e-04 9.898903226712718606e-05 7.936751353554427624e-05
2.735000000000000000e+03 2.863922595977783203e+00 -2.815187871456146240e-01 -1.147965303971432149e-04 -1.416223967680707574e-04 -7.692568033235147595e-05 -6.347472663037478924e-05
2.736000000000000000e+03 1.994147539138793945e+00 -3.323310017585754395e-01 1.795395746739814058e-06 -2.477499037922825664e-05 -6.893878435221267864e-06 1.056410037563182414e-04
2.737000000000000000e+03 1.978801369667053223e+00 -1.275323033332824707e+00 -8.370517207367811352e-06 5.849825101904571056e-04 1.729836076265200973e-04 8.070874901022762060e-05
2.738000000000000000e+03 3.578665971755981445e+00 -7.871425151824951172e-01 -1.476122852182015777e-04 -5.918155511608347297e-05 -6.203815428307279944e-05 -1.707657065708190203e-04
2.739000000000000000e+03 1.511178874969482422e+01 -1.151870131492614746e+00 8.789521234575659037e-05 2.098732875310815871e-05 3.266476051067002118e-05 -4.874396472587250173e-05
2.740000000000000000e+03 1.328532791137695312e+01 -1.267471551895141602e+00 -1.595294888829812407e-04 -9.742422116687521338e-05 -7.708611519774422050e-05 1.690448843874037266e-04
2.741000000000000000e+03 1.480503654479980469e+01 -5.744030475616455078e-01 2.626998684718273580e-05 8.447644177067559212e-06 1.041528958012349904e-05 -3.901363743352703750e-05
2.742000000000000000e+03 1.453040313720703125e+01 -1.313965797424316406e+00 -1.278262643609195948e-04 -1.056883193086832762e-04 -7.005437510088086128e-05 1.687617477728053927e-04
2.743000000000000000e+03 1.393833351135253906e+01 -1.278923630714416504e+00 9.539966413285583258e-05 9.681479423306882381e-05 5.766433605458587408e-05 -1.192078198073431849e-04
2.744000000000000000e+03 1.336329460144042969e+01 -5.279909372329711914e-01 3.903807737515307963e-05 5.476686783367767930e-05 2.814148319885134697e-05 -5.559039345826022327e-05
2.745000000000000000e+03 1.411463356018066406e+01 -5.394020080566406250e-01 -2.715289338084403425e-05 -2.453796696499921381e-05 -1.550725755805615336e-05 4.873262878390960395e-05
2.746000000000000000e+03 1.111242771148681641e+01 -4.403275847434997559e-01 -2.110756940965075046e-05 -3.971998812630772591e-04 -1.254922390216961503e-04 1.112168247345834970e-04
2.747000000000000000e+03 1.260764503479003906e+01 -5.095726251602172852e-01 -4.812829502043314278e-05 -1.245630555786192417e-04 -5.180740481591783464e-05 8.074141078395769000e-05
2.748000000000000000e+03 1.185993289947509766e+01 -4.741277396678924561e-01 4.989244189346209168e-05 2.426564024062827229e-04 8.776465256232768297e-05 -1.090205551008693874e-04
2.749000000000000000e+03 1.109096240997314453e+01 -1.180124521255493164e+00 8.617948333267122507e-05 4.597176157403737307e-04 1.637691311771050096e-04 -3.490172384772449732e-04
2.750000000000000000e+03 1.036482620239257812e+01 -4.067706167697906494e-01 4.118029755773022771e-05 5.575580871663987637e-04 1.796215219656005502e-04 -1.077690758393146098e-04
2.751000000000000000e+03 1.034629440307617188e+01 -1.146702885627746582e+00 -1.023524964693933725e-05 -5.146315088495612144e-04 -1.574600319145247340e-04 2.510407066438347101e-04
2.752000000000000000e+03 1.258031177520751953e+01 -1.249099493026733398e+00 1.879796764114871621e-04 1.795415591914206743e-04 1.102563692256808281e-04 -2.677601296454668045e-04
2.753000000000000000e+03 1.183553314208984375e+01 -1.213789224624633789e+00 -1.412062265444546938e-04 -3.129091055598109961e-04 -1.362345938105136156e-04 3.316063084639608860e-04
2.754000000000000000e+03 2.303061294555664062e+01 -6.490010261535644531e+00 2.683613967895507812e+01 2.639930248260498047e+00 8.842821121215820312e+00 6.593852996826171875e+00
2.755000000000000000e+03 2.303136253356933594e+01 -6.509464263916015625e+00 2.802111053466796875e+01 9.880953788757324219e+00 1.137061882019042969e+01 1.755056381225585938e+01
2.756000000000000000e+03 2.303588485717773438e+01 -6.528399944305419922e+00 2.769885253906250000e+01 1.909320068359375000e+01 1.403761577606201172e+01 2.242600250244140625e+01
2.757000000000000000e+03 2.304400825500488281e+01 -6.546092510223388672e+00 2.552093505859375000e+01 2.906189346313476562e+01 1.637484931945800781e+01 2.526216888427734375e+01
2.758000000000000000e+03 2.305541992187500000e+01 -6.561865806579589844e+00 2.287080574035644531e+01 3.955574417114257812e+01 1.872796440124511719e+01 2.554108810424804688e+01
2.759000000000000000e+03 2.306968307495117188e+01 -6.575115203857421875e+00 1.972624015808105469e+01 4.855450057983398438e+01 2.048422241210937500e+01 2.372692680358886719e+01
2.760000000000000000e+03 2.308625411987304688e+01 -6.585334300994873047e+00 1.743643760681152344e+01 5.709409713745117188e+01 2.235916137695312500e+01 1.940763473510742188e+01
2.761000000000000000e+03 2.310449790954589844e+01 -6.592131614685058594e+00 1.557965278625488281e+01 6.214430999755859375e+01 2.331718826293945312e+01 1.423636722564697266e+01
2.762000000000000000e+03 2.312371444702148438e+01 -6.595247745513916016e+00 1.618025970458984375e+01 6.525284576416015625e+01 2.442993164062500000e+01 7.770076274871826172e+00
2.763000000000000000e+03 2.314317131042480469e+01 -6.594562530517578125e+00 1.813863182067871094e+01 6.538821411132812500e+01 2.505805397033691406e+01 1.878778815269470215e+00
2.764000000000000000e+03 2.316212081909179688e+01 -6.590102672576904297e+00 2.128804397583007812e+01 6.293053817749023438e+01 2.526557540893554688e+01 -3.317642211914062500e+00
2.765000000000000000e+03 2.317984199523925781e+01 -6.582038879394531250e+00 2.572865486145019531e+01 5.930282974243164062e+01 2.550944519042968750e+01 -6.575708389282226562e+00
2.766000000000000000e+03 2.319565200805664062e+01 -6.570679664611816406e+00 3.040213203430175781e+01 5.470895004272460938e+01 2.553332519531250000e+01 -8.100771903991699219e+00
2.767000000000000000e+03 2.320894813537597656e+01 -6.556459903717041016e+00 3.491561126708984375e+01 4.988198852539062500e+01 2.543927955627441406e+01 -7.840751171112060547e+00
2.768000000000000000e+03 2.321922302246093750e+01 -6.539923667907714844e+00 3.828685760498046875e+01 4.621636581420898438e+01 2.535096740722656250e+01 -6.163545608520507812e+00
2.769000000000000000e+03 2.322608184814453125e+01 -6.521703243255615234e+00 4.086463165283203125e+01 4.340426254272460938e+01 2.528066825866699219e+01 -3.158351659774780273e+00
2.770000000000000000e+03 2.322926139831542969e+01 -6.502496242523193359e+00 4.223521804809570312e+01 4.261379241943359375e+01 2.545470237731933594e+01 3.813861012458801270e-01
2.771000000000000000e+03 2.322864151000976562e+01 -6.483037948608398438e+00 4.178284454345703125e+01 4.241109085083007812e+01 2.525818061828613281e+01 4.360418796539306641e+00
2.772000000000000000e+03 2.322424316406250000e+01 -6.464072704315185547e+00 4.048769760131835938e+01 4.463897323608398438e+01 2.553800201416015625e+01 7.528157234191894531e+00
2.773000000000000000e+03 2.321623802185058594e+01 -6.446326255798339844e+00 3.733649444580078125e+01 4.848615646362304688e+01 2.574679565429687500e+01 1.043269157409667969e+01
2.774000000000000000e+03 2.320493316650390625e+01 -6.430477619171142578e+00 3.301904678344726562e+01 5.263150405883789062e+01 2.569516563415527344e+01 1.193077182769775391e+01
2.775000000000000000e+03 2.319075775146484375e+01 -6.417133808135986328e+00 2.824585914611816406e+01 5.772587203979492188e+01 2.579151916503906250e+01 1.158246707916259766e+01
2.776000000000000000e+03 2.317425346374511719e+01 -6.406804561614990234e+00 2.320004653930664062e+01 6.277082061767578125e+01 2.579125976562500000e+01 9.165028572082519531e+00
2.777000000000000000e+03 2.315605735778808594e+01 -6.399885654449462891e+00 1.837104415893554688e+01 6.624387359619140625e+01 2.538447570800781250e+01 4.980234622955322266e+00
2.778000000000000000e+03 2.313686180114746094e+01 -6.396642208099365234e+00 1.475953292846679688e+01 6.773006439208984375e+01 2.474687767028808594e+01 -8.113867640495300293e-01
2.779000000000000000e+03 2.311740112304687500e+01 -6.397197723388671875e+00 1.347527408599853516e+01 6.680789184570312500e+01 2.408495140075683594e+01 -7.303472042083740234e+00
2.780000000000000000e+03 2.309842109680175781e+01 -6.401531219482421875e+00 1.307792472839355469e+01 6.238727569580078125e+01 2.263956069946289062e+01 -1.404592227935791016e+01
2.781000000000000000e+03 2.308064842224121094e+01 -6.409476757049560547e+00 1.515615177154541016e+01 5.581908035278320312e+01 2.129257011413574219e+01 -1.935958862304687500e+01
2.782000000000000000e+03 2.306476211547851562e+01 -6.420730590820312500e+00 1.787141418457031250e+01 4.632006835937500000e+01 1.925744438171386719e+01 -2.317622566223144531e+01
2.783000000000000000e+03 2.305137062072753906e+01 -6.434861660003662109e+00 2.191608619689941406e+01 3.557278823852539062e+01 1.724666213989257812e+01 -2.437936592102050781e+01
2.784000000000000000e+03 2.304098701477050781e+01 -6.451329231262207031e+00 2.539091300964355469e+01 2.376791191101074219e+01 1.474764728546142578e+01 -2.290245246887207031e+01
2.785000000000000000e+03 2.303400802612304688e+01 -6.469503402709960938e+00 3.093325805664062500e+01 9.934220314025878906e+00 1.226024341583251953e+01 -1.538772773742675781e+01
