# el_label, x, y, sXX, sYY, sZZ, sXY
1.000000000000000000e+00 5.581800460815429688e+01 -6.419998168945312500e+00 -4.578703880310058594e+00 -2.550297021865844727e+00 -2.138700246810913086e+00 -2.715606451034545898e+00
2.000000000000000000e+00 5.562009048461914062e+01 -6.441146373748779297e+00 -4.646148681640625000e-01 9.445437192916870117e-01 1.439786553382873535e-01 7.730405330657958984e-01
3.000000000000000000e+00 5.542217636108398438e+01 -6.462294578552246094e+00 -1.779299736022949219e+00 -3.752784729003906250e-01 -6.463734507560729980e-01 1.236886833794414997e-03
4.000000000000000000e+00 5.522426223754882812e+01 -6.483442306518554688e+00 -2.063137054443359375e+00 2.243969738483428955e-01 -5.516219735145568848e-01 1.216680854558944702e-01
5.000000000000000000e+00 5.582986068725585938e+01 -6.477186679840087891e+00 1.061196327209472656e+01 -2.396230697631835938e+00 2.464719772338867188e+00 2.050798177719116211e+00
6.000000000000000000e+00 5.563985061645507812e+01 -6.536460399627685547e+00 3.433345794677734375e+00 3.742093443870544434e-01 1.142266511917114258e+00 1.413213491439819336e+00
7.000000000000000000e+00 5.544984054565429688e+01 -6.595734119415283203e+00 3.244918107986450195e+00 8.536242246627807617e-01 1.229562759399414062e+00 2.157979965209960938e+00
8.000000000000000000e+00 5.525983047485351562e+01 -6.655007839202880859e+00 1.851234674453735352e+00 3.148780465126037598e-01 6.498337984085083008e-01 1.413575053215026855e+00
9.000000000000000000e+00 5.585262298583984375e+01 -6.530972957611083984e+00 1.554397487640380859e+01 2.710498809814453125e+00 5.476342201232910156e+00 9.117810249328613281e+00
1.000000000000000000e+01 5.567778778076171875e+01 -6.626103878021240234e+00 9.256815910339355469e+00 1.684370279312133789e+00 3.282356023788452148e+00 5.273686885833740234e+00
1.100000000000000000e+01 5.550295257568359375e+01 -6.721235275268554688e+00 5.998838901519775391e+00 2.080619573593139648e+00 2.423837423324584961e+00 4.210404872894287109e+00
1.200000000000000000e+01 5.532811737060546875e+01 -6.816366195678710938e+00 5.158907890319824219e+00 2.030987739562988281e+00 2.156968593597412109e+00 4.040023803710937500e+00
1.300000000000000000e+01 5.588542175292968750e+01 -6.579298496246337891e+00 1.706979560852050781e+01 9.807072639465332031e+00 8.063060760498046875e+00 1.442510986328125000e+01
1.400000000000000000e+01 5.573245239257812500e+01 -6.706646442413330078e+00 1.075538730621337891e+01 6.064482688903808594e+00 5.045960903167724609e+00 9.424403190612792969e+00
1.500000000000000000e+01 5.557948303222656250e+01 -6.833994865417480469e+00 8.400339126586914062e+00 4.968263626098632812e+00 4.010580539703369141e+00 7.396300315856933594e+00
1.600000000000000000e+01 5.542651367187500000e+01 -6.961342811584472656e+00 6.380821228027343750e+00 4.308518409729003906e+00 3.206801891326904297e+00 6.296990394592285156e+00
1.700000000000000000e+01 5.592700195312500000e+01 -6.620314121246337891e+00 1.503231430053710938e+01 1.848932266235351562e+01 1.005649089813232422e+01 1.762734985351562500e+01
1.800000000000000000e+01 5.580175018310546875e+01 -6.775005817413330078e+00 1.076087570190429688e+01 1.201578807830810547e+01 6.832999229431152344e+00 1.238305664062500000e+01
1.900000000000000000e+01 5.567649841308593750e+01 -6.929697990417480469e+00 8.182793617248535156e+00 9.519149780273437500e+00 5.310583114624023438e+00 9.846654891967773438e+00
2.000000000000000000e+01 5.555125045776367188e+01 -7.084390163421630859e+00 6.749592304229736328e+00 8.164991378784179688e+00 4.474375247955322266e+00 8.606184005737304688e+00
2.100000000000000000e+01 5.597576904296875000e+01 -6.652450084686279297e+00 1.219758224487304688e+01 2.740484619140625000e+01 1.188072872161865234e+01 1.816124725341796875e+01
2.200000000000000000e+01 5.588302993774414062e+01 -6.828566551208496094e+00 8.923515319824218750e+00 1.870588493347167969e+01 8.288819313049316406e+00 1.344995880126953125e+01
2.300000000000000000e+01 5.579029083251953125e+01 -7.004682540893554688e+00 7.164793014526367188e+00 1.502672290802001953e+01 6.657454967498779297e+00 1.119988632202148438e+01
2.400000000000000000e+01 5.569755172729492188e+01 -7.180799007415771484e+00 5.814606666564941406e+00 1.284336090087890625e+01 5.597390174865722656e+00 9.692691802978515625e+00
2.500000000000000000e+01 5.602986145019531250e+01 -6.674477577209472656e+00 9.062469482421875000e+00 3.545339584350585938e+01 1.335475921630859375e+01 1.604238891601562500e+01
2.600000000000000000e+01 5.597318267822265625e+01 -6.865278244018554688e+00 7.046121597290039062e+00 2.521119880676269531e+01 9.677196502685546875e+00 1.272200679779052734e+01
2.700000000000000000e+01 5.591650772094726562e+01 -7.056079387664794922e+00 5.443163871765136719e+00 2.049655342102050781e+01 7.781915187835693359e+00 1.082037162780761719e+01
2.800000000000000000e+01 5.585982894897460938e+01 -7.246880054473876953e+00 4.573548793792724609e+00 1.783696365356445312e+01 6.723154067993164062e+00 9.626162528991699219e+00
2.900000000000000000e+01 5.608720397949218750e+01 -6.685552597045898438e+00 7.313314437866210938e+00 4.171815872192382812e+01 1.470944118499755859e+01 1.199650287628173828e+01
3.000000000000000000e+01 5.606875610351562500e+01 -6.883736610412597656e+00 5.423271179199218750e+00 3.060258483886718750e+01 1.080775642395019531e+01 1.027761745452880859e+01
3.100000000000000000e+01 5.605031204223632812e+01 -7.081921100616455078e+00 4.187309265136718750e+00 2.540120315551757812e+01 8.876553535461425781e+00 9.065189361572265625e+00
3.200000000000000000e+01 5.603186416625976562e+01 -7.280105590820312500e+00 3.336071729660034180e+00 2.206387138366699219e+01 7.619982719421386719e+00 8.120443344116210938e+00
3.300000000000000000e+01 5.614560699462890625e+01 -6.685251712799072266e+00 7.145856857299804688e+00 4.547553634643554688e+01 1.578641796112060547e+01 6.873072147369384766e+00
3.400000000000000000e+01 5.616609573364257812e+01 -6.883235454559326172e+00 5.053281784057617188e+00 3.452511596679687500e+01 1.187351894378662109e+01 6.778207778930664062e+00
3.500000000000000000e+01 5.618658447265625000e+01 -7.081219196319580078e+00 3.636788845062255859e+00 2.888661384582519531e+01 9.757020950317382812e+00 6.199282169342041016e+00
3.600000000000000000e+01 5.620707321166992188e+01 -7.279202938079833984e+00 2.822096824645996094e+00 2.543412017822265625e+01 8.476864814758300781e+00 5.664150714874267578e+00
3.700000000000000000e+01 5.620283889770507812e+01 -6.673586368560791016e+00 9.077418327331542969e+00 4.683238601684570312e+01 1.677294158935546875e+01 1.797363519668579102e+00
3.800000000000000000e+01 5.626147842407226562e+01 -6.863793373107910156e+00 5.865785598754882812e+00 3.650970077514648438e+01 1.271264648437500000e+01 2.855011940002441406e+00
3.900000000000000000e+01 5.632011795043945312e+01 -7.054000377655029297e+00 4.370085716247558594e+00 3.094491004943847656e+01 1.059449863433837891e+01 2.849483013153076172e+00
4.000000000000000000e+01 5.637875747680664062e+01 -7.244207382202148438e+00 3.257879734039306641e+00 2.728482818603515625e+01 9.162812232971191406e+00 2.784697771072387695e+00
4.100000000000000000e+01 5.625669860839843750e+01 -6.651003360748291016e+00 1.243649196624755859e+01 4.601576995849609375e+01 1.753567886352539062e+01 -2.395424365997314453e+00
4.200000000000000000e+01 5.635124588012695312e+01 -6.826154708862304688e+00 8.141146659851074219e+00 3.677244567871093750e+01 1.347407817840576172e+01 -7.248286008834838867e-01
4.300000000000000000e+01 5.644579315185546875e+01 -7.001306056976318359e+00 6.090480804443359375e+00 3.139633941650390625e+01 1.124604606628417969e+01 -3.168260157108306885e-01
4.400000000000000000e+01 5.654034423828125000e+01 -7.176457405090332031e+00 4.952619552612304688e+00 2.786870384216308594e+01 9.846397399902343750e+00 -1.016702428460121155e-01
4.500000000000000000e+01 5.630513381958007812e+01 -6.618366241455078125e+00 1.675229263305664062e+01 4.384893035888671875e+01 1.818036651611328125e+01 -5.067040920257568359e+00
4.600000000000000000e+01 5.643197250366210938e+01 -6.771759986877441406e+00 1.135185909271240234e+01 3.555828475952148438e+01 1.407304286956787109e+01 -3.403656244277954102e+00
4.700000000000000000e+01 5.655880737304687500e+01 -6.925153255462646484e+00 8.797945976257324219e+00 3.054577255249023438e+01 1.180311584472656250e+01 -2.706791877746582031e+00
4.800000000000000000e+01 5.668564605712890625e+01 -7.078546524047851562e+00 7.262489795684814453e+00 2.734066390991210938e+01 1.038094615936279297e+01 -2.317247152328491211e+00
4.900000000000000000e+01 5.634628677368164062e+01 -6.576924324035644531e+00 2.120101928710937500e+01 4.105356979370117188e+01 1.867637634277343750e+01 -6.058244705200195312e+00
5.000000000000000000e+01 5.650056076049804688e+01 -6.702690124511718750e+00 1.502702999114990234e+01 3.346836471557617188e+01 1.454861831665039062e+01 -4.758146286010742188e+00
5.100000000000000000e+01 5.665483474731445312e+01 -6.828455448150634766e+00 1.197438335418701172e+01 2.886776924133300781e+01 1.225264549255371094e+01 -3.992464303970336914e+00
5.200000000000000000e+01 5.680910873413085938e+01 -6.954220771789550781e+00 1.000926113128662109e+01 2.573785781860351562e+01 1.072413539886474609e+01 -3.400181531906127930e+00
5.300000000000000000e+01 5.637858581542968750e+01 -6.528263568878173828e+00 2.508086776733398438e+01 3.838808822631835938e+01 1.904068756103515625e+01 -5.506070137023925781e+00
5.400000000000000000e+01 5.655438995361328125e+01 -6.621588706970214844e+00 1.855699920654296875e+01 3.112208938598632812e+01 1.490372657775878906e+01 -4.696054458618164062e+00
5.500000000000000000e+01 5.673019790649414062e+01 -6.714913368225097656e+00 1.502974128723144531e+01 2.689497756958007812e+01 1.257741546630859375e+01 -3.978269815444946289e+00
5.600000000000000000e+01 5.690600585937500000e+01 -6.808238506317138672e+00 1.285132503509521484e+01 2.382037544250488281e+01 1.100151062011718750e+01 -3.540881633758544922e+00
5.700000000000000000e+01 5.640079498291015625e+01 -6.474245548248291016e+00 2.792187690734863281e+01 3.630426025390625000e+01 1.926784133911132812e+01 -3.763848066329956055e+00
5.800000000000000000e+01 5.659140396118164062e+01 -6.531558990478515625e+00 2.127713012695312500e+01 2.921301460266113281e+01 1.514704322814941406e+01 -3.375638961791992188e+00
5.900000000000000000e+01 5.678201675415039062e+01 -6.588871955871582031e+00 1.752265739440917969e+01 2.510877799987792969e+01 1.278943061828613281e+01 -2.869843006134033203e+00
6.000000000000000000e+01 5.697262573242187500e+01 -6.646184921264648438e+00 1.499821567535400391e+01 2.242427253723144531e+01 1.122674655914306641e+01 -2.650863885879516602e+00
6.100000000000000000e+01 5.641205978393554688e+01 -6.416938304901123047e+00 2.939463043212890625e+01 3.525542831420898438e+01 1.939501762390136719e+01 -1.331703543663024902e+00
6.200000000000000000e+01 5.661018371582031250e+01 -6.436046123504638672e+00 2.278570747375488281e+01 2.806143379211425781e+01 1.525414180755615234e+01 -1.171789884567260742e+00
6.300000000000000000e+01 5.680830383300781250e+01 -6.455154418945312500e+00 1.886701202392578125e+01 2.418430709838867188e+01 1.291539573669433594e+01 -1.048579692840576172e+00
6.400000000000000000e+01 5.700642395019531250e+01 -6.474262237548828125e+00 1.626323318481445312e+01 2.157147789001464844e+01 1.135041332244873047e+01 -9.217782616615295410e-01
6.500000000000000000e+01 5.641195297241210938e+01 -6.358533859252929688e+00 2.937454605102539062e+01 3.524624252319335938e+01 1.938623619079589844e+01 1.398114442825317383e+00
6.600000000000000000e+01 5.661000442504882812e+01 -6.338705539703369141e+00 2.279105949401855469e+01 2.807822418212890625e+01 1.526078510284423828e+01 1.257607698440551758e+00
6.700000000000000000e+01 5.680805587768554688e+01 -6.318877220153808594e+00 1.886680221557617188e+01 2.418595123291015625e+01 1.291582584381103516e+01 1.127625346183776855e+00
6.800000000000000000e+01 5.700610733032226562e+01 -6.299048900604248047e+00 1.633413696289062500e+01 2.162910079956054688e+01 1.138897132873535156e+01 9.347599744796752930e-01
6.900000000000000000e+01 5.640047836303710938e+01 -6.301267623901367188e+00 2.788873863220214844e+01 3.633988571166992188e+01 1.926858711242675781e+01 3.815863370895385742e+00
7.000000000000000000e+01 5.659088134765625000e+01 -6.243261814117431641e+00 2.126806259155273438e+01 2.920116615295410156e+01 1.514076900482177734e+01 3.440128564834594727e+00
7.100000000000000000e+01 5.678128051757812500e+01 -6.185256004333496094e+00 1.755150604248046875e+01 2.515037727355957031e+01 1.281056499481201172e+01 2.945307970046997070e+00
7.200000000000000000e+01 5.697168350219726562e+01 -6.127250194549560547e+00 1.507625484466552734e+01 2.256964492797851562e+01 1.129376983642578125e+01 2.605783224105834961e+00
7.300000000000000000e+01 5.637807464599609375e+01 -6.247330665588378906e+00 2.501801681518554688e+01 3.842742919921875000e+01 1.903363418579101562e+01 5.551682472229003906e+00
7.400000000000000000e+01 5.655354309082031250e+01 -6.153367519378662109e+00 1.853201866149902344e+01 3.113123893737792969e+01 1.489897727966308594e+01 4.710621356964111328e+00
7.500000000000000000e+01 5.672900772094726562e+01 -6.059403896331787109e+00 1.508307647705078125e+01 2.688159561157226562e+01 1.258940219879150391e+01 4.015400886535644531e+00
7.600000000000000000e+01 5.690447235107421875e+01 -5.965440273284912109e+00 1.285089683532714844e+01 2.405034255981445312e+01 1.107037162780761719e+01 3.541532993316650391e+00
7.700000000000000000e+01 5.634560012817382812e+01 -6.198787689208984375e+00 2.112467765808105469e+01 4.105480575561523438e+01 1.865384483337402344e+01 6.072611808776855469e+00
7.800000000000000000e+01 5.649941635131835938e+01 -6.072462081909179688e+00 1.499064350128173828e+01 3.351850891113281250e+01 1.455274581909179688e+01 4.743776798248291016e+00
7.900000000000000000e+01 5.665323257446289062e+01 -5.946136474609375000e+00 1.198557758331298828e+01 2.881538581848144531e+01 1.224028873443603516e+01 3.934813737869262695e+00
8.000000000000000000e+01 5.680704498291015625e+01 -5.819810867309570312e+00 1.000975704193115234e+01 2.578340530395507812e+01 1.073794841766357422e+01 3.450499296188354492e+00
8.100000000000000000e+01 5.630429458618164062e+01 -6.157495498657226562e+00 1.668262672424316406e+01 4.390233612060546875e+01 1.817548942565917969e+01 5.029327869415283203e+00
8.200000000000000000e+01 5.643057632446289062e+01 -6.003642082214355469e+00 1.129653167724609375e+01 3.553509521484375000e+01 1.404948806762695312e+01 3.372787952423095703e+00
8.300000000000000000e+01 5.655685424804687500e+01 -5.849788665771484375e+00 8.772846221923828125e+00 3.059471130371093750e+01 1.181026744842529297e+01 2.599365234375000000e+00
8.400000000000000000e+01 5.668313217163085938e+01 -5.695934772491455078e+00 7.152534008026123047e+00 2.714370155334472656e+01 1.028887081146240234e+01 2.223211050033569336e+00
8.500000000000000000e+01 5.625574111938476562e+01 -6.125034809112548828e+00 1.236066818237304688e+01 4.601153945922851562e+01 1.751166152954101562e+01 2.340512752532958984e+00
8.600000000000000000e+01 5.634965133666992188e+01 -5.949541091918945312e+00 8.095415115356445312e+00 3.677155685424804688e+01 1.346009159088134766e+01 6.495894193649291992e-01
8.700000000000000000e+01 5.644356536865234375e+01 -5.774046897888183594e+00 6.021482467651367188e+00 3.139186668395996094e+01 1.122400474548339844e+01 2.226341515779495239e-01
8.800000000000000000e+01 5.653747558593750000e+01 -5.598553180694580078e+00 4.805152416229248047e+00 2.791697502136230469e+01 9.816637992858886719e+00 -2.060719951987266541e-02
8.900000000000000000e+01 5.620180130004882812e+01 -6.102647781372070312e+00 8.995462417602539062e+00 4.680787658691406250e+01 1.674100112915039062e+01 -1.892102360725402832e+00
9.000000000000000000e+01 5.625974655151367188e+01 -5.912229061126708984e+00 5.865727901458740234e+00 3.645928955078125000e+01 1.269750499725341797e+01 -2.928141117095947266e+00
9.100000000000000000e+01 5.631769561767578125e+01 -5.721810340881347656e+00 4.243194580078125000e+00 3.095277595520019531e+01 1.055879116058349609e+01 -2.933265447616577148e+00
9.200000000000000000e+01 5.637564468383789062e+01 -5.531391143798828125e+00 3.296045541763305664e+00 2.736033821105957031e+01 9.196914672851562500e+00 -2.794961214065551758e+00
9.300000000000000000e+01 5.614453125000000000e+01 -6.091190814971923828e+00 7.144049644470214844e+00 4.541340637207031250e+01 1.576723766326904297e+01 -6.963358879089355469e+00
9.400000000000000000e+01 5.616429901123046875e+01 -5.893133640289306641e+00 5.017404556274414062e+00 3.444271850585937500e+01 1.183803653717041016e+01 -6.874367713928222656e+00
9.500000000000000000e+01 5.618406677246093750e+01 -5.695076942443847656e+00 3.615300416946411133e+00 2.885050392150878906e+01 9.739741325378417969e+00 -6.198783874511718750e+00
9.600000000000000000e+01 5.620383453369140625e+01 -5.497019767761230469e+00 2.808883428573608398e+00 2.536736297607421875e+01 8.452874183654785156e+00 -5.749424934387207031e+00
9.700000000000000000e+01 5.608612442016601562e+01 -6.091102123260498047e+00 7.305996894836425781e+00 4.160963058471679688e+01 1.467468833923339844e+01 -1.211830520629882812e+01
9.800000000000000000e+01 5.606695556640625000e+01 -5.892986297607421875e+00 5.444641113281250000e+00 3.049554252624511719e+01 1.078205490112304688e+01 -1.033166408538818359e+01
9.900000000000000000e+01 5.604779052734375000e+01 -5.694869995117187500e+00 4.212829113006591797e+00 2.526064682006835938e+01 8.842042922973632812e+00 -9.077750205993652344e+00
1.000000000000000000e+02 5.602862167358398438e+01 -5.496754169464111328e+00 3.222023725509643555e+00 2.198832321166992188e+01 7.563104152679443359e+00 -8.155574798583984375e+00
1.010000000000000000e+02 5.602882003784179688e+01 -6.102385520935058594e+00 9.019009590148925781e+00 3.531352996826171875e+01 1.329976272583007812e+01 -1.610264396667480469e+01
1.020000000000000000e+02 5.597145080566406250e+01 -5.911792278289794922e+00 7.128243446350097656e+00 2.508325004577636719e+01 9.663448333740234375e+00 -1.279391860961914062e+01
1.030000000000000000e+02 5.591407775878906250e+01 -5.721198558807373047e+00 5.492150306701660156e+00 2.032971572875976562e+01 7.746560096740722656e+00 -1.083361339569091797e+01
1.040000000000000000e+02 5.585670852661132812e+01 -5.530604839324951172e+00 4.493842601776123047e+00 1.764202117919921875e+01 6.640759468078613281e+00 -9.589985847473144531e+00
1.050000000000000000e+02 5.597481155395507812e+01 -6.124609470367431641e+00 1.227258586883544922e+01 2.727287864685058594e+01 1.186363983154296875e+01 -1.815725135803222656e+01
1.060000000000000000e+02 5.588143157958984375e+01 -5.948831558227539062e+00 8.857399940490722656e+00 1.859440803527832031e+01 8.235542297363281250e+00 -1.352755928039550781e+01
1.070000000000000000e+02 5.578805541992187500e+01 -5.773053646087646484e+00 7.369235992431640625e+00 1.486668395996093750e+01 6.670775890350341797e+00 -1.125134754180908203e+01
1.080000000000000000e+02 5.569467544555664062e+01 -5.597275733947753906e+00 5.810336112976074219e+00 1.266967391967773438e+01 5.544003009796142578e+00 -9.672863960266113281e+00
1.090000000000000000e+02 5.592615890502929688e+01 -6.156922817230224609e+00 1.505392074584960938e+01 1.830496025085449219e+01 1.000766468048095703e+01 -1.763273811340332031e+01
1.100000000000000000e+02 5.580034637451171875e+01 -6.002686977386474609e+00 1.071605300903320312e+01 1.195887660980224609e+01 6.802478790283203125e+00 -1.234460830688476562e+01
1.110000000000000000e+02 5.567453384399414062e+01 -5.848451614379882812e+00 8.170968055725097656e+00 9.437475204467773438e+00 5.282532691955566406e+00 -1.002081012725830078e+01
1.120000000000000000e+02 5.554872131347656250e+01 -5.694215774536132812e+00 7.110264778137207031e+00 8.280816078186035156e+00 4.617324352264404297e+00 -8.644412994384765625e+00
1.130000000000000000e+02 5.588472747802734375e+01 -6.198089122772216797e+00 1.691490173339843750e+01 9.689459800720214844e+00 7.981308460235595703e+00 -1.439848136901855469e+01
1.140000000000000000e+02 5.573129653930664062e+01 -6.071298122406005859e+00 1.080163955688476562e+01 6.013685226440429688e+00 5.044597625732421875e+00 -9.374484062194824219e+00
1.150000000000000000e+02 5.557786560058593750e+01 -5.944507122039794922e+00 8.139503479003906250e+00 5.003746032714843750e+00 3.942974805831909180e+00 -7.453678607940673828e+00
1.160000000000000000e+02 5.542443466186523438e+01 -5.817715644836425781e+00 6.469477176666259766e+00 4.554550647735595703e+00 3.307208299636840820e+00 -6.395546913146972656e+00
1.170000000000000000e+02 5.585210800170898438e+01 -6.246533870697021484e+00 1.553993892669677734e+01 2.727345466613769531e+00 5.480185508728027344e+00 -8.978807449340820312e+00
1.180000000000000000e+02 5.567692565917968750e+01 -6.152039051055908203e+00 9.041808128356933594e+00 1.584787607192993164e+00 3.187978744506835938e+00 -5.307526111602783203e+00
1.190000000000000000e+02 5.550174713134765625e+01 -6.057544231414794922e+00 5.945508003234863281e+00 2.248958110809326172e+00 2.458339929580688477e+00 -4.105301856994628906e+00
1.200000000000000000e+02 5.532656860351562500e+01 -5.963048934936523438e+00 4.617717742919921875e+00 1.807839155197143555e+00 1.927667021751403809e+00 -3.877763748168945312e+00
1.210000000000000000e+02 5.582954025268554688e+01 -6.300402164459228516e+00 1.040399742126464844e+01 -2.466237068176269531e+00 2.381328105926513672e+00 -2.029185056686401367e+00
1.220000000000000000e+02 5.563931274414062500e+01 -6.241819858551025391e+00 3.336175441741943359e+00 4.284535944461822510e-01 1.129388689994812012e+00 -1.328277230262756348e+00
1.230000000000000000e+02 5.544908905029296875e+01 -6.183237075805664062e+00 2.960160255432128906e+00 8.578578829765319824e-01 1.145405411720275879e+00 -2.090368270874023438e+00
1.240000000000000000e+02 5.525886535644531250e+01 -6.124654769897460938e+00 1.936899065971374512e+00 1.068540383130311966e-03 5.813902616500854492e-01 -1.311693191528320312e+00
1.250000000000000000e+02 5.581789016723632812e+01 -6.357633590698242188e+00 -4.835126399993896484e+00 -2.718225240707397461e+00 -2.266005516052246094e+00 2.707225799560546875e+00
1.260000000000000000e+02 5.561990356445312500e+01 -6.337205410003662109e+00 -6.473802328109741211e-01 1.119041323661804199e+00 1.414983272552490234e-01 -7.454227209091186523e-01
1.270000000000000000e+02 5.542191314697265625e+01 -6.316776752471923828e+00 -1.796641945838928223e+00 -5.128533840179443359e-01 -6.928486227989196777e-01 6.480109691619873047e-02
1.280000000000000000e+02 5.522392272949218750e+01 -6.296348571777343750e+00 -2.192551851272583008e+00 1.915583014488220215e-01 -6.002980470657348633e-01 -2.664551436901092529e-01
1.290000000000000000e+02 2.196186065673828125e+01 -6.700578212738037109e+00 -3.698011338710784912e-01 5.992301274091005325e-03 -1.091426461935043335e-01 -1.360350142931565642e-04
1.300000000000000000e+02 2.033289909362792969e+01 -7.179516792297363281e+00 -2.545279562473297119e-01 1.954322867095470428e-02 -7.049541920423507690e-02 -8.217453956604003906e-02
1.310000000000000000e+02 2.261169624328613281e+01 -7.556783676147460938e+00 -5.455313920974731445e-01 1.630781032145023346e-02 -1.587670743465423584e-01 -1.158011406660079956e-01
1.320000000000000000e+02 2.185197448730468750e+01 -7.432458400726318359e+00 -4.393568634986877441e-01 1.895135827362537384e-02 -1.261216551065444946e-01 -1.059692502021789551e-01
1.330000000000000000e+02 2.270871162414550781e+01 -6.822772979736328125e+00 -5.124827027320861816e-01 -2.171945525333285332e-03 -1.543963849544525146e-01 3.079505171626806259e-03
1.340000000000000000e+02 2.121509361267089844e+01 -6.576943874359130859e+00 -2.567318677902221680e-01 6.156560033559799194e-03 -7.517259567975997925e-02 -1.050205435603857040e-02
1.350000000000000000e+02 2.046852302551269531e+01 -6.451897144317626953e+00 -1.578612923622131348e-01 9.952783584594726562e-03 -4.437255114316940308e-02 -2.089471369981765747e-02
1.360000000000000000e+02 2.109233665466308594e+01 -7.306693553924560547e+00 -3.337332606315612793e-01 2.148052304983139038e-02 -9.367582201957702637e-02 -9.231652319431304932e-02
1.370000000000000000e+02 2.421343040466308594e+01 -6.977969646453857422e+00 -7.625761032104492188e-01 2.634275006130337715e-03 -2.279825508594512939e-01 1.409253804013133049e-03
1.380000000000000000e+02 2.414235687255859375e+01 -7.714632511138916016e+00 -7.627105116844177246e-01 1.197056472301483154e-02 -2.252219766378402710e-01 -1.080277487635612488e-01
1.390000000000000000e+02 2.337517356872558594e+01 -7.650850772857666016e+00 -6.501701474189758301e-01 1.098105870187282562e-02 -1.917567253112792969e-01 -1.102867648005485535e-01
1.400000000000000000e+02 2.490980529785156250e+01 -7.777047634124755859e+00 -8.731783032417297363e-01 9.052608162164688110e-03 -2.592377066612243652e-01 -1.152005866169929504e-01
1.410000000000000000e+02 2.496787261962890625e+01 -7.039327144622802734e+00 -8.890738487243652344e-01 1.682518399320542812e-03 -2.662174105644226074e-01 6.236325949430465698e-03
1.420000000000000000e+02 2.567740631103515625e+01 -7.838097095489501953e+00 -9.706538319587707520e-01 -3.973151557147502899e-03 -2.923880815505981445e-01 -1.218524128198623657e-01
1.430000000000000000e+02 2.572246742248535156e+01 -7.099318504333496094e+00 -1.038206338882446289e+00 -6.279810797423124313e-03 -3.133458197116851807e-01 1.764889340847730637e-03
1.440000000000000000e+02 2.345925331115722656e+01 -6.915245532989501953e+00 -6.486898660659790039e-01 -1.603837823495268822e-03 -1.950881034135818481e-01 -2.297829196322709322e-04
1.450000000000000000e+02 2.796761512756347656e+01 -7.914083957672119141e+00 -1.274141192436218262e+00 -4.299154505133628845e-03 -3.835321068763732910e-01 -1.292790621519088745e-01
1.460000000000000000e+02 2.720497512817382812e+01 -7.896495819091796875e+00 -1.178882598876953125e+00 -4.979406949132680893e-03 -3.551585972309112549e-01 -1.180654093623161316e-01
1.470000000000000000e+02 2.644245719909667969e+01 -7.877746582031250000e+00 -1.071475505828857422e+00 -8.556084707379341125e-03 -3.240094780921936035e-01 -1.165101453661918640e-01
1.480000000000000000e+02 2.873032188415527344e+01 -7.930514812469482422e+00 -1.359001636505126953e+00 -1.472498476505279541e-02 -4.121179878711700439e-01 -1.361075937747955322e-01
1.490000000000000000e+02 2.798519706726074219e+01 -7.174292564392089844e+00 -1.361549019813537598e+00 -1.304347300902009010e-03 -4.088560044765472412e-01 -2.443410456180572510e-02
1.500000000000000000e+02 2.723094940185546875e+01 -7.156898498535156250e+00 -1.254776000976562500e+00 4.458019684534519911e-04 -3.762990534305572510e-01 -2.240283787250518799e-02
1.510000000000000000e+02 2.873951339721679688e+01 -7.190530300140380859e+00 -1.485036849975585938e+00 -6.468113977462053299e-03 -4.474514722824096680e-01 -3.363703563809394836e-02
1.520000000000000000e+02 2.647681999206542969e+01 -7.138342857360839844e+00 -1.162786960601806641e+00 -8.661574684083461761e-03 -3.514345586299896240e-01 -1.371214538812637329e-02
1.530000000000000000e+02 2.949276733398437500e+01 -7.195246696472167969e+00 -1.587538599967956543e+00 -9.404321201145648956e-03 -4.790828824043273926e-01 -5.002665147185325623e-02
1.540000000000000000e+02 2.948995018005371094e+01 -7.935307502746582031e+00 -1.447092533111572266e+00 -1.513846404850482941e-02 -4.386692941188812256e-01 -1.351972818374633789e-01
1.550000000000000000e+02 3.024649810791015625e+01 -7.928795814514160156e+00 -1.539021492004394531e+00 -1.176988333463668823e-02 -4.652374088764190674e-01 -1.397282183170318604e-01
1.560000000000000000e+02 3.099722290039062500e+01 -7.181584835052490234e+00 -1.755935549736022949e+00 -3.410107688978314400e-03 -5.278036594390869141e-01 -6.418497860431671143e-02
1.570000000000000000e+02 3.175983238220214844e+01 -7.913609027862548828e+00 -1.695505619049072266e+00 -1.516909990459680557e-02 -5.132024288177490234e-01 -1.554838567972183228e-01
1.580000000000000000e+02 3.174956512451171875e+01 -7.173673152923583984e+00 -1.856283664703369141e+00 -5.894046742469072342e-03 -5.586532950401306152e-01 -7.211595028638839722e-02
1.590000000000000000e+02 3.024495315551757812e+01 -7.188776493072509766e+00 -1.665597319602966309e+00 -1.801284262910485268e-03 -5.002195835113525391e-01 -6.017505377531051636e-02
1.600000000000000000e+02 3.100312805175781250e+01 -7.921562194824218750e+00 -1.619895577430725098e+00 -9.289625100791454315e-03 -4.887555539608001709e-01 -1.500961184501647949e-01
1.610000000000000000e+02 3.325168609619140625e+01 -7.142140388488769531e+00 -2.021218776702880859e+00 -3.528026863932609558e-03 -6.074240207672119141e-01 -9.042967855930328369e-02
1.620000000000000000e+02 3.401905441284179688e+01 -7.863194465637207031e+00 -1.924607515335083008e+00 -9.398879483342170715e-03 -5.802019238471984863e-01 -1.672302633523941040e-01
1.630000000000000000e+02 3.251437759399414062e+01 -7.900443077087402344e+00 -1.772672057151794434e+00 -1.402552239596843719e-02 -5.360092520713806152e-01 -1.570823043584823608e-01
1.640000000000000000e+02 3.477159881591796875e+01 -7.845397949218750000e+00 -1.994420051574707031e+00 -1.202563289552927017e-02 -6.019337177276611328e-01 -1.709132939577102661e-01
1.650000000000000000e+02 3.475299453735351562e+01 -7.105631351470947266e+00 -2.190869092941284180e+00 -5.033993627876043320e-03 -6.587709784507751465e-01 -9.873224049806594849e-02
1.660000000000000000e+02 3.400221252441406250e+01 -7.123385429382324219e+00 -2.104022502899169922e+00 -4.519662819802761078e-03 -6.325626373291015625e-01 -9.394361078739166260e-02
1.670000000000000000e+02 3.250104904174804688e+01 -7.160549640655517578e+00 -1.945277810096740723e+00 -7.862962782382965088e-03 -5.859422087669372559e-01 -8.320495486259460449e-02
1.680000000000000000e+02 3.326676940917968750e+01 -7.881991863250732422e+00 -1.852086663246154785e+00 -1.199746318161487579e-02 -5.592252612113952637e-01 -1.611216664314270020e-01
1.690000000000000000e+02 3.550323104858398438e+01 -7.085636138916015625e+00 -2.273457527160644531e+00 -6.576464511454105377e-03 -6.840102076530456543e-01 -1.048375070095062256e-01
1.700000000000000000e+02 3.627172470092773438e+01 -7.801253795623779297e+00 -2.134759902954101562e+00 -9.699495509266853333e-03 -6.433377861976623535e-01 -1.732714921236038208e-01
1.710000000000000000e+02 3.552280426025390625e+01 -7.825378894805908203e+00 -2.063853502273559570e+00 -9.870365262031555176e-03 -6.221171617507934570e-01 -1.713378131389617920e-01
1.720000000000000000e+02 3.700176620483398438e+01 -7.040159225463867188e+00 -2.429914236068725586e+00 -5.406289827078580856e-03 -7.305961847305297852e-01 -1.101964637637138367e-01
1.730000000000000000e+02 3.775260925292968750e+01 -7.021411418914794922e+00 -2.506271362304687500e+00 -2.406904706731438637e-03 -7.526035308837890625e-01 -1.115158647298812866e-01
1.740000000000000000e+02 3.777272796630859375e+01 -7.761138439178466797e+00 -2.265199184417724609e+00 -6.430773530155420303e-03 -6.814889907836914062e-01 -1.752622574567794800e-01
1.750000000000000000e+02 3.702170562744140625e+01 -7.779891967773437500e+00 -2.200469732284545898e+00 -5.932967178523540497e-03 -6.619208455085754395e-01 -1.747933626174926758e-01
1.760000000000000000e+02 3.625196838378906250e+01 -7.061516284942626953e+00 -2.351083755493164062e+00 -3.000425873324275017e-03 -7.062252759933471680e-01 -1.082477346062660217e-01
1.770000000000000000e+02 3.925203704833984375e+01 -6.983466625213623047e+00 -2.666417837142944336e+00 -2.812969498336315155e-03 -8.007692694664001465e-01 -1.124042421579360962e-01
1.780000000000000000e+02 3.850259399414062500e+01 -7.002532482147216797e+00 -2.585291624069213867e+00 -4.074910189956426620e-03 -7.768099904060363770e-01 -1.116000935435295105e-01
1.790000000000000000e+02 3.852244567871093750e+01 -7.742266178131103516e+00 -2.327896356582641602e+00 -3.636761801317334175e-03 -6.994599699974060059e-01 -1.756911426782608032e-01
1.800000000000000000e+02 4.076818847656250000e+01 -7.683057308197021484e+00 -2.506542921066284180e+00 -4.582641122397035360e-04 -7.521003484725952148e-01 -1.671382635831832886e-01
1.810000000000000000e+02 4.001962661743164062e+01 -7.703031063079833984e+00 -2.446816205978393555e+00 -2.211647806689143181e-03 -7.347083091735839844e-01 -1.703286468982696533e-01
1.820000000000000000e+02 4.075049972534179688e+01 -6.943266868591308594e+00 -2.816648721694946289e+00 -3.527170338202267885e-04 -8.451004028320312500e-01 -1.113600432872772217e-01
1.830000000000000000e+02 3.927116775512695312e+01 -7.723219394683837891e+00 -2.387786388397216797e+00 -5.370671860873699188e-03 -7.179471254348754883e-01 -1.737220436334609985e-01
1.840000000000000000e+02 4.000121688842773438e+01 -6.963259696960449219e+00 -2.744303703308105469e+00 -4.045661073178052902e-03 -8.245048522949218750e-01 -1.130585223436355591e-01
1.850000000000000000e+02 4.226616287231445312e+01 -7.653321743011474609e+00 -2.606146097183227539e+00 -6.767062586732208729e-04 -7.820468544960021973e-01 -1.617603003978729248e-01
1.860000000000000000e+02 4.225036239624023438e+01 -6.913490295410156250e+00 -2.975760459899902344e+00 -2.261369721964001656e-03 -8.934065699577331543e-01 -1.056549176573753357e-01
1.870000000000000000e+02 4.151683807373046875e+01 -7.666196823120117188e+00 -2.560494661331176758e+00 1.484395237639546394e-03 -7.677031159400939941e-01 -1.662398725748062134e-01
1.880000000000000000e+02 4.299967193603515625e+01 -6.897992610931396484e+00 -3.051341533660888672e+00 -2.843171125277876854e-03 -9.162554144859313965e-01 -1.059666946530342102e-01
1.890000000000000000e+02 4.301445007324218750e+01 -7.637845039367675781e+00 -2.651546716690063477e+00 2.315738238394260406e-03 -7.947693467140197754e-01 -1.523392200469970703e-01
1.900000000000000000e+02 4.376168441772460938e+01 -7.619610786437988281e+00 -2.697761058807373047e+00 5.664010532200336456e-03 -8.076291084289550781e-01 -1.449789255857467651e-01
1.910000000000000000e+02 4.374792480468750000e+01 -6.879736900329589844e+00 -3.120017290115356445e+00 2.150903921574354172e-03 -9.353598952293395996e-01 -1.020345985889434814e-01
1.920000000000000000e+02 4.150001907348632812e+01 -6.926386356353759766e+00 -2.893905639648437500e+00 -1.013964298181235790e-03 -8.684759140014648438e-01 -1.071928665041923523e-01
1.930000000000000000e+02 4.524763870239257812e+01 -6.857576370239257812e+00 -3.267806291580200195e+00 -3.705827111843973398e-04 -9.804530739784240723e-01 -9.097866714000701904e-02
1.940000000000000000e+02 4.600764846801757812e+01 -7.586318016052246094e+00 -2.763336420059204102e+00 9.169830940663814545e-03 -8.262499570846557617e-01 -1.118091493844985962e-01
1.950000000000000000e+02 4.450997543334960938e+01 -7.606111049652099609e+00 -2.731935262680053711e+00 8.258433081209659576e-03 -8.171030282974243164e-01 -1.395462602376937866e-01
1.960000000000000000e+02 4.675494384765625000e+01 -7.572458744049072266e+00 -2.769984006881713867e+00 1.383944135159254074e-02 -8.268433809280395508e-01 -9.611096233129501343e-02
1.970000000000000000e+02 4.525932312011718750e+01 -7.597484111785888672e+00 -2.750284910202026367e+00 5.663670599460601807e-03 -8.233863115310668945e-01 -1.289229243993759155e-01
1.980000000000000000e+02 4.674534988403320312e+01 -6.832519531250000000e+00 -3.390927553176879883e+00 4.390802700072526932e-03 -1.015961050987243652e+00 -8.431331068277359009e-02
1.990000000000000000e+02 4.449724578857421875e+01 -6.866219043731689453e+00 -3.192377090454101562e+00 9.889778448268771172e-04 -9.574164152145385742e-01 -9.483249485492706299e-02
2.000000000000000000e+02 4.599700927734375000e+01 -6.846394062042236328e+00 -3.334094524383544922e+00 -1.752690877765417099e-03 -1.000754117965698242e+00 -8.991716057062149048e-02
2.010000000000000000e+02 4.824522781372070312e+01 -6.818868637084960938e+00 -3.497617721557617188e+00 4.119172226637601852e-03 -1.048049569129943848e+00 -6.310932338237762451e-02
2.020000000000000000e+02 4.825285720825195312e+01 -7.558829784393310547e+00 -2.706470727920532227e+00 2.397760935127735138e-02 -8.047479391098022461e-01 -5.267555639147758484e-02
2.030000000000000000e+02 4.750334548950195312e+01 -7.563237667083740234e+00 -2.752674102783203125e+00 2.131868898868560791e-02 -8.194066286087036133e-01 -8.022256940603256226e-02
2.040000000000000000e+02 4.899468994140625000e+01 -6.811831474304199219e+00 -3.530658721923828125e+00 -1.692966441623866558e-03 -1.059705495834350586e+00 -5.900148674845695496e-02
2.050000000000000000e+02 4.900135803222656250e+01 -7.551801681518554688e+00 -2.629229545593261719e+00 3.080260753631591797e-02 -7.795280814170837402e-01 -4.551650956273078918e-03
2.060000000000000000e+02 4.974884033203125000e+01 -7.541996002197265625e+00 -2.523861646652221680e+00 5.055435001850128174e-02 -7.419921755790710449e-01 3.939491137862205505e-02
2.070000000000000000e+02 4.974313354492187500e+01 -6.802017211914062500e+00 -3.539122104644775391e+00 1.862879656255245209e-02 -1.056148052215576172e+00 -4.096129164099693298e-02
2.080000000000000000e+02 4.749475479125976562e+01 -6.823286056518554688e+00 -3.447125673294067383e+00 4.202233161777257919e-03 -1.032877087593078613e+00 -7.317300885915756226e-02
2.090000000000000000e+02 5.223226928710937500e+01 -6.759595870971679688e+00 -3.527844190597534180e+00 5.047218874096870422e-02 -1.043211579322814941e+00 -2.924703061580657959e-02
2.100000000000000000e+02 5.047926330566406250e+01 -7.542863845825195312e+00 -2.330927610397338867e+00 4.509753361344337463e-02 -6.857490539550781250e-01 9.613214433193206787e-02
2.110000000000000000e+02 5.282296371459960938e+01 -7.746278762817382812e+00 -3.018063306808471680e-01 3.735537528991699219e-01 2.152422443032264709e-02 1.071978449821472168e+00
2.120000000000000000e+02 5.289617538452148438e+01 -6.551178455352783203e+00 -3.866309165954589844e+00 2.696790173649787903e-02 -1.151802301406860352e+00 -5.146753787994384766e-02
2.130000000000000000e+02 5.107038879394531250e+01 -6.806590080261230469e+00 -3.515733242034912109e+00 -8.286967873573303223e-03 -1.057206034660339355e+00 -2.719924785196781158e-02
2.140000000000000000e+02 5.294260787963867188e+01 -7.507286071777343750e+00 -6.719464659690856934e-01 1.267555058002471924e-01 -1.635572910308837891e-01 8.022415637969970703e-01
2.150000000000000000e+02 5.304056549072265625e+01 -6.935534477233886719e+00 -2.212916135787963867e+00 1.964532397687435150e-02 -6.579812765121459961e-01 2.853188104927539825e-02
2.160000000000000000e+02 5.289727020263671875e+01 -6.921943664550781250e+00 -2.315150976181030273e+00 1.336470842361450195e-01 -6.544511318206787109e-01 1.512696146965026855e-01
2.170000000000000000e+02 5.043689727783203125e+01 -6.803051948547363281e+00 -3.526760101318359375e+00 -5.205359193496406078e-04 -1.058184146881103516e+00 -2.152907475829124451e-02
2.180000000000000000e+02 5.118704223632812500e+01 -7.546058177947998047e+00 -1.994325160980224609e+00 7.697149366140365601e-02 -5.752061009407043457e-01 2.226059436798095703e-01
2.190000000000000000e+02 5.297702026367187500e+01 -7.293822765350341797e+00 -1.354984879493713379e+00 3.126570582389831543e-02 -3.971157670021057129e-01 5.222076773643493652e-01
2.200000000000000000e+02 5.300335693359375000e+01 -7.096621990203857422e+00 -1.873057961463928223e+00 7.574338000267744064e-03 -5.596451163291931152e-01 2.102902531623840332e-01
2.210000000000000000e+02 5.301056671142578125e+01 -6.767620086669921875e+00 -2.655586719512939453e+00 1.490611284971237183e-01 -7.519577145576477051e-01 1.299383342266082764e-01
2.220000000000000000e+02 5.270542907714843750e+01 -7.254743099212646484e+00 -1.594580292701721191e+00 -2.392964623868465424e-02 -4.855529963970184326e-01 4.375632107257843018e-01
2.230000000000000000e+02 5.266069793701171875e+01 -6.827205181121826172e+00 -3.051813125610351562e+00 -3.947043791413307190e-02 -9.273850321769714355e-01 6.249696761369705200e-02
2.240000000000000000e+02 5.167892456054687500e+01 -6.792288303375244141e+00 -3.519132614135742188e+00 -1.791116595268249512e-02 -1.061113119125366211e+00 -4.531889781355857849e-02
2.250000000000000000e+02 5.186986541748046875e+01 -7.531412601470947266e+00 -1.591028451919555664e+00 1.321150064468383789e-01 -4.376740455627441406e-01 3.971679210662841797e-01
2.260000000000000000e+02 5.238805389404296875e+01 -7.402923583984375000e+00 -1.353937625885009766e+00 1.536249369382858276e-01 -3.600938320159912109e-01 4.546479284763336182e-01
2.270000000000000000e+02 5.321610260009765625e+01 -6.519368171691894531e+00 -3.864276170730590820e+00 -4.776314273476600647e-02 -1.173611760139465332e+00 -1.955034397542476654e-02
2.280000000000000000e+02 5.441314697265625000e+01 -6.849060535430908203e+00 -3.932836353778839111e-01 2.227281183004379272e-01 -5.116664990782737732e-02 8.565591573715209961e-01
2.290000000000000000e+02 5.749590682983398438e+01 -6.690691947937011719e+00 1.166518497467041016e+01 1.800597190856933594e+01 8.901347160339355469e+00 -1.660241246223449707e+00
2.300000000000000000e+02 5.686254882812500000e+01 -5.237805843353271484e+00 3.871299028396606445e+00 2.253658294677734375e+01 7.922364711761474609e+00 6.989413499832153320e-01
2.310000000000000000e+02 5.499014663696289062e+01 -5.038546085357666016e+00 3.746574878692626953e+00 5.294171810150146484e+00 2.712224006652832031e+00 -5.704881668090820312e+00
2.320000000000000000e+02 5.670020675659179688e+01 -7.523303031921386719e+00 3.331910610198974609e+00 2.368058395385742188e+01 8.103748321533203125e+00 3.318433165550231934e-01
2.330000000000000000e+02 5.562679290771484375e+01 -7.801201343536376953e+00 3.099411487579345703e+00 1.225727653503417969e+01 4.607006549835205078e+00 7.468791007995605469e+00
2.340000000000000000e+02 5.321759033203125000e+01 -7.787807464599609375e+00 5.894888043403625488e-01 8.932124972343444824e-01 4.448103904724121094e-01 1.625271558761596680e+00
2.350000000000000000e+02 5.340098571777343750e+01 -7.573705196380615234e+00 2.322894334793090820e-01 7.254403233528137207e-01 2.873189151287078857e-01 1.391600489616394043e+00
2.360000000000000000e+02 5.417378234863281250e+01 -7.064213275909423828e+00 4.017806798219680786e-02 3.578445613384246826e-01 1.194067820906639099e-01 1.039946556091308594e+00
2.370000000000000000e+02 5.452555847167968750e+01 -7.305211067199707031e+00 2.268638610839843750e+00 1.386081099510192871e+00 1.096415877342224121e+00 2.651833534240722656e+00
2.380000000000000000e+02 5.580549240112304688e+01 -7.785720825195312500e+00 2.541452407836914062e+00 1.525132846832275391e+01 5.337834358215332031e+00 7.410983085632324219e+00
2.390000000000000000e+02 5.579632949829101562e+01 -7.454173564910888672e+00 3.701628208160400391e+00 1.573777675628662109e+01 5.831821441650390625e+00 8.646471977233886719e+00
2.400000000000000000e+02 5.542182159423828125e+01 -7.261921405792236328e+00 5.599495887756347656e+00 7.478233814239501953e+00 3.923318862915039062e+00 7.662615299224853516e+00
2.410000000000000000e+02 5.501760482788085938e+01 -7.752978324890136719e+00 3.673762559890747070e+00 5.662833213806152344e+00 2.800978660583496094e+00 5.848075389862060547e+00
2.420000000000000000e+02 5.513308715820312500e+01 -6.934976577758789062e+00 3.938157081604003906e+00 1.534908652305603027e+00 1.641919732093811035e+00 3.402157545089721680e+00
2.430000000000000000e+02 5.412955474853515625e+01 -7.583085536956787109e+00 1.724911212921142578e+00 1.504537224769592285e+00 9.688345193862915039e-01 2.586666345596313477e+00
2.440000000000000000e+02 5.382655715942382812e+01 -7.748243331909179688e+00 1.390062093734741211e+00 1.217856884002685547e+00 7.823756933212280273e-01 2.260429859161376953e+00
2.450000000000000000e+02 5.361710357666015625e+01 -7.770658969879150391e+00 1.064858555793762207e+00 1.052417278289794922e+00 6.351827383041381836e-01 1.941662311553955078e+00
2.460000000000000000e+02 5.639583206176757812e+01 -5.302487850189208984e+00 2.444840192794799805e+00 2.442888069152832031e+01 8.062116622924804688e+00 -3.102013111114501953e+00
2.470000000000000000e+02 5.668267059326171875e+01 -5.422092437744140625e+00 4.136563777923583984e+00 2.518584060668945312e+01 8.796721458435058594e+00 2.187901437282562256e-01
2.480000000000000000e+02 5.747235107421875000e+01 -6.301943778991699219e+00 1.270839500427246094e+01 1.804634666442871094e+01 9.226423263549804688e+00 5.050588846206665039e-01
2.490000000000000000e+02 5.740620803833007812e+01 -7.032879352569580078e+00 9.581817626953125000e+00 1.914136695861816406e+01 8.616955757141113281e+00 -2.740357160568237305e+00
2.500000000000000000e+02 5.321246337890625000e+01 -5.003312110900878906e+00 4.838861227035522461e-01 7.739383578300476074e-01 3.773473501205444336e-01 -1.439918518066406250e+00
2.510000000000000000e+02 5.319795608520507812e+01 -5.639487743377685547e+00 -1.459372878074645996e+00 1.342236846685409546e-01 -3.975447416305541992e-01 -5.740503668785095215e-01
2.520000000000000000e+02 5.319807434082031250e+01 -5.841841697692871094e+00 -2.152701377868652344e+00 1.097840517759323120e-01 -6.128752231597900391e-01 -1.260504722595214844e-01
2.530000000000000000e+02 5.459659576416015625e+01 -5.003128528594970703e+00 3.019129276275634766e+00 3.358622789382934570e+00 1.913325667381286621e+00 -4.391958236694335938e+00
2.540000000000000000e+02 5.561693191528320312e+01 -5.370940685272216797e+00 4.705247879028320312e+00 1.190993690490722656e+01 4.984555244445800781e+00 -8.665751457214355469e+00
2.550000000000000000e+02 5.581581497192382812e+01 -5.309301376342773438e+00 3.627403020858764648e+00 1.611707115173339844e+01 5.923342227935791016e+00 -8.520129203796386719e+00
2.560000000000000000e+02 5.321409606933593750e+01 -6.264605045318603516e+00 -3.958194494247436523e+00 -1.069603264331817627e-01 -1.219546437263488770e+00 -4.825158417224884033e-02
2.570000000000000000e+02 5.362331771850585938e+01 -5.274015903472900391e+00 4.242542684078216553e-01 5.215836167335510254e-01 2.837513685226440430e-01 -1.398331999778747559e+00
2.580000000000000000e+02 5.321354675292968750e+01 -5.221049308776855469e+00 -3.520641624927520752e-01 4.834070205688476562e-01 3.940285369753837585e-02 -1.038750767707824707e+00
2.590000000000000000e+02 5.486207580566406250e+01 -5.946006298065185547e+00 1.300920009613037109e+00 5.602686405181884766e-01 5.583565831184387207e-01 -1.691358208656311035e+00
2.600000000000000000e+02 5.502513504028320312e+01 -6.267951011657714844e+00 -2.576009988784790039e+00 4.378307238221168518e-02 -7.596681118011474609e-01 -4.948992282152175903e-02
2.610000000000000000e+02 5.719838333129882812e+01 -6.108230590820312500e+00 1.342022323608398438e+01 2.028304100036621094e+01 1.011097908020019531e+01 2.199497699737548828e+00
2.620000000000000000e+02 5.657694244384765625e+01 -5.269224166870117188e+00 2.996814250946044922e+00 2.404062652587890625e+01 8.111232757568359375e+00 -1.386830091476440430e+00
2.630000000000000000e+02 5.601374435424804688e+01 -5.279584884643554688e+00 2.716045379638671875e+00 1.987561225891113281e+01 6.777497291564941406e+00 -7.395352840423583984e+00
2.640000000000000000e+02 5.580776977539062500e+01 -5.036059379577636719e+00 2.747161865234375000e+00 1.535757446289062500e+01 5.431420803070068359e+00 -7.610274791717529297e+00
2.650000000000000000e+02 5.502470397949218750e+01 -6.505787372589111328e+00 -2.398738861083984375e+00 -1.669122278690338135e-01 -7.696953415870666504e-01 1.167904734611511230e-01
2.660000000000000000e+02 5.658038330078125000e+01 -7.733543872833251953e+00 2.219022274017333984e+00 2.183667373657226562e+01 7.216708660125732422e+00 1.838307619094848633e+00
2.670000000000000000e+02 5.683297348022460938e+01 -7.235030651092529297e+00 6.238951683044433594e+00 2.465749549865722656e+01 9.268934249877929688e+00 -2.035006523132324219e+00
2.680000000000000000e+02 5.713230133056640625e+01 -7.080238342285156250e+00 9.054981231689453125e+00 2.176872825622558594e+01 9.247112274169921875e+00 -3.062427759170532227e+00
2.690000000000000000e+02 5.361296463012695312e+01 -6.748330116271972656e+00 -2.543339014053344727e+00 8.490885794162750244e-02 -7.375290393829345703e-01 1.374177783727645874e-01
2.700000000000000000e+02 5.712105560302734375e+01 -6.690127372741699219e+00 1.367615127563476562e+01 2.095697021484375000e+01 1.038993644714355469e+01 -2.459993124008178711e+00
2.710000000000000000e+02 5.643441009521484375e+01 -7.443329334259033203e+00 2.527655363082885742e+00 2.468400192260742188e+01 8.163496971130371094e+00 2.797903299331665039e+00
2.720000000000000000e+02 5.525647735595703125e+01 -7.124281883239746094e+00 5.353637695312500000e+00 4.204966545104980469e+00 2.867581129074096680e+00 5.792544841766357422e+00
2.730000000000000000e+02 5.461852645874023438e+01 -6.543144226074218750e+00 -2.942917108535766602e+00 2.802190138027071953e-03 -8.820344805717468262e-01 7.758280634880065918e-02
2.740000000000000000e+02 5.550330734252929688e+01 -7.561924934387207031e+00 4.261782169342041016e+00 1.062023639678955078e+01 4.464605331420898438e+00 8.047460556030273438e+00
2.750000000000000000e+02 5.600822067260742188e+01 -7.502926349639892578e+00 2.723999261856079102e+00 1.946140480041503906e+01 6.655621051788330078e+00 7.411045551300048828e+00
2.760000000000000000e+02 5.687363815307617188e+01 -7.561431407928466797e+00 3.780240058898925781e+00 2.277214050292968750e+01 7.965713977813720703e+00 -8.705803751945495605e-01
2.770000000000000000e+02 5.672170257568359375e+01 -5.131576061248779297e+00 2.965151309967041016e+00 2.275247383117675781e+01 7.715287208557128906e+00 -3.724706470966339111e-01
2.780000000000000000e+02 5.683077239990234375e+01 -5.535636901855468750e+00 6.192327022552490234e+00 2.473519706726074219e+01 9.278257369995117188e+00 1.977373600006103516e+00
2.790000000000000000e+02 5.516781616210937500e+01 -5.615728855133056641e+00 4.760063648223876953e+00 3.187026500701904297e+00 2.384127140045166016e+00 -5.154641628265380859e+00
2.800000000000000000e+02 5.743222427368164062e+01 -5.929315567016601562e+00 1.123733139038085938e+01 1.868948364257812500e+01 8.978044509887695312e+00 2.334387302398681641e+00
2.810000000000000000e+02 5.726359939575195312e+01 -5.636642932891845703e+00 8.473526954650878906e+00 2.036050415039062500e+01 8.650209426879882812e+00 2.906365633010864258e+00
2.820000000000000000e+02 5.723223495483398438e+01 -5.923974037170410156e+00 1.158417797088623047e+01 2.048199081420898438e+01 9.619850158691406250e+00 2.678267478942871094e+00
2.830000000000000000e+02 5.421112060546875000e+01 -5.012067317962646484e+00 2.139503955841064453e+00 1.982541203498840332e+00 1.236613512039184570e+00 -3.138756752014160156e+00
2.840000000000000000e+02 5.601026535034179688e+01 -5.024966716766357422e+00 2.142946958541870117e+00 1.792120170593261719e+01 6.019244670867919922e+00 -6.603815555572509766e+00
2.850000000000000000e+02 5.464226531982421875e+01 -5.961075782775878906e+00 -1.597792282700538635e-02 3.223356902599334717e-01 9.190732985734939575e-02 -1.024533867835998535e+00
2.860000000000000000e+02 5.559883880615234375e+01 -5.060841560363769531e+00 3.448994159698486328e+00 1.218103218078613281e+01 4.689007759094238281e+00 -7.756846427917480469e+00
2.870000000000000000e+02 5.696670913696289062e+01 -5.671126365661621094e+00 8.497727394104003906e+00 2.347565078735351562e+01 9.592013359069824219e+00 3.011319398880004883e+00
2.880000000000000000e+02 5.620801162719726562e+01 -5.026826381683349609e+00 1.800843358039855957e+00 2.026680374145507812e+01 6.620294094085693359e+00 -5.169590473175048828e+00
2.890000000000000000e+02 5.620984268188476562e+01 -5.278563499450683594e+00 2.173215627670288086e+00 2.260729598999023438e+01 7.434153556823730469e+00 -5.439428806304931641e+00
2.900000000000000000e+02 5.701034927368164062e+01 -7.413321495056152344e+00 5.442904949188232422e+00 2.231283760070800781e+01 8.326723098754882812e+00 -1.876062273979187012e+00
2.910000000000000000e+02 5.651146697998046875e+01 -7.604841232299804688e+00 2.241501331329345703e+00 2.306685829162597656e+01 7.592508316040039062e+00 2.377774000167846680e+00
2.920000000000000000e+02 5.622389602661132812e+01 -7.750749588012695312e+00 1.747486233711242676e+00 2.031189346313476562e+01 6.617814064025878906e+00 5.045069217681884766e+00
2.930000000000000000e+02 5.731934356689453125e+01 -7.166917800903320312e+00 8.495234489440917969e+00 1.997339057922363281e+01 8.540587425231933594e+00 -2.830825328826904297e+00
2.940000000000000000e+02 5.714394378662109375e+01 -5.492467880249023438e+00 7.023485183715820312e+00 2.147017669677734375e+01 8.548098564147949219e+00 2.673628330230712891e+00
2.950000000000000000e+02 5.708075332641601562e+01 -5.818650245666503906e+00 1.078859806060791016e+01 2.205829620361328125e+01 9.854068756103515625e+00 3.258359909057617188e+00
2.960000000000000000e+02 5.745612716674804688e+01 -6.105906486511230469e+00 1.202710723876953125e+01 1.822362709045410156e+01 9.075220108032226562e+00 1.560893654823303223e+00
2.970000000000000000e+02 5.718911743164062500e+01 -6.502731323242187500e+00 1.452350330352783203e+01 1.990527153015136719e+01 1.032863235473632812e+01 -8.550540804862976074e-01
2.980000000000000000e+02 5.745966720581054688e+01 -6.868802547454833984e+00 1.067705440521240234e+01 1.843851661682128906e+01 8.734671592712402344e+00 -2.269287109375000000e+00
2.990000000000000000e+02 5.717865371704101562e+01 -7.278747081756591797e+00 7.113504409790039062e+00 2.145067977905273438e+01 8.569254875183105469e+00 -2.724923610687255859e+00
3.000000000000000000e+02 5.749177551269531250e+01 -6.502577304840087891e+00 1.251773929595947266e+01 1.791220855712890625e+01 9.128984451293945312e+00 -6.450341939926147461e-01
3.010000000000000000e+02 5.722077560424804688e+01 -6.302678108215332031e+00 1.440459060668945312e+01 1.970215034484863281e+01 1.023202228546142578e+01 7.432460188865661621e-01
3.020000000000000000e+02 5.700750350952148438e+01 -5.356702327728271484e+00 5.286512851715087891e+00 2.219415855407714844e+01 8.244201660156250000e+00 1.839469432830810547e+00
3.030000000000000000e+02 5.657011413574218750e+01 -5.068372249603271484e+00 2.002524614334106445e+00 2.216709136962890625e+01 7.250885009765625000e+00 -2.280986070632934570e+00
3.040000000000000000e+02 5.641531753540039062e+01 -7.755206584930419922e+00 1.717402100563049316e+00 2.167197036743164062e+01 7.016811847686767578e+00 3.527772188186645508e+00
3.050000000000000000e+02 5.600573730468750000e+01 -7.757555007934570312e+00 2.094542264938354492e+00 1.782394409179687500e+01 5.975546360015869141e+00 6.607442378997802734e+00
3.060000000000000000e+02 5.529706954956054688e+01 -7.484272956848144531e+00 4.655133724212646484e+00 7.288534641265869141e+00 3.583100557327270508e+00 7.046448230743408203e+00
3.070000000000000000e+02 5.506197357177734375e+01 -6.719623565673828125e+00 1.292392849922180176e+00 3.604260087013244629e-01 4.958456456661224365e-01 1.410096526145935059e+00
3.080000000000000000e+02 5.461434555053710938e+01 -7.744844913482666016e+00 3.075391769409179688e+00 3.204727411270141602e+00 1.884035706520080566e+00 4.351881027221679688e+00
3.090000000000000000e+02 5.401200866699218750e+01 -6.537296772003173828e+00 -3.451072216033935547e+00 -6.496647372841835022e-03 -1.037270665168762207e+00 5.998096242547035217e-02
3.100000000000000000e+02 5.481449127197265625e+01 -7.770134925842285156e+00 3.415695667266845703e+00 4.332127571105957031e+00 2.324347019195556641e+00 5.082532882690429688e+00
3.110000000000000000e+02 5.320810317993164062e+01 -7.372601032257080078e+00 -6.083680987358093262e-01 3.338705301284790039e-01 -8.234926313161849976e-02 7.006502747535705566e-01
3.120000000000000000e+02 5.337928390502929688e+01 -7.386751651763916016e+00 -4.398480057716369629e-01 4.554800093173980713e-01 4.689602181315422058e-03 1.009629845619201660e+00
3.130000000000000000e+02 5.482270812988281250e+01 -7.430285453796386719e+00 3.703137874603271484e+00 2.991504430770874023e+00 2.008392810821533203e+00 4.390229225158691406e+00
3.140000000000000000e+02 5.341565322875976562e+01 -7.783912181854248047e+00 7.144876122474670410e-01 8.432093858718872070e-01 4.673091173171997070e-01 1.707877039909362793e+00
3.150000000000000000e+02 5.350642776489257812e+01 -7.097765445709228516e+00 -1.169891715049743652e+00 2.002405524253845215e-01 -2.908953726291656494e-01 5.372216701507568359e-01
3.160000000000000000e+02 5.421242904663085938e+01 -6.543256759643554688e+00 -3.279926300048828125e+00 6.729632616043090820e-03 -9.819589853286743164e-01 6.012637540698051453e-02
3.170000000000000000e+02 5.441546630859375000e+01 -6.548099040985107422e+00 -3.113648891448974609e+00 1.016889046877622604e-02 -9.310440421104431152e-01 6.937334686517715454e-02
3.180000000000000000e+02 5.341690444946289062e+01 -6.519892215728759766e+00 -3.808875322341918945e+00 2.633972465991973877e-02 -1.134760618209838867e+00 -3.889476880431175232e-02
3.190000000000000000e+02 5.321807098388671875e+01 -6.732118129730224609e+00 -3.012398958206176758e+00 -9.707152098417282104e-02 -9.328411817550659180e-01 1.080138683319091797e-01
3.200000000000000000e+02 5.341764450073242188e+01 -6.733798027038574219e+00 -2.822599887847900391e+00 3.502654656767845154e-02 -8.362720012664794922e-01 8.338923752307891846e-02
3.210000000000000000e+02 5.320809555053710938e+01 -6.049126148223876953e+00 -3.115193367004394531e+00 -6.698105484247207642e-02 -9.546523690223693848e-01 -1.184687688946723938e-01
3.220000000000000000e+02 5.442411041259765625e+01 -6.242673397064208984e+00 -3.108849763870239258e+00 8.699308335781097412e-02 -9.065569639205932617e-01 -1.480560302734375000e-01
3.230000000000000000e+02 5.462631988525390625e+01 -6.242135524749755859e+00 -2.846109867095947266e+00 -1.460629552602767944e-01 -8.976518511772155762e-01 -1.230937093496322632e-01
3.240000000000000000e+02 5.517079925537109375e+01 -5.828146934509277344e+00 4.245532512664794922e+00 1.910556197166442871e+00 1.846826672554016113e+00 -3.753895282745361328e+00
3.250000000000000000e+02 5.341585159301757812e+01 -5.011198520660400391e+00 5.718019008636474609e-01 7.122349739074707031e-01 3.852110803127288818e-01 -1.605309247970581055e+00
3.260000000000000000e+02 5.381911849975585938e+01 -6.225786209106445312e+00 -3.611255168914794922e+00 1.820115745067596436e-02 -1.077916145324707031e+00 -3.978403657674789429e-02
3.270000000000000000e+02 5.478955459594726562e+01 -5.028846263885498047e+00 3.464190959930419922e+00 4.090951919555664062e+00 2.266542911529541016e+00 -4.928538799285888672e+00
3.280000000000000000e+02 5.539081954956054688e+01 -5.059903144836425781e+00 3.805199623107910156e+00 9.381051063537597656e+00 3.955875158309936523e+00 -7.322131633758544922e+00
3.290000000000000000e+02 5.519130325317382812e+01 -5.035785675048828125e+00 3.820740938186645508e+00 7.180606842041015625e+00 3.300404310226440430e+00 -6.649595737457275391e+00
3.300000000000000000e+02 5.340251159667968750e+01 -5.469779014587402344e+00 -6.746305227279663086e-01 2.872639298439025879e-01 -1.162099838256835938e-01 -8.677871823310852051e-01
3.310000000000000000e+02 5.322056961059570312e+01 -7.165977478027343750e+00 -1.446042656898498535e+00 2.269920855760574341e-01 -3.657151758670806885e-01 4.369426667690277100e-01
3.320000000000000000e+02 5.341479110717773438e+01 -6.254262447357177734e+00 -3.828222036361694336e+00 5.520338192582130432e-02 -1.131905555725097656e+00 -3.878727555274963379e-03
3.330000000000000000e+02 5.320743942260742188e+01 -5.433788299560546875e+00 -5.521116852760314941e-01 2.651710808277130127e-01 -8.608219027519226074e-02 -7.156463265419006348e-01
3.340000000000000000e+02 5.482213211059570312e+01 -6.526910781860351562e+00 -2.705825567245483398e+00 1.048568859696388245e-01 -7.802906632423400879e-01 1.474662423133850098e-01
3.350000000000000000e+02 5.420992660522460938e+01 -7.777987480163574219e+00 2.227907657623291016e+00 2.004639148712158203e+00 1.269764065742492676e+00 3.127981185913085938e+00
3.360000000000000000e+02 5.361668014526367188e+01 -6.523741245269775391e+00 -3.744876861572265625e+00 1.373875699937343597e-02 -1.119341373443603516e+00 -3.177060978487133980e-03
3.370000000000000000e+02 5.419907379150390625e+01 -6.816498279571533203e+00 -1.360659599304199219e+00 1.505127698183059692e-01 -3.630440235137939453e-01 5.474237203598022461e-01
3.380000000000000000e+02 5.404800796508789062e+01 -5.906935691833496094e+00 -1.286499977111816406e+00 1.041363328695297241e-01 -3.547090888023376465e-01 -5.268522500991821289e-01
3.390000000000000000e+02 5.422351455688476562e+01 -6.234878063201904297e+00 -3.335987091064453125e+00 1.584476418793201447e-02 -9.960426688194274902e-01 -8.112361282110214233e-02
3.400000000000000000e+02 5.359968185424804688e+01 -5.958876132965087891e+00 -2.233443021774291992e+00 8.576650917530059814e-02 -6.443029046058654785e-01 -2.582272291183471680e-01
3.410000000000000000e+02 5.543518447875976562e+01 -5.506313800811767578e+00 5.404026985168457031e+00 7.756048202514648438e+00 3.948022603988647461e+00 -7.764463901519775391e+00
3.420000000000000000e+02 5.401445007324218750e+01 -5.021275520324707031e+00 1.752810955047607422e+00 1.609322071075439453e+00 1.008639931678771973e+00 -2.696278572082519531e+00
3.430000000000000000e+02 5.497457122802734375e+01 -5.305993556976318359e+00 3.859577178955078125e+00 3.925481081008911133e+00 2.335517406463623047e+00 -5.112647056579589844e+00
3.440000000000000000e+02 5.341941833496093750e+01 -5.245340824127197266e+00 1.897714734077453613e-01 5.469632744789123535e-01 2.210204303264617920e-01 -1.229221582412719727e+00
3.450000000000000000e+02 5.429016876220703125e+01 -5.519865989685058594e+00 1.287925004959106445e+00 8.439389467239379883e-01 6.395591497421264648e-01 -1.854023098945617676e+00
3.460000000000000000e+02 5.336463546752929688e+01 -5.826649188995361328e+00 -2.054217100143432617e+00 5.360940098762512207e-02 -6.001822948455810547e-01 -2.978508174419403076e-01
3.470000000000000000e+02 5.491611862182617188e+01 -7.019573688507080078e+00 3.051202297210693359e+00 1.386103034019470215e+00 1.331191539764404297e+00 2.918853521347045898e+00
3.480000000000000000e+02 5.506952667236328125e+01 -6.017126560211181641e+00 1.961242794990539551e+00 6.633590459823608398e-01 7.873805761337280273e-01 -1.825951099395751953e+00
3.490000000000000000e+02 5.377183151245117188e+01 -7.035668849945068359e+00 -9.495490789413452148e-01 2.289319485425949097e-01 -2.161851376295089722e-01 6.319694519042968750e-01
3.500000000000000000e+02 5.435591125488281250e+01 -7.115511894226074219e+00 9.702202677726745605e-01 5.102506279945373535e-01 4.441412687301635742e-01 1.575861454010009766e+00
3.510000000000000000e+02 5.401001739501953125e+01 -7.361131668090820312e+00 1.017268419265747070e+00 6.766507029533386230e-01 5.081757307052612305e-01 1.714955329895019531e+00
3.520000000000000000e+02 5.366881561279296875e+01 -7.237800598144531250e+00 -2.623342573642730713e-01 3.286947906017303467e-01 1.990815997123718262e-02 8.948589563369750977e-01
3.530000000000000000e+02 5.381521224975585938e+01 -5.911347389221191406e+00 -1.715401530265808105e+00 1.226566582918167114e-01 -4.778234660625457764e-01 -4.209519922733306885e-01
3.540000000000000000e+02 5.462650680541992188e+01 -5.454454421997070312e+00 2.984631299972534180e+00 1.623403310775756836e+00 1.382410407066345215e+00 -3.219146013259887695e+00
3.550000000000000000e+02 5.422666168212890625e+01 -5.259409904479980469e+00 1.886290311813354492e+00 1.452143430709838867e+00 1.001530170440673828e+00 -2.628509521484375000e+00
3.560000000000000000e+02 5.340071105957031250e+01 -6.021996498107910156e+00 -2.832908153533935547e+00 2.229659119620919228e-03 -8.492035865783691406e-01 -1.846390515565872192e-01
3.570000000000000000e+02 5.336511611938476562e+01 -5.660364627838134766e+00 -1.053769230842590332e+00 1.854794770479202271e-01 -2.604869306087493896e-01 -4.933780133724212646e-01
3.580000000000000000e+02 5.485110092163085938e+01 -5.647050380706787109e+00 3.409946203231811523e+00 1.695006012916564941e+00 1.531485676765441895e+00 -3.372795104980468750e+00
3.590000000000000000e+02 5.471093750000000000e+01 -7.109345436096191406e+00 2.306867361068725586e+00 1.028154969215393066e+00 1.000506758689880371e+00 2.515858173370361328e+00
3.600000000000000000e+02 5.439308547973632812e+01 -5.755361557006835938e+00 6.059650182723999023e-01 4.044286012649536133e-01 3.031180799007415771e-01 -1.399785161018371582e+00
3.610000000000000000e+02 5.425567245483398438e+01 -5.950148105621337891e+00 -1.122215151786804199e+00 2.576128244400024414e-01 -2.593806982040405273e-01 -6.081498265266418457e-01
3.620000000000000000e+02 5.485288619995117188e+01 -6.779581069946289062e+00 8.953149318695068359e-01 2.505826056003570557e-01 3.437692523002624512e-01 1.241331100463867188e+00
3.630000000000000000e+02 5.361717987060546875e+01 -5.018482685089111328e+00 1.034564495086669922e+00 1.011251449584960938e+00 6.137447953224182129e-01 -1.930610775947570801e+00
3.640000000000000000e+02 5.361662673950195312e+01 -6.238133907318115234e+00 -3.726477384567260742e+00 -1.266051363199949265e-02 -1.121741414070129395e+00 -3.670759871602058411e-02
3.650000000000000000e+02 5.402236557006835938e+01 -6.224859237670898438e+00 -3.488982439041137695e+00 1.617777720093727112e-02 -1.041841387748718262e+00 -6.053815782070159912e-02
3.660000000000000000e+02 5.482645416259765625e+01 -6.245682716369628906e+00 -2.680665969848632812e+00 1.274263951927423477e-02 -8.003770112991333008e-01 -8.963816799223423004e-03
3.670000000000000000e+02 5.381644821166992188e+01 -5.022792339324951172e+00 1.352402091026306152e+00 1.199136853218078613e+00 7.654616832733154297e-01 -2.291431188583374023e+00
3.680000000000000000e+02 5.382466125488281250e+01 -5.293042659759521484e+00 9.073904156684875488e-01 7.517709732055664062e-01 4.977484345436096191e-01 -1.699304223060607910e+00
3.690000000000000000e+02 5.381699371337890625e+01 -5.590604782104492188e+00 -2.973807156085968018e-01 2.734431028366088867e-01 -7.181287743151187897e-03 -9.414243698120117188e-01
3.700000000000000000e+02 5.440530395507812500e+01 -5.000957012176513672e+00 2.687577486038208008e+00 2.637356519699096680e+00 1.597480177879333496e+00 -3.846127748489379883e+00
3.710000000000000000e+02 5.322617340087890625e+01 -6.949848651885986328e+00 -1.982090711593627930e+00 2.808258868753910065e-02 -5.862024426460266113e-01 9.449110925197601318e-02
3.720000000000000000e+02 5.380612182617187500e+01 -6.778334140777587891e+00 -2.253810405731201172e+00 8.773323893547058105e-02 -6.498231291770935059e-01 2.135860472917556763e-01
3.730000000000000000e+02 5.321203231811523438e+01 -7.578318595886230469e+00 -3.144302070140838623e-01 6.615182161331176758e-01 1.041264012455940247e-01 1.172500252723693848e+00
3.740000000000000000e+02 5.379177856445312500e+01 -7.461007118225097656e+00 7.362669110298156738e-01 8.078067302703857422e-01 4.632220864295959473e-01 1.629109263420104980e+00
3.750000000000000000e+02 5.359106445312500000e+01 -7.539299488067626953e+00 3.979049026966094971e-01 6.852121353149414062e-01 3.249351084232330322e-01 1.510787248611450195e+00
3.760000000000000000e+02 5.402692413330078125e+01 -7.764726161956787109e+00 1.800287127494812012e+00 1.641027450561523438e+00 1.032394409179687500e+00 2.704797744750976562e+00
3.770000000000000000e+02 5.440747833251953125e+01 -7.742339611053466797e+00 2.649595499038696289e+00 2.473228216171264648e+00 1.536847114562988281e+00 3.669564247131347656e+00
3.780000000000000000e+02 5.433017730712890625e+01 -7.476832866668701172e+00 2.039394855499267578e+00 1.504779458045959473e+00 1.063252329826354980e+00 2.754572153091430664e+00
3.790000000000000000e+02 5.481449127197265625e+01 -7.576807498931884766e+00 3.536126375198364258e+00 4.005794525146484375e+00 2.262576103210449219e+00 4.856690883636474609e+00
3.800000000000000000e+02 5.522867965698242188e+01 -7.748173713684082031e+00 3.866020917892456055e+00 7.654721260070800781e+00 3.456222534179687500e+00 6.818343162536621094e+00
3.810000000000000000e+02 5.496471786499023438e+01 -7.533196926116943359e+00 4.015834808349609375e+00 4.443420886993408203e+00 2.537776708602905273e+00 5.441057205200195312e+00
3.820000000000000000e+02 5.509996032714843750e+01 -7.352986335754394531e+00 4.527434349060058594e+00 4.314208030700683594e+00 2.652492761611938477e+00 5.586634635925292969e+00
3.830000000000000000e+02 5.543736648559570312e+01 -7.776045322418212891e+00 3.681879043579101562e+00 1.027770328521728516e+01 4.187874794006347656e+00 7.441913127899169922e+00
3.840000000000000000e+02 5.560057830810546875e+01 -7.365080356597900391e+00 4.989643573760986328e+00 1.138479232788085938e+01 4.912330627441406250e+00 8.756221771240234375e+00
3.850000000000000000e+02 5.622481155395507812e+01 -7.499007225036621094e+00 2.189545869827270508e+00 2.269906234741210938e+01 7.466582298278808594e+00 5.175955295562744141e+00
3.860000000000000000e+02 5.674193954467773438e+01 -7.665376663208007812e+00 2.622737169265747070e+00 2.195507049560546875e+01 7.373342037200927734e+00 7.871655821800231934e-01
3.870000000000000000e+02 5.664173889160156250e+01 -7.354692935943603516e+00 4.018660545349121094e+00 2.523487281799316406e+01 8.776060104370117188e+00 -4.805960506200790405e-02
3.880000000000000000e+02 5.696539688110351562e+01 -7.059086322784423828e+00 8.929457664489746094e+00 2.349303627014160156e+01 9.726748466491699219e+00 -3.168473243713378906e+00
3.890000000000000000e+02 5.717451095581054688e+01 -6.888597965240478516e+00 1.135200214385986328e+01 2.113469505310058594e+01 9.746009826660156250e+00 -3.017546653747558594e+00
3.900000000000000000e+02 5.731200790405273438e+01 -6.583216667175292969e+00 1.331637954711914062e+01 1.913975715637207031e+01 9.736841201782226562e+00 -1.245510220527648926e+00
3.910000000000000000e+02 5.736981201171875000e+01 -5.777086734771728516e+00 9.803929328918457031e+00 1.957779884338378906e+01 8.814517974853515625e+00 2.919749975204467773e+00
3.920000000000000000e+02 5.639563369750976562e+01 -5.044256687164306641e+00 1.738362312316894531e+00 2.134007072448730469e+01 6.923529624938964844e+00 -3.672028064727783203e+00
3.930000000000000000e+02 5.381483459472656250e+01 -6.530622959136962891e+00 -3.617019176483154297e+00 3.622501343488693237e-02 -1.074238181114196777e+00 3.940094634890556335e-02
3.940000000000000000e+02 5.530149841308593750e+01 -5.360609531402587891e+00 4.935998916625976562e+00 7.248920917510986328e+00 3.655475854873657227e+00 -7.153937339782714844e+00
3.950000000000000000e+02 5.514108657836914062e+01 -5.299896240234375000e+00 4.544402122497558594e+00 5.584342956542968750e+00 3.038623571395874023e+00 -6.212118148803710938e+00
3.960000000000000000e+02 5.480222702026367188e+01 -5.398579597473144531e+00 3.498473167419433594e+00 2.872705698013305664e+00 1.911353588104248047e+00 -4.247059345245361328e+00
3.970000000000000000e+02 5.455817031860351562e+01 -5.207541465759277344e+00 3.093485593795776367e+00 2.666758060455322266e+00 1.728073120117187500e+00 -3.977877616882324219e+00
3.980000000000000000e+02 5.440510559082031250e+01 -5.210649967193603516e+00 2.414176702499389648e+00 1.805072307586669922e+00 1.265774726867675781e+00 -3.170108795166015625e+00
3.990000000000000000e+02 5.399834442138671875e+01 -6.801024436950683594e+00 -1.933961987495422363e+00 9.075319766998291016e-02 -5.529626607894897461e-01 3.271065950393676758e-01
4.000000000000000000e+02 5.529575729370117188e+01 -5.688636779785156250e+00 5.843342781066894531e+00 4.133464336395263672e+00 2.993042230606079102e+00 -5.906916618347167969e+00
4.010000000000000000e+02 5.463502883911132812e+01 -6.838747978210449219e+00 3.374591171741485596e-01 3.992154598236083984e-01 2.210023701190948486e-01 1.134207248687744141e+00
4.020000000000000000e+02 5.569839859008789062e+01 -7.639643669128417969e+00 3.505990028381347656e+00 1.387499046325683594e+01 5.214293956756591797e+00 7.996172904968261719e+00
4.030000000000000000e+02 5.722440719604492188e+01 -6.722908496856689453e+00 1.299908447265625000e+01 2.032173538208007812e+01 9.996246337890625000e+00 -2.283130407333374023e+00
4.040000000000000000e+02 5.705060958862304688e+01 -6.871211528778076172e+00 1.183844089508056641e+01 2.228318977355957031e+01 1.023648929595947266e+01 -3.286813259124755859e+00
4.050000000000000000e+02 5.342065811157226562e+01 -6.938452243804931641e+00 -2.045072078704833984e+00 8.660165965557098389e-02 -5.875411033630371094e-01 2.574171721935272217e-01
4.060000000000000000e+02 5.489134979248046875e+01 -7.245546340942382812e+00 3.662441730499267578e+00 2.292678356170654297e+00 1.786535978317260742e+00 3.960049390792846680e+00
4.070000000000000000e+02 5.397472000122070312e+01 -7.076944828033447266e+00 -3.646029233932495117e-01 3.243067264556884766e-01 -1.208886038511991501e-02 8.547400832176208496e-01
4.080000000000000000e+02 5.360206222534179688e+01 -5.541121482849121094e+00 -4.903805553913116455e-01 3.569627702236175537e-01 -4.002533480525016785e-02 -8.880578279495239258e-01
4.090000000000000000e+02 5.405090713500976562e+01 -5.586214065551757812e+00 3.583492040634155273e-01 4.430481493473052979e-01 2.404192090034484863e-01 -1.265775799751281738e+00
4.100000000000000000e+02 5.402695083618164062e+01 -5.290316581726074219e+00 1.378788113594055176e+00 9.636173248291015625e-01 7.027216553688049316e-01 -2.099395275115966797e+00
4.110000000000000000e+02 5.734151077270507812e+01 -6.722085952758789062e+00 1.211840915679931641e+01 1.909327888488769531e+01 9.363506317138671875e+00 -2.003298759460449219e+00
4.120000000000000000e+02 5.728697967529296875e+01 -7.038660049438476562e+00 9.511933326721191406e+00 2.007718086242675781e+01 8.876733779907226562e+00 -2.864091396331787109e+00
4.130000000000000000e+02 5.731397247314453125e+01 -6.880226135253906250e+00 1.106100559234619141e+01 1.968305778503417969e+01 9.223218917846679688e+00 -2.664484262466430664e+00
4.140000000000000000e+02 5.467142105102539062e+01 -7.504276752471923828e+00 3.402387380599975586e+00 2.518614768981933594e+00 1.776300668716430664e+00 4.077136993408203125e+00
4.150000000000000000e+02 5.421176910400390625e+01 -7.268947601318359375e+00 1.411026120185852051e+00 7.659628391265869141e-01 6.530966758728027344e-01 1.801719188690185547e+00
4.160000000000000000e+02 5.351385116577148438e+01 -5.746562480926513672e+00 -1.430043101310729980e+00 6.092806160449981689e-02 -4.107345044612884521e-01 -4.904165863990783691e-01
4.170000000000000000e+02 5.503602981567382812e+01 -5.516839027404785156e+00 4.320846080780029297e+00 3.313689947128295898e+00 2.290360927581787109e+00 -4.724930286407470703e+00
4.180000000000000000e+02 5.359019470214843750e+01 -6.952935695648193359e+00 -1.724499344825744629e+00 1.450908333063125610e-01 -4.738225638866424561e-01 3.777342438697814941e-01
4.190000000000000000e+02 5.340418624877929688e+01 -7.224531650543212891e+00 -8.561503887176513672e-01 2.406257092952728271e-01 -1.846574097871780396e-01 5.045320987701416016e-01
4.200000000000000000e+02 5.447226333618164062e+01 -5.380195140838623047e+00 2.491880178451538086e+00 1.415556669235229492e+00 1.172231078147888184e+00 -2.846371412277221680e+00
4.210000000000000000e+02 5.470971298217773438e+01 -5.257581233978271484e+00 3.224564075469970703e+00 3.084568023681640625e+00 1.892739534378051758e+00 -4.288595199584960938e+00
4.220000000000000000e+02 5.462411499023437500e+01 -5.689839839935302734e+00 1.712382316589355469e+00 8.769261240959167480e-01 7.767925262451171875e-01 -2.054064273834228516e+00
4.230000000000000000e+02 5.444054794311523438e+01 -5.981362819671630859e+00 -8.076575398445129395e-01 5.308277532458305359e-02 -2.263724207878112793e-01 -6.555833220481872559e-01
4.240000000000000000e+02 5.352592086791992188e+01 -7.350465297698974609e+00 -5.084665119647979736e-02 5.357626676559448242e-01 1.454748064279556274e-01 1.100405812263488770e+00
4.250000000000000000e+02 5.295736312866210938e+01 -6.044843196868896484e+00 -3.082708358764648438e+00 1.745985746383666992e-01 -8.724328875541687012e-01 5.420071259140968323e-02
4.260000000000000000e+02 5.105712127685546875e+01 -5.275914192199707031e+00 -2.143051147460937500e+00 6.311752647161483765e-02 -6.239801049232482910e-01 -1.700884401798248291e-01
4.270000000000000000e+02 5.264498519897460938e+01 -5.556394100189208984e+00 -1.636825323104858398e+00 2.722139954566955566e-01 -4.093833863735198975e-01 -3.778766095638275146e-01
4.280000000000000000e+02 5.298969268798828125e+01 -5.842318534851074219e+00 -2.650757551193237305e+00 1.119132041931152344e-01 -7.616533041000366211e-01 -2.810837030410766602e-01
4.290000000000000000e+02 5.233928680419921875e+01 -5.792439460754394531e+00 -2.895427465438842773e+00 -4.167633876204490662e-02 -8.811311125755310059e-01 -4.545496776700019836e-02
4.300000000000000000e+02 5.293624114990234375e+01 -5.233128547668457031e+00 -5.244385600090026855e-01 2.527493536472320557e-01 -8.150675892829895020e-02 -7.560403347015380859e-01
4.310000000000000000e+02 5.287439346313476562e+01 -5.008291721343994141e+00 -3.032881915569305420e-01 4.299844503402709961e-01 3.800887614488601685e-02 -1.129823446273803711e+00
4.320000000000000000e+02 5.042552185058593750e+01 -5.280788421630859375e+00 -2.368588924407958984e+00 5.032762140035629272e-02 -6.954783797264099121e-01 -1.187133267521858215e-01
4.330000000000000000e+02 5.117399597167968750e+01 -6.015381336212158203e+00 -3.594283580780029297e+00 2.043191157281398773e-02 -1.072155475616455078e+00 -2.822871133685112000e-02
4.340000000000000000e+02 5.263827133178710938e+01 -6.064646720886230469e+00 -3.527492046356201172e+00 -9.063456207513809204e-02 -1.085438013076782227e+00 -2.327416837215423584e-02
4.350000000000000000e+02 5.046796417236328125e+01 -6.020599842071533203e+00 -3.626452684402465820e+00 6.790356244891881943e-03 -1.085898756980895996e+00 1.516377553343772888e-03
4.360000000000000000e+02 5.284325408935546875e+01 -6.263957977294921875e+00 -3.979259729385375977e+00 4.980633780360221863e-02 -1.178835988044738770e+00 2.563347853720188141e-02
4.370000000000000000e+02 5.294979858398437500e+01 -5.457814693450927734e+00 -1.013973593711853027e+00 1.499347984790802002e-01 -2.592116296291351318e-01 -6.235498785972595215e-01
4.380000000000000000e+02 5.298888778686523438e+01 -5.659115791320800781e+00 -1.502565741539001465e+00 9.603107720613479614e-02 -4.219604134559631348e-01 -4.124102592468261719e-01
4.390000000000000000e+02 5.261238861083984375e+01 -5.207753658294677734e+00 -9.118371009826660156e-01 3.087908625602722168e-01 -1.809138655662536621e-01 -7.278942465782165527e-01
4.400000000000000000e+02 5.220564651489257812e+01 -5.193295955657958984e+00 -1.217305183410644531e+00 9.373471140861511230e-02 -3.370711207389831543e-01 -6.117945313453674316e-01
4.410000000000000000e+02 5.278492736816406250e+01 -5.776945590972900391e+00 -2.296995162963867188e+00 1.101440787315368652e-01 -6.560553312301635742e-01 -3.505924940109252930e-01
4.420000000000000000e+02 5.165903091430664062e+01 -5.247174739837646484e+00 -1.624285697937011719e+00 1.147293597459793091e-01 -4.528669118881225586e-01 -3.125978410243988037e-01
4.430000000000000000e+02 5.185033798217773438e+01 -5.986297607421875000e+00 -3.510054111480712891e+00 2.099975477904081345e-03 -1.052386283874511719e+00 -4.619515314698219299e-02
4.440000000000000000e+02 4.973712158203125000e+01 -6.022009849548339844e+00 -3.604913949966430664e+00 -7.372124120593070984e-03 -1.083685755729675293e+00 8.365696412511169910e-04
4.450000000000000000e+02 4.822954940795898438e+01 -5.298838615417480469e+00 -2.718039035797119141e+00 1.395953912287950516e-02 -8.112238049507141113e-01 1.502658613026142120e-02
4.460000000000000000e+02 4.973141479492187500e+01 -5.282030582427978516e+00 -2.529788255691528320e+00 2.280650101602077484e-02 -7.520945072174072266e-01 -5.014692619442939758e-02
4.470000000000000000e+02 4.747710418701171875e+01 -5.303358078002929688e+00 -2.739287137985229492e+00 7.096769288182258606e-03 -8.196571469306945801e-01 3.772202134132385254e-02
4.480000000000000000e+02 4.748569488525390625e+01 -6.043309688568115234e+00 -3.451526641845703125e+00 -6.154644506750628352e-05 -1.035476446151733398e+00 7.990684360265731812e-03
4.490000000000000000e+02 4.823717880249023438e+01 -6.038799285888671875e+00 -3.510979175567626953e+00 -6.738436059094965458e-04 -1.053495883941650391e+00 8.753716945648193359e-03
4.500000000000000000e+02 4.898765563964843750e+01 -6.031750202178955078e+00 -3.562880754470825195e+00 7.930392399430274963e-03 -1.066485047340393066e+00 1.454121083952486515e-03
4.510000000000000000e+02 4.898098754882812500e+01 -5.291779994964599609e+00 -2.655597925186157227e+00 2.141089923679828644e-02 -7.902560830116271973e-01 -6.368483416736125946e-03
4.520000000000000000e+02 4.448383331298828125e+01 -6.086326122283935547e+00 -3.111221551895141602e+00 3.446803748374804854e-05 -9.333561062812805176e-01 4.641762934625148773e-03
4.530000000000000000e+02 4.522269439697265625e+01 -5.335564136505126953e+00 -2.690464258193969727e+00 6.624504458159208298e-03 -8.051518797874450684e-01 7.605001330375671387e-02
4.540000000000000000e+02 4.523437500000000000e+01 -6.075472354888916016e+00 -3.200027704238891602e+00 -4.924672539345920086e-04 -9.601560235023498535e-01 5.169659387320280075e-03
4.550000000000000000e+02 4.598466110229492188e+01 -6.063519477844238281e+00 -3.288471221923828125e+00 2.326488029211759567e-03 -9.858434200286865234e-01 3.451684024184942245e-03
4.560000000000000000e+02 4.673505020141601562e+01 -6.051823139190673828e+00 -3.377167463302612305e+00 -3.261072561144828796e-03 -1.014128565788269043e+00 4.475420340895652771e-03
4.570000000000000000e+02 4.672545623779296875e+01 -5.311883449554443359e+00 -2.739638805389404297e+00 5.627921316772699356e-03 -8.202032446861267090e-01 5.697747692465782166e-02
4.580000000000000000e+02 4.447110748291015625e+01 -5.346434116363525391e+00 -2.638573169708251953e+00 1.639157533645629883e-03 -7.910801768302917480e-01 8.365815132856369019e-02
4.590000000000000000e+02 4.597402191162109375e+01 -5.323595523834228516e+00 -2.724991321563720703e+00 5.830680485814809799e-03 -8.157481551170349121e-01 6.879004836082458496e-02
4.600000000000000000e+02 4.223370742797851562e+01 -6.133643150329589844e+00 -2.790787458419799805e+00 5.486118025146424770e-04 -8.370717167854309082e-01 2.200596965849399567e-03
4.610000000000000000e+02 4.148229217529296875e+01 -6.146579742431640625e+00 -2.682882308959960938e+00 -4.218992544338107109e-04 -8.049913048744201660e-01 2.311680465936660767e-03
4.620000000000000000e+02 4.221790695190429688e+01 -5.393811225891113281e+00 -2.441462993621826172e+00 5.427398718893527985e-03 -7.308107018470764160e-01 9.909743070602416992e-02
4.630000000000000000e+02 4.298408889770507812e+01 -6.118122577667236328e+00 -2.900288820266723633e+00 2.177945571020245552e-03 -8.694332242012023926e-01 -5.400783848017454147e-04
4.640000000000000000e+02 4.373342132568359375e+01 -6.099862575531005859e+00 -3.010938882827758789e+00 -3.601694013923406601e-03 -9.043621420860290527e-01 9.540486498735845089e-04
4.650000000000000000e+02 4.371966552734375000e+01 -5.359988689422607422e+00 -2.579202175140380859e+00 3.301898017525672913e-03 -7.727701067924499512e-01 9.329328685998916626e-02
4.660000000000000000e+02 4.146547317504882812e+01 -5.406769752502441406e+00 -2.355351209640502930e+00 1.968818018212914467e-03 -7.060146927833557129e-01 1.040315702557563782e-01
4.670000000000000000e+02 4.296931076049804688e+01 -5.378270149230957031e+00 -2.517170906066894531e+00 4.065720364451408386e-03 -7.539315223693847656e-01 9.849540144205093384e-02
4.680000000000000000e+02 3.846181488037109375e+01 -5.483074665069580078e+00 -1.989025115966796875e+00 5.672872066497802734e-03 -5.950056910514831543e-01 1.163433119654655457e-01
4.690000000000000000e+02 3.848166656494140625e+01 -6.222808361053466797e+00 -2.208669900894165039e+00 1.108065713196992874e-03 -6.622685790061950684e-01 4.107450600713491440e-03
4.700000000000000000e+02 3.923187255859375000e+01 -6.203719139099121094e+00 -2.326540946960449219e+00 9.523158078081905842e-04 -6.976765990257263184e-01 2.128137275576591492e-03
4.710000000000000000e+02 3.998181152343750000e+01 -6.183495998382568359e+00 -2.445312500000000000e+00 1.342822914011776447e-03 -7.331908941268920898e-01 -1.184281281894072890e-04
4.720000000000000000e+02 4.073185729980468750e+01 -6.163486957550048828e+00 -2.567424058914184570e+00 -1.615497167222201824e-03 -7.707118988037109375e-01 1.813923008739948273e-04
4.730000000000000000e+02 4.071416854858398438e+01 -5.423696517944335938e+00 -2.269256591796875000e+00 3.166706766933202744e-03 -6.798269152641296387e-01 1.093056350946426392e-01
4.740000000000000000e+02 3.921274185180664062e+01 -5.463966846466064453e+00 -2.086893796920776367e+00 6.458279676735401154e-03 -6.241306066513061523e-01 1.133851930499076843e-01
4.750000000000000000e+02 3.996340179443359375e+01 -5.443724155426025391e+00 -2.181414365768432617e+00 4.939494654536247253e-03 -6.529424190521240234e-01 1.122282445430755615e-01
4.760000000000000000e+02 3.698171997070312500e+01 -6.262598514556884766e+00 -1.964458584785461426e+00 1.687171286903321743e-03 -5.888314247131347656e-01 7.900554686784744263e-03
4.770000000000000000e+02 3.621255493164062500e+01 -5.544963359832763672e+00 -1.686336159706115723e+00 8.890765719115734100e-03 -5.032336115837097168e-01 1.269570142030715942e-01
4.780000000000000000e+02 3.548279571533203125e+01 -6.306656837463378906e+00 -1.718920946121215820e+00 3.068465972319245338e-03 -5.147557258605957031e-01 1.506762858480215073e-02
4.790000000000000000e+02 3.771127700805664062e+01 -5.501970291137695312e+00 -1.888929009437561035e+00 6.550503894686698914e-03 -5.647135376930236816e-01 1.203356310725212097e-01
4.800000000000000000e+02 3.773139953613281250e+01 -6.241697311401367188e+00 -2.087859630584716797e+00 7.981411181390285492e-04 -6.261184811592102051e-01 5.749160889536142349e-03
4.810000000000000000e+02 3.546322250366210938e+01 -5.566914081573486328e+00 -1.584348201751708984e+00 9.798518382012844086e-03 -4.723649024963378906e-01 1.299770623445510864e-01
4.820000000000000000e+02 3.696178054809570312e+01 -5.522866249084472656e+00 -1.788904786109924316e+00 7.356251124292612076e-03 -5.344645380973815918e-01 1.236923262476921082e-01
4.830000000000000000e+02 3.623231124877929688e+01 -6.284700870513916016e+00 -1.842188358306884766e+00 1.786565175279974937e-03 -5.521205663681030273e-01 1.085625402629375458e-02
4.840000000000000000e+02 3.323463058471679688e+01 -6.359344959259033203e+00 -1.364256858825683594e+00 1.804970437660813332e-03 -4.087355732917785645e-01 2.867693081498146057e-02
4.850000000000000000e+02 3.321954727172851562e+01 -5.619493961334228516e+00 -1.273088693618774414e+00 8.937027305364608765e-03 -3.792454898357391357e-01 1.416241377592086792e-01
4.860000000000000000e+02 3.248681640625000000e+01 -6.379900932312011719e+00 -1.242400527000427246e+00 4.190518986433744431e-03 -3.714630007743835449e-01 3.330168128013610840e-02
4.870000000000000000e+02 3.398349380493164062e+01 -6.341384410858154297e+00 -1.482651829719543457e+00 2.477376256138086319e-03 -4.440523386001586914e-01 2.564436942338943481e-02
4.880000000000000000e+02 3.471478271484375000e+01 -5.586100101470947266e+00 -1.480781912803649902e+00 9.858935140073299408e-03 -4.412768781185150146e-01 1.323822289705276489e-01
4.890000000000000000e+02 3.473338699340820312e+01 -6.325866699218750000e+00 -1.599409818649291992e+00 3.409915370866656303e-03 -4.787999689579010010e-01 2.069678157567977905e-02
4.900000000000000000e+02 3.247348785400390625e+01 -5.640007495880126953e+00 -1.175020337104797363e+00 1.031943876296281815e-02 -3.494102656841278076e-01 1.435779780149459839e-01
4.910000000000000000e+02 3.396664810180664062e+01 -5.601575374603271484e+00 -1.376068592071533203e+00 8.428223431110382080e-03 -4.102920889854431152e-01 1.364113986492156982e-01
4.920000000000000000e+02 3.099083137512207031e+01 -6.399948596954345703e+00 -1.025392532348632812e+00 1.149970688857138157e-03 -3.072727620601654053e-01 4.534872993826866150e-02
4.930000000000000000e+02 3.024179267883300781e+01 -5.667771339416503906e+00 -8.778052330017089844e-01 4.219759721308946609e-03 -2.620756328105926514e-01 1.505264043807983398e-01
4.940000000000000000e+02 2.949573898315429688e+01 -6.414954185485839844e+00 -8.026072382926940918e-01 3.363909898325800896e-03 -2.397729903459548950e-01 5.080588907003402710e-02
4.950000000000000000e+02 3.172830200195312500e+01 -5.652883052825927734e+00 -1.074355363845825195e+00 9.024410508573055267e-03 -3.195992708206176758e-01 1.438704431056976318e-01
4.960000000000000000e+02 3.173856925964355469e+01 -6.392818927764892578e+00 -1.129920125007629395e+00 4.157194867730140686e-03 -3.377288877964019775e-01 4.062271118164062500e-02
4.970000000000000000e+02 2.949855422973632812e+01 -5.674893379211425781e+00 -7.876262664794921875e-01 5.218080710619688034e-03 -2.347224503755569458e-01 1.498128920793533325e-01
4.980000000000000000e+02 3.098492622375488281e+01 -5.659971237182617188e+00 -9.737787842750549316e-01 5.471797659993171692e-03 -2.904920876026153564e-01 1.467189490795135498e-01
4.990000000000000000e+02 3.024333572387695312e+01 -6.407790660858154297e+00 -9.159607887268066406e-01 1.205885666422545910e-03 -2.744264602661132812e-01 4.693585261702537537e-02
5.000000000000000000e+02 2.800358009338378906e+01 -6.392907142639160156e+00 -6.173646450042724609e-01 -2.390131121501326561e-03 -1.859264373779296875e-01 6.015527248382568359e-02
5.010000000000000000e+02 2.728431129455566406e+01 -5.636834621429443359e+00 -5.267603993415832520e-01 -7.223477587103843689e-03 -1.601951569318771362e-01 1.456168144941329956e-01
5.020000000000000000e+02 2.651304817199707031e+01 -6.358762741088867188e+00 -4.315422773361206055e-01 -1.466900343075394630e-03 -1.299027502536773682e-01 5.749407783150672913e-02
5.030000000000000000e+02 2.875823974609375000e+01 -5.669638156890869141e+00 -6.975313425064086914e-01 1.998338382691144943e-03 -2.086599022150039673e-01 1.463773846626281738e-01
5.040000000000000000e+02 2.874904632568359375e+01 -6.409622669219970703e+00 -7.037729024887084961e-01 2.242389833554625511e-03 -2.104591578245162964e-01 5.743817985057830811e-02
5.050000000000000000e+02 2.654741096496582031e+01 -5.619358539581298828e+00 -4.513860940933227539e-01 -7.236833218485116959e-03 -1.375868767499923706e-01 1.400474309921264648e-01
5.060000000000000000e+02 2.802116203308105469e+01 -5.653115749359130859e+00 -6.084766387939453125e-01 -3.543564351275563240e-03 -1.836060732603073120e-01 1.460429280996322632e-01
5.070000000000000000e+02 2.725833702087402344e+01 -6.376431941986083984e+00 -5.255019068717956543e-01 -2.267027739435434341e-03 -1.583306938409805298e-01 5.833335965871810913e-02
5.080000000000000000e+02 2.428754043579101562e+01 -6.197861671447753906e+00 -2.216859310865402222e-01 -6.919767707586288452e-03 -6.858170777559280396e-02 5.159480869770050049e-02
5.090000000000000000e+02 2.435861396789550781e+01 -5.461198806762695312e+00 -2.483512461185455322e-01 -2.295545674860477448e-02 -8.139201253652572632e-02 1.170607581734657288e-01
5.100000000000000000e+02 2.354777717590332031e+01 -6.138960838317871094e+00 -1.576482355594635010e-01 -8.685270324349403381e-03 -4.990005120635032654e-02 4.360774904489517212e-02
5.110000000000000000e+02 2.502826499938964844e+01 -6.258197307586669922e+00 -2.885974049568176270e-01 -8.248435333371162415e-03 -8.905375748872756958e-02 5.768904089927673340e-02
5.120000000000000000e+02 2.581491851806640625e+01 -5.581003189086914062e+00 -3.785730302333831787e-01 -1.202090363949537277e-02 -1.171781793236732483e-01 1.310025155544281006e-01
5.130000000000000000e+02 2.576985549926757812e+01 -6.319781780242919922e+00 -3.533943891525268555e-01 -2.828594297170639038e-03 -1.068668961524963379e-01 5.942869558930397034e-02
5.140000000000000000e+02 2.363185691833496094e+01 -5.403356075286865234e+00 -1.933804601430892944e-01 -2.262635715305805206e-02 -6.480204313993453979e-02 1.049716621637344360e-01
5.150000000000000000e+02 2.508633232116699219e+01 -5.520476818084716797e+00 -3.089956641197204590e-01 -1.751579530537128448e-02 -9.795343875885009766e-02 1.254317909479141235e-01
5.160000000000000000e+02 2.146717453002929688e+01 -5.077126979827880859e+00 -6.686238944530487061e-02 -3.201415762305259705e-02 -2.966296486556529999e-02 5.792194604873657227e-02
5.170000000000000000e+02 2.134441947937011719e+01 -5.806876659393310547e+00 -3.542711213231086731e-02 -5.616877693682909012e-03 -1.231319643557071686e-02 2.085196599364280701e-02
5.180000000000000000e+02 2.061148262023925781e+01 -5.684748649597167969e+00 -9.853251278400421143e-03 -7.408072706311941147e-03 -5.178397055715322495e-03 1.311605609953403473e-02
5.190000000000000000e+02 2.207760429382324219e+01 -5.928263664245605469e+00 -6.787341088056564331e-02 -1.265111565589904785e-02 -2.415735833346843719e-02 2.976872585713863373e-02
5.200000000000000000e+02 2.290797805786132812e+01 -5.314875125885009766e+00 -1.451705992221832275e-01 -2.697015553712844849e-02 -5.164222419261932373e-02 8.906304836273193359e-02
5.210000000000000000e+02 2.281096076965332031e+01 -6.048885822296142578e+00 -1.064011976122856140e-01 -6.578752305358648300e-03 -3.389398381114006042e-02 3.850977122783660889e-02
5.220000000000000000e+02 2.074710655212402344e+01 -4.957129478454589844e+00 -4.710211232304573059e-02 -2.072502300143241882e-02 -2.034814096987247467e-02 3.811352699995040894e-02
5.230000000000000000e+02 2.218749046325683594e+01 -5.196383476257324219e+00 -1.023567840456962585e-01 -2.860829792916774750e-02 -3.928952291607856750e-02 7.644332200288772583e-02
5.240000000000000000e+02 1.905580329895019531e+01 -4.613489627838134766e+00 -5.895030684769153595e-03 -1.097543165087699890e-02 -5.061138886958360672e-03 3.327100770547986031e-03
5.250000000000000000e+02 1.978026580810546875e+01 -5.523462295532226562e+00 2.179779810830950737e-03 -5.331870634108781815e-03 -9.456272237002849579e-04 1.488319947384297848e-03
5.260000000000000000e+02 1.992511749267578125e+01 -4.797539234161376953e+00 -2.459250576794147491e-02 -2.352636680006980896e-02 -1.443566195666790009e-02 2.407056093215942383e-02
5.270000000000000000e+02 1.847771644592285156e+01 -4.667171001434326172e+00 -6.949084927327930927e-04 1.017956063151359558e-02 2.845395589247345924e-03 -3.889676881954073906e-03
5.280000000000000000e+02 1.890536689758300781e+01 -5.338151454925537109e+00 3.284317906945943832e-03 1.675665960647165775e-03 1.487995148636400700e-03 -1.316945650614798069e-03
5.290000000000000000e+02 1.882146453857421875e+01 -6.111851215362548828e+00 -6.545869633555412292e-03 -1.401728135533630848e-03 -2.384279388934373856e-03 -8.002509362995624542e-03
5.300000000000000000e+02 1.800308799743652344e+01 -6.754832744598388672e+00 -7.826700806617736816e-03 -3.648215532302856445e-02 -1.329265721142292023e-02 -9.942084550857543945e-03
5.310000000000000000e+02 1.831862449645996094e+01 -6.817986488342285156e+00 -3.390329331159591675e-02 -2.234807051718235016e-02 -1.687540858983993530e-02 -2.592132799327373505e-02
5.320000000000000000e+02 1.959215354919433594e+01 -7.028707504272460938e+00 -1.771484762430191040e-01 1.442366628907620907e-03 -5.271183326840400696e-02 -7.610505819320678711e-02
5.330000000000000000e+02 1.890554809570312500e+01 -6.889476776123046875e+00 -1.000682562589645386e-01 -2.375831827521324158e-02 -3.714797273278236389e-02 -5.663183331489562988e-02
5.340000000000000000e+02 1.965883255004882812e+01 -6.285129547119140625e+00 -6.332498043775558472e-02 -2.087473170831799507e-03 -1.962373778223991394e-02 -2.081765234470367432e-02
5.350000000000000000e+02 1.828899765014648438e+01 -6.266255378723144531e+00 -8.818097412586212158e-03 -1.292395172640681267e-03 -3.033147891983389854e-03 -5.083826836198568344e-03
5.360000000000000000e+02 1.796524238586425781e+01 -6.500696659088134766e+00 -4.871180746704339981e-03 -6.324439309537410736e-03 -3.358686110004782677e-03 2.175786532461643219e-03
5.370000000000000000e+02 1.870004081726074219e+01 -7.443708896636962891e+00 -1.419555693864822388e-01 -2.758135646581649780e-02 -5.086107552051544189e-02 -1.068197190761566162e-01
5.380000000000000000e+02 1.717682838439941406e+01 -9.378973007202148438e+00 -1.679579168558120728e-01 -2.092235684394836426e-01 -1.131544411182403564e-01 -2.059280723333358765e-01
5.390000000000000000e+02 2.244647789001464844e+01 -9.097997665405273438e+00 -5.905678272247314453e-01 2.577857114374637604e-02 -1.694367676973342896e-01 -2.758760452270507812e-01
5.400000000000000000e+02 2.792470359802246094e+01 -8.653438568115234375e+00 -1.174524188041687012e+00 -1.110488642007112503e-02 -3.556887209415435791e-01 -2.124035954475402832e-01
5.410000000000000000e+02 2.406732940673828125e+01 -8.452723503112792969e+00 -7.499781847000122070e-01 1.773442886769771576e-02 -2.196731269359588623e-01 -2.053314447402954102e-01
5.420000000000000000e+02 1.503206348419189453e+01 -1.275220203399658203e+01 -4.084880352020263672e-01 -6.159781217575073242e-01 -3.073398470878601074e-01 -4.876181185245513916e-01
5.430000000000000000e+02 1.245592403411865234e+01 -1.607358551025390625e+01 -6.157452464103698730e-01 -6.414079666137695312e-01 -3.771459460258483887e-01 -6.170777082443237305e-01
5.440000000000000000e+02 1.440505599975585938e+01 -1.586089038848876953e+01 -5.369558930397033691e-01 -5.097469091415405273e-01 -3.140108287334442139e-01 -5.021053552627563477e-01
5.450000000000000000e+02 1.492317771911621094e+01 -2.464723396301269531e+01 1.835729554295539856e-02 -3.966270387172698975e-01 -1.134809181094169617e-01 -3.510275185108184814e-01
5.460000000000000000e+02 1.883521080017089844e+01 -2.984522247314453125e+01 2.616074979305267334e-01 -2.252769321203231812e-01 1.089917216449975967e-02 -2.839386761188507080e-01
5.470000000000000000e+02 1.775002479553222656e+01 -4.064778900146484375e+01 3.833907842636108398e-01 -2.326130419969558716e-01 4.523332044482231140e-02 -4.882188513875007629e-02
5.480000000000000000e+02 2.263695144653320312e+01 -4.091448974609375000e+01 5.087087750434875488e-01 1.676351763308048248e-02 1.576416790485382080e-01 -3.273978829383850098e-02
5.490000000000000000e+02 1.888304519653320312e+01 -3.702188491821289062e+01 3.969925343990325928e-01 -1.959861665964126587e-01 6.030191481113433838e-02 -1.327839344739913940e-01
5.500000000000000000e+02 2.040741157531738281e+01 -3.364833450317382812e+01 3.943492174148559570e-01 -1.309422552585601807e-01 7.902208715677261353e-02 -2.015680670738220215e-01
5.510000000000000000e+02 2.195281982421875000e+01 -2.305084228515625000e+01 -1.443526241928339005e-02 -1.098285540938377380e-01 -3.727914392948150635e-02 -3.881658315658569336e-01
5.520000000000000000e+02 2.428882789611816406e+01 -1.346111774444580078e+01 -5.999600291252136230e-01 1.566567830741405487e-02 -1.752883046865463257e-01 -4.956888854503631592e-01
5.530000000000000000e+02 2.334007263183593750e+01 -1.376598167419433594e+01 -5.737370252609252930e-01 1.065446343272924423e-02 -1.689247637987136841e-01 -4.929587244987487793e-01
5.540000000000000000e+02 1.335959815979003906e+01 -1.498837757110595703e+01 -5.731527209281921387e-01 -6.487652063369750977e-01 -3.665753901004791260e-01 -5.949757695198059082e-01
5.550000000000000000e+02 1.150096988677978516e+01 -1.720172882080078125e+01 -7.388970851898193359e-01 -6.194913387298583984e-01 -4.075165390968322754e-01 -6.041675806045532227e-01
5.560000000000000000e+02 1.030079364776611328e+01 -1.808698654174804688e+01 -9.045503735542297363e-01 -5.028303861618041992e-01 -4.222142398357391357e-01 -5.024521350860595703e-01
5.570000000000000000e+02 9.008029937744140625e+00 -1.839270591735839844e+01 -6.497820615768432617e-01 -1.736647337675094604e-01 -2.470340430736541748e-01 -2.757282555103302002e-01
5.580000000000000000e+02 7.203770637512207031e+00 -1.739606285095214844e+01 -1.218818575143814087e-01 4.665199294686317444e-02 -2.256895974278450012e-02 -2.604645304381847382e-02
5.590000000000000000e+02 6.360940933227539062e+00 -1.643437004089355469e+01 1.195324468426406384e-03 9.549264796078205109e-03 3.223376814275979996e-03 -1.035256683826446533e-02
5.600000000000000000e+02 7.060060501098632812e+00 -1.513303661346435547e+01 9.131948463618755341e-03 3.892914578318595886e-02 1.441832818090915680e-02 -1.265962515026330948e-02
5.610000000000000000e+02 8.913833618164062500e+00 -1.146137523651123047e+01 -1.578235183842480183e-03 -1.389734912663698196e-03 -8.903910056687891483e-04 1.257398747839033604e-03
5.620000000000000000e+02 9.682587623596191406e+00 -1.031820487976074219e+01 8.901960682123899460e-04 6.711667519994080067e-04 4.684088635258376598e-04 -1.120949629694223404e-03
5.630000000000000000e+02 1.213438796997070312e+01 -7.055004596710205078e+00 -3.917847643606364727e-04 -2.713916182983666658e-04 -1.989529118873178959e-04 2.157304988941177726e-04
5.640000000000000000e+02 1.174002170562744141e+01 -2.746164083480834961e+00 -1.647881726967170835e-04 1.824292558012530208e-04 5.292324203765019774e-06 2.154865360353142023e-04
5.650000000000000000e+02 1.225809764862060547e+01 -4.638967990875244141e+00 1.953999308170750737e-04 3.429252319619990885e-05 6.890773511258885264e-05 -2.611287927720695734e-04
5.660000000000000000e+02 1.105526542663574219e+01 -1.910506606101989746e+00 -8.820919174468144774e-05 1.160670362878590822e-04 8.357353181054349989e-06 2.155125403078272939e-04
5.670000000000000000e+02 4.268337726593017578e+00 -1.933496356010437012e+00 -4.765241465065628290e-05 1.167017671832581982e-05 -1.079467074305284768e-05 -1.987737050512805581e-04
5.680000000000000000e+02 1.561142325401306152e+00 -1.476856708526611328e+01 3.014986403286457062e-03 6.728577893227338791e-03 2.923069288954138756e-03 1.008212566375732422e-02
5.690000000000000000e+02 4.453104019165039062e+00 -1.870317649841308594e+01 -1.189860031008720398e-01 -4.143369942903518677e-02 -4.812591150403022766e-02 -6.010743230581283569e-02
5.700000000000000000e+02 6.719930768013000488e-01 -2.480708503723144531e+01 -3.358362009748816490e-03 -2.089330852031707764e-01 -6.368742883205413818e-02 -4.479423910379409790e-02
5.710000000000000000e+02 7.814891934394836426e-01 -3.190279769897460938e+01 3.501733532175421715e-03 -6.649903059005737305e-01 -1.984465718269348145e-01 -4.054475575685501099e-02
5.720000000000000000e+02 2.825564861297607422e+00 -3.795306015014648438e+01 2.589901164174079895e-02 -7.680269479751586914e-01 -2.226383835077285767e-01 -3.853855654597282410e-02
5.730000000000000000e+02 8.062570691108703613e-01 -3.730072021484375000e+01 2.087045926600694656e-03 -8.506430387496948242e-01 -2.545668184757232666e-01 -4.691392648965120316e-03
5.740000000000000000e+02 8.850008010864257812e+00 -3.814795303344726562e+01 1.508630067110061646e-01 -5.295957326889038086e-01 -1.136198118329048157e-01 -1.150558367371559143e-01
5.750000000000000000e+02 7.905166149139404297e+00 -3.309334182739257812e+01 1.094664111733436584e-01 -5.087797641754150391e-01 -1.197939962148666382e-01 -2.326402813196182251e-01
5.760000000000000000e+02 1.240797424316406250e+01 -2.133853912353515625e+01 -1.526357829570770264e-01 -4.947268068790435791e-01 -1.942087709903717041e-01 -3.752895593643188477e-01
5.770000000000000000e+02 1.091395282745361328e+01 -2.221334266662597656e+01 -8.754336088895797729e-02 -4.838660359382629395e-01 -1.714228093624114990e-01 -3.846809267997741699e-01
5.780000000000000000e+02 6.473596692085266113e-01 -2.337773513793945312e+01 -3.275191644206643105e-03 -1.209542825818061829e-01 -3.726884350180625916e-02 -3.765675798058509827e-02
5.790000000000000000e+02 1.254815769195556641e+01 -1.998120427131652832e+00 2.260331530123949051e-05 6.644041422987356782e-05 2.671311813173815608e-05 6.645813846262171865e-05
5.800000000000000000e+02 2.745136260986328125e+01 -4.097228240966796875e+01 5.920841097831726074e-01 3.609272539615631104e-01 2.859034240245819092e-01 -1.748502440750598907e-02
5.810000000000000000e+02 2.733546638488769531e+01 -3.786523056030273438e+01 5.785254836082458496e-01 3.306524455547332764e-01 2.727533876895904541e-01 -6.029662862420082092e-02
5.820000000000000000e+02 2.983332061767578125e+01 -3.170625114440917969e+01 5.237199664115905762e-01 4.752256274223327637e-01 2.996836602687835693e-01 -1.076882258057594299e-01
5.830000000000000000e+02 2.917698860168457031e+01 -2.322999382019042969e+01 1.665056496858596802e-01 1.704051047563552856e-01 1.010732278227806091e-01 -3.187795579433441162e-01
5.840000000000000000e+02 3.070114707946777344e+01 -1.421962738037109375e+01 -6.085420846939086914e-01 2.510723844170570374e-02 -1.750304400920867920e-01 -4.657074809074401855e-01
5.850000000000000000e+02 3.097975349426269531e+01 -8.663219451904296875e+00 -1.476877212524414062e+00 -1.801659725606441498e-02 -4.484681487083435059e-01 -2.202005684375762939e-01
5.860000000000000000e+02 2.939034080505371094e+01 -9.427070617675781250e+00 -1.211179852485656738e+00 -1.563262939453125000e-02 -3.680437505245208740e-01 -2.852280437946319580e-01
5.870000000000000000e+02 4.234368896484375000e+01 -4.042243194580078125e+01 4.766099452972412109e-01 2.363734960556030273e+00 8.521034717559814453e-01 7.780059427022933960e-02
5.880000000000000000e+02 3.722604370117187500e+01 -4.044760131835937500e+01 5.998939871788024902e-01 1.546411395072937012e+00 6.438916325569152832e-01 3.295851498842239380e-02
5.890000000000000000e+02 3.222666931152343750e+01 -3.052622413635253906e+01 5.292168855667114258e-01 6.452916860580444336e-01 3.523525595664978027e-01 -5.580745637416839600e-02
5.900000000000000000e+02 3.577879714965820312e+01 -2.368431472778320312e+01 3.827349543571472168e-01 6.656599044799804688e-01 3.145184516906738281e-01 -2.977876923978328705e-02
5.910000000000000000e+02 3.948950576782226562e+01 -1.361021995544433594e+01 -5.703329443931579590e-01 1.775913238525390625e-01 -1.178224831819534302e-01 -1.493137478828430176e-01
5.920000000000000000e+02 3.926247024536132812e+01 -8.440344810485839844e+00 -2.124686717987060547e+00 -1.022980199195444584e-03 -6.377129554748535156e-01 -2.164857834577560425e-01
5.930000000000000000e+02 3.774840164184570312e+01 -9.187326431274414062e+00 -1.806192517280578613e+00 -3.892826382070779800e-03 -5.430256128311157227e-01 -2.587053477764129639e-01
5.940000000000000000e+02 3.627501296997070312e+01 -8.530360221862792969e+00 -1.922493577003479004e+00 -9.936750866472721100e-03 -5.797290802001953125e-01 -2.274274528026580811e-01
5.950000000000000000e+02 4.286949539184570312e+01 -3.660371780395507812e+01 4.644214808940887451e-01 2.419873237609863281e+00 8.652884364128112793e-01 2.113581299781799316e-01
5.960000000000000000e+02 4.523787307739257812e+01 -3.082243728637695312e+01 3.815495669841766357e-01 2.820267438888549805e+00 9.605451226234436035e-01 5.286299586296081543e-01
5.970000000000000000e+02 3.968334197998046875e+01 -2.266223526000976562e+01 4.188037812709808350e-01 1.038593649864196777e+00 4.372192323207855225e-01 2.549014687538146973e-01
5.980000000000000000e+02 4.672943496704101562e+01 -8.293534278869628906e+00 -2.195139169692993164e+00 4.081549867987632751e-02 -6.462970972061157227e-01 -5.635841935873031616e-02
5.990000000000000000e+02 4.299513626098632812e+01 -8.354124069213867188e+00 -2.282972335815429688e+00 1.148039195686578751e-02 -6.814475655555725098e-01 -1.754117906093597412e-01
6.000000000000000000e+02 4.368685150146484375e+01 -9.042494773864746094e+00 -1.921985387802124023e+00 3.636749833822250366e-02 -5.656853318214416504e-01 -1.475266516208648682e-01
6.010000000000000000e+02 4.224853134155273438e+01 -8.369424819946289062e+00 -2.262502670288085938e+00 8.677593432366847992e-03 -6.761475205421447754e-01 -1.866665333509445190e-01
6.020000000000000000e+02 5.224790954589843750e+01 -4.077277755737304688e+01 3.294834867119789124e-02 4.513854026794433594e+00 1.364040613174438477e+00 7.496249675750732422e-02
6.030000000000000000e+02 5.088817596435546875e+01 -3.420918655395507812e+01 5.656429752707481384e-02 4.290574550628662109e+00 1.304141759872436523e+00 4.158724248409271240e-01
6.040000000000000000e+02 4.964358901977539062e+01 -2.372322654724121094e+01 1.303769499063491821e-01 3.770411968231201172e+00 1.170236706733703613e+00 1.198040723800659180e+00
6.050000000000000000e+02 4.896891784667968750e+01 -1.535260677337646484e+01 4.413789510726928711e-01 2.310163974761962891e+00 8.254628777503967285e-01 1.676584839820861816e+00
6.060000000000000000e+02 5.195377349853515625e+01 -8.123813629150390625e+00 -4.587777554988861084e-01 3.610619902610778809e-01 -2.931473217904567719e-02 8.700079917907714844e-01
6.070000000000000000e+02 5.120759963989257812e+01 -8.721108436584472656e+00 -3.367555737495422363e-01 4.960482716560363770e-01 4.778780415654182434e-02 9.489884376525878906e-01
6.080000000000000000e+02 4.973591995239257812e+01 -8.249176025390625000e+00 -1.644483566284179688e+00 1.194333806633949280e-01 -4.575150609016418457e-01 2.245210707187652588e-01
6.090000000000000000e+02 6.217659378051757812e+01 -4.044601058959960938e+01 -2.583602368831634521e-01 6.475983142852783203e+00 1.865286946296691895e+00 2.193404361605644226e-02
6.100000000000000000e+02 5.714334106445312500e+01 -4.046266555786132812e+01 -1.668654233217239380e-01 5.615828514099121094e+00 1.634688973426818848e+00 6.912747025489807129e-02
6.110000000000000000e+02 5.641539764404296875e+01 -3.181928443908691406e+01 -2.782329022884368896e-01 5.582080364227294922e+00 1.591154217720031738e+00 4.158064424991607666e-01
6.120000000000000000e+02 5.782777786254882812e+01 -2.353079414367675781e+01 -6.657863259315490723e-01 6.814143657684326172e+00 1.844507217407226562e+00 7.345371842384338379e-01
6.130000000000000000e+02 5.280483627319335938e+01 -1.491008186340332031e+01 1.578084230422973633e-01 5.004902362823486328e+00 1.548813223838806152e+00 2.579938650131225586e+00
6.140000000000000000e+02 5.582906341552734375e+01 -8.040592193603515625e+00 1.972106218338012695e+00 1.484073448181152344e+01 5.043852329254150391e+00 6.657119750976562500e+00
6.150000000000000000e+02 6.237990570068359375e+01 -3.660084915161132812e+01 -3.055042624473571777e-01 6.594446182250976562e+00 1.886682510375976562e+00 3.564047440886497498e-02
6.160000000000000000e+02 6.522818756103515625e+01 -2.900929832458496094e+01 -5.152819156646728516e-01 7.397974967956542969e+00 2.064807891845703125e+00 -1.637970209121704102e-01
6.170000000000000000e+02 6.682072448730468750e+01 -2.429070663452148438e+01 -5.602617263793945312e-01 7.903849124908447266e+00 2.203076362609863281e+00 -4.697091877460479736e-01
6.180000000000000000e+02 6.524720764160156250e+01 -1.683069610595703125e+01 -3.332475423812866211e-01 8.749423980712890625e+00 2.524852991104125977e+00 -8.526566028594970703e-01
6.190000000000000000e+02 6.798547363281250000e+01 -1.299958515167236328e+01 5.621448755264282227e-01 8.268150329589843750e+00 2.649088621139526367e+00 -1.097781062126159668e+00
6.200000000000000000e+02 6.568878936767578125e+01 3.684762001037597656e+00 -2.317577153444290161e-01 8.713260650634765625e+00 2.544450759887695312e+00 9.416270852088928223e-01
6.210000000000000000e+02 6.458689880371093750e+01 1.094061756134033203e+01 -6.771964430809020996e-01 7.867644309997558594e+00 2.157134294509887695e+00 2.773703336715698242e-01
6.220000000000000000e+02 6.580474853515625000e+01 1.927539443969726562e+01 -3.906093239784240723e-01 7.289618492126464844e+00 2.069702863693237305e+00 1.254900991916656494e-01
6.230000000000000000e+02 6.198413848876953125e+01 2.456150627136230469e+01 -2.502052783966064453e-01 6.457501888275146484e+00 1.862188935279846191e+00 -9.663571417331695557e-02
6.240000000000000000e+02 6.328448867797851562e+01 3.157700538635253906e+01 -8.278100937604904175e-02 6.502954006195068359e+00 1.926051974296569824e+00 -4.395536705851554871e-02
6.250000000000000000e+02 6.221774291992187500e+01 4.077945327758789062e+01 9.933840483427047729e-03 6.256436347961425781e+00 1.879911065101623535e+00 -1.298584043979644775e-02
6.260000000000000000e+02 5.736647415161132812e+01 4.086462783813476562e+01 6.248680129647254944e-02 5.406742095947265625e+00 1.640768647193908691e+00 -2.310353331267833710e-02
6.270000000000000000e+02 6.157110977172851562e+01 3.710895156860351562e+01 -5.812311079353094101e-03 6.160270214080810547e+00 1.846337437629699707e+00 -4.427336901426315308e-02
6.280000000000000000e+02 6.027062225341796875e+01 3.329398345947265625e+01 -4.587731882929801941e-02 5.987059116363525391e+00 1.782354593276977539e+00 -8.832895755767822266e-02
6.290000000000000000e+02 5.994582366943359375e+01 2.573947525024414062e+01 -1.968441605567932129e-01 6.074486732482910156e+00 1.763292789459228516e+00 -1.707252860069274902e-01
6.300000000000000000e+02 5.971511840820312500e+01 1.801269340515136719e+01 -4.638551771640777588e-01 6.438900470733642578e+00 1.792513608932495117e+00 -2.941406667232513428e-01
6.310000000000000000e+02 6.097747421264648438e+01 1.143317413330078125e+01 -7.431710958480834961e-01 7.414582252502441406e+00 2.001423358917236328e+00 -2.369396090507507324e-01
6.320000000000000000e+02 5.322097015380859375e+01 1.204536676406860352e+00 2.228003144264221191e-01 5.265694618225097656e+00 1.646548509597778320e+00 -2.799114465713500977e+00
6.330000000000000000e+02 5.359437179565429688e+01 -4.679203510284423828e+00 1.432137727737426758e+00 1.501089215278625488e+00 8.799681067466735840e-01 -2.475472450256347656e+00
6.340000000000000000e+02 5.737502288818359375e+01 -7.481141567230224609e+00 5.852649211883544922e+00 1.963189506530761719e+01 7.645363330841064453e+00 -2.314964771270751953e+00
6.350000000000000000e+02 6.743634796142578125e+01 -1.078298091888427734e+01 1.130872488021850586e+00 8.298967361450195312e+00 2.828952074050903320e+00 -9.830672740936279297e-01
6.360000000000000000e+02 6.711629486083984375e+01 -4.072846984863281250e+01 -2.365922331809997559e-01 7.281598567962646484e+00 2.113502025604248047e+00 -3.212078660726547241e-02
6.370000000000000000e+02 6.900609588623046875e+01 -3.670109176635742188e+01 -2.237248271703720093e-01 7.563677310943603516e+00 2.201985836029052734e+00 -1.540655791759490967e-01
6.380000000000000000e+02 7.242082214355468750e+01 -3.075982093811035156e+01 -1.953613162040710449e-01 7.944430828094482422e+00 2.324720859527587891e+00 -3.530556559562683105e-01
6.390000000000000000e+02 7.228375244140625000e+01 -2.349972915649414062e+01 -2.459310442209243774e-01 7.864310264587402344e+00 2.285513639450073242e+00 -7.143225073814392090e-01
6.400000000000000000e+02 7.267012023925781250e+01 -1.634261131286621094e+01 3.778074681758880615e-02 7.543485641479492188e+00 2.274379968643188477e+00 -9.444268941879272461e-01
6.410000000000000000e+02 7.374639129638671875e+01 -1.114395332336425781e+01 3.499153256416320801e-01 6.980515003204345703e+00 2.199129104614257812e+00 -6.200789213180541992e-01
6.420000000000000000e+02 7.369584655761718750e+01 -4.088497161865234375e+00 4.906402826309204102e-01 6.865620136260986328e+00 2.206878185272216797e+00 3.314326107501983643e-01
6.430000000000000000e+02 7.233011627197265625e+01 4.493004798889160156e+00 -2.896720916032791138e-02 7.642634868621826172e+00 2.284100294113159180e+00 9.541575312614440918e-01
6.440000000000000000e+02 7.308972167968750000e+01 1.129545974731445312e+01 -2.093599885702133179e-01 7.838401317596435547e+00 2.288712263107299805e+00 6.537194848060607910e-01
6.450000000000000000e+02 7.250765991210937500e+01 1.951587867736816406e+01 -1.691814959049224854e-01 7.938704967498779297e+00 2.330857038497924805e+00 2.887302041053771973e-01
6.460000000000000000e+02 7.123477935791015625e+01 2.704097747802734375e+01 -8.999738842248916626e-02 7.761579990386962891e+00 2.301474809646606445e+00 9.909510612487792969e-02
6.470000000000000000e+02 7.108281707763671875e+01 2.856116104125976562e+01 -8.271812647581100464e-02 7.727523803710937500e+00 2.293441534042358398e+00 7.079436630010604858e-02
6.480000000000000000e+02 7.303567504882812500e+01 3.663685607910156250e+01 -1.421693712472915649e-02 8.054665565490722656e+00 2.412134408950805664e+00 4.313592240214347839e-02
6.490000000000000000e+02 7.031877899169921875e+01 3.730264663696289062e+01 -1.750515401363372803e-02 7.626703262329101562e+00 2.282759428024291992e+00 1.644108258187770844e-02
6.500000000000000000e+02 7.796524810791015625e+01 -4.165241622924804688e+01 4.502917453646659851e-02 8.812914848327636719e+00 2.657383203506469727e+00 1.265894994139671326e-02
6.510000000000000000e+02 7.798169708251953125e+01 -3.697780990600585938e+01 -2.137395925819873810e-02 8.731641769409179688e+00 2.613080501556396484e+00 -2.877683378756046295e-02
6.520000000000000000e+02 7.793438720703125000e+01 -3.062486839294433594e+01 -2.404704503715038300e-02 8.441196441650390625e+00 2.525144815444946289e+00 -1.549040228128433228e-01
6.530000000000000000e+02 7.813984680175781250e+01 -2.352054023742675781e+01 -2.023079246282577515e-02 7.768417358398437500e+00 2.324455976486206055e+00 -2.844841480255126953e-01
6.540000000000000000e+02 7.826510620117187500e+01 -1.660996055603027344e+01 3.970363643020391464e-03 6.680606842041015625e+00 2.005373239517211914e+00 -3.428929746150970459e-01
6.550000000000000000e+02 7.822885131835937500e+01 -9.687245368957519531e+00 4.805545508861541748e-02 5.723254203796386719e+00 1.731392979621887207e+00 -1.741031706333160400e-01
6.560000000000000000e+02 7.820664215087890625e+01 -2.745074033737182617e+00 4.847422987222671509e-02 5.759190082550048828e+00 1.742299318313598633e+00 1.962645053863525391e-01
6.570000000000000000e+02 7.803670501708984375e+01 4.228530883789062500e+00 1.158469589427113533e-03 6.769099235534667969e+00 2.031077384948730469e+00 3.829051554203033447e-01
6.580000000000000000e+02 7.808544158935546875e+01 1.118203163146972656e+01 -2.316448464989662170e-02 7.801852703094482422e+00 2.333606481552124023e+00 2.825567722320556641e-01
6.590000000000000000e+02 7.799023437500000000e+01 1.949850845336914062e+01 -1.935222744941711426e-02 8.514865875244140625e+00 2.548654079437255859e+00 1.289144158363342285e-01
6.600000000000000000e+02 7.529393005371093750e+01 2.367552375793457031e+01 -5.474557727575302124e-02 8.294098854064941406e+00 2.471806049346923828e+00 1.373102962970733643e-01
6.610000000000000000e+02 7.932453155517578125e+01 3.204809951782226562e+01 -3.042878583073616028e-03 9.042157173156738281e+00 2.711734294891357422e+00 7.355506066232919693e-03
6.620000000000000000e+02 7.746255493164062500e+01 3.752929306030273438e+01 -5.592790246009826660e-02 8.770080566406250000e+00 2.614245653152465820e+00 8.555199019610881805e-03
6.630000000000000000e+02 7.914486694335937500e+01 3.747604751586914062e+01 7.418891880661249161e-03 9.020145416259765625e+00 2.708269119262695312e+00 -2.835606597363948822e-02
6.640000000000000000e+02 5.250559234619140625e+01 4.088201522827148438e+01 1.433355510234832764e-01 4.523107051849365234e+00 1.399932861328125000e+00 -2.884012088179588318e-02
6.650000000000000000e+02 5.225983047485351562e+01 3.126271629333496094e+01 5.860976502299308777e-02 4.521006584167480469e+00 1.373884916305541992e+00 -2.330313622951507568e-01
6.660000000000000000e+02 4.848815917968750000e+01 2.222612953186035156e+01 6.133456528186798096e-02 3.794714450836181641e+00 1.156814694404602051e+00 -5.128871202468872070e-01
6.670000000000000000e+02 4.830015945434570312e+01 1.441907787322998047e+01 6.147256866097450256e-02 3.624349832534790039e+00 1.105746746063232422e+00 -8.640272021293640137e-01
6.680000000000000000e+02 4.644945144653320312e+01 7.435710430145263672e+00 3.223337233066558838e-01 2.358335971832275391e+00 8.042009472846984863e-01 -1.018806695938110352e+00
6.690000000000000000e+02 4.814642333984375000e+01 -8.418479003012180328e-03 3.066089153289794922e-01 1.174360036849975586e+00 4.442906677722930908e-01 -1.099244594573974609e+00
6.700000000000000000e+02 4.824158477783203125e+01 -4.648952484130859375e+00 -2.058140754699707031e+00 4.798854514956474304e-02 -6.030456423759460449e-01 -3.708774223923683167e-02
6.710000000000000000e+02 5.038351821899414062e+01 -4.681868076324462891e+00 -1.491133570671081543e+00 1.211925148963928223e-01 -4.109823107719421387e-01 -3.070794939994812012e-01
6.720000000000000000e+02 5.098711776733398438e+01 -4.686291217803955078e+00 -1.135845065116882324e+00 1.997379064559936523e-01 -2.808321416378021240e-01 -5.101644396781921387e-01
6.730000000000000000e+02 4.258828735351562500e+01 4.033589553833007812e+01 3.454830348491668701e-01 2.713710784912109375e+00 9.177581667900085449e-01 -4.756995290517807007e-02
6.740000000000000000e+02 4.880936813354492188e+01 3.410993957519531250e+01 1.746955215930938721e-01 3.816381692886352539e+00 1.197323203086853027e+00 -1.734778732061386108e-01
6.750000000000000000e+02 4.728294372558593750e+01 2.424221992492675781e+01 1.131986528635025024e-01 3.557251214981079102e+00 1.101135015487670898e+00 -4.451361298561096191e-01
6.760000000000000000e+02 4.910659027099609375e+01 1.751972389221191406e+01 1.688702031970024109e-03 3.917732000350952148e+00 1.175826191902160645e+00 -7.221653461456298828e-01
6.770000000000000000e+02 4.276626205444335938e+01 7.346722602844238281e+00 2.957248687744140625e-01 1.442114949226379395e+00 5.213519334793090820e-01 -4.569811224937438965e-01
6.780000000000000000e+02 4.252759170532226562e+01 -5.532356500625610352e-01 -5.769808292388916016e-01 2.567104697227478027e-01 -9.608110040426254272e-02 8.666478842496871948e-02
6.790000000000000000e+02 4.073876953125000000e+01 -4.710019588470458984e+00 -1.997214555740356445e+00 1.033611316233873367e-02 -5.960635542869567871e-01 1.866372525691986084e-01
6.800000000000000000e+02 4.374894714355468750e+01 -4.649459362030029297e+00 -2.188555002212524414e+00 1.394475158303976059e-02 -6.523830890655517578e-01 1.417867690324783325e-01
6.810000000000000000e+02 4.525091171264648438e+01 -4.633071422576904297e+00 -2.220873117446899414e+00 1.829584874212741852e-02 -6.607731580734252930e-01 1.035400032997131348e-01
6.820000000000000000e+02 3.741754531860351562e+01 4.031536102294921875e+01 4.330731332302093506e-01 1.936488509178161621e+00 7.108684778213500977e-01 -3.860096633434295654e-02
6.830000000000000000e+02 4.362147140502929688e+01 3.636231231689453125e+01 3.133776187896728516e-01 2.882818460464477539e+00 9.588588476181030273e-01 -1.267163008451461792e-01
6.840000000000000000e+02 4.016829299926757812e+01 2.895720100402832031e+01 3.122376799583435059e-01 2.260651111602783203e+00 7.718666791915893555e-01 -2.163451015949249268e-01
6.850000000000000000e+02 3.575576782226562500e+01 2.185534286499023438e+01 2.483756095170974731e-01 1.342131257057189941e+00 4.771520495414733887e-01 -1.575749516487121582e-01
6.860000000000000000e+02 3.996278762817382812e+01 1.609777641296386719e+01 2.399587035179138184e-01 1.765183091163635254e+00 6.015425324440002441e-01 -3.040216565132141113e-01
6.870000000000000000e+02 3.686477279663085938e+01 8.923608779907226562e+00 1.124311015009880066e-01 7.580959796905517578e-01 2.611581385135650635e-01 1.219679638743400574e-01
6.880000000000000000e+02 3.652908325195312500e+01 -4.851626753807067871e-01 -7.195986509323120117e-01 1.000800207257270813e-01 -1.858555823564529419e-01 4.711685180664062500e-01
6.890000000000000000e+02 3.474055099487304688e+01 -4.869843006134033203e+00 -1.367526650428771973e+00 1.466456055641174316e-02 -4.058586359024047852e-01 2.274419516324996948e-01
6.900000000000000000e+02 3.548740386962890625e+01 -4.848222732543945312e+00 -1.454339742660522461e+00 1.517900545150041580e-02 -4.317482113838195801e-01 2.242357581853866577e-01
6.910000000000000000e+02 3.773473358154296875e+01 -4.784588336944580078e+00 -1.706178784370422363e+00 1.299238018691539764e-02 -5.079559087753295898e-01 2.114932835102081299e-01
6.920000000000000000e+02 3.238106155395507812e+01 4.070809173583984375e+01 5.028060078620910645e-01 1.140676259994506836e+00 4.930446743965148926e-01 -1.306351367384195328e-02
6.930000000000000000e+02 2.741648864746093750e+01 3.757116699218750000e+01 5.153820514678955078e-01 5.010950565338134766e-01 3.049431145191192627e-01 -8.702717721462249756e-03
6.940000000000000000e+02 2.724491310119628906e+01 3.414109420776367188e+01 4.818859100341796875e-01 4.452609121799468994e-01 2.781440317630767822e-01 -8.282245136797428131e-03
6.950000000000000000e+02 2.789324569702148438e+01 1.899253463745117188e+01 -2.525950409471988678e-02 2.248545885086059570e-01 5.987852811813354492e-02 1.294456869363784790e-01
6.960000000000000000e+02 3.045749282836914062e+01 9.462736129760742188e+00 -1.577961295843124390e-01 2.228354066610336304e-01 1.951178349554538727e-02 4.732740223407745361e-01
6.970000000000000000e+02 2.498504638671875000e+01 3.050589799880981445e+00 -2.778180241584777832e-01 -2.914010584354400635e-01 -1.707657277584075928e-01 6.340275406837463379e-01
6.980000000000000000e+02 2.808978843688964844e+01 -4.957641601562500000e+00 -6.059142351150512695e-01 -7.082146592438220978e-03 -1.838989108800888062e-01 2.235475331544876099e-01
6.990000000000000000e+02 3.102443504333496094e+01 -4.957080364227294922e+00 -9.306887984275817871e-01 8.403905667364597321e-03 -2.766854763031005859e-01 2.352097630500793457e-01
7.000000000000000000e+02 2.964130973815917969e+01 -4.312260150909423828e+00 -7.415758967399597168e-01 -3.322861448395997286e-04 -2.225724607706069946e-01 3.018410205841064453e-01
7.010000000000000000e+02 3.325032806396484375e+01 -4.911232471466064453e+00 -1.192699193954467773e+00 1.388658210635185242e-02 -3.536437749862670898e-01 2.323695421218872070e-01
7.020000000000000000e+02 1.782202911376953125e+01 4.096782302856445312e+01 4.432202875614166260e-01 -3.227503895759582520e-01 3.614096343517303467e-02 2.907907217741012573e-02
7.030000000000000000e+02 2.264396667480468750e+01 4.095267105102539062e+01 5.111304521560668945e-01 3.344618156552314758e-02 1.633729785680770874e-01 1.081775128841400146e-02
7.040000000000000000e+02 2.299866867065429688e+01 3.139454841613769531e+01 4.267492592334747314e-01 -6.041501834988594055e-02 1.099002659320831299e-01 7.048816978931427002e-02
7.050000000000000000e+02 2.111589241027832031e+01 2.402499389648437500e+01 1.146960556507110596e-01 -4.432609677314758301e-01 -9.856947511434555054e-02 1.624593436717987061e-01
7.060000000000000000e+02 2.201712417602539062e+01 1.583141899108886719e+01 -4.379624724388122559e-01 -5.715298652648925781e-01 -3.028477132320404053e-01 3.954461812973022461e-01
7.070000000000000000e+02 2.002356719970703125e+01 9.699618339538574219e+00 -4.476601779460906982e-01 -1.208234786987304688e+00 -4.967685043811798096e-01 6.645092368125915527e-01
7.080000000000000000e+02 1.986623764038085938e+01 5.333046913146972656e+00 -1.547865271568298340e-01 -9.930105209350585938e-01 -3.443391025066375732e-01 4.182132184505462646e-01
7.090000000000000000e+02 2.163538551330566406e+01 -4.286668300628662109e+00 -9.694242477416992188e-02 -6.059781461954116821e-02 -4.726207256317138672e-02 1.055187582969665527e-01
7.100000000000000000e+02 2.538728713989257812e+01 -4.163584232330322266e+00 -3.489322960376739502e-01 -4.570594802498817444e-02 -1.183914691209793091e-01 2.494885772466659546e-01
7.110000000000000000e+02 2.449039649963378906e+01 -4.753172874450683594e+00 -2.731654345989227295e-01 -3.732572868466377258e-02 -9.314735233783721924e-02 1.772726625204086304e-01
7.120000000000000000e+02 1.763106727600097656e+01 3.055614089965820312e+01 3.627584278583526611e-01 -4.927235841751098633e-01 -3.898954764008522034e-02 2.255815267562866211e-01
7.130000000000000000e+02 1.512280273437500000e+01 2.181776809692382812e+01 -1.603444814682006836e-01 -9.778090715408325195e-01 -3.414460718631744385e-01 4.721554219722747803e-01
7.140000000000000000e+02 1.293810749053955078e+01 1.743655395507812500e+01 -1.429560661315917969e+00 -1.086608290672302246e+00 -7.548506855964660645e-01 1.113332390785217285e+00
7.150000000000000000e+02 1.509344577789306641e+01 1.553628063201904297e+01 -1.182583093643188477e+00 -1.765554904937744141e+00 -8.844413757324218750e-01 1.284697175025939941e+00
7.160000000000000000e+02 1.888003921508789062e+01 1.586326599121093750e+01 -6.333801746368408203e-01 -1.069163680076599121e+00 -5.107631683349609375e-01 5.581620335578918457e-01
7.170000000000000000e+02 1.594752693176269531e+01 1.437023067474365234e+01 -9.435069561004638672e-01 -2.032051086425781250e+00 -8.926674723625183105e-01 1.214878797531127930e+00
7.180000000000000000e+02 1.799559211730957031e+01 9.071344375610351562e+00 -2.482042312622070312e-01 -1.974443793296813965e+00 -6.667944192886352539e-01 5.997743010520935059e-01
7.190000000000000000e+02 1.854270172119140625e+01 6.363785266876220703e+00 -9.075294435024261475e-02 -1.404070258140563965e+00 -4.484469592571258545e-01 3.321004509925842285e-01
7.200000000000000000e+02 1.897292900085449219e+01 2.256021499633789062e+00 -1.854071207344532013e-02 -6.313094496726989746e-01 -1.949550509452819824e-01 1.137607991695404053e-01
7.210000000000000000e+02 1.893491172790527344e+01 -4.394909739494323730e-01 -9.316162206232547760e-03 -2.385177314281463623e-01 -7.435017079114913940e-02 5.839184299111366272e-02
7.220000000000000000e+02 2.025605583190917969e+01 -2.909549951553344727e+00 -3.511771559715270996e-02 -1.125237792730331421e-01 -4.429244995117187500e-02 8.700039237737655640e-02
7.230000000000000000e+02 1.312168216705322266e+01 4.095600509643554688e+01 3.324319422245025635e-01 -5.462113618850708008e-01 -6.413382291793823242e-02 3.754720464348793030e-02
7.240000000000000000e+02 6.343109607696533203e+00 3.761301422119140625e+01 1.275454461574554443e-01 -7.495606541633605957e-01 -1.866045594215393066e-01 1.447900384664535522e-01
7.250000000000000000e+02 7.902684211730957031e+00 3.225237655639648438e+01 1.384999006986618042e-01 -6.651216745376586914e-01 -1.579865217208862305e-01 3.185686469078063965e-01
7.260000000000000000e+02 5.980331897735595703e+00 2.414754104614257812e+01 -1.005756780505180359e-01 -3.657394051551818848e-01 -1.398945301771163940e-01 3.726373314857482910e-01
7.270000000000000000e+02 1.038602447509765625e+01 1.885175895690917969e+01 -1.158741950988769531e+00 -3.884329497814178467e-01 -4.641524553298950195e-01 5.365183949470520020e-01
7.280000000000000000e+02 1.172629070281982422e+01 1.822164344787597656e+01 -1.417690396308898926e+00 -6.937786936759948730e-01 -6.334407329559326172e-01 8.979148268699645996e-01
7.290000000000000000e+02 2.036634445190429688e+00 4.162833404541015625e+01 5.714329890906810760e-03 -1.025676131248474121e+00 -3.059885501861572266e-01 1.629015547223389149e-03
7.300000000000000000e+02 4.464734554290771484e+00 3.746739196777343750e+01 6.333715468645095825e-02 -8.496685028076171875e-01 -2.358994185924530029e-01 1.206900626420974731e-01
7.310000000000000000e+02 2.113437414169311523e+00 3.581608581542968750e+01 2.685425616800785065e-02 -8.874000906944274902e-01 -2.581637501716613770e-01 7.013705372810363770e-02
7.320000000000000000e+02 2.026775121688842773e+00 2.887268257141113281e+01 6.333599798381328583e-03 -5.162566900253295898e-01 -1.529769301414489746e-01 1.616126298904418945e-01
7.330000000000000000e+02 2.002078294754028320e+00 2.315706443786621094e+01 -2.672852948307991028e-02 -1.398996114730834961e-01 -4.998844116926193237e-02 1.113235056400299072e-01
7.340000000000000000e+02 4.306679725646972656e+00 1.587814998626708984e+01 -7.495030877180397511e-04 -3.086383640766143799e-02 -9.484002366662025452e-03 -5.620419979095458984e-03
7.350000000000000000e+02 5.677255988121032715e-01 6.403846740722656250e+00 2.384155523031949997e-04 -2.573373494669795036e-04 -5.676537512044887990e-06 8.098966645775362849e-05
7.360000000000000000e+02 6.055160522460937500e+00 1.854045987129211426e+00 -1.605925208423286676e-04 -6.223843083716928959e-04 -2.348930429434403777e-04 -2.632750256452709436e-04
7.370000000000000000e+02 8.070313453674316406e+00 2.647171497344970703e+00 -2.221118338638916612e-04 -6.816557142883539200e-04 -2.711302659008651972e-04 -6.743333651684224606e-04
7.380000000000000000e+02 9.628514289855957031e+00 1.887898921966552734e+00 1.640409172978252172e-04 3.449115320108830929e-04 1.526857377029955387e-04 5.037586088292300701e-04
7.390000000000000000e+02 1.392814731597900391e+01 1.752118110656738281e+00 5.139451241120696068e-04 -1.613090134924277663e-04 1.057908375514671206e-04 7.166084833443164825e-05
7.400000000000000000e+02 1.445850944519042969e+01 6.270364284515380859e+00 -2.077149227261543274e-03 -3.825987223535776138e-04 -7.379243616014719009e-04 -4.064626118633896112e-04
7.410000000000000000e+02 1.182164382934570312e+01 9.617942810058593750e+00 -2.102321246638894081e-03 -2.377765020355582237e-03 -1.344025833532214165e-03 -1.924717682413756847e-03
7.420000000000000000e+02 1.132892990112304688e+01 1.236750888824462891e+01 4.648464266210794449e-03 2.747102873399853706e-03 2.218670211732387543e-03 3.708613570779561996e-03
7.430000000000000000e+02 1.217327117919921875e+01 1.125809097290039062e+01 -4.326981492340564728e-03 -2.257543615996837616e-03 -1.975357532501220703e-03 -2.398147480562329292e-03
7.440000000000000000e+02 9.425354003906250000e+00 1.449247550964355469e+01 6.809125654399394989e-03 5.559172946959733963e-03 3.710489487275481224e-03 4.391435999423265457e-03
7.450000000000000000e+02 7.887206554412841797e+00 1.690691947937011719e+01 1.956593059003353119e-02 1.023781746625900269e-01 3.658323362469673157e-02 1.148745976388454437e-02
7.460000000000000000e+02 1.822951078414916992e+00 2.175316047668457031e+01 -3.212865814566612244e-02 -6.861340254545211792e-02 -3.022261708974838257e-02 7.255731523036956787e-02
7.470000000000000000e+02 1.160636663436889648e+00 3.803270339965820312e+00 -3.644598109531216323e-06 -2.409043954685330391e-04 -7.336470298469066620e-05 2.587957424111664295e-04
7.480000000000000000e+02 1.386485767364501953e+01 2.579559803009033203e+00 -7.924388628453016281e-04 -6.594770238734781742e-04 -4.355747660156339407e-04 -8.604470640420913696e-04
7.490000000000000000e+02 2.251697349548339844e+01 -8.317636489868164062e+00 -5.766280293464660645e-01 2.692253887653350830e-02 -1.649116426706314087e-01 -1.988439559936523438e-01
7.500000000000000000e+02 7.369960784912109375e+01 -1.241206359863281250e+01 2.866237461566925049e-01 7.084182739257812500e+00 2.211241960525512695e+00 -7.275298237800598145e-01
7.510000000000000000e+02 7.941764068603515625e+01 -1.251272583007812500e+01 7.057894486933946609e-03 5.687565326690673828e+00 1.708387017250061035e+00 -1.020465567708015442e-01
7.520000000000000000e+02 7.940737152099609375e+01 -5.557663917541503906e+00 1.175272930413484573e-02 5.124877452850341797e+00 1.540989041328430176e+00 1.872624643146991730e-02
7.530000000000000000e+02 7.365452575683593750e+01 -5.359487533569335938e+00 5.372169017791748047e-01 6.838576316833496094e+00 2.212737798690795898e+00 1.503912955522537231e-01
7.540000000000000000e+02 2.499452972412109375e+01 -2.446676635742187500e+01 1.422356963157653809e-01 3.514733910560607910e-02 5.321491137146949768e-02 -3.530151247978210449e-01
7.550000000000000000e+02 3.003986549377441406e+01 -1.422400760650634766e+01 -6.071608066558837891e-01 2.100329473614692688e-02 -1.758472621440887451e-01 -4.780678749084472656e-01
7.560000000000000000e+02 3.920722961425781250e+01 -1.451301670074462891e+01 -4.024568796157836914e-01 2.191720455884933472e-01 -5.498544871807098389e-02 -1.143664419651031494e-01
7.570000000000000000e+02 4.317481231689453125e+01 -1.431529140472412109e+01 -1.537363231182098389e-01 5.110945105552673340e-01 1.072074472904205322e-01 2.916558980941772461e-01
7.580000000000000000e+02 4.946274566650390625e+01 -1.457595634460449219e+01 4.702157378196716309e-01 2.307187557220458984e+00 8.332210183143615723e-01 1.776142835617065430e+00
7.590000000000000000e+02 5.255539703369140625e+01 -1.623353958129882812e+01 7.857871800661087036e-02 4.820283889770507812e+00 1.469658851623535156e+00 2.301299810409545898e+00
7.600000000000000000e+02 6.529849243164062500e+01 -2.276390457153320312e+01 -6.389323472976684570e-01 8.032852172851562500e+00 2.218176126480102539e+00 -4.218862652778625488e-01
7.610000000000000000e+02 7.366847229003906250e+01 -1.902819824218750000e+01 -9.023025631904602051e-02 7.582818508148193359e+00 2.247776508331298828e+00 -8.493086695671081543e-01
7.620000000000000000e+02 7.939542388916015625e+01 -2.224216651916503906e+01 -4.346635658293962479e-03 7.592946052551269531e+00 2.276579856872558594e+00 -1.113085970282554626e-01
7.630000000000000000e+02 5.339906215667724609e+00 -1.568801593780517578e+01 5.839731311425566673e-04 -2.646657265722751617e-02 -7.764779962599277496e-03 -8.346414193511009216e-03
7.640000000000000000e+02 1.760247588157653809e+00 -1.747675704956054688e+01 -7.277140393853187561e-03 2.527927281334996223e-04 -2.107304288074374199e-03 6.977079436182975769e-03
7.650000000000000000e+02 5.525439381599426270e-01 -1.068900585174560547e+01 1.109296223148703575e-03 1.317278831265866756e-03 7.279725396074354649e-04 6.638066261075437069e-04
7.660000000000000000e+02 2.371192359924316406e+01 -3.441017150878906250e+01 4.636755883693695068e-01 4.638195037841796875e-02 1.530172526836395264e-01 -1.616730540990829468e-01
7.670000000000000000e+02 1.676426696777343750e+01 -2.877046775817871094e+01 2.031290233135223389e-01 -3.098818063735961914e-01 -3.202583268284797668e-02 -3.110789954662322998e-01
7.680000000000000000e+02 3.150544929504394531e+01 -2.480389976501464844e+01 3.244385421276092529e-01 3.699340522289276123e-01 2.083117812871932983e-01 -2.010670304298400879e-01
7.690000000000000000e+02 3.453244018554687500e+01 -2.538573074340820312e+01 4.177153110504150391e-01 6.270447969436645508e-01 3.134280443191528320e-01 -5.617019906640052795e-02
7.700000000000000000e+02 4.483702087402343750e+01 -2.414941596984863281e+01 4.200081825256347656e-01 2.307495117187500000e+00 8.182510137557983398e-01 7.951396703720092773e-01
7.710000000000000000e+02 5.939878082275390625e+01 -2.569521141052246094e+01 -6.354528069496154785e-01 6.866888046264648438e+00 1.869430661201477051e+00 4.237773418426513672e-01
7.720000000000000000e+02 6.717203521728515625e+01 -2.525503730773925781e+01 -5.358515381813049316e-01 7.833857059478759766e+00 2.189401626586914062e+00 -4.527288079261779785e-01
7.730000000000000000e+02 7.333591461181640625e+01 -2.398930358886718750e+01 -1.919647306203842163e-01 7.832879066467285156e+00 2.292274475097656250e+00 -6.536037921905517578e-01
7.740000000000000000e+02 7.932495880126953125e+01 -2.644167518615722656e+01 -3.221784252673387527e-03 8.213017463684082031e+00 2.462938785552978516e+00 -8.845419436693191528e-02
7.750000000000000000e+02 7.467926144599914551e-01 -3.047483062744140625e+01 -4.811591934412717819e-04 -5.871778726577758789e-01 -1.762977093458175659e-01 -4.335661605000495911e-02
7.760000000000000000e+02 8.550595283508300781e+00 -3.553157806396484375e+01 1.459269076585769653e-01 -5.109369158744812012e-01 -1.095030009746551514e-01 -1.805316358804702759e-01
7.770000000000000000e+02 3.072936820983886719e+01 -3.441890335083007812e+01 5.851942896842956543e-01 6.300502419471740723e-01 3.645733594894409180e-01 -5.818872526288032532e-02
7.780000000000000000e+02 3.392927932739257812e+01 -3.330149459838867188e+01 5.901980996131896973e-01 9.282730221748352051e-01 4.555413126945495605e-01 2.409904450178146362e-02
7.790000000000000000e+02 4.291337203979492188e+01 -2.929350471496582031e+01 4.650306701660156250e-01 2.207951784133911133e+00 8.018947243690490723e-01 4.677542746067047119e-01
7.800000000000000000e+02 7.301929473876953125e+01 -3.309301376342773438e+01 -1.623404473066329956e-01 7.994700908660888672e+00 2.349708318710327148e+00 -2.627852857112884521e-01
7.810000000000000000e+02 7.936483764648437500e+01 -3.341989898681640625e+01 -3.358582398504950106e-05 8.813941955566406250e+00 2.644172668457031250e+00 -3.735619410872459412e-02
7.820000000000000000e+02 7.935494995117187500e+01 2.807456016540527344e+00 3.009523032233119011e-03 6.276562690734863281e+00 1.883871674537658691e+00 1.391792893409729004e-01
7.830000000000000000e+02 7.272673797607421875e+01 2.213393449783325195e+00 1.341556459665298462e-01 7.457539558410644531e+00 2.277508497238159180e+00 9.259513616561889648e-01
7.840000000000000000e+02 5.361254119873046875e+01 8.525649905204772949e-01 1.768022477626800537e-01 5.673536300659179688e+00 1.755101561546325684e+00 -2.934910774230957031e+00
7.850000000000000000e+02 6.704219055175781250e+01 4.751544952392578125e+00 -2.727692723274230957e-01 8.444229125976562500e+00 2.451437950134277344e+00 9.531395435333251953e-01
7.860000000000000000e+02 7.935466766357421875e+01 8.374036788940429688e+00 -3.648867830634117126e-03 7.377735614776611328e+00 2.212226152420043945e+00 1.282192915678024292e-01
7.870000000000000000e+02 7.298921203613281250e+01 1.002799987792968750e+01 -2.058343142271041870e-01 7.803952693939208984e+00 2.279435634613037109e+00 7.192331552505493164e-01
7.880000000000000000e+02 6.007654571533203125e+01 1.372945690155029297e+01 -6.461473703384399414e-01 6.922276973724365234e+00 1.882838845252990723e+00 -3.509549796581268311e-01
7.890000000000000000e+02 6.558253479003906250e+01 9.499633789062500000e+00 -6.297483444213867188e-01 8.085996627807617188e+00 2.236874341964721680e+00 4.836956858634948730e-01
7.900000000000000000e+02 5.006647109985351562e+01 -8.731666207313537598e-02 5.702099800109863281e-01 2.022985219955444336e+00 7.779585123062133789e-01 -1.824250221252441406e+00
7.910000000000000000e+02 4.397744369506835938e+01 -4.613664150238037109e-01 -4.240665435791015625e-01 3.535799384117126465e-01 -2.114599011838436127e-02 -9.158694744110107422e-02
7.920000000000000000e+02 3.577753829956054688e+01 2.434261590242385864e-01 -6.096374988555908203e-01 1.086923107504844666e-01 -1.502835452556610107e-01 4.980338513851165771e-01
7.930000000000000000e+02 3.023904800415039062e+01 -3.056262433528900146e-01 -5.360838770866394043e-01 -1.049895863980054855e-02 -1.639748513698577881e-01 5.826049447059631348e-01
7.940000000000000000e+02 2.018967056274414062e+01 3.946139335632324219e+00 -1.196781843900680542e-01 -7.818167209625244141e-01 -2.704484760761260986e-01 3.815455734729766846e-01
7.950000000000000000e+02 1.892872238159179688e+01 3.627368450164794922e+00 -3.906185179948806763e-02 -8.857130408287048340e-01 -2.774324715137481689e-01 1.649794727563858032e-01
7.960000000000000000e+02 7.934441375732421875e+01 1.672597694396972656e+01 -3.125128801912069321e-03 8.498604774475097656e+00 2.548644065856933594e+00 6.774932891130447388e-02
7.970000000000000000e+02 7.239662170410156250e+01 1.645397758483886719e+01 -2.164067327976226807e-01 7.908154487609863281e+00 2.307524204254150391e+00 4.130886197090148926e-01
7.980000000000000000e+02 5.770674133300781250e+01 1.670883560180664062e+01 -4.616079330444335938e-01 6.140185356140136719e+00 1.703573226928710938e+00 -4.989190995693206787e-01
7.990000000000000000e+02 6.722904205322265625e+01 1.845077323913574219e+01 -3.786354959011077881e-01 7.481513977050781250e+00 2.130863428115844727e+00 2.129192650318145752e-01
8.000000000000000000e+02 4.728959655761718750e+01 9.734013557434082031e+00 2.267047762870788574e-01 2.917301654815673828e+00 9.432019591331481934e-01 -1.050561428070068359e+00
8.010000000000000000e+02 3.573542785644531250e+01 1.290507507324218750e+01 1.330250650644302368e-01 9.311167001724243164e-01 3.192425370216369629e-01 4.272192344069480896e-02
8.020000000000000000e+02 2.835432243347167969e+01 1.075583362579345703e+01 -2.350082695484161377e-01 8.189480751752853394e-02 -4.593404009938240051e-02 4.886941313743591309e-01
8.030000000000000000e+02 1.975162696838378906e+01 1.108727169036865234e+01 -5.286650657653808594e-01 -1.247952699661254883e+00 -5.329853296279907227e-01 6.885176301002502441e-01
8.040000000000000000e+02 7.932024383544921875e+01 2.368202209472656250e+01 -3.877278650179505348e-03 8.898785591125488281e+00 2.668472528457641602e+00 3.114275075495243073e-02
8.050000000000000000e+02 7.104515075683593750e+01 2.552081108093261719e+01 -1.082670167088508606e-01 7.749302864074707031e+00 2.292310714721679688e+00 1.057431548833847046e-01
8.060000000000000000e+02 5.687031555175781250e+01 2.397513389587402344e+01 -1.986040771007537842e-01 5.556663990020751953e+00 1.607417941093444824e+00 -3.113873600959777832e-01
8.070000000000000000e+02 6.374900817871093750e+01 2.322602462768554688e+01 -2.897719442844390869e-01 6.807120800018310547e+00 1.955204606056213379e+00 -1.533269230276346207e-02
8.080000000000000000e+02 5.066823959350585938e+01 1.500194740295410156e+01 -7.976985722780227661e-02 4.269317626953125000e+00 1.256864309310913086e+00 -8.987432122230529785e-01
8.090000000000000000e+02 4.233937835693359375e+01 1.961940383911132812e+01 2.188391983509063721e-01 2.410615444183349609e+00 7.888363599777221680e-01 -4.170629680156707764e-01
8.100000000000000000e+02 3.933397293090820312e+01 1.917659950256347656e+01 2.367675751447677612e-01 1.826724529266357422e+00 6.190476417541503906e-01 -2.780488431453704834e-01
8.110000000000000000e+02 2.901735877990722656e+01 1.768371963500976562e+01 -2.649036049842834473e-02 3.689209222793579102e-01 1.027291640639305115e-01 1.498091965913772583e-01
8.120000000000000000e+02 2.064530563354492188e+01 1.773819541931152344e+01 -3.907007277011871338e-01 -6.956480741500854492e-01 -3.259046375751495361e-01 3.458111286163330078e-01
8.130000000000000000e+02 2.751533985137939453e+00 2.099532699584960938e+01 -5.364210158586502075e-02 -8.419284224510192871e-02 -4.135048389434814453e-02 7.731176912784576416e-02
8.140000000000000000e+02 7.923064422607421875e+01 2.928684806823730469e+01 -6.394586060196161270e-03 9.019908905029296875e+00 2.704054355621337891e+00 1.718673855066299438e-02
8.150000000000000000e+02 7.233995056152343750e+01 3.058594131469726562e+01 -6.514453142881393433e-02 7.892207622528076172e+00 2.348119020462036133e+00 6.174266710877418518e-02
8.160000000000000000e+02 5.639219284057617188e+01 3.405173873901367188e+01 1.975917071104049683e-02 5.263913154602050781e+00 1.585101723670959473e+00 -1.198623403906822205e-01
8.170000000000000000e+02 6.630152893066406250e+01 3.375657272338867188e+01 -6.102335825562477112e-02 6.947607040405273438e+00 2.065975189208984375e+00 -1.318149268627166748e-02
8.180000000000000000e+02 5.122640991210937500e+01 2.126758003234863281e+01 -5.945869162678718567e-02 4.425266265869140625e+00 1.309742331504821777e+00 -5.554863810539245605e-01
8.190000000000000000e+02 4.219209671020507812e+01 2.681516265869140625e+01 2.537887990474700928e-01 2.609977483749389648e+00 8.591299057006835938e-01 -2.967377305030822754e-01
8.200000000000000000e+02 2.703038024902343750e+01 2.593303680419921875e+01 2.522025108337402344e-01 2.781191170215606689e-01 1.590964943170547485e-01 5.183652974665164948e-03
8.210000000000000000e+02 2.097565841674804688e+01 2.606333923339843750e+01 2.472701370716094971e-01 -3.857130706310272217e-01 -4.153288528323173523e-02 1.480756998062133789e-01
8.220000000000000000e+02 1.736444473266601562e+01 2.559748077392578125e+01 1.826592683792114258e-01 -6.774927973747253418e-01 -1.484500616788864136e-01 2.896026074886322021e-01
8.230000000000000000e+02 7.038714885711669922e+00 2.341614151000976562e+01 -1.687920838594436646e-01 -3.758812248706817627e-01 -1.634019911289215088e-01 4.283321797847747803e-01
8.240000000000000000e+02 5.254428100585937500e+01 3.762774276733398438e+01 1.190154254436492920e-01 4.544967174530029297e+00 1.399194836616516113e+00 -9.289158880710601807e-02
8.250000000000000000e+02 4.532582473754882812e+01 3.303451156616210938e+01 2.456716150045394897e-01 3.201576471328735352e+00 1.034174442291259766e+00 -2.136994451284408569e-01
8.260000000000000000e+02 3.775097274780273438e+01 3.103085136413574219e+01 3.689090013504028320e-01 1.849981904029846191e+00 6.656672954559326172e-01 -1.710698902606964111e-01
8.270000000000000000e+02 3.118906974792480469e+01 3.371701431274414062e+01 4.633868932723999023e-01 9.783942699432373047e-01 4.325343370437622070e-01 -6.053823232650756836e-02
8.280000000000000000e+02 2.018297004699707031e+01 3.127483940124511719e+01 4.093185365200042725e-01 -2.905045747756958008e-01 3.564419224858283997e-02 1.469208449125289917e-01
8.290000000000000000e+02 1.436561489105224609e+01 3.509090042114257812e+01 3.534817099571228027e-01 -5.316244363784790039e-01 -5.344281718134880066e-02 1.966969072818756104e-01
8.300000000000000000e+02 7.551324844360351562e+00 3.490416717529296875e+01 1.308973878622055054e-01 -6.999655365943908691e-01 -1.707204580307006836e-01 2.327716797590255737e-01
8.310000000000000000e+02 2.136790037155151367e+00 3.166020202636718750e+01 1.674427650868892670e-02 -6.912520527839660645e-01 -2.023523300886154175e-01 1.441466063261032104e-01
8.320000000000000000e+02 1.795968294143676758e+00 9.134650230407714844e+00 7.863001883379183710e-06 6.274611805565655231e-04 1.905972458189353347e-04 -1.118764746934175491e-03
8.330000000000000000e+02 1.805066871643066406e+01 -7.326173782348632812e+00 -1.693429239094257355e-02 -8.395929634571075439e-02 -3.026807494461536407e-02 -8.080240339040756226e-02
8.340000000000000000e+02 1.928810310363769531e+01 -7.743340969085693359e+00 -2.155022025108337402e-01 -2.058064192533493042e-02 -7.082485407590866089e-02 -1.336823105812072754e-01
8.350000000000000000e+02 1.422920608520507812e+01 -1.389229202270507812e+01 -5.179449915885925293e-01 -6.666578650474548340e-01 -3.553808629512786865e-01 -5.653732419013977051e-01
8.360000000000000000e+02 7.523455619812011719e+00 -1.385637378692626953e+01 -3.183390013873577118e-03 5.944977514445781708e-03 8.284762734547257423e-04 3.466614522039890289e-03
8.370000000000000000e+02 1.132081222534179688e+01 -8.127744674682617188e+00 4.748867941088974476e-04 1.775379496393725276e-04 1.957274216692894697e-04 -4.732379456982016563e-04
8.380000000000000000e+02 1.017504501342773438e+01 -3.124132633209228516e+00 -3.379701593075878918e-05 1.946990087162703276e-04 4.827059819945134223e-05 -4.331179952714592218e-04
8.390000000000000000e+02 1.321069431304931641e+01 -1.960177421569824219e+00 -4.240793714416213334e-05 -7.298416312551125884e-05 -3.461763117229565978e-05 -9.336498624179512262e-05
8.400000000000000000e+02 1.491146278381347656e+01 -2.293407440185546875e+00 2.646458824528963305e-06 -2.875063000828959048e-05 -7.831251423340290785e-06 5.340810093912295997e-05
8.410000000000000000e+02 1.430576801300048828e+01 -2.139984846115112305e+00 1.616172266949433833e-05 5.893962224945425987e-05 2.253040292998775840e-05 -9.129341196967288852e-05
8.420000000000000000e+02 1.375232028961181641e+01 -1.995237112045288086e+00 -5.792677256977185607e-06 -5.827061977470293641e-05 -1.921898910950403661e-05 8.965175948105752468e-05
8.430000000000000000e+02 1.180074405670166016e+01 -1.968913078308105469e+00 4.974793046130798757e-05 -1.531663292553275824e-04 -3.102552000200375915e-05 -6.369436596287414432e-05
8.440000000000000000e+02 1.031889915466308594e+01 -1.853519082069396973e+00 1.684148992353584617e-05 -9.009946370497345924e-05 -2.197739195253234357e-05 -1.977742213057354093e-04
8.450000000000000000e+02 9.578124046325683594e+00 -1.828470468521118164e+00 -4.933091622660867870e-05 5.899575990042649209e-05 2.899452738347463310e-06 2.937128883786499500e-04
8.460000000000000000e+02 8.830214500427246094e+00 -1.836241602897644043e+00 -4.421380799612961709e-05 -2.628684160299599171e-05 -2.115019378834404051e-05 -2.106638712575659156e-04
8.470000000000000000e+02 7.321604251861572266e+00 -1.862581610679626465e+00 -4.834440915146842599e-05 1.296455047850031406e-05 -1.061395778378937393e-05 -1.984297559829428792e-04
8.480000000000000000e+02 5.794103622436523438e+00 -1.883886694908142090e+00 -2.727375795075204223e-05 1.335187062068143860e-05 -4.176566108071710914e-06 -2.132008376065641642e-04
8.490000000000000000e+02 3.504089593887329102e+00 -1.977963924407958984e+00 -1.655516280152369291e-05 1.825227991503197700e-05 5.091348498353909235e-07 1.078296409104950726e-04
8.500000000000000000e+02 5.030692577362060547e+00 -1.903032183647155762e+00 -1.053500673151575029e-04 3.600804848247207701e-05 -2.080260492220986634e-05 1.613698404980823398e-04
8.510000000000000000e+02 4.400660514831542969e+00 -2.779588222503662109e+00 -4.748378705698996782e-05 7.961017399793490767e-05 9.637915354687720537e-06 1.846835511969402432e-04
8.520000000000000000e+02 2.738033771514892578e+00 -2.032098054885864258e+00 -8.777201583143323660e-05 -1.334014359599677846e-05 -3.033364919247105718e-05 -1.740263105602934957e-04
8.530000000000000000e+02 1.966817736625671387e+00 -2.076917648315429688e+00 2.339760430913884193e-05 2.006402792176231742e-05 1.303848966927034780e-05 5.657794099533930421e-05
8.540000000000000000e+02 4.945890903472900391e-01 -3.607460975646972656e+00 -1.969057339010760188e-04 -1.190683251479640603e-04 -9.479221625952050090e-05 -1.206375891342759132e-04
8.550000000000000000e+02 2.031208276748657227e+00 -4.163800811767578125e+01 -7.087668869644403458e-03 -8.550760746002197266e-01 -2.586491107940673828e-01 2.005026210099458694e-03
8.560000000000000000e+02 6.197460174560546875e+00 -3.816072082519531250e+01 9.156782925128936768e-02 -5.999611616134643555e-01 -1.525180041790008545e-01 -9.967476129531860352e-02
8.570000000000000000e+02 1.015628933906555176e+00 -3.866895675659179688e+01 -1.671691308729350567e-03 -8.588666319847106934e-01 -2.581615149974822998e-01 -5.565097555518150330e-03
8.580000000000000000e+02 6.650679707527160645e-01 -3.477177429199218750e+01 8.528635837137699127e-03 -7.859400510787963867e-01 -2.332234233617782593e-01 -2.649032697081565857e-02
8.590000000000000000e+02 8.168752789497375488e-01 -3.337699508666992188e+01 2.637339523062109947e-03 -7.323120832443237305e-01 -2.189024239778518677e-01 -3.511510044336318970e-02
8.600000000000000000e+02 7.147369384765625000e-01 -2.905843544006347656e+01 4.057022742927074432e-03 -4.996542334556579590e-01 -1.486791670322418213e-01 -4.670417681336402893e-02
8.610000000000000000e+02 6.930199265480041504e-01 -2.764675712585449219e+01 -2.399811288341879845e-03 -4.034225940704345703e-01 -1.217467188835144043e-01 -4.847385361790657043e-02
8.620000000000000000e+02 6.820061802864074707e-01 -2.623056793212890625e+01 1.101737841963768005e-03 -3.047420084476470947e-01 -9.109207987785339355e-02 -4.702299460768699646e-02
8.630000000000000000e+02 6.126314997673034668e-01 -2.194738960266113281e+01 -3.680248046293854713e-03 -4.447859525680541992e-02 -1.444765273481607437e-02 -2.991553023457527161e-02
8.640000000000000000e+02 1.735057115554809570e+00 -2.039981460571289062e+01 -2.149581909179687500e-02 -4.381227120757102966e-02 -1.959242671728134155e-02 -5.189826339483261108e-02
8.650000000000000000e+02 5.383014082908630371e-01 -1.626954460144042969e+01 2.280418295413255692e-03 3.270855918526649475e-02 1.049669366329908371e-02 6.251270882785320282e-03
8.660000000000000000e+02 5.184866189956665039e-01 -1.487783908843994141e+01 -7.200689287856221199e-04 1.887558959424495697e-02 5.446656141430139542e-03 3.798852674663066864e-03
8.670000000000000000e+02 5.236487388610839844e-01 -1.348749923706054688e+01 1.541663426905870438e-03 9.648846462368965149e-03 3.357152920216321945e-03 2.812684746459126472e-03
8.680000000000000000e+02 4.364810466766357422e+00 -1.493377494812011719e+01 7.827288471162319183e-03 -1.869306154549121857e-02 -3.259732155129313469e-03 -1.458228565752506256e-03
8.690000000000000000e+02 5.505335927009582520e-01 -9.289488792419433594e+00 -7.471693679690361023e-04 2.183538308599963784e-04 -1.586446596775203943e-04 2.381483354838564992e-04
8.700000000000000000e+02 5.397359132766723633e-01 -7.895088195800781250e+00 7.915784954093396664e-04 -2.656440483406186104e-04 1.577803341206163168e-04 1.032204672810621560e-04
8.710000000000000000e+02 5.302237868309020996e-01 -6.501631259918212891e+00 -5.511132767423987389e-04 -2.167094353353604674e-04 -2.303468063473701477e-04 -9.107794903684407473e-05
8.720000000000000000e+02 7.175762176513671875e+01 -4.091586685180664062e+01 -1.232619211077690125e-01 7.895902156829833984e+00 2.331792116165161133e+00 -4.375259205698966980e-02
8.730000000000000000e+02 3.228036499023437500e+01 -4.084500885009765625e+01 6.380099058151245117e-01 8.247068524360656738e-01 4.388150274753570557e-01 -1.119278743863105774e-02
8.740000000000000000e+02 1.280080318450927734e+01 -4.070865249633789062e+01 2.622313797473907471e-01 -4.024460911750793457e-01 -4.206441715359687805e-02 -5.021741986274719238e-02
8.750000000000000000e+02 7.555539703369140625e+01 4.018901824951171875e+01 1.262645050883293152e-02 8.534427642822265625e+00 2.564116239547729492e+00 6.480462849140167236e-02
8.760000000000000000e+02 7.801947021484375000e+01 4.170283126831054688e+01 9.507782012224197388e-02 8.831987380981445312e+00 2.678119659423828125e+00 -2.658371068537235260e-02
8.770000000000000000e+02 7.882315063476562500e+01 3.871275329589843750e+01 -2.645299397408962250e-02 8.944803237915039062e+00 2.675505161285400391e+00 -5.182588845491409302e-02
8.780000000000000000e+02 7.754165649414062500e+01 3.593272399902343750e+01 -2.292168699204921722e-02 8.728671073913574219e+00 2.611724853515625000e+00 1.754684001207351685e-02
8.790000000000000000e+02 7.929633331298828125e+01 3.477016067504882812e+01 1.302128937095403671e-02 9.058162689208984375e+00 2.721355199813842773e+00 1.741507276892662048e-02
8.800000000000000000e+02 7.814970397949218750e+01 3.331498718261718750e+01 8.685718290507793427e-03 8.882101058959960938e+00 2.667236089706420898e+00 1.906611584126949310e-02
8.810000000000000000e+02 7.935987091064453125e+01 3.340112304687500000e+01 -7.924626697786152363e-04 9.043693542480468750e+00 2.712870359420776367e+00 3.057834459468722343e-03
8.820000000000000000e+02 7.925115966796875000e+01 3.068460655212402344e+01 -4.919026978313922882e-04 9.034851074218750000e+00 2.710307598114013672e+00 1.059697661548852921e-02
8.830000000000000000e+02 7.773644256591796875e+01 2.787291717529296875e+01 -7.453448604792356491e-03 8.738661766052246094e+00 2.619362592697143555e+00 4.497551172971725464e-02
8.840000000000000000e+02 7.927698516845703125e+01 2.647680473327636719e+01 -5.041459109634160995e-03 8.972727775573730469e+00 2.690305948257446289e+00 2.141039632260799408e-02
8.850000000000000000e+02 7.657311248779296875e+01 2.498105430603027344e+01 -2.710109762847423553e-02 8.497070312500000000e+00 2.540990829467773438e+00 9.342293441295623779e-02
8.860000000000000000e+02 7.930428314208984375e+01 2.507760810852050781e+01 -3.534699499141424894e-04 8.940547943115234375e+00 2.682058334350585938e+00 2.675235830247402191e-02
8.870000000000000000e+02 7.932883453369140625e+01 2.089931869506835938e+01 -3.413618775084614754e-03 8.781068801879882812e+00 2.633296489715576172e+00 4.416143521666526794e-02
8.880000000000000000e+02 7.933232116699218750e+01 1.950678443908691406e+01 -2.991016954183578491e-03 8.703125953674316406e+00 2.610040664672851562e+00 5.093156546354293823e-02
8.890000000000000000e+02 7.933789825439453125e+01 1.811558151245117188e+01 -4.751853179186582565e-03 8.609844207763671875e+00 2.581527709960937500e+00 5.924911051988601685e-02
8.900000000000000000e+02 7.935627746582031250e+01 1.394561672210693359e+01 -4.482197575271129608e-03 8.217267990112304688e+00 2.463835716247558594e+00 8.665192872285842896e-02
8.910000000000000000e+02 7.935994720458984375e+01 1.255286407470703125e+01 -4.803462419658899307e-03 8.042713165283203125e+00 2.411372900009155273e+00 9.710511565208435059e-02
8.920000000000000000e+02 7.936103820800781250e+01 1.115978145599365234e+01 -4.901866894215345383e-03 7.844027042388916016e+00 2.351737499237060547e+00 1.080466955900192261e-01
8.930000000000000000e+02 7.934999084472656250e+01 6.981329917907714844e+00 -3.361560869961977005e-03 7.116305828094482422e+00 2.133883237838745117e+00 1.362428665161132812e-01
8.940000000000000000e+02 7.934740447998046875e+01 5.589106559753417969e+00 -7.152215112000703812e-04 6.841722488403320312e+00 2.052302122116088867e+00 1.409786790609359741e-01
8.950000000000000000e+02 7.934883880615234375e+01 4.198233127593994141e+00 3.986120282206684351e-05 6.559852600097656250e+00 1.967967748641967773e+00 1.421482861042022705e-01
8.960000000000000000e+02 7.937779998779296875e+01 2.083413302898406982e-02 7.284703664481639862e-03 5.742434501647949219e+00 1.724915862083435059e+00 1.165400817990303040e-01
8.970000000000000000e+02 7.939007568359375000e+01 -1.374772191047668457e+00 9.867798537015914917e-03 5.514092922210693359e+00 1.657188177108764648e+00 9.726572781801223755e-02
8.980000000000000000e+02 7.822142028808593750e+01 -4.137047290802001953e+00 5.465505272150039673e-02 5.649336814880371094e+00 1.711197495460510254e+00 1.260717958211898804e-01
8.990000000000000000e+02 7.940514373779296875e+01 -4.164170742034912109e+00 1.258394215255975723e-02 5.195494174957275391e+00 1.562423348426818848e+00 4.734833911061286926e-02
9.000000000000000000e+02 7.940825653076171875e+01 -8.340332984924316406e+00 1.071262639015913010e-02 5.178382396697998047e+00 1.556728482246398926e+00 -3.772694617509841919e-02
9.010000000000000000e+02 7.824124145507812500e+01 -1.107389545440673828e+01 4.099439829587936401e-02 5.857945919036865234e+00 1.769682049751281738e+00 -2.339431941509246826e-01
9.020000000000000000e+02 7.941369628906250000e+01 -1.112121295928955078e+01 7.923981174826622009e-03 5.469374179840087891e+00 1.643189430236816406e+00 -8.430268615484237671e-02
9.030000000000000000e+02 7.942128753662109375e+01 -1.529381561279296875e+01 3.508675377815961838e-03 6.216026782989501953e+00 1.865860700607299805e+00 -1.219596490263938904e-01
9.040000000000000000e+02 7.825891876220703125e+01 -1.799091529846191406e+01 -4.456381313502788544e-03 6.915646553039550781e+00 2.073356866836547852e+00 -3.424085676670074463e-01
9.050000000000000000e+02 7.941918945312500000e+01 -1.807344436645507812e+01 1.012926572002470493e-03 6.790621757507324219e+00 2.037490367889404297e+00 -1.250384747982025146e-01
9.060000000000000000e+02 7.937573242187500000e+01 -2.363716316223144531e+01 -8.813149179331958294e-04 7.823861122131347656e+00 2.346893787384033203e+00 -1.053437739610671997e-01
9.070000000000000000e+02 7.806467437744140625e+01 -2.493132781982421875e+01 -2.217566035687923431e-02 7.940380573272705078e+00 2.375461578369140625e+00 -2.641281783580780029e-01
9.080000000000000000e+02 7.935070800781250000e+01 -2.503758239746093750e+01 -5.540304817259311676e-03 8.031234741210937500e+00 2.407708168029785156e+00 -9.781756252050399780e-02
9.090000000000000000e+02 7.930355834960937500e+01 -2.924431419372558594e+01 -6.908769719302654266e-03 8.507351875305175781e+00 2.550132751464843750e+00 -6.852775067090988159e-02
9.100000000000000000e+02 7.801422882080078125e+01 -3.201830673217773438e+01 -1.609393768012523651e-02 8.529711723327636719e+00 2.554085493087768555e+00 -1.313857585191726685e-01
9.110000000000000000e+02 7.933973693847656250e+01 -3.203038787841796875e+01 -1.143985148519277573e-02 8.731113433837890625e+00 2.615902185440063477e+00 -4.941983148455619812e-02
9.120000000000000000e+02 7.938264465332031250e+01 -3.613271713256835938e+01 6.412653718143701553e-03 8.903029441833496094e+00 2.672832727432250977e+00 -1.492763124406337738e-02
9.130000000000000000e+02 7.927984619140625000e+01 -3.744499588012695312e+01 -2.269577421247959137e-02 8.899165153503417969e+00 2.662940740585327148e+00 9.143316186964511871e-03
9.140000000000000000e+02 7.904286956787109375e+01 -3.874747848510742188e+01 5.742008797824382782e-03 8.871428489685058594e+00 2.663151264190673828e+00 1.582840830087661743e-02
9.150000000000000000e+02 7.866402435302734375e+01 -4.010355758666992188e+01 -2.354208379983901978e-02 8.831980705261230469e+00 2.642531394958496094e+00 3.528702259063720703e-02
9.160000000000000000e+02 2.749819564819335938e+01 4.088092422485351562e+01 5.258160233497619629e-01 5.315278172492980957e-01 3.172031641006469727e-01 -1.981957117095589638e-03
9.170000000000000000e+02 6.701769256591796875e+01 4.075124740600585938e+01 -1.271280087530612946e-02 7.016979217529296875e+00 2.101279973983764648e+00 -4.334075842052698135e-03
9.180000000000000000e+02 1.296617865562438965e+00 2.718234777450561523e+00 5.875391070730984211e-05 -2.809259458445012569e-04 -6.665161345154047012e-05 6.962910265428945422e-05
9.190000000000000000e+02 3.178200006484985352e+00 2.656129837036132812e+00 1.231929491041228175e-04 4.384035710245370865e-04 1.684789604041725397e-04 5.547015462070703506e-06
9.200000000000000000e+02 5.280045509338378906e+00 2.550803184509277344e+00 -5.565891842707060277e-05 -6.650917348451912403e-04 -2.162252058042213321e-04 -1.837024028645828366e-04
9.210000000000000000e+02 1.761169672012329102e+00 6.246757030487060547e+00 -3.918934089597314596e-04 -5.764822708442807198e-05 -1.348624937236309052e-04 -7.271850336110219359e-05
9.220000000000000000e+02 6.010392308235168457e-01 9.221760749816894531e+00 6.416040559997782111e-05 3.094998537562787533e-04 1.120980741688981652e-04 -1.804944186005741358e-04
9.230000000000000000e+02 6.105804443359375000e-01 1.204398155212402344e+01 1.329047809122130275e-04 5.486204288899898529e-03 1.685732742771506310e-03 -1.888091443106532097e-03
9.240000000000000000e+02 1.839871287345886230e+00 1.191167449951171875e+01 2.154343994334340096e-03 1.676416723057627678e-03 1.149228191934525967e-03 -4.828619770705699921e-03
9.250000000000000000e+02 6.391812562942504883e-01 1.768055725097656250e+01 -2.632671967148780823e-03 5.343599990010261536e-02 1.524099800735712051e-02 -5.209987517446279526e-03
9.260000000000000000e+02 7.758434295654296875e+00 1.849882507324218750e+01 -2.229124754667282104e-01 6.250218302011489868e-02 -4.812308773398399353e-02 5.436291173100471497e-02
9.270000000000000000e+02 6.133918166160583496e-01 2.193098640441894531e+01 -7.188473362475633621e-03 2.844950649887323380e-03 -1.303056837059557438e-03 2.605099417269229889e-02
9.280000000000000000e+02 6.574863791465759277e-01 2.334252548217773438e+01 -5.155220627784729004e-03 -7.042016088962554932e-02 -2.267261594533920288e-02 3.934585675597190857e-02
9.290000000000000000e+02 6.678614020347595215e-01 2.477241897583007812e+01 -4.393521696329116821e-03 -1.651103049516677856e-01 -5.085115134716033936e-02 4.937481880187988281e-02
9.300000000000000000e+02 6.722782850265502930e-01 2.900595092773437500e+01 -2.355998149141669273e-03 -5.211288332939147949e-01 -1.570454537868499756e-01 5.687852203845977783e-02
9.310000000000000000e+02 6.868098378181457520e-01 3.041241455078125000e+01 3.664632095023989677e-03 -6.378849744796752930e-01 -1.902661025524139404e-01 5.494630336761474609e-02
9.320000000000000000e+02 2.062708139419555664e+00 3.025811767578125000e+01 8.783713914453983307e-03 -6.058270335197448730e-01 -1.791130006313323975e-01 1.528280675411224365e-01
9.330000000000000000e+02 7.077243328094482422e-01 3.182263946533203125e+01 2.387329936027526855e-03 -7.431294322013854980e-01 -2.222226262092590332e-01 4.894644021987915039e-02
9.340000000000000000e+02 7.078802585601806641e-01 3.601633453369140625e+01 1.357094966806471348e-03 -9.576215147972106934e-01 -2.868793308734893799e-01 2.405007183551788330e-02
9.350000000000000000e+02 3.204633474349975586e+00 3.708277893066406250e+01 4.262296110391616821e-02 -8.957467079162597656e-01 -2.559371292591094971e-01 8.350855112075805664e-02
9.360000000000000000e+02 9.166221618652343750e-01 3.872376632690429688e+01 -4.225920420140028000e-03 -1.012426018714904785e+00 -3.049955964088439941e-01 1.072011981159448624e-02
9.370000000000000000e+02 1.316141605377197266e+00 4.006723022460937500e+01 5.929791834205389023e-03 -1.023263335227966309e+00 -3.052000701427459717e-01 6.805463694036006927e-03
9.380000000000000000e+02 1.037194252014160156e+01 1.873800039291381836e+00 -4.221886047162115574e-04 -1.769253867678344250e-04 -1.797341974452137947e-04 -5.631381063722074032e-04
9.390000000000000000e+02 8.904626846313476562e+00 1.886135935783386230e+00 -3.040398587472736835e-04 -4.041144857183098793e-04 -2.124463062500581145e-04 -6.104713538661599159e-04
9.400000000000000000e+02 8.187831878662109375e+00 1.880036473274230957e+00 4.580910172080621123e-05 5.342336371541023254e-04 1.740128209348767996e-04 5.222382023930549622e-04
9.410000000000000000e+02 7.475395679473876953e+00 1.871402740478515625e+00 -2.249400276923552155e-04 -5.549322813749313354e-04 -2.339616912649944425e-04 -5.035361973568797112e-04
9.420000000000000000e+02 5.343891620635986328e+00 1.850673794746398926e+00 -5.236464494373649359e-05 6.684841355308890343e-04 1.848358369898051023e-04 2.113787777489051223e-04
9.430000000000000000e+02 4.630788803100585938e+00 1.854703664779663086e+00 -1.519824145361781120e-04 -5.845197592861950397e-04 -2.209506492363288999e-04 -1.053273990692105144e-06
9.440000000000000000e+02 3.917426586151123047e+00 1.865787982940673828e+00 -4.361207288638979662e-07 5.778976483270525932e-04 1.732384553179144859e-04 4.880161941400729120e-05
9.450000000000000000e+02 3.208131313323974609e+00 1.877877473831176758e+00 -2.025916764978319407e-04 -4.734438261948525906e-04 -2.028106537181884050e-04 1.431117416359484196e-04
9.460000000000000000e+02 2.509173154830932617e+00 1.881697177886962891e+00 9.587672684574499726e-05 4.012516001239418983e-04 1.491384900873526931e-04 6.136085721664130688e-05
9.470000000000000000e+02 1.816982269287109375e+00 1.884609103202819824e+00 -1.098404463846236467e-04 -3.766379959415644407e-04 -1.459435297874733806e-04 6.065278648748062551e-05
9.480000000000000000e+02 1.263719654083251953e+01 1.772097587585449219e+00 2.280503977090120316e-04 8.316243474837392569e-05 9.336384391644969583e-05 -4.709583663498051465e-06
9.490000000000000000e+02 1.331834697723388672e+01 1.745497226715087891e+00 -3.720038221217691898e-04 -1.830147812142968178e-04 -1.665055897319689393e-04 -3.068069927394390106e-04
9.500000000000000000e+02 1.513132667541503906e+01 1.859265804290771484e+00 2.345497923670336604e-04 4.701806465163826942e-04 2.114191302098333836e-04 3.632799489423632622e-04
9.510000000000000000e+02 1.326500225067138672e+01 2.490305423736572266e+00 8.536143286619335413e-05 2.902349806390702724e-04 1.126789211411960423e-04 -5.896521543036215007e-05
9.520000000000000000e+02 1.476639366149902344e+01 3.617293596267700195e+00 -8.514219080097973347e-04 3.784141154028475285e-05 -2.440741518512368202e-04 -1.357270375592634082e-04
9.530000000000000000e+02 1.406469154357910156e+01 7.574441909790039062e+00 2.657851902768015862e-03 1.823032362153753638e-04 8.520465344190597534e-04 8.804512908682227135e-04
9.540000000000000000e+02 1.352429676055908203e+01 8.837527275085449219e+00 -3.218988422304391861e-03 -1.045956392772495747e-03 -1.279483432881534100e-03 -1.209135982207953930e-03
9.550000000000000000e+02 1.289011383056640625e+01 1.006855297088623047e+01 3.645973280072212219e-03 9.095732239075005054e-04 1.366663957014679909e-03 2.059354679659008980e-03
9.560000000000000000e+02 1.029535388946533203e+01 1.176289558410644531e+01 -1.999475760385394096e-03 -2.756500849500298500e-03 -1.426793052814900875e-03 -2.500765491276979446e-03
9.570000000000000000e+02 9.406976699829101562e+00 1.281901168823242188e+01 1.361556234769523144e-03 5.606185179203748703e-03 2.090322552248835564e-03 3.257110482081770897e-03
9.580000000000000000e+02 8.466167449951171875e+00 1.559903907775878906e+01 -7.097943685948848724e-03 2.996557392179965973e-02 6.860289257019758224e-03 -1.058758888393640518e-02
9.590000000000000000e+02 1.629145050048828125e+01 1.666879463195800781e+01 -8.013637065887451172e-01 -1.376643300056457520e+00 -6.534020900726318359e-01 7.649618387222290039e-01
9.600000000000000000e+02 1.659461402893066406e+01 1.306664562225341797e+01 -6.450791358947753906e-01 -2.040427446365356445e+00 -8.056519627571105957e-01 1.065416812896728516e+00
9.610000000000000000e+02 1.761703300476074219e+01 1.041517353057861328e+01 -3.933203220367431641e-01 -2.094654798507690430e+00 -7.463925480842590332e-01 8.071241378784179688e-01
9.620000000000000000e+02 1.828386116027832031e+01 7.718467235565185547e+00 -1.228622719645500183e-01 -1.662153720855712891e+00 -5.355048179626464844e-01 4.276281297206878662e-01
9.630000000000000000e+02 1.877017021179199219e+01 4.997815132141113281e+00 -6.598955392837524414e-02 -1.158524274826049805e+00 -3.673541247844696045e-01 2.439891099929809570e-01
9.640000000000000000e+02 2.007007217407226562e+01 -3.927689075469970703e+00 -3.985911607742309570e-02 -4.417718201875686646e-02 -2.521088905632495880e-02 4.587236419320106506e-02
9.650000000000000000e+02 1.854646682739257812e+01 -3.540148973464965820e+00 -1.266235602088272572e-03 -2.084685675799846649e-02 -6.633927579969167709e-03 8.798830211162567139e-03
9.660000000000000000e+02 1.920952987670898438e+01 -2.862205028533935547e+00 -1.791571639478206635e-02 -6.456016749143600464e-02 -2.474276535212993622e-02 4.541298002004623413e-02
9.670000000000000000e+02 2.090002822875976562e+01 -4.123530864715576172e+00 -6.033477932214736938e-02 -6.478946655988693237e-02 -3.753727674484252930e-02 7.565758377313613892e-02
9.680000000000000000e+02 2.306415557861328125e+01 -4.570733070373535156e+00 -1.734815835952758789e-01 -4.980629310011863708e-02 -6.698635965585708618e-02 1.453567445278167725e-01
9.690000000000000000e+02 2.377534675598144531e+01 -4.675871372222900391e+00 -2.211229205131530762e-01 -4.410439357161521912e-02 -7.956819236278533936e-02 1.611217856407165527e-01
9.700000000000000000e+02 2.520664787292480469e+01 -4.821016311645507812e+00 -3.322805166244506836e-01 -3.105526231229305267e-02 -1.090007349848747253e-01 1.895389556884765625e-01
9.710000000000000000e+02 2.592252540588378906e+01 -4.880561828613281250e+00 -3.940223455429077148e-01 -2.360569871962070465e-02 -1.252884119749069214e-01 2.009859085083007812e-01
9.720000000000000000e+02 2.892072677612304688e+01 -4.312394618988037109e+00 -6.704793572425842285e-01 -6.342878565192222595e-03 -2.030466645956039429e-01 2.965026199817657471e-01
9.730000000000000000e+02 2.881737899780273438e+01 -4.970204830169677734e+00 -6.833488345146179199e-01 -1.882516662590205669e-03 -2.055694013833999634e-01 2.280702590942382812e-01
9.740000000000000000e+02 3.184045219421386719e+01 -4.274726390838623047e+00 -9.646854996681213379e-01 1.260834187269210815e-02 -2.856231331825256348e-01 3.096475005149841309e-01
9.750000000000000000e+02 3.176443099975585938e+01 -4.946372509002685547e+00 -1.017546176910400391e+00 1.087991055101156235e-02 -3.019998669624328613e-01 2.348611801862716675e-01
9.760000000000000000e+02 3.406208801269531250e+01 -4.199990749359130859e+00 -1.188529372215270996e+00 1.904910616576671600e-02 -3.508440852165222168e-01 3.075021803379058838e-01
9.770000000000000000e+02 3.399532318115234375e+01 -4.890635967254638672e+00 -1.279930710792541504e+00 1.461696531623601913e-02 -3.795941174030303955e-01 2.305118441581726074e-01
9.780000000000000000e+02 3.555167388916015625e+01 -4.147442817687988281e+00 -1.332224249839782715e+00 2.079271152615547180e-02 -3.934294581413269043e-01 3.012473285198211670e-01
9.790000000000000000e+02 3.698527908325195312e+01 -4.804933547973632812e+00 -1.623691558837890625e+00 1.388607919216156006e-02 -4.829416573047637939e-01 2.167071700096130371e-01
9.800000000000000000e+02 3.848499298095703125e+01 -4.765288829803466797e+00 -1.784657120704650879e+00 1.271437481045722961e-02 -5.315828323364257812e-01 2.062693983316421509e-01
9.810000000000000000e+02 3.923616409301757812e+01 -4.746932506561279297e+00 -1.860873222351074219e+00 1.164613850414752960e-02 -5.547681450843811035e-01 2.006318420171737671e-01
9.820000000000000000e+02 3.998729705810546875e+01 -4.728515625000000000e+00 -1.931177854537963867e+00 1.113278791308403015e-02 -5.760135054588317871e-01 1.940122395753860474e-01
9.830000000000000000e+02 4.299678421020507812e+01 -4.662928581237792969e+00 -2.153371334075927734e+00 1.327151712030172348e-02 -6.420299410820007324e-01 1.558416038751602173e-01
9.840000000000000000e+02 4.450042343139648438e+01 -4.639213562011718750e+00 -2.211237668991088867e+00 1.741520129144191742e-02 -6.581467390060424805e-01 1.250413209199905396e-01
9.850000000000000000e+02 4.600000381469726562e+01 -4.630224704742431641e+00 -2.214682579040527344e+00 2.295798063278198242e-02 -6.575174331665039062e-01 7.991038262844085693e-02
9.860000000000000000e+02 4.674805068969726562e+01 -4.631061077117919922e+00 -2.188690185546875000e+00 2.706602029502391815e-02 -6.484872698783874512e-01 4.840011522173881531e-02
9.870000000000000000e+02 4.749559020996093750e+01 -4.637422084808349609e+00 -2.137648820877075195e+00 3.375402465462684631e-02 -6.311684250831604004e-01 1.273787580430507660e-02
9.880000000000000000e+02 4.898372268676757812e+01 -4.662683010101318359e+00 -1.931915640830993652e+00 5.286335945129394531e-02 -5.637156963348388672e-01 -1.001823171973228455e-01
9.890000000000000000e+02 4.971622085571289062e+01 -4.674159049987792969e+00 -1.740045547485351562e+00 9.766330569982528687e-02 -4.927146732807159424e-01 -1.984501481056213379e-01
9.900000000000000000e+02 5.158114624023437500e+01 -4.685858249664306641e+00 -9.050843119621276855e-01 2.905387282371520996e-01 -1.843636780977249146e-01 -7.262854576110839844e-01
9.910000000000000000e+02 5.272299194335937500e+01 -4.671386241912841797e+00 2.328832149505615234e-01 6.876118779182434082e-01 2.761485278606414795e-01 -1.480576992034912109e+00
9.920000000000000000e+02 5.312018585205078125e+01 -4.661642551422119141e+00 7.021374106407165527e-01 9.253869056701660156e-01 4.882572889328002930e-01 -1.859049439430236816e+00
9.930000000000000000e+02 5.381484985351562500e+01 -4.697241306304931641e+00 1.789414644241333008e+00 1.937544584274291992e+00 1.118087768554687500e+00 -2.858689546585083008e+00
9.940000000000000000e+02 5.522557449340820312e+01 -4.736907958984375000e+00 3.156403541564941406e+00 8.623859405517578125e+00 3.534078836441040039e+00 -6.664297103881835938e+00
9.950000000000000000e+02 5.423458862304687500e+01 -4.754171371459960938e+00 2.463349342346191406e+00 2.762677431106567383e+00 1.567808032035827637e+00 -3.754246711730957031e+00
9.960000000000000000e+02 5.602019500732421875e+01 -4.742115974426269531e+00 1.426314830780029297e+00 1.656518936157226562e+01 5.397450923919677734e+00 -5.886409282684326172e+00
9.970000000000000000e+02 5.623375320434570312e+01 -4.703387260437011719e+00 1.103906393051147461e+00 1.796981430053710938e+01 5.722116470336914062e+00 -4.698737144470214844e+00
9.980000000000000000e+02 5.736850738525390625e+01 -5.309758663177490234e+00 5.968009948730468750e+00 1.965472602844238281e+01 7.686820983886718750e+00 2.392987966537475586e+00
9.990000000000000000e+02 5.775517272949218750e+01 -5.329345226287841797e+00 6.642692089080810547e+00 1.754508209228515625e+01 7.256332397460937500e+00 2.440557003021240234e+00
1.000000000000000000e+03 5.778024673461914062e+01 -6.048448562622070312e+00 1.051278114318847656e+01 1.658735656738281250e+01 8.130041122436523438e+00 1.347975015640258789e+00
1.001000000000000000e+03 5.801451110839843750e+01 -5.704273700714111328e+00 8.637241363525390625e+00 1.611638641357421875e+01 7.426088333129882812e+00 2.033462762832641602e+00
1.002000000000000000e+03 5.774082183837890625e+01 -6.707908153533935547e+00 1.072733879089355469e+01 1.674566841125488281e+01 8.241901397705078125e+00 -1.400021791458129883e+00
1.003000000000000000e+03 5.723373794555664062e+01 -7.642213344573974609e+00 4.560771465301513672e+00 2.018035697937011719e+01 7.422338485717773438e+00 -1.684155702590942383e+00
1.004000000000000000e+03 5.706578063964843750e+01 -7.772681713104248047e+00 3.454603672027587891e+00 2.081669425964355469e+01 7.281389236450195312e+00 -8.889424204826354980e-01
1.005000000000000000e+03 5.624411773681640625e+01 -8.042593002319335938e+00 1.212210297584533691e+00 1.807461357116699219e+01 5.786046981811523438e+00 4.693110466003417969e+00
1.006000000000000000e+03 5.566235733032226562e+01 -8.343605995178222656e+00 1.732662677764892578e+00 1.247042274475097656e+01 4.260925769805908203e+00 6.268661975860595703e+00
1.007000000000000000e+03 5.331727218627929688e+01 -8.103850364685058594e+00 9.966638684272766113e-01 1.278137922286987305e+00 6.824405193328857422e-01 2.127142906188964844e+00
1.008000000000000000e+03 5.310870361328125000e+01 -8.066314697265625000e+00 5.624735951423645020e-01 7.882012724876403809e-01 4.052024483680725098e-01 1.733970165252685547e+00
1.009000000000000000e+03 5.264806747436523438e+01 -8.088118553161621094e+00 1.072934046387672424e-01 6.894489526748657227e-01 2.390227019786834717e-01 1.399384975433349609e+00
1.010000000000000000e+03 5.048265457153320312e+01 -8.216812133789062500e+00 -1.364414095878601074e+00 1.588698774576187134e-01 -3.616632819175720215e-01 3.643250167369842529e-01
1.011000000000000000e+03 4.747898101806640625e+01 -8.284934043884277344e+00 -2.114450454711914062e+00 5.280781909823417664e-02 -6.184927821159362793e-01 -1.182646490633487701e-02
1.012000000000000000e+03 4.598153305053710938e+01 -8.304082870483398438e+00 -2.248465538024902344e+00 3.106050193309783936e-02 -6.652214527130126953e-01 -9.142906963825225830e-02
1.013000000000000000e+03 4.523467636108398438e+01 -8.314898490905761719e+00 -2.278712987899780273e+00 2.595027536153793335e-02 -6.758288145065307617e-01 -1.183462962508201599e-01
1.014000000000000000e+03 4.448817443847656250e+01 -8.326146125793457031e+00 -2.292196273803710938e+00 1.986688002943992615e-02 -6.816987991333007812e-01 -1.415111571550369263e-01
1.015000000000000000e+03 4.150186538696289062e+01 -8.384990692138671875e+00 -2.236054182052612305e+00 4.385169129818677902e-03 -6.695007085800170898e-01 -1.967012584209442139e-01
1.016000000000000000e+03 4.294268417358398438e+01 -9.056111335754394531e+00 -1.936283826828002930e+00 2.868349291384220123e-02 -5.722801089286804199e-01 -1.722299903631210327e-01
1.017000000000000000e+03 4.000869750976562500e+01 -8.420695304870605469e+00 -2.166974306106567383e+00 7.948772690724581480e-05 -6.500684618949890137e-01 -2.105602771043777466e-01
1.018000000000000000e+03 3.777098083496093750e+01 -8.482818603515625000e+00 -2.030684709548950195e+00 -4.986479878425598145e-03 -6.107013821601867676e-01 -2.240550816059112549e-01
1.019000000000000000e+03 3.477042770385742188e+01 -8.577721595764160156e+00 -1.805365443229675293e+00 -1.294204965233802795e-02 -5.454922318458557129e-01 -2.287158966064453125e-01
1.020000000000000000e+03 3.702388000488281250e+01 -8.506356239318847656e+00 -1.978002905845642090e+00 -8.993765339255332947e-03 -5.960990190505981445e-01 -2.261526435613632202e-01
1.021000000000000000e+03 3.851677703857421875e+01 -8.460774421691894531e+00 -2.079145431518554688e+00 -4.838900174945592880e-03 -6.251952648162841797e-01 -2.205899208784103394e-01
1.022000000000000000e+03 3.552420425415039062e+01 -8.554676055908203125e+00 -1.865885853767395020e+00 -1.308353338390588760e-02 -5.636908411979675293e-01 -2.294006049633026123e-01
1.023000000000000000e+03 3.401418685913085938e+01 -8.599117279052734375e+00 -1.744302868843078613e+00 -1.585031859576702118e-02 -5.280459523200988770e-01 -2.281239926815032959e-01
1.024000000000000000e+03 3.250013732910156250e+01 -8.638714790344238281e+00 -1.613680720329284668e+00 -1.832147315144538879e-02 -4.896006584167480469e-01 -2.253954112529754639e-01
1.025000000000000000e+03 2.945649337768554688e+01 -8.675962448120117188e+00 -1.328877449035644531e+00 -1.714994199573993683e-02 -4.038082063198089600e-01 -2.170293480157852173e-01
1.026000000000000000e+03 3.021834373474121094e+01 -8.670915603637695312e+00 -1.403270244598388672e+00 -1.672806963324546814e-02 -4.259994924068450928e-01 -2.178808599710464478e-01
1.027000000000000000e+03 2.715698814392089844e+01 -8.634232521057128906e+00 -1.091922521591186523e+00 -6.692382972687482834e-03 -3.295844793319702148e-01 -2.101352661848068237e-01
1.028000000000000000e+03 2.638752746582031250e+01 -8.611100196838378906e+00 -1.008465170860290527e+00 -2.943535568192601204e-03 -3.034226000308990479e-01 -2.112177014350891113e-01
1.029000000000000000e+03 2.329288864135742188e+01 -8.392850875854492188e+00 -6.620067358016967773e-01 2.248013392090797424e-02 -1.918579787015914917e-01 -2.046360224485397339e-01
1.030000000000000000e+03 2.087588119506835938e+01 -8.199622154235839844e+00 -4.031314551830291748e-01 1.895032078027725220e-02 -1.152543351054191589e-01 -1.880936622619628906e-01
1.031000000000000000e+03 2.001840591430664062e+01 -8.046578407287597656e+00 -3.112976253032684326e-01 1.597884343937039375e-03 -9.290991723537445068e-02 -1.683701574802398682e-01
1.032000000000000000e+03 1.819959831237792969e+01 -7.211236000061035156e+00 -3.364786133170127869e-02 -6.573800742626190186e-02 -2.981576137244701385e-02 -5.244385451078414917e-02
1.033000000000000000e+03 5.688520431518554688e+01 -4.865208625793457031e+00 2.241589784622192383e+00 2.058006858825683594e+01 6.846497058868408203e+00 -3.338077366352081299e-01
1.034000000000000000e+03 5.581200790405273438e+01 -4.740415573120117188e+00 1.968044638633728027e+00 1.444785785675048828e+01 4.924770832061767578e+00 -6.637784481048583984e+00
1.035000000000000000e+03 5.687496185302734375e+01 -7.872923374176025391e+00 2.403239965438842773e+00 2.079203987121582031e+01 6.958584308624267578e+00 4.486777484416961670e-01
1.036000000000000000e+03 5.708179855346679688e+01 -4.984370708465576172e+00 3.320639371871948242e+00 2.051656723022460938e+01 7.151161670684814453e+00 8.322407603263854980e-01
1.037000000000000000e+03 5.646392822265625000e+01 -8.038951873779296875e+00 1.135909676551818848e+00 1.954403877258300781e+01 6.203984260559082031e+00 3.246960878372192383e+00
1.038000000000000000e+03 5.759547042846679688e+01 -7.111487865447998047e+00 8.853549957275390625e+00 1.802857208251953125e+01 8.064637184143066406e+00 -2.519888401031494141e+00
1.039000000000000000e+03 5.762915420532226562e+01 -5.143977165222167969e+00 5.425374031066894531e+00 1.824474143981933594e+01 7.101035118103027344e+00 2.213144302368164062e+00
1.040000000000000000e+03 5.776615524291992188e+01 -7.458915710449218750e+00 6.608442306518554688e+00 1.744424057006835938e+01 7.215805053710937500e+00 -2.455694675445556641e+00
1.041000000000000000e+03 5.781232070922851562e+01 -6.272685050964355469e+00 1.076561546325683594e+01 1.624168968200683594e+01 8.102191925048828125e+00 5.057216286659240723e-01
1.042000000000000000e+03 5.811754989624023438e+01 -5.908542633056640625e+00 9.054450988769531250e+00 1.541892147064208984e+01 7.342011451721191406e+00 1.464207053184509277e+00
1.043000000000000000e+03 5.749483489990234375e+01 -7.301860332489013672e+00 7.530443668365478516e+00 1.891094589233398438e+01 7.932416915893554688e+00 -2.740143299102783203e+00
1.044000000000000000e+03 5.765547561645507812e+01 -7.686643600463867188e+00 5.252931594848632812e+00 1.795732307434082031e+01 6.963076591491699219e+00 -2.203963994979858398e+00
1.045000000000000000e+03 5.667634582519531250e+01 -7.975382328033447266e+00 1.559598088264465332e+00 2.027804565429687500e+01 6.551292896270751953e+00 1.841663718223571777e+00
1.046000000000000000e+03 5.704627609252929688e+01 -8.148795127868652344e+00 1.852352261543273926e+00 1.911862373352050781e+01 6.291292667388916016e+00 2.849622964859008789e-01
1.047000000000000000e+03 5.516482162475585938e+01 -8.205501556396484375e+00 2.787474870681762695e+00 7.997230052947998047e+00 3.235411643981933594e+00 6.160465717315673828e+00
1.048000000000000000e+03 5.442223739624023438e+01 -8.137918472290039062e+00 2.760790109634399414e+00 3.680676937103271484e+00 1.932440161705017090e+00 4.382622241973876953e+00
1.049000000000000000e+03 5.485138320922851562e+01 -8.086668968200683594e+00 3.141541957855224609e+00 5.725242614746093750e+00 2.660035371780395508e+00 5.575033187866210938e+00
1.050000000000000000e+03 5.399365997314453125e+01 -8.143956184387207031e+00 2.077864408493041992e+00 2.390305042266845703e+00 1.340450882911682129e+00 3.304189443588256836e+00
1.051000000000000000e+03 5.376968002319335938e+01 -8.138511657714843750e+00 1.759325385093688965e+00 1.981570124626159668e+00 1.122268676757812500e+00 2.899180173873901367e+00
1.052000000000000000e+03 5.340547561645507812e+01 -8.608084678649902344e+00 1.507015824317932129e+00 1.997018933296203613e+00 1.051210403442382812e+00 2.846899986267089844e+00
1.053000000000000000e+03 5.561996459960937500e+01 -8.058236122131347656e+00 2.455155611038208008e+00 1.239810371398925781e+01 4.455977916717529297e+00 7.000018596649169922e+00
1.054000000000000000e+03 5.603393554687500000e+01 -8.039147377014160156e+00 1.506439566612243652e+00 1.663512802124023438e+01 5.442470550537109375e+00 5.754038810729980469e+00
1.055000000000000000e+03 5.420920181274414062e+01 -8.146466255187988281e+00 2.452471017837524414e+00 2.967714071273803711e+00 1.626055479049682617e+00 3.836929798126220703e+00
1.056000000000000000e+03 5.393908309936523438e+01 -8.631436347961425781e+00 2.046582698822021484e+00 3.276447534561157227e+00 1.596909046173095703e+00 3.845461368560791016e+00
1.057000000000000000e+03 5.207386398315429688e+01 -4.226448059082031250e+00 1.580232381820678711e-01 6.936940550804138184e-01 2.555151879787445068e-01 -1.384087204933166504e+00
1.058000000000000000e+03 5.336506652832031250e+01 -4.663938522338867188e+00 1.149245023727416992e+00 1.254509329795837402e+00 7.211262583732604980e-01 -2.156693935394287109e+00
1.059000000000000000e+03 5.403529357910156250e+01 -4.712457656860351562e+00 2.120258092880249023e+00 2.307057142257690430e+00 1.328194499015808105e+00 -3.321995019912719727e+00
1.060000000000000000e+03 5.456854248046875000e+01 -4.501091003417968750e+00 2.755050659179687500e+00 4.575523853302001953e+00 2.199172496795654297e+00 -4.937845706939697266e+00
1.061000000000000000e+03 5.502840042114257812e+01 -4.727758884429931641e+00 3.202095746994018555e+00 6.665203571319580078e+00 2.960189819335937500e+00 -5.992112636566162109e+00
1.062000000000000000e+03 5.482136535644531250e+01 -4.718069553375244141e+00 3.130466699600219727e+00 5.444328784942626953e+00 2.572438716888427734e+00 -5.516494274139404297e+00
1.063000000000000000e+03 5.561109924316406250e+01 -4.751825332641601562e+00 2.420525789260864258e+00 1.255070304870605469e+01 4.491368770599365234e+00 -6.905353069305419922e+00
1.064000000000000000e+03 1.452460956573486328e+01 1.740379452705383301e+00 4.383191480883397162e-05 -1.807338558137416840e-04 -4.107058339286595583e-05 -7.069930143188685179e-05
1.065000000000000000e+03 1.463853645324707031e+01 2.567220449447631836e+00 2.008603332797065377e-04 -5.253668059594929218e-04 -9.735193452797830105e-05 -1.426410744898021221e-04
1.066000000000000000e+03 1.188949584960937500e+01 1.809168457984924316e+00 -5.024668644182384014e-04 1.774102747731376439e-05 -1.454177545383572578e-04 -2.906741574406623840e-04
1.067000000000000000e+03 5.092193222045898438e+01 -3.815241575241088867e+00 -2.349293082952499390e-01 5.326792001724243164e-01 8.932496607303619385e-02 -9.817867279052734375e-01
1.068000000000000000e+03 5.216459655761718750e+01 -4.680925369262695312e+00 -3.664095401763916016e-01 4.075855910778045654e-01 1.235281303524971008e-02 -9.667714238166809082e-01
1.069000000000000000e+03 5.152579879760742188e+01 -4.245899677276611328e+00 -2.694788575172424316e-01 4.673236608505249023e-01 5.935344472527503967e-02 -9.865292310714721680e-01
1.070000000000000000e+03 1.446745491027832031e+01 -3.372736215591430664e+00 3.061505049117840827e-05 2.970981877297163010e-04 9.831396891968324780e-05 -8.066099690040573478e-05
1.071000000000000000e+03 1.385030555725097656e+01 -2.960632085800170898e+00 1.777961733750998974e-05 -1.544839033158496022e-04 -4.101128433831036091e-05 -1.176668320113094524e-05
1.072000000000000000e+03 1.867216491699218750e+01 -8.314287185668945312e+00 -2.170672863721847534e-01 -4.745295643806457520e-02 -7.935607433319091797e-02 -1.603508442640304565e-01
1.073000000000000000e+03 1.863201904296875000e+01 -9.596107482910156250e+00 -3.232870995998382568e-01 -1.009328886866569519e-01 -1.272659897804260254e-01 -2.877313494682312012e-01
1.074000000000000000e+03 3.885645151138305664e+00 3.331125259399414062e+00 4.337311838753521442e-05 6.330109317786991596e-04 2.029152237810194492e-04 1.333394175162538886e-04
1.075000000000000000e+03 9.527726173400878906e+00 2.668813228607177734e+00 -3.575677692424505949e-04 -5.260939942672848701e-04 -2.650985261425375938e-04 -7.675886736251413822e-04
1.076000000000000000e+03 7.364816665649414062e+00 2.622292757034301758e+00 3.961581387557089329e-05 8.178448770195245743e-04 2.572381927166134119e-04 5.773974116891622543e-04
1.077000000000000000e+03 6.765198707580566406e+00 1.862065911293029785e+00 -3.936707435059361160e-05 6.576536688953638077e-04 1.854859729064628482e-04 4.116662603337317705e-04
1.078000000000000000e+03 6.667808532714843750e+00 2.593035697937011719e+00 -7.769868534523993731e-05 -7.402988267131149769e-04 -2.453992492519319057e-04 -4.650207119993865490e-04
1.079000000000000000e+03 7.936321258544921875e+00 3.434777498245239258e+00 1.755874400259926915e-04 9.890772635117173195e-04 3.493994008749723434e-04 6.697073695249855518e-04
1.080000000000000000e+03 5.731575965881347656e+00 3.987336635589599609e+00 -6.119778845459222794e-05 1.025867997668683529e-03 2.894010685849934816e-04 2.829954901244491339e-04
1.081000000000000000e+03 1.875843167304992676e+00 7.688828468322753906e+00 8.011672180145978928e-04 1.343072653980925679e-04 2.806423581205308437e-04 -1.518844219390302896e-04
1.082000000000000000e+03 3.977448642253875732e-01 3.784027814865112305e+00 4.273804661352187395e-04 -5.483058339450508356e-05 1.117649662774056196e-04 1.788509252946823835e-04
1.083000000000000000e+03 1.863807082176208496e+00 2.626452922821044922e+00 1.488623820478096604e-04 2.456692454870790243e-04 1.183594868052750826e-04 1.927580888150259852e-04
1.084000000000000000e+03 3.876783251762390137e-01 2.095639705657958984e+00 -1.630838669370859861e-04 -1.946122501976788044e-04 -1.073088351404294372e-04 9.057916031451895833e-05
1.085000000000000000e+03 1.123052120208740234e+00 1.936551928520202637e+00 -3.911362000508233905e-05 2.422499383101239800e-04 6.094089621910825372e-05 4.434518996276892722e-05
1.086000000000000000e+03 1.113139820098876953e+01 1.843997955322265625e+00 3.400566056370735168e-04 8.921241533244028687e-05 1.287807099288329482e-04 3.346257144585251808e-04
1.087000000000000000e+03 8.664544105529785156e+00 3.454890012741088867e+00 -2.427589497528970242e-04 -8.309535332955420017e-04 -3.221137449145317078e-04 -7.763540488667786121e-04
1.088000000000000000e+03 2.664093208312988281e+01 -4.920540332794189453e+00 -4.608663022518157959e-01 -1.813509315252304077e-02 -1.437004208564758301e-01 2.091114819049835205e-01
1.089000000000000000e+03 2.573319053649902344e+01 -2.887618541717529297e+00 -3.671692907810211182e-01 -7.682812213897705078e-02 -1.331992149353027344e-01 3.580778837203979492e-01
1.090000000000000000e+03 2.398477935791015625e+01 -3.976691961288452148e+00 -2.421748340129852295e-01 -6.658548116683959961e-02 -9.262809902429580688e-02 2.187699675559997559e-01
1.091000000000000000e+03 2.608942985534667969e+01 -4.224986553192138672e+00 -4.086351096630096436e-01 -3.652143850922584534e-02 -1.335469633340835571e-01 2.612523436546325684e-01
1.092000000000000000e+03 2.468496322631835938e+01 -4.081709861755371094e+00 -2.941346466541290283e-01 -5.633284896612167358e-02 -1.051402464509010315e-01 2.345736920833587646e-01
1.093000000000000000e+03 2.420354461669921875e+01 -3.310906410217285156e+00 -2.593603134155273438e-01 -8.992435038089752197e-02 -1.047853976488113403e-01 2.736792266368865967e-01
1.094000000000000000e+03 2.235334014892578125e+01 -4.435954570770263672e+00 -1.328303962945938110e-01 -5.564292892813682556e-02 -5.654199793934822083e-02 1.255111843347549438e-01
1.095000000000000000e+03 2.328863334655761719e+01 -3.844120740890502930e+00 -1.972531974315643311e-01 -7.670956104993820190e-02 -8.218882232904434204e-02 2.003419399261474609e-01
1.096000000000000000e+03 2.954878997802734375e+01 -4.973105430603027344e+00 -7.634722590446472168e-01 2.095157979056239128e-03 -2.284131348133087158e-01 2.312971353530883789e-01
1.097000000000000000e+03 2.749478912353515625e+01 -4.291719913482666016e+00 -5.340095758438110352e-01 -2.007756941020488739e-02 -1.662261337041854858e-01 2.814518809318542480e-01
1.098000000000000000e+03 2.840524673461914062e+01 -2.993563890457153320e+00 -5.717539191246032715e-01 -2.749388106167316437e-02 -1.797743439674377441e-01 4.058725833892822266e-01
1.099000000000000000e+03 2.820519447326660156e+01 -4.305607795715332031e+00 -6.007935404777526855e-01 -1.266012433916330338e-02 -1.840360909700393677e-01 2.898172438144683838e-01
1.100000000000000000e+03 2.736391258239746094e+01 -4.941674232482910156e+00 -5.314985513687133789e-01 -1.191158033907413483e-02 -1.630230396986007690e-01 2.177017331123352051e-01
1.101000000000000000e+03 3.250617218017578125e+01 -4.931023120880126953e+00 -1.104162812232971191e+00 1.277059316635131836e-02 -3.274176716804504395e-01 2.338082045316696167e-01
1.102000000000000000e+03 3.044197082519531250e+01 -3.648527622222900391e+00 -7.782756686210632324e-01 2.937069162726402283e-03 -2.326015830039978027e-01 3.692335486412048340e-01
1.103000000000000000e+03 3.195950889587402344e+01 -2.303860187530517578e+00 -7.855086922645568848e-01 1.676658913493156433e-02 -2.306226342916488647e-01 4.760918021202087402e-01
1.104000000000000000e+03 3.036933708190917969e+01 -4.304971694946289062e+00 -8.147280812263488770e-01 4.479870200157165527e-03 -2.430744618177413940e-01 3.056965768337249756e-01
1.105000000000000000e+03 3.028531455993652344e+01 -4.966277122497558594e+00 -8.465008735656738281e-01 5.865880288183689117e-03 -2.521905004978179932e-01 2.340962290763854980e-01
1.106000000000000000e+03 1.346551704406738281e+01 -4.837641716003417969e+00 -1.550079905427992344e-04 -4.388807428767904639e-05 -5.966881872154772282e-05 1.000176853267475963e-04
1.107000000000000000e+03 1.287293052673339844e+01 -5.959726810455322266e+00 2.838242216967046261e-04 3.502579784253612161e-05 9.565500658936798573e-05 -1.671813079155981541e-04
1.108000000000000000e+03 8.155961990356445312e+00 -2.572772979736328125e+00 -3.098149318248033524e-05 1.593141314515378326e-05 -4.515024556894786656e-06 -2.512942592147737741e-04
1.109000000000000000e+03 3.331935882568359375e+01 -4.227013587951660156e+00 -1.114340543746948242e+00 1.750712469220161438e-02 -3.290500044822692871e-01 3.092632591724395752e-01
1.110000000000000000e+03 3.415303039550781250e+01 -2.803035020828247070e+00 -9.943715929985046387e-01 3.002592734992504120e-02 -2.893036901950836182e-01 4.275010526180267334e-01
1.111000000000000000e+03 3.623595046997070312e+01 -4.826082229614257812e+00 -1.540423870086669922e+00 1.457749307155609131e-02 -4.577538967132568359e-01 2.208961248397827148e-01
1.112000000000000000e+03 3.480572509765625000e+01 -4.173192024230957031e+00 -1.260795116424560547e+00 2.025732398033142090e-02 -3.721613585948944092e-01 3.050226867198944092e-01
1.113000000000000000e+03 4.374160766601562500e+01 -8.339286804199218750e+00 -2.293180704116821289e+00 1.665534824132919312e-02 -6.829575896263122559e-01 -1.604256480932235718e-01
1.114000000000000000e+03 4.517439651489257812e+01 -9.019996643066406250e+00 -1.849469184875488281e+00 5.668886005878448486e-02 -5.378341078758239746e-01 -7.825610786676406860e-02
1.115000000000000000e+03 4.436990737915039062e+01 -9.742392539978027344e+00 -1.526211261749267578e+00 8.644104003906250000e-02 -4.319310784339904785e-01 -6.798107177019119263e-02
1.116000000000000000e+03 4.443103408813476562e+01 -9.030266761779785156e+00 -1.894611477851867676e+00 4.714578017592430115e-02 -5.542396903038024902e-01 -1.164362803101539612e-01
1.117000000000000000e+03 4.742016983032226562e+01 -8.989999771118164062e+00 -1.572591066360473633e+00 1.164324656128883362e-01 -4.368475973606109619e-01 1.013893559575080872e-01
1.118000000000000000e+03 4.288713073730468750e+01 -9.763832092285156250e+00 -1.613272547721862793e+00 5.387789011001586914e-02 -4.678184092044830322e-01 -1.507599800825119019e-01
1.119000000000000000e+03 4.075524902343750000e+01 -8.401969909667968750e+00 -2.204107284545898438e+00 3.441697452217340469e-03 -6.601996421813964844e-01 -2.048479318618774414e-01
1.120000000000000000e+03 4.135098648071289062e+01 -1.049703979492187500e+01 -1.384566307067871094e+00 6.214218586683273315e-02 -3.967272639274597168e-01 -1.874348670244216919e-01
1.121000000000000000e+03 4.145462036132812500e+01 -9.085124969482421875e+00 -1.934104323387145996e+00 1.615220494568347931e-02 -5.753856301307678223e-01 -2.089257687330245972e-01
1.122000000000000000e+03 4.817954254150390625e+01 -8.983152389526367188e+00 -1.407585144042968750e+00 1.557252705097198486e-01 -3.755579888820648193e-01 1.984462440013885498e-01
1.123000000000000000e+03 4.823075485229492188e+01 -8.277750968933105469e+00 -1.998702049255371094e+00 7.538331300020217896e-02 -5.769956111907958984e-01 4.660994186997413635e-02
1.124000000000000000e+03 4.898432159423828125e+01 -8.267680168151855469e+00 -1.852060198783874512e+00 1.014370620250701904e-01 -5.251869559288024902e-01 1.247026026248931885e-01
1.125000000000000000e+03 4.971607589721679688e+01 -8.942606925964355469e+00 -9.365167617797851562e-01 2.760876119136810303e-01 -1.981287449598312378e-01 4.996896982192993164e-01
1.126000000000000000e+03 4.071094894409179688e+01 -9.100828170776367188e+00 -1.921422243118286133e+00 1.063083205372095108e-02 -5.732374191284179688e-01 -2.221222072839736938e-01
1.127000000000000000e+03 4.066429519653320312e+01 -9.800944328308105469e+00 -1.652974724769592285e+00 2.703386731445789337e-02 -4.877822399139404297e-01 -2.257775813341140747e-01
1.128000000000000000e+03 3.996816253662109375e+01 -9.118475914001464844e+00 -1.900998950004577637e+00 8.299633860588073730e-03 -5.678098201751708984e-01 -2.342684268951416016e-01
1.129000000000000000e+03 3.848670578002929688e+01 -9.161541938781738281e+00 -1.843345522880554199e+00 1.159220817498862743e-03 -5.526558756828308105e-01 -2.521688640117645264e-01
1.130000000000000000e+03 5.122411727905273438e+01 -8.171425819396972656e+00 -1.038435578346252441e+00 2.347081899642944336e-01 -2.411182075738906860e-01 5.509908795356750488e-01
1.131000000000000000e+03 5.252969741821289062e+01 -8.479970932006835938e+00 5.079974532127380371e-01 9.835321903228759766e-01 4.474588930606842041e-01 1.651488184928894043e+00
1.132000000000000000e+03 5.047286224365234375e+01 -8.857047080993652344e+00 -6.855981349945068359e-01 3.553011119365692139e-01 -9.908910840749740601e-02 6.876013875007629395e-01
1.133000000000000000e+03 5.418822860717773438e+01 -8.660762786865234375e+00 2.178778171539306641e+00 4.010830402374267578e+00 1.856882572174072266e+00 4.267673015594482422e+00
1.134000000000000000e+03 5.301770401000976562e+01 -8.374244689941406250e+00 9.648689031600952148e-01 1.093115687370300293e+00 6.173954010009765625e-01 2.075015068054199219e+00
1.135000000000000000e+03 3.630004501342773438e+01 -4.123729228973388672e+00 -1.401165366172790527e+00 2.120080776512622833e-02 -4.139893651008605957e-01 2.963307201862335205e-01
1.136000000000000000e+03 3.635857772827148438e+01 -3.413726091384887695e+00 -1.261167764663696289e+00 2.970971912145614624e-02 -3.694374263286590576e-01 3.571996390819549561e-01
1.137000000000000000e+03 3.705021286010742188e+01 -4.103177547454833984e+00 -1.469047904014587402e+00 2.118794806301593781e-02 -4.343580007553100586e-01 2.896857559680938721e-01
1.138000000000000000e+03 3.700772094726562500e+01 -9.215109825134277344e+00 -1.766291499137878418e+00 -5.627461709082126617e-03 -5.315756797790527344e-01 -2.641213238239288330e-01
1.139000000000000000e+03 3.772977066040039062e+01 -9.898555755615234375e+00 -1.591125369071960449e+00 4.611602518707513809e-03 -4.759541451930999756e-01 -2.821626663208007812e-01
1.140000000000000000e+03 3.550997161865234375e+01 -9.272870063781738281e+00 -1.673082947731018066e+00 -1.145244948565959930e-02 -5.053606033325195312e-01 -2.729190587997436523e-01
1.141000000000000000e+03 3.855059432983398438e+01 -4.068629741668701172e+00 -1.594620704650878906e+00 2.085048891603946686e-02 -4.721310734748840332e-01 2.730226814746856689e-01
1.142000000000000000e+03 4.149124526977539062e+01 -4.692978382110595703e+00 -2.057308912277221680e+00 1.142984442412853241e-02 -6.137636899948120117e-01 1.778820306062698364e-01
1.143000000000000000e+03 4.080394744873046875e+01 -4.021323204040527344e+00 -1.744654297828674316e+00 2.205965667963027954e-02 -5.167784094810485840e-01 2.378909438848495483e-01
1.144000000000000000e+03 4.224421310424804688e+01 -4.677625656127929688e+00 -2.109522581100463867e+00 1.147278118878602982e-02 -6.294149160385131836e-01 1.690043509006500244e-01
1.145000000000000000e+03 3.930167770385742188e+01 -4.053394317626953125e+00 -1.650209546089172363e+00 2.082271687686443329e-02 -4.888160526752471924e-01 2.628664076328277588e-01
1.146000000000000000e+03 4.971301651000976562e+01 -4.191924571990966797e+00 -1.219324707984924316e+00 1.815318614244461060e-01 -3.113378584384918213e-01 -3.640737831592559814e-01
1.147000000000000000e+03 4.829000091552734375e+01 -4.085884571075439453e+00 -1.533337593078613281e+00 1.051481664180755615e-01 -4.284568130970001221e-01 -1.470627337694168091e-01
1.148000000000000000e+03 5.095222091674804688e+01 -4.250049114227294922e+00 -7.135503888130187988e-01 3.656439185142517090e-01 -1.043719500303268433e-01 -7.277186512947082520e-01
1.149000000000000000e+03 5.035700988769531250e+01 -4.231199741363525391e+00 -9.619120359420776367e-01 2.472614347934722900e-01 -2.143951952457427979e-01 -5.321209430694580078e-01
1.150000000000000000e+03 4.457427215576171875e+01 -3.960212469100952148e+00 -1.819109082221984863e+00 4.095381498336791992e-02 -5.334465503692626953e-01 1.236830353736877441e-01
1.151000000000000000e+03 4.005231094360351562e+01 -4.037568569183349609e+00 -1.701437830924987793e+00 2.102055028080940247e-02 -5.041251778602600098e-01 2.514406740665435791e-01
1.152000000000000000e+03 4.306819152832031250e+01 -3.977427482604980469e+00 -1.823578596115112305e+00 3.045528009533882141e-02 -5.379369854927062988e-01 1.826949119567871094e-01
1.153000000000000000e+03 4.382193756103515625e+01 -3.966137409210205078e+00 -1.827989935874938965e+00 3.556812182068824768e-02 -5.377265214920043945e-01 1.554819792509078979e-01
1.154000000000000000e+03 4.607000350952148438e+01 -3.975199699401855469e+00 -1.760479092597961426e+00 5.698004737496376038e-02 -5.110496878623962402e-01 4.078872501850128174e-02
1.155000000000000000e+03 4.755374526977539062e+01 -4.036788940429687500e+00 -1.633815526962280273e+00 8.484373241662979126e-02 -4.646915197372436523e-01 -7.484926283359527588e-02
1.156000000000000000e+03 4.532413482666015625e+01 -3.962753295898437500e+00 -1.797878265380859375e+00 4.861555248498916626e-02 -5.247787833213806152e-01 8.690671622753143311e-02
1.157000000000000000e+03 3.325730514526367188e+01 -8.619417190551757812e+00 -1.679031729698181152e+00 -1.618492789566516876e-02 -5.085650086402893066e-01 -2.264952212572097778e-01
1.158000000000000000e+03 3.626186370849609375e+01 -9.243761062622070312e+00 -1.721717119216918945e+00 -9.826347231864929199e-03 -5.194630026817321777e-01 -2.696861326694488525e-01
1.159000000000000000e+03 3.174092674255371094e+01 -8.653520584106445312e+00 -1.545817494392395020e+00 -1.652995496988296509e-02 -4.687042534351348877e-01 -2.234694361686706543e-01
1.160000000000000000e+03 3.322494506835937500e+01 -9.353480339050292969e+00 -1.514824986457824707e+00 -1.899282820522785187e-02 -4.601453542709350586e-01 -2.806635499000549316e-01
1.161000000000000000e+03 3.475203704833984375e+01 -9.301222801208496094e+00 -1.623515248298645020e+00 -1.481105014681816101e-02 -4.914978742599487305e-01 -2.768638134002685547e-01
1.162000000000000000e+03 3.398948669433593750e+01 -9.328208923339843750e+00 -1.569058179855346680e+00 -1.610201038420200348e-02 -4.755480587482452393e-01 -2.787466347217559814e-01
1.163000000000000000e+03 8.789600372314453125e+00 2.663539171218872070e+00 1.866502716438844800e-04 6.961865583434700966e-04 2.648510562721639872e-04 6.418612319976091385e-04
1.164000000000000000e+03 1.362573623657226562e+01 3.946825981140136719e+00 1.368379569612443447e-03 -3.643153177108615637e-04 3.012192610185593367e-04 5.348059930838644505e-04
1.165000000000000000e+03 1.258489799499511719e+01 2.559340953826904297e+00 -7.388413068838417530e-04 1.387417869409546256e-04 -1.800298487069085240e-04 -1.549931039335206151e-04
1.166000000000000000e+03 1.105984306335449219e+01 2.638683557510375977e+00 -6.254112231545150280e-04 -2.130581124220043421e-04 -2.515407977625727654e-04 -7.255396922118961811e-04
1.167000000000000000e+03 2.869185638427734375e+01 -8.669943809509277344e+00 -1.252720236778259277e+00 -1.274981908500194550e-02 -3.796410262584686279e-01 -2.146334052085876465e-01
1.168000000000000000e+03 3.015945243835449219e+01 -9.422827720642089844e+00 -1.275125265121459961e+00 -1.883150450885295868e-02 -3.881870210170745850e-01 -2.847155928611755371e-01
1.169000000000000000e+03 3.092781829833984375e+01 -9.412425041198730469e+00 -1.337171316146850586e+00 -1.853289641439914703e-02 -4.067112505435943604e-01 -2.836032807826995850e-01
1.170000000000000000e+03 3.169471168518066406e+01 -9.397404670715332031e+00 -1.398376941680908203e+00 -2.016515284776687622e-02 -4.255626499652862549e-01 -2.826024889945983887e-01
1.171000000000000000e+03 8.079148292541503906e+00 -1.850944280624389648e+00 -5.424399569164961576e-05 2.435979149595368654e-05 -8.965261258708778769e-06 2.670494432095438242e-04
1.172000000000000000e+03 1.254721832275390625e+01 -3.689263343811035156e+00 -1.549374865135177970e-04 1.526907435618340969e-04 -6.740219760104082525e-07 1.882239448605105281e-04
1.173000000000000000e+03 7.409364223480224609e+00 -2.598572969436645508e+00 -5.300496559357270598e-05 2.418850272078998387e-05 -8.644939043733756989e-06 3.092070110142230988e-04
1.174000000000000000e+03 1.175077247619628906e+01 -5.611635684967041016e+00 -1.883611548691987991e-04 -3.395784297026693821e-04 -1.583818666404113173e-04 2.977453987114131451e-04
1.175000000000000000e+03 7.472237586975097656e+00 -4.788822174072265625e+00 -3.326549194753170013e-04 8.089494076557457447e-04 1.428883406333625317e-04 -1.935755572048947215e-04
1.176000000000000000e+03 6.558673858642578125e+00 -1.872023701667785645e+00 -9.051674715010449290e-05 2.312348260602448136e-05 -2.021797808993142098e-05 2.255120052723214030e-04
1.177000000000000000e+03 6.650218486785888672e+00 -2.616725206375122070e+00 -1.772902032826095819e-05 3.098070737905800343e-05 3.975505933340173215e-06 -2.566757902968674898e-04
1.178000000000000000e+03 5.143359661102294922e+00 -2.697023391723632812e+00 -1.850477201514877379e-05 8.970554517873097211e-06 -2.860265567505848594e-06 -2.680682518985122442e-04
1.179000000000000000e+03 1.646735906600952148e+00 -7.956033229827880859e+00 -2.690387773327529430e-04 1.607137965038418770e-04 -3.249749352107755840e-05 -6.573121936526149511e-05
1.180000000000000000e+03 3.886448860168457031e+00 -3.744499206542968750e+00 7.200399522844236344e-06 1.415114529663696885e-04 4.461355274543166161e-05 2.229183592135086656e-04
1.181000000000000000e+03 1.608927130699157715e+00 -6.626939773559570312e+00 4.459893098101019859e-04 -1.720508298603817821e-04 8.218154835049062967e-05 2.196880232077091932e-04
1.182000000000000000e+03 1.189463496208190918e+00 -2.135075330734252930e+00 -1.173209384432993829e-04 -5.959777627140283585e-05 -5.307561514200642705e-05 -1.685226307017728686e-04
1.183000000000000000e+03 5.497821569442749023e-01 -5.067726612091064453e+00 3.513495903462171555e-04 -2.395895426161587238e-04 3.352801650180481374e-05 5.742630673921667039e-05
1.184000000000000000e+03 2.561461830139160156e+01 -8.569986343383789062e+00 -9.231230020523071289e-01 3.998358268290758133e-03 -2.757374048233032227e-01 -2.092901021242141724e-01
1.185000000000000000e+03 2.708360099792480469e+01 -9.381251335144042969e+00 -1.013002753257751465e+00 -4.632201045751571655e-03 -3.052904903888702393e-01 -2.873379290103912354e-01
1.186000000000000000e+03 2.862184333801269531e+01 -9.420489311218261719e+00 -1.146079301834106445e+00 -1.401850860565900803e-02 -3.480293452739715576e-01 -2.861298322677612305e-01
1.187000000000000000e+03 2.630851364135742188e+01 -9.350973129272460938e+00 -9.437229037284851074e-01 1.794154173694550991e-03 -2.825786173343658447e-01 -2.864283621311187744e-01
1.188000000000000000e+03 2.172891807556152344e+01 -8.238614082336425781e+00 -4.939290285110473633e-01 2.662231959402561188e-02 -1.401920169591903687e-01 -1.975282430648803711e-01
1.189000000000000000e+03 2.321765327453613281e+01 -9.148903846740722656e+00 -6.631468534469604492e-01 2.595321647822856903e-02 -1.911580860614776611e-01 -2.791099250316619873e-01
1.190000000000000000e+03 2.042478561401367188e+01 -1.018239593505859375e+01 -4.878426790237426758e-01 -1.328103803098201752e-02 -1.503371149301528931e-01 -3.444593548774719238e-01
1.191000000000000000e+03 2.081725311279296875e+01 -9.142294883728027344e+00 -4.503152072429656982e-01 6.712897680699825287e-03 -1.330806910991668701e-01 -2.719770967960357666e-01
1.192000000000000000e+03 2.484042739868164062e+01 -8.512098312377929688e+00 -8.366242647171020508e-01 1.005234196782112122e-02 -2.479715794324874878e-01 -2.084893435239791870e-01
1.193000000000000000e+03 2.475835227966308594e+01 -9.257107734680175781e+00 -8.036609888076782227e-01 1.547405682504177094e-02 -2.364560812711715698e-01 -2.852841019630432129e-01
1.194000000000000000e+03 2.398842430114746094e+01 -9.202907562255859375e+00 -7.326431870460510254e-01 2.078158222138881683e-02 -2.135584801435470581e-01 -2.843042910099029541e-01
1.195000000000000000e+03 2.259029388427734375e+01 -3.680518388748168945e+00 -1.544875651597976685e-01 -8.807898312807083130e-02 -7.276996225118637085e-02 1.802190989255905151e-01
1.196000000000000000e+03 2.187661552429199219e+01 -3.480879545211791992e+00 -1.159321442246437073e-01 -9.708728641271591187e-02 -6.390582770109176636e-02 1.557912826538085938e-01
1.197000000000000000e+03 1.242240524291992188e+01 -1.973848915100097656e+01 -3.497667908668518066e-01 -5.007712244987487793e-01 -2.551614046096801758e-01 -3.591988086700439453e-01
1.198000000000000000e+03 3.656968593597412109e+00 -1.971460533142089844e+01 -7.598675787448883057e-02 -7.560231536626815796e-02 -4.547672346234321594e-02 -8.728547394275665283e-02
1.199000000000000000e+03 1.246143627166748047e+01 1.933018684387207031e+01 -8.359434604644775391e-01 -9.273937344551086426e-01 -5.290011763572692871e-01 7.252500653266906738e-01
1.200000000000000000e+03 8.875798225402832031e+00 2.046946144104003906e+01 -5.463851690292358398e-01 -2.868433594703674316e-01 -2.499685585498809814e-01 5.212559103965759277e-01
1.201000000000000000e+03 1.927845382690429688e+01 8.035686492919921875e+00 -2.643973231315612793e-01 -1.403506994247436523e+00 -5.003712773323059082e-01 5.761033892631530762e-01
1.202000000000000000e+03 1.898827552795410156e+01 9.394601821899414062e+00 -3.927308022975921631e-01 -1.519171953201293945e+00 -5.735708475112915039e-01 6.602225899696350098e-01
1.203000000000000000e+03 1.370927619934082031e+01 1.849134254455566406e+01 -9.097725152969360352e-01 -1.107867121696472168e+00 -6.052919030189514160e-01 8.148867487907409668e-01
1.204000000000000000e+03 1.405830669403076172e+01 1.653803253173828125e+01 -1.291657090187072754e+00 -1.385532975196838379e+00 -8.031570315361022949e-01 1.246420621871948242e+00
1.205000000000000000e+03 1.714014244079589844e+01 1.174274253845214844e+01 -5.049089789390563965e-01 -2.047169208526611328e+00 -7.656234502792358398e-01 9.438658952713012695e-01
1.206000000000000000e+03 1.729654884338378906e+01 1.529970550537109375e+01 -8.137936592102050781e-01 -1.388373732566833496e+00 -6.606501936912536621e-01 7.708775401115417480e-01
1.207000000000000000e+03 2.024764251708984375e+01 2.510087251663208008e+00 -7.985309511423110962e-02 -6.136558055877685547e-01 -2.080526649951934814e-01 3.223638236522674561e-01
1.208000000000000000e+03 6.368760466575622559e-01 1.625512886047363281e+01 9.965862846001982689e-04 3.957978263497352600e-02 1.217291038483381271e-02 -7.549992296844720840e-03
1.209000000000000000e+03 1.956336784362792969e+01 6.691042423248291016e+00 -1.817730516195297241e-01 -1.210676908493041992e+00 -4.177349805831909180e-01 4.733504056930541992e-01
1.210000000000000000e+03 1.829101753234863281e+01 1.220813751220703125e+01 -5.682813525199890137e-01 -1.626710295677185059e+00 -6.584975123405456543e-01 8.035445213317871094e-01
1.211000000000000000e+03 1.497580146789550781e+01 1.763590621948242188e+01 -8.881514668464660645e-01 -1.299843192100524902e+00 -6.563984155654907227e-01 8.364022970199584961e-01
1.212000000000000000e+03 1.893982696533203125e+01 8.951848149299621582e-01 -9.697010740637779236e-03 -4.057008326053619385e-01 -1.246193572878837585e-01 8.200473338365554810e-02
1.213000000000000000e+03 2.006923103332519531e+01 1.138975620269775391e+00 -4.574507847428321838e-02 -4.486581385135650635e-01 -1.483209580183029175e-01 2.291960865259170532e-01
1.214000000000000000e+03 1.785947036743164062e+01 1.369391250610351562e+01 -7.182773351669311523e-01 -1.532848715782165527e+00 -6.753378510475158691e-01 8.603384494781494141e-01
1.215000000000000000e+03 2.252128601074218750e+01 -2.079072713851928711e+00 -1.487984806299209595e-01 -1.712020337581634521e-01 -9.600015729665756226e-02 2.682472169399261475e-01
1.216000000000000000e+03 1.902724647521972656e+01 -1.756976366043090820e+00 -1.666975789703428745e-03 -1.159470975399017334e-01 -3.528422117233276367e-02 4.804103448987007141e-02
1.217000000000000000e+03 2.881261587142944336e+00 -1.701109886169433594e+01 -1.084537897258996964e-02 -2.030920423567295074e-02 -9.346375241875648499e-03 4.605864640325307846e-03
1.218000000000000000e+03 5.781642794609069824e-01 -1.767410469055175781e+01 -3.975226078182458878e-03 4.431299865245819092e-02 1.210133172571659088e-02 3.175264224410057068e-03
1.219000000000000000e+03 1.279880428314208984e+01 -1.826201057434082031e+01 -5.566238164901733398e-01 -4.806083440780639648e-01 -3.111696541309356689e-01 -4.197365641593933105e-01
1.220000000000000000e+03 1.026921367645263672e+01 -2.512021780014038086e+00 -5.728749965783208609e-05 1.159952535090269521e-05 -1.370639256492722780e-05 4.297013510949909687e-04
1.221000000000000000e+03 1.647399711608886719e+01 -1.044422912597656250e+01 -2.194180339574813843e-01 -3.521092236042022705e-01 -1.714581698179244995e-01 -2.867186367511749268e-01
1.222000000000000000e+03 1.730004882812500000e+01 -1.125663471221923828e+01 -3.718942701816558838e-01 -2.417076528072357178e-01 -1.840805709362030029e-01 -3.652741312980651855e-01
1.223000000000000000e+03 1.576989555358886719e+01 -1.158948230743408203e+01 -2.993917167186737061e-01 -4.974220991134643555e-01 -2.390441447496414185e-01 -3.836256861686706543e-01
1.224000000000000000e+03 2.166525840759277344e+01 -9.072635650634765625e+00 -5.232316255569458008e-01 2.459160983562469482e-02 -1.495919972658157349e-01 -2.678440809249877930e-01
1.225000000000000000e+03 1.359792518615722656e+01 -1.702849578857421875e+01 -5.853308439254760742e-01 -4.991208016872406006e-01 -3.253355026245117188e-01 -5.000149011611938477e-01
1.226000000000000000e+03 1.663070487976074219e+01 -1.233438110351562500e+01 -4.297469556331634521e-01 -3.333880305290222168e-01 -2.289405018091201782e-01 -4.185946285724639893e-01
1.227000000000000000e+03 1.364230155944824219e+01 -3.799932241439819336e+00 2.445492464175913483e-05 -3.120987967122346163e-04 -8.629316289443522692e-05 -4.090005404577823356e-06
1.228000000000000000e+03 1.593116474151611328e+01 -1.349288272857666016e+01 -4.915193617343902588e-01 -4.104440510272979736e-01 -2.705890238285064697e-01 -4.565910398960113525e-01
1.229000000000000000e+03 1.518846035003662109e+01 -1.468106842041015625e+01 -5.214789509773254395e-01 -4.683909118175506592e-01 -2.969609797000885010e-01 -4.786805808544158936e-01
1.230000000000000000e+03 1.048902130126953125e+01 -9.207562446594238281e+00 -7.622914272360503674e-04 -7.810607203282415867e-04 -4.630056500900536776e-04 4.844612849410623312e-04
1.231000000000000000e+03 1.333321380615234375e+01 -2.558267116546630859e+00 7.466360693797469139e-05 1.846523227868601680e-04 7.779477891745045781e-05 -1.710545802779961377e-05
1.232000000000000000e+03 9.483339309692382812e+00 -8.687648773193359375e+00 3.125438233837485313e-04 9.002950973808765411e-04 3.638516645878553391e-04 -6.455262773670256138e-04
1.233000000000000000e+03 1.107260417938232422e+01 -6.610761642456054688e+00 2.861116372514516115e-04 3.294492198619991541e-04 1.846682571340352297e-04 -3.822385915555059910e-04
1.234000000000000000e+03 1.029566860198974609e+01 -7.631161689758300781e+00 -2.146403567166998982e-04 -7.635346846655011177e-04 -2.934525255113840103e-04 4.797037981916218996e-04
1.235000000000000000e+03 1.682522058486938477e+00 -1.069283199310302734e+01 3.972531412728130817e-04 7.972298772074282169e-04 3.583448997233062983e-04 1.666859374381601810e-03
1.236000000000000000e+03 8.177230834960937500e+00 -1.263145256042480469e+01 1.974515151232481003e-03 3.764928318560123444e-03 1.721833134070038795e-03 -2.114917384460568428e-03
1.237000000000000000e+03 1.044070243835449219e+01 -4.031320095062255859e+00 -4.991090099792927504e-05 4.969504661858081818e-04 1.341118768323212862e-04 -3.194659075234085321e-04
1.238000000000000000e+03 7.796621704101562500e+01 3.216104507446289062e+01 -1.093550492078065872e-02 8.824770927429199219e+00 2.644150733947753906e+00 1.273931097239255905e-02
1.239000000000000000e+03 7.918735504150390625e+01 3.614145660400390625e+01 -3.687681630253791809e-02 9.057195663452148438e+00 2.706095457077026367e+00 -9.779867716133594513e-03
1.240000000000000000e+03 7.930680084228515625e+01 -2.784540939331054688e+01 -4.643844440579414368e-03 8.370872497558593750e+00 2.509868383407592773e+00 -8.034883439540863037e-02
1.241000000000000000e+03 7.736609649658203125e+01 -3.798428344726562500e+01 -4.377370700240135193e-02 8.676970481872558594e+00 2.589959144592285156e+00 -8.776442147791385651e-03
1.242000000000000000e+03 7.938531494140625000e+01 -3.479067611694335938e+01 -1.375141739845275879e-02 8.870513916015625000e+00 2.657028913497924805e+00 -2.124162204563617706e-02
1.243000000000000000e+03 7.940849304199218750e+01 -2.085186004638671875e+01 -4.755076952278614044e-04 7.341479778289794922e+00 2.202301263809204102e+00 -1.174648478627204895e-01
1.244000000000000000e+03 7.791363525390625000e+01 -2.779283523559570312e+01 -2.548023127019405365e-02 8.223923683166503906e+00 2.459532976150512695e+00 -2.128196805715560913e-01
1.245000000000000000e+03 7.798096466064453125e+01 -2.635815620422363281e+01 -2.628382481634616852e-02 8.093697547912597656e+00 2.420224189758300781e+00 -2.427088767290115356e-01
1.246000000000000000e+03 7.931645202636718750e+01 -3.063823127746582031e+01 1.641961534915026277e-05 8.626497268676757812e+00 2.587954044342041016e+00 -6.173615157604217529e-02
1.247000000000000000e+03 7.813677978515625000e+01 -3.473723220825195312e+01 -1.445635966956615448e-02 8.689805984497070312e+00 2.602605104446411133e+00 -7.182183116674423218e-02
1.248000000000000000e+03 7.808779907226562500e+01 -3.340253067016601562e+01 -3.345611691474914551e-02 8.616246223449707031e+00 2.574836969375610352e+00 -9.750761091709136963e-02
1.249000000000000000e+03 7.648703002929687500e+01 -3.913717269897460938e+01 -3.173799067735671997e-02 8.663153648376464844e+00 2.589424848556518555e+00 -4.162156954407691956e-02
1.250000000000000000e+03 7.806851959228515625e+01 1.396174907684326172e+01 -2.326045744121074677e-02 8.110384941101074219e+00 2.426137447357177734e+00 2.238235473632812500e-01
1.251000000000000000e+03 7.935082244873046875e+01 1.533654499053955078e+01 -4.742707591503858566e-03 8.368577957153320312e+00 2.509150505065917969e+00 7.644427567720413208e-02
1.252000000000000000e+03 7.797923278808593750e+01 2.089273834228515625e+01 -1.498757209628820419e-02 8.581662178039550781e+00 2.570002317428588867e+00 1.073228567838668823e-01
1.253000000000000000e+03 7.932629394531250000e+01 2.229069900512695312e+01 -2.539748791605234146e-03 8.846198081970214844e+00 2.653097629547119141e+00 3.783917799592018127e-02
1.254000000000000000e+03 7.767115020751953125e+01 3.083070564270019531e+01 -1.044931169599294662e-02 8.771030426025390625e+00 2.628174543380737305e+00 2.551729232072830200e-02
1.255000000000000000e+03 7.924758911132812500e+01 2.787912750244140625e+01 3.377413609996438026e-03 8.998008728027343750e+00 2.700415849685668945e+00 1.968827657401561737e-02
1.256000000000000000e+03 7.792250061035156250e+01 2.505031585693359375e+01 -1.216000225394964218e-02 8.710996627807617188e+00 2.609651088714599609e+00 6.139126792550086975e-02
1.257000000000000000e+03 7.796619415283203125e+01 2.366111755371093750e+01 -1.301764696836471558e-02 8.680443763732910156e+00 2.600228071212768555e+00 7.691851258277893066e-02
1.258000000000000000e+03 7.800664520263671875e+01 1.811014366149902344e+01 -1.820910349488258362e-02 8.434601783752441406e+00 2.524917602539062500e+00 1.503512710332870483e-01
1.259000000000000000e+03 7.804870605468750000e+01 1.534703445434570312e+01 -2.142926678061485291e-02 8.235881805419921875e+00 2.464335680007934570e+00 1.975663900375366211e-01
1.260000000000000000e+03 7.802696228027343750e+01 1.672820663452148438e+01 -2.029245533049106598e-02 8.343265533447265625e+00 2.496891975402832031e+00 1.723080724477767944e-01
1.261000000000000000e+03 7.808182525634765625e+01 1.257190799713134766e+01 -2.342389151453971863e-02 7.965725898742675781e+00 2.382690668106079102e+00 2.529472410678863525e-01
1.262000000000000000e+03 7.681699371337890625e+01 1.119998741149902344e+01 -5.595226585865020752e-02 7.787745475769042969e+00 2.319537878036499023e+00 4.228141605854034424e-01
1.263000000000000000e+03 7.806267547607421875e+01 8.402655601501464844e+00 -1.839783042669296265e-02 7.423374176025390625e+00 2.221493005752563477e+00 3.406673669815063477e-01
1.264000000000000000e+03 7.935900115966796875e+01 9.766811370849609375e+00 -4.615376237779855728e-03 7.621522426605224609e+00 2.285072088241577148e+00 1.188602745532989502e-01
1.265000000000000000e+03 7.942032623291015625e+01 -1.390363502502441406e+01 3.190543968230485916e-03 5.940527439117431641e+00 1.783115386962890625e+00 -1.140907034277915955e-01
1.266000000000000000e+03 7.940774536132812500e+01 -6.949815750122070312e+00 1.271572336554527283e-02 5.119561195373535156e+00 1.539683103561401367e+00 -1.012913975864648819e-02
1.267000000000000000e+03 7.941561889648437500e+01 -1.946281242370605469e+01 -3.180613042786717415e-03 7.072093486785888672e+00 2.120673894882202148e+00 -1.219290792942047119e-01
1.268000000000000000e+03 7.813757324218750000e+01 4.852923750877380371e-02 3.229053318500518799e-02 6.105072975158691406e+00 1.841209053993225098e+00 3.103527128696441650e-01
1.269000000000000000e+03 7.936522674560546875e+01 1.415167570114135742e+00 5.370043218135833740e-03 6.000637054443359375e+00 1.801802158355712891e+00 1.303630322217941284e-01
1.270000000000000000e+03 7.672940826416015625e+01 7.046114444732666016e+00 -3.430253267288208008e-02 7.328153133392333984e+00 2.188155174255371094e+00 5.468449592590332031e-01
1.271000000000000000e+03 7.766541290283203125e+01 2.932925415039062500e+01 -1.189154013991355896e-02 8.744120597839355469e+00 2.619668722152709961e+00 3.352535888552665710e-02
1.272000000000000000e+03 7.851170349121093750e+01 4.010241317749023438e+01 -2.644770219922065735e-02 8.877478599548339844e+00 2.655309200286865234e+00 -7.642857730388641357e-02
1.273000000000000000e+03 7.617949676513671875e+01 3.522634124755859375e+01 -1.128387753851711750e-03 8.493329048156738281e+00 2.547660350799560547e+00 -3.183457534760236740e-03
1.274000000000000000e+03 7.807815551757812500e+01 9.792849540710449219e+00 -2.161220647394657135e-02 7.620827198028564453e+00 2.279764652252197266e+00 3.121284246444702148e-01
1.275000000000000000e+03 7.691005706787109375e+01 4.130803048610687256e-02 7.678536325693130493e-02 6.419216156005859375e+00 1.948800563812255859e+00 4.641161262989044189e-01
1.276000000000000000e+03 7.805751800537109375e+01 2.839424610137939453e+00 1.022368576377630234e-02 6.543261051177978516e+00 1.966045379638671875e+00 3.731349110603332520e-01
1.277000000000000000e+03 7.817768096923828125e+01 -1.349785566329956055e+00 4.086584225296974182e-02 5.914318084716796875e+00 1.786555171012878418e+00 2.584426105022430420e-01
1.278000000000000000e+03 7.939960479736328125e+01 -2.769967079162597656e+00 1.030483003705739975e-02 5.327970981597900391e+00 1.601482629776000977e+00 7.408413290977478027e-02
1.279000000000000000e+03 7.822227478027343750e+01 -8.302877426147460938e+00 5.405510589480400085e-02 5.632445812225341797e+00 1.705950260162353516e+00 -1.050262823700904846e-01
1.280000000000000000e+03 7.822520446777343750e+01 -5.528230190277099609e+00 5.865498632192611694e-02 5.590944290161132812e+00 1.694879770278930664e+00 4.886164143681526184e-02
1.281000000000000000e+03 7.941030883789062500e+01 -9.730395317077636719e+00 1.041516847908496857e-02 5.297164916992187500e+00 1.592274069786071777e+00 -6.263940036296844482e-02
1.282000000000000000e+03 7.826648712158203125e+01 -1.522830009460449219e+01 9.745638817548751831e-03 6.449282169342041016e+00 1.937708377838134766e+00 -3.335292041301727295e-01
1.283000000000000000e+03 7.825469207763671875e+01 -1.246148109436035156e+01 3.015876188874244690e-02 6.028302669525146484e+00 1.817538380622863770e+00 -2.804897129535675049e-01
1.284000000000000000e+03 7.942104339599609375e+01 -1.668379783630371094e+01 -7.289584027603268623e-04 6.502535820007324219e+00 1.950542092323303223e+00 -1.248833090066909790e-01
1.285000000000000000e+03 7.822972869873046875e+01 -2.074799537658691406e+01 -1.421185955405235291e-02 7.368041992187500000e+00 2.206149101257324219e+00 -3.197927474975585938e-01
1.286000000000000000e+03 7.824851989746093750e+01 -1.937072944641113281e+01 -8.718369528651237488e-03 7.147136211395263672e+00 2.141525268554687500e+00 -3.337976336479187012e-01
1.287000000000000000e+03 7.619734764099121094e+00 2.007619476318359375e+01 -4.731708168983459473e-01 -7.530557364225387573e-02 -1.645429134368896484e-01 2.733729183673858643e-01
1.288000000000000000e+03 8.973547935485839844e+00 1.884536933898925781e+01 -5.986707806587219238e-01 -9.085274487733840942e-02 -2.068570554256439209e-01 2.304096966981887817e-01
1.289000000000000000e+03 1.340407133102416992e+00 -4.007145690917968750e+01 1.102607324719429016e-02 -8.576530218124389648e-01 -2.539880871772766113e-01 3.802443388849496841e-03
1.290000000000000000e+03 7.389396429061889648e-01 3.739012527465820312e+01 9.178706444799900055e-03 -9.919424653053283691e-01 -2.948291301727294922e-01 1.197514031082391739e-02
1.291000000000000000e+03 7.205100655555725098e-01 3.462308883666992188e+01 7.011805661022663116e-03 -9.034209251403808594e-01 -2.689227461814880371e-01 3.146651387214660645e-02
1.292000000000000000e+03 7.240552902221679688e-01 3.322585296630859375e+01 4.004111979156732559e-03 -8.326481580734252930e-01 -2.485932111740112305e-01 4.253702238202095032e-02
1.293000000000000000e+03 6.657955050468444824e-01 2.760238075256347656e+01 2.854379592463374138e-03 -4.002860784530639648e-01 -1.192295104265213013e-01 5.692178383469581604e-02
1.294000000000000000e+03 6.655076146125793457e-01 2.619325828552246094e+01 -3.003792604431509972e-03 -2.787893712520599365e-01 -8.453795313835144043e-02 5.716539546847343445e-02
1.295000000000000000e+03 5.970153212547302246e-01 -3.602010726928710938e+01 3.336815396323800087e-03 -8.372726440429687500e-01 -2.501807510852813721e-01 -9.776020422577857971e-03
1.296000000000000000e+03 2.441732883453369141e+00 -3.332349777221679688e+01 2.117260359227657318e-02 -6.595075726509094238e-01 -1.915004849433898926e-01 -9.709180146455764771e-02
1.297000000000000000e+03 3.342150211334228516e+00 2.602437019348144531e+01 -2.403775975108146667e-02 -3.625861108303070068e-01 -1.159871593117713928e-01 2.413365989923477173e-01
1.298000000000000000e+03 3.324481010437011719e+00 2.461885070800781250e+01 -3.072695992887020111e-02 -2.850183844566345215e-01 -9.472360461950302124e-02 2.195272445678710938e-01
1.299000000000000000e+03 2.202075481414794922e+00 3.444685363769531250e+01 2.336668223142623901e-02 -8.305843472480773926e-01 -2.421652972698211670e-01 1.037429347634315491e-01
1.300000000000000000e+03 2.216546773910522461e+00 3.305565261840820312e+01 2.139372378587722778e-02 -7.644227743148803711e-01 -2.229087054729461670e-01 1.240513697266578674e-01
1.301000000000000000e+03 2.438919782638549805e+00 3.807664871215820312e+01 2.355065383017063141e-02 -9.399941563606262207e-01 -2.749330401420593262e-01 4.397508874535560608e-02
1.302000000000000000e+03 3.429715633392333984e+00 3.899568176269531250e+01 2.138401009142398834e-02 -9.331523180007934570e-01 -2.735304832458496094e-01 6.832029670476913452e-02
1.303000000000000000e+03 2.237388849258422852e+00 -3.042757797241210938e+01 1.495544146746397018e-02 -5.468734502792358398e-01 -1.595754027366638184e-01 -1.233416423201560974e-01
1.304000000000000000e+03 2.072411775588989258e+00 -2.762304687500000000e+01 5.402827635407447815e-03 -4.040980339050292969e-01 -1.196085661649703979e-01 -1.338079869747161865e-01
1.305000000000000000e+03 2.342073917388916016e+00 -3.664395904541015625e+01 1.883331499993801117e-02 -7.641292810440063477e-01 -2.235887795686721802e-01 -5.518407002091407776e-02
1.306000000000000000e+03 5.359328269958496094e+00 -1.764740180969238281e+01 -8.531375974416732788e-02 -3.482008352875709534e-02 -3.604015335440635681e-02 -6.686433684080839157e-03
1.307000000000000000e+03 6.083993911743164062e-01 2.053286933898925781e+01 -6.357484031468629837e-03 4.772767797112464905e-02 1.241105794906616211e-02 9.492014534771442413e-03
1.308000000000000000e+03 6.388133764266967773e-01 1.911332893371582031e+01 -2.016851911321282387e-03 5.882855877280235291e-02 1.704351231455802917e-02 -1.760217419359833002e-04
1.309000000000000000e+03 6.370499134063720703e-01 1.484488010406494141e+01 1.886558602564036846e-04 2.427655272185802460e-02 7.339562755078077316e-03 -6.079756189137697220e-03
1.310000000000000000e+03 6.286857128143310547e-01 1.344588470458984375e+01 1.712974510155618191e-03 1.260261982679367065e-02 4.294678103178739548e-03 -4.196551162749528885e-03
1.311000000000000000e+03 6.084620952606201172e-01 7.807014942169189453e+00 -3.092615224886685610e-05 -1.711019576760008931e-04 -6.060843224986456335e-05 -1.826036896090954542e-04
1.312000000000000000e+03 5.948709845542907715e-01 -1.909487342834472656e+01 -2.945002866908907890e-03 4.123041778802871704e-02 1.148562412708997726e-02 -4.841324873268604279e-03
1.313000000000000000e+03 1.679538011550903320e+00 -9.313083648681640625e+00 1.079598907381296158e-03 -1.974066799448337406e-05 3.179574850946664810e-04 7.324233883991837502e-04
1.314000000000000000e+03 4.983589649200439453e+00 -4.034735870361328125e+01 4.334242641925811768e-02 -6.941497921943664551e-01 -1.952421963214874268e-01 -5.386942625045776367e-02
1.315000000000000000e+03 3.464810609817504883e+00 -3.916045761108398438e+01 2.575194835662841797e-02 -7.862327694892883301e-01 -2.281442582607269287e-01 -4.979703947901725769e-02
1.316000000000000000e+03 4.780430793762207031e+00 -3.627148437500000000e+01 5.750223621726036072e-02 -6.522977352142333984e-01 -1.784386485815048218e-01 -1.138508245348930359e-01
1.317000000000000000e+03 1.650546550750732422e+00 -3.542456817626953125e+01 1.434405613690614700e-02 -7.509508132934570312e-01 -2.209820300340652466e-01 -4.756415262818336487e-02
1.318000000000000000e+03 2.348070621490478516e+00 -3.186210441589355469e+01 1.091731898486614227e-02 -6.062793731689453125e-01 -1.786086112260818481e-01 -1.118387132883071899e-01
1.319000000000000000e+03 3.442719221115112305e+00 -2.759024429321289062e+01 6.778664886951446533e-03 -4.081446528434753418e-01 -1.204097941517829895e-01 -1.998779326677322388e-01
1.320000000000000000e+03 2.017021656036376953e+00 -2.475903511047363281e+01 -7.132639642804861069e-03 -2.446133643388748169e-01 -7.552380114793777466e-02 -1.224179342389106750e-01
1.321000000000000000e+03 2.040845394134521484e+00 -2.620978927612304688e+01 -5.596904084086418152e-03 -3.234663009643554688e-01 -9.871895611286163330e-02 -1.336591243743896484e-01
1.322000000000000000e+03 5.910941958427429199e-01 -2.052091979980468750e+01 -7.091518491506576538e-03 1.292895618826150894e-02 1.751231378875672817e-03 -1.739244535565376282e-02
1.323000000000000000e+03 2.975332021713256836e+00 -2.161921882629394531e+01 -4.404509440064430237e-02 -1.235525980591773987e-01 -5.027930811047554016e-02 -1.220725774765014648e-01
1.324000000000000000e+03 1.613830924034118652e+00 -1.609159088134765625e+01 1.308065024204552174e-03 7.305729202926158905e-03 2.584138186648488045e-03 1.176914479583501816e-02
1.325000000000000000e+03 1.649389863014221191e+00 -1.208261013031005859e+01 2.355126431211829185e-03 1.807608408853411674e-03 1.248820452019572258e-03 3.430551849305629730e-03
1.326000000000000000e+03 5.421850085258483887e-01 -1.209065628051757812e+01 -5.245819920673966408e-04 4.044325556606054306e-03 1.055923057720065117e-03 1.417251070961356163e-03
1.327000000000000000e+03 8.715697288513183594e+00 -9.805411338806152344e+00 -1.898012851597741246e-04 -1.327564241364598274e-03 -4.552096652332693338e-04 8.344991365447640419e-04
1.328000000000000000e+03 5.281981468200683594e+00 -3.464013814926147461e+00 -4.160280877840705216e-05 1.097999920602887869e-04 2.045915607595816255e-05 2.764811797533184290e-04
1.329000000000000000e+03 3.656511306762695312e+00 -2.903085231781005859e+00 -5.677372610080055892e-05 -2.540446985221933573e-05 -2.465346005919855088e-05 -2.635875716805458069e-04
1.330000000000000000e+03 2.887621402740478516e+00 -3.099606275558471680e+00 6.405143358279019594e-05 4.156115028308704495e-05 3.168377588735893369e-05 1.176199366454966366e-04
1.331000000000000000e+03 1.351814508438110352e+00 -3.384418487548828125e+00 3.343262505950406194e-05 1.341602910542860627e-04 5.027787483413703740e-05 1.282455486943945289e-04
1.332000000000000000e+03 4.782112538814544678e-01 5.034786701202392578e+00 -3.452540549915283918e-04 -3.100282337982207537e-04 -1.965846895473077893e-04 -8.004224946489557624e-05
1.333000000000000000e+03 2.399611473083496094e+00 3.565802335739135742e+00 4.072663432452827692e-04 2.034877543337643147e-04 1.832262350944802165e-04 -4.145050479564815760e-05
1.334000000000000000e+03 1.784947276115417480e+00 1.052756023406982422e+01 1.830483204685151577e-03 1.076815999113023281e-03 8.721897611394524574e-04 -1.634911983273923397e-03
1.335000000000000000e+03 5.976926088333129883e-01 1.063510990142822266e+01 6.204043747857213020e-04 1.847569714300334454e-03 7.403922500088810921e-04 -1.094885519705712795e-03
1.336000000000000000e+03 1.916957855224609375e+00 1.328854846954345703e+01 4.478886723518371582e-03 2.843964844942092896e-03 2.196855377405881882e-03 -8.332363329827785492e-03
1.337000000000000000e+03 1.935087800025939941e+00 1.466995811462402344e+01 3.997262101620435715e-03 3.954856656491756439e-03 2.385635627433657646e-03 -1.321404054760932922e-02
1.338000000000000000e+03 1.904807209968566895e+00 1.608175086975097656e+01 8.059240062721073627e-04 5.597519222646951675e-03 1.921033021062612534e-03 -1.525742374360561371e-02
1.339000000000000000e+03 1.997872233390808105e+00 2.467207145690917969e+01 -2.171670459210872650e-02 -2.339206635951995850e-01 -7.669121026992797852e-02 1.455827504396438599e-01
1.340000000000000000e+03 9.324386596679687500e+00 1.117360973358154297e+01 -1.185554065159521997e-04 4.544264636933803558e-03 1.327712787315249443e-03 1.578739844262599945e-03
1.341000000000000000e+03 1.245244121551513672e+01 8.504385948181152344e+00 2.152534900233149529e-03 1.488197478465735912e-03 1.092219725251197815e-03 1.670109457336366177e-03
1.342000000000000000e+03 1.468760490417480469e+01 4.937770843505859375e+00 1.502477214671671391e-03 -7.384426135104149580e-05 4.285898758098483086e-04 1.610392646398395300e-04
1.343000000000000000e+03 1.183247184753417969e+01 2.606130838394165039e+00 7.138325599953532219e-04 -3.757275521820702124e-07 2.140370488632470369e-04 4.032007127534598112e-04
1.344000000000000000e+03 1.039203357696533203e+01 1.342841720581054688e+01 -5.818077828735113144e-03 -2.733156783506274223e-03 -2.565370406955480576e-03 -4.372566938400268555e-03
1.345000000000000000e+03 8.413465499877929688e+00 1.058301258087158203e+01 1.070251455530524254e-03 -6.797480746172368526e-04 1.171510157291777432e-04 1.135902246460318565e-03
1.346000000000000000e+03 8.461720466613769531e+00 1.392072677612304688e+01 -3.037091577425599098e-03 7.337984628975391388e-03 1.290267915464937687e-03 -3.963217139244079590e-03
1.347000000000000000e+03 1.179664325714111328e+01 3.404350757598876953e+00 -1.016161055304110050e-03 -1.616854860913008451e-04 -3.533539711497724056e-04 -9.926806669682264328e-04
1.348000000000000000e+03 7.323198318481445312e+00 -1.214033794403076172e+01 -2.493209613021463156e-04 -2.412779431324452162e-04 -1.471796713303774595e-04 3.912124375347048044e-04
1.349000000000000000e+03 8.005401611328125000e+00 -1.096495628356933594e+01 1.209400143125094473e-04 2.908192342147231102e-03 9.087396902032196522e-04 -1.466789981350302696e-03
1.350000000000000000e+03 5.541078567504882812e+01 -8.046533584594726562e+00 2.741654634475708008e+00 1.010969066619873047e+01 3.855403423309326172e+00 6.752908229827880859e+00
1.351000000000000000e+03 5.533947753906250000e+01 -8.322033882141113281e+00 2.371879100799560547e+00 9.963691711425781250e+00 3.700671195983886719e+00 6.357839107513427734e+00
1.352000000000000000e+03 5.352687835693359375e+01 -8.143905639648437500e+00 1.353933930397033691e+00 1.495396852493286133e+00 8.547992110252380371e-01 2.458683252334594727e+00
1.353000000000000000e+03 5.441348648071289062e+01 -4.777890205383300781e+00 2.731697320938110352e+00 3.190618515014648438e+00 1.776694774627685547e+00 -4.199703693389892578e+00
1.354000000000000000e+03 5.645307922363281250e+01 -4.708353519439697266e+00 1.151530385017395020e+00 1.909379386901855469e+01 6.073597431182861328e+00 -3.470530033111572266e+00
1.355000000000000000e+03 5.553049850463867188e+01 -4.525949478149414062e+00 2.154200315475463867e+00 1.137878227233886719e+01 4.059895038604736328e+00 -6.467144966125488281e+00
1.356000000000000000e+03 5.515935134887695312e+01 -4.480825901031494141e+00 2.597694396972656250e+00 8.479976654052734375e+00 3.323301076889038086e+00 -6.291911125183105469e+00
1.357000000000000000e+03 5.661368560791015625e+01 -4.290612220764160156e+00 6.800265312194824219e-01 1.746938705444335938e+01 5.444824218750000000e+00 -2.774259805679321289e+00
1.358000000000000000e+03 5.812657165527343750e+01 -6.547719001770019531e+00 9.734029769897460938e+00 1.518583488464355469e+01 7.475959300994873047e+00 -5.362250804901123047e-01
1.359000000000000000e+03 5.805093383789062500e+01 -6.780201435089111328e+00 9.511805534362792969e+00 1.554417896270751953e+01 7.516795635223388672e+00 -1.285373091697692871e+00
1.360000000000000000e+03 5.786619567871093750e+01 -7.233407497406005859e+00 7.909255981445312500e+00 1.679460906982421875e+01 7.411159515380859375e+00 -2.380362987518310547e+00
1.361000000000000000e+03 5.681101989746093750e+01 -4.457450389862060547e+00 1.122574567794799805e+00 1.877103042602539062e+01 5.968081951141357422e+00 -1.637042641639709473e+00
1.362000000000000000e+03 5.778421783447265625e+01 -6.496806144714355469e+00 1.103937721252441406e+01 1.631788444519042969e+01 8.207179069519042969e+00 -4.697062373161315918e-01
1.363000000000000000e+03 5.789132308959960938e+01 -5.512528896331787109e+00 7.750002861022949219e+00 1.674786376953125000e+01 7.349359512329101562e+00 2.320612907409667969e+00
1.364000000000000000e+03 5.676025390625000000e+01 -8.469303131103515625e+00 9.454002976417541504e-01 1.777569389343261719e+01 5.616328239440917969e+00 1.989799618721008301e+00
1.365000000000000000e+03 5.526801681518554688e+01 -3.990471124649047852e+00 1.640513539314270020e+00 9.561346054077148438e+00 3.360557794570922852e+00 -5.738165855407714844e+00
1.366000000000000000e+03 5.620012664794921875e+01 -4.416100502014160156e+00 9.240345358848571777e-01 1.665249252319335938e+01 5.272958278656005859e+00 -4.574622154235839844e+00
1.367000000000000000e+03 5.298393249511718750e+01 -4.179937839508056641e+00 1.114422798156738281e+00 1.355565190315246582e+00 7.409964203834533691e-01 -2.297629356384277344e+00
1.368000000000000000e+03 5.190322875976562500e+01 -8.587122917175292969e+00 3.544294089078903198e-02 6.628130674362182617e-01 2.094767987728118896e-01 1.282473564147949219e+00
1.369000000000000000e+03 5.257524490356445312e+01 -4.198688030242919922e+00 6.429437994956970215e-01 1.083723068237304688e+00 5.180000662803649902e-01 -1.804621577262878418e+00
1.370000000000000000e+03 5.197462081909179688e+01 -3.742695093154907227e+00 5.018541812896728516e-01 1.023856878280639648e+00 4.577133059501647949e-01 -1.666380524635314941e+00
1.371000000000000000e+03 5.088728332519531250e+01 -3.399954319000244141e+00 4.096251726150512695e-02 7.048210501670837402e-01 2.237350791692733765e-01 -1.199273228645324707e+00
1.372000000000000000e+03 5.036546707153320312e+01 -3.779802083969116211e+00 -5.659055113792419434e-01 4.194818139076232910e-01 -4.392711445689201355e-02 -7.373242378234863281e-01
1.373000000000000000e+03 5.389501571655273438e+01 -4.014171123504638672e+00 2.029848575592041016e+00 3.412064552307128906e+00 1.632573962211608887e+00 -3.841426372528076172e+00
1.374000000000000000e+03 2.191657447814941406e+01 -1.788278698921203613e+00 -1.110056415200233459e-01 -2.000077515840530396e-01 -9.330401569604873657e-02 2.475304752588272095e-01
1.375000000000000000e+03 2.147237777709960938e+01 -2.447971820831298828e+00 -9.422365576028823853e-02 -1.495382338762283325e-01 -7.312856614589691162e-02 1.836879998445510864e-01
1.376000000000000000e+03 4.901414489746093750e+01 -4.140657901763916016e+00 -1.397639751434326172e+00 1.356754004955291748e-01 -3.785893023014068604e-01 -2.501690387725830078e-01
1.377000000000000000e+03 2.488319396972656250e+01 -3.430479049682617188e+00 -3.082910776138305664e-01 -7.505968213081359863e-02 -1.150052249431610107e-01 2.906945347785949707e-01
1.378000000000000000e+03 2.679073143005371094e+01 -4.266937732696533203e+00 -4.691444635391235352e-01 -2.766253054141998291e-02 -1.490420997142791748e-01 2.727160751819610596e-01
1.379000000000000000e+03 1.792340087890625000e+01 -8.710290908813476562e+00 -1.762783080339431763e-01 -1.060047000646591187e-01 -8.468490093946456909e-02 -1.681253910064697266e-01
1.380000000000000000e+03 3.110366821289062500e+01 -4.292053699493408203e+00 -8.899181485176086426e-01 9.161884896457195282e-03 -2.642268836498260498e-01 3.083228468894958496e-01
1.381000000000000000e+03 2.761727142333984375e+01 -3.640614986419677734e+00 -5.291186571121215820e-01 -2.888158150017261505e-02 -1.674000620841979980e-01 3.415272235870361328e-01
1.382000000000000000e+03 3.880193710327148438e+00 2.602079868316650391e+00 -1.080177607946097851e-04 -5.243204068392515182e-04 -1.897014444693922997e-04 6.980691978242248297e-05
1.383000000000000000e+03 4.582131862640380859e+00 2.561249256134033203e+00 -1.185588644148083404e-05 6.768376915715634823e-04 1.994945341721177101e-04 1.865922531578689814e-04
1.384000000000000000e+03 5.973928928375244141e+00 2.565397977828979492e+00 -5.279888137010857463e-05 8.073279168456792831e-04 2.263587084598839283e-04 3.863942401949316263e-04
1.385000000000000000e+03 5.209696769714355469e+00 3.242991447448730469e+00 2.684415221665403806e-06 8.260888862423598766e-04 2.486319863237440586e-04 3.282680409029126167e-04
1.386000000000000000e+03 5.872045516967773438e+00 3.280290603637695312e+00 5.889704698347486556e-05 -7.846828084439039230e-04 -2.177357237087562680e-04 -3.115583967883139849e-04
1.387000000000000000e+03 1.028690052032470703e+01 2.660274267196655273e+00 3.827153705060482025e-04 4.387690278235822916e-04 2.464453282300382853e-04 6.250144797377288342e-04
1.388000000000000000e+03 7.231457710266113281e+00 3.393866062164306641e+00 -5.168386269360780716e-05 -8.792231092229485512e-04 -2.792720915749669075e-04 -6.114605930633842945e-04
1.389000000000000000e+03 6.545610427856445312e+00 3.338035821914672852e+00 -3.539591125445440412e-05 1.003451179713010788e-03 2.904165885411202908e-04 5.069189937785267830e-04
1.390000000000000000e+03 4.551824092864990234e+00 3.248510599136352539e+00 2.579211241027223878e-06 -6.357661332003772259e-04 -1.899560738820582628e-04 -1.221417332999408245e-04
1.391000000000000000e+03 2.494146585464477539e+00 2.675080537796020508e+00 -3.350512706674635410e-04 -2.851172466762363911e-04 -1.860505581134930253e-04 1.255690149264410138e-04
1.392000000000000000e+03 1.019454002380371094e+01 3.450629949569702148e+00 -4.430073604453355074e-04 -6.945038330741226673e-04 -3.412533551454544067e-04 -9.859305573627352715e-04
1.393000000000000000e+03 2.352899932861328125e+01 -3.160063266754150391e+00 -2.132841050624847412e-01 -1.047930344939231873e-01 -9.542313963174819946e-02 2.543794214725494385e-01
1.394000000000000000e+03 2.624887275695800781e+01 -3.580403566360473633e+00 -4.149720966815948486e-01 -4.940930753946304321e-02 -1.393144130706787109e-01 3.190400898456573486e-01
1.395000000000000000e+03 2.285719299316406250e+01 -2.976769447326660156e+00 -1.720919013023376465e-01 -1.189562231302261353e-01 -8.731443434953689575e-02 2.341504842042922974e-01
1.396000000000000000e+03 2.217766761779785156e+01 -2.750900745391845703e+00 -1.323406547307968140e-01 -1.372010409832000732e-01 -8.086250722408294678e-02 2.108522504568099976e-01
1.397000000000000000e+03 9.577662467956542969e+00 -2.479683160781860352e+00 -1.421022352587897331e-05 -3.508308873279020190e-05 -1.478799367760075256e-05 -3.160858468618243933e-04
1.398000000000000000e+03 2.901345634460449219e+01 -3.656181573867797852e+00 -6.506700515747070312e-01 -1.147140562534332275e-02 -1.986424475908279419e-01 3.583480417728424072e-01
1.399000000000000000e+03 2.909568977355957031e+01 -3.000146865844726562e+00 -6.261585354804992676e-01 -1.745624840259552002e-02 -1.930844485759735107e-01 4.142765700817108154e-01
1.400000000000000000e+03 3.257862472534179688e+01 -4.252563476562500000e+00 -1.040315508842468262e+00 1.566915214061737061e-02 -3.073938786983489990e-01 3.099267482757568359e-01
1.401000000000000000e+03 3.190223312377929688e+01 -3.608446598052978516e+00 -9.080550074577331543e-01 1.421870011836290359e-02 -2.681508958339691162e-01 3.745205104351043701e-01
1.402000000000000000e+03 1.158624267578125000e+01 -3.547508955001831055e+00 1.768198562785983086e-04 -7.097814523149281740e-05 3.175251185894012451e-05 -3.105512296315282583e-04
1.403000000000000000e+03 1.097697830200195312e+01 -2.624981403350830078e+00 1.181527259177528322e-04 -1.134859849116764963e-04 1.400023052156029735e-06 -2.892845077440142632e-04
1.404000000000000000e+03 1.125451946258544922e+01 -4.371094703674316406e+00 -1.000029515125788748e-04 -3.018298884853720665e-04 -1.205498556373640895e-04 4.002214409410953522e-04
1.405000000000000000e+03 4.585151672363281250e+01 -9.726376533508300781e+00 -1.369578599929809570e+00 1.300941854715347290e-01 -3.718453049659729004e-01 5.420700833201408386e-02
1.406000000000000000e+03 4.666732788085937500e+01 -8.999372482299804688e+00 -1.695289969444274902e+00 8.956651389598846436e-02 -4.817170500755310059e-01 2.578824944794178009e-02
1.407000000000000000e+03 4.894773483276367188e+01 -8.972552299499511719e+00 -1.186595559120178223e+00 2.178536355495452881e-01 -2.906225919723510742e-01 3.290000557899475098e-01
1.408000000000000000e+03 1.258303356170654297e+01 -2.796219825744628906e+00 4.272834848961792886e-05 -2.609264338389039040e-04 -6.545942596858367324e-05 9.069021871255245060e-06
1.409000000000000000e+03 4.356729888916015625e+01 -1.046871376037597656e+01 -1.262926816940307617e+00 1.151408553123474121e-01 -3.443357944488525391e-01 -6.540754437446594238e-02
1.410000000000000000e+03 3.337499237060546875e+01 -3.541138172149658203e+00 -1.032881140708923340e+00 2.150954306125640869e-02 -3.034114837646484375e-01 3.749646246433258057e-01
1.411000000000000000e+03 4.971604537963867188e+01 -9.690359115600585938e+00 -3.588077425956726074e-01 5.375289916992187500e-01 5.361637473106384277e-02 8.291822075843811035e-01
1.412000000000000000e+03 5.052753067016601562e+01 -9.541753768920898438e+00 -8.090821653604507446e-02 6.891789436340332031e-01 1.824812144041061401e-01 1.096378922462463379e+00
1.413000000000000000e+03 3.485976791381835938e+01 -3.469988584518432617e+00 -1.150688052177429199e+00 2.610024623572826385e-02 -3.373763561248779297e-01 3.698210716247558594e-01
1.414000000000000000e+03 3.992671966552734375e+01 -9.817487716674804688e+00 -1.648050904273986816e+00 1.905273459851741791e-02 -4.886994659900665283e-01 -2.434165179729461670e-01
1.415000000000000000e+03 4.591902542114257812e+01 -9.010142326354980469e+00 -1.783723831176757812e+00 6.989315152168273926e-02 -5.141491889953613281e-01 -3.194976598024368286e-02
1.416000000000000000e+03 4.362904739379882812e+01 -9.751355171203613281e+00 -1.578144073486328125e+00 6.964565068483352661e-02 -4.525495171546936035e-01 -1.134857535362243652e-01
1.417000000000000000e+03 4.219877624511718750e+01 -9.070363998413085938e+00 -1.940346717834472656e+00 2.061815001070499420e-02 -5.759186148643493652e-01 -1.927466839551925659e-01
1.418000000000000000e+03 4.140486526489257812e+01 -9.788068771362304688e+00 -1.649664163589477539e+00 3.185753524303436279e-02 -4.853419959545135498e-01 -2.043738365173339844e-01
1.419000000000000000e+03 4.660125350952148438e+01 -9.712006568908691406e+00 -1.256036281585693359e+00 1.619225591421127319e-01 -3.282341063022613525e-01 1.359698176383972168e-01
1.420000000000000000e+03 4.812030410766601562e+01 -9.690376281738281250e+00 -9.256511926651000977e-01 2.731828987598419189e-01 -1.957404762506484985e-01 3.780930042266845703e-01
1.421000000000000000e+03 4.890251159667968750e+01 -9.688371658325195312e+00 -6.841815114021301270e-01 3.798074722290039062e-01 -9.131221473217010498e-02 5.615582466125488281e-01
1.422000000000000000e+03 4.735630416870117188e+01 -9.698548316955566406e+00 -1.113983511924743652e+00 2.116671800613403320e-01 -2.706949114799499512e-01 2.406503260135650635e-01
1.423000000000000000e+03 3.922640228271484375e+01 -9.138599395751953125e+00 -1.874794960021972656e+00 3.127561416476964951e-03 -5.615001916885375977e-01 -2.433953732252120972e-01
1.424000000000000000e+03 3.913264465332031250e+01 -1.124615573883056641e+01 -1.188710451126098633e+00 5.016444250941276550e-02 -3.415638208389282227e-01 -2.488626837730407715e-01
1.425000000000000000e+03 3.845856094360351562e+01 -9.866648674011230469e+00 -1.614838957786560059e+00 8.270800113677978516e-03 -4.819704592227935791e-01 -2.705994546413421631e-01
1.426000000000000000e+03 5.126803207397460938e+01 -9.271209716796875000e+00 1.625544279813766479e-01 8.282176256179809570e-01 2.972316145896911621e-01 1.360037922859191895e+00
1.427000000000000000e+03 3.780009841918945312e+01 -4.084904193878173828e+00 -1.532864928245544434e+00 2.112682908773422241e-02 -4.535214304924011230e-01 2.820852100849151611e-01
1.428000000000000000e+03 3.489797973632812500e+01 -2.756953477859497070e+00 -1.037741184234619141e+00 3.356609866023063660e-02 -3.012525439262390137e-01 4.228781163692474365e-01
1.429000000000000000e+03 3.699306106567382812e+01 -1.066142368316650391e+01 -1.361807227134704590e+00 1.007770281285047531e-02 -4.055188596248626709e-01 -3.078152537345886230e-01
1.430000000000000000e+03 3.699674987792968750e+01 -9.931255340576171875e+00 -1.559710264205932617e+00 -1.239717705175280571e-03 -4.682849943637847900e-01 -2.923878133296966553e-01
1.431000000000000000e+03 3.771910858154296875e+01 -1.062426185607910156e+01 -1.378756403923034668e+00 1.532060373574495316e-02 -4.090307354927062988e-01 -2.947140634059906006e-01
1.432000000000000000e+03 3.936450958251953125e+01 -3.355051040649414062e+00 -1.444804906845092773e+00 3.441616520285606384e-02 -4.231166243553161621e-01 3.067588210105895996e-01
1.433000000000000000e+03 4.155819320678710938e+01 -4.005808830261230469e+00 -1.780850768089294434e+00 2.355101332068443298e-02 -5.271899104118347168e-01 2.228093892335891724e-01
1.434000000000000000e+03 4.231352615356445312e+01 -3.991161823272705078e+00 -1.807418107986450195e+00 2.676771767437458038e-02 -5.341951251029968262e-01 2.035765498876571655e-01
1.435000000000000000e+03 4.086485671997070312e+01 -3.329765319824218750e+00 -1.500329494476318359e+00 3.957628086209297180e-02 -4.382259547710418701e-01 2.685363590717315674e-01
1.436000000000000000e+03 4.836843490600585938e+01 -3.504732370376586914e+00 -1.051447391510009766e+00 2.060790359973907471e-01 -2.536105215549468994e-01 -3.096020817756652832e-01
1.437000000000000000e+03 4.681275177001953125e+01 -3.999271869659423828e+00 -1.706650614738464355e+00 6.774894893169403076e-02 -4.916704893112182617e-01 -9.271644055843353271e-03
1.438000000000000000e+03 4.389239120483398438e+01 -3.274798631668090820e+00 -1.483472943305969238e+00 7.047364115715026855e-02 -4.238997697830200195e-01 1.408042460680007935e-01
1.439000000000000000e+03 4.237806320190429688e+01 -3.303243875503540039e+00 -1.518315315246582031e+00 5.075640231370925903e-02 -4.402676522731781006e-01 2.155075818300247192e-01
1.440000000000000000e+03 4.313528060913085938e+01 -3.288370132446289062e+00 -1.508034348487854004e+00 5.835464224219322205e-02 -4.349039196968078613e-01 1.807509362697601318e-01
1.441000000000000000e+03 4.540461730957031250e+01 -3.274491786956787109e+00 -1.393246531486511230e+00 9.891174733638763428e-02 -3.883004486560821533e-01 3.138133510947227478e-02
1.442000000000000000e+03 4.464995193481445312e+01 -3.268324851989746094e+00 -1.446728110313415527e+00 8.315324783325195312e-02 -4.090724289417266846e-01 9.078079462051391602e-02
1.443000000000000000e+03 3.861397552490234375e+01 -3.365840673446655273e+00 -1.404728889465332031e+00 3.285189718008041382e-02 -4.115630984306335449e-01 3.223556280136108398e-01
1.444000000000000000e+03 4.975644302368164062e+01 -3.696010351181030273e+00 -7.360666394233703613e-01 3.078230619430541992e-01 -1.284730732440948486e-01 -5.807866454124450684e-01
1.445000000000000000e+03 3.397020721435546875e+01 -1.005758953094482422e+01 -1.403513550758361816e+00 -1.571917533874511719e-02 -4.257698059082031250e-01 -3.198898136615753174e-01
1.446000000000000000e+03 3.246017074584960938e+01 -9.377099037170410156e+00 -1.456769585609436035e+00 -1.849643886089324951e-02 -4.425798356533050537e-01 -2.818595767021179199e-01
1.447000000000000000e+03 3.319700622558593750e+01 -1.008879566192626953e+01 -1.355975151062011719e+00 -1.629644632339477539e-02 -4.116814732551574707e-01 -3.245856165885925293e-01
1.448000000000000000e+03 3.242525863647460938e+01 -1.011993026733398438e+01 -1.308024048805236816e+00 -1.905052363872528076e-02 -3.981223702430725098e-01 -3.291268944740295410e-01
1.449000000000000000e+03 3.474018859863281250e+01 -1.002538108825683594e+01 -1.446182370185852051e+00 -1.159071829169988632e-02 -4.373319447040557861e-01 -3.145982921123504639e-01
1.450000000000000000e+03 4.162038040161132812e+01 -3.316833734512329102e+00 -1.514452099800109863e+00 4.400273412466049194e-02 -4.411348104476928711e-01 2.436737716197967529e-01
1.451000000000000000e+03 4.763762664794921875e+01 -3.415425300598144531e+00 -1.162382602691650391e+00 1.685802638530731201e-01 -2.981407046318054199e-01 -2.007746249437332153e-01
1.452000000000000000e+03 1.358827686309814453e+01 5.043754577636718750e+00 -1.456367201171815395e-03 -3.686329873744398355e-04 -5.475000361911952496e-04 -8.715973235666751862e-04
1.453000000000000000e+03 9.418222427368164062e+00 3.457875728607177734e+00 2.970320347230881453e-04 9.068104554899036884e-04 3.611527499742805958e-04 7.583125261589884758e-04
1.454000000000000000e+03 1.264999866485595703e+01 4.152064323425292969e+00 -1.419194508343935013e-03 -1.418358733644708991e-04 -4.683090955950319767e-04 -1.218649442307651043e-03
1.455000000000000000e+03 1.261007785797119141e+01 3.333668470382690430e+00 1.366597018204629421e-03 -4.294966056477278471e-04 2.811301092151552439e-04 4.816761065740138292e-04
1.456000000000000000e+03 3.010028266906738281e+01 -1.018902397155761719e+01 -1.151525020599365234e+00 -1.585608534514904022e-02 -3.502143025398254395e-01 -3.409807384014129639e-01
1.457000000000000000e+03 3.087902450561523438e+01 -1.017261600494384766e+01 -1.204881310462951660e+00 -1.840362511575222015e-02 -3.669854700565338135e-01 -3.373199105262756348e-01
1.458000000000000000e+03 2.785393142700195312e+01 -9.403927803039550781e+00 -1.080159306526184082e+00 -8.955030702054500580e-03 -3.267343044281005859e-01 -2.856333851814270020e-01
1.459000000000000000e+03 2.932128143310546875e+01 -1.019785022735595703e+01 -1.097271800041198730e+00 -1.482383720576763153e-02 -3.336286842823028564e-01 -3.448462188243865967e-01
1.460000000000000000e+03 9.307889938354492188e+00 4.256220340728759766e+00 -1.902348158182576299e-04 -1.115130027756094933e-03 -3.916094428859651089e-04 -9.049060172401368618e-04
1.461000000000000000e+03 1.998469734191894531e+01 -9.560598373413085938e+00 -4.195278286933898926e-01 -2.163330651819705963e-02 -1.323483437299728394e-01 -2.963954210281372070e-01
1.462000000000000000e+03 1.937216377258300781e+01 -8.912734031677246094e+00 -3.205408155918121338e-01 -3.820753097534179688e-02 -1.076245084404945374e-01 -2.320670336484909058e-01
1.463000000000000000e+03 6.742063999176025391e+00 -3.355467796325683594e+00 -1.940658876264933497e-05 1.909365164465270936e-05 -9.388111976704749395e-08 3.705367853399366140e-04
1.464000000000000000e+03 2.723259687423706055e+00 -6.729053974151611328e+00 -6.242099334485828876e-05 1.512317394372075796e-04 2.664322346390690655e-05 -3.778369282372295856e-04
1.465000000000000000e+03 7.555634498596191406e+00 -4.098749160766601562e+00 1.074570391210727394e-04 -2.071712224278599024e-04 -2.991425753862131387e-05 5.471162730827927589e-04
1.466000000000000000e+03 8.877716064453125000e+00 -2.523911237716674805e+00 -2.074041185551322997e-05 3.755914440262131393e-05 5.045620582677656785e-06 3.739486273843795061e-04
1.467000000000000000e+03 5.434801101684570312e+00 -4.200042247772216797e+00 1.822318881750106812e-05 3.450060103205032647e-05 1.581713695486541837e-05 -3.304087440483272076e-04
1.468000000000000000e+03 5.892600059509277344e+00 -2.645700693130493164e+00 -7.464300142601132393e-05 5.918880560784600675e-05 -4.636258836399065331e-06 2.603079483378678560e-04
1.469000000000000000e+03 6.001173973083496094e+00 -3.391132354736328125e+00 -2.261402551084756851e-05 6.641557411057874560e-05 1.314046312472783029e-05 -3.146831004414707422e-04
1.470000000000000000e+03 4.130480766296386719e+00 -4.548148155212402344e+00 -4.350012386566959321e-05 -3.353485953994095325e-05 -2.311049502168316394e-05 -4.234650987200438976e-04
1.471000000000000000e+03 2.103531599044799805e+00 -3.198696136474609375e+00 -7.749799988232553005e-05 -2.948208020825404674e-05 -3.209402348147705197e-05 -1.540457451483234763e-04
1.472000000000000000e+03 1.637204647064208984e+00 -5.291705131530761719e+00 -2.975388488266617060e-04 7.672952051507309079e-05 -6.624279922107234597e-05 -2.466168371029198170e-04
1.473000000000000000e+03 2.700377655029296875e+01 -1.014611148834228516e+01 -9.359322786331176758e-01 -5.982234724797308445e-04 -2.809591293334960938e-01 -3.494541645050048828e-01
1.474000000000000000e+03 2.777763748168945312e+01 -1.017479228973388672e+01 -9.904625415802001953e-01 -6.548568606376647949e-03 -2.991033196449279785e-01 -3.497480452060699463e-01
1.475000000000000000e+03 2.622241973876953125e+01 -1.011161041259765625e+01 -8.807823061943054199e-01 5.692576523870229721e-03 -2.625268995761871338e-01 -3.518174588680267334e-01
1.476000000000000000e+03 2.314451217651367188e+01 -9.919664382934570312e+00 -6.568134427070617676e-01 2.489709854125976562e-02 -1.895748972892761230e-01 -3.444597125053405762e-01
1.477000000000000000e+03 2.390735435485839844e+01 -9.968479156494140625e+00 -7.141853570938110352e-01 2.338637411594390869e-02 -2.072396874427795410e-01 -3.467950820922851562e-01
1.478000000000000000e+03 2.553172874450683594e+01 -9.308712005615234375e+00 -8.733883500099182129e-01 7.889823056757450104e-03 -2.596495747566223145e-01 -2.873370945453643799e-01
1.479000000000000000e+03 2.467130851745605469e+01 -1.002025127410888672e+01 -7.687666416168212891e-01 1.798745058476924896e-02 -2.252337485551834106e-01 -3.506640195846557617e-01
1.480000000000000000e+03 1.851818466186523438e+01 -1.370877552032470703e+01 -5.223718285560607910e-01 -1.433869004249572754e-01 -1.997276246547698975e-01 -4.454472064971923828e-01
1.481000000000000000e+03 2.098550987243652344e+01 -9.869445800781250000e+00 -5.090278983116149902e-01 4.350506700575351715e-03 -1.514032185077667236e-01 -3.313863873481750488e-01
1.482000000000000000e+03 2.111985778808593750e+01 -3.231984376907348633e+00 -8.013651520013809204e-02 -1.106218844652175903e-01 -5.722752213478088379e-02 1.326963156461715698e-01
1.483000000000000000e+03 2.166503334045410156e+01 -9.842715263366699219e+00 -5.459376573562622070e-01 1.631428115069866180e-02 -1.588870137929916382e-01 -3.339180648326873779e-01
1.484000000000000000e+03 2.159128570556640625e+01 -1.060413837432861328e+01 -5.692064762115478516e-01 1.041074842214584351e-02 -1.676387190818786621e-01 -3.812885880470275879e-01
1.485000000000000000e+03 2.148123168945312500e+01 2.410454511642456055e+00 -1.346045136451721191e-01 -5.251100659370422363e-01 -1.979143619537353516e-01 4.341472089290618896e-01
1.486000000000000000e+03 2.095867729187011719e+01 5.804831027984619141e+00 -2.228370010852813721e-01 -8.591465950012207031e-01 -3.245950639247894287e-01 5.394809246063232422e-01
1.487000000000000000e+03 1.796095085144042969e+01 -1.033142662048339844e+01 -3.430207371711730957e-01 -1.591543704271316528e-01 -1.506525427103042603e-01 -3.221665918827056885e-01
1.488000000000000000e+03 1.081140136718750000e+01 9.144035339355468750e+00 8.617657586000859737e-04 3.036332782357931137e-03 1.169429626315832138e-03 1.416790997609496117e-03
1.489000000000000000e+03 1.110239219665527344e+01 1.070470237731933594e+01 2.227174583822488785e-03 3.293303074315190315e-03 1.656143344007432461e-03 2.357068005949258804e-03
1.490000000000000000e+03 1.336209678649902344e+01 6.209436416625976562e+00 1.794372685253620148e-03 5.283079808577895164e-04 6.968041998334228992e-04 1.058347173966467381e-03
1.491000000000000000e+03 6.048199653625488281e+00 -1.453051090240478516e+01 8.491513319313526154e-03 -4.943657666444778442e-03 1.064356649294495583e-03 -1.685732416808605194e-02
1.492000000000000000e+03 6.672750949859619141e+00 -1.334479522705078125e+01 -1.009247265756130219e-03 1.331011578440666199e-02 3.690260695293545723e-03 -7.213256787508726120e-03
1.493000000000000000e+03 1.866268539428710938e+01 1.078426933288574219e+01 -4.885847270488739014e-01 -1.605365514755249023e+00 -6.281850337982177734e-01 7.214727401733398438e-01
1.494000000000000000e+03 2.058834075927734375e+01 7.077726840972900391e+00 -2.777027785778045654e-01 -1.010143160820007324e+00 -3.863537609577178955e-01 5.846738815307617188e-01
1.495000000000000000e+03 1.080230045318603516e+01 -3.335921049118041992e+00 -7.176115468610078096e-05 -1.653123472351580858e-04 -7.112205639714375138e-05 4.789677623193711042e-04
1.496000000000000000e+03 8.668856620788574219e+00 -2.041116333007812500e+01 -3.521724641323089600e-01 -3.139265775680541992e-01 -1.998297125101089478e-01 -4.430272579193115234e-01
1.497000000000000000e+03 7.914882659912109375e+00 -1.886478614807128906e+01 -3.655563890933990479e-01 -6.873680651187896729e-02 -1.302879601716995239e-01 -2.117868214845657349e-01
1.498000000000000000e+03 1.009758758544921875e+01 4.240842819213867188e+00 3.626632096711546183e-04 1.228448934853076935e-03 4.773336404468864202e-04 9.890334913507103920e-04
1.499000000000000000e+03 6.958246231079101562e-01 3.028843402862548828e+00 -1.487769768573343754e-04 -3.425006070756353438e-05 -5.490811236086301506e-05 -2.625228953547775745e-04
1.500000000000000000e+03 1.006203365325927734e+01 -6.125032424926757812e+00 4.842563066631555557e-05 -7.714651874266564846e-04 -2.169118524761870503e-04 4.255806561559438705e-04
1.501000000000000000e+03 1.610196876525878906e+01 -1.893137550354003906e+01 -3.471037745475769043e-01 -3.264061510562896729e-01 -2.020529806613922119e-01 -3.770794570446014404e-01
1.502000000000000000e+03 1.623813247680664062e+01 -1.545005226135253906e+01 -5.131576657295227051e-01 -3.353991508483886719e-01 -2.545670270919799805e-01 -4.475888013839721680e-01
1.503000000000000000e+03 9.666838645935058594e+00 -1.994340133666992188e+01 -3.062109351158142090e-01 -4.926993548870086670e-01 -2.396730929613113403e-01 -4.778953194618225098e-01
1.504000000000000000e+03 2.001183319091796875e+01 -8.597832918167114258e-02 -3.317043930292129517e-02 -3.141829371452331543e-01 -1.042060106992721558e-01 1.777115911245346069e-01
1.505000000000000000e+03 1.996888160705566406e+01 -1.083627128601074219e+01 -4.884824454784393311e-01 -3.670464456081390381e-02 -1.575561314821243286e-01 -3.765000998973846436e-01
1.506000000000000000e+03 1.341975307464599609e+01 3.134848117828369141e+00 -7.754911785013973713e-04 8.801586227491497993e-04 3.140023545711301267e-05 3.410246572457253933e-04
1.507000000000000000e+03 3.686225652694702148e+00 2.175934600830078125e+01 -9.815929085016250610e-02 -1.275791972875595093e-01 -6.772154569625854492e-02 1.424211114645004272e-01
1.508000000000000000e+03 7.819971466064453125e+01 -3.594967269897460938e+01 -3.411604464054107666e-02 8.732336044311523438e+00 2.609465837478637695e+00 -3.726687282323837280e-02
1.509000000000000000e+03 7.382228851318359375e+01 -3.844460678100585938e+01 -1.149696260690689087e-01 8.117525100708007812e+00 2.400766611099243164e+00 -1.287337094545364380e-01
1.510000000000000000e+03 7.557697296142578125e+01 -3.466004943847656250e+01 -9.160122275352478027e-02 8.349908828735351562e+00 2.477492332458496094e+00 -1.738874018192291260e-01
1.511000000000000000e+03 7.709739685058593750e+01 -3.610257720947265625e+01 -5.190422013401985168e-02 8.567518234252929688e+00 2.554684162139892578e+00 -7.948789745569229126e-02
1.512000000000000000e+03 7.577430725097656250e+01 -2.320767784118652344e+01 -8.531090617179870605e-02 7.743239879608154297e+00 2.297378778457641602e+00 -5.465841889381408691e-01
1.513000000000000000e+03 7.789313507080078125e+01 -2.921837043762207031e+01 -2.191221155226230621e-02 8.338942527770996094e+00 2.495109081268310547e+00 -1.902468502521514893e-01
1.514000000000000000e+03 7.541660308837890625e+01 1.530706405639648438e+01 -9.942455589771270752e-02 8.045127868652343750e+00 2.383711099624633789e+00 3.759923577308654785e-01
1.515000000000000000e+03 7.673805999755859375e+01 1.534049510955810547e+01 -5.429042875766754150e-02 8.129783630371093750e+00 2.422647953033447266e+00 2.967402338981628418e-01
1.516000000000000000e+03 7.793689727783203125e+01 3.455817413330078125e+01 -2.164789329981431365e-04 8.812171936035156250e+00 2.643586874008178711e+00 -3.627423662692308426e-03
1.517000000000000000e+03 7.707412719726562500e+01 3.290422821044921875e+01 1.381756854243576527e-03 8.659741401672363281e+00 2.598337173461914062e+00 4.269066266715526581e-03
1.518000000000000000e+03 7.819512939453125000e+01 -2.212737846374511719e+01 -1.633263193070888519e-02 7.576845169067382812e+00 2.268153667449951172e+00 -3.032505810260772705e-01
1.519000000000000000e+03 7.693563079833984375e+01 -2.337675666809082031e+01 -4.982421919703483582e-02 7.743932247161865234e+00 2.308232545852661133e+00 -4.301831424236297607e-01
1.520000000000000000e+03 7.650836944580078125e+01 -3.067615890502929688e+01 -5.578297749161720276e-02 8.284881591796875000e+00 2.468729496002197266e+00 -2.435498088598251343e-01
1.521000000000000000e+03 7.642607879638671875e+01 -2.921623992919921875e+01 -5.965755134820938110e-02 8.199552536010742188e+00 2.441968441009521484e+00 -2.820167541503906250e-01
1.522000000000000000e+03 7.396920776367187500e+01 -3.695003128051757812e+01 -9.992603957653045654e-02 8.126863479614257812e+00 2.408081293106079102e+00 -1.517131775617599487e-01
1.523000000000000000e+03 7.665368652343750000e+01 -2.623227691650390625e+01 -6.201295182108879089e-02 8.002557754516601562e+00 2.382163286209106445e+00 -3.660520017147064209e-01
1.524000000000000000e+03 7.650238037109375000e+01 -2.771682167053222656e+01 -6.611180305480957031e-02 8.110447883605957031e+00 2.413300752639770508e+00 -3.314259648323059082e-01
1.525000000000000000e+03 7.669383239746093750e+01 -3.207624816894531250e+01 -5.422799661755561829e-02 8.373005867004394531e+00 2.495633363723754883e+00 -1.840535253286361694e-01
1.526000000000000000e+03 7.683674621582031250e+01 -3.481768798828125000e+01 -6.596478819847106934e-02 8.498731613159179688e+00 2.529830217361450195e+00 -1.179127246141433716e-01
1.527000000000000000e+03 7.323133850097656250e+01 -2.897136497497558594e+01 -1.818541139364242554e-01 7.958550453186035156e+00 2.333008766174316406e+00 -4.119928479194641113e-01
1.528000000000000000e+03 7.498857116699218750e+01 -4.039841842651367188e+01 -2.642671763896942139e-02 8.380027770996093750e+00 2.506080389022827148e+00 -8.677051216363906860e-02
1.529000000000000000e+03 7.797461700439453125e+01 2.228097915649414062e+01 -1.376787293702363968e-02 8.635002136230468750e+00 2.586370468139648438e+00 9.057523310184478760e-02
1.530000000000000000e+03 7.663391113281250000e+01 1.947812271118164062e+01 -4.419107735157012939e-02 8.344630241394042969e+00 2.490131616592407227e+00 1.947209239006042480e-01
1.531000000000000000e+03 7.516893768310546875e+01 2.233798789978027344e+01 -6.352094560861587524e-02 8.255153656005859375e+00 2.457489728927612305e+00 1.663982421159744263e-01
1.532000000000000000e+03 7.661326599121093750e+01 2.088407135009765625e+01 -4.275730997323989868e-02 8.399563789367675781e+00 2.507041931152343750e+00 1.634190976619720459e-01
1.533000000000000000e+03 7.681083679199218750e+01 1.258009147644042969e+01 -5.778345465660095215e-02 7.916999816894531250e+00 2.357764959335327148e+00 3.791470825672149658e-01
1.534000000000000000e+03 7.547247314453125000e+01 8.492010116577148438e+00 -8.553063124418258667e-02 7.575849056243896484e+00 2.247095584869384766e+00 6.375231146812438965e-01
1.535000000000000000e+03 7.678199768066406250e+01 1.396224784851074219e+01 -5.687417462468147278e-02 8.032029151916503906e+00 2.392546415328979492e+00 3.371411561965942383e-01
1.536000000000000000e+03 7.783444213867187500e+01 2.645313644409179688e+01 -8.200209587812423706e-03 8.728074073791503906e+00 2.615962266921997070e+00 5.431903153657913208e-02
1.537000000000000000e+03 7.701678466796875000e+01 -2.199807167053222656e+01 -4.169022664427757263e-02 7.586995601654052734e+00 2.263591527938842773e+00 -4.601203501224517822e-01
1.538000000000000000e+03 7.620156097412109375e+01 2.778678703308105469e+01 -2.636109106242656708e-02 8.493475914001464844e+00 2.540134429931640625e+00 6.759522110223770142e-02
1.539000000000000000e+03 7.486522674560546875e+01 -1.641880416870117188e+01 2.422369830310344696e-02 7.206714630126953125e+00 2.169281482696533203e+00 -7.768012285232543945e-01
1.540000000000000000e+03 7.706160736083984375e+01 -2.063972091674804688e+01 -3.412943705916404724e-02 7.419141292572021484e+00 2.215503454208374023e+00 -4.863411188125610352e-01
1.541000000000000000e+03 7.582069396972656250e+01 -8.248015403747558594e+00 2.416820377111434937e-01 6.357162475585937500e+00 1.979653358459472656e+00 -2.031957358121871948e-01
1.542000000000000000e+03 7.711387634277343750e+01 -1.379844093322753906e+01 4.685532674193382263e-02 6.494658946990966797e+00 1.962454199790954590e+00 -4.728772044181823730e-01
1.543000000000000000e+03 7.582145690917968750e+01 -1.393718957901000977e+00 1.723108142614364624e-01 6.541185379028320312e+00 2.014048814773559570e+00 4.868193566799163818e-01
1.544000000000000000e+03 7.702880096435546875e+01 -8.272014617919921875e+00 1.330269277095794678e-01 6.019754886627197266e+00 1.845834493637084961e+00 -1.592246592044830322e-01
1.545000000000000000e+03 7.803382110595703125e+01 5.617946624755859375e+00 -7.679967209696769714e-03 6.994286537170410156e+00 2.095981836318969727e+00 3.784442543983459473e-01
1.546000000000000000e+03 7.673950195312500000e+01 2.847293615341186523e+00 2.503839135169982910e-02 6.793693542480468750e+00 2.045619726181030273e+00 5.638504624366760254e-01
1.547000000000000000e+03 7.561159515380859375e+01 3.394713973999023438e+01 -1.101560797542333603e-02 8.420371055603027344e+00 2.522806644439697266e+00 -8.403391577303409576e-03
1.548000000000000000e+03 7.804508972167968750e+01 7.010487079620361328e+00 -1.328032277524471283e-02 7.212985038757324219e+00 2.159911394119262695e+00 3.628470301628112793e-01
1.549000000000000000e+03 7.669934844970703125e+01 5.645930767059326172e+00 -1.819376647472381592e-02 7.154083728790283203e+00 2.140767097473144531e+00 5.692813396453857422e-01
1.550000000000000000e+03 7.703297424316406250e+01 -2.739057302474975586e+00 1.158266216516494751e-01 6.119586944580078125e+00 1.870624065399169922e+00 2.936399281024932861e-01
1.551000000000000000e+03 7.704261016845703125e+01 -9.655814170837402344e+00 1.192935779690742493e-01 6.092908382415771484e+00 1.863660693168640137e+00 -2.622377276420593262e-01
1.552000000000000000e+03 7.711681365966796875e+01 -1.654007720947265625e+01 7.652039173990488052e-03 6.859678745269775391e+00 2.060199260711669922e+00 -5.200781822204589844e-01
1.553000000000000000e+03 7.412536621093750000e+01 3.416166305541992188e+01 -3.705194592475891113e-02 8.260369300842285156e+00 2.466995239257812500e+00 2.270774915814399719e-02
1.554000000000000000e+03 7.594588470458984375e+01 3.088812255859375000e+01 -2.694376558065414429e-02 8.484628677368164062e+00 2.537305593490600586e+00 3.390163555741310120e-02
1.555000000000000000e+03 7.665740966796875000e+01 1.808913993835449219e+01 -4.691758006811141968e-02 8.284687042236328125e+00 2.471330881118774414e+00 2.261893898248672485e-01
1.556000000000000000e+03 7.680068206787109375e+01 9.821644783020019531e+00 -5.298317223787307739e-02 7.645364284515380859e+00 2.277714252471923828e+00 4.664891362190246582e-01
1.557000000000000000e+03 7.826356506347656250e+01 -1.384614181518554688e+01 2.053087949752807617e-02 6.229097843170166016e+00 1.874888539314270020e+00 -3.144549727439880371e-01
1.558000000000000000e+03 7.711914825439453125e+01 -1.516942214965820312e+01 2.769240736961364746e-02 6.670719146728515625e+00 2.009523391723632812e+00 -5.043412446975708008e-01
1.559000000000000000e+03 7.822307586669921875e+01 -6.917418003082275391e+00 5.716795101761817932e-02 5.586634159088134766e+00 1.693140625953674316e+00 -3.010804019868373871e-02
1.560000000000000000e+03 7.809410858154296875e+01 1.445948362350463867e+00 2.129178121685981750e-02 6.319130420684814453e+00 1.902126550674438477e+00 3.500498831272125244e-01
1.561000000000000000e+03 7.698455810546875000e+01 -1.353476762771606445e+00 9.746959805488586426e-02 6.253033161163330078e+00 1.905150771141052246e+00 3.859235346317291260e-01
1.562000000000000000e+03 7.669678497314453125e+01 4.246022701263427734e+00 -5.188984869164414704e-05 6.978613853454589844e+00 2.093568563461303711e+00 5.763341784477233887e-01
1.563000000000000000e+03 7.705221557617187500e+01 -5.502409458160400391e+00 1.422913670539855957e-01 5.981451511383056641e+00 1.837122917175292969e+00 7.548289000988006592e-02
1.564000000000000000e+03 7.705381774902343750e+01 -4.119938850402832031e+00 1.307111829519271851e-01 6.028479099273681641e+00 1.847757101058959961e+00 1.896932274103164673e-01
1.565000000000000000e+03 7.595771789550781250e+01 -1.240670585632324219e+01 1.261806190013885498e-01 6.609224319458007812e+00 2.020621538162231445e+00 -5.404532551765441895e-01
1.566000000000000000e+03 7.707283782958984375e+01 -1.104198646545410156e+01 1.006415486335754395e-01 6.195271015167236328e+00 1.888773679733276367e+00 -3.529774248600006104e-01
1.567000000000000000e+03 7.598222351074218750e+01 -1.647622871398925781e+01 1.322047132998704910e-02 7.036847591400146484e+00 2.115020513534545898e+00 -6.624987721443176270e-01
1.568000000000000000e+03 7.501109600067138672e+00 1.329586124420166016e+01 -4.054320976138114929e-03 1.024405006319284439e-02 1.856918795965611935e-03 8.522513322532176971e-03
1.569000000000000000e+03 1.143755722045898438e+01 8.135171890258789062e+00 -8.813986787572503090e-04 -2.265795832499861717e-03 -9.441583533771336079e-04 -1.493492629379034042e-03
1.570000000000000000e+03 1.297501087188720703e+01 7.369029521942138672e+00 -1.922182971611618996e-03 -1.299470080994069576e-03 -9.664958924986422062e-04 -1.369175035506486893e-03
1.571000000000000000e+03 1.919046974182128906e+01 1.410465335845947266e+01 -6.791403293609619141e-01 -1.161967992782592773e+00 -5.523325204849243164e-01 6.622742414474487305e-01
1.572000000000000000e+03 3.480336666107177734e+00 3.581325912475585938e+01 5.461983755230903625e-02 -8.434329628944396973e-01 -2.366439402103424072e-01 1.294534355401992798e-01
1.573000000000000000e+03 2.006965637207031250e+00 2.749596977233886719e+01 -4.122677259147167206e-03 -4.204497039318084717e-01 -1.273717135190963745e-01 1.617451012134552002e-01
1.574000000000000000e+03 3.421002626419067383e+00 3.008407592773437500e+01 2.320488728582859039e-02 -5.918047428131103516e-01 -1.705799549818038940e-01 2.347097694873809814e-01
1.575000000000000000e+03 1.997631430625915527e+00 2.610243034362792969e+01 -2.862639492377638817e-03 -3.285070955753326416e-01 -9.941092133522033691e-02 1.545143425464630127e-01
1.576000000000000000e+03 3.376015424728393555e+00 2.739004516601562500e+01 2.691331319510936737e-03 -4.536159336566925049e-01 -1.352773755788803101e-01 2.500917315483093262e-01
1.577000000000000000e+03 6.775610923767089844e+00 3.115687751770019531e+01 1.024593412876129150e-01 -6.466988921165466309e-01 -1.632718741893768311e-01 3.269166648387908936e-01
1.578000000000000000e+03 3.558356761932373047e+00 3.144471740722656250e+01 3.579047322273254395e-02 -6.582571864128112793e-01 -1.867400109767913818e-01 2.172831743955612183e-01
1.579000000000000000e+03 3.411570310592651367e+00 2.873571586608886719e+01 1.065688394010066986e-02 -5.218001604080200195e-01 -1.533429771661758423e-01 2.412843704223632812e-01
1.580000000000000000e+03 3.796383142471313477e+00 3.437321472167968750e+01 6.014505028724670410e-02 -7.679803371429443359e-01 -2.123505920171737671e-01 1.716512739658355713e-01
1.581000000000000000e+03 3.839062452316284180e+00 3.287184143066406250e+01 4.897742718458175659e-02 -7.159514427185058594e-01 -2.000921964645385742e-01 2.036540806293487549e-01
1.582000000000000000e+03 3.496069431304931641e+00 -3.569432449340820312e+01 4.775977134704589844e-02 -6.938792467117309570e-01 -1.938358396291732788e-01 -9.696008265018463135e-02
1.583000000000000000e+03 4.012070178985595703e+00 -3.454261016845703125e+01 4.884183034300804138e-02 -6.256166696548461914e-01 -1.730324476957321167e-01 -1.372032463550567627e-01
1.584000000000000000e+03 3.714958906173706055e+00 -3.031272888183593750e+01 2.704927325248718262e-02 -5.145703554153442383e-01 -1.462563276290893555e-01 -1.882370263338088989e-01
1.585000000000000000e+03 2.138446569442749023e+00 -2.901692771911621094e+01 6.365779787302017212e-03 -4.774199724197387695e-01 -1.413162648677825928e-01 -1.306162029504776001e-01
1.586000000000000000e+03 4.856233596801757812e+00 -2.754148292541503906e+01 2.130686677992343903e-02 -4.173495769500732422e-01 -1.188128143548965454e-01 -2.561494410037994385e-01
1.587000000000000000e+03 3.329584598541259766e+00 2.313971328735351562e+01 -7.191275060176849365e-02 -1.963922977447509766e-01 -8.049151301383972168e-02 1.877520978450775146e-01
1.588000000000000000e+03 1.580526828765869141e+00 -1.344581222534179688e+01 1.780462102033197880e-03 3.195128170773386955e-03 1.492677140049636364e-03 5.927672609686851501e-03
1.589000000000000000e+03 1.801130294799804688e+00 2.046820068359375000e+01 -2.204791456460952759e-02 -2.058396115899085999e-02 -1.278956234455108643e-02 2.898654155433177948e-02
1.590000000000000000e+03 1.934065818786621094e+00 1.902564048767089844e+01 -1.641803793609142303e-02 -7.959390990436077118e-03 -7.313228677958250046e-03 8.359018713235855103e-03
1.591000000000000000e+03 5.614746093750000000e+00 1.833487510681152344e+01 -9.298193454742431641e-02 -4.951098561286926270e-02 -4.274787753820419312e-02 3.039197437465190887e-02
1.592000000000000000e+03 1.794340491294860840e+00 -1.894745635986328125e+01 -2.545444853603839874e-02 -1.081010699272155762e-02 -1.087936665862798691e-02 -1.547735463827848434e-02
1.593000000000000000e+03 3.594507217407226562e+00 -1.791560745239257812e+01 -4.875863343477249146e-02 -3.533377870917320251e-02 -2.522772364318370819e-02 -4.093312192708253860e-03
1.594000000000000000e+03 5.473562717437744141e+00 1.361848354339599609e+01 6.963142659515142441e-03 -1.388699002563953400e-02 -2.077154349535703659e-03 5.660628434270620346e-03
1.595000000000000000e+03 1.814151048660278320e+00 -2.182127761840820312e+01 -1.820640079677104950e-02 -9.692242741584777832e-02 -3.453864902257919312e-02 -7.789324969053268433e-02
1.596000000000000000e+03 6.912420749664306641e+00 -1.989973068237304688e+01 -2.446926534175872803e-01 -1.101758256554603577e-01 -1.064605414867401123e-01 -2.380885481834411621e-01
1.597000000000000000e+03 3.794433593750000000e+00 5.109592914581298828e+00 5.780963329016231000e-05 5.780918581876903772e-05 3.468564682407304645e-05 9.720494563225656748e-05
1.598000000000000000e+03 3.136108875274658203e+00 7.802369117736816406e+00 7.049428677419200540e-05 -2.331763971596956253e-05 1.415299448126461357e-05 -6.531729013659060001e-04
1.599000000000000000e+03 4.564836502075195312e+00 1.472766971588134766e+01 1.438482478260993958e-02 -2.087662369012832642e-02 -1.947539509274065495e-03 -1.015256624668836594e-03
1.600000000000000000e+03 1.899161934852600098e+00 1.752448463439941406e+01 -7.657195441424846649e-03 4.487375263124704361e-03 -9.509460069239139557e-04 -1.006098277866840363e-02
1.601000000000000000e+03 3.543807983398437500e+00 2.000625419616699219e+01 -7.062238454818725586e-02 -6.879300624132156372e-02 -4.182461649179458618e-02 6.030840426683425903e-02
1.602000000000000000e+03 2.956337213516235352e+00 9.125382423400878906e+00 2.149360487237572670e-03 -7.974065374583005905e-05 6.208859267644584179e-04 -7.530794828198850155e-04
1.603000000000000000e+03 2.759777069091796875e+00 -4.562060356140136719e+00 -2.810130245052278042e-04 2.807939308695495129e-04 -6.572459199105651351e-08 -1.959783694474026561e-04
1.604000000000000000e+03 1.935745000839233398e+00 -4.178648471832275391e+00 2.255260333186015487e-04 -3.436807892285287380e-04 -3.544642095221206546e-05 -9.258156205760315061e-05
1.605000000000000000e+03 2.703986883163452148e+00 -1.584811496734619141e+01 2.676293952390551567e-03 -1.060367561876773834e-02 -2.378214616328477859e-03 1.076815836131572723e-02
1.606000000000000000e+03 7.633508205413818359e+00 -9.281545639038085938e+00 -7.540395745309069753e-05 1.777446712367236614e-03 5.106128519400954247e-04 -8.446782012470066547e-04
1.607000000000000000e+03 3.551085948944091797e+00 -2.893171882629394531e+01 2.033147402107715607e-02 -4.620552062988281250e-01 -1.325171291828155518e-01 -1.955233216285705566e-01
1.608000000000000000e+03 5.061992168426513672e+00 -2.353149223327636719e+01 -6.526914238929748535e-02 -2.575030326843261719e-01 -9.683164954185485840e-02 -2.599343061447143555e-01
1.609000000000000000e+03 4.401773929595947266e+00 -3.777162551879882812e+01 4.895177856087684631e-02 -7.047762870788574219e-01 -1.967473626136779785e-01 -9.943632781505584717e-02
1.610000000000000000e+03 2.817591667175292969e+00 -7.988096714019775391e+00 7.422848721034824848e-04 -2.665787469595670700e-04 1.427118259016424417e-04 4.871213168371468782e-04
1.611000000000000000e+03 2.732662916183471680e+00 -3.467926025390625000e+01 2.540714666247367859e-02 -7.043333053588867188e-01 -2.036778479814529419e-01 -9.142249822616577148e-02
1.612000000000000000e+03 5.472904682159423828e+00 -3.493355178833007812e+01 8.071171492338180542e-02 -5.943221449851989746e-01 -1.540831327438354492e-01 -1.574022024869918823e-01
1.613000000000000000e+03 2.790962219238281250e+00 -2.028486633300781250e+01 -5.145614966750144958e-02 -7.260197401046752930e-02 -3.721743822097778320e-02 -7.596530020236968994e-02
1.614000000000000000e+03 1.933809041976928711e+00 -2.328464889526367188e+01 -1.517442241311073303e-02 -1.680409610271453857e-01 -5.496461316943168640e-02 -1.078068017959594727e-01
1.615000000000000000e+03 3.382830858230590820e+00 -2.620906066894531250e+01 -1.098985900171101093e-03 -3.464946746826171875e-01 -1.042780950665473938e-01 -2.022289335727691650e-01
1.616000000000000000e+03 2.626386642456054688e+00 -1.464630889892578125e+01 5.229447502642869949e-03 -7.327709347009658813e-03 -6.294785998761653900e-04 9.456563740968704224e-03
1.617000000000000000e+03 2.640129089355468750e+00 -1.346932220458984375e+01 5.155568942427635193e-03 -2.507376018911600113e-03 7.944579701870679855e-04 5.999058950692415237e-03
1.618000000000000000e+03 5.953611850738525391e+00 -9.978261947631835938e+00 3.990172117482870817e-04 1.356190070509910583e-03 5.265621584840118885e-04 -5.591293447650969028e-04
1.619000000000000000e+03 2.944764375686645508e+00 1.041838359832763672e+01 1.139687839895486832e-03 -2.320077910553663969e-04 2.723040233831852674e-04 -2.286698669195175171e-03
1.620000000000000000e+03 3.309187889099121094e+00 1.452604961395263672e+01 9.720655158162117004e-03 -1.358243823051452637e-02 -1.158535014837980270e-03 -8.572546765208244324e-03
1.621000000000000000e+03 6.894180774688720703e+00 1.673514938354492188e+01 -5.231978371739387512e-03 -1.158191449940204620e-02 -5.044167861342430115e-03 1.674519851803779602e-02
1.622000000000000000e+03 5.667099475860595703e+00 1.682124137878417969e+01 -2.027317881584167480e-02 -3.856103122234344482e-02 -1.765026338398456573e-02 1.100368797779083252e-02
1.623000000000000000e+03 4.378715991973876953e+00 1.712300872802734375e+01 -2.092417702078819275e-02 -4.737159609794616699e-02 -2.048873156309127808e-02 2.995952730998396873e-03
1.624000000000000000e+03 5.395406723022460938e+00 1.550894832611083984e+01 5.620713345706462860e-03 -3.411753475666046143e-02 -8.549046702682971954e-03 6.561719346791505814e-03
1.625000000000000000e+03 7.492813110351562500e+00 1.518999862670898438e+01 4.810089594684541225e-04 2.124259248375892639e-02 6.517080590128898621e-03 2.392089180648326874e-02
1.626000000000000000e+03 4.147433280944824219e+00 -9.326597213745117188e+00 1.670749625191092491e-03 -1.221047248691320419e-03 1.349107042187824845e-04 3.092193219345062971e-04
1.627000000000000000e+03 9.280755996704101562e+00 -7.090604782104492188e+00 3.537265729391947389e-05 8.586061303503811359e-04 2.681936312001198530e-04 -3.446599293965846300e-04
1.628000000000000000e+03 8.393378257751464844e+00 -8.115567207336425781e+00 2.625193155836313963e-04 -1.085054478608071804e-03 -2.467605518177151680e-04 3.538939345162361860e-04
1.629000000000000000e+03 1.196052551269531250e+01 7.127282619476318359e+00 1.215816126205027103e-03 1.719691092148423195e-03 8.806521655060350895e-04 1.460951985791325569e-03
1.630000000000000000e+03 2.145528030395507812e+01 4.559323310852050781e+00 -1.985553205013275146e-01 -6.840371489524841309e-01 -2.647777497768402100e-01 5.241934061050415039e-01
1.631000000000000000e+03 1.574357128143310547e+01 1.890781402587890625e+01 -5.657336115837097168e-01 -1.167971968650817871e+00 -5.201116800308227539e-01 5.878495573997497559e-01
1.632000000000000000e+03 2.201097869873046875e+01 9.912306070327758789e-01 -1.312976479530334473e-01 -3.956534862518310547e-01 -1.580853313207626343e-01 4.079255759716033936e-01
1.633000000000000000e+03 2.326570892333984375e+01 4.561667442321777344e+00 -2.632754147052764893e-01 -4.967524707317352295e-01 -2.280083596706390381e-01 6.256759166717529297e-01
1.634000000000000000e+03 1.891460227966308594e+01 1.782801628112792969e+01 -4.868307411670684814e-01 -9.346264004707336426e-01 -4.264371395111083984e-01 4.368413388729095459e-01
1.635000000000000000e+03 1.947631263732910156e+01 1.254329109191894531e+01 -6.064908504486083984e-01 -1.236980676651000977e+00 -5.530414581298828125e-01 7.037826180458068848e-01
1.636000000000000000e+03 1.690567970275878906e+01 -1.422238254547119141e+01 -5.136710405349731445e-01 -2.801926732063293457e-01 -2.381591051816940308e-01 -4.439244568347930908e-01
1.637000000000000000e+03 1.754711341857910156e+01 -1.305631065368652344e+01 -4.976839125156402588e-01 -2.181373089551925659e-01 -2.147463709115982056e-01 -4.328525364398956299e-01
1.638000000000000000e+03 1.554565811157226562e+01 -1.669870376586914062e+01 -5.049247145652770996e-01 -3.666664361953735352e-01 -2.614773511886596680e-01 -4.394399225711822510e-01
1.639000000000000000e+03 2.029546356201171875e+01 8.369014739990234375e+00 -3.610219359397888184e-01 -1.121654391288757324e+00 -4.448028802871704102e-01 6.291394233703613281e-01
1.640000000000000000e+03 2.087071800231933594e+01 1.132144355773925781e+01 -5.355432629585266113e-01 -9.598409533500671387e-01 -4.486152827739715576e-01 6.496958136558532715e-01
1.641000000000000000e+03 1.092168903350830078e+01 -1.961736297607421875e+01 -3.096714317798614502e-01 -5.491288304328918457e-01 -2.576400935649871826e-01 -3.834972977638244629e-01
1.642000000000000000e+03 1.389093494415283203e+01 -2.016739654541015625e+01 -2.816174030303955078e-01 -4.365014731884002686e-01 -2.154356539249420166e-01 -3.732488751411437988e-01
1.643000000000000000e+03 1.235618400573730469e+01 2.136398124694824219e+01 -3.147843480110168457e-01 -8.907231688499450684e-01 -3.616522550582885742e-01 6.290922760963439941e-01
1.644000000000000000e+03 1.121731090545654297e+01 2.017872238159179688e+01 -5.958080887794494629e-01 -7.242668867111206055e-01 -3.960224688053131104e-01 6.596190929412841797e-01
1.645000000000000000e+03 5.345424175262451172e+00 -9.132494926452636719e+00 6.694041658192873001e-04 5.871162284165620804e-04 3.769561008084565401e-04 -1.377769629471004009e-03
1.646000000000000000e+03 5.311672210693359375e+00 -1.105327129364013672e+01 3.118609776720404625e-03 -2.612213836982846260e-03 1.519187644589692354e-04 -2.851488767191767693e-03
1.647000000000000000e+03 5.238935470581054688e+00 4.004957199096679688e+01 5.936599895358085632e-02 -8.274592757225036621e-01 -2.304279804229736328e-01 8.206259459257125854e-02
1.648000000000000000e+03 5.251784896850585938e+01 -8.886512756347656250e+00 7.727711796760559082e-01 1.313188910484313965e+00 6.257880330085754395e-01 2.015044689178466797e+00
1.649000000000000000e+03 5.521149826049804688e+01 -8.728425979614257812e+00 1.801910877227783203e+00 9.082205772399902344e+00 3.265234947204589844e+00 5.694968223571777344e+00
1.650000000000000000e+03 5.469248199462890625e+01 -8.566167831420898438e+00 2.436218976974487305e+00 5.981390476226806641e+00 2.525282859802246094e+00 5.304997444152832031e+00
1.651000000000000000e+03 5.450563049316406250e+01 -4.280078411102294922e+00 2.641247272491455078e+00 4.874449729919433594e+00 2.254709005355834961e+00 -4.955048084259033203e+00
1.652000000000000000e+03 5.429787445068359375e+01 -4.336647987365722656e+00 2.468836784362792969e+00 3.917664051055908203e+00 1.915950179100036621e+00 -4.419723033905029297e+00
1.653000000000000000e+03 5.501112365722656250e+01 -4.232188701629638672e+00 2.327165126800537109e+00 7.703722476959228516e+00 3.009266376495361328e+00 -5.777794361114501953e+00
1.654000000000000000e+03 5.406820297241210938e+01 -4.363877296447753906e+00 2.263782739639282227e+00 3.249634027481079102e+00 1.654025077819824219e+00 -3.885241508483886719e+00
1.655000000000000000e+03 5.383600997924804688e+01 -4.328712463378906250e+00 1.946421742439270020e+00 2.641348838806152344e+00 1.376331210136413574e+00 -3.403429269790649414e+00
1.656000000000000000e+03 5.544578170776367188e+01 -8.810833930969238281e+00 1.433906197547912598e+00 1.057037162780761719e+01 3.601283311843872070e+00 5.685239791870117188e+00
1.657000000000000000e+03 5.570594024658203125e+01 -4.378534317016601562e+00 1.597218275070190430e+00 1.283530998229980469e+01 4.329758167266845703e+00 -6.013085842132568359e+00
1.658000000000000000e+03 5.804581069946289062e+01 -7.585455417633056641e+00 6.102498054504394531e+00 1.633697891235351562e+01 6.731842994689941406e+00 -2.261520624160766602e+00
1.659000000000000000e+03 5.723349380493164062e+01 -5.147193908691406250e+00 4.609434604644775391e+00 2.023956489562988281e+01 7.454699993133544922e+00 1.796424388885498047e+00
1.660000000000000000e+03 5.730528259277343750e+01 -8.087782859802246094e+00 2.723214864730834961e+00 1.860811233520507812e+01 6.399398326873779297e+00 -7.708069682121276855e-01
1.661000000000000000e+03 5.739364624023437500e+01 -4.739754199981689453e+00 3.112920284271240234e+00 1.862387657165527344e+01 6.521039009094238281e+00 1.110410094261169434e+00
1.662000000000000000e+03 5.751394653320312500e+01 -4.949988365173339844e+00 4.308585166931152344e+00 1.859184074401855469e+01 6.870128154754638672e+00 1.809080958366394043e+00
1.663000000000000000e+03 5.637776565551757812e+01 -4.122921943664550781e+00 5.495094060897827148e-01 1.602566337585449219e+01 4.972551822662353516e+00 -3.725660800933837891e+00
1.664000000000000000e+03 5.695181274414062500e+01 -8.545852661132812500e+00 1.106646060943603516e+00 1.805527305603027344e+01 5.748575687408447266e+00 1.185783624649047852e+00
1.665000000000000000e+03 5.192628097534179688e+01 -9.057312011718750000e+00 4.603838920593261719e-01 1.032262206077575684e+00 4.477938413619995117e-01 1.653831839561462402e+00
1.666000000000000000e+03 5.145930099487304688e+01 -3.791012048721313477e+00 9.350337833166122437e-02 7.122971415519714355e-01 2.417401522397994995e-01 -1.285332918167114258e+00
1.667000000000000000e+03 4.995186614990234375e+01 -2.695972681045532227e+00 1.959561370313167572e-02 7.278707623481750488e-01 2.242399156093597412e-01 -1.070034742355346680e+00
1.668000000000000000e+03 5.246265792846679688e+01 -3.689758539199829102e+00 8.823304772377014160e-01 1.454801201820373535e+00 7.011395096778869629e-01 -2.157302379608154297e+00
1.669000000000000000e+03 5.071926116943359375e+01 -3.022473096847534180e+00 1.972188502550125122e-01 8.556893467903137207e-01 3.158724606037139893e-01 -1.294313549995422363e+00
1.670000000000000000e+03 4.986506652832031250e+01 -3.186122894287109375e+00 -3.163542747497558594e-01 5.136180520057678223e-01 5.917911976575851440e-02 -8.353811502456665039e-01
1.671000000000000000e+03 2.225821876525878906e+01 3.592138528823852539e+00 -1.971925646066665649e-01 -5.450432300567626953e-01 -2.226707488298416138e-01 5.340759754180908203e-01
1.672000000000000000e+03 2.556501770019531250e+01 -3.518839597702026367e+00 -3.611343502998352051e-01 -6.183846667408943176e-02 -1.268918365240097046e-01 3.050647675991058350e-01
1.673000000000000000e+03 2.442629814147949219e+01 -2.670413732528686523e+00 -2.722077965736389160e-01 -1.118223816156387329e-01 -1.152090504765510559e-01 3.270746469497680664e-01
1.674000000000000000e+03 2.017508506774902344e+01 -1.204290151596069336e+00 -3.847788274288177490e-02 -2.257726788520812988e-01 -7.927516847848892212e-02 1.532983332872390747e-01
1.675000000000000000e+03 2.693204498291015625e+01 -3.619629621505737305e+00 -4.721152484416961670e-01 -3.860183432698249817e-02 -1.532151252031326294e-01 3.302312493324279785e-01
1.676000000000000000e+03 2.507846260070800781e+01 -2.798953294754028320e+00 -3.190532624721527100e-01 -9.392974525690078735e-02 -1.238949000835418701e-01 3.430156409740447998e-01
1.677000000000000000e+03 2.831138610839843750e+01 -3.650997638702392578e+00 -5.895712971687316895e-01 -1.985865645110607147e-02 -1.828289926052093506e-01 3.507717549800872803e-01
1.678000000000000000e+03 2.705945014953613281e+01 -2.977277517318725586e+00 -4.672143161296844482e-01 -5.029164627194404602e-02 -1.552517861127853394e-01 3.847584426403045654e-01
1.679000000000000000e+03 8.534979820251464844e+00 4.268053054809570312e+00 2.837151696439832449e-04 1.220301375724375248e-03 4.512049490585923195e-04 6.877182167954742908e-04
1.680000000000000000e+03 2.772507476806640625e+01 -2.987823963165283203e+00 -5.200356245040893555e-01 -3.811452537775039673e-02 -1.674450486898422241e-01 3.961247503757476807e-01
1.681000000000000000e+03 2.972242927551269531e+01 -3.656163454055786133e+00 -7.137081623077392578e-01 -4.104409832507371902e-03 -2.153437584638595581e-01 3.646080493927001953e-01
1.682000000000000000e+03 9.615055084228515625e+00 -3.100569248199462891e+00 -4.163930134382098913e-05 1.340904273092746735e-04 2.773533924482762814e-05 5.091255297884345055e-04
1.683000000000000000e+03 8.989277839660644531e+00 -3.251008749008178711e+00 2.340497076147585176e-06 -9.347251761937513947e-05 -2.733960536716040224e-05 -3.145968075841665268e-04
1.684000000000000000e+03 7.785014629364013672e+00 4.254483222961425781e+00 -1.038092741509899497e-04 -9.983039926737546921e-04 -3.306339785922318697e-04 -6.428697961382567883e-04
1.685000000000000000e+03 7.620382785797119141e+00 5.122464656829833984e+00 3.401366993784904480e-04 1.333842985332012177e-03 5.021939286962151527e-04 5.556385731324553490e-04
1.686000000000000000e+03 5.108984947204589844e+00 3.923578262329101562e+00 -1.337245794275077060e-05 -6.296260398812592030e-04 -1.928995479829609394e-04 -1.283047895412892103e-04
1.687000000000000000e+03 2.469218254089355469e+00 4.626909255981445312e+00 -2.410266170045360923e-04 -1.793961127987131476e-04 -1.261268189409747720e-04 2.059105900116264820e-04
1.688000000000000000e+03 4.471676349639892578e+00 5.783198833465576172e+00 3.019004943780601025e-04 -6.694104376947507262e-05 7.048783299978822470e-05 -1.218431207234971225e-04
1.689000000000000000e+03 3.179992198944091797e+00 3.474910736083984375e+00 -1.097515560104511678e-04 -4.284515161998569965e-04 -1.614609209354966879e-04 1.838544849306344986e-04
1.690000000000000000e+03 1.468983411788940430e+00 4.894766330718994141e+00 3.039891016669571400e-04 -1.743066968629136682e-05 8.596752741141244769e-05 4.509618156589567661e-05
1.691000000000000000e+03 1.705662250518798828e+00 3.321431159973144531e+00 -2.604305336717516184e-04 -1.700904686003923416e-04 -1.291562948608770967e-04 8.262932169600389898e-06
1.692000000000000000e+03 3.117046737670898438e+01 -3.632458448410034180e+00 -8.428962230682373047e-01 8.741720579564571381e-03 -2.502463459968566895e-01 3.726328611373901367e-01
1.693000000000000000e+03 3.050053977966308594e+01 -3.000227689743041992e+00 -7.372427582740783691e-01 6.712403264828026295e-04 -2.209714502096176147e-01 4.247581064701080322e-01
1.694000000000000000e+03 2.526702880859375000e+01 -2.184761285781860352e+00 -3.290659785270690918e-01 -1.082941368222236633e-01 -1.312080323696136475e-01 3.923173844814300537e-01
1.695000000000000000e+03 2.314718055725097656e+01 -2.305052280426025391e+00 -1.861859261989593506e-01 -1.518518775701522827e-01 -1.014113426208496094e-01 2.881605923175811768e-01
1.696000000000000000e+03 2.856242179870605469e+01 -1.649052262306213379e+00 -5.226023197174072266e-01 -4.360899329185485840e-02 -1.698634028434753418e-01 5.046442747116088867e-01
1.697000000000000000e+03 3.263643646240234375e+01 -3.576924800872802734e+00 -9.706540107727050781e-01 1.806238852441310883e-02 -2.857774794101715088e-01 3.754328191280364990e-01
1.698000000000000000e+03 2.985235404968261719e+01 -2.353633642196655273e+00 -6.461415886878967285e-01 -1.171083003282546997e-02 -1.973557174205780029e-01 4.696332216262817383e-01
1.699000000000000000e+03 7.502516269683837891e+00 -3.352208375930786133e+00 6.686271262879017740e-06 6.246284465305507183e-05 2.074473377433605492e-05 -3.177110047545284033e-04
1.700000000000000000e+03 1.073183345794677734e+01 -5.220705509185791016e+00 1.037780457409098744e-04 4.632205236703157425e-04 1.700995780993252993e-04 -3.186165122315287590e-04
1.701000000000000000e+03 3.411660003662109375e+01 -3.504688501358032227e+00 -1.092346429824829102e+00 2.396727725863456726e-02 -3.205137550830841064e-01 3.732057511806488037e-01
1.702000000000000000e+03 3.267350006103515625e+01 -2.905695676803588867e+00 -8.991793990135192871e-01 2.133798412978649139e-02 -2.633524239063262939e-01 4.307808578014373779e-01
1.703000000000000000e+03 3.560686111450195312e+01 -3.438872575759887695e+00 -1.206527471542358398e+00 2.814954146742820740e-02 -3.535133898258209229e-01 3.648138642311096191e-01
1.704000000000000000e+03 3.194424057006835938e+01 -2.950325250625610352e+00 -8.468981981277465820e-01 1.527502480894327164e-02 -2.494869530200958252e-01 4.300326108932495117e-01
1.705000000000000000e+03 4.577691268920898438e+01 -1.046285343170166016e+01 -1.000917434692382812e+00 2.104565948247909546e-01 -2.371382564306259155e-01 1.548179239034652710e-01
1.706000000000000000e+03 4.209067153930664062e+01 -1.049074745178222656e+01 -1.354001522064208984e+00 7.066715508699417114e-02 -3.850003182888031006e-01 -1.501914411783218384e-01
1.707000000000000000e+03 4.653236389160156250e+01 -1.043868732452392578e+01 -8.819330930709838867e-01 2.656569182872772217e-01 -1.848828494548797607e-01 2.635528743267059326e-01
1.708000000000000000e+03 4.276802444458007812e+01 -1.121241474151611328e+01 -1.042841315269470215e+00 1.283106505870819092e-01 -2.743591964244842529e-01 -5.878551676869392395e-02
1.709000000000000000e+03 4.880848693847656250e+01 -1.042144393920898438e+01 -3.181163370609283447e-01 5.571519732475280762e-01 7.171069085597991943e-02 7.666088342666625977e-01
1.710000000000000000e+03 3.988510513305664062e+01 -1.051914787292480469e+01 -1.406418085098266602e+00 3.686698526144027710e-02 -4.108653366565704346e-01 -2.411157339811325073e-01
1.711000000000000000e+03 3.341949844360351562e+01 -2.167143821716308594e+00 -8.623967766761779785e-01 3.224446997046470642e-02 -2.490456849336624146e-01 4.749279916286468506e-01
1.712000000000000000e+03 5.078351211547851562e+01 -1.014759254455566406e+01 3.228810429573059082e-01 1.104550600051879883e+00 4.282294809818267822e-01 1.504406690597534180e+00
1.713000000000000000e+03 3.711186599731445312e+01 -3.394227981567382812e+00 -1.312640190124511719e+00 3.115421719849109650e-02 -3.844458162784576416e-01 3.477063477039337158e-01
1.714000000000000000e+03 3.565063476562500000e+01 -2.719979286193847656e+00 -1.079852700233459473e+00 3.743370249867439270e-02 -3.127256929874420166e-01 4.154734313488006592e-01
1.715000000000000000e+03 3.915798950195312500e+01 -1.054249095916748047e+01 -1.406512975692749023e+00 2.849457785487174988e-02 -4.134055376052856445e-01 -2.600398659706115723e-01
1.716000000000000000e+03 4.055692672729492188e+01 -1.121897792816162109e+01 -1.165403008460998535e+00 7.810321450233459473e-02 -3.261899352073669434e-01 -2.038100808858871460e-01
1.717000000000000000e+03 4.214635848999023438e+01 -9.776205062866210938e+00 -1.635356307029724121e+00 4.248058050870895386e-02 -4.778627157211303711e-01 -1.802944839000701904e-01
1.718000000000000000e+03 4.510861206054687500e+01 -9.736143112182617188e+00 -1.457844614982604980e+00 1.059163734316825867e-01 -4.055784642696380615e-01 -1.371852960437536240e-02
1.719000000000000000e+03 4.430127716064453125e+01 -1.046785068511962891e+01 -1.195317506790161133e+00 1.442490071058273315e-01 -3.153205513954162598e-01 -2.035675803199410439e-03
1.720000000000000000e+03 4.728765869140625000e+01 -1.041552448272705078e+01 -7.286089658737182617e-01 3.286798894405364990e-01 -1.199787184596061707e-01 3.931188583374023438e-01
1.721000000000000000e+03 4.804374694824218750e+01 -1.040502262115478516e+01 -5.456402301788330078e-01 4.276839494705200195e-01 -3.538689017295837402e-02 5.569397807121276855e-01
1.722000000000000000e+03 4.061395645141601562e+01 -1.050506019592285156e+01 -1.401280999183654785e+00 4.631607979536056519e-02 -4.064894616603851318e-01 -2.191011458635330200e-01
1.723000000000000000e+03 3.919076538085937500e+01 -9.839138984680175781e+00 -1.634704589843750000e+00 1.423689350485801697e-02 -4.861403107643127441e-01 -2.586498260498046875e-01
1.724000000000000000e+03 3.625452423095703125e+01 -9.962366104125976562e+00 -1.526323914527893066e+00 -4.193000961095094681e-03 -4.591550827026367188e-01 -2.997753322124481201e-01
1.725000000000000000e+03 3.843593597412109375e+01 -1.058002948760986328e+01 -1.397623896598815918e+00 2.332148142158985138e-02 -4.122907221317291260e-01 -2.791727185249328613e-01
1.726000000000000000e+03 3.786305999755859375e+01 -3.378192901611328125e+00 -1.361513614654541016e+00 3.210735321044921875e-02 -3.988218605518341064e-01 3.356833159923553467e-01
1.727000000000000000e+03 3.568195724487304688e+01 -1.989060997962951660e+00 -9.541650414466857910e-01 5.027663335204124451e-02 -2.711665034294128418e-01 4.540739059448242188e-01
1.728000000000000000e+03 3.550215911865234375e+01 -9.993197441101074219e+00 -1.489405035972595215e+00 -8.318665437400341034e-03 -4.493170976638793945e-01 -3.086746633052825928e-01
1.729000000000000000e+03 3.699688339233398438e+01 -1.141815853118896484e+01 -1.163047909736633301e+00 2.918442524969577789e-02 -3.401590585708618164e-01 -3.175818026065826416e-01
1.730000000000000000e+03 4.907990264892578125e+01 -3.601493120193481445e+00 -9.113075137138366699e-01 2.597659230232238770e-01 -1.954624652862548828e-01 -4.331808686256408691e-01
1.731000000000000000e+03 1.098949050903320312e+01 3.434194564819335938e+00 6.695477641187608242e-04 5.254673305898904800e-04 3.585045342333614826e-04 8.792653097771108150e-04
1.732000000000000000e+03 1.166151428222656250e+01 5.066998958587646484e+00 -7.188689196482300758e-04 -1.303472556173801422e-03 -6.067024660296738148e-04 -1.721716835163533688e-03
1.733000000000000000e+03 4.011379623413085938e+01 -3.342910051345825195e+00 -1.475838899612426758e+00 3.630119934678077698e-02 -4.318613111972808838e-01 2.888820469379425049e-01
1.734000000000000000e+03 3.942417144775390625e+01 -2.648564338684082031e+00 -1.242861866950988770e+00 5.330570787191390991e-02 -3.568668365478515625e-01 3.333082795143127441e-01
1.735000000000000000e+03 3.867572021484375000e+01 -2.654160499572753906e+00 -1.220844864845275879e+00 5.015221610665321350e-02 -3.512077927589416504e-01 3.548728823661804199e-01
1.736000000000000000e+03 4.689668655395507812e+01 -3.344350337982177734e+00 -1.253301978111267090e+00 1.400537937879562378e-01 -3.339744210243225098e-01 -1.135707795619964600e-01
1.737000000000000000e+03 4.395334243774414062e+01 -2.575984477996826172e+00 -1.163713693618774414e+00 1.181138381361961365e-01 -3.136799335479736328e-01 9.975040704011917114e-02
1.738000000000000000e+03 4.243403625488281250e+01 -2.614150524139404297e+00 -1.246714830398559570e+00 8.438143879175186157e-02 -3.487000167369842529e-01 2.047690153121948242e-01
1.739000000000000000e+03 4.615275573730468750e+01 -3.297932147979736328e+00 -1.329938173294067383e+00 1.161300987005233765e-01 -3.641424477100372314e-01 -3.363559022545814514e-02
1.740000000000000000e+03 4.624587249755859375e+01 -2.590050458908081055e+00 -9.278720617294311523e-01 2.087472826242446899e-01 -2.157374322414398193e-01 -1.496695280075073242e-01
1.741000000000000000e+03 3.641014862060546875e+01 -2.693584203720092773e+00 -1.120352506637573242e+00 4.156515374779701233e-02 -3.236362040042877197e-01 4.047823548316955566e-01
1.742000000000000000e+03 3.317610549926757812e+01 -1.082896327972412109e+01 -1.205757975578308105e+00 -1.378673966974020004e-02 -3.658634126186370850e-01 -3.596056401729583740e-01
1.743000000000000000e+03 3.395880508422851562e+01 -1.078763389587402344e+01 -1.243341088294982910e+00 -9.274599142372608185e-03 -3.757846951484680176e-01 -3.514946401119232178e-01
1.744000000000000000e+03 4.167632675170898438e+01 -2.626658916473388672e+00 -1.263505458831787109e+00 7.399449497461318970e-02 -3.568533062934875488e-01 2.453704923391342163e-01
1.745000000000000000e+03 4.775067138671875000e+01 -2.773534536361694336e+00 -7.368615865707397461e-01 2.977591753005981445e-01 -1.317307204008102417e-01 -3.688081204891204834e-01
1.746000000000000000e+03 4.700082015991210938e+01 -2.660572528839111328e+00 -8.333242535591125488e-01 2.467533946037292480e-01 -1.759712547063827515e-01 -2.499232739210128784e-01
1.747000000000000000e+03 4.548627471923828125e+01 -2.562345504760742188e+00 -1.021177172660827637e+00 1.752839684486389160e-01 -2.537679374217987061e-01 -5.317534506320953369e-02
1.748000000000000000e+03 4.323223495483398438e+01 -1.902487993240356445e+00 -9.475020766258239746e-01 1.531656533479690552e-01 -2.383009344339370728e-01 1.161469072103500366e-01
1.749000000000000000e+03 4.472004318237304688e+01 -2.561920404434204102e+00 -1.097000241279602051e+00 1.480057835578918457e-01 -2.846983373165130615e-01 3.107825107872486115e-02
1.750000000000000000e+03 3.625314331054687500e+01 -1.068990135192871094e+01 -1.338445305824279785e+00 5.433394573628902435e-03 -3.999035656452178955e-01 -3.233138918876647949e-01
1.751000000000000000e+03 2.925213813781738281e+01 -1.099701595306396484e+01 -9.876378774642944336e-01 -9.261643514037132263e-03 -2.990698516368865967e-01 -3.943678736686706543e-01
1.752000000000000000e+03 3.004586601257324219e+01 -1.097547912597656250e+01 -1.032148957252502441e+00 -1.242923550307750702e-02 -3.133734464645385742e-01 -3.882811665534973145e-01
1.753000000000000000e+03 3.165380668640136719e+01 -1.014932155609130859e+01 -1.256433486938476562e+00 -1.783416979014873505e-02 -3.822802901268005371e-01 -3.333279192447662354e-01
1.754000000000000000e+03 3.162177085876464844e+01 -1.091383361816406250e+01 -1.121760368347167969e+00 -1.543672103434801102e-02 -3.411591053009033203e-01 -3.750093579292297363e-01
1.755000000000000000e+03 1.081092739105224609e+01 5.026244163513183594e+00 3.136501472909003496e-04 1.661811838857829571e-03 5.926386220380663872e-04 1.339032663963735104e-03
1.756000000000000000e+03 2.691674995422363281e+01 -1.093331813812255859e+01 -8.618552088737487793e-01 3.919366747140884399e-03 -2.573807537555694580e-01 -4.032042026519775391e-01
1.757000000000000000e+03 9.829236984252929688e+00 -4.724896430969238281e+00 1.873378205345943570e-04 -7.739968132227659225e-04 -1.759976876201108098e-04 2.447454317007213831e-04
1.758000000000000000e+03 4.577967643737792969e+00 -3.581521511077880859e+00 -1.168695871456293389e-05 -2.606276211736258119e-05 -1.132491615862818435e-05 -3.299278323538601398e-04
1.759000000000000000e+03 6.216944694519042969e+00 -4.846263885498046875e+00 -8.841831731842830777e-05 2.142050361726433039e-04 3.773601565626449883e-05 -2.616316778585314751e-04
1.760000000000000000e+03 6.856917858123779297e+00 -4.732032299041748047e+00 2.325194800505414605e-04 -1.611493353266268969e-04 2.141104596375953406e-05 4.025066446047276258e-04
1.761000000000000000e+03 8.266239166259765625e+00 -3.343564033508300781e+00 -3.651373117463663220e-05 4.318515493650920689e-05 2.001427446884918027e-06 3.830856585409492254e-04
1.762000000000000000e+03 4.070339679718017578e+00 -7.941002368927001953e+00 3.279733355157077312e-04 3.582555509638041258e-04 2.058686659438535571e-04 -4.318846622481942177e-04
1.763000000000000000e+03 3.202506542205810547e+00 -3.972609281539916992e+00 -6.630842108279466629e-05 -1.298835268244147301e-04 -5.885758218937553465e-05 -3.398182452656328678e-04
1.764000000000000000e+03 3.605916976928710938e+00 -5.607694149017333984e+00 -3.772897252929396927e-05 3.695677150972187519e-05 -2.316609197805519216e-07 -3.733763005584478378e-04
1.765000000000000000e+03 2.661446094512939453e+00 -5.569612503051757812e+00 2.402399259153753519e-04 -5.120173591421917081e-05 5.671145845553837717e-05 2.556486288085579872e-04
1.766000000000000000e+03 3.083816719055175781e+01 -1.094712257385253906e+01 -1.076844930648803711e+00 -1.358630787581205368e-02 -3.271293938159942627e-01 -3.814412951469421387e-01
1.767000000000000000e+03 2.854727363586425781e+01 -1.019382572174072266e+01 -1.044125556945800781e+00 -1.029720995575189590e-02 -3.163268268108367920e-01 -3.468309640884399414e-01
1.768000000000000000e+03 2.305986213684082031e+01 -1.070688152313232422e+01 -6.495347023010253906e-01 2.418189495801925659e-02 -1.876058429479598999e-01 -3.943307101726531982e-01
1.769000000000000000e+03 2.381831932067871094e+01 -1.075297927856445312e+01 -6.905689239501953125e-01 2.301096543669700623e-02 -2.002673745155334473e-01 -3.994672298431396484e-01
1.770000000000000000e+03 2.071797943115234375e+01 -2.002632617950439453e+00 -5.543518066406250000e-02 -1.792575418949127197e-01 -7.040781527757644653e-02 1.563790589570999146e-01
1.771000000000000000e+03 2.544219398498535156e+01 -1.006960105895996094e+01 -8.247621059417724609e-01 1.272608432918787003e-02 -2.436107993125915527e-01 -3.510640263557434082e-01
1.772000000000000000e+03 4.918411254882812500e+01 -3.057626485824584961e+00 -4.900640547275543213e-01 4.199529588222503662e-01 -2.103333733975887299e-02 -6.520235538482666016e-01
1.773000000000000000e+03 2.846761703491210938e+01 -1.099921607971191406e+01 -9.427100419998168945e-01 -7.484025787562131882e-03 -2.850582003593444824e-01 -3.996840715408325195e-01
1.774000000000000000e+03 1.175894355773925781e+01 4.214660644531250000e+00 1.047472818754613400e-03 6.196772446855902672e-04 5.001450190320611000e-04 1.271612476557493210e-03
1.775000000000000000e+03 2.769445419311523438e+01 -1.097408390045166016e+01 -9.023541808128356934e-01 -2.410845598205924034e-03 -2.714295089244842529e-01 -3.999596536159515381e-01
1.776000000000000000e+03 1.815263366699218750e+01 -1.199882602691650391e+01 -4.666055440902709961e-01 -1.629746407270431519e-01 -1.888740509748458862e-01 -4.107763767242431641e-01
1.777000000000000000e+03 2.457391357421875000e+01 -1.080549335479736328e+01 -7.330297231674194336e-01 2.018199115991592407e-02 -2.138543277978897095e-01 -4.013915359973907471e-01
1.778000000000000000e+03 2.239168548583984375e+01 -9.874868392944335938e+00 -6.030541062355041504e-01 2.430634759366512299e-02 -1.736243367195129395e-01 -3.376547694206237793e-01
1.779000000000000000e+03 2.094011878967285156e+01 -1.050056934356689453e+01 -5.297961831092834473e-01 -3.601656062528491020e-03 -1.600193530321121216e-01 -3.709465563297271729e-01
1.780000000000000000e+03 5.256359481811523438e+01 -9.307357788085937500e+00 1.039380908012390137e+00 1.779787898063659668e+00 8.457506299018859863e-01 2.392816305160522461e+00
1.781000000000000000e+03 1.872900009155273438e+01 -1.107629489898681641e+01 -4.356426596641540527e-01 -1.136516705155372620e-01 -1.647882908582687378e-01 -3.752298951148986816e-01
1.782000000000000000e+03 1.930828285217285156e+01 -1.027949905395507812e+01 -4.175733029842376709e-01 -6.299614161252975464e-02 -1.441708356142044067e-01 -3.356615602970123291e-01
1.783000000000000000e+03 1.010541725158691406e+01 1.015620517730712891e+01 -3.039081639144569635e-04 -2.671735594049096107e-03 -8.926931186579167843e-04 -1.052411389537155628e-03
1.784000000000000000e+03 9.859262466430664062e+00 8.642671585083007812e+00 3.679952933453023434e-04 -2.258391119539737701e-03 -5.671187536790966988e-04 -3.332434862386435270e-04
1.785000000000000000e+03 3.071761131286621094e+00 1.172983932495117188e+01 5.983617622405290604e-03 -1.788559253327548504e-03 1.258517499081790447e-03 -3.222307190299034119e-03
1.786000000000000000e+03 6.714789867401123047e+00 1.836880493164062500e+01 -1.440772712230682373e-01 -3.090186603367328644e-02 -5.249373987317085266e-02 4.096391424536705017e-02
1.787000000000000000e+03 3.131372690200805664e+00 1.734352684020996094e+01 -1.478251442313194275e-02 -2.581325545907020569e-02 -1.217873115092515945e-02 -7.343769073486328125e-03
1.788000000000000000e+03 1.000062942504882812e+01 5.034318447113037109e+00 -9.367800521431490779e-05 -1.523724757134914398e-03 -4.852208367083221674e-04 -1.184035325422883034e-03
1.789000000000000000e+03 4.261190891265869141e+00 1.142181491851806641e+01 3.343832446262240410e-03 -4.051609896123409271e-03 -2.123332960763946176e-04 -1.053947722539305687e-03
1.790000000000000000e+03 7.698404312133789062e+00 -2.510745620727539062e+01 -6.925556808710098267e-03 -3.975196480751037598e-01 -1.213335618376731873e-01 -3.532846570014953613e-01
1.791000000000000000e+03 7.933294296264648438e+00 -2.305794525146484375e+01 -1.081390827894210815e-01 -3.464597463607788086e-01 -1.363796442747116089e-01 -3.746508061885833740e-01
1.792000000000000000e+03 2.876336812973022461e+00 -1.906965065002441406e+01 -4.730597883462905884e-02 -3.458059206604957581e-02 -2.456597052514553070e-02 -4.006510972976684570e-02
1.793000000000000000e+03 6.144098281860351562e+00 -1.861294937133789062e+01 -2.193602621555328369e-01 -3.369005024433135986e-02 -7.591509073972702026e-02 -8.956152945756912231e-02
1.794000000000000000e+03 9.867393493652343750e+00 -3.620268583297729492e+00 2.819463843479752541e-04 -7.173492340371012688e-04 -1.306208578171208501e-04 6.653651507804170251e-05
1.795000000000000000e+03 7.764658927917480469e+00 -2.118264007568359375e+01 -2.327911853790283203e-01 -2.410999387502670288e-01 -1.421673446893692017e-01 -3.549685180187225342e-01
1.796000000000000000e+03 2.160179519653320312e+01 7.497729778289794922e+00 -3.423403799533843994e-01 -8.213810324668884277e-01 -3.491164445877075195e-01 6.361330151557922363e-01
1.797000000000000000e+03 2.103771972656250000e+01 -7.114366292953491211e-01 -7.298463582992553711e-02 -2.785582840442657471e-01 -1.054628789424896240e-01 2.406554073095321655e-01
1.798000000000000000e+03 9.165339469909667969e+00 9.602550506591796875e+00 -2.682479389477521181e-04 3.254824783653020859e-03 8.959730621427297592e-04 4.916066536679863930e-04
1.799000000000000000e+03 1.257882308959960938e+01 5.088439941406250000e+00 1.322395866736769676e-03 6.253467872738838196e-04 5.843227845616638660e-04 1.302581396885216236e-03
1.800000000000000000e+03 2.232154273986816406e+01 -1.222489118576049805e+00 -1.395643949508666992e-01 -2.304401546716690063e-01 -1.110013648867607117e-01 3.099590837955474854e-01
1.801000000000000000e+03 2.094274520874023438e+01 1.497726291418075562e-01 -7.137132436037063599e-02 -3.500308990478515625e-01 -1.264206618070602417e-01 2.723506987094879150e-01
1.802000000000000000e+03 8.224802970886230469e+00 -5.079677104949951172e+00 2.980073913931846619e-04 -7.214772631414234638e-04 -1.270409702556207776e-04 3.339815884828567505e-04
1.803000000000000000e+03 8.458367347717285156e+00 1.220889186859130859e+01 5.385458935052156448e-04 8.231062092818319798e-04 4.084956308361142874e-04 -2.699721953831613064e-04
1.804000000000000000e+03 5.857137203216552734e+00 1.179444217681884766e+01 3.727070987224578857e-03 -5.746426526457071304e-03 -6.058065919205546379e-04 3.577240742743015289e-03
1.805000000000000000e+03 1.331476688385009766e+01 2.040846061706542969e+01 -4.416325390338897705e-01 -9.966119527816772461e-01 -4.314733445644378662e-01 6.238672733306884766e-01
1.806000000000000000e+03 7.550264739990234375e+01 1.393855285644531250e+01 -1.032207757234573364e-01 7.973410129547119141e+00 2.361056804656982422e+00 4.254177808761596680e-01
1.807000000000000000e+03 7.570928192138671875e+01 -1.742056012153625488e-02 1.372863501310348511e-01 6.688476562500000000e+00 2.047728776931762695e+00 5.841707587242126465e-01
1.808000000000000000e+03 7.598548126220703125e+01 -1.512081336975097656e+01 5.158848315477371216e-02 6.881796360015869141e+00 2.080015420913696289e+00 -6.451596617698669434e-01
1.809000000000000000e+03 7.483314514160156250e+01 -1.241022205352783203e+01 1.938524991273880005e-01 6.846064090728759766e+00 2.111974954605102539e+00 -6.336655616760253906e-01
1.810000000000000000e+03 7.597723388671875000e+01 -1.376477432250976562e+01 8.867456763982772827e-02 6.734463691711425781e+00 2.046941518783569336e+00 -6.008948683738708496e-01
1.811000000000000000e+03 7.709913635253906250e+01 -1.242417430877685547e+01 7.475949823856353760e-02 6.334084510803222656e+00 1.922653198242187500e+00 -4.260953068733215332e-01
1.812000000000000000e+03 7.591744995117187500e+01 -1.103665161132812500e+01 1.832001358270645142e-01 6.499778747558593750e+00 2.004893541336059570e+00 -4.581162929534912109e-01
1.813000000000000000e+03 7.209165191650390625e+01 3.241105270385742188e+01 -5.666217952966690063e-02 7.887674808502197266e+00 2.349303722381591797e+00 4.396623373031616211e-02
1.814000000000000000e+03 7.415640258789062500e+01 3.076692199707031250e+01 -4.369168728590011597e-02 8.195890426635742188e+00 2.445659637451171875e+00 5.051654577255249023e-02
1.815000000000000000e+03 7.703803253173828125e+01 -6.887620449066162109e+00 1.417668014764785767e-01 5.979651927947998047e+00 1.836425542831420898e+00 -4.414041712880134583e-02
1.816000000000000000e+03 7.585482025146484375e+01 -6.852495193481445312e+00 2.619374990463256836e-01 6.318875789642333984e+00 1.974243998527526855e+00 -5.352807790040969849e-02
1.817000000000000000e+03 7.590827178955078125e+01 -4.109144687652587891e+00 2.324285060167312622e-01 6.347871780395507812e+00 1.974090099334716797e+00 2.412258237600326538e-01
1.818000000000000000e+03 7.596461486816406250e+01 -1.783413887023925781e+01 -1.539871562272310257e-02 7.192196369171142578e+00 2.153039216995239258e+00 -6.629939079284667969e-01
1.819000000000000000e+03 7.586578369140625000e+01 -2.186443138122558594e+01 -7.674203813076019287e-02 7.620450973510742188e+00 2.263112783432006836e+00 -5.847876667976379395e-01
1.820000000000000000e+03 7.682061004638671875e+01 1.443952918052673340e+00 5.175971984863281250e-02 6.603317260742187500e+00 1.996523141860961914e+00 5.241714715957641602e-01
1.821000000000000000e+03 7.555326080322265625e+01 1.386290192604064941e+00 9.626875817775726318e-02 6.862938880920410156e+00 2.087762355804443359e+00 6.658648848533630371e-01
1.822000000000000000e+03 7.540286254882812500e+01 7.100922107696533203e+00 -6.855256110429763794e-02 7.458534717559814453e+00 2.216994762420654297e+00 6.867612004280090332e-01
1.823000000000000000e+03 7.676804351806640625e+01 8.438487052917480469e+00 -4.701511189341545105e-02 7.492852210998535156e+00 2.233751296997070312e+00 5.088977813720703125e-01
1.824000000000000000e+03 7.589429473876953125e+01 -5.472716808319091797e+00 2.521913349628448486e-01 6.312491893768310547e+00 1.969404935836791992e+00 1.003258377313613892e-01
1.825000000000000000e+03 7.588585662841796875e+01 -2.752943515777587891e+00 2.066643387079238892e-01 6.425290107727050781e+00 1.989586234092712402e+00 3.722690939903259277e-01
1.826000000000000000e+03 7.552922058105468750e+01 9.860580444335937500e+00 -9.518069773912429810e-02 7.688673973083496094e+00 2.278048038482666016e+00 5.847061872482299805e-01
1.827000000000000000e+03 7.708802795410156250e+01 -1.927922439575195312e+01 -2.287341281771659851e-02 7.238863468170166016e+00 2.164797067642211914e+00 -5.076239109039306641e-01
1.828000000000000000e+03 7.593601989746093750e+01 -1.919337844848632812e+01 -4.188239574432373047e-02 7.345511436462402344e+00 2.191088676452636719e+00 -6.474757194519042969e-01
1.829000000000000000e+03 7.710590362548828125e+01 -1.791072273254394531e+01 -9.557330980896949768e-03 7.051630973815917969e+00 2.112622022628784180e+00 -5.194352269172668457e-01
1.830000000000000000e+03 7.530803680419921875e+01 4.249557971954345703e+00 2.347280969843268394e-03 7.182815074920654297e+00 2.155548572540283203e+00 7.349747419357299805e-01
1.831000000000000000e+03 7.533651733398437500e+01 5.683656692504882812e+00 -3.529751673340797424e-02 7.328410625457763672e+00 2.187933921813964844e+00 7.258077859878540039e-01
1.832000000000000000e+03 7.397871398925781250e+01 2.694176197052001953e+00 7.700020074844360352e-02 7.275972843170166016e+00 2.205891847610473633e+00 8.485250473022460938e-01
1.833000000000000000e+03 7.483526611328125000e+01 -2.924772071838378906e+01 -1.164886206388473511e-01 8.073568344116210938e+00 2.387123823165893555e+00 -3.656340837478637695e-01
1.834000000000000000e+03 7.466887664794921875e+01 -2.302003669738769531e+01 -1.336368471384048462e-01 7.762201309204101562e+00 2.288569211959838867e+00 -6.330755949020385742e-01
1.835000000000000000e+03 7.669261169433593750e+01 1.671378707885742188e+01 -4.997732862830162048e-02 8.212879180908203125e+00 2.448870420455932617e+00 2.608700692653656006e-01
1.836000000000000000e+03 7.527937316894531250e+01 1.805320358276367188e+01 -8.557506650686264038e-02 8.151197433471679688e+00 2.419686794281005859e+00 2.872939109802246094e-01
1.837000000000000000e+03 7.524339294433593750e+01 2.086687850952148438e+01 -7.776187360286712646e-02 8.230412483215332031e+00 2.445795297622680664e+00 2.038642168045043945e-01
1.838000000000000000e+03 7.526636505126953125e+01 1.944563865661621094e+01 -8.030522614717483521e-02 8.198007583618164062e+00 2.435310840606689453e+00 2.452231347560882568e-01
1.839000000000000000e+03 7.391277313232421875e+01 1.660486412048339844e+01 -1.464345902204513550e-01 8.004977226257324219e+00 2.357562780380249023e+00 3.812325000762939453e-01
1.840000000000000000e+03 7.556097412109375000e+01 1.121654987335205078e+01 -1.002282574772834778e-01 7.792916774749755859e+00 2.307806730270385742e+00 5.298016071319580078e-01
1.841000000000000000e+03 7.426259613037109375e+01 9.922789573669433594e+00 -1.463957130908966064e-01 7.742217540740966797e+00 2.278746604919433594e+00 6.680851578712463379e-01
1.842000000000000000e+03 7.660382843017578125e+01 2.228098487854003906e+01 -3.201711550354957581e-02 8.446389198303222656e+00 2.524311542510986328e+00 1.336738765239715576e-01
1.843000000000000000e+03 7.560152435302734375e+01 -2.459326362609863281e+01 -9.933011233806610107e-02 7.851555824279785156e+00 2.325667858123779297e+00 -5.052294731140136719e-01
1.844000000000000000e+03 7.681031799316406250e+01 -2.478638648986816406e+01 -5.485958606004714966e-02 7.884485721588134766e+00 2.348887920379638672e+00 -3.999752998352050781e-01
1.845000000000000000e+03 7.536133575439453125e+01 -2.603687286376953125e+01 -1.058705896139144897e-01 7.945792675018310547e+00 2.351976633071899414e+00 -4.653432965278625488e-01
1.846000000000000000e+03 7.662528991699218750e+01 2.363571929931640625e+01 -3.167770057916641235e-02 8.477455139160156250e+00 2.533733129501342773e+00 1.105456128716468811e-01
1.847000000000000000e+03 7.234805297851562500e+01 2.488452720642089844e+01 -9.425141662359237671e-02 7.924747943878173828e+00 2.349148988723754883e+00 1.399821490049362183e-01
1.848000000000000000e+03 7.639569091796875000e+01 2.635910797119140625e+01 -1.764561980962753296e-02 8.500548362731933594e+00 2.544870853424072266e+00 8.190025389194488525e-02
1.849000000000000000e+03 7.494791412353515625e+01 2.613434982299804688e+01 -4.152161255478858948e-02 8.285645484924316406e+00 2.473237276077270508e+00 1.021855399012565613e-01
1.850000000000000000e+03 7.604336547851562500e+01 2.929441261291503906e+01 -2.406643517315387726e-02 8.492893218994140625e+00 2.540647983551025391e+00 5.287394300103187561e-02
1.851000000000000000e+03 7.437001800537109375e+01 2.913526535034179688e+01 -4.971176758408546448e-02 8.215318679809570312e+00 2.449682235717773438e+00 6.730803847312927246e-02
1.852000000000000000e+03 7.462133789062500000e+01 2.757628440856933594e+01 -4.051427170634269714e-02 8.252237319946289062e+00 2.463516950607299805e+00 8.721472322940826416e-02
1.853000000000000000e+03 7.569047546386718750e+01 -3.350634384155273438e+01 -6.165587157011032104e-02 8.322018623352050781e+00 2.478108882904052734e+00 -1.855698525905609131e-01
1.854000000000000000e+03 7.610151672363281250e+01 -3.685789871215820312e+01 -8.213882148265838623e-02 8.512596130371093750e+00 2.529137372970581055e+00 -9.685543179512023926e-02
1.855000000000000000e+03 7.683539581298828125e+01 -3.344204330444335938e+01 -4.109948500990867615e-02 8.436927795410156250e+00 2.518748283386230469e+00 -1.585823893547058105e-01
1.856000000000000000e+03 7.541629791259765625e+01 -3.227348327636718750e+01 -8.462805300951004028e-02 8.242163658142089844e+00 2.447260618209838867e+00 -2.377743870019912720e-01
1.857000000000000000e+03 3.146502017974853516e+00 1.594669532775878906e+01 1.340506016276776791e-03 -2.045551128685474396e-02 -5.734501872211694717e-03 -1.320031005889177322e-02
1.858000000000000000e+03 3.673257350921630859e+00 -1.607341003417968750e+01 -3.939391579478979111e-03 -3.012422285974025726e-02 -1.021908409893512726e-02 4.742375109344720840e-03
1.859000000000000000e+03 3.519608020782470703e+00 -1.402784061431884766e+01 7.417881861329078674e-03 -1.409470476210117340e-02 -2.003046916797757149e-03 4.601350985467433929e-03
1.860000000000000000e+03 5.498538494110107422e+00 1.971268844604492188e+01 -1.741136908531188965e-01 -6.980041414499282837e-02 -7.317423075437545776e-02 9.370048344135284424e-02
1.861000000000000000e+03 5.251881599426269531e+00 2.101433181762695312e+01 -1.798252612352371216e-01 -1.198624521493911743e-01 -8.990631252527236938e-02 1.772641539573669434e-01
1.862000000000000000e+03 4.518483161926269531e+00 -1.682879257202148438e+01 -1.184602081775665283e-02 -3.237693756818771362e-02 -1.326688751578330994e-02 -2.056362805888056755e-03
1.863000000000000000e+03 4.435052394866943359e+00 1.846204757690429688e+01 -6.905785948038101196e-02 -5.567417666316032410e-02 -3.741961345076560974e-02 2.644061669707298279e-02
1.864000000000000000e+03 4.706586837768554688e+00 2.457438659667968750e+01 -6.993532180786132812e-02 -3.299513161182403564e-01 -1.199659928679466248e-01 3.006479740142822266e-01
1.865000000000000000e+03 4.695450305938720703e+00 2.995414543151855469e+01 4.091561958193778992e-02 -5.989036560058593750e-01 -1.673963963985443115e-01 2.883406579494476318e-01
1.866000000000000000e+03 7.179719448089599609e+00 -2.360301017761230469e+01 -8.214284479618072510e-02 -3.265037238597869873e-01 -1.225939691066741943e-01 -3.410938680171966553e-01
1.867000000000000000e+03 3.304739713668823242e+00 1.309750747680664062e+01 6.365866865962743759e-03 -7.540902588516473770e-03 -3.525107749737799168e-04 -5.901391617953777313e-03
1.868000000000000000e+03 4.286324501037597656e+00 -1.312859535217285156e+01 7.322021760046482086e-03 -7.931063883006572723e-03 -1.827124651754274964e-04 -1.286356127820909023e-03
1.869000000000000000e+03 2.872359037399291992e+00 -9.326125144958496094e+00 6.762421689927577972e-04 1.713132078293710947e-04 2.542666334193199873e-04 3.877969866152852774e-04
1.870000000000000000e+03 2.859885454177856445e+00 -1.070517826080322266e+01 2.548447344452142715e-03 -1.299646333791315556e-03 3.746403090190142393e-04 1.432100660167634487e-03
1.871000000000000000e+03 5.206682205200195312e+00 -1.959903144836425781e+01 -1.453299671411514282e-01 -7.896506041288375854e-02 -6.728850305080413818e-02 -1.359840333461761475e-01
1.872000000000000000e+03 3.209671735763549805e+00 -2.313990974426269531e+01 -3.464159741997718811e-02 -1.987874209880828857e-01 -7.002870738506317139e-02 -1.626473814249038696e-01
1.873000000000000000e+03 4.906119346618652344e+00 -2.126850509643554688e+01 -1.118425205349922180e-01 -1.585598289966583252e-01 -8.112070709466934204e-02 -1.973808407783508301e-01
1.874000000000000000e+03 5.509601593017578125e+00 2.290388870239257812e+01 -1.587672978639602661e-01 -2.545433938503265381e-01 -1.239932030439376831e-01 3.112634718418121338e-01
1.875000000000000000e+03 5.915028095245361328e+00 2.652906990051269531e+01 -9.687515906989574432e-03 -4.830519556999206543e-01 -1.478218436241149902e-01 3.763902783393859863e-01
1.876000000000000000e+03 3.387447595596313477e+00 -2.470607566833496094e+01 -2.444770187139511108e-02 -2.699839472770690918e-01 -8.832949399948120117e-02 -1.956464797258377075e-01
1.877000000000000000e+03 5.169514179229736328e+00 -2.237965202331542969e+01 -9.954578429460525513e-02 -2.021885812282562256e-01 -9.052031487226486206e-02 -2.391375750303268433e-01
1.878000000000000000e+03 4.005646705627441406e+00 -2.149571800231933594e+01 -6.878148019313812256e-02 -1.472298204898834229e-01 -6.480339169502258301e-02 -1.538026034832000732e-01
1.879000000000000000e+03 6.298004627227783203e+00 -2.527478218078613281e+01 -1.548288390040397644e-02 -3.679497838020324707e-01 -1.150298044085502625e-01 -3.140349090099334717e-01
1.880000000000000000e+03 3.944214344024658203e+00 -3.175714683532714844e+01 4.006037116050720215e-02 -5.624309778213500977e-01 -1.567111909389495850e-01 -1.728109568357467651e-01
1.881000000000000000e+03 4.986694812774658203e+00 -2.881342315673828125e+01 3.102060779929161072e-02 -4.539526700973510742e-01 -1.268796175718307495e-01 -2.479194700717926025e-01
1.882000000000000000e+03 5.137559890747070312e+00 1.010892868041992188e+01 1.917776884511113167e-03 -2.357216551899909973e-03 -1.318319264100864530e-04 6.790825282223522663e-04
1.883000000000000000e+03 6.432154655456542969e+00 3.355566406250000000e+01 1.114460229873657227e-01 -6.989413499832153320e-01 -1.762485951185226440e-01 2.528648376464843750e-01
1.884000000000000000e+03 6.058165550231933594e+00 3.587539672851562500e+01 1.121964976191520691e-01 -7.367331981658935547e-01 -1.873610168695449829e-01 2.008248418569564819e-01
1.885000000000000000e+03 5.232174396514892578e+00 3.476755523681640625e+01 7.566411048173904419e-02 -7.338864803314208984e-01 -1.974667161703109741e-01 2.044817805290222168e-01
1.886000000000000000e+03 6.379113674163818359e+00 -1.161535549163818359e+01 -5.227649817243218422e-04 4.641673993319272995e-03 1.235672621987760067e-03 -2.743547782301902771e-03
1.887000000000000000e+03 2.814174413681030273e+00 -1.213358402252197266e+01 3.519361605867743492e-03 -1.999076223000884056e-03 4.560856323223561049e-04 3.655286971479654312e-03
1.888000000000000000e+03 4.099462985992431641e+00 -1.073687171936035156e+01 2.490602666512131691e-03 -1.062090159393846989e-03 4.285537579562515020e-04 3.595717134885489941e-04
1.889000000000000000e+03 6.031257152557373047e+00 1.030665779113769531e+01 2.826668322086334229e-03 -2.073481911793351173e-03 2.259558968944475055e-04 1.206145389005541801e-03
1.890000000000000000e+03 3.887892484664916992e+00 -6.687101364135742188e+00 1.987233845284208655e-04 1.739822328090667725e-04 1.118116852012462914e-04 4.216823726892471313e-04
1.891000000000000000e+03 7.181545257568359375e+00 -3.101500320434570312e+01 8.072675764560699463e-02 -4.855434596538543701e-01 -1.214450076222419739e-01 -2.622524499893188477e-01
1.892000000000000000e+03 5.115131855010986328e+00 -3.010197448730468750e+01 4.779409617185592651e-02 -4.937751591205596924e-01 -1.337943226099014282e-01 -2.315264046192169189e-01
1.893000000000000000e+03 5.581901550292968750e+00 -3.155625152587890625e+01 5.941016599535942078e-02 -5.187993645668029785e-01 -1.378167569637298584e-01 -2.231255620718002319e-01
1.894000000000000000e+03 4.079434394836425781e+00 -3.321393203735351562e+01 3.931306302547454834e-02 -6.009880304336547852e-01 -1.685024946928024292e-01 -1.555317491292953491e-01
1.895000000000000000e+03 4.900679111480712891e+00 2.863290977478027344e+01 2.709365636110305786e-02 -5.440546870231628418e-01 -1.550883054733276367e-01 3.177500367164611816e-01
1.896000000000000000e+03 5.452926158905029297e+00 3.228089904785156250e+01 7.405769079923629761e-02 -6.746051311492919922e-01 -1.801642328500747681e-01 2.626628279685974121e-01
1.897000000000000000e+03 4.259968757629394531e+00 8.116122245788574219e+00 1.927511650137603283e-03 -2.516386157367378473e-04 5.027619190514087677e-04 -1.776201243046671152e-04
1.898000000000000000e+03 3.462249517440795898e+00 -4.708088874816894531e+00 1.644580624997615814e-04 3.808669134741649032e-05 6.076342469896189868e-05 3.216580080334097147e-04
1.899000000000000000e+03 2.893105030059814453e+00 5.779611110687255859e+00 4.521904920693486929e-04 1.356605062028393149e-04 1.763553009368479252e-04 -1.525973639218136668e-04
1.900000000000000000e+03 6.385045051574707031e+00 -3.615159606933593750e+01 8.845632523298263550e-02 -5.882399082183837891e-01 -1.499350666999816895e-01 -1.481922268867492676e-01
1.901000000000000000e+03 7.452711582183837891e+00 -7.341501712799072266e+00 -1.906384568428620696e-04 1.082435250282287598e-03 2.675390278454869986e-04 2.980786084663122892e-04
1.902000000000000000e+03 1.482977867126464844e+01 -1.791196250915527344e+01 -4.734117388725280762e-01 -3.984586894512176514e-01 -2.615611255168914795e-01 -3.951757848262786865e-01
1.903000000000000000e+03 1.735571670532226562e+01 -1.616177940368652344e+01 -4.869481325149536133e-01 -2.382790148258209229e-01 -2.175681442022323608e-01 -4.339959621429443359e-01
1.904000000000000000e+03 6.540370464324951172e+00 1.984550666809082031e+01 -2.454216033220291138e-01 -5.065409094095230103e-02 -8.882270753383636475e-02 1.189017593860626221e-01
1.905000000000000000e+03 4.494052886962890625e+00 1.966061019897460938e+01 -1.057818979024887085e-01 -7.246266305446624756e-02 -5.347336828708648682e-02 6.877223402261734009e-02
1.906000000000000000e+03 1.114249897003173828e+01 -2.107472038269042969e+01 -2.126873135566711426e-01 -4.822498857975006104e-01 -2.084811627864837646e-01 -4.003357589244842529e-01
1.907000000000000000e+03 2.109419631958007812e+01 9.975507736206054688e+00 -4.719502031803131104e-01 -9.369354248046875000e-01 -4.226656854152679443e-01 6.579518914222717285e-01
1.908000000000000000e+03 7.010455131530761719e+00 -1.047610187530517578e+01 7.186874863691627979e-04 -1.076007843948900700e-03 -1.071960941771976650e-04 -3.203566884621977806e-04
1.909000000000000000e+03 2.069248580932617188e+01 1.274676799774169922e+01 -5.886832475662231445e-01 -9.304774403572082520e-01 -4.557482302188873291e-01 6.185777187347412109e-01
1.910000000000000000e+03 8.407976150512695312e+00 2.194941329956054688e+01 -2.850246131420135498e-01 -3.954555690288543701e-01 -2.041440457105636597e-01 4.970684051513671875e-01
1.911000000000000000e+03 2.253757667541503906e+01 5.383342266082763672e+00 -2.680447101593017578e-01 -5.996082425117492676e-01 -2.602958977222442627e-01 6.158952713012695312e-01
1.912000000000000000e+03 2.197719383239746094e+01 6.373175621032714844e+00 -2.942237854003906250e-01 -7.065175771713256836e-01 -3.002223968505859375e-01 6.221894025802612305e-01
1.913000000000000000e+03 3.930284976959228516e+00 -1.208629703521728516e+01 5.422626156359910965e-03 -6.150117143988609314e-03 -2.182473108405247331e-04 4.743390891235321760e-04
1.914000000000000000e+03 1.676346397399902344e+01 -1.749794578552246094e+01 -4.418125152587890625e-01 -2.775951027870178223e-01 -2.158222794532775879e-01 -4.036590754985809326e-01
1.915000000000000000e+03 7.517028808593750000e+01 3.775155639648437500e+01 -4.564268887042999268e-02 8.386352539062500000e+00 2.502213001251220703e+00 6.041874643415212631e-03
1.916000000000000000e+03 2.037173080444335938e+01 -1.208471870422363281e+01 -5.429411530494689941e-01 -3.252024576067924500e-02 -1.726384162902832031e-01 -4.329135715961456299e-01
1.917000000000000000e+03 1.952628898620605469e+01 -1.166623020172119141e+01 -5.029578804969787598e-01 -6.548640877008438110e-02 -1.705332845449447632e-01 -4.106084704399108887e-01
1.918000000000000000e+03 1.766862487792968750e+01 2.005358695983886719e+01 -2.782078981399536133e-01 -9.309248924255371094e-01 -3.627398312091827393e-01 3.764607608318328857e-01
1.919000000000000000e+03 1.722037696838378906e+01 1.821724510192871094e+01 -5.572762489318847656e-01 -1.096795916557312012e+00 -4.962216615676879883e-01 5.124334096908569336e-01
1.920000000000000000e+03 2.050975799560546875e+01 1.593095302581787109e+01 -5.170515775680541992e-01 -7.834871411323547363e-01 -3.901616036891937256e-01 4.507570266723632812e-01
1.921000000000000000e+03 1.444567394256591797e+01 1.959463882446289062e+01 -5.659195184707641602e-01 -1.103413224220275879e+00 -5.007998347282409668e-01 6.283805370330810547e-01
1.922000000000000000e+03 1.414492797851562500e+01 -1.898677825927734375e+01 -3.817860484123229980e-01 -4.295149445533752441e-01 -2.433903068304061890e-01 -3.740496933460235596e-01
1.923000000000000000e+03 1.516277503967285156e+01 -2.000548934936523438e+01 -2.948888242244720459e-01 -3.714714646339416504e-01 -1.999080926179885864e-01 -3.682032227516174316e-01
1.924000000000000000e+03 2.409644508361816406e+01 8.547090530395507812e+00 -3.821834921836853027e-01 -4.434809982776641846e-01 -2.476993501186370850e-01 6.577215194702148438e-01
1.925000000000000000e+03 5.409146499633789062e+01 -4.058829307556152344e+00 2.161645889282226562e+00 3.967945337295532227e+00 1.838877320289611816e+00 -4.227389335632324219e+00
1.926000000000000000e+03 5.538941192626953125e+01 -4.296885967254638672e+00 1.953195571899414062e+00 1.030680274963378906e+01 3.677999496459960938e+00 -6.139294624328613281e+00
1.927000000000000000e+03 5.461463165283203125e+01 -3.773572683334350586e+00 1.906245231628417969e+00 6.275032043457031250e+00 2.454383373260498047e+00 -4.978910446166992188e+00
1.928000000000000000e+03 5.567493820190429688e+01 -8.856533050537109375e+00 1.088677763938903809e+00 1.192118453979492188e+01 3.902958631515502930e+00 5.398189067840576172e+00
1.929000000000000000e+03 5.605491256713867188e+01 -8.326908111572265625e+00 1.080986738204956055e+00 1.554521751403808594e+01 4.987861156463623047e+00 5.268759250640869141e+00
1.930000000000000000e+03 5.732607269287109375e+01 -4.465989112854003906e+00 2.131348609924316406e+00 1.814523506164550781e+01 6.082975387573242188e+00 3.397125601768493652e-01
1.931000000000000000e+03 5.819753646850585938e+01 -6.297719001770019531e+00 9.527597427368164062e+00 1.490352344512939453e+01 7.329336166381835938e+00 2.719751298427581787e-01
1.932000000000000000e+03 5.833198165893554688e+01 -7.668498039245605469e+00 5.787220954895019531e+00 1.533280181884765625e+01 6.336006641387939453e+00 -2.112881422042846680e+00
1.933000000000000000e+03 5.822853088378906250e+01 -7.106810569763183594e+00 8.052540779113769531e+00 1.522894382476806641e+01 6.984445095062255859e+00 -1.874108910560607910e+00
1.934000000000000000e+03 5.844132995605468750e+01 -5.785493373870849609e+00 7.888908863067626953e+00 1.446294403076171875e+01 6.705555915832519531e+00 1.456537246704101562e+00
1.935000000000000000e+03 5.853412246704101562e+01 -6.373315811157226562e+00 8.557731628417968750e+00 1.392813301086425781e+01 6.745759487152099609e+00 2.904077246785163879e-02
1.936000000000000000e+03 5.724637222290039062e+01 -8.538214683532714844e+00 1.476692914962768555e+00 1.760810661315917969e+01 5.725440025329589844e+00 2.598203420639038086e-01
1.937000000000000000e+03 5.781483078002929688e+01 -4.804448127746582031e+00 4.165960311889648438e+00 1.722440338134765625e+01 6.417109012603759766e+00 1.888824582099914551e+00
1.938000000000000000e+03 5.799662399291992188e+01 -5.173671722412109375e+00 6.026135921478271484e+00 1.647001075744628906e+01 6.748843669891357422e+00 2.261961698532104492e+00
1.939000000000000000e+03 5.689920806884765625e+01 -3.984052896499633789e+00 5.470460057258605957e-01 1.660557556152343750e+01 5.145786285400390625e+00 -1.807347655296325684e+00
1.940000000000000000e+03 5.796820449829101562e+01 -7.845688819885253906e+00 4.906510353088378906e+00 1.668652534484863281e+01 6.477910995483398438e+00 -2.116321802139282227e+00
1.941000000000000000e+03 5.676766204833984375e+01 -8.979375839233398438e+00 3.889898061752319336e-01 1.581626510620117188e+01 4.861576557159423828e+00 2.351009607315063477e+00
1.942000000000000000e+03 5.646836090087890625e+01 -3.672747373580932617e+00 1.907266974449157715e-01 1.498268413543701172e+01 4.552023410797119141e+00 -3.239634275436401367e+00
1.943000000000000000e+03 5.333824539184570312e+01 -3.714918136596679688e+00 1.563450455665588379e+00 2.548542022705078125e+00 1.233597755432128906e+00 -3.190148115158081055e+00
1.944000000000000000e+03 5.292368698120117188e+01 -3.648018598556518555e+00 1.249929189682006836e+00 2.044846534729003906e+00 9.884327054023742676e-01 -2.694184780120849609e+00
1.945000000000000000e+03 5.358942794799804688e+01 -4.266460895538330078e+00 1.698080301284790039e+00 2.241561651229858398e+00 1.181892633438110352e+00 -3.027755260467529297e+00
1.946000000000000000e+03 5.302367401123046875e+01 -8.720324516296386719e+00 1.172537922859191895e+00 1.603996515274047852e+00 8.329603672027587891e-01 2.432577848434448242e+00
1.947000000000000000e+03 5.167145156860351562e+01 -1.022260856628417969e+01 7.220172882080078125e-01 1.725849986076354980e+00 7.343601584434509277e-01 2.122867822647094727e+00
1.948000000000000000e+03 5.535595703125000000e+01 -9.153760910034179688e+00 1.168400168418884277e+00 9.999423027038574219e+00 3.350347042083740234e+00 5.279559612274169922e+00
1.949000000000000000e+03 5.444481277465820312e+01 -8.637565612792968750e+00 2.268456459045410156e+00 5.055702209472656250e+00 2.197247505187988281e+00 4.774359226226806641e+00
1.950000000000000000e+03 5.364910125732421875e+01 -8.920311927795410156e+00 1.850977540016174316e+00 3.049192428588867188e+00 1.470050930976867676e+00 3.546998023986816406e+00
1.951000000000000000e+03 5.136401748657226562e+01 -3.326380729675292969e+00 3.534568250179290771e-01 9.626415371894836426e-01 3.948295116424560547e-01 -1.496707677841186523e+00
1.952000000000000000e+03 5.042990875244140625e+01 -3.337170600891113281e+00 -1.488314867019653320e-01 6.274187564849853516e-01 1.435761898756027222e-01 -9.954600930213928223e-01
1.953000000000000000e+03 4.863960647583007812e+01 -2.314902305603027344e+00 -2.451246529817581177e-01 5.417331457138061523e-01 8.898254483938217163e-02 -7.321044802665710449e-01
1.954000000000000000e+03 5.121079254150390625e+01 -2.860808849334716797e+00 4.902688562870025635e-01 1.197428345680236816e+00 5.063091516494750977e-01 -1.677516102790832520e+00
1.955000000000000000e+03 2.378143119812011719e+01 -2.502355098724365234e+00 -2.272749990224838257e-01 -1.324742883443832397e-01 -1.079247891902923584e-01 3.097462356090545654e-01
1.956000000000000000e+03 2.345252418518066406e+01 -1.634200930595397949e+00 -2.015694081783294678e-01 -1.840419471263885498e-01 -1.156834065914154053e-01 3.480455577373504639e-01
1.957000000000000000e+03 5.171537017822265625e+01 -2.743419885635375977e+00 7.675586938858032227e-01 1.627443194389343262e+00 7.185005545616149902e-01 -2.063071012496948242e+00
1.958000000000000000e+03 2.465245056152343750e+01 -2.056823968887329102e+00 -2.828362882137298584e-01 -1.326205134391784668e-01 -1.246370375156402588e-01 3.794451057910919189e-01
1.959000000000000000e+03 2.639577674865722656e+01 -2.946534633636474609e+00 -4.173827469348907471e-01 -6.272761523723602295e-02 -1.440331190824508667e-01 3.706930279731750488e-01
1.960000000000000000e+03 2.417863464355468750e+01 -2.675665616989135742e-01 -2.457168996334075928e-01 -2.217545956373214722e-01 -1.402414441108703613e-01 4.664520323276519775e-01
1.961000000000000000e+03 2.588913917541503906e+01 -2.262785911560058594e+00 -3.685497045516967773e-01 -9.248753637075424194e-02 -1.383111774921417236e-01 4.036432802677154541e-01
1.962000000000000000e+03 3.338537454605102539e+00 4.323504924774169922e+00 1.454739103792235255e-04 3.999478940386325121e-04 1.636265369597822428e-04 5.106316166347824037e-05
1.963000000000000000e+03 4.357056617736816406e+00 4.491612911224365234e+00 6.068617949495092034e-05 -3.244989784434437752e-04 -7.914384332252666354e-05 -9.701511771709192544e-06
1.964000000000000000e+03 6.559418201446533203e+00 5.869049072265625000e+00 3.149794647470116615e-04 1.216642325744032860e-03 4.594865313265472651e-04 1.565158745506778359e-04
1.965000000000000000e+03 6.381052017211914062e+00 4.094967842102050781e+00 2.214622218161821365e-04 -9.876670083031058311e-04 -2.298614272149279714e-04 -4.060026840306818485e-04
1.966000000000000000e+03 5.131515502929687500e+00 5.181705951690673828e+00 -1.269024942303076386e-04 4.078471683897078037e-04 8.428340515820309520e-05 7.861699123168364167e-05
1.967000000000000000e+03 2.979172325134277344e+01 -3.004379034042358398e+00 -6.814986467361450195e-01 -7.904008030891418457e-03 -2.068207859992980957e-01 4.200290441513061523e-01
1.968000000000000000e+03 4.952677726745605469e+00 4.605662345886230469e+00 4.398942110128700733e-04 6.785963196307420731e-04 3.355471417307853699e-04 4.429961336427368224e-05
1.969000000000000000e+03 2.781250572204589844e+01 -2.320221185684204102e+00 -5.031860470771789551e-01 -4.814757779240608215e-02 -1.654000878334045410e-01 4.457037746906280518e-01
1.970000000000000000e+03 2.848662948608398438e+01 -2.326568841934204102e+00 -5.496687293052673340e-01 -3.560191020369529724e-02 -1.755811870098114014e-01 4.563969969749450684e-01
1.971000000000000000e+03 8.417716979980468750e+00 5.114498615264892578e+00 -7.836460281396284699e-05 -1.228289795108139515e-03 -3.919963201042264700e-04 -5.990199279040098190e-04
1.972000000000000000e+03 6.847105503082275391e+00 5.026232719421386719e+00 1.663219445617869496e-04 -1.020260853692889214e-03 -2.561816654633730650e-04 -3.883734752889722586e-04
1.973000000000000000e+03 7.064595699310302734e+00 4.194336891174316406e+00 1.069690333679318428e-04 1.154093304648995399e-03 3.783186839427798986e-04 5.928179598413407803e-04
1.974000000000000000e+03 8.953541755676269531e+00 8.107655525207519531e+00 -2.010469906963407993e-04 2.294465200975537300e-03 6.280254456214606762e-04 -2.752176442299969494e-06
1.975000000000000000e+03 3.990961074829101562e+00 4.005499362945556641e+00 6.391624629031866789e-05 -4.284864990040659904e-04 -1.093710816348902881e-04 -1.345130731351673603e-04
1.976000000000000000e+03 3.122048187255859375e+01 -2.982606410980224609e+00 -7.936364412307739258e-01 8.810759522020816803e-03 -2.354477047920227051e-01 4.277112782001495361e-01
1.977000000000000000e+03 2.924280548095703125e+01 -1.674233555793762207e+00 -5.713109374046325684e-01 -2.613548934459686279e-02 -1.792339384555816650e-01 5.088037252426147461e-01
1.978000000000000000e+03 3.341108703613281250e+01 -2.854338169097900391e+00 -9.475249052047729492e-01 2.585998550057411194e-02 -2.764994800090789795e-01 4.301403164863586426e-01
1.979000000000000000e+03 3.125061225891113281e+01 -2.346142530441284180e+00 -7.413851618766784668e-01 8.607498370110988617e-03 -2.198332995176315308e-01 4.743212759494781494e-01
1.980000000000000000e+03 4.569818115234375000e+01 -1.122769641876220703e+01 -6.848791241645812988e-01 3.197568953037261963e-01 -1.095366701483726501e-01 2.719086408615112305e-01
1.981000000000000000e+03 4.282834625244140625e+01 -1.048063755035400391e+01 -1.311684608459472656e+00 8.909825235605239868e-02 -3.667759001255035400e-01 -1.133216693997383118e-01
1.982000000000000000e+03 4.646815490722656250e+01 -1.118397998809814453e+01 -5.550140738487243652e-01 3.936136364936828613e-01 -4.842012375593185425e-02 4.014373719692230225e-01
1.983000000000000000e+03 4.408260345458984375e+01 -1.199196434020996094e+01 -6.282998919486999512e-01 3.033600449562072754e-01 -9.748195856809616089e-02 1.600791215896606445e-01
1.984000000000000000e+03 3.376145935058593750e+01 1.192465201020240784e-01 -6.063165664672851562e-01 6.948524713516235352e-02 -1.610493957996368408e-01 5.533378124237060547e-01
1.985000000000000000e+03 3.416412734985351562e+01 -2.091299295425415039e+00 -8.937719464302062988e-01 3.689428418874740601e-02 -2.570632994174957275e-01 4.712495505809783936e-01
1.986000000000000000e+03 4.503248596191406250e+01 -1.047271060943603516e+01 -1.103354334831237793e+00 1.726339757442474365e-01 -2.792161107063293457e-01 7.213990390300750732e-02
1.987000000000000000e+03 4.421824264526367188e+01 -1.121334648132324219e+01 -8.901671767234802246e-01 2.217757701873779297e-01 -2.005174309015274048e-01 7.551086694002151489e-02
1.988000000000000000e+03 4.958726119995117188e+01 -1.048897552490234375e+01 -6.306995055638253689e-04 8.065556287765502930e-01 2.417774945497512817e-01 1.089594483375549316e+00
1.989000000000000000e+03 4.129084777832031250e+01 -1.121573829650878906e+01 -1.137153148651123047e+00 9.978868067264556885e-02 -3.112093210220336914e-01 -1.611358821392059326e-01
1.990000000000000000e+03 3.911806106567382812e+01 -1.192977905273437500e+01 -1.002954006195068359e+00 7.023402303457260132e-02 -2.798160016536712646e-01 -2.400735169649124146e-01
1.991000000000000000e+03 3.772617340087890625e+01 -1.138266754150390625e+01 -1.178252100944519043e+00 3.222870454192161560e-02 -3.438070118427276611e-01 -2.962585091590881348e-01
1.992000000000000000e+03 5.078255462646484375e+01 -1.110375690460205078e+01 5.909775495529174805e-01 1.674069881439208984e+00 6.795142292976379395e-01 1.886780261993408203e+00
1.993000000000000000e+03 4.493906402587890625e+01 -1.124473762512207031e+01 -7.948314547538757324e-01 2.550145089626312256e-01 -1.619450747966766357e-01 1.620136052370071411e-01
1.994000000000000000e+03 4.722057723999023438e+01 -1.114648532867431641e+01 -4.121610820293426514e-01 4.736223518848419189e-01 1.843837648630142212e-02 5.499973297119140625e-01
1.995000000000000000e+03 4.866905212402343750e+01 -1.115758037567138672e+01 -2.316491864621639252e-02 7.735574841499328613e-01 2.251177728176116943e-01 9.585440754890441895e-01
1.996000000000000000e+03 8.395525932312011719e+00 -4.192225456237792969e+00 6.793836655560880899e-05 7.940539217088371515e-05 4.420312689035199583e-05 -4.626736044883728027e-04
1.997000000000000000e+03 4.196477508544921875e+01 -1.198138809204101562e+01 -8.415645956993103027e-01 1.687666773796081543e-01 -2.018393576145172119e-01 -6.919321417808532715e-02
1.998000000000000000e+03 3.716955947875976562e+01 -2.675163984298706055e+00 -1.158242940902709961e+00 4.467944055795669556e-02 -3.340690433979034424e-01 3.901739418506622314e-01
1.999000000000000000e+03 3.550121688842773438e+01 -1.071722793579101562e+01 -1.309042215347290039e+00 -1.262312871403992176e-03 -3.930913507938385010e-01 -3.337210714817047119e-01
2.000000000000000000e+03 3.843084335327148438e+01 -1.130875587463378906e+01 -1.186803460121154785e+00 4.657153785228729248e-02 -3.420695662498474121e-01 -2.748809158802032471e-01
2.001000000000000000e+03 3.792415618896484375e+01 -2.661965847015380859e+00 -1.190651416778564453e+00 4.709899052977561951e-02 -3.430657386779785156e-01 3.742734491825103760e-01
2.002000000000000000e+03 3.413896179199218750e+01 -1.362806797027587891e+00 -7.958943843841552734e-01 4.721454903483390808e-02 -2.246039509773254395e-01 5.059471726417541504e-01
2.003000000000000000e+03 3.473663330078125000e+01 -1.075016021728515625e+01 -1.279859423637390137e+00 -7.258179131895303726e-03 -3.861352801322937012e-01 -3.423750102519989014e-01
2.004000000000000000e+03 3.491641616821289062e+01 -2.029814958572387695e+00 -9.243670105934143066e-01 4.312781989574432373e-02 -2.643717527389526367e-01 4.651381969451904297e-01
2.005000000000000000e+03 5.742470741271972656e+00 -7.072720527648925781e+00 9.588251850800588727e-05 6.542003829963505268e-04 2.250248799100518227e-04 9.348447201773524284e-05
2.006000000000000000e+03 4.017059707641601562e+01 -2.641887903213500977e+00 -1.259690165519714355e+00 5.853527039289474487e-02 -3.603464663028717041e-01 3.085952401161193848e-01
2.007000000000000000e+03 4.092060089111328125e+01 -2.634814023971557617e+00 -1.265825271606445312e+00 6.462593376636505127e-02 -3.603598177433013916e-01 2.794043123722076416e-01
2.008000000000000000e+03 4.319184494018554688e+01 -2.595923185348510742e+00 -1.214168190956115723e+00 1.008886918425559998e-01 -3.339838683605194092e-01 1.569601446390151978e-01
2.009000000000000000e+03 6.327482223510742188e+00 -5.641402244567871094e+00 1.851427950896322727e-04 7.147587893996387720e-05 7.698560511926189065e-05 4.034985031466931105e-04
2.010000000000000000e+03 4.780179977416992188e+00 -4.348015785217285156e+00 -3.324246426927857101e-05 2.355386095587164164e-04 6.068884249543771148e-05 3.182853688485920429e-04
2.011000000000000000e+03 3.239815902709960938e+01 -1.087321281433105469e+01 -1.164132833480834961e+00 -1.329753827303647995e-02 -3.532291054725646973e-01 -3.671544492244720459e-01
2.012000000000000000e+03 3.873707580566406250e+01 -1.929358839988708496e+00 -1.039809107780456543e+00 7.305184751749038696e-02 -2.900271713733673096e-01 3.724110722541809082e-01
2.013000000000000000e+03 3.798447036743164062e+01 -1.933504581451416016e+00 -1.026161074638366699e+00 6.780180335044860840e-02 -2.875077724456787109e-01 3.970094323158264160e-01
2.014000000000000000e+03 4.172480392456054688e+01 -1.935358166694641113e+00 -1.029646754264831543e+00 1.127224564552307129e-01 -2.750773131847381592e-01 2.295274734497070312e-01
2.015000000000000000e+03 4.097194671630859375e+01 -1.935794591903686523e+00 -1.047009348869323730e+00 9.943816810846328735e-02 -2.842713594436645508e-01 2.739305794239044189e-01
2.016000000000000000e+03 4.555611038208007812e+01 -1.820787310600280762e+00 -6.761937141418457031e-01 2.889416217803955078e-01 -1.161756366491317749e-01 -1.620787978172302246e-01
2.017000000000000000e+03 4.176625442504882812e+01 -1.243424892425537109e+00 -8.163056969642639160e-01 1.636817753314971924e-01 -1.957871764898300171e-01 1.995194256305694580e-01
2.018000000000000000e+03 4.934823226928710938e+01 -1.126053619384765625e+01 1.893742084503173828e-01 1.061346888542175293e+00 3.752163350582122803e-01 1.249017953872680664e+00
2.019000000000000000e+03 5.026272964477539062e+01 -1.073808765411376953e+01 3.167599141597747803e-01 1.158010005950927734e+00 4.424309730529785156e-01 1.465141177177429199e+00
2.020000000000000000e+03 4.477095794677734375e+01 -1.841422319412231445e+00 -7.875674366950988770e-01 2.263824939727783203e-01 -1.683554798364639282e-01 -4.963370785117149353e-02
2.021000000000000000e+03 3.396007919311523438e+01 -1.151519775390625000e+01 -1.093920946121215820e+00 -3.510621841996908188e-03 -3.292294442653656006e-01 -3.725929558277130127e-01
2.022000000000000000e+03 3.625412368774414062e+01 -1.143253135681152344e+01 -1.151595711708068848e+00 1.912352070212364197e-02 -3.397416472434997559e-01 -3.349426090717315674e-01
2.023000000000000000e+03 4.853652954101562500e+01 -1.187414550781250000e+01 1.190865784883499146e-01 9.956846833229064941e-01 3.344313800334930420e-01 1.091957807540893555e+00
2.024000000000000000e+03 4.848154449462890625e+01 -2.911602735519409180e+00 -6.255459785461425781e-01 3.553889691829681396e-01 -8.104711025953292847e-02 -5.025048851966857910e-01
2.025000000000000000e+03 4.634509658813476562e+01 -1.837799906730651855e+00 -5.682526230812072754e-01 3.362435102462768555e-01 -6.960272789001464844e-02 -2.909523844718933105e-01
2.026000000000000000e+03 4.399554824829101562e+01 -1.872644066810607910e+00 -8.780941963195800781e-01 1.866568177938461304e-01 -2.074312120676040649e-01 4.034377261996269226e-02
2.027000000000000000e+03 2.919072532653808594e+01 -1.183143997192382812e+01 -8.750218749046325684e-01 -4.745401442050933838e-03 -2.639301717281341553e-01 -4.348273575305938721e-01
2.028000000000000000e+03 6.811466217041015625e+00 -4.068330287933349609e+00 -1.081915543181821704e-04 2.461816766299307346e-04 4.139703378314152360e-05 -3.637076297309249640e-04
2.029000000000000000e+03 6.109162330627441406e+00 -4.115835666656494141e+00 4.524056566879153252e-05 2.566168041084893048e-05 2.127067455148790032e-05 3.410365025047212839e-04
2.030000000000000000e+03 5.584008216857910156e+00 -4.899693489074707031e+00 -7.472963716281810775e-06 1.370865211356431246e-04 3.888406718033365905e-05 2.729005936998873949e-04
2.031000000000000000e+03 2.612747955322265625e+01 -1.089260673522949219e+01 -8.177454471588134766e-01 1.029931101948022842e-02 -2.422338426113128662e-01 -4.035242199897766113e-01
2.032000000000000000e+03 3.081193161010742188e+01 -1.173997592926025391e+01 -9.562085270881652832e-01 -7.397922687232494354e-03 -2.890819311141967773e-01 -4.173212051391601562e-01
2.033000000000000000e+03 3.160280227661132812e+01 -1.169851303100585938e+01 -9.905986189842224121e-01 -7.340337615460157394e-03 -2.993816733360290527e-01 -4.062756896018981934e-01
2.034000000000000000e+03 3.080308341979980469e+01 -1.255766391754150391e+01 -8.342570066452026367e-01 4.046554211527109146e-03 -2.490631341934204102e-01 -4.447124898433685303e-01
2.035000000000000000e+03 2.296643066406250000e+01 -1.149825000762939453e+01 -6.324524283409118652e-01 2.039246447384357452e-02 -1.836179941892623901e-01 -4.351282119750976562e-01
2.036000000000000000e+03 2.534205055236816406e+01 -1.085239028930664062e+01 -7.743985056877136230e-01 1.504963636398315430e-02 -2.278046607971191406e-01 -4.042999744415283203e-01
2.037000000000000000e+03 2.759719276428222656e+01 -1.181646728515625000e+01 -8.159937858581542969e-01 3.127934411168098450e-03 -2.438597530126571655e-01 -4.440167248249053955e-01
2.038000000000000000e+03 2.838224983215332031e+01 -1.185424613952636719e+01 -8.442470431327819824e-01 -2.225808566436171532e-03 -2.539418637752532959e-01 -4.388376176357269287e-01
2.039000000000000000e+03 1.091284275054931641e+01 4.229256153106689453e+00 -5.414462648332118988e-04 -9.728022851049900055e-04 -4.542745591606944799e-04 -1.347030047327280045e-03
2.040000000000000000e+03 2.067602729797363281e+01 -1.121013641357421875e+01 -5.391600131988525391e-01 -1.522989664226770401e-02 -1.663169860839843750e-01 -4.029151499271392822e-01
2.041000000000000000e+03 1.144137477874755859e+01 5.958653450012207031e+00 5.998715641908347607e-04 1.779210288077592850e-03 7.137245265766978264e-04 1.566096791066229343e-03
2.042000000000000000e+03 4.932576751708984375e+01 -2.522724390029907227e+00 -1.380945742130279541e-01 6.130014657974243164e-01 1.424720734357833862e-01 -8.703495264053344727e-01
2.043000000000000000e+03 2.445912551879882812e+01 -1.162395858764648438e+01 -6.937777996063232422e-01 1.998364552855491638e-02 -2.021382451057434082e-01 -4.422857165336608887e-01
2.044000000000000000e+03 2.523192977905273438e+01 -1.165645122528076172e+01 -7.234321236610412598e-01 1.687694340944290161e-02 -2.119665443897247314e-01 -4.433386921882629395e-01
2.045000000000000000e+03 2.219679260253906250e+01 -1.146970176696777344e+01 -6.040931344032287598e-01 1.290601119399070740e-02 -1.773561239242553711e-01 -4.260197877883911133e-01
2.046000000000000000e+03 2.230849456787109375e+01 -1.066405010223388672e+01 -6.052865982055664062e-01 1.946656964719295502e-02 -1.757460087537765503e-01 -3.910523653030395508e-01
2.047000000000000000e+03 2.430417633056640625e+01 -1.251671886444091797e+01 -6.485422849655151367e-01 1.929439976811408997e-02 -1.887743622064590454e-01 -4.729573428630828857e-01
2.048000000000000000e+03 1.905856704711914062e+01 -1.263187408447265625e+01 -5.162136554718017578e-01 -1.024925857782363892e-01 -1.856118738651275635e-01 -4.332190454006195068e-01
2.049000000000000000e+03 2.142801475524902344e+01 -1.139863014221191406e+01 -5.722799301147460938e-01 9.934629779309034348e-04 -1.713859438896179199e-01 -4.181660413742065430e-01
2.050000000000000000e+03 5.217503738403320312e+01 -9.944545745849609375e+00 9.070481061935424805e-01 1.945088744163513184e+00 8.556410670280456543e-01 2.393101930618286133e+00
2.051000000000000000e+03 5.142910766601562500e+01 -9.775762557983398438e+00 4.893017709255218506e-01 1.224544405937194824e+00 5.141538381576538086e-01 1.741390109062194824e+00
2.052000000000000000e+03 2.138945198059082031e+01 -1.356276512145996094e+00 -8.808597922325134277e-02 -2.336118668317794800e-01 -9.650935232639312744e-02 2.359636723995208740e-01
2.053000000000000000e+03 2.134328651428222656e+01 8.703812599182128906e+00 -4.081416130065917969e-01 -8.932012915611267090e-01 -3.904028832912445068e-01 6.524009704589843750e-01
2.054000000000000000e+03 7.576955795288085938e+00 1.157395744323730469e+01 -1.727549126371741295e-03 4.210893996059894562e-03 7.450034026987850666e-04 2.501586917787790298e-03
2.055000000000000000e+03 6.606914520263671875e+00 1.257952880859375000e+01 5.651520099490880966e-03 -7.532141171395778656e-04 1.469491748139262199e-03 8.461251854896545410e-03
2.056000000000000000e+03 8.266888618469238281e+00 9.043722152709960938e+00 9.363545686937868595e-04 -9.757082443684339523e-04 -1.180609979201108217e-05 1.091869431547820568e-03
2.057000000000000000e+03 4.889179706573486328e+00 -1.223699665069580078e+01 4.556854255497455597e-03 -4.026651848107576370e-03 1.590607134858146310e-04 -2.085157670080661774e-03
2.058000000000000000e+03 9.212644577026367188e+00 5.071064472198486328e+00 2.012129552895203233e-04 1.703530550003051758e-03 5.714230355806648731e-04 8.345684036612510681e-04
2.059000000000000000e+03 1.049635696411132812e+01 7.717468261718750000e+00 2.077579556498676538e-04 2.558644628152251244e-03 8.299207547679543495e-04 8.209074730984866619e-04
2.060000000000000000e+03 5.782649040222167969e+00 -1.277190685272216797e+01 4.834431689232587814e-03 -3.020783886313438416e-03 5.440943059511482716e-04 -8.103052154183387756e-03
2.061000000000000000e+03 1.234880542755126953e+01 6.105486869812011719e+00 -1.139346626587212086e-03 -1.300172763876616955e-03 -7.318558054976165295e-04 -1.534422393888235092e-03
2.062000000000000000e+03 2.193086624145507812e+01 1.426968479156494141e+01 -5.139523744583129883e-01 -6.341461539268493652e-01 -3.444295525550842285e-01 4.854715466499328613e-01
2.063000000000000000e+03 6.676233291625976562e+00 9.415214538574218750e+00 1.451678923331201077e-03 -1.889325940283015370e-04 3.788238973356783390e-04 1.925962860696017742e-03
2.064000000000000000e+03 3.690052747726440430e+00 6.647157669067382812e+00 6.153041613288223743e-04 4.654764052247628570e-05 1.985555281862616539e-04 1.907339610625058413e-04
2.065000000000000000e+03 9.122386932373046875e+00 -5.558819293975830078e+00 -1.704044989310204983e-04 8.573372615501284599e-04 2.060798287857323885e-04 -2.097704855259507895e-04
2.066000000000000000e+03 9.237541198730468750e+00 -4.034025669097900391e+00 -1.971770107047632337e-04 5.336472531780600548e-04 1.009410698316060007e-04 4.121238889638334513e-04
2.067000000000000000e+03 6.466969013214111328e+00 1.450727367401123047e+01 1.250666938722133636e-02 -6.513800937682390213e-03 1.797860371880233288e-03 1.689289882779121399e-02
2.068000000000000000e+03 2.170981597900390625e+01 -4.137461185455322266e-01 -1.030059382319450378e-01 -2.977111637592315674e-01 -1.202151328325271606e-01 3.026495575904846191e-01
2.069000000000000000e+03 2.279128646850585938e+01 5.760887265205383301e-01 -1.736509799957275391e-01 -3.260364532470703125e-01 -1.499062329530715942e-01 4.417987465858459473e-01
2.070000000000000000e+03 5.306861877441406250e+00 1.098410224914550781e+01 5.802488420158624649e-03 -2.970937406644225121e-03 8.494653156958520412e-04 6.010503275319933891e-04
2.071000000000000000e+03 7.401554870605468750e+01 3.243437957763671875e+01 -3.720910847187042236e-02 8.169507026672363281e+00 2.439689397811889648e+00 3.351129591464996338e-02
2.072000000000000000e+03 7.365110015869140625e+01 -3.162201690673828125e+01 -1.582455635070800781e-01 8.025397300720214844e+00 2.360145568847656250e+00 -3.146114647388458252e-01
2.073000000000000000e+03 7.508582305908203125e+01 -2.757254791259765625e+01 -1.181865260004997253e-01 8.010110855102539062e+00 2.367577314376831055e+00 -4.163771867752075195e-01
2.074000000000000000e+03 7.297922515869140625e+01 2.722112464904785156e+01 -6.987737864255905151e-02 7.996254444122314453e+00 2.377913236618041992e+00 9.274809807538986206e-02
2.075000000000000000e+03 7.377255249023437500e+01 2.221667098999023438e+01 -1.005170345306396484e-01 8.088846206665039062e+00 2.396498680114746094e+00 1.914779692888259888e-01
2.076000000000000000e+03 7.590502929687500000e+01 -2.053844642639160156e+01 -5.941003933548927307e-02 7.487277984619140625e+00 2.228360414505004883e+00 -6.214568614959716797e-01
2.077000000000000000e+03 7.474148559570312500e+01 -2.174890327453613281e+01 -1.109484359622001648e-01 7.667351245880126953e+00 2.266920804977416992e+00 -6.851845383644104004e-01
2.078000000000000000e+03 7.417754364013671875e+01 8.578161239624023438e+00 -1.337783485651016235e-01 7.669297218322753906e+00 2.260655641555786133e+00 7.297625541687011719e-01
2.079000000000000000e+03 7.555459594726562500e+01 1.257387351989746094e+01 -1.016425490379333496e-01 7.888855457305908203e+00 2.336163759231567383e+00 4.770138263702392578e-01
2.080000000000000000e+03 7.408609008789062500e+01 1.522260570526123047e+01 -1.560913324356079102e-01 7.971768856048583984e+00 2.344703197479248047e+00 4.347790479660034180e-01
2.081000000000000000e+03 7.532929229736328125e+01 1.667711830139160156e+01 -9.246414154767990112e-02 8.102565765380859375e+00 2.403030395507812500e+00 3.292779326438903809e-01
2.082000000000000000e+03 7.455553436279296875e+01 -1.404883712530136108e-01 2.075160443782806396e-01 6.921927452087402344e+00 2.138833045959472656e+00 6.764802932739257812e-01
2.083000000000000000e+03 7.433007812500000000e+01 1.230721354484558105e+00 1.551520079374313354e-01 7.079178333282470703e+00 2.170299053192138672e+00 7.703107595443725586e-01
2.084000000000000000e+03 7.538738250732421875e+01 2.813531875610351562e+00 4.404220357537269592e-02 7.034567356109619141e+00 2.123582839965820312e+00 7.152082920074462891e-01
2.085000000000000000e+03 7.487040710449218750e+01 -1.508630466461181641e+01 7.319737225770950317e-02 7.085571765899658203e+00 2.147630691528320312e+00 -7.576160430908203125e-01
2.086000000000000000e+03 7.377046203613281250e+01 -1.506619548797607422e+01 1.018240451812744141e-01 7.274766445159912109e+00 2.212977170944213867e+00 -8.485602736473083496e-01
2.087000000000000000e+03 7.468724060058593750e+01 -6.790863990783691406e+00 4.037283062934875488e-01 6.606083869934082031e+00 2.102943658828735352e+00 -5.281237885355949402e-02
2.088000000000000000e+03 7.139270019531250000e+01 -9.561325073242187500e+00 7.580581307411193848e-01 7.370281219482421875e+00 2.438501834869384766e+00 -5.615917444229125977e-01
2.089000000000000000e+03 7.530664062500000000e+01 2.485287857055664062e+01 -3.838161006569862366e-02 8.317518234252929688e+00 2.483741044998168945e+00 1.184302344918251038e-01
2.090000000000000000e+03 7.432032775878906250e+01 1.124049568176269531e+01 -1.517217457294464111e-01 7.812194824218750000e+00 2.298141956329345703e+00 6.073364615440368652e-01
2.091000000000000000e+03 7.485797882080078125e+01 -1.374909210205078125e+01 1.423193067312240601e-01 6.961113929748535156e+00 2.131030082702636719e+00 -7.146620154380798340e-01
2.092000000000000000e+03 7.479932403564453125e+01 -1.107547760009765625e+01 2.623235285282135010e-01 6.763445377349853516e+00 2.107730627059936523e+00 -5.432050824165344238e-01
2.093000000000000000e+03 7.585026550292968750e+01 -9.647075653076171875e+00 2.202953398227691650e-01 6.411654949188232422e+00 1.989585161209106445e+00 -3.361411988735198975e-01
2.094000000000000000e+03 7.457293701171875000e+01 -8.225441932678222656e+00 3.912548720836639404e-01 6.666508197784423828e+00 2.117328882217407227e+00 -2.482701987028121948e-01
2.095000000000000000e+03 7.476059722900390625e+01 -5.428312301635742188e+00 3.821798563003540039e-01 6.594082355499267578e+00 2.092878580093383789e+00 1.225147768855094910e-01
2.096000000000000000e+03 7.478901672363281250e+01 -4.099600315093994141e+00 3.561121821403503418e-01 6.622623920440673828e+00 2.093620777130126953e+00 2.883247733116149902e-01
2.097000000000000000e+03 7.483991241455078125e+01 -1.775854301452636719e+01 -2.377420477569103241e-02 7.336308956146240234e+00 2.193760395050048828e+00 -7.790811061859130859e-01
2.098000000000000000e+03 7.382902526855468750e+01 4.243914604187011719e+00 -7.427149103023111820e-04 7.415235519409179688e+00 2.224347829818725586e+00 8.678716421127319336e-01
2.099000000000000000e+03 7.479088592529296875e+01 -1.911419868469238281e+01 -6.358012557029724121e-02 7.462953090667724609e+00 2.219811916351318359e+00 -7.603499293327331543e-01
2.100000000000000000e+03 7.384381103515625000e+01 1.801631355285644531e+01 -1.350186616182327271e-01 8.035765647888183594e+00 2.370224237442016602e+00 3.298949301242828369e-01
2.101000000000000000e+03 7.444676971435546875e+01 -2.433878517150878906e+01 -1.422083377838134766e-01 7.841726779937744141e+00 2.309855461120605469e+00 -5.873963832855224609e-01
2.102000000000000000e+03 7.268962860107421875e+01 2.888014984130859375e+01 -6.192377582192420959e-02 7.944318294525146484e+00 2.364718437194824219e+00 7.481843233108520508e-02
2.103000000000000000e+03 7.412389373779296875e+01 -2.573724937438964844e+01 -1.604218184947967529e-01 7.899362564086914062e+00 2.321682214736938477e+00 -5.389740467071533203e-01
2.104000000000000000e+03 7.219242858886718750e+01 3.443219375610351562e+01 -3.362208604812622070e-02 7.885185718536376953e+00 2.355468988418579102e+00 3.710925579071044922e-02
2.105000000000000000e+03 7.476876831054687500e+01 -2.784868955612182617e+00 3.128314316272735596e-01 6.690714359283447266e+00 2.101063728332519531e+00 4.360231757164001465e-01
2.106000000000000000e+03 7.474647521972656250e+01 -2.046071434020996094e+01 -9.432616084814071655e-02 7.572822093963623047e+00 2.243548870086669922e+00 -7.237846255302429199e-01
2.107000000000000000e+03 7.407429504394531250e+01 7.196399211883544922e+00 -1.103271245956420898e-01 7.589859008789062500e+00 2.243859529495239258e+00 7.865149378776550293e-01
2.108000000000000000e+03 7.392642974853515625e+01 2.080972480773925781e+01 -1.125518530607223511e-01 8.090141296386718750e+00 2.393276691436767578e+00 2.324911504983901978e-01
2.109000000000000000e+03 7.389268493652343750e+01 1.942450141906738281e+01 -1.267908066511154175e-01 8.062617301940917969e+00 2.380747795104980469e+00 2.773691713809967041e-01
2.110000000000000000e+03 7.424616241455078125e+01 1.387612438201904297e+01 -1.541563570499420166e-01 7.930030345916748047e+00 2.332762241363525391e+00 4.894119203090667725e-01
2.111000000000000000e+03 7.371991729736328125e+01 -2.726093292236328125e+01 -1.736991852521896362e-01 7.955978393554687500e+00 2.334683656692504883e+00 -4.860727488994598389e-01
2.112000000000000000e+03 1.026898574829101562e+01 6.470731735229492188e+00 -6.812384235672652721e-04 2.192110521718859673e-03 4.532616294454783201e-04 4.159625968895852566e-04
2.113000000000000000e+03 4.799722671508789062e+00 2.726882743835449219e+01 3.540943842381238937e-03 -4.859123826026916504e-01 -1.447114348411560059e-01 3.231869935989379883e-01
2.114000000000000000e+03 6.400805473327636719e+00 2.897751998901367188e+01 5.707629397511482239e-02 -5.870391726493835449e-01 -1.589888632297515869e-01 3.661551177501678467e-01
2.115000000000000000e+03 4.702985763549804688e+00 -2.629428482055664062e+01 -7.814613170921802521e-03 -3.591254949569702148e-01 -1.100820377469062805e-01 -2.541977763175964355e-01
2.116000000000000000e+03 6.471745491027832031e+00 -8.978586196899414062e+00 5.680147442035377026e-04 -6.428076885640621185e-04 -2.243788367195520550e-05 4.488514969125390053e-04
2.117000000000000000e+03 4.513106822967529297e+00 2.325091934204101562e+01 -9.841164946556091309e-02 -2.470519244670867920e-01 -1.036390736699104309e-01 2.602674365043640137e-01
2.118000000000000000e+03 1.152723789215087891e+01 2.237282943725585938e+01 -2.328641861677169800e-01 -8.019890785217285156e-01 -3.104559779167175293e-01 6.226561069488525391e-01
2.119000000000000000e+03 1.159110546112060547e+01 2.606856346130371094e+01 7.542568445205688477e-02 -7.374384403228759766e-01 -1.986038237810134888e-01 4.978966414928436279e-01
2.120000000000000000e+03 7.484632873535156250e+01 -3.577381896972656250e+01 -1.099355593323707581e-01 8.238907814025878906e+00 2.438691616058349609e+00 -1.678475588560104370e-01
2.121000000000000000e+03 5.878141880035400391e+00 -2.074850654602050781e+01 -1.653289198875427246e-01 -1.505131274461746216e-01 -9.475261718034744263e-02 -2.199889123439788818e-01
2.122000000000000000e+03 6.175822734832763672e+00 -2.219189834594726562e+01 -1.411261558532714844e-01 -2.209379076957702637e-01 -1.086192205548286438e-01 -2.857522964477539062e-01
2.123000000000000000e+03 6.192946910858154297e+00 -2.368014717102050781e+01 -5.688909068703651428e-02 -3.123463690280914307e-01 -1.107706427574157715e-01 -3.127548396587371826e-01
2.124000000000000000e+03 4.684115409851074219e+00 1.260033226013183594e+01 1.004969701170921326e-02 -7.195283658802509308e-03 8.563239243812859058e-04 -1.516116317361593246e-04
2.125000000000000000e+03 4.348626613616943359e+00 -2.045423316955566406e+01 -1.070019677281379700e-01 -1.062337458133697510e-01 -6.397071480751037598e-02 -1.340540349483489990e-01
2.126000000000000000e+03 6.799229145050048828e+00 2.532911109924316406e+01 -5.593908950686454773e-02 -4.672122001647949219e-01 -1.569453775882720947e-01 4.251544475555419922e-01
2.127000000000000000e+03 4.715301513671875000e+00 2.596678733825683594e+01 -3.105421364307403564e-02 -4.063796997070312500e-01 -1.312301754951477051e-01 3.242703974246978760e-01
2.128000000000000000e+03 8.368940353393554688e+00 -6.481248855590820312e+00 3.593813162297010422e-04 -9.370024199597537518e-04 -1.732863311190158129e-04 1.735304249450564384e-04
2.129000000000000000e+03 5.980374336242675781e+00 -2.683123970031738281e+01 1.409983914345502853e-02 -4.040737152099609375e-01 -1.169921606779098511e-01 -2.961001396179199219e-01
2.130000000000000000e+03 4.852057456970214844e+00 3.107846260070800781e+01 5.688231065869331360e-02 -6.429755687713623047e-01 -1.758279651403427124e-01 2.729333639144897461e-01
2.131000000000000000e+03 4.269906520843505859e+00 2.066907310485839844e+01 -1.211655214428901672e-01 -1.010861843824386597e-01 -6.667551398277282715e-02 1.145402789115905762e-01
2.132000000000000000e+03 4.771940708160400391e+00 2.215836143493652344e+01 -1.644881963729858398e-01 -1.809395849704742432e-01 -1.036283373832702637e-01 2.321250885725021362e-01
2.133000000000000000e+03 5.872854232788085938e+00 -3.333955764770507812e+01 7.830539345741271973e-02 -5.491341948509216309e-01 -1.412486433982849121e-01 -1.966993510723114014e-01
2.134000000000000000e+03 1.185752677917480469e+01 -3.066506385803222656e+01 1.621790975332260132e-01 -4.382631182670593262e-01 -8.282520622014999390e-02 -2.942255139350891113e-01
2.135000000000000000e+03 7.293123722076416016e+00 2.143800354003906250e+01 -3.269945383071899414e-01 -2.376046627759933472e-01 -1.693797558546066284e-01 4.150175452232360840e-01
2.136000000000000000e+03 4.064413547515869141e+00 1.028175163269042969e+01 4.437929950654506683e-03 -1.452160999178886414e-03 8.957307436503469944e-04 -1.380841014906764030e-03
2.137000000000000000e+03 4.060926437377929688e+00 9.177643775939941406e+00 8.311069104820489883e-04 -8.000235538929700851e-04 9.325009159510955215e-06 -7.631870103068649769e-04
2.138000000000000000e+03 5.220222473144531250e+00 8.371267318725585938e+00 3.360913542564958334e-04 -1.346519711660221219e-04 6.043181565473787487e-05 -3.238337376387789845e-05
2.139000000000000000e+03 8.067943572998046875e+00 7.535290718078613281e+00 6.703441613353788853e-04 -9.482190944254398346e-04 -8.336249447893351316e-05 7.244196604005992413e-04
2.140000000000000000e+03 5.111760139465332031e+00 9.202724456787109375e+00 3.182050306349992752e-03 -4.680479760281741619e-04 8.142007282003760338e-04 -3.569401451386511326e-05
2.141000000000000000e+03 5.266512393951416016e+00 -7.981344223022460938e+00 6.841012509539723396e-04 -5.001405952498316765e-04 5.518819307326339185e-05 5.405757692642509937e-04
2.142000000000000000e+03 4.950956821441650391e+00 -6.279230117797851562e+00 3.428178897593170404e-04 -3.720047534443438053e-04 -8.756065653869882226e-06 -3.062355972360819578e-04
2.143000000000000000e+03 4.422595977783203125e+00 -5.394094467163085938e+00 5.052053529652766883e-05 3.094525018241256475e-04 1.079919093172065914e-04 3.921003662981092930e-04
2.144000000000000000e+03 1.347272396087646484e+01 2.239861679077148438e+01 -1.497760117053985596e-01 -9.315243959426879883e-01 -3.243901133537292480e-01 5.483745932579040527e-01
2.145000000000000000e+03 9.655377388000488281e+00 2.252791786193847656e+01 -2.577092349529266357e-01 -5.437806844711303711e-01 -2.404469847679138184e-01 5.715098977088928223e-01
2.146000000000000000e+03 2.056016540527343750e+01 1.427103710174560547e+01 -5.966882109642028809e-01 -8.718782067298889160e-01 -4.405699074268341064e-01 5.499263405799865723e-01
2.147000000000000000e+03 6.383947849273681641e+00 -7.916232585906982422e+00 4.928086418658494949e-04 3.062398536712862551e-05 1.570297899888828397e-04 -8.882512338459491730e-04
2.148000000000000000e+03 1.852081298828125000e+01 -1.675897407531738281e+01 -4.487470686435699463e-01 -1.703105270862579346e-01 -1.857172846794128418e-01 -4.331596791744232178e-01
2.149000000000000000e+03 1.926354598999023438e+01 1.985206604003906250e+01 -2.491595149040222168e-01 -7.778387665748596191e-01 -3.080994784832000732e-01 3.052815198898315430e-01
2.150000000000000000e+03 1.502768135070800781e+01 2.068622779846191406e+01 -3.046955764293670654e-01 -1.056267619132995605e+00 -4.082889854907989502e-01 5.221387147903442383e-01
2.151000000000000000e+03 1.953840637207031250e+01 -1.428362274169921875e+01 -5.279777646064758301e-01 -8.956984430551528931e-02 -1.852642893791198730e-01 -4.595032632350921631e-01
2.152000000000000000e+03 1.793125915527343750e+01 -1.489239978790283203e+01 -5.130749344825744629e-01 -1.915150284767150879e-01 -2.113769799470901489e-01 -4.468730688095092773e-01
2.153000000000000000e+03 1.805477905273437500e+01 -1.816431999206542969e+01 -3.788715004920959473e-01 -2.168703973293304443e-01 -1.787225753068923950e-01 -4.057745337486267090e-01
2.154000000000000000e+03 2.343868637084960938e+01 6.175057888031005859e+00 -3.162647187709808350e-01 -5.176350474357604980e-01 -2.501699328422546387e-01 6.628602743148803711e-01
2.155000000000000000e+03 2.412649726867675781e+01 5.461269855499267578e+00 -3.015705347061157227e-01 -4.247943460941314697e-01 -2.179094702005386353e-01 6.606104969978332520e-01
2.156000000000000000e+03 2.336295890808105469e+01 1.419108390808105469e+00 -2.087083458900451660e-01 -3.341899216175079346e-01 -1.628694832324981689e-01 5.098109245300292969e-01
2.157000000000000000e+03 2.324440002441406250e+01 2.911728143692016602e+00 -2.183292806148529053e-01 -4.124948084354400635e-01 -1.892472207546234131e-01 5.622963905334472656e-01
2.158000000000000000e+03 1.895577049255371094e+01 -1.545951080322265625e+01 -4.956943094730377197e-01 -1.334181725978851318e-01 -1.887337416410446167e-01 -4.530419409275054932e-01
2.159000000000000000e+03 1.577344226837158203e+01 -2.175170516967773438e+01 -1.448116153478622437e-01 -3.538125455379486084e-01 -1.495872437953948975e-01 -3.625248670578002930e-01
2.160000000000000000e+03 1.747489166259765625e+01 -1.966617012023925781e+01 -2.924770712852478027e-01 -2.640883922576904297e-01 -1.669696420431137085e-01 -3.830385208129882812e-01
2.161000000000000000e+03 2.219199752807617188e+01 1.023112297058105469e+01 -4.689126312732696533e-01 -7.161913514137268066e-01 -3.555311858654022217e-01 6.414901614189147949e-01
2.162000000000000000e+03 7.174319458007812500e+01 4.067697906494140625e+01 -1.636018045246601105e-03 7.840556144714355469e+00 2.351675987243652344e+00 8.856739848852157593e-03
2.163000000000000000e+03 7.477449798583984375e+01 3.588681411743164062e+01 -1.740452833473682404e-02 8.356146812438964844e+00 2.501622676849365234e+00 -2.126087434589862823e-02
2.164000000000000000e+03 2.259822082519531250e+01 7.855621337890625000e+00 -3.730352818965911865e-01 -6.441659927368164062e-01 -3.051604032516479492e-01 6.609019041061401367e-01
2.165000000000000000e+03 2.361367988586425781e+01 9.452054977416992188e+00 -4.196402728557586670e-01 -4.902972280979156494e-01 -2.729812562465667725e-01 6.386243104934692383e-01
2.166000000000000000e+03 5.561884689331054688e+01 -4.141170024871826172e+00 1.419017791748046875e+00 1.166846084594726562e+01 3.926243543624877930e+00 -5.776819705963134766e+00
2.167000000000000000e+03 5.482063293457031250e+01 -3.471402168273925781e+00 1.446339011192321777e+00 7.397295951843261719e+00 2.653090476989746094e+00 -4.988904476165771484e+00
2.168000000000000000e+03 5.508574295043945312e+01 -3.705936193466186523e+00 1.549427866935729980e+00 8.631409645080566406e+00 3.054251432418823242e+00 -5.374518394470214844e+00
2.169000000000000000e+03 5.554280090332031250e+01 -3.849760532379150391e+00 1.158755779266357422e+00 1.096737384796142578e+01 3.637839078903198242e+00 -5.456018447875976562e+00
2.170000000000000000e+03 5.719459533691406250e+01 -3.451987028121948242e+00 3.690249919891357422e-01 1.527228069305419922e+01 4.692391395568847656e+00 -1.256907820701599121e+00
2.171000000000000000e+03 5.609817123413085938e+01 -8.827852249145507812e+00 6.386517882347106934e-01 1.430189132690429688e+01 4.482162952423095703e+00 4.585833549499511719e+00
2.172000000000000000e+03 5.708005523681640625e+01 -9.184775352478027344e+00 3.933200240135192871e-01 1.563545894622802734e+01 4.808633327484130859e+00 1.447039961814880371e+00
2.173000000000000000e+03 5.916083526611328125e+01 -5.942620754241943359e+00 6.983600139617919922e+00 1.272890090942382812e+01 5.913750171661376953e+00 7.543438673019409180e-01
2.174000000000000000e+03 5.835936355590820312e+01 -6.878732204437255859e+00 8.439783096313476562e+00 1.462921524047851562e+01 6.920699596405029297e+00 -1.267044425010681152e+00
2.175000000000000000e+03 5.876988220214843750e+01 -6.663174629211425781e+00 7.951863288879394531e+00 1.353316020965576172e+01 6.445507049560546875e+00 -6.234681010246276855e-01
2.176000000000000000e+03 5.836173248291015625e+01 -5.537850379943847656e+00 7.361452102661132812e+00 1.483634853363037109e+01 6.659340381622314453e+00 1.827206850051879883e+00
2.177000000000000000e+03 5.794644927978515625e+01 -4.233039855957031250e+00 2.568200588226318359e+00 1.609256935119628906e+01 5.598230838775634766e+00 1.177624344825744629e+00
2.178000000000000000e+03 5.869575881958007812e+01 -8.641451835632324219e+00 3.060321092605590820e+00 1.438831806182861328e+01 5.234591484069824219e+00 -1.650759935379028320e+00
2.179000000000000000e+03 5.761867523193359375e+01 -4.046677112579345703e+00 1.527821183204650879e+00 1.654133415222167969e+01 5.420746803283691406e+00 3.679661452770233154e-01
2.180000000000000000e+03 5.265653610229492188e+01 -9.733633041381835938e+00 1.108416438102722168e+00 2.332445144653320312e+00 1.032258510589599609e+00 2.721621513366699219e+00
2.181000000000000000e+03 5.444868087768554688e+01 -9.097022056579589844e+00 1.921928286552429199e+00 5.748667716979980469e+00 2.301178932189941406e+00 4.802666187286376953e+00
2.182000000000000000e+03 5.387274932861328125e+01 -3.536475419998168945e+00 1.745060563087463379e+00 4.034408569335937500e+00 1.733840823173522949e+00 -4.041067600250244141e+00
2.183000000000000000e+03 5.281329727172851562e+01 -3.095915079116821289e+00 1.266188263893127441e+00 2.496967315673828125e+00 1.128946661949157715e+00 -2.912708520889282227e+00
2.184000000000000000e+03 5.185822677612304688e+01 -3.246524810791015625e+00 6.749769449234008789e-01 1.348337650299072266e+00 6.069943904876708984e-01 -1.928461313247680664e+00
2.185000000000000000e+03 5.100347900390625000e+01 -2.386234283447265625e+00 5.638250708580017090e-01 1.357602477073669434e+00 5.764282941818237305e-01 -1.738263726234436035e+00
2.186000000000000000e+03 5.153968429565429688e+01 -1.096028327941894531e+01 7.915357351303100586e-01 2.148471593856811523e+00 8.820022344589233398e-01 2.296578645706176758e+00
2.187000000000000000e+03 2.533395385742187500e+01 9.478332400321960449e-01 -2.960549592971801758e-01 -2.106889486312866211e-01 -1.520231813192367554e-01 5.655731558799743652e-01
2.188000000000000000e+03 4.885868453979492188e+01 -1.722196459770202637e+00 5.694963783025741577e-02 7.905482053756713867e-01 2.542493641376495361e-01 -9.754576683044433594e-01
2.189000000000000000e+03 2.377862358093261719e+01 -9.457379579544067383e-01 -2.234761565923690796e-01 -2.074347883462905884e-01 -1.292732805013656616e-01 4.104741811752319336e-01
2.190000000000000000e+03 2.286183738708496094e+01 -1.418230175971984863e+00 -1.654308289289474487e-01 -2.069652229547500610e-01 -1.117188110947608948e-01 3.261721730232238770e-01
2.191000000000000000e+03 5.234230804443359375e+01 -3.170914173126220703e+00 9.856861829757690430e-01 1.807097911834716797e+00 8.378352522850036621e-01 -2.354784250259399414e+00
2.192000000000000000e+03 2.652392578125000000e+01 -2.325066328048706055e+00 -4.115383028984069824e-01 -7.721399515867233276e-02 -1.466256827116012573e-01 4.203109741210937500e-01
2.193000000000000000e+03 2.487963676452636719e+01 -1.494525194168090820e+00 -2.912282347679138184e-01 -1.470867842435836792e-01 -1.314945071935653687e-01 4.209607541561126709e-01
2.194000000000000000e+03 2.716379737854003906e+01 -2.335861682891845703e+00 -4.611805081367492676e-01 -6.079183146357536316e-02 -1.565916985273361206e-01 4.340022206306457520e-01
2.195000000000000000e+03 2.663227844238281250e+01 -1.738883614540100098e+00 -4.078750908374786377e-01 -8.828799426555633545e-02 -1.488489210605621338e-01 4.582474231719970703e-01
2.196000000000000000e+03 5.537372589111328125e+00 4.650996208190917969e+00 4.799957096111029387e-04 -9.516722057014703751e-04 -1.415029400959610939e-04 -2.029969255090691149e-05
2.197000000000000000e+03 5.264669895172119141e+00 6.318580627441406250e+00 7.918468327261507511e-04 1.610662002349272370e-04 2.858739171642810106e-04 4.768127109855413437e-05
2.198000000000000000e+03 2.435862922668457031e+01 -1.232957124710083008e+00 -2.601144909858703613e-01 -1.736029386520385742e-01 -1.301152259111404419e-01 4.177218377590179443e-01
2.199000000000000000e+03 8.365059852600097656e+00 6.006229400634765625e+00 2.365736436331644654e-04 1.834569149650633335e-03 6.213428569026291370e-04 7.232009666040539742e-04
2.200000000000000000e+03 2.541826629638671875e+01 -1.577066779136657715e+00 -3.302534520626068115e-01 -1.259373873472213745e-01 -1.368572562932968140e-01 4.391025900840759277e-01
2.201000000000000000e+03 9.936477661132812500e+00 5.846949100494384766e+00 4.289204953238368034e-04 1.526266220025718212e-03 5.865560378879308701e-04 1.200736500322818756e-03
2.202000000000000000e+03 2.603424453735351562e+01 -1.610965132713317871e+00 -3.699918091297149658e-01 -1.056902185082435608e-01 -1.427046060562133789e-01 4.521397948265075684e-01
2.203000000000000000e+03 2.917033958435058594e+01 -2.340775251388549805e+00 -5.977820158004760742e-01 -2.352109178900718689e-02 -1.863909363746643066e-01 4.639142453670501709e-01
2.204000000000000000e+03 3.054649734497070312e+01 -2.361273288726806641e+00 -6.951724886894226074e-01 -6.290323217399418354e-04 -2.087404578924179077e-01 4.719238281250000000e-01
2.205000000000000000e+03 6.137355804443359375e+00 4.853317737579345703e+00 -2.672226582944858819e-05 1.165257999673485756e-03 3.415606915950775146e-04 3.519910969771444798e-04
2.206000000000000000e+03 2.929520606994628906e+01 -9.876361489295959473e-01 -5.352734923362731934e-01 -2.955320850014686584e-02 -1.694480031728744507e-01 5.491697192192077637e-01
2.207000000000000000e+03 2.991146469116210938e+01 -1.693977594375610352e+00 -6.093014478683471680e-01 -1.586445234715938568e-02 -1.875497698783874512e-01 5.096704959869384766e-01
2.208000000000000000e+03 3.268229293823242188e+01 -2.241985797882080078e+00 -8.251175284385681152e-01 2.495769970118999481e-02 -2.400479614734649658e-01 4.772034883499145508e-01
2.209000000000000000e+03 3.194193649291992188e+01 -1.669911026954650879e+00 -7.241845726966857910e-01 1.825278438627719879e-02 -2.117795348167419434e-01 5.134275555610656738e-01
2.210000000000000000e+03 3.187938308715820312e+01 -1.034789562225341797e+00 -6.609422564506530762e-01 2.096429094672203064e-02 -1.919933855533599854e-01 5.457181930541992188e-01
2.211000000000000000e+03 4.480505752563476562e+01 -1.209454059600830078e+01 -5.095128417015075684e-01 3.659164309501647949e-01 -4.307892546057701111e-02 2.601458728313446045e-01
2.212000000000000000e+03 4.350260162353515625e+01 -1.119366550445556641e+01 -9.777920246124267578e-01 1.724872589111328125e-01 -2.415914237499237061e-01 -5.472583696246147156e-03
2.213000000000000000e+03 4.203104782104492188e+01 -1.122048854827880859e+01 -1.095230460166931152e+00 1.184664666652679443e-01 -2.930291891098022461e-01 -1.095467507839202881e-01
2.214000000000000000e+03 4.272179031372070312e+01 -1.197657299041748047e+01 -8.020188212394714355e-01 1.971229612827301025e-01 -1.814687550067901611e-01 -6.318664178252220154e-03
2.215000000000000000e+03 4.359282684326171875e+01 -1.254199886322021484e+01 -5.008161067962646484e-01 3.240167200565338135e-01 -5.303980782628059387e-02 1.577112227678298950e-01
2.216000000000000000e+03 3.984184265136718750e+01 -1.122846889495849609e+01 -1.180828809738159180e+00 5.141862481832504272e-02 -3.388230502605438232e-01 -2.310297489166259766e-01
2.217000000000000000e+03 4.049299621582031250e+01 -1.194558048248291016e+01 -9.487853050231933594e-01 1.126386150717735291e-01 -2.508440017700195312e-01 -1.721345931291580200e-01
2.218000000000000000e+03 3.338752746582031250e+01 -1.482954859733581543e+00 -7.751468420028686523e-01 3.937517479062080383e-02 -2.207314968109130859e-01 5.122756361961364746e-01
2.219000000000000000e+03 4.563632202148437500e+01 -1.201650619506835938e+01 -3.998313844203948975e-01 4.631512165069580078e-01 1.899595744907855988e-02 3.987430632114410400e-01
2.220000000000000000e+03 3.645475006103515625e+01 -1.962747573852539062e+00 -9.813329577445983887e-01 5.706324428319931030e-02 -2.772809267044067383e-01 4.382498860359191895e-01
2.221000000000000000e+03 3.491257095336914062e+01 -1.281074047088623047e+00 -8.120216727256774902e-01 5.487223714590072632e-02 -2.271448373794555664e-01 4.957099854946136475e-01
2.222000000000000000e+03 4.795368576049804688e+01 -1.113053703308105469e+01 -2.448916435241699219e-01 5.917778611183166504e-01 1.040658652782440186e-01 7.195727229118347168e-01
2.223000000000000000e+03 4.783305358886718750e+01 -1.265092849731445312e+01 1.474462449550628662e-01 1.023201107978820801e+00 3.511942028999328613e-01 1.035307168960571289e+00
2.224000000000000000e+03 3.978470611572265625e+01 -1.196105957031250000e+01 -9.843226671218872070e-01 8.089049160480499268e-02 -2.710296511650085449e-01 -2.095090895891189575e-01
2.225000000000000000e+03 4.642530059814453125e+01 -1.194090461730957031e+01 -2.852675020694732666e-01 5.302188992500305176e-01 7.348541915416717529e-02 5.420888066291809082e-01
2.226000000000000000e+03 4.716736221313476562e+01 -1.189417076110839844e+01 -1.574459671974182129e-01 6.479383707046508789e-01 1.471477299928665161e-01 6.961792707443237305e-01
2.227000000000000000e+03 3.778190231323242188e+01 -1.221452426910400391e+01 -9.535155892372131348e-01 6.744727492332458496e-02 -2.658205032348632812e-01 -2.831076979637145996e-01
2.228000000000000000e+03 3.722375869750976562e+01 -1.944594979286193848e+00 -1.005228042602539062e+00 6.279913336038589478e-02 -2.827286422252655029e-01 4.199699461460113525e-01
2.229000000000000000e+03 3.550536727905273438e+01 -1.144800758361816406e+01 -1.141583919525146484e+00 7.962780073285102844e-03 -3.400863409042358398e-01 -3.488098680973052979e-01
2.230000000000000000e+03 3.849348449707031250e+01 -1.206349086761474609e+01 -9.742412567138671875e-01 7.300698012113571167e-02 -2.703702747821807861e-01 -2.594217360019683838e-01
2.231000000000000000e+03 3.488820266723632812e+01 -4.929596185684204102e-01 -6.979072093963623047e-01 7.262512296438217163e-02 -1.875846236944198608e-01 5.181034803390502930e-01
2.232000000000000000e+03 3.474302673339843750e+01 -1.147435283660888672e+01 -1.119178652763366699e+00 3.049488179385662079e-03 -3.348387479782104492e-01 -3.621211349964141846e-01
2.233000000000000000e+03 3.771057128906250000e+01 -1.311434650421142578e+01 -7.491098642349243164e-01 1.058737710118293762e-01 -1.929708272218704224e-01 -2.621423900127410889e-01
2.234000000000000000e+03 5.534790515899658203e+00 -5.591410160064697266e+00 -1.540584344184026122e-04 7.234152872115373611e-04 1.708070631138980389e-04 -1.687563199084252119e-04
2.235000000000000000e+03 7.072778701782226562e+00 -5.309573173522949219e+00 1.129725205828435719e-04 -2.840071974787861109e-04 -5.131040597916580737e-05 -3.470631199888885021e-04
2.236000000000000000e+03 3.570273590087890625e+01 -1.246095776557922363e+00 -8.292456865310668945e-01 6.691895425319671631e-02 -2.286980152130126953e-01 4.807137548923492432e-01
2.237000000000000000e+03 3.948179626464843750e+01 -1.929234743118286133e+00 -1.050486922264099121e+00 7.982566952705383301e-02 -2.911983728408813477e-01 3.438684940338134766e-01
2.238000000000000000e+03 3.804365539550781250e+01 -1.188563585281372070e+00 -8.647328615188598633e-01 9.548734873533248901e-02 -2.307736575603485107e-01 4.076201915740966797e-01
2.239000000000000000e+03 4.022429275512695312e+01 -1.931896567344665527e+00 -1.051339268684387207e+00 8.788971602916717529e-02 -2.890348732471466064e-01 3.117109239101409912e-01
2.240000000000000000e+03 4.247799301147460938e+01 -1.924684405326843262e+00 -9.976714253425598145e-01 1.315545141696929932e-01 -2.598350942134857178e-01 1.769949048757553101e-01
2.241000000000000000e+03 3.879873275756835938e+01 -1.183973550796508789e+00 -8.682974576950073242e-01 1.040698662400245667e-01 -2.292682826519012451e-01 3.743529021739959717e-01
2.242000000000000000e+03 3.649392700195312500e+01 -1.224148035049438477e+00 -8.467748165130615234e-01 7.697415351867675781e-02 -2.309402078390121460e-01 4.603819549083709717e-01
2.243000000000000000e+03 4.250952529907226562e+01 -1.237227559089660645e+00 -7.737631797790527344e-01 1.871426552534103394e-01 -1.759861558675765991e-01 1.373730152845382690e-01
2.244000000000000000e+03 3.316795730590820312e+01 -1.157612895965576172e+01 -1.061733365058898926e+00 -2.964683109894394875e-03 -3.194094002246856689e-01 -3.854263126850128174e-01
2.245000000000000000e+03 3.475919723510742188e+01 -1.220034790039062500e+01 -9.733917713165283203e-01 1.060321275144815445e-02 -2.888365685939788818e-01 -3.720075488090515137e-01
2.246000000000000000e+03 3.238322448730468750e+01 -1.164450168609619141e+01 -1.025703191757202148e+00 -8.653715252876281738e-03 -3.103070557117462158e-01 -3.978014290332794189e-01
2.247000000000000000e+03 3.318523788452148438e+01 -1.232638168334960938e+01 -9.221833348274230957e-01 5.372383166104555130e-03 -2.750432789325714111e-01 -4.022886753082275391e-01
2.248000000000000000e+03 4.102092361450195312e+01 -1.230450391769409180e+00 -8.421785831451416016e-01 1.430612951517105103e-01 -2.097351849079132080e-01 2.543709278106689453e-01
2.249000000000000000e+03 3.954122543334960938e+01 -1.191223263740539551e+00 -8.629627823829650879e-01 1.138587817549705505e-01 -2.247312068939208984e-01 3.396345376968383789e-01
2.250000000000000000e+03 4.478347396850585938e+01 -1.112449288368225098e+00 -5.272409915924072266e-01 3.289518654346466064e-01 -5.948673933744430542e-02 -1.394659131765365601e-01
2.251000000000000000e+03 4.325164794921875000e+01 -1.210250139236450195e+00 -7.126103639602661133e-01 2.205676883459091187e-01 -1.476127952337265015e-01 6.270928680896759033e-02
2.252000000000000000e+03 4.995671081542968750e+01 -1.145922946929931641e+01 3.846318423748016357e-01 1.370739698410034180e+00 5.266114473342895508e-01 1.552984595298767090e+00
2.253000000000000000e+03 3.699609375000000000e+01 -1.221014118194580078e+01 -9.650685191154479980e-01 5.200318992137908936e-02 -2.739195823669433594e-01 -3.135360181331634521e-01
2.254000000000000000e+03 4.400690460205078125e+01 -1.167692780494689941e+00 -6.320641040802001953e-01 2.641986310482025146e-01 -1.103596314787864685e-01 -2.460679598152637482e-02
2.255000000000000000e+03 5.050229263305664062e+01 -1.171425056457519531e+01 5.616561770439147949e-01 1.777728796005249023e+00 7.018154859542846680e-01 1.880029082298278809e+00
2.256000000000000000e+03 3.000548934936523438e+01 -1.178483009338378906e+01 -9.159440398216247559e-01 -5.471141543239355087e-03 -2.764245569705963135e-01 -4.268701076507568359e-01
2.257000000000000000e+03 4.712913513183593750e+01 -1.939500689506530762e+00 -4.657709300518035889e-01 4.007143974304199219e-01 -1.951695606112480164e-02 -4.214906990528106689e-01
2.258000000000000000e+03 4.558661270141601562e+01 -1.052832603454589844e+00 -3.998667895793914795e-01 4.144626557826995850e-01 4.378759767860174179e-03 -2.773718237876892090e-01
2.259000000000000000e+03 4.789999771118164062e+01 -2.116422653198242188e+00 -3.594309985637664795e-01 4.863910079002380371e-01 3.808800503611564636e-02 -5.716759562492370605e-01
2.260000000000000000e+03 4.644013977050781250e+01 -1.011086940765380859e+00 -2.409406006336212158e-01 5.310314297676086426e-01 8.702724426984786987e-02 -4.624321758747100830e-01
2.261000000000000000e+03 2.998977279663085938e+01 -1.260996341705322266e+01 -8.032232522964477539e-01 -5.776114267064258456e-05 -2.409843057394027710e-01 -4.556927978992462158e-01
2.262000000000000000e+03 3.398035049438476562e+01 -1.223302555084228516e+01 -9.540021419525146484e-01 1.076326705515384674e-02 -2.829716503620147705e-01 -3.871360719203948975e-01
2.263000000000000000e+03 5.011579895019531250e+01 -2.281960487365722656e+00 2.730479240417480469e-01 1.017140865325927734e+00 3.870566487312316895e-01 -1.328888773918151855e+00
2.264000000000000000e+03 1.066626834869384766e+01 5.797544002532958984e+00 3.109633398707956076e-04 -2.258013002574443817e-03 -5.841148667968809605e-04 -1.621958799660205841e-03
2.265000000000000000e+03 3.160166168212890625e+01 -1.252379989624023438e+01 -8.653294444084167480e-01 2.299000741913914680e-03 -2.589091360569000244e-01 -4.325012564659118652e-01
2.266000000000000000e+03 4.915734481811523438e+01 -1.196298885345458984e+01 2.868245840072631836e-01 1.264160037040710449e+00 4.652954041957855225e-01 1.354852080345153809e+00
2.267000000000000000e+03 2.681725502014160156e+01 -1.173951148986816406e+01 -7.857862710952758789e-01 8.704776875674724579e-03 -2.331244498491287231e-01 -4.441239237785339355e-01
2.268000000000000000e+03 2.602369308471679688e+01 -1.168362903594970703e+01 -7.549300193786621094e-01 1.265868172049522400e-02 -2.226814031600952148e-01 -4.451661407947540283e-01
2.269000000000000000e+03 2.668238830566406250e+01 -1.253751659393310547e+01 -7.140013575553894043e-01 1.260801404714584351e-02 -2.104180157184600830e-01 -4.737068116664886475e-01
2.270000000000000000e+03 2.916176414489746094e+01 -1.269405937194824219e+01 -7.717471122741699219e-01 1.367745804600417614e-03 -2.311138212680816650e-01 -4.632923305034637451e-01
2.271000000000000000e+03 4.729787063598632812e+01 -1.166489243507385254e+00 -1.350810974836349487e-01 6.191958785057067871e-01 1.452344208955764771e-01 -6.299256682395935059e-01
2.272000000000000000e+03 2.829585838317871094e+01 -1.279971885681152344e+01 -7.347885966300964355e-01 4.728008061647415161e-03 -2.190181761980056763e-01 -4.738127291202545166e-01
2.273000000000000000e+03 2.371449851989746094e+01 -1.155601692199707031e+01 -6.664195656776428223e-01 2.299459651112556458e-02 -1.930274814367294312e-01 -4.379799067974090576e-01
2.274000000000000000e+03 1.989179611206054688e+01 -1.587759876251220703e+01 -4.810898602008819580e-01 -9.523503482341766357e-02 -1.728974580764770508e-01 -4.586155712604522705e-01
2.275000000000000000e+03 2.745355606079101562e+01 -1.273677921295166016e+01 -7.188913226127624512e-01 8.165396749973297119e-03 -2.132177799940109253e-01 -4.747262299060821533e-01
2.276000000000000000e+03 4.953704071044921875e+01 -2.010237693786621094e+00 1.683354079723358154e-01 9.041937589645385742e-01 3.217587471008300781e-01 -1.156285285949707031e+00
2.277000000000000000e+03 2.513664817810058594e+01 -1.247426128387451172e+01 -6.733838319778442383e-01 1.737390086054801941e-02 -1.968029737472534180e-01 -4.741530716419219971e-01
2.278000000000000000e+03 2.005075454711914062e+01 -1.314752006530761719e+01 -5.409129261970520020e-01 -5.679886043071746826e-02 -1.793135404586791992e-01 -4.537788629531860352e-01
2.279000000000000000e+03 2.288746643066406250e+01 -1.226396274566650391e+01 -6.168782711029052734e-01 1.543344929814338684e-02 -1.804334372282028198e-01 -4.576087594032287598e-01
2.280000000000000000e+03 2.210867309570312500e+01 -1.231751537322998047e+01 -5.944474339485168457e-01 6.242842879146337509e-03 -1.764613687992095947e-01 -4.556257128715515137e-01
2.281000000000000000e+03 5.122745513916015625e+01 -1.139825439453125000e+01 7.101256251335144043e-01 2.168679237365722656e+00 8.636414408683776855e-01 2.206526994705200195e+00
2.282000000000000000e+03 5.118204879760742188e+01 -1.059710597991943359e+01 6.409718394279479980e-01 1.652247905731201172e+00 6.879659295082092285e-01 1.956406354904174805e+00
2.283000000000000000e+03 1.104623126983642578e+01 6.838042259216308594e+00 -1.976577332243323326e-04 -2.127398038282990456e-03 -6.975167198106646538e-04 -1.345520722679793835e-03
2.284000000000000000e+03 7.547118186950683594e+00 9.992575645446777344e+00 -2.513399340386968106e-05 1.693235244601964951e-03 5.004303529858589172e-04 6.164958467707037926e-04
2.285000000000000000e+03 6.778562545776367188e+00 1.092307853698730469e+01 2.528373152017593384e-03 3.318325616419315338e-04 8.580617140978574753e-04 4.407577216625213623e-03
2.286000000000000000e+03 2.347189903259277344e+01 7.678727626800537109e+00 -3.728195428848266602e-01 -5.130302906036376953e-01 -2.657549381256103516e-01 6.676226258277893066e-01
2.287000000000000000e+03 2.285546684265136719e+01 6.930457592010498047e+00 -3.353336751461029053e-01 -6.033781766891479492e-01 -2.816135585308074951e-01 6.560005545616149902e-01
2.288000000000000000e+03 2.193151664733886719e+01 1.283370971679687500e+01 -5.425406694412231445e-01 -6.888656616210937500e-01 -3.694218993186950684e-01 5.615271925926208496e-01
2.289000000000000000e+03 2.263818740844726562e+01 1.942765808105468750e+01 -1.840100735425949097e-01 -3.887954354286193848e-01 -1.718416512012481689e-01 2.220567613840103149e-01
2.290000000000000000e+03 2.298602294921875000e+01 -1.612584304809570312e+01 -4.450684189796447754e-01 -1.756829954683780670e-02 -1.387910246849060059e-01 -4.969832897186279297e-01
2.291000000000000000e+03 6.301790714263916016e+00 2.116614532470703125e+01 -3.022017180919647217e-01 -1.294442564249038696e-01 -1.294937878847122192e-01 2.688257694244384766e-01
2.292000000000000000e+03 4.703735828399658203e+00 7.153400897979736328e+00 8.603426977060735226e-05 7.372935215244069695e-05 4.792908657691441476e-05 -2.197296998929232359e-04
2.293000000000000000e+03 2.417219352722167969e+01 3.845114946365356445e+00 -2.678714692592620850e-01 -3.834938108921051025e-01 -1.954095810651779175e-01 6.326282620429992676e-01
2.294000000000000000e+03 2.408159065246582031e+01 2.248662471771240234e+00 -2.424560487270355225e-01 -3.357102572917938232e-01 -1.734498888254165649e-01 5.759887099266052246e-01
2.295000000000000000e+03 9.622888565063476562e+00 7.209585189819335938e+00 6.870217621326446533e-04 -1.748007838614284992e-03 -3.182958462275564671e-04 -4.952838571625761688e-05
2.296000000000000000e+03 7.243598175048828125e+01 -2.675377464294433594e+01 -2.381841987371444702e-01 7.898151874542236328e+00 2.297990322113037109e+00 -5.367918610572814941e-01
2.297000000000000000e+03 6.862747955322265625e+01 -3.330587387084960938e+01 -3.233651518821716309e-01 7.546206951141357422e+00 2.166852712631225586e+00 -2.238692343235015869e-01
2.298000000000000000e+03 2.194415473937988281e+01 -9.026590585708618164e-01 -1.113752424716949463e-01 -2.678642868995666504e-01 -1.137718558311462402e-01 2.974229156970977783e-01
2.299000000000000000e+03 7.148518371582031250e+01 -3.267279052734375000e+01 -2.206240147352218628e-01 7.854828834533691406e+00 2.290261507034301758e+00 -2.741262316703796387e-01
2.300000000000000000e+03 7.353543853759765625e+01 -3.464097213745117188e+01 -1.423487216234207153e-01 8.056806564331054688e+00 2.374337434768676758e+00 -1.972904801368713379e-01
2.301000000000000000e+03 7.365119171142578125e+01 -2.281700325012207031e+01 -1.703697443008422852e-01 7.786859512329101562e+00 2.284946918487548828e+00 -6.909124851226806641e-01
2.302000000000000000e+03 1.014391994476318359e+01 2.931054306030273438e+01 1.618233025074005127e-01 -6.653991341590881348e-01 -1.510727554559707642e-01 4.126890897750854492e-01
2.303000000000000000e+03 9.097889900207519531e+00 3.347096633911132812e+01 1.901319921016693115e-01 -6.692555546760559082e-01 -1.437370628118515015e-01 2.859827578067779541e-01
2.304000000000000000e+03 6.999015808105468750e+01 1.699846649169921875e+01 -3.142624795436859131e-01 7.767813682556152344e+00 2.236065387725830078e+00 3.654051125049591064e-01
2.305000000000000000e+03 7.277528381347656250e+01 1.502980136871337891e+01 -2.118507474660873413e-01 7.912522792816162109e+00 2.310201644897460938e+00 4.751621484756469727e-01
2.306000000000000000e+03 7.349288177490234375e+01 2.567799949645996094e+01 -6.427675485610961914e-02 8.065895080566406250e+00 2.400485515594482422e+00 1.189936250448226929e-01
2.307000000000000000e+03 7.169055938720703125e+01 1.019675350189208984e+01 -2.774433195590972900e-01 7.862690448760986328e+00 2.275573968887329102e+00 7.367689013481140137e-01
2.308000000000000000e+03 7.287780761718750000e+01 8.711061477661132812e+00 -1.933607906103134155e-01 7.764511108398437500e+00 2.271345138549804688e+00 7.869798541069030762e-01
2.309000000000000000e+03 7.376645660400390625e+01 -1.637058830261230469e+01 3.141081333160400391e-02 7.377289772033691406e+00 2.222610235214233398e+00 -8.697539567947387695e-01
2.310000000000000000e+03 7.359084320068359375e+01 -1.000968933105468750e+01 4.433211088180541992e-01 6.938177108764648438e+00 2.214449405670166016e+00 -4.917918443679809570e-01
2.311000000000000000e+03 7.464226531982421875e+01 -9.687254905700683594e+00 3.469883501529693604e-01 6.717458248138427734e+00 2.119333982467651367e+00 -4.097190201282501221e-01
2.312000000000000000e+03 7.175789642333984375e+01 3.186096668243408203e+00 6.217577308416366577e-02 7.662469863891601562e+00 2.317393779754638672e+00 9.890844225883483887e-01
2.313000000000000000e+03 7.320955657958984375e+01 9.327888488769531250e-01 2.189646661281585693e-01 7.257902145385742188e+00 2.243060111999511719e+00 8.359860777854919434e-01
2.314000000000000000e+03 7.374509429931640625e+01 -1.768008232116699219e+01 -2.844990417361259460e-02 7.476652622222900391e+00 2.234460830688476562e+00 -8.687281012535095215e-01
2.315000000000000000e+03 7.260755920410156250e+01 -2.890481233596801758e+00 5.650987029075622559e-01 7.144105911254882812e+00 2.312761545181274414e+00 5.413175821304321289e-01
2.316000000000000000e+03 7.354531860351562500e+01 -6.653257369995117188e+00 5.510076880455017090e-01 6.851942539215087891e+00 2.220885038375854492e+00 -4.108694940805435181e-02
2.317000000000000000e+03 7.375768280029296875e+01 -1.375501823425292969e+01 1.850329786539077759e-01 7.181424617767333984e+00 2.209937334060668945e+00 -8.085252642631530762e-01
2.318000000000000000e+03 7.333495330810546875e+01 -7.989158630371093750e+00 5.636326670646667480e-01 6.917473316192626953e+00 2.244331836700439453e+00 -2.496863603591918945e-01
2.319000000000000000e+03 7.367803192138671875e+01 -2.831445217132568359e+00 4.364145398139953613e-01 6.926299571990966797e+00 2.208814382553100586e+00 4.907987713813781738e-01
2.320000000000000000e+03 7.353809356689453125e+01 -2.044665908813476562e+01 -1.378286778926849365e-01 7.680557727813720703e+00 2.262818574905395508e+00 -8.061382770538330078e-01
2.321000000000000000e+03 7.395535278320312500e+01 5.763596534729003906e+00 -6.913305073976516724e-02 7.510744094848632812e+00 2.232483386993408203e+00 8.365134596824645996e-01
2.322000000000000000e+03 7.469454193115234375e+01 -1.470038652420043945e+00 2.652194797992706299e-01 6.790049076080322266e+00 2.116580486297607422e+00 5.661497712135314941e-01
2.323000000000000000e+03 7.359929656982421875e+01 -1.579056620597839355e+00 3.686950206756591797e-01 7.017470359802246094e+00 2.215849637985229492e+00 6.296783089637756348e-01
2.324000000000000000e+03 7.221187591552734375e+01 5.896498560905456543e-01 2.983113825321197510e-01 7.448379516601562500e+00 2.324007272720336914e+00 8.918443918228149414e-01
2.325000000000000000e+03 7.432614135742187500e+01 1.255240535736083984e+01 -1.545114219188690186e-01 7.875923156738281250e+00 2.316423416137695312e+00 5.459229946136474609e-01
2.326000000000000000e+03 1.026315689086914062e+01 2.125381469726562500e+01 -4.035967290401458740e-01 -5.834982991218566895e-01 -2.961285114288330078e-01 6.279239058494567871e-01
2.327000000000000000e+03 8.728542327880859375e+00 -2.409372711181640625e+01 -3.691833466291427612e-02 -4.201121926307678223e-01 -1.371091604232788086e-01 -3.854122161865234375e-01
2.328000000000000000e+03 6.730021476745605469e+00 -6.468175888061523438e+00 2.064529253402724862e-04 -3.153934667352586985e-04 -3.268216460128314793e-05 -3.180854837410151958e-04
2.329000000000000000e+03 8.641488075256347656e+00 2.842525100708007812e+01 9.781129658222198486e-02 -6.363269686698913574e-01 -1.615546941757202148e-01 4.295072257518768311e-01
2.330000000000000000e+03 7.161304473876953125e+00 2.755183219909667969e+01 3.018714301288127899e-02 -5.647225975990295410e-01 -1.603606343269348145e-01 4.185892939567565918e-01
2.331000000000000000e+03 5.944072723388671875e+00 8.810463905334472656e+00 1.940915593877434731e-03 -1.524102059192955494e-03 1.250440545845776796e-04 2.169025829061865807e-04
2.332000000000000000e+03 7.402639389038085938e+00 8.494542121887207031e+00 3.881448355969041586e-04 1.127515337429940701e-03 4.546980489976704121e-04 -3.181019565090537071e-05
2.333000000000000000e+03 5.662950992584228516e+00 7.551165103912353516e+00 1.662204740568995476e-03 -3.709747397806495428e-04 3.873689856845885515e-04 -1.243369042640551925e-04
2.334000000000000000e+03 6.554744720458984375e+00 7.982491970062255859e+00 6.163130165077745914e-04 -2.501377894077450037e-04 1.098525608540512621e-04 9.849626803770661354e-04
2.335000000000000000e+03 2.562392425537109375e+01 8.981809616088867188e+00 -3.573198318481445312e-01 -2.473551481962203979e-01 -1.814024895429611206e-01 6.297079324722290039e-01
2.336000000000000000e+03 9.296104431152343750e+00 -2.168499183654785156e+01 -1.297907978296279907e-01 -4.495073556900024414e-01 -1.737894415855407715e-01 -4.160456061363220215e-01
2.337000000000000000e+03 2.124755287170410156e+01 -1.228967761993408203e+01 -5.709612369537353516e-01 -1.029681041836738586e-02 -1.743774116039276123e-01 -4.464600980281829834e-01
2.338000000000000000e+03 2.214381790161132812e+01 -1.320667266845703125e+01 -5.755303502082824707e-01 1.209384761750698090e-03 -1.722963005304336548e-01 -4.776898622512817383e-01
2.339000000000000000e+03 1.211645889282226562e+01 -2.278215217590332031e+01 -8.843176066875457764e-02 -4.671670794486999512e-01 -1.666796505451202393e-01 -3.745561242103576660e-01
2.340000000000000000e+03 1.398784160614013672e+01 -2.178046226501464844e+01 -1.461884677410125732e-01 -4.382316172122955322e-01 -1.753260344266891479e-01 -3.532567918300628662e-01
2.341000000000000000e+03 6.867201232910156250e+01 2.930471801757812500e+01 -1.042720824480056763e-01 7.355081081390380859e+00 2.175242662429809570e+00 2.718386426568031311e-02
2.342000000000000000e+03 1.883380317687988281e+01 -2.037391471862792969e+01 -2.127948701381683350e-01 -2.001281529664993286e-01 -1.238769069314002991e-01 -3.926706016063690186e-01
2.343000000000000000e+03 8.083953857421875000e+00 2.327953529357910156e+01 -1.818585395812988281e-01 -4.316219389438629150e-01 -1.840441375970840454e-01 4.927529692649841309e-01
2.344000000000000000e+03 1.266627883911132812e+01 2.364260673522949219e+01 -3.785345703363418579e-02 -8.420182466506958008e-01 -2.639614939689636230e-01 5.380739569664001465e-01
2.345000000000000000e+03 2.475820350646972656e+01 1.536618232727050781e+01 -3.106814920902252197e-01 -2.124634981155395508e-01 -1.569435000419616699e-01 3.498820662498474121e-01
2.346000000000000000e+03 2.037464332580566406e+01 -1.494575405120849609e+01 -5.131868720054626465e-01 -6.504583358764648438e-02 -1.734698116779327393e-01 -4.699419438838958740e-01
2.347000000000000000e+03 8.718202590942382812e+00 -3.002425956726074219e+01 1.008827760815620422e-01 -4.725088775157928467e-01 -1.114878281950950623e-01 -2.987149953842163086e-01
2.348000000000000000e+03 6.239128112792968750e+00 -2.942361831665039062e+01 5.144394189119338989e-02 -4.653194546699523926e-01 -1.241626515984535217e-01 -2.703470289707183838e-01
2.349000000000000000e+03 1.471472167968750000e+01 2.313062477111816406e+01 -2.770482562482357025e-02 -9.167725443840026855e-01 -2.833431959152221680e-01 4.632486402988433838e-01
2.350000000000000000e+03 1.415871906280517578e+01 2.133852958679199219e+01 -2.541000545024871826e-01 -1.008662819862365723e+00 -3.788288533687591553e-01 5.577656030654907227e-01
2.351000000000000000e+03 1.759055900573730469e+01 -2.135419082641601562e+01 -1.722384542226791382e-01 -2.669027149677276611e-01 -1.317423582077026367e-01 -3.719803094863891602e-01
2.352000000000000000e+03 2.200293922424316406e+01 1.148794078826904297e+01 -5.153315663337707520e-01 -7.151266932487487793e-01 -3.691374659538269043e-01 6.094388961791992188e-01
2.353000000000000000e+03 5.133365154266357422e+00 -1.386360836029052734e+01 7.556685246527194977e-03 -1.171049755066633224e-02 -1.246143481694161892e-03 -4.831674508750438690e-03
2.354000000000000000e+03 6.524646759033203125e+00 2.231142044067382812e+01 -2.014160454273223877e-01 -2.797971963882446289e-01 -1.443639695644378662e-01 3.677746355533599854e-01
2.355000000000000000e+03 7.098999786376953125e+01 1.590399837493896484e+01 -2.862768769264221191e-01 7.844281196594238281e+00 2.267401218414306641e+00 4.380536377429962158e-01
2.356000000000000000e+03 7.334854602813720703e+00 -2.817527008056640625e+01 4.962874948978424072e-02 -4.430747032165527344e-01 -1.180337890982627869e-01 -3.104780018329620361e-01
2.357000000000000000e+03 1.151699161529541016e+01 -2.407448387145996094e+01 -4.939741920679807663e-03 -4.624541997909545898e-01 -1.402181833982467651e-01 -3.770466148853302002e-01
2.358000000000000000e+03 5.533773422241210938e+01 -3.386609077453613281e+00 9.410278201103210449e-01 9.748860359191894531e+00 3.206966400146484375e+00 -5.016131877899169922e+00
2.359000000000000000e+03 5.562757873535156250e+01 -3.529498338699340820e+00 8.046531677246093750e-01 1.119132900238037109e+01 3.598794698715209961e+00 -4.979560375213623047e+00
2.360000000000000000e+03 5.354972076416015625e+01 -3.266534090042114258e+00 1.528052449226379395e+00 3.606535911560058594e+00 1.540376543998718262e+00 -3.651365518569946289e+00
2.361000000000000000e+03 5.561384201049804688e+01 -9.362727165222167969e+00 7.084382176399230957e-01 1.100422286987304688e+01 3.513798475265502930e+00 4.845882415771484375e+00
2.362000000000000000e+03 5.432782745361328125e+01 -9.450092315673828125e+00 1.537357807159423828e+00 5.648025512695312500e+00 2.155615091323852539e+00 4.565811634063720703e+00
2.363000000000000000e+03 5.553448867797851562e+01 -3.025486707687377930e+00 5.510208010673522949e-01 1.033934688568115234e+01 3.267110347747802734e+00 -4.573545932769775391e+00
2.364000000000000000e+03 5.302829360961914062e+01 -9.143401145935058594e+00 1.320387244224548340e+00 2.175170421600341797e+00 1.048667311668395996e+00 2.822613477706909180e+00
2.365000000000000000e+03 5.627394104003906250e+01 -9.077852249145507812e+00 3.513855338096618652e-01 1.419665241241455078e+01 4.364411354064941406e+00 3.853815555572509766e+00
2.366000000000000000e+03 5.845528030395507812e+01 -7.208868026733398438e+00 7.481991767883300781e+00 1.474128532409667969e+01 6.666983127593994141e+00 -1.828653097152709961e+00
2.367000000000000000e+03 5.881020355224609375e+01 -7.557455539703369141e+00 5.988467693328857422e+00 1.392525005340576172e+01 5.974115371704101562e+00 -1.834747314453125000e+00
2.368000000000000000e+03 5.725015640258789062e+01 -3.813740730285644531e+00 7.088088989257812500e-01 1.606381988525390625e+01 5.031788349151611328e+00 -8.833096027374267578e-01
2.369000000000000000e+03 5.871059417724609375e+01 -5.285727977752685547e+00 6.269945144653320312e+00 1.404414558410644531e+01 6.094227313995361328e+00 1.827054738998413086e+00
2.370000000000000000e+03 5.743933105468750000e+01 -8.725636482238769531e+00 1.406541705131530762e+00 1.668960380554199219e+01 5.428843498229980469e+00 -3.106043487787246704e-02
2.371000000000000000e+03 5.785482025146484375e+01 -8.486340522766113281e+00 2.518942594528198242e+00 1.645267868041992188e+01 5.691486835479736328e+00 -1.116002559661865234e+00
2.372000000000000000e+03 5.867824172973632812e+01 -8.288880348205566406e+00 3.885068178176879883e+00 1.443666362762451172e+01 5.496519565582275391e+00 -1.835488080978393555e+00
2.373000000000000000e+03 5.814476013183593750e+01 -4.700469493865966797e+00 4.214616298675537109e+00 1.589631557464599609e+01 6.033279895782470703e+00 1.906336307525634766e+00
2.374000000000000000e+03 5.804901504516601562e+01 -4.449676036834716797e+00 3.225413322448730469e+00 1.608088684082031250e+01 5.791889667510986328e+00 1.569603800773620605e+00
2.375000000000000000e+03 5.748236083984375000e+01 -9.146269798278808594e+00 7.743454575538635254e-01 1.562436199188232422e+01 4.919612407684326172e+00 4.854888021945953369e-01
2.376000000000000000e+03 5.194152450561523438e+01 -1.063236713409423828e+01 9.036357402801513672e-01 2.287651538848876953e+00 9.573861956596374512e-01 2.486115217208862305e+00
2.377000000000000000e+03 5.376583099365234375e+01 -9.644630432128906250e+00 1.538598895072937012e+00 4.239882946014404297e+00 1.733544588088989258e+00 3.955592870712280273e+00
2.378000000000000000e+03 5.471387863159179688e+01 -9.197468757629394531e+00 1.704131364822387695e+00 6.928562164306640625e+00 2.589807987213134766e+00 5.047647476196289062e+00
2.379000000000000000e+03 5.338825225830078125e+01 -9.007225990295410156e+00 1.557823538780212402e+00 2.514711856842041016e+00 1.221760630607604980e+00 3.165920257568359375e+00
2.380000000000000000e+03 5.220109176635742188e+01 -2.644699096679687500e+00 1.013139128684997559e+00 2.169221639633178711e+00 9.547082185745239258e-01 -2.542358160018920898e+00
2.381000000000000000e+03 2.523357009887695312e+01 -1.322469413280487061e-01 -2.983868122100830078e-01 -1.836619824171066284e-01 -1.446146368980407715e-01 5.123654007911682129e-01
2.382000000000000000e+03 2.475263404846191406e+01 -6.602711081504821777e-01 -2.806653976440429688e-01 -1.811489313840866089e-01 -1.385442912578582764e-01 4.707450866699218750e-01
2.383000000000000000e+03 5.073496627807617188e+01 -1.401388764381408691e+00 6.463066935539245605e-01 1.778984189033508301e+00 7.275872826576232910e-01 -1.898408532142639160e+00
2.384000000000000000e+03 5.155227661132812500e+01 -2.239038944244384766e+00 7.850953936576843262e-01 1.879956483840942383e+00 7.995155453681945801e-01 -2.174047946929931641e+00
2.385000000000000000e+03 5.137859344482421875e+01 -1.742863535881042480e+00 7.759955525398254395e-01 2.044473409652709961e+00 8.461406230926513672e-01 -2.195180654525756836e+00
2.386000000000000000e+03 2.524851226806640625e+01 -1.062841534614562988e+00 -3.147109448909759521e-01 -1.481525003910064697e-01 -1.388590335845947266e-01 4.636377692222595215e-01
2.387000000000000000e+03 9.169810295104980469e+00 5.914624691009521484e+00 1.938008645083755255e-04 -1.962812151759862900e-03 -5.307034007273614407e-04 -1.220979727804660797e-03
2.388000000000000000e+03 5.183042526245117188e+01 -1.126823711395263672e+01 8.330780863761901855e-01 2.620858907699584961e+00 1.036181092262268066e+00 2.547472238540649414e+00
2.389000000000000000e+03 2.720244979858398438e+01 -1.689416289329528809e+00 -4.434525370597839355e-01 -7.400242239236831665e-02 -1.552364826202392578e-01 4.769718945026397705e-01
2.390000000000000000e+03 2.829685592651367188e+01 -1.033454760909080505e-02 -4.393906295299530029e-01 -7.226919382810592651e-02 -1.534979492425918579e-01 5.870447158813476562e-01
2.391000000000000000e+03 2.663549804687500000e+01 -4.354996979236602783e-01 -3.751808404922485352e-01 -1.189998760819435120e-01 -1.482542157173156738e-01 5.382068157196044922e-01
2.392000000000000000e+03 2.727054595947265625e+01 -6.247841715812683105e-01 -4.169428944587707520e-01 -9.276079386472702026e-02 -1.529111117124557495e-01 5.357913374900817871e-01
2.393000000000000000e+03 2.785638809204101562e+01 -1.601884603500366211e+00 -4.783218502998352051e-01 -6.175532937049865723e-02 -1.620231568813323975e-01 4.928035736083984375e-01
2.394000000000000000e+03 2.690670585632324219e+01 -1.231480479240417480e+00 -4.172613620758056641e-01 -8.880557864904403687e-02 -1.518200784921646118e-01 4.969125092029571533e-01
2.395000000000000000e+03 3.125870895385742188e+01 -1.726438879966735840e+00 -6.923058629035949707e-01 1.036387309432029724e-02 -2.045826017856597900e-01 5.132923126220703125e-01
2.396000000000000000e+03 2.997931480407714844e+01 -9.874846339225769043e-01 -5.700622200965881348e-01 -1.658503338694572449e-02 -1.759941726922988892e-01 5.506495237350463867e-01
2.397000000000000000e+03 2.900021743774414062e+01 -4.207344055175781250e-01 -4.916907846927642822e-01 -4.336179047822952271e-02 -1.605157703161239624e-01 5.734062194824218750e-01
2.398000000000000000e+03 4.967182159423828125e+01 -1.184681653976440430e+00 4.015234708786010742e-01 1.280354619026184082e+00 5.045634508132934570e-01 -1.423603534698486328e+00
2.399000000000000000e+03 3.131339645385742188e+01 -1.608630567789077759e-01 -5.693160891532897949e-01 1.629855483770370483e-02 -1.659052520990371704e-01 5.815264582633972168e-01
2.400000000000000000e+03 3.058566474914550781e+01 -1.734814524650573730e+00 -6.487426161766052246e-01 -2.320137340575456619e-03 -1.953188180923461914e-01 5.135221481323242188e-01
2.401000000000000000e+03 3.265444564819335938e+01 -1.592652916908264160e+00 -7.523281574249267578e-01 2.889551408588886261e-02 -2.170297950506210327e-01 5.133627653121948242e-01
2.402000000000000000e+03 4.480449295043945312e+01 -1.300773048400878906e+01 -2.467058748006820679e-01 5.156959891319274902e-01 8.069703727960586548e-02 3.780504465103149414e-01
2.403000000000000000e+03 4.344480895996093750e+01 -1.190271949768066406e+01 -7.570655345916748047e-01 2.342661768198013306e-01 -1.568398177623748779e-01 6.697178632020950317e-02
2.404000000000000000e+03 4.564991760253906250e+01 -1.278776550292968750e+01 -1.798357665538787842e-01 6.023984551429748535e-01 1.267688125371932983e-01 5.204225182533264160e-01
2.405000000000000000e+03 7.610431194305419922e+00 -5.863941192626953125e+00 -1.716845727059990168e-04 8.539359550923109055e-04 2.046754088951274753e-04 2.060220140265300870e-04
2.406000000000000000e+03 4.469019317626953125e+01 -1.445035362243652344e+01 2.360275760293006897e-02 7.173091173171997070e-01 2.222735732793807983e-01 5.237150788307189941e-01
2.407000000000000000e+03 3.329196548461914062e+01 -8.166795969009399414e-01 -6.966873407363891602e-01 4.565068706870079041e-02 -1.953109949827194214e-01 5.384314656257629395e-01
2.408000000000000000e+03 3.405347824096679688e+01 -6.017315387725830078e-01 -6.921447515487670898e-01 5.924032256007194519e-02 -1.898713260889053345e-01 5.324452519416809082e-01
2.409000000000000000e+03 4.122139358520507812e+01 -1.194115734100341797e+01 -8.960661292076110840e-01 1.493711322546005249e-01 -2.240084856748580933e-01 -1.221893429756164551e-01
2.410000000000000000e+03 4.186443328857421875e+01 -1.280446910858154297e+01 -6.132687330245971680e-01 2.442103922367095947e-01 -1.107174977660179138e-01 -9.231220930814743042e-03
2.411000000000000000e+03 4.045885848999023438e+01 -1.268282508850097656e+01 -7.362203598022460938e-01 1.558916717767715454e-01 -1.740986108779907227e-01 -1.310976743698120117e-01
2.412000000000000000e+03 4.113026809692382812e+01 -1.264007663726806641e+01 -7.117230892181396484e-01 1.845283955335617065e-01 -1.581584215164184570e-01 -9.083486348390579224e-02
2.413000000000000000e+03 3.892005157470703125e+01 -1.257426929473876953e+01 -8.405619859695434570e-01 9.616055339574813843e-02 -2.233204245567321777e-01 -2.222604602575302124e-01
2.414000000000000000e+03 3.970141220092773438e+01 -1.274983406066894531e+01 -7.582501173019409180e-01 1.302081048488616943e-01 -1.884126067161560059e-01 -1.714757084846496582e-01
2.415000000000000000e+03 3.498715972900390625e+01 2.988008856773376465e-01 -5.984064936637878418e-01 9.448876231908798218e-02 -1.511753201484680176e-01 5.242777466773986816e-01
2.416000000000000000e+03 3.624620437622070312e+01 -1.219494342803955078e+01 -9.792561531066894531e-01 3.546248003840446472e-02 -2.831380963325500488e-01 -3.338245153427124023e-01
2.417000000000000000e+03 4.787139129638671875e+01 -1.186962604522705078e+01 -1.071354839950799942e-02 7.788050174713134766e-01 2.304274439811706543e-01 8.851354718208312988e-01
2.418000000000000000e+03 4.831602859497070312e+01 -1.367359066009521484e+01 3.572424948215484619e-01 1.532072186470031738e+00 5.667943954467773438e-01 1.350329995155334473e+00
2.419000000000000000e+03 3.727507781982421875e+01 -1.203714966773986816e+00 -8.586876392364501953e-01 8.594818413257598877e-02 -2.318218350410461426e-01 4.353002011775970459e-01
2.420000000000000000e+03 3.550960159301757812e+01 -1.218836307525634766e+01 -9.790511727333068848e-01 2.812773361802101135e-02 -2.852770388126373291e-01 -3.569300770759582520e-01
2.421000000000000000e+03 3.856727981567382812e+01 -1.337907981872558594e+01 -6.710745692253112793e-01 1.293288767337799072e-01 -1.625237166881561279e-01 -2.203022986650466919e-01
2.422000000000000000e+03 4.641735458374023438e+01 -1.269637203216552734e+01 -9.014448523521423340e-02 6.976720690727233887e-01 1.822582781314849854e-01 6.673901081085205078e-01
2.423000000000000000e+03 4.713259124755859375e+01 -1.266125297546386719e+01 2.348734624683856964e-02 8.300336003303527832e-01 2.560562789440155029e-01 8.389430642127990723e-01
2.424000000000000000e+03 3.809731292724609375e+01 -4.209094345569610596e-01 -7.110776901245117188e-01 1.295532137155532837e-01 -1.744573414325714111e-01 4.025880396366119385e-01
2.425000000000000000e+03 3.886064529418945312e+01 -4.080012440681457520e-01 -6.978226900100708008e-01 1.443380266427993774e-01 -1.660453975200653076e-01 3.653908371925354004e-01
2.426000000000000000e+03 3.325927352905273438e+01 -1.304883289337158203e+01 -8.070426583290100098e-01 2.213377878069877625e-02 -2.354726493358612061e-01 -4.105602800846099854e-01
2.427000000000000000e+03 4.900033187866210938e+01 -1.259682655334472656e+01 3.640471696853637695e-01 1.426645517349243164e+00 5.372077822685241699e-01 1.418448448181152344e+00
2.428000000000000000e+03 4.324486923217773438e+01 -5.165225863456726074e-01 -5.087528228759765625e-01 2.931952476501464844e-01 -6.466726958751678467e-02 6.054298952221870422e-03
2.429000000000000000e+03 4.180430221557617188e+01 -5.542240142822265625e-01 -6.246153712272644043e-01 2.229049652814865112e-01 -1.205131188035011292e-01 1.618976742029190063e-01
2.430000000000000000e+03 4.027936172485351562e+01 -1.209017872810363770e+00 -8.573281168937683105e-01 1.267828345298767090e-01 -2.191635817289352417e-01 3.000173568725585938e-01
2.431000000000000000e+03 3.477925872802734375e+01 -1.295099353790283203e+01 -8.315355777740478516e-01 3.362923488020896912e-02 -2.393718957901000977e-01 -3.729889094829559326e-01
2.432000000000000000e+03 3.960860061645507812e+01 -4.263871014118194580e-01 -6.900268793106079102e-01 1.588146537542343140e-01 -1.593636721372604370e-01 3.214008510112762451e-01
2.433000000000000000e+03 3.693988037109375000e+01 -1.304473972320556641e+01 -7.983287572860717773e-01 7.453797012567520142e-02 -2.171372324228286743e-01 -3.056750893592834473e-01
2.434000000000000000e+03 4.034465789794921875e+01 -4.686308205127716064e-01 -6.739631295204162598e-01 1.765360534191131592e-01 -1.492281258106231689e-01 2.735628187656402588e-01
2.435000000000000000e+03 4.473757553100585938e+01 -3.813281953334808350e-01 -3.198612928390502930e-01 4.402306675910949707e-01 3.611081466078758240e-02 -2.173443138599395752e-01
2.436000000000000000e+03 4.320496749877929688e+01 1.918976753950119019e-01 -3.331590592861175537e-01 3.750275671482086182e-01 1.256055291742086411e-02 -5.268948152661323547e-02
2.437000000000000000e+03 3.239194488525390625e+01 -1.244739627838134766e+01 -8.923672437667846680e-01 5.124739836901426315e-03 -2.661727368831634521e-01 -4.160399734973907471e-01
2.438000000000000000e+03 3.401673507690429688e+01 -1.291349029541015625e+01 -8.342320322990417480e-01 1.898315735161304474e-02 -2.445746511220932007e-01 -3.939287662506103516e-01
2.439000000000000000e+03 3.079178619384765625e+01 -1.339422416687011719e+01 -7.153704762458801270e-01 1.499061752110719681e-02 -2.101139575242996216e-01 -4.600326716899871826e-01
2.440000000000000000e+03 3.161873626708984375e+01 -1.343982887268066406e+01 -7.191459536552429199e-01 1.768836192786693573e-02 -2.104372829198837280e-01 -4.469068348407745361e-01
2.441000000000000000e+03 4.635710906982421875e+01 -1.302684694528579712e-01 -2.192439138889312744e-02 7.076172828674316406e-01 2.057078629732131958e-01 -5.848785638809204102e-01
2.442000000000000000e+03 3.246310043334960938e+01 -1.331177330017089844e+01 -7.482538223266601562e-01 1.961251534521579742e-02 -2.185923904180526733e-01 -4.350108504295349121e-01
2.443000000000000000e+03 3.372423553466796875e+01 -1.416945457458496094e+01 -6.170609593391418457e-01 5.047291889786720276e-02 -1.699764132499694824e-01 -3.977158367633819580e-01
2.444000000000000000e+03 3.000189781188964844e+01 -1.342816829681396484e+01 -7.021490335464477539e-01 9.096958674490451813e-03 -2.079156339168548584e-01 -4.712626039981842041e-01
2.445000000000000000e+03 4.973356246948242188e+01 -1.214616584777832031e+01 4.470537304878234863e-01 1.567858457565307617e+00 6.044736504554748535e-01 1.614715337753295898e+00
2.446000000000000000e+03 5.028840255737304688e+01 -1.236842250823974609e+01 5.506458878517150879e-01 1.955160140991210938e+00 7.517418265342712402e-01 1.889458179473876953e+00
2.447000000000000000e+03 2.706229972839355469e+01 -1.361331653594970703e+01 -6.374138593673706055e-01 1.592447422444820404e-02 -1.864468157291412354e-01 -4.966903626918792725e-01
2.448000000000000000e+03 2.921137809753417969e+01 -1.354920101165771484e+01 -6.761963367462158203e-01 4.356551915407180786e-03 -2.015519440174102783e-01 -4.795904755592346191e-01
2.449000000000000000e+03 4.765264892578125000e+01 -4.857123792171478271e-01 1.067509278655052185e-01 8.722349405288696289e-01 2.936957776546478271e-01 -8.489854335784912109e-01
2.450000000000000000e+03 4.809621810913085938e+01 -1.471271634101867676e+00 -4.616353660821914673e-02 7.024369835853576660e-01 1.968820244073867798e-01 -7.924023866653442383e-01
2.451000000000000000e+03 2.592123603820800781e+01 -1.245382118225097656e+01 -6.982861161231994629e-01 1.409886125475168228e-02 -2.052561789751052856e-01 -4.721036851406097412e-01
2.452000000000000000e+03 2.355915832519531250e+01 -1.238047695159912109e+01 -6.311570405960083008e-01 2.005586773157119751e-02 -1.833303570747375488e-01 -4.685422480106353760e-01
2.453000000000000000e+03 2.760169219970703125e+01 -1.422837543487548828e+01 -5.868645310401916504e-01 1.696869730949401855e-02 -1.709687560796737671e-01 -5.025780200958251953e-01
2.454000000000000000e+03 2.249577331542968750e+01 -6.317514181137084961e-01 -1.487132310867309570e-01 -2.737629711627960205e-01 -1.267428547143936157e-01 3.607262670993804932e-01
2.455000000000000000e+03 2.170676803588867188e+01 1.917335093021392822e-01 -1.115520372986793518e-01 -3.433474004268646240e-01 -1.364698261022567749e-01 3.423265218734741211e-01
2.456000000000000000e+03 4.986157226562500000e+01 -1.644649386405944824e+00 3.265519440174102783e-01 1.165642619132995605e+00 4.476583600044250488e-01 -1.363811969757080078e+00
2.457000000000000000e+03 2.513796234130859375e+01 -1.328577613830566406e+01 -6.299256086349487305e-01 1.754814200103282928e-02 -1.837132424116134644e-01 -4.935740828514099121e-01
2.458000000000000000e+03 2.600889205932617188e+01 -1.374325942993164062e+01 -6.097649931907653809e-01 1.773880608379840851e-02 -1.776078641414642334e-01 -5.043331384658813477e-01
2.459000000000000000e+03 2.112062644958496094e+01 -1.333341789245605469e+01 -5.553194880485534668e-01 -2.452411688864231110e-02 -1.739530861377716064e-01 -4.688231945037841797e-01
2.460000000000000000e+03 4.833853149414062500e+01 -8.841224908828735352e-01 1.376575231552124023e-01 9.115322232246398926e-01 3.147569298744201660e-01 -9.811430573463439941e-01
2.461000000000000000e+03 7.121924400329589844e+00 7.061166763305664062e+00 7.010733825154602528e-04 9.867869084700942039e-04 5.063581047579646111e-04 -9.054776455741375685e-05
2.462000000000000000e+03 5.101737594604492188e+01 -1.194807529449462891e+01 6.636705994606018066e-01 2.294408559799194336e+00 8.874236941337585449e-01 2.185024261474609375e+00
2.463000000000000000e+03 2.129873085021972656e+01 -1.442926692962646484e+01 -5.320128798484802246e-01 -3.211541101336479187e-02 -1.692384928464889526e-01 -4.788684248924255371e-01
2.464000000000000000e+03 2.319477462768554688e+01 1.279917716979980469e+01 -4.807393848896026611e-01 -4.886852204799652100e-01 -2.908273637294769287e-01 5.209828615188598633e-01
2.465000000000000000e+03 2.246418952941894531e+01 9.013134002685546875e+00 -4.262940883636474609e-01 -6.781041026115417480e-01 -3.313194513320922852e-01 6.568489670753479004e-01
2.466000000000000000e+03 2.350838279724121094e+01 1.237311437726020813e-01 -2.082492411136627197e-01 -2.677629888057708740e-01 -1.428036689758300781e-01 4.535614848136901855e-01
2.467000000000000000e+03 2.313725090026855469e+01 -6.779093146324157715e-01 -1.852882802486419678e-01 -2.456319928169250488e-01 -1.292760819196701050e-01 3.928200602531433105e-01
2.468000000000000000e+03 7.278542327880859375e+01 -2.231389427185058594e+01 -2.041404843330383301e-01 7.798021316528320312e+00 2.278164386749267578e+00 -7.580966353416442871e-01
2.469000000000000000e+03 7.181828308105468750e+01 -2.477564811706542969e+01 -2.758708298206329346e-01 7.876638889312744141e+00 2.280230522155761719e+00 -6.447375416755676270e-01
2.470000000000000000e+03 7.314296722412109375e+01 1.252631282806396484e+01 -2.113529145717620850e-01 7.873431205749511719e+00 2.298623561859130859e+00 5.912900567054748535e-01
2.471000000000000000e+03 7.304528808593750000e+01 1.375264835357666016e+01 -2.099819481372833252e-01 7.900529384613037109e+00 2.307164192199707031e+00 5.280944108963012695e-01
2.472000000000000000e+03 7.274847412109375000e+01 7.353981018066406250e+00 -1.613703817129135132e-01 7.722943782806396484e+00 2.268471956253051758e+00 8.514360785484313965e-01
2.473000000000000000e+03 1.975443458557128906e+01 -1.716945838928222656e+01 -4.118406474590301514e-01 -1.193725392222404480e-01 -1.593639552593231201e-01 -4.443330466747283936e-01
2.474000000000000000e+03 2.094478607177734375e+01 -1.703713417053222656e+01 -4.042501151561737061e-01 -7.477715611457824707e-02 -1.437081843614578247e-01 -4.644266664981842041e-01
2.475000000000000000e+03 2.407733917236328125e+01 8.828639388084411621e-01 -2.374922931194305420e-01 -2.791129350662231445e-01 -1.549815684556961060e-01 5.198176503181457520e-01
2.476000000000000000e+03 2.593377494812011719e+01 4.709330081939697266e+00 -3.065550625324249268e-01 -2.459929138422012329e-01 -1.657643914222717285e-01 6.774040460586547852e-01
2.477000000000000000e+03 5.768939971923828125e+00 5.579625606536865234e+00 2.792036102619022131e-04 -6.135451258160173893e-04 -1.003024517558515072e-04 6.238645710254786536e-06
2.478000000000000000e+03 6.155162811279296875e+00 6.709772586822509766e+00 2.217034489149227738e-04 -4.194052889943122864e-04 -5.931055420660413802e-05 4.034149169456213713e-04
2.479000000000000000e+03 1.944984436035156250e+01 -1.871950531005859375e+01 -3.228197693824768066e-01 -1.511588543653488159e-01 -1.421935856342315674e-01 -4.204118251800537109e-01
2.480000000000000000e+03 2.035941314697265625e+01 -2.109133529663085938e+01 -1.590988636016845703e-01 -1.543259471654891968e-01 -9.402744472026824951e-02 -3.999008536338806152e-01
2.481000000000000000e+03 7.236624908447265625e+01 -5.408955812454223633e-01 3.953284621238708496e-01 7.334291458129882812e+00 2.318886041641235352e+00 8.035268783569335938e-01
2.482000000000000000e+03 7.659433841705322266e+00 2.434631919860839844e+01 -9.217570722103118896e-02 -4.781673550605773926e-01 -1.711029112339019775e-01 4.680558741092681885e-01
2.483000000000000000e+03 7.198061370849609375e+01 2.297078704833984375e+01 -1.319590210914611816e-01 7.869973182678222656e+00 2.321404218673706055e+00 1.850008964538574219e-01
2.484000000000000000e+03 7.426022338867187500e+01 2.434312438964843750e+01 -6.066845729947090149e-02 8.163869857788085938e+00 2.430960416793823242e+00 1.359381675720214844e-01
2.485000000000000000e+03 7.293968963623046875e+01 -2.531176948547363281e+01 -2.156469374895095825e-01 7.889286994934082031e+00 2.302092075347900391e+00 -6.025679707527160645e-01
2.486000000000000000e+03 7.268270874023437500e+01 -1.379939174652099609e+01 2.254537343978881836e-01 7.379976749420166016e+00 2.281629085540771484e+00 -8.842746019363403320e-01
2.487000000000000000e+03 7.153345489501953125e+01 -1.637689208984375000e+01 2.936634048819541931e-02 7.738101959228515625e+00 2.330240488052368164e+00 -1.004010438919067383e+00
2.488000000000000000e+03 7.268890380859375000e+01 -1.760490417480468750e+01 -3.801120445132255554e-02 7.620065212249755859e+00 2.274616241455078125e+00 -9.389460682868957520e-01
2.489000000000000000e+03 7.243588256835937500e+01 -6.452864170074462891e+00 7.323986887931823730e-01 7.086906433105468750e+00 2.345791578292846680e+00 -1.546675153076648712e-02
2.490000000000000000e+03 7.221948242187500000e+01 -1.150540924072265625e+01 4.919172823429107666e-01 7.312863349914550781e+00 2.341434240341186523e+00 -7.406596541404724121e-01
2.491000000000000000e+03 7.183756256103515625e+01 1.144215583801269531e+01 -2.718194723129272461e-01 7.869174480438232422e+00 2.279206514358520508e+00 6.688721776008605957e-01
2.492000000000000000e+03 7.260620117187500000e+01 -1.255284500122070312e+01 3.568538129329681396e-01 7.312309265136718750e+00 2.300748825073242188e+00 -8.182392716407775879e-01
2.493000000000000000e+03 7.262562561035156250e+01 -4.076352596282958984e+00 6.486821174621582031e-01 7.086207866668701172e+00 2.320466995239257812e+00 3.726714849472045898e-01
2.494000000000000000e+03 7.290196228027343750e+01 -1.076820278167724609e+01 4.787294864654541016e-01 7.160416603088378906e+00 2.291743755340576172e+00 -6.327296495437622070e-01
2.495000000000000000e+03 7.228597259521484375e+01 1.801758575439453125e+01 -2.024983614683151245e-01 7.910306453704833984e+00 2.312342405319213867e+00 3.495830595493316650e-01
2.496000000000000000e+03 7.071499633789062500e+01 1.837586975097656250e+01 -2.598706781864166260e-01 7.790215969085693359e+00 2.259103536605834961e+00 3.254860937595367432e-01
2.497000000000000000e+03 7.234424591064453125e+01 -2.026350212097167969e+01 -1.826274991035461426e-01 7.773953914642333984e+00 2.277397871017456055e+00 -8.576626181602478027e-01
2.498000000000000000e+03 7.257926177978515625e+01 5.954089164733886719e+00 -1.128073558211326599e-01 7.677341461181640625e+00 2.269360303878784180e+00 9.064584374427795410e-01
2.499000000000000000e+03 7.123162841796875000e+01 6.242033004760742188e+00 -1.722842156887054443e-01 7.850901126861572266e+00 2.303585052490234375e+00 9.453000426292419434e-01
2.500000000000000000e+03 7.253038024902343750e+01 -1.716310262680053711e+00 4.893680810928344727e-01 7.224190711975097656e+00 2.314067602157592773e+00 6.809641122817993164e-01
2.501000000000000000e+03 7.094314575195312500e+01 4.944336414337158203e+00 -9.373568743467330933e-02 7.870137691497802734e+00 2.332920551300048828e+00 9.982543587684631348e-01
2.502000000000000000e+03 2.491633987426757812e+01 6.348481178283691406e+00 -3.298922181129455566e-01 -3.443163037300109863e-01 -2.022625654935836792e-01 6.781165599822998047e-01
2.503000000000000000e+03 7.152732849121093750e+01 1.461222934722900391e+01 -2.640886306762695312e-01 7.871794223785400391e+00 2.282311677932739258e+00 5.056356787681579590e-01
2.504000000000000000e+03 7.202738189697265625e+01 1.254410934448242188e+01 -2.686789631843566895e-01 7.877556800842285156e+00 2.282663345336914062e+00 6.113045215606689453e-01
2.505000000000000000e+03 7.783625602722167969e+00 2.982722473144531250e+01 1.044869944453239441e-01 -6.340586543083190918e-01 -1.588715016841888428e-01 3.842326998710632324e-01
2.506000000000000000e+03 1.176021099090576172e+01 3.024272346496582031e+01 2.272862493991851807e-01 -6.587454676628112793e-01 -1.294377744197845459e-01 3.636635839939117432e-01
2.507000000000000000e+03 7.272438049316406250e+01 2.077644538879394531e+01 -1.482709497213363647e-01 7.961452960968017578e+00 2.343954563140869141e+00 2.479921728372573853e-01
2.508000000000000000e+03 7.167267608642578125e+01 2.117254638671875000e+01 -1.785131543874740601e-01 7.838141441345214844e+00 2.297888517379760742e+00 2.323744446039199829e-01
2.509000000000000000e+03 7.178214263916015625e+01 -2.830992507934570312e+01 -2.648267149925231934e-01 7.894110202789306641e+00 2.288784980773925781e+00 -4.581009447574615479e-01
2.510000000000000000e+03 6.721140289306640625e+01 -3.167980766296386719e+01 -3.825430274009704590e-01 7.456511974334716797e+00 2.122190713882446289e+00 -2.100771367549896240e-01
2.511000000000000000e+03 6.978863525390625000e+01 2.779010391235351562e+01 -1.091373562812805176e-01 7.552049636840820312e+00 2.232873678207397461e+00 6.243569776415824890e-02
2.512000000000000000e+03 7.257360839843750000e+01 2.185414695739746094e+01 -1.409373134374618530e-01 7.940435409545898438e+00 2.339849472045898438e+00 2.088493704795837402e-01
2.513000000000000000e+03 2.420379257202148438e+01 7.019793987274169922e+00 -3.460212349891662598e-01 -4.231931269168853760e-01 -2.307643145322799683e-01 6.695129275321960449e-01
2.514000000000000000e+03 2.569457817077636719e+01 7.273844718933105469e+00 -3.407503068447113037e-01 -2.670235037803649902e-01 -1.823321431875228882e-01 6.686076521873474121e-01
2.515000000000000000e+03 2.329104995727539062e+01 1.415112400054931641e+01 -4.422776699066162109e-01 -4.376439154148101807e-01 -2.639764845371246338e-01 4.496393799781799316e-01
2.516000000000000000e+03 7.124814605712890625e+01 -2.612018966674804688e+01 -3.006966710090637207e-01 7.884510517120361328e+00 2.275144100189208984e+00 -5.750941038131713867e-01
2.517000000000000000e+03 1.078312492370605469e+01 2.330291366577148438e+01 -1.495440751314163208e-01 -7.032282948493957520e-01 -2.558317184448242188e-01 5.995654463768005371e-01
2.518000000000000000e+03 7.345288848876953125e+01 -3.285001814365386963e-01 2.943110167980194092e-01 7.127748966217041016e+00 2.226618051528930664e+00 7.449449300765991211e-01
2.519000000000000000e+03 1.781998062133789062e+01 2.188573074340820312e+01 -9.575089812278747559e-02 -8.172076940536499023e-01 -2.738875746726989746e-01 3.151645958423614502e-01
2.520000000000000000e+03 1.772426223754882812e+01 -2.676996231079101562e+01 1.458380520343780518e-01 -2.836162149906158447e-01 -4.133344814181327820e-02 -3.330672085285186768e-01
2.521000000000000000e+03 1.083739376068115234e+01 -2.525037002563476562e+01 2.722077816724777222e-02 -4.517603218555450439e-01 -1.273618638515472412e-01 -3.731773197650909424e-01
2.522000000000000000e+03 7.193964385986328125e+01 1.352835941314697266e+01 -2.666393518447875977e-01 7.877428054809570312e+00 2.283236503601074219e+00 5.488747358322143555e-01
2.523000000000000000e+03 2.224552345275878906e+01 1.754052925109863281e+01 -3.243552446365356445e-01 -4.866331517696380615e-01 -2.432965189218521118e-01 3.063799142837524414e-01
2.524000000000000000e+03 6.981387329101562500e+01 2.033822059631347656e+01 -2.500700950622558594e-01 7.677765846252441406e+00 2.228308916091918945e+00 2.345857173204421997e-01
2.525000000000000000e+03 7.041364288330078125e+01 -3.469769668579101562e+01 -2.403369694948196411e-01 7.758239746093750000e+00 2.255370855331420898e+00 -1.988868564367294312e-01
2.526000000000000000e+03 2.151380538940429688e+01 -1.808463287353515625e+01 -3.363602757453918457e-01 -7.171831279993057251e-02 -1.224235743284225464e-01 -4.602002501487731934e-01
2.527000000000000000e+03 1.035492038726806641e+01 -2.336785316467285156e+01 -6.826642900705337524e-02 -4.511384665966033936e-01 -1.558214724063873291e-01 -3.958739340305328369e-01
2.528000000000000000e+03 1.022115516662597656e+01 3.470914840698242188e+01 2.260681390762329102e-01 -6.557193994522094727e-01 -1.288953870534896851e-01 2.559621334075927734e-01
2.529000000000000000e+03 9.158953666687011719e+00 3.082273292541503906e+01 1.631037592887878418e-01 -6.597884297370910645e-01 -1.490053981542587280e-01 3.667735755443572998e-01
2.530000000000000000e+03 7.048955535888671875e+01 -2.754020309448242188e+01 -3.383514583110809326e-01 7.836922168731689453e+00 2.249571323394775391e+00 -4.914919137954711914e-01
2.531000000000000000e+03 6.938574981689453125e+01 -2.670352363586425781e+01 -3.911188840866088867e-01 7.830464363098144531e+00 2.231803655624389648e+00 -5.108585357666015625e-01
2.532000000000000000e+03 2.482481002807617188e+01 -1.531646442413330078e+01 -4.886067509651184082e-01 1.091073453426361084e-02 -1.433088034391403198e-01 -5.113490223884582520e-01
2.533000000000000000e+03 7.362884521484375000e+01 -2.172459411621093750e+01 -1.628043502569198608e-01 7.741841316223144531e+00 2.273711204528808594e+00 -7.508416175842285156e-01
2.534000000000000000e+03 7.092796325683593750e+01 -2.994716262817382812e+01 -2.616542279720306396e-01 7.825432777404785156e+00 2.269133567810058594e+00 -3.859794735908508301e-01
2.535000000000000000e+03 8.019680023193359375e+00 2.624656677246093750e+01 1.991327386349439621e-03 -5.625053644180297852e-01 -1.681542098522186279e-01 4.595474898815155029e-01
2.536000000000000000e+03 8.708726882934570312e+00 2.501468086242675781e+01 -5.307598039507865906e-02 -5.488880276679992676e-01 -1.805892139673233032e-01 4.933025240898132324e-01
2.537000000000000000e+03 2.343448638916015625e+01 1.561834049224853516e+01 -3.737863302230834961e-01 -3.783639669418334961e-01 -2.256450802087783813e-01 3.709295392036437988e-01
2.538000000000000000e+03 9.973779678344726562e+00 -3.212194061279296875e+01 1.418866366147994995e-01 -4.652115106582641602e-01 -9.699746221303939819e-02 -2.650416493415832520e-01
2.539000000000000000e+03 8.694947242736816406e+00 -2.693435287475585938e+01 4.329907149076461792e-02 -4.402785599231719971e-01 -1.190938428044319153e-01 -3.441247642040252686e-01
2.540000000000000000e+03 5.459217071533203125e+01 -3.187410831451416016e+00 1.373080134391784668e+00 6.759006500244140625e+00 2.439625978469848633e+00 -4.708928108215332031e+00
2.541000000000000000e+03 5.615245437622070312e+01 -3.226858854293823242e+00 1.745931059122085571e-01 1.276322937011718750e+01 3.881346702575683594e+00 -3.890299081802368164e+00
2.542000000000000000e+03 5.580307388305664062e+01 -9.100736618041992188e+00 6.877281069755554199e-01 1.229092597961425781e+01 3.893596172332763672e+00 4.922001361846923828e+00
2.543000000000000000e+03 5.646038436889648438e+01 -9.362328529357910156e+00 1.113563776016235352e-01 1.404060459136962891e+01 4.245588302612304688e+00 3.232611179351806641e+00
2.544000000000000000e+03 5.861057662963867188e+01 -7.473120212554931641e+00 6.442103862762451172e+00 1.442214393615722656e+01 6.259274482727050781e+00 -1.939064621925354004e+00
2.545000000000000000e+03 5.315460968017578125e+01 -1.004602622985839844e+01 1.276858925819396973e+00 3.465356826782226562e+00 1.422664642333984375e+00 3.383970260620117188e+00
2.546000000000000000e+03 5.462585830688476562e+01 -9.616294860839843750e+00 1.278689146041870117e+00 6.871848583221435547e+00 2.445161342620849609e+00 4.734657287597656250e+00
2.547000000000000000e+03 5.796848297119140625e+01 -3.699172019958496094e+00 1.382685303688049316e+00 1.533905029296875000e+01 5.016520500183105469e+00 4.898719787597656250e-01
2.548000000000000000e+03 5.827733612060546875e+01 -8.577539443969726562e+00 2.888429880142211914e+00 1.523965072631835938e+01 5.438424110412597656e+00 -1.489933371543884277e+00
2.549000000000000000e+03 5.914179229736328125e+01 -8.654179573059082031e+00 3.289010524749755859e+00 1.345222187042236328e+01 5.022369861602783203e+00 -1.695385098457336426e+00
2.550000000000000000e+03 5.814836120605468750e+01 -4.964735507965087891e+00 5.154425621032714844e+00 1.592238807678222656e+01 6.323044300079345703e+00 2.151480197906494141e+00
2.551000000000000000e+03 5.836424255371093750e+01 -4.260799407958984375e+00 3.036206007003784180e+00 1.511176967620849609e+01 5.444392681121826172e+00 1.590023517608642578e+00
2.552000000000000000e+03 5.762297439575195312e+01 -3.698305845260620117e+00 9.674378037452697754e-01 1.572599506378173828e+01 5.008029937744140625e+00 -9.281172603368759155e-02
2.553000000000000000e+03 5.891203308105468750e+01 -4.972035408020019531e+00 5.304627418518066406e+00 1.378758049011230469e+01 5.727662086486816406e+00 1.857541084289550781e+00
2.554000000000000000e+03 5.687679290771484375e+01 -2.798862218856811523e+00 -1.753148436546325684e-01 1.347539615631103516e+01 3.990024566650390625e+00 -2.275270700454711914e+00
2.555000000000000000e+03 5.699282073974609375e+01 -9.499422073364257812e+00 5.825271829962730408e-02 1.472520637512207031e+01 4.435037612915039062e+00 1.931418776512145996e+00
2.556000000000000000e+03 5.264872741699218750e+01 -2.563393831253051758e+00 1.112275004386901855e+00 2.783442974090576172e+00 1.168715357780456543e+00 -2.900368690490722656e+00
2.557000000000000000e+03 5.298698043823242188e+01 -1.047648048400878906e+01 1.102518439292907715e+00 3.592121362686157227e+00 1.408391952514648438e+00 3.307686090469360352e+00
2.558000000000000000e+03 5.237173843383789062e+01 -1.037034893035888672e+01 1.005620479583740234e+00 2.530261754989624023e+00 1.060764670372009277e+00 2.735131740570068359e+00
2.559000000000000000e+03 2.573208618164062500e+01 -6.250684857368469238e-01 -3.325731754302978516e-01 -1.458197832107543945e-01 -1.435178816318511963e-01 5.033990740776062012e-01
2.560000000000000000e+03 5.311310577392578125e+01 -9.583918571472167969e+00 1.351762771606445312e+00 2.885744571685791016e+00 1.271252274513244629e+00 3.172580242156982422e+00
2.561000000000000000e+03 2.617937660217285156e+01 -1.428041756153106689e-01 -3.474301099777221680e-01 -1.443862468004226685e-01 -1.475449055433273315e-01 5.398470163345336914e-01
2.562000000000000000e+03 5.119153213500976562e+01 -1.249427437782287598e+00 7.391236424446105957e-01 2.180183410644531250e+00 8.757920861244201660e-01 -2.190706014633178711e+00
2.563000000000000000e+03 5.085203552246093750e+01 -1.889784574508666992e+00 5.871697068214416504e-01 1.554952025413513184e+00 6.426365375518798828e-01 -1.829129815101623535e+00
2.564000000000000000e+03 2.867008972167968750e+01 -9.854973554611206055e-01 -4.991278052330017090e-01 -5.075331032276153564e-02 -1.649643331766128540e-01 5.404357314109802246e-01
2.565000000000000000e+03 2.671805763244628906e+01 1.218440383672714233e-01 -3.660391271114349365e-01 -1.302669942378997803e-01 -1.488918364048004150e-01 5.640985965728759766e-01
2.566000000000000000e+03 3.089772796630859375e+01 -6.521976590156555176e-01 -5.921299457550048828e-01 4.917839542031288147e-03 -1.761636286973953247e-01 5.654957890510559082e-01
2.567000000000000000e+03 2.747099304199218750e+01 1.789959818124771118e-01 -4.003327488899230957e-01 -1.015817970037460327e-01 -1.505743712186813354e-01 5.829493999481201172e-01
2.568000000000000000e+03 5.031218338012695312e+01 -1.895060658454895020e+00 4.056994915008544922e-01 1.250336408615112305e+00 4.968107938766479492e-01 -1.519479274749755859e+00
2.569000000000000000e+03 5.032538986206054688e+01 -5.222914218902587891e-01 5.799660682678222656e-01 1.990183949470520020e+00 7.710450291633605957e-01 -1.886770486831665039e+00
2.570000000000000000e+03 3.122583961486816406e+01 -1.123830556869506836e+00 -6.394229531288146973e-01 1.008589565753936768e-02 -1.888011097908020020e-01 5.446850061416625977e-01
2.571000000000000000e+03 3.073846626281738281e+01 1.301837801933288574e+00 -4.470506012439727783e-01 1.091014873236417770e-02 -1.308421343564987183e-01 6.249390840530395508e-01
2.572000000000000000e+03 5.161007690429687500e+01 -1.159988975524902344e+01 7.759320139884948730e-01 2.590814590454101562e+00 1.010023951530456543e+00 2.457951545715332031e+00
2.573000000000000000e+03 2.799394226074218750e+01 -8.213267326354980469e-01 -4.585988819599151611e-01 -7.081757485866546631e-02 -1.588249355554580688e-01 5.367385745048522949e-01
2.574000000000000000e+03 2.953694725036621094e+01 1.519542783498764038e-01 -4.844500422477722168e-01 -3.187623247504234314e-02 -1.548978835344314575e-01 5.975241065025329590e-01
2.575000000000000000e+03 3.063878822326660156e+01 -1.143364429473876953e+00 -6.126788854598999023e-01 -1.581301796250045300e-03 -1.842780560255050659e-01 5.437610745429992676e-01
2.576000000000000000e+03 3.258795928955078125e+01 -9.761436581611633301e-01 -6.867290139198303223e-01 3.420482575893402100e-02 -1.957572549581527710e-01 5.425887107849121094e-01
2.577000000000000000e+03 3.248714065551757812e+01 -4.277809262275695801e-01 -6.315863728523254395e-01 3.763070702552795410e-02 -1.781866997480392456e-01 5.607079863548278809e-01
2.578000000000000000e+03 3.191161537170410156e+01 -4.486070573329925537e-01 -6.132651567459106445e-01 2.372583001852035522e-02 -1.768618077039718628e-01 5.660994052886962891e-01
2.579000000000000000e+03 4.512363433837890625e+01 -1.375192832946777344e+01 -6.057185307145118713e-02 7.095587849617004395e-01 1.946960836648941040e-01 5.311068892478942871e-01
2.580000000000000000e+03 4.273180007934570312e+01 -1.279324054718017578e+01 -5.220841765403747559e-01 2.979470789432525635e-01 -6.724113225936889648e-02 8.253590017557144165e-02
2.581000000000000000e+03 4.387572860717773438e+01 -1.330007171630859375e+01 -2.988211810588836670e-01 4.461731910705566406e-01 4.420560598373413086e-02 2.874119281768798828e-01
2.582000000000000000e+03 3.221517562866210938e+01 -3.155331127345561981e-03 -5.786222219467163086e-01 3.521890193223953247e-02 -1.630209982395172119e-01 5.785363316535949707e-01
2.583000000000000000e+03 4.574628067016601562e+01 -1.348339176177978516e+01 -3.367118909955024719e-02 7.435166835784912109e-01 2.129536569118499756e-01 6.324821114540100098e-01
2.584000000000000000e+03 3.308185577392578125e+01 -1.852445006370544434e-01 -6.245148777961730957e-01 5.118054524064064026e-02 -1.720003038644790649e-01 5.605320334434509277e-01
2.585000000000000000e+03 3.572511291503906250e+01 -4.995858967304229736e-01 -7.130241990089416504e-01 8.635285496711730957e-02 -1.880013942718505859e-01 4.955092072486877441e-01
2.586000000000000000e+03 4.030953979492187500e+01 -1.391338920593261719e+01 -4.602552950382232666e-01 2.322611510753631592e-01 -6.839823722839355469e-02 -7.809547334909439087e-02
2.587000000000000000e+03 4.079472351074218750e+01 -1.324151325225830078e+01 -5.873531699180603027e-01 2.020270526409149170e-01 -1.155978292226791382e-01 -7.808602601289749146e-02
2.588000000000000000e+03 3.655822753906250000e+01 2.480919957160949707e-01 -6.039955019950866699e-01 1.269205361604690552e-01 -1.431224793195724487e-01 4.698340296745300293e-01
2.589000000000000000e+03 3.717435455322265625e+01 -1.380173969268798828e+01 -6.185465455055236816e-01 1.183497682213783264e-01 -1.500590443611145020e-01 -2.729136943817138672e-01
2.590000000000000000e+03 4.392639923095703125e+01 -1.423501110076904297e+01 -8.804931491613388062e-02 5.914561748504638672e-01 1.510220468044281006e-01 3.927086591720581055e-01
2.591000000000000000e+03 4.151920318603515625e+01 -1.360609531402587891e+01 -4.385469853878021240e-01 3.015435338020324707e-01 -4.110103473067283630e-02 2.176541648805141449e-02
2.592000000000000000e+03 3.731924438476562500e+01 -4.538974165916442871e-01 -7.197225093841552734e-01 1.174897402524948120e-01 -1.806698292493820190e-01 4.401786029338836670e-01
2.593000000000000000e+03 3.585040283203125000e+01 9.901543855667114258e-01 -5.063807964324951172e-01 1.370064318180084229e-01 -1.108122989535331726e-01 4.923912286758422852e-01
2.594000000000000000e+03 3.620448303222656250e+01 -1.299207401275634766e+01 -8.099127411842346191e-01 6.510338932275772095e-02 -2.234428077936172485e-01 -3.303272724151611328e-01
2.595000000000000000e+03 3.763705444335937500e+01 -1.451883983612060547e+01 -4.674628973007202148e-01 1.669297069311141968e-01 -9.015996009111404419e-02 -2.234931588172912598e-01
2.596000000000000000e+03 4.641862487792968750e+01 -1.346641254425048828e+01 6.245781853795051575e-02 8.995262980461120605e-01 2.885952293872833252e-01 7.890855669975280762e-01
2.597000000000000000e+03 3.451537704467773438e+01 1.152559995651245117e+00 -4.952859580516815186e-01 1.146230325102806091e-01 -1.141988784074783325e-01 5.418308973312377930e-01
2.598000000000000000e+03 3.581957244873046875e+01 -1.363395977020263672e+01 -6.898001432418823242e-01 7.206075638532638550e-02 -1.853218227624893188e-01 -3.425541520118713379e-01
2.599000000000000000e+03 3.637870407104492188e+01 -1.436191558837890625e+01 -5.367283821105957031e-01 1.295472532510757446e-01 -1.221543326973915100e-01 -2.974646091461181641e-01
2.600000000000000000e+03 3.969177627563476562e+01 3.800005018711090088e-01 -5.173081159591674805e-01 2.203154712915420532e-01 -8.909778296947479248e-02 2.901791036128997803e-01
2.601000000000000000e+03 3.551290893554687500e+01 -1.294801807403564453e+01 -8.284623622894287109e-01 4.296711087226867676e-02 -2.356485724449157715e-01 -3.549084067344665527e-01
2.602000000000000000e+03 3.389953613281250000e+01 -1.467512798309326172e+01 -5.283700227737426758e-01 7.531727850437164307e-02 -1.359158158302307129e-01 -3.882206678390502930e-01
2.603000000000000000e+03 4.184483337402343750e+01 1.240047365427017212e-01 -4.560837745666503906e-01 2.920194268226623535e-01 -4.921930655837059021e-02 1.131190285086631775e-01
2.604000000000000000e+03 4.252530670166015625e+01 1.252842992544174194e-01 -4.025439918041229248e-01 3.327781558036804199e-01 -2.092975005507469177e-02 3.554503619670867920e-02
2.605000000000000000e+03 4.114934921264648438e+01 1.987895518541336060e-01 -4.862403571605682373e-01 2.575732171535491943e-01 -6.860014796257019043e-02 1.770054399967193604e-01
2.606000000000000000e+03 4.107474517822265625e+01 -5.183646082878112793e-01 -6.539559364318847656e-01 1.962824761867523193e-01 -1.373020410537719727e-01 2.206525951623916626e-01
2.607000000000000000e+03 4.535851669311523438e+01 5.144806504249572754e-01 -1.070094201713800430e-02 6.782717704772949219e-01 2.002712488174438477e-01 -4.513921737670898438e-01
2.608000000000000000e+03 4.846818542480468750e+01 -1.257462310791015625e+01 2.515449821949005127e-01 1.212493062019348145e+00 4.392113983631134033e-01 1.215774416923522949e+00
2.609000000000000000e+03 4.870811080932617188e+01 -1.311452579498291016e+01 3.514447808265686035e-01 1.475391864776611328e+00 5.480509996414184570e-01 1.393477678298950195e+00
2.610000000000000000e+03 4.390561294555664062e+01 2.508373558521270752e-01 -2.597933113574981689e-01 4.471643567085266113e-01 5.621131509542465210e-02 -1.491893380880355835e-01
2.611000000000000000e+03 4.709571838378906250e+01 -1.346701431274414062e+01 1.637751311063766479e-01 1.026626706123352051e+00 3.571205735206604004e-01 9.632674455642700195e-01
2.612000000000000000e+03 4.552488708496093750e+01 -2.693133056163787842e-01 -1.890480220317840576e-01 5.465997457504272461e-01 1.072655171155929565e-01 -3.763845562934875488e-01
2.613000000000000000e+03 4.462661361694335938e+01 3.433318138122558594e-01 -1.512198001146316528e-01 5.562870502471923828e-01 1.215201690793037415e-01 -2.884629964828491211e-01
2.614000000000000000e+03 4.775509643554687500e+01 -1.343905544281005859e+01 2.535081803798675537e-01 1.211560845375061035e+00 4.395206868648529053e-01 1.129059910774230957e+00
2.615000000000000000e+03 2.933265304565429688e+01 -1.441456985473632812e+01 -5.909106731414794922e-01 1.060045603662729263e-02 -1.740930527448654175e-01 -4.858122169971466064e-01
2.616000000000000000e+03 3.331325531005859375e+01 -1.453128337860107422e+01 -5.552065372467041016e-01 6.475905328989028931e-02 -1.471342444419860840e-01 -4.119721055030822754e-01
2.617000000000000000e+03 3.145060157775878906e+01 -1.443555068969726562e+01 -5.870640873908996582e-01 3.051959536969661713e-02 -1.669633388519287109e-01 -4.576337933540344238e-01
2.618000000000000000e+03 3.278470230102539062e+01 -1.406152725219726562e+01 -6.378578543663024902e-01 4.199216514825820923e-02 -1.787596940994262695e-01 -4.304291903972625732e-01
2.619000000000000000e+03 2.838565444946289062e+01 -1.374406147003173828e+01 -6.466080546379089355e-01 1.223611366003751755e-02 -1.903115808963775635e-01 -4.869152903556823730e-01
2.620000000000000000e+03 3.030290985107421875e+01 -1.494048786163330078e+01 -5.098792910575866699e-01 3.407617658376693726e-02 -1.427409350872039795e-01 -4.751457273960113525e-01
2.621000000000000000e+03 4.951725006103515625e+01 -1.281510829925537109e+01 4.442782104015350342e-01 1.723557710647583008e+00 6.503507494926452637e-01 1.639570832252502441e+00
2.622000000000000000e+03 4.904632949829101562e+01 -1.108441591262817383e+00 2.736470401287078857e-01 1.082915067672729492e+00 4.069686233997344971e-01 -1.202172398567199707e+00
2.623000000000000000e+03 2.645907211303710938e+01 -1.324747562408447266e+01 -6.566828489303588867e-01 1.365503575652837753e-02 -1.929083466529846191e-01 -4.911307394504547119e-01
2.624000000000000000e+03 2.688445281982421875e+01 -1.494506168365478516e+01 -5.170054435729980469e-01 2.102104201912879944e-02 -1.487953215837478638e-01 -5.066020488739013672e-01
2.625000000000000000e+03 2.226990890502929688e+01 -7.334532588720321655e-02 -1.404529511928558350e-01 -3.090523183345794678e-01 -1.348515897989273071e-01 3.721547424793243408e-01
2.626000000000000000e+03 5.007096099853515625e+01 -1.305329895019531250e+01 5.266158580780029297e-01 2.119479179382324219e+00 7.938285470008850098e-01 1.891818165779113770e+00
2.627000000000000000e+03 2.803073310852050781e+01 -1.494730281829833984e+01 -5.171153545379638672e-01 2.410635352134704590e-02 -1.479027122259140015e-01 -5.013972520828247070e-01
2.628000000000000000e+03 2.585493850708007812e+01 -1.315279293060302734e+01 -6.504855751991271973e-01 1.637311838567256927e-02 -1.902337372303009033e-01 -4.906027019023895264e-01
2.629000000000000000e+03 2.303993225097656250e+01 -1.295992946624755859e+01 -5.997232198715209961e-01 1.257731206715106964e-02 -1.761437654495239258e-01 -4.795993864536285400e-01
2.630000000000000000e+03 2.234608840942382812e+01 -1.413210296630859375e+01 -5.459373593330383301e-01 -4.627224057912826538e-03 -1.651693731546401978e-01 -4.896259307861328125e-01
2.631000000000000000e+03 2.641018867492675781e+01 -1.430279445648193359e+01 -5.626434087753295898e-01 1.868474110960960388e-02 -1.631875932216644287e-01 -5.091320276260375977e-01
2.632000000000000000e+03 2.450157928466796875e+01 -1.439326286315917969e+01 -5.489766597747802734e-01 1.271498948335647583e-02 -1.608785092830657959e-01 -5.070526003837585449e-01
2.633000000000000000e+03 7.466868400573730469e+00 6.075119972229003906e+00 1.123688125517219305e-04 -1.331601291894912720e-03 -3.657697525341063738e-04 -1.972788595594465733e-04
2.634000000000000000e+03 8.782574653625488281e+00 6.694834709167480469e+00 -1.983413385460153222e-04 1.422737725079059601e-03 3.673189203254878521e-04 -3.701821697177365422e-05
2.635000000000000000e+03 4.859068298339843750e+01 -4.076938629150390625e-01 3.113928735256195068e-01 1.150724530220031738e+00 4.386352300643920898e-01 -1.184740662574768066e+00
2.636000000000000000e+03 4.988977050781250000e+01 -7.730636000633239746e-01 4.866403341293334961e-01 1.566118955612182617e+00 6.158277988433837891e-01 -1.619015336036682129e+00
2.637000000000000000e+03 4.894370269775390625e+01 9.949349164962768555e-01 4.885056018829345703e-01 1.859766602516174316e+00 7.044816613197326660e-01 -1.515028953552246094e+00
2.638000000000000000e+03 2.167317008972167969e+01 -1.549005413055419922e+01 -4.832674562931060791e-01 -3.454228863120079041e-02 -1.553429216146469116e-01 -4.848529994487762451e-01
2.639000000000000000e+03 2.075681686401367188e+01 -1.586271381378173828e+01 -4.754871129989624023e-01 -6.244567781686782837e-02 -1.613798439502716064e-01 -4.710758328437805176e-01
2.640000000000000000e+03 5.085453414916992188e+01 -1.258176326751708984e+01 6.134563088417053223e-01 2.441626071929931641e+00 9.165247082710266113e-01 2.174134731292724609e+00
2.641000000000000000e+03 2.563706398010253906e+01 5.653412342071533203e+00 -3.160444498062133789e-01 -2.759343981742858887e-01 -1.775936484336853027e-01 6.812018156051635742e-01
2.642000000000000000e+03 7.147656250000000000e+01 -1.870071530342102051e+00 5.996766686439514160e-01 7.424131870269775391e+00 2.407142639160156250e+00 7.211340665817260742e-01
2.643000000000000000e+03 2.200043678283691406e+01 -1.653802108764648438e+01 -4.242325425148010254e-01 -3.499378636479377747e-02 -1.377678960561752319e-01 -4.843657314777374268e-01
2.644000000000000000e+03 4.609530258178710938e+01 7.325265407562255859e-01 1.135396510362625122e-01 8.792449831962585449e-01 2.978353798389434814e-01 -6.450250744819641113e-01
2.645000000000000000e+03 4.712935256958007812e+01 1.682283580303192139e-01 1.522366851568222046e-01 9.281373620033264160e-01 3.241122066974639893e-01 -8.141080141067504883e-01
2.646000000000000000e+03 7.051363372802734375e+01 3.731312274932861328e+00 -4.197338595986366272e-03 7.901909828186035156e+00 2.369313716888427734e+00 1.037353873252868652e+00
2.647000000000000000e+03 2.476428794860839844e+01 1.584068417549133301e+00 -2.685046792030334473e-01 -2.607114315032958984e-01 -1.587648242712020874e-01 5.771963596343994141e-01
2.648000000000000000e+03 2.520327186584472656e+01 1.080142498016357422e+01 -3.801282942295074463e-01 -2.600240111351013184e-01 -1.920456886291503906e-01 5.682225227355957031e-01
2.649000000000000000e+03 2.467254257202148438e+01 9.519202232360839844e+00 -3.991442322731018066e-01 -3.451728820800781250e-01 -2.232951372861862183e-01 6.260521411895751953e-01
2.650000000000000000e+03 2.606405258178710938e+01 3.621985435485839844e+00 -3.045550882816314697e-01 -2.278364598751068115e-01 -1.597174555063247681e-01 6.650558710098266602e-01
2.651000000000000000e+03 7.154783630371093750e+01 -2.962157487869262695e+00 7.220249176025390625e-01 7.353641510009765625e+00 2.422699928283691406e+00 5.907222032546997070e-01
2.652000000000000000e+03 7.134036254882812500e+01 6.931770443916320801e-01 3.340345025062561035e-01 7.614909172058105469e+00 2.384683132171630859e+00 9.524482488632202148e-01
2.653000000000000000e+03 7.101467895507812500e+01 2.130823612213134766e+00 1.890421062707901001e-01 7.738778591156005859e+00 2.378346204757690430e+00 1.024726390838623047e+00
2.654000000000000000e+03 6.967976379394531250e+01 -2.037144660949707031e+01 -3.197476565837860107e-01 8.018797874450683594e+00 2.309715032577514648e+00 -8.715900182723999023e-01
2.655000000000000000e+03 7.018406677246093750e+01 -2.542992019653320312e+01 -3.614951968193054199e-01 7.868595123291015625e+00 2.252130031585693359e+00 -5.925538539886474609e-01
2.656000000000000000e+03 6.795081329345703125e+01 1.977747344970703125e+01 -3.209334909915924072e-01 7.499204158782958984e+00 2.153481245040893555e+00 2.019714862108230591e-01
2.657000000000000000e+03 7.052940368652343750e+01 1.178220748901367188e+01 -3.508069515228271484e-01 7.883467674255371094e+00 2.259798288345336914e+00 6.402130722999572754e-01
2.658000000000000000e+03 7.156816101074218750e+01 8.891012191772460938e+00 -2.620789706707000732e-01 7.857491016387939453e+00 2.278623580932617188e+00 8.096889257431030273e-01
2.659000000000000000e+03 7.283195495605468750e+01 -9.151070594787597656e+00 5.712436437606811523e-01 7.057620525360107422e+00 2.288659334182739258e+00 -4.264959096908569336e-01
2.660000000000000000e+03 2.648465347290039062e+01 8.309408187866210938e+00 -3.329815268516540527e-01 -1.734219938516616821e-01 -1.519210487604141235e-01 6.356065273284912109e-01
2.661000000000000000e+03 2.491630554199218750e+01 7.934217453002929688e+00 -3.653809130191802979e-01 -3.453184664249420166e-01 -2.132098078727722168e-01 6.662734746932983398e-01
2.662000000000000000e+03 7.267424774169921875e+01 -1.506117725372314453e+01 1.305999159812927246e-01 7.465969085693359375e+00 2.278970718383789062e+00 -9.268493652343750000e-01
2.663000000000000000e+03 7.167219543457031250e+01 -1.760428428649902344e+01 -5.905722454190254211e-02 7.768165588378906250e+00 2.312732458114624023e+00 -9.873071312904357910e-01
2.664000000000000000e+03 7.219195556640625000e+01 -7.597043514251708984e+00 7.648380398750305176e-01 7.154155254364013672e+00 2.375698089599609375e+00 -2.132686227560043335e-01
2.665000000000000000e+03 7.136542510986328125e+01 -1.195016765594482422e+01 5.283854603767395020e-01 7.530408382415771484e+00 2.417638063430786133e+00 -8.543758988380432129e-01
2.666000000000000000e+03 7.152891540527343750e+01 -5.174159049987792969e+00 8.779627084732055664e-01 7.276152610778808594e+00 2.446234703063964844e+00 2.170001268386840820e-01
2.667000000000000000e+03 7.102397918701171875e+01 1.293015670776367188e+01 -3.204681873321533203e-01 7.869720935821533203e+00 2.264775753021240234e+00 5.858122110366821289e-01
2.668000000000000000e+03 7.183276367187500000e+01 1.495279788970947266e+00 2.191711813211441040e-01 7.572962284088134766e+00 2.337640047073364258e+00 9.575091600418090820e-01
2.669000000000000000e+03 7.137634277343750000e+01 -8.349082469940185547e-01 5.215894579887390137e-01 7.509731769561767578e+00 2.409396409988403320e+00 8.412315845489501953e-01
2.670000000000000000e+03 6.993567657470703125e+01 6.542161464691162109e+00 -2.527110874652862549e-01 8.007949829101562500e+00 2.326571702957153320e+00 9.356607794761657715e-01
2.671000000000000000e+03 9.787652969360351562e+00 -2.472652244567871094e+01 3.218853846192359924e-03 -4.434021413326263428e-01 -1.320549845695495605e-01 -3.740960955619812012e-01
2.672000000000000000e+03 7.065816497802734375e+01 -2.111281204223632812e+01 -2.904172837734222412e-01 7.926109790802001953e+00 2.290707826614379883e+00 -8.467146754264831543e-01
2.673000000000000000e+03 9.415389060974121094e+00 2.702377891540527344e+01 5.693259090185165405e-02 -6.369405388832092285e-01 -1.740023791790008545e-01 4.774448871612548828e-01
2.674000000000000000e+03 1.404627895355224609e+01 3.272388458251953125e+01 3.189654946327209473e-01 -6.040548682212829590e-01 -8.552681654691696167e-02 2.657940685749053955e-01
2.675000000000000000e+03 7.033152008056640625e+01 1.392971897125244141e+01 -3.421137332916259766e-01 7.844509601593017578e+00 2.250718832015991211e+00 5.293883681297302246e-01
2.676000000000000000e+03 6.852931213378906250e+01 -3.052154922485351562e+01 -3.377460837364196777e-01 7.637868881225585938e+00 2.190036773681640625e+00 -3.289893865585327148e-01
2.677000000000000000e+03 7.126156616210937500e+01 -2.294194412231445312e+01 -2.980139851570129395e-01 7.889977455139160156e+00 2.277589082717895508e+00 -7.483382225036621094e-01
2.678000000000000000e+03 6.964799499511718750e+01 2.161937522888183594e+01 -2.279910892248153687e-01 7.638444900512695312e+00 2.223136186599731445e+00 1.916930377483367920e-01
2.679000000000000000e+03 2.506479644775390625e+01 1.681383895874023438e+01 -2.351292073726654053e-01 -1.362709552049636841e-01 -1.114200502634048462e-01 2.733315527439117432e-01
2.680000000000000000e+03 6.855007934570312500e+01 2.668277168273925781e+01 -1.268330067396163940e-01 7.427634239196777344e+00 2.190240383148193359e+00 6.990243494510650635e-02
2.681000000000000000e+03 7.005814361572265625e+01 2.362912368774414062e+01 -1.784088760614395142e-01 7.652503013610839844e+00 2.242228269577026367e+00 1.469081938266754150e-01
2.682000000000000000e+03 1.115047931671142578e+01 -2.732291221618652344e+01 9.119680523872375488e-02 -4.454755485057830811e-01 -1.062836199998855591e-01 -3.474867343902587891e-01
2.683000000000000000e+03 2.095542144775390625e+01 1.970877647399902344e+01 -2.135383635759353638e-01 -5.929331183433532715e-01 -2.419414520263671875e-01 2.563718259334564209e-01
2.684000000000000000e+03 1.944484710693359375e+01 2.186280632019042969e+01 -6.246278434991836548e-02 -6.838973164558410645e-01 -2.239080220460891724e-01 2.496023029088973999e-01
2.685000000000000000e+03 1.358835887908935547e+01 -2.349584960937500000e+01 -2.922149188816547394e-02 -4.396259486675262451e-01 -1.406542211771011353e-01 -3.653098642826080322e-01
2.686000000000000000e+03 2.088535690307617188e+01 -1.933334350585937500e+01 -2.675430774688720703e-01 -1.124510914087295532e-01 -1.139982566237449646e-01 -4.318802654743194580e-01
2.687000000000000000e+03 2.360147476196289062e+01 -1.473962593078613281e+01 -5.235993862152099609e-01 3.840499324724078178e-03 -1.559276580810546875e-01 -5.046357512474060059e-01
2.688000000000000000e+03 8.545060157775878906e+00 -2.219704055786132812e+01 -1.367759406566619873e-01 -3.951225280761718750e-01 -1.595695465803146362e-01 -4.184868037700653076e-01
2.689000000000000000e+03 6.820034790039062500e+01 -2.800659370422363281e+01 -4.466669261455535889e-01 7.693060398101806641e+00 2.173918008804321289e+00 -3.883129358291625977e-01
2.690000000000000000e+03 6.861865234375000000e+01 1.773688316345214844e+01 -3.515207767486572266e-01 7.639806747436523438e+00 2.186485767364501953e+00 2.948079705238342285e-01
2.691000000000000000e+03 6.988755035400390625e+01 1.510845661163330078e+01 -3.567267060279846191e-01 7.801081180572509766e+00 2.233306407928466797e+00 4.551402628421783447e-01
2.692000000000000000e+03 6.905345916748046875e+01 1.058759498596191406e+01 -4.383820593357086182e-01 7.944873332977294922e+00 2.251947402954101562e+00 6.674813032150268555e-01
2.693000000000000000e+03 1.569426727294921875e+01 2.523774719238281250e+01 1.398660689592361450e-01 -7.780472636222839355e-01 -1.914543658494949341e-01 3.748093247413635254e-01
2.694000000000000000e+03 6.999671173095703125e+01 2.589011669158935547e+00 1.228341087698936462e-01 7.953811645507812500e+00 2.422993659973144531e+00 1.063230514526367188e+00
2.695000000000000000e+03 7.016074371337890625e+01 2.587593197822570801e-01 4.355688095092773438e-01 7.795153617858886719e+00 2.469216585159301758e+00 9.911686778068542480e-01
2.696000000000000000e+03 1.827714538574218750e+01 -2.347524261474609375e+01 -2.986284159123897552e-02 -2.516809105873107910e-01 -8.446312695741653442e-02 -3.615050315856933594e-01
2.697000000000000000e+03 2.330635452270507812e+01 1.053639698028564453e+01 -4.503380060195922852e-01 -5.198745131492614746e-01 -2.910637557506561279e-01 6.166910529136657715e-01
2.698000000000000000e+03 7.046720123291015625e+01 3.017699241638183594e+01 -7.828138768672943115e-02 7.623830318450927734e+00 2.263664722442626953e+00 4.515225812792778015e-02
2.699000000000000000e+03 1.095789146423339844e+01 2.775402641296386719e+01 1.409764587879180908e-01 -6.971524357795715332e-01 -1.668527871370315552e-01 4.564054012298583984e-01
2.700000000000000000e+03 7.261045837402343750e+01 -1.888332176208496094e+01 -1.134429946541786194e-01 7.698932170867919922e+00 2.275646686553955078e+00 -9.097322225570678711e-01
2.701000000000000000e+03 1.623622322082519531e+01 2.034822463989257812e+01 -3.211790621280670166e-01 -1.029595851898193359e+00 -4.052324891090393066e-01 4.506881237030029297e-01
2.702000000000000000e+03 2.237562370300292969e+01 -1.979740142822265625e+01 -2.036621123552322388e-01 -6.538970023393630981e-02 -8.071554452180862427e-02 -4.455169737339019775e-01
2.703000000000000000e+03 2.253115272521972656e+01 -1.850216865539550781e+01 -2.929078340530395508e-01 -4.779733717441558838e-02 -1.022115498781204224e-01 -4.641569852828979492e-01
2.704000000000000000e+03 1.033628082275390625e+01 2.432773590087890625e+01 -6.558786332607269287e-02 -6.446935534477233887e-01 -2.130844146013259888e-01 5.474865436553955078e-01
2.705000000000000000e+03 7.165447711944580078e+00 -2.231971359252929688e+01 -1.368921399116516113e-01 -2.713649272918701172e-01 -1.224771216511726379e-01 -3.371872901916503906e-01
2.706000000000000000e+03 9.331130027770996094e+00 -2.286277389526367188e+01 -8.967354148626327515e-02 -4.310466349124908447e-01 -1.562160551548004150e-01 -3.855814635753631592e-01
2.707000000000000000e+03 6.953142547607421875e+01 -2.901343917846679688e+01 -3.516561090946197510e-01 7.750045776367187500e+00 2.219516992568969727e+00 -3.902924656867980957e-01
2.708000000000000000e+03 5.595422363281250000e+01 -2.733865261077880859e+00 8.327967673540115356e-02 1.147023582458496094e+01 3.466054677963256836e+00 -3.847620248794555664e+00
2.709000000000000000e+03 5.934128570556640625e+01 -6.976287841796875000e+00 6.661287307739257812e+00 1.255286598205566406e+01 5.764245986938476562e+00 -9.279506802558898926e-01
2.710000000000000000e+03 5.573242187500000000e+01 -9.888454437255859375e+00 2.952395975589752197e-01 1.090674209594726562e+01 3.360594511032104492e+00 4.274642467498779297e+00
2.711000000000000000e+03 5.917227935791015625e+01 -6.755395889282226562e+00 7.082710742950439453e+00 1.274557018280029297e+01 5.948484420776367188e+00 -6.252338886260986328e-01
2.712000000000000000e+03 5.711691665649414062e+01 -3.052027940750122070e+00 -1.486496254801750183e-02 1.424762248992919922e+01 4.269827365875244141e+00 -1.720562100410461426e+00
2.713000000000000000e+03 5.914890670776367188e+01 -4.292079448699951172e+00 3.579658746719360352e+00 1.345778179168701172e+01 5.111232280731201172e+00 1.753686189651489258e+00
2.714000000000000000e+03 5.351247024536132812e+01 -2.667669296264648438e+00 1.327226638793945312e+00 4.167684555053710938e+00 1.648473262786865234e+00 -3.720855951309204102e+00
2.715000000000000000e+03 5.734191894531250000e+01 -9.372205734252929688e+00 4.015365242958068848e-01 1.528631687164306641e+01 4.706356048583984375e+00 9.597622156143188477e-01
2.716000000000000000e+03 5.758633422851562500e+01 -3.309739828109741211e+00 5.461275577545166016e-01 1.494044780731201172e+01 4.645972728729248047e+00 -5.285983085632324219e-01
2.717000000000000000e+03 5.680277633666992188e+01 -3.195552110671997070e+00 -3.633394464850425720e-02 1.429229831695556641e+01 4.276789188385009766e+00 -2.471239328384399414e+00
2.718000000000000000e+03 5.818280792236328125e+01 -3.435994863510131836e+00 1.231158494949340820e+00 1.463960266113281250e+01 4.761228084564208984e+00 5.326601862907409668e-01
2.719000000000000000e+03 5.827571105957031250e+01 -8.952508926391601562e+00 1.960713267326354980e+00 1.498824977874755859e+01 5.084689140319824219e+00 -1.069637417793273926e+00
2.720000000000000000e+03 5.907764816284179688e+01 -8.286739349365234375e+00 4.053365707397460938e+00 1.358722400665283203e+01 5.292177200317382812e+00 -1.845222234725952148e+00
2.721000000000000000e+03 5.881283187866210938e+01 -4.403717994689941406e+00 3.787704467773437500e+00 1.407525920867919922e+01 5.358889102935791016e+00 1.826580762863159180e+00
2.722000000000000000e+03 5.829650497436523438e+01 -3.735458374023437500e+00 1.908022999763488770e+00 1.478915786743164062e+01 5.009154319763183594e+00 1.061382651329040527e+00
2.723000000000000000e+03 5.786552429199218750e+01 -9.119249343872070312e+00 1.211354374885559082e+00 1.534573459625244141e+01 4.967126846313476562e+00 -3.074070513248443604e-01
2.724000000000000000e+03 5.690176010131835938e+01 -9.823964118957519531e+00 -1.380900144577026367e-01 1.378330135345458984e+01 4.093563079833984375e+00 2.285015821456909180e+00
2.725000000000000000e+03 5.781287384033203125e+01 -9.837072372436523438e+00 3.294284641742706299e-01 1.421344280242919922e+01 4.362861156463623047e+00 4.220748543739318848e-01
2.726000000000000000e+03 5.652936935424804688e+01 -2.803767681121826172e+00 -1.485802382230758667e-01 1.281892108917236328e+01 3.801102161407470703e+00 -2.922260284423828125e+00
2.727000000000000000e+03 5.749565887451171875e+01 -2.881928682327270508e+00 6.550284475088119507e-02 1.405275917053222656e+01 4.235478401184082031e+00 -1.062547445297241211e+00
2.728000000000000000e+03 5.544288635253906250e+01 -9.693008422851562500e+00 6.278749704360961914e-01 9.950519561767578125e+00 3.173518419265747070e+00 4.637385845184326172e+00
2.729000000000000000e+03 5.495436859130859375e+01 -9.812651634216308594e+00 9.540805220603942871e-01 8.127675056457519531e+00 2.724526643753051758e+00 4.728462219238281250e+00
2.730000000000000000e+03 5.261969757080078125e+01 -1.079574680328369141e+01 1.014839053153991699e+00 3.256259441375732422e+00 1.281329512596130371e+00 3.033260345458984375e+00
2.731000000000000000e+03 5.411156845092773438e+01 -9.830663681030273438e+00 1.378356575965881348e+00 5.404264450073242188e+00 2.034786224365234375e+00 4.270641803741455078e+00
2.732000000000000000e+03 5.354133224487304688e+01 -1.013538169860839844e+01 1.279923677444458008e+00 4.202197074890136719e+00 1.644636273384094238e+00 3.729872941970825195e+00
2.733000000000000000e+03 5.185902404785156250e+01 -1.559489965438842773e+00 8.667958974838256836e-01 2.640409708023071289e+00 1.052161693572998047e+00 -2.552779912948608398e+00
2.734000000000000000e+03 5.206278991699218750e+01 -2.091016292572021484e+00 9.302449226379394531e-01 2.475790977478027344e+00 1.021810770034790039e+00 -2.583179473876953125e+00
2.735000000000000000e+03 5.098538208007812500e+01 -7.663804888725280762e-01 6.781651973724365234e-01 2.304749965667724609e+00 8.948745727539062500e-01 -2.150881052017211914e+00
2.736000000000000000e+03 3.813214874267578125e+01 3.788874149322509766e-01 -5.631477832794189453e-01 1.763009279966354370e-01 -1.160540506243705750e-01 3.903793990612030029e-01
2.737000000000000000e+03 4.043442535400390625e+01 2.967483997344970703e-01 -5.043977499008178711e-01 2.391584664583206177e-01 -7.957179099321365356e-02 2.325503230094909668e-01
2.738000000000000000e+03 5.376301574707031250e+01 -1.076238346099853516e+01 9.430235028266906738e-01 5.173835277557373047e+00 1.835057735443115234e+00 3.795535802841186523e+00
2.739000000000000000e+03 2.882884025573730469e+01 7.236402034759521484e-01 -4.283134341239929199e-01 -5.991624295711517334e-02 -1.464689075946807861e-01 6.159952282905578613e-01
2.740000000000000000e+03 2.733948898315429688e+01 1.017348289489746094e+00 -3.728662729263305664e-01 -1.194469481706619263e-01 -1.476939767599105835e-01 6.107570528984069824e-01
2.741000000000000000e+03 2.858777427673339844e+01 2.653104543685913086e+00 -3.581293225288391113e-01 -7.513644546270370483e-02 -1.299797296524047852e-01 6.609142422676086426e-01
2.742000000000000000e+03 5.145137786865234375e+01 -1.274194526672363281e+01 6.372010111808776855e-01 3.043327093124389648e+00 1.104158401489257812e+00 2.461787223815917969e+00
2.743000000000000000e+03 5.151266098022460938e+01 -1.209564018249511719e+01 7.185724377632141113e-01 2.775144338607788086e+00 1.048115015029907227e+00 2.463885545730590820e+00
2.744000000000000000e+03 5.055601882934570312e+01 -9.466308355331420898e-01 6.174814701080322266e-01 1.899644613265991211e+00 7.551378011703491211e-01 -1.904410362243652344e+00
2.745000000000000000e+03 5.116223144531250000e+01 -8.767935633659362793e-02 6.622393727302551270e-01 2.747838497161865234e+00 1.023023366928100586e+00 -2.287284851074218750e+00
2.746000000000000000e+03 3.173938369750976562e+01 3.548168540000915527e-01 -5.398778915405273438e-01 3.165488690137863159e-02 -1.524668931961059570e-01 5.957553982734680176e-01
2.747000000000000000e+03 3.122608184814453125e+01 7.824574708938598633e-01 -4.890102148056030273e-01 2.154101617634296417e-02 -1.402407586574554443e-01 6.115247607231140137e-01
2.748000000000000000e+03 4.539452743530273438e+01 -1.488047218322753906e+01 1.679634004831314087e-01 1.028027772903442383e+00 3.587973713874816895e-01 7.219417095184326172e-01
2.749000000000000000e+03 4.567992782592773438e+01 -1.413479137420654297e+01 9.831710904836654663e-02 9.051926136016845703e-01 3.010529279708862305e-01 7.205550074577331543e-01
2.750000000000000000e+03 4.292739105224609375e+01 -1.359464454650878906e+01 -3.362204432487487793e-01 4.115163385868072510e-01 2.258877083659172058e-02 1.822556108236312866e-01
2.751000000000000000e+03 4.376550674438476562e+01 -1.515764808654785156e+01 5.781763046979904175e-02 7.232233285903930664e-01 2.343122959136962891e-01 4.661289453506469727e-01
2.752000000000000000e+03 3.839992141723632812e+01 -1.429965686798095703e+01 -4.874634146690368652e-01 1.839809119701385498e-01 -9.104475378990173340e-02 -1.821662783622741699e-01
2.753000000000000000e+03 3.394636535644531250e+01 1.075168251991271973e+00 -5.012668967247009277e-01 9.716314077377319336e-02 -1.212311238050460815e-01 5.609098672866821289e-01
2.754000000000000000e+03 3.734245681762695312e+01 3.015405237674713135e-01 -5.855361223220825195e-01 1.523963212966918945e-01 -1.299419552087783813e-01 4.350834786891937256e-01
2.755000000000000000e+03 4.442169570922851562e+01 -1.530216407775878906e+01 1.351324617862701416e-01 8.246847391128540039e-01 2.879451513290405273e-01 5.754202008247375488e-01
2.756000000000000000e+03 4.215560913085937500e+01 -1.410674381256103516e+01 -2.912574708461761475e-01 4.066739976406097412e-01 3.462495654821395874e-02 1.306814700365066528e-01
2.757000000000000000e+03 3.657305908203125000e+01 9.659408926963806152e-01 -5.009517669677734375e-01 1.583438962697982788e-01 -1.027823537588119507e-01 4.608343839645385742e-01
2.758000000000000000e+03 3.816748428344726562e+01 -1.510475444793701172e+01 -3.197769522666931152e-01 2.341340482234954834e-01 -2.569287456572055817e-02 -1.662216335535049438e-01
2.759000000000000000e+03 4.062324142456054688e+01 -1.498890686035156250e+01 -2.393588870763778687e-01 3.470870256423950195e-01 3.231844305992126465e-02 2.074861899018287659e-02
2.760000000000000000e+03 4.160444259643554688e+01 -1.479124832153320312e+01 -1.984156072139739990e-01 4.448546469211578369e-01 7.393171638250350952e-02 1.100543066859245300e-01
2.761000000000000000e+03 4.634790420532226562e+01 -1.429675865173339844e+01 1.956266611814498901e-01 1.081772565841674805e+00 3.832197785377502441e-01 8.827455639839172363e-01
2.762000000000000000e+03 3.892090988159179688e+01 4.149235785007476807e-01 -5.406153202056884766e-01 1.926858127117156982e-01 -1.043788492679595947e-01 3.404576480388641357e-01
2.763000000000000000e+03 3.515165710449218750e+01 1.061197161674499512e+00 -5.008606314659118652e-01 1.287916898727416992e-01 -1.116206869482994080e-01 5.202609896659851074e-01
2.764000000000000000e+03 3.517017745971679688e+01 -1.412368869781494141e+01 -6.090232133865356445e-01 7.579178363084793091e-02 -1.599694341421127319e-01 -3.534731268882751465e-01
2.765000000000000000e+03 3.810957336425781250e+01 1.227305412292480469e+00 -4.181570708751678467e-01 2.281908243894577026e-01 -5.698987469077110291e-02 3.693618774414062500e-01
2.766000000000000000e+03 3.692702484130859375e+01 -1.520801162719726562e+01 -3.666986823081970215e-01 1.873176842927932739e-01 -5.381429567933082581e-02 -2.388126999139785767e-01
2.767000000000000000e+03 3.424352264404296875e+01 -1.396061897277832031e+01 -6.430220007896423340e-01 5.262045189738273621e-02 -1.771204620599746704e-01 -3.894870877265930176e-01
2.768000000000000000e+03 3.391801452636718750e+01 -1.539190769195556641e+01 -4.228969812393188477e-01 1.091309860348701477e-01 -9.412979334592819214e-02 -3.804097473621368408e-01
2.769000000000000000e+03 4.128124618530273438e+01 9.184713363647460938e-01 -3.351739048957824707e-01 3.434028625488281250e-01 2.468691207468509674e-03 1.141802966594696045e-01
2.770000000000000000e+03 4.279464340209960938e+01 1.746632933616638184e+00 -7.880908250808715820e-02 5.581026077270507812e-01 1.437880694866180420e-01 -1.317069232463836670e-01
2.771000000000000000e+03 4.312036132812500000e+01 9.599371552467346191e-01 -1.755627542734146118e-01 4.691893160343170166e-01 8.808796852827072144e-02 -1.123984679579734802e-01
2.772000000000000000e+03 4.382486343383789062e+01 9.801698923110961914e-01 -1.145189553499221802e-01 5.598863959312438965e-01 1.336102336645126343e-01 -2.079580277204513550e-01
2.773000000000000000e+03 4.510376358032226562e+01 1.280860662460327148e+00 7.699374854564666748e-02 7.961731553077697754e-01 2.619500756263732910e-01 -4.914419949054718018e-01
2.774000000000000000e+03 4.708658599853515625e+01 -1.437984180450439453e+01 2.918955385684967041e-01 1.316891312599182129e+00 4.826360642910003662e-01 1.089864253997802734e+00
2.775000000000000000e+03 4.908889389038085938e+01 -5.463847517967224121e-01 3.809318244457244873e-01 1.320631146430969238e+00 5.104689002037048340e-01 -1.344252228736877441e+00
2.776000000000000000e+03 3.226275634765625000e+01 -1.480422973632812500e+01 -5.314620733261108398e-01 4.814276099205017090e-02 -1.449957937002182007e-01 -4.375025033950805664e-01
2.777000000000000000e+03 3.897235870361328125e+01 1.315909743309020996e+00 -3.768681883811950684e-01 2.688458263874053955e-01 -3.240670263767242432e-02 3.053262829780578613e-01
2.778000000000000000e+03 4.883712768554687500e+01 -1.414664554595947266e+01 4.400894045829772949e-01 1.860039234161376953e+00 6.900386214256286621e-01 1.560585618019104004e+00
2.779000000000000000e+03 4.780992889404296875e+01 -1.420599937438964844e+01 3.418288230895996094e-01 1.487554907798767090e+00 5.488151311874389648e-01 1.256992459297180176e+00
2.780000000000000000e+03 4.922937393188476562e+01 -1.347107696533203125e+01 4.530373513698577881e-01 1.848188996315002441e+00 6.903678774833679199e-01 1.622035622596740723e+00
2.781000000000000000e+03 3.100315093994140625e+01 -1.543713569641113281e+01 -4.470531940460205078e-01 4.521827027201652527e-02 -1.205504760146141052e-01 -4.607580006122589111e-01
2.782000000000000000e+03 2.862129402160644531e+01 -1.541515350341796875e+01 -4.692630469799041748e-01 2.712793089449405670e-02 -1.326405405998229980e-01 -4.945816397666931152e-01
2.783000000000000000e+03 4.980154418945312500e+01 -1.377706909179687500e+01 5.158070921897888184e-01 2.233416557312011719e+00 8.247671127319335938e-01 1.850706458091735840e+00
2.784000000000000000e+03 2.949026679992675781e+01 -1.540813255310058594e+01 -4.643009901046752930e-01 3.029325604438781738e-02 -1.302023231983184814e-01 -4.872827529907226562e-01
2.785000000000000000e+03 2.531756973266601562e+01 -1.407678127288818359e+01 -5.733707547187805176e-01 1.552143786102533340e-02 -1.673547923564910889e-01 -5.078601837158203125e-01
2.786000000000000000e+03 2.577676582336425781e+01 -1.723865890502929688e+01 -3.360877633094787598e-01 2.189220301806926727e-02 -9.425867348909378052e-02 -4.965122640132904053e-01
2.787000000000000000e+03 4.979166793823242188e+01 3.844028115272521973e-01 5.437431931495666504e-01 2.046114206314086914e+00 7.769572734832763672e-01 -1.743159174919128418e+00
2.788000000000000000e+03 4.892408752441406250e+01 -1.090142726898193359e-01 4.196479916572570801e-01 1.440093755722045898e+00 5.579225420951843262e-01 -1.377984285354614258e+00
2.789000000000000000e+03 5.066232681274414062e+01 -1.327723598480224609e+01 5.761886239051818848e-01 2.578653335571289062e+00 9.464525580406188965e-01 2.139233112335205078e+00
2.790000000000000000e+03 2.264537239074707031e+01 -1.511165237426757812e+01 -5.043271183967590332e-01 -9.488474577665328979e-03 -1.541446745395660400e-01 -4.938602149486541748e-01
2.791000000000000000e+03 4.836273193359375000e+01 8.332139849662780762e-01 4.215672314167022705e-01 1.543827772140502930e+00 5.896185040473937988e-01 -1.289620876312255859e+00
2.792000000000000000e+03 2.566058540344238281e+01 -1.484919548034667969e+01 -5.215119719505310059e-01 1.674533449113368988e-02 -1.514299958944320679e-01 -5.112035274505615234e-01
2.793000000000000000e+03 4.777141952514648438e+01 5.559697747230529785e-01 3.255755305290222168e-01 1.233322978019714355e+00 4.676695466041564941e-01 -1.077650427818298340e+00
2.794000000000000000e+03 4.681006622314453125e+01 9.947220087051391602e-01 2.347088754177093506e-01 1.081751346588134766e+00 3.949380815029144287e-01 -8.541176915168762207e-01
2.795000000000000000e+03 7.257435607910156250e+01 -5.269511222839355469e+00 6.982727646827697754e-01 7.064489841461181641e+00 2.328828811645507812e+00 1.832048743963241577e-01
2.796000000000000000e+03 7.036661529541015625e+01 -6.068318843841552734e+00 1.114876508712768555e+00 7.485922336578369141e+00 2.580239534378051758e+00 5.732533335685729980e-02
2.797000000000000000e+03 7.049359130859375000e+01 -3.062135696411132812e+00 8.923647999763488770e-01 7.562382221221923828e+00 2.536424160003662109e+00 6.273426413536071777e-01
2.798000000000000000e+03 7.058336639404296875e+01 -4.090580463409423828e+00 9.888373017311096191e-01 7.493640899658203125e+00 2.544743537902832031e+00 4.530033469200134277e-01
2.799000000000000000e+03 4.057715988159179688e+01 1.091441273689270020e+00 -3.394024968147277832e-01 3.174915909767150879e-01 -6.573278922587633133e-03 1.861229687929153442e-01
2.800000000000000000e+03 2.822291755676269531e+01 1.416008234024047852e+00 -3.873425722122192383e-01 -8.860598504543304443e-02 -1.427845656871795654e-01 6.330406069755554199e-01
2.801000000000000000e+03 6.967240905761718750e+01 5.303417682647705078e+00 -1.737747639417648315e-01 8.045252799987792969e+00 2.361443281173706055e+00 9.964205622673034668e-01
2.802000000000000000e+03 6.891761779785156250e+01 2.951563119888305664e+00 5.470788478851318359e-02 8.158913612365722656e+00 2.464086532592773438e+00 1.082424163818359375e+00
2.803000000000000000e+03 3.333190155029296875e+01 7.984448671340942383e-01 -5.186011195182800293e-01 7.800147682428359985e-02 -1.321798861026763916e-01 5.740439891815185547e-01
2.804000000000000000e+03 2.954835510253906250e+01 1.335710644721984863e+00 -4.225994348526000977e-01 -3.362889960408210754e-02 -1.368685066699981689e-01 6.341601014137268066e-01
2.805000000000000000e+03 2.579942703247070312e+01 3.582327663898468018e-01 -3.210523426532745361e-01 -1.716909706592559814e-01 -1.478229910135269165e-01 5.514330267906188965e-01
2.806000000000000000e+03 2.557810783386230469e+01 2.204487323760986328e+00 -2.972591519355773926e-01 -2.288748919963836670e-01 -1.578402221202850342e-01 6.196445226669311523e-01
2.807000000000000000e+03 2.649098968505859375e+01 7.440711259841918945e-01 -3.473513722419738770e-01 -1.514978110790252686e-01 -1.496547609567642212e-01 5.851301550865173340e-01
2.808000000000000000e+03 6.897826385498046875e+01 1.348590660095214844e+01 -4.181991517543792725e-01 7.819279193878173828e+00 2.220324039459228516e+00 5.103700160980224609e-01
2.809000000000000000e+03 6.908872985839843750e+01 1.201525115966796875e+01 -4.264587461948394775e-01 7.877923488616943359e+00 2.235439300537109375e+00 5.857781171798706055e-01
2.810000000000000000e+03 7.049491882324218750e+01 1.150067210197448730e+00 3.268974721431732178e-01 7.789921283721923828e+00 2.435045719146728516e+00 1.017897129058837891e+00
2.811000000000000000e+03 7.167189788818359375e+01 -1.867139244079589844e+01 -1.380288749933242798e-01 7.791233062744140625e+00 2.295961380004882812e+00 -9.385188221931457520e-01
2.812000000000000000e+03 2.238280296325683594e+01 -1.750663757324218750e+01 -3.762188851833343506e-01 -3.833310678601264954e-02 -1.243655979633331299e-01 -4.793129861354827881e-01
2.813000000000000000e+03 2.524753570556640625e+01 -1.626268196105957031e+01 -4.219449758529663086e-01 1.316731330007314682e-02 -1.226333007216453552e-01 -5.090407729148864746e-01
2.814000000000000000e+03 2.707534599304199219e+01 4.894335269927978516e+00 -3.109994232654571533e-01 -1.561490446329116821e-01 -1.401445418596267700e-01 6.784753203392028809e-01
2.815000000000000000e+03 2.647042465209960938e+01 6.534909725189208984e+00 -3.205912113189697266e-01 -1.990568190813064575e-01 -1.558944135904312134e-01 6.706461310386657715e-01
2.816000000000000000e+03 7.219361114501953125e+01 -1.005197715759277344e+01 6.222075223922729492e-01 7.247765541076660156e+00 2.360991954803466797e+00 -5.959103107452392578e-01
2.817000000000000000e+03 7.165361022949218750e+01 -1.276512145996093750e+01 4.046460390090942383e-01 7.523105621337890625e+00 2.378325462341308594e+00 -8.947380781173706055e-01
2.818000000000000000e+03 2.741736984252929688e+01 9.457970619201660156e+00 -2.904530465602874756e-01 -4.613205045461654663e-02 -1.009755283594131470e-01 5.731578469276428223e-01
2.819000000000000000e+03 7.137343597412109375e+01 -6.253415107727050781e+00 9.238234162330627441e-01 7.298659324645996094e+00 2.466744899749755859e+00 1.646482385694980621e-02
2.820000000000000000e+03 7.037569427490234375e+01 -1.964937806129455566e+00 7.554754018783569336e-01 7.654870510101318359e+00 2.523103713989257812e+00 7.897345423698425293e-01
2.821000000000000000e+03 7.076557922363281250e+01 -2.418737983703613281e+01 -3.358063101768493652e-01 7.905879974365234375e+00 2.271022081375122070e+00 -6.739252805709838867e-01
2.822000000000000000e+03 6.920083618164062500e+01 -2.475185012817382812e+01 -4.160433411598205566e-01 7.893294334411621094e+00 2.243175268173217773e+00 -6.058484315872192383e-01
2.823000000000000000e+03 2.372754287719726562e+01 1.721907043457031250e+01 -2.742878496646881104e-01 -3.011892437934875488e-01 -1.726431250572204590e-01 2.806317806243896484e-01
2.824000000000000000e+03 2.422978973388671875e+01 1.896314620971679688e+01 -1.599447280168533325e-01 -1.906494349241256714e-01 -1.051782518625259399e-01 2.024186551570892334e-01
2.825000000000000000e+03 7.142641448974609375e+01 7.569078445434570312e+00 -2.280359268188476562e-01 7.851332664489746094e+00 2.286988973617553711e+00 8.797763586044311523e-01
2.826000000000000000e+03 7.012270355224609375e+01 7.810930728912353516e+00 -3.072344660758972168e-01 7.969790935516357422e+00 2.298766851425170898e+00 8.682960867881774902e-01
2.827000000000000000e+03 6.932960510253906250e+01 -1.617837142944335938e+01 5.830795969814062119e-03 8.095219612121582031e+00 2.430315256118774414e+00 -1.066180944442749023e+00
2.828000000000000000e+03 7.127709197998046875e+01 -1.982120323181152344e+01 -2.051977366209030151e-01 7.872051239013671875e+00 2.300055980682373047e+00 -9.178966879844665527e-01
2.829000000000000000e+03 7.098916625976562500e+01 -1.119082736968994141e+01 6.365623474121093750e-01 7.544769763946533203e+00 2.454399585723876953e+00 -7.968459129333496094e-01
2.830000000000000000e+03 7.037461090087890625e+01 1.041749286651611328e+01 -3.577147126197814941e-01 7.912237644195556641e+00 2.266356706619262695e+00 7.192139029502868652e-01
2.831000000000000000e+03 6.882191467285156250e+01 1.480151367187500000e+01 -4.111464321613311768e-01 7.768087387084960938e+00 2.207082271575927734e+00 4.363744854927062988e-01
2.832000000000000000e+03 6.737717437744140625e+01 -2.667528152465820312e+01 -4.873996376991271973e-01 7.730154037475585938e+00 2.172826290130615234e+00 -4.017732441425323486e-01
2.833000000000000000e+03 1.934937095642089844e+01 2.386773872375488281e+01 8.958546072244644165e-02 -6.060339808464050293e-01 -1.549345552921295166e-01 2.221867293119430542e-01
2.834000000000000000e+03 2.396723747253417969e+01 -1.988407707214355469e+01 -1.686738729476928711e-01 -1.571216806769371033e-02 -5.531581118702888489e-02 -4.508739411830902100e-01
2.835000000000000000e+03 9.957098960876464844e+00 -2.610136032104492188e+01 4.775079712271690369e-02 -4.460044205188751221e-01 -1.194760799407958984e-01 -3.677031099796295166e-01
2.836000000000000000e+03 7.091712951660156250e+01 -1.314189732074737549e-01 4.465213119983673096e-01 7.656617641448974609e+00 2.430941581726074219e+00 9.397449493408203125e-01
2.837000000000000000e+03 7.182746124267578125e+01 -2.164603042602539062e+01 -2.370864301919937134e-01 7.849746704101562500e+00 2.283798217773437500e+00 -8.126284480094909668e-01
2.838000000000000000e+03 1.342044639587402344e+01 2.671519088745117188e+01 1.645634472370147705e-01 -7.649368643760681152e-01 -1.801120191812515259e-01 4.303970336914062500e-01
2.839000000000000000e+03 1.404700279235839844e+01 2.470277595520019531e+01 6.950055062770843506e-02 -8.421794176101684570e-01 -2.318036556243896484e-01 4.594411551952362061e-01
2.840000000000000000e+03 6.707011413574218750e+01 -2.971800422668457031e+01 -4.263105094432830811e-01 7.521677970886230469e+00 2.128610372543334961e+00 -2.729053795337677002e-01
2.841000000000000000e+03 7.162569427490234375e+01 -1.382601451873779297e+01 2.795553207397460938e-01 7.579070091247558594e+00 2.357587575912475586e+00 -9.508289098739624023e-01
2.842000000000000000e+03 7.043775939941406250e+01 -1.495718955993652344e+01 1.863543540239334106e-01 7.862660408020019531e+00 2.414704561233520508e+00 -1.044902443885803223e+00
2.843000000000000000e+03 6.643896484375000000e+01 -3.739744567871093750e+01 -2.682313621044158936e-01 7.224916458129882812e+00 2.087005615234375000e+00 -8.435944467782974243e-02
2.844000000000000000e+03 6.989707946777343750e+01 -3.165070724487304688e+01 -2.893956601619720459e-01 7.737287044525146484e+00 2.234367370605468750e+00 -3.063867092132568359e-01
2.845000000000000000e+03 1.181253337860107422e+01 3.534665679931640625e+01 2.989996373653411865e-01 -6.206495165824890137e-01 -9.649496525526046753e-02 2.217856496572494507e-01
2.846000000000000000e+03 1.067846584320068359e+01 3.193854522705078125e+01 2.144322395324707031e-01 -6.485149860382080078e-01 -1.302248239517211914e-01 3.378197848796844482e-01
2.847000000000000000e+03 1.001070117950439453e+01 2.562886810302734375e+01 6.364427041262388229e-03 -6.493124365806579590e-01 -1.928844004869461060e-01 5.171124339103698730e-01
2.848000000000000000e+03 6.855935668945312500e+01 -2.581373596191406250e+01 -4.376446008682250977e-01 7.815266609191894531e+00 2.213286638259887695e+00 -5.163752436637878418e-01
2.849000000000000000e+03 1.513670539855957031e+01 -2.745193862915039062e+01 1.449761241674423218e-01 -3.740866780281066895e-01 -6.873316317796707153e-02 -3.323424458503723145e-01
2.850000000000000000e+03 1.623353385925292969e+01 -2.574268913269042969e+01 9.254949539899826050e-02 -3.336212635040283203e-01 -7.232153415679931641e-02 -3.477429151535034180e-01
2.851000000000000000e+03 6.938990020751953125e+01 2.513531494140625000e+01 -1.530876755714416504e-01 7.544770240783691406e+00 2.217504739761352539e+00 1.050021201372146606e-01
2.852000000000000000e+03 6.879821777343750000e+01 2.291041183471679688e+01 -2.134440243244171143e-01 7.509257316589355469e+00 2.188744068145751953e+00 1.475439071655273438e-01
2.853000000000000000e+03 5.913240051269531250e+01 -7.370868682861328125e+00 6.179769515991210938e+00 1.309413146972656250e+01 5.782170295715332031e+00 -1.468660831451416016e+00
2.854000000000000000e+03 5.887446212768554688e+01 -6.905498027801513672e+00 7.472198963165283203e+00 1.341137981414794922e+01 6.265073776245117188e+00 -1.016204237937927246e+00
2.855000000000000000e+03 5.934784317016601562e+01 -7.680343627929687500e+00 5.329112529754638672e+00 1.287008285522460938e+01 5.459758758544921875e+00 -1.596576452255249023e+00
2.856000000000000000e+03 5.896752166748046875e+01 -6.210135936737060547e+00 7.633018970489501953e+00 1.308133506774902344e+01 6.214306354522705078e+00 3.350283205509185791e-01
2.857000000000000000e+03 5.541611862182617188e+01 -2.572782754898071289e+00 4.008942842483520508e-01 9.658755302429199219e+00 3.017894983291625977e+00 -4.285003662109375000e+00
2.858000000000000000e+03 5.515671920776367188e+01 -9.461874008178710938e+00 1.064474225044250488e+00 8.943889617919921875e+00 3.002509117126464844e+00 4.988400459289550781e+00
2.859000000000000000e+03 5.508403015136718750e+01 -3.192976713180541992e+00 1.050957083702087402e+00 8.619749069213867188e+00 2.901211977005004883e+00 -4.904863834381103516e+00
2.860000000000000000e+03 5.941115570068359375e+01 -5.302552700042724609e+00 5.743817806243896484e+00 1.266758346557617188e+01 5.523420333862304688e+00 1.466096878051757812e+00
2.861000000000000000e+03 5.901765441894531250e+01 -5.491122245788574219e+00 6.469606876373291016e+00 1.337280941009521484e+01 5.952724933624267578e+00 1.487666368484497070e+00
2.862000000000000000e+03 5.890973663330078125e+01 -4.689295291900634766e+00 4.399315834045410156e+00 1.384712600708007812e+01 5.473932743072509766e+00 1.894618749618530273e+00
2.863000000000000000e+03 5.577470016479492188e+01 -2.232532024383544922e+00 1.725970394909381866e-02 1.039043140411376953e+01 3.122307538986206055e+00 -3.744081974029541016e+00
2.864000000000000000e+03 5.609464645385742188e+01 -9.762842178344726562e+00 1.254006177186965942e-01 1.225192451477050781e+01 3.713197469711303711e+00 3.852799892425537109e+00
2.865000000000000000e+03 5.725297546386718750e+01 -1.002702045440673828e+01 -1.197603493928909302e-01 1.380622196197509766e+01 4.105938434600830078e+00 1.536366701126098633e+00
2.866000000000000000e+03 5.796990966796875000e+01 -3.164025783538818359e+00 6.641877293586730957e-01 1.447622108459472656e+01 4.542122840881347656e+00 -4.095332324504852295e-02
2.867000000000000000e+03 5.754449462890625000e+01 -9.597245216369628906e+00 3.499965071678161621e-01 1.455044269561767578e+01 4.470131874084472656e+00 7.363061904907226562e-01
2.868000000000000000e+03 5.749117279052734375e+01 -2.400219678878784180e+00 -1.829810440540313721e-01 1.333360290527343750e+01 3.945186614990234375e+00 -1.300086498260498047e+00
2.869000000000000000e+03 5.870956420898437500e+01 -9.039375305175781250e+00 2.251214265823364258e+00 1.411574745178222656e+01 4.910088539123535156e+00 -1.325641989707946777e+00
2.870000000000000000e+03 5.796104049682617188e+01 -9.553655624389648438e+00 7.389302849769592285e-01 1.461652278900146484e+01 4.606636047363281250e+00 -2.592705003917217255e-02
2.871000000000000000e+03 5.444935607910156250e+01 -1.003565311431884766e+01 1.106524348258972168e+00 6.577950954437255859e+00 2.305342674255371094e+00 4.409760951995849609e+00
2.872000000000000000e+03 5.513723754882812500e+01 -1.041182994842529297e+01 4.937883913516998291e-01 8.660544395446777344e+00 2.746299743652343750e+00 4.292610168457031250e+00
2.873000000000000000e+03 5.413972854614257812e+01 -2.931522846221923828e+00 1.329332947731018066e+00 5.442068576812744141e+00 2.031420469284057617e+00 -4.247148990631103516e+00
2.874000000000000000e+03 5.335548019409179688e+01 -1.065768432617187500e+01 1.033781170845031738e+00 4.270429134368896484e+00 1.591263055801391602e+00 3.529417514801025391e+00
2.875000000000000000e+03 5.391583633422851562e+01 -1.029980850219726562e+01 1.125412702560424805e+00 5.228983402252197266e+00 1.906318783760070801e+00 4.003564834594726562e+00
2.876000000000000000e+03 5.254714202880859375e+01 -2.021880626678466797e+00 1.015233159065246582e+00 3.061153650283813477e+00 1.222916007041931152e+00 -2.935240268707275391e+00
2.877000000000000000e+03 5.428242492675781250e+01 -1.046874427795410156e+01 9.134082794189453125e-01 6.277636528015136719e+00 2.157313346862792969e+00 4.165186405181884766e+00
2.878000000000000000e+03 5.162129592895507812e+01 -1.062437057495117188e+00 7.695146203041076660e-01 2.713952779769897461e+00 1.045040249824523926e+00 -2.449819326400756836e+00
2.879000000000000000e+03 5.075001907348632812e+01 -3.112346231937408447e-01 6.399785280227661133e-01 2.330361366271972656e+00 8.911019563674926758e-01 -2.090261220932006836e+00
2.880000000000000000e+03 5.399583435058593750e+01 -2.045022964477539062e+00 9.338248968124389648e-01 5.701866626739501953e+00 1.990707516670227051e+00 -3.919813871383666992e+00
2.881000000000000000e+03 3.011639595031738281e+01 7.687810659408569336e-01 -4.652358889579772949e-01 -1.327051036059856415e-02 -1.435519158840179443e-01 6.191564202308654785e-01
2.882000000000000000e+03 3.658749389648437500e+01 1.643205046653747559e+00 -4.150682687759399414e-01 1.924043595790863037e-01 -6.679917126893997192e-02 4.496905803680419922e-01
2.883000000000000000e+03 2.903489303588867188e+01 1.969889283180236816e+00 -3.883824944496154785e-01 -4.979692026972770691e-02 -1.314538270235061646e-01 6.488112807273864746e-01
2.884000000000000000e+03 5.246578598022460938e+01 -1.197092914581298828e+01 7.460908889770507812e-01 3.783068895339965820e+00 1.358747959136962891e+00 2.946273326873779297e+00
2.885000000000000000e+03 2.811158370971679688e+01 4.044912815093994141e+00 -3.216795623302459717e-01 -8.776666969060897827e-02 -1.228338703513145447e-01 6.710568666458129883e-01
2.886000000000000000e+03 5.129467773437500000e+01 -1.347901535034179688e+01 5.483928322792053223e-01 3.189049959182739258e+00 1.121232867240905762e+00 2.387586832046508789e+00
2.887000000000000000e+03 3.271699905395507812e+01 4.118104577064514160e-01 -5.497821569442749023e-01 5.278689414262771606e-02 -1.490985751152038574e-01 5.818831920623779297e-01
2.888000000000000000e+03 2.901893424987792969e+01 5.206214904785156250e+00 -2.914519309997558594e-01 -1.430264580994844437e-02 -9.172637760639190674e-02 6.479026079177856445e-01
2.889000000000000000e+03 4.500717544555664062e+01 -1.568179798126220703e+01 2.057533860206604004e-01 1.026858210563659668e+00 3.697834610939025879e-01 6.879873871803283691e-01
2.890000000000000000e+03 4.312316131591796875e+01 -1.502343845367431641e+01 -1.538735534995794296e-02 6.313824653625488281e-01 1.847985386848449707e-01 3.589413166046142578e-01
2.891000000000000000e+03 4.052552032470703125e+01 -1.572484397888183594e+01 -1.181773543357849121e-01 4.103738963603973389e-01 8.765896409749984741e-02 5.658663436770439148e-02
2.892000000000000000e+03 3.996525192260742188e+01 -1.475516986846923828e+01 -3.166680932044982910e-01 2.852171957492828369e-01 -9.435267187654972076e-03 -4.443697258830070496e-02
2.893000000000000000e+03 4.358435440063476562e+01 -1.612839317321777344e+01 1.754249632358551025e-01 8.792357444763183594e-01 3.163982033729553223e-01 5.210168361663818359e-01
2.894000000000000000e+03 3.561878967285156250e+01 -1.494755363464355469e+01 -4.621881544589996338e-01 1.217770427465438843e-01 -1.021233350038528442e-01 -3.185963332653045654e-01
2.895000000000000000e+03 3.449778747558593750e+01 1.845618605613708496e+00 -4.200111031532287598e-01 1.389788240194320679e-01 -8.430968225002288818e-02 5.395271778106689453e-01
2.896000000000000000e+03 3.431765365600585938e+01 5.543867349624633789e-01 -5.666499137878417969e-01 9.041598439216613770e-02 -1.428701728582382202e-01 5.445800423622131348e-01
2.897000000000000000e+03 4.261156845092773438e+01 -1.468867969512939453e+01 -1.355720907449722290e-01 5.429625511169433594e-01 1.222171410918235779e-01 2.340430319309234619e-01
2.898000000000000000e+03 3.480313873291015625e+01 -1.531134796142578125e+01 -4.262581169605255127e-01 1.147387251257896423e-01 -9.345581382513046265e-02 -3.471201360225677490e-01
2.899000000000000000e+03 3.611562347412109375e+01 -1.597255706787109375e+01 -2.803832590579986572e-01 1.968665719032287598e-01 -2.505500800907611847e-02 -2.594718039035797119e-01
2.900000000000000000e+03 3.893532562255859375e+01 -1.545934581756591797e+01 -2.372141778469085693e-01 2.972772419452667236e-01 1.801892183721065521e-02 -8.886859565973281860e-02
2.901000000000000000e+03 3.784729766845703125e+01 2.023805141448974609e+00 -3.237830996513366699e-01 2.601069211959838867e-01 -1.910285279154777527e-02 3.622100055217742920e-01
2.902000000000000000e+03 4.215564727783203125e+01 -1.534870338439941406e+01 -4.760308563709259033e-02 5.499745607376098633e-01 1.507114320993423462e-01 2.244688719511032104e-01
2.903000000000000000e+03 4.101213836669921875e+01 -1.431689357757568359e+01 -3.224279582500457764e-01 3.342749476432800293e-01 3.554092254489660263e-03 1.597221940755844116e-02
2.904000000000000000e+03 3.633745193481445312e+01 -1.818376731872558594e+01 -4.324887413531541824e-03 3.454120755195617676e-01 1.023261547088623047e-01 -1.632042378187179565e-01
2.905000000000000000e+03 3.731367492675781250e+01 1.042246937751770020e+00 -4.731655120849609375e-01 1.851895153522491455e-01 -8.639279752969741821e-02 4.220035076141357422e-01
2.906000000000000000e+03 2.970776748657226562e+01 -1.654733467102050781e+01 -3.516058027744293213e-01 4.833577573299407959e-02 -9.098101407289505005e-02 -4.716190397739410400e-01
2.907000000000000000e+03 3.305812454223632812e+01 -1.520870399475097656e+01 -4.591670632362365723e-01 7.846172153949737549e-02 -1.142116039991378784e-01 -4.150648415088653564e-01
2.908000000000000000e+03 3.764971160888671875e+01 -1.593761253356933594e+01 -2.308523654937744141e-01 2.556197047233581543e-01 7.430203724652528763e-03 -1.607841700315475464e-01
2.909000000000000000e+03 4.082805633544921875e+01 1.905594825744628906e+00 -1.870781034231185913e-01 4.233399331569671631e-01 7.087854295969009399e-02 1.097385808825492859e-01
2.910000000000000000e+03 4.190737152099609375e+01 7.665528655052185059e-01 -3.177565634250640869e-01 3.460808992385864258e-01 8.497295901179313660e-03 6.306321918964385986e-02
2.911000000000000000e+03 4.446167755126953125e+01 1.026021480560302734e+00 -2.393530867993831635e-02 6.508393287658691406e-01 1.880712062120437622e-01 -3.407321572303771973e-01
2.912000000000000000e+03 4.315061950683593750e+01 2.805479526519775391e+00 9.728310257196426392e-02 7.670143842697143555e-01 2.592892348766326904e-01 -2.773135602474212646e-01
2.913000000000000000e+03 4.580499267578125000e+01 1.562852978706359863e+00 1.906641423702239990e-01 1.003476381301879883e+00 3.582421541213989258e-01 -6.720508337020874023e-01
2.914000000000000000e+03 4.409376525878906250e+01 1.576261878013610840e+00 1.551698707044124603e-02 6.941951513290405273e-01 2.129136472940444946e-01 -3.252863585948944092e-01
2.915000000000000000e+03 5.049031448364257812e+01 1.465494930744171143e-01 6.183806061744689941e-01 2.384142875671386719e+00 9.007570743560791016e-01 -2.035996437072753906e+00
2.916000000000000000e+03 4.216166305541992188e+01 1.336023211479187012e+00 -1.923730522394180298e-01 4.390260875225067139e-01 7.399591058492660522e-02 -8.808975107967853546e-03
2.917000000000000000e+03 3.285154724121093750e+01 -1.611376380920410156e+01 -3.519868552684783936e-01 9.616513550281524658e-02 -7.674651592969894409e-02 -4.018239080905914307e-01
2.918000000000000000e+03 3.304490280151367188e+01 1.543498992919921875e+00 -4.540353715419769287e-01 8.825055509805679321e-02 -1.097354441881179810e-01 5.861970186233520508e-01
2.919000000000000000e+03 3.220458984375000000e+01 8.322625160217285156e-01 -5.025649666786193848e-01 5.174881964921951294e-02 -1.352448463439941406e-01 5.984764099121093750e-01
2.920000000000000000e+03 2.431640052795410156e+01 -1.678274917602539062e+01 -3.922985196113586426e-01 -2.115957206115126610e-03 -1.183243393898010254e-01 -5.007717013359069824e-01
2.921000000000000000e+03 3.160649490356445312e+01 -1.680247879028320312e+01 -2.992196977138519287e-01 8.626941591501235962e-02 -6.388508528470993042e-02 -4.259614050388336182e-01
2.922000000000000000e+03 4.611558532714843750e+01 -1.523712730407714844e+01 2.771442234516143799e-01 1.246257662773132324e+00 4.570205509662628174e-01 9.345412850379943848e-01
2.923000000000000000e+03 4.827989959716796875e+01 -1.484395313262939453e+01 4.019276797771453857e-01 1.818850398063659668e+00 6.662334203720092773e-01 1.431668996810913086e+00
2.924000000000000000e+03 2.810348701477050781e+01 -1.630036926269531250e+01 -3.935295641422271729e-01 3.384840115904808044e-02 -1.079043522477149963e-01 -4.958852231502532959e-01
2.925000000000000000e+03 2.367230415344238281e+01 -1.838648986816406250e+01 -2.951733767986297607e-01 -1.976161450147628784e-02 -9.448049217462539673e-02 -4.768010079860687256e-01
2.926000000000000000e+03 2.738588523864746094e+01 3.030321598052978516e+00 -3.318662941455841064e-01 -1.380537450313568115e-01 -1.409760117530822754e-01 6.660726070404052734e-01
2.927000000000000000e+03 4.936045455932617188e+01 1.103753149509429932e-01 4.803974032402038574e-01 1.688136219978332520e+00 6.505600810050964355e-01 -1.533845424652099609e+00
2.928000000000000000e+03 3.981410217285156250e+01 1.241340994834899902e+00 -3.533401191234588623e-01 2.887442111968994141e-01 -1.937877573072910309e-02 2.373070269823074341e-01
2.929000000000000000e+03 4.815330886840820312e+01 1.454465746879577637e+00 4.253808856010437012e-01 1.640133023262023926e+00 6.196541786193847656e-01 -1.291318774223327637e+00
2.930000000000000000e+03 4.862463378906250000e+01 3.183126449584960938e-01 4.204251468181610107e-01 1.476940512657165527e+00 5.692096948623657227e-01 -1.336249470710754395e+00
2.931000000000000000e+03 2.742115020751953125e+01 -1.564631366729736328e+01 -4.613831639289855957e-01 2.262739278376102448e-02 -1.316267251968383789e-01 -5.042994022369384766e-01
2.932000000000000000e+03 2.611257362365722656e+01 -1.563505744934082031e+01 -4.632453322410583496e-01 2.248653024435043335e-02 -1.322276443243026733e-01 -5.109630227088928223e-01
2.933000000000000000e+03 4.908587646484375000e+01 5.411528944969177246e-01 4.777370393276214600e-01 1.725833773612976074e+00 6.610712409019470215e-01 -1.503763198852539062e+00
2.934000000000000000e+03 5.023079681396484375e+01 6.784744262695312500e-01 5.777786374092102051e-01 2.441747426986694336e+00 9.058578014373779297e-01 -1.959900975227355957e+00
2.935000000000000000e+03 7.011552429199218750e+01 -1.755165290832519531e+01 -1.043678894639015198e-01 7.981939792633056641e+00 2.363271713256835938e+00 -1.016599774360656738e+00
2.936000000000000000e+03 3.026965332031250000e+01 1.883558273315429688e+00 -4.098275005817413330e-01 1.171201234683394432e-03 -1.225968822836875916e-01 6.396827101707458496e-01
2.937000000000000000e+03 2.648030853271484375e+01 2.680405139923095703e+00 -3.164245486259460449e-01 -1.885452419519424438e-01 -1.514909416437149048e-01 6.478466391563415527e-01
2.938000000000000000e+03 4.357690048217773438e+01 2.153630256652832031e+00 5.043243616819381714e-02 7.206428050994873047e-01 2.313225716352462769e-01 -2.896276712417602539e-01
2.939000000000000000e+03 4.748873519897460938e+01 1.258643865585327148e+00 3.474386632442474365e-01 1.337872266769409180e+00 5.055932998657226562e-01 -1.075575232505798340e+00
2.940000000000000000e+03 4.725768280029296875e+01 2.075839757919311523e+00 3.760468065738677979e-01 1.500953912734985352e+00 5.631002187728881836e-01 -1.094811677932739258e+00
2.941000000000000000e+03 6.944470977783203125e+01 -3.293031930923461914e+00 1.076200008392333984e+00 7.746384620666503906e+00 2.646775484085083008e+00 6.331722736358642578e-01
2.942000000000000000e+03 7.054163360595703125e+01 -5.085180282592773438e+00 1.066286087036132812e+00 7.466754436492919922e+00 2.559912204742431641e+00 2.500073909759521484e-01
2.943000000000000000e+03 2.608905982971191406e+01 1.440520405769348145e+00 -3.206530511379241943e-01 -1.841333806514739990e-01 -1.514359265565872192e-01 6.036502718925476074e-01
2.944000000000000000e+03 2.469632720947265625e+01 3.668077886104583740e-01 -2.682112455368041992e-01 -2.228688299655914307e-01 -1.473240256309509277e-01 5.195409655570983887e-01
2.945000000000000000e+03 6.817221832275390625e+01 4.435253143310546875e+00 -1.582214385271072388e-01 8.277579307556152344e+00 2.435807466506958008e+00 1.021959781646728516e+00
2.946000000000000000e+03 3.505740356445312500e+01 -1.639285659790039062e+01 -2.554664313793182373e-01 1.854912787675857544e-01 -2.099254727363586426e-02 -2.998580634593963623e-01
2.947000000000000000e+03 6.754580688476562500e+01 1.196605682373046875e+01 -5.100392103195190430e-01 7.862474441528320312e+00 2.205730438232421875e+00 5.122202038764953613e-01
2.948000000000000000e+03 7.026185607910156250e+01 9.096889495849609375e+00 -3.388287425041198730e-01 7.938929557800292969e+00 2.280030250549316406e+00 7.958518862724304199e-01
2.949000000000000000e+03 7.047203826904296875e+01 -9.372056126594543457e-01 6.351287961006164551e-01 7.697611808776855469e+00 2.499822139739990234e+00 8.948636054992675781e-01
2.950000000000000000e+03 7.113629150390625000e+01 -7.296910762786865234e+00 9.590129852294921875e-01 7.345199584960937500e+00 2.491263628005981445e+00 -1.762289255857467651e-01
2.951000000000000000e+03 7.083588409423828125e+01 -8.294768333435058594e+00 9.648218750953674316e-01 7.423959255218505859e+00 2.516634225845336914e+00 -3.641732335090637207e-01
2.952000000000000000e+03 6.819474792480468750e+01 -2.471505928039550781e+01 -4.663785398006439209e-01 7.866611003875732422e+00 2.220069646835327148e+00 -5.559914708137512207e-01
2.953000000000000000e+03 6.952817535400390625e+01 1.444382190704345703e+00 3.089745640754699707e-01 8.006383895874023438e+00 2.494607686996459961e+00 1.081204533576965332e+00
2.954000000000000000e+03 2.317416381835937500e+01 2.153809738159179688e+01 9.269695729017257690e-04 -2.750574350357055664e-01 -8.223913609981536865e-02 1.502505838871002197e-01
2.955000000000000000e+03 2.127882957458496094e+01 2.189257240295410156e+01 -1.930104568600654602e-02 -4.893500506877899170e-01 -1.525953263044357300e-01 1.790341436862945557e-01
2.956000000000000000e+03 6.987763977050781250e+01 -8.038403511047363281e+00 1.176149964332580566e+00 7.597150802612304688e+00 2.631990194320678711e+00 -3.485120236873626709e-01
2.957000000000000000e+03 6.870169067382812500e+01 6.812044620513916016e+00 -3.437323868274688721e-01 8.126609802246093750e+00 2.334863185882568359e+00 8.870264291763305664e-01
2.958000000000000000e+03 6.657640075683593750e+01 1.696569633483886719e+01 -4.426025450229644775e-01 7.496331691741943359e+00 2.116118669509887695e+00 2.279108315706253052e-01
2.959000000000000000e+03 6.914677429199218750e+01 1.590207099914550781e+01 -3.801565468311309814e-01 7.747669696807861328e+00 2.210253953933715820e+00 3.955011069774627686e-01
2.960000000000000000e+03 2.819550514221191406e+01 8.502294540405273438e+00 -2.705969810485839844e-01 2.494581975042819977e-03 -8.043072372674942017e-02 5.870407819747924805e-01
2.961000000000000000e+03 2.724037933349609375e+01 7.576163291931152344e+00 -3.112614750862121582e-01 -1.119700670242309570e-01 -1.269694715738296509e-01 6.422748565673828125e-01
2.962000000000000000e+03 7.057992553710937500e+01 -1.370265960693359375e+01 3.519723415374755859e-01 7.790680408477783203e+00 2.442795753479003906e+00 -1.015449643135070801e+00
2.963000000000000000e+03 7.156639862060546875e+01 -1.504593467712402344e+01 1.596434414386749268e-01 7.661516189575195312e+00 2.346347808837890625e+00 -1.000342488288879395e+00
2.964000000000000000e+03 2.213569259643554688e+01 -2.138672065734863281e+01 -1.097941920161247253e-01 -8.919841796159744263e-02 -5.969778448343276978e-02 -4.130919277667999268e-01
2.965000000000000000e+03 2.477427482604980469e+01 -1.794103622436523438e+01 -3.092532157897949219e-01 2.546027069911360741e-03 -9.201215952634811401e-02 -4.846542477607727051e-01
2.966000000000000000e+03 7.019111633300781250e+01 -2.244560050964355469e+01 -3.475962877273559570e-01 7.955422878265380859e+00 2.282347917556762695e+00 -7.756816744804382324e-01
2.967000000000000000e+03 2.608225059509277344e+01 1.383252048492431641e+01 -2.997634410858154297e-01 -8.484252542257308960e-02 -1.153817921876907349e-01 4.032840430736541748e-01
2.968000000000000000e+03 2.586051177978515625e+01 1.228638553619384766e+01 -3.472541272640228271e-01 -1.369363814592361450e-01 -1.452571451663970947e-01 4.803634285926818848e-01
2.969000000000000000e+03 2.464928054809570312e+01 1.396657371520996094e+01 -3.813586831092834473e-01 -2.602528035640716553e-01 -1.924834400415420532e-01 4.274088740348815918e-01
2.970000000000000000e+03 1.020032691955566406e+01 -2.872705650329589844e+01 1.059686318039894104e-01 -4.553889334201812744e-01 -1.048260927200317383e-01 -3.268081247806549072e-01
2.971000000000000000e+03 1.260085296630859375e+01 -2.734609222412109375e+01 1.062829867005348206e-01 -4.339222908020019531e-01 -9.829179197549819946e-02 -3.413890600204467773e-01
2.972000000000000000e+03 2.958263587951660156e+01 1.018578910827636719e+01 -1.799556463956832886e-01 1.699896454811096191e-01 -2.989797620102763176e-03 4.757229685783386230e-01
2.973000000000000000e+03 6.882737731933593750e+01 -1.801792335510253906e+01 -2.172169983386993408e-01 8.164629936218261719e+00 2.384223699569702148e+00 -9.864834547042846680e-01
2.974000000000000000e+03 7.039992523193359375e+01 -1.630609130859375000e+01 2.147224172949790955e-02 7.919821739196777344e+00 2.382388114929199219e+00 -1.049998998641967773e+00
2.975000000000000000e+03 6.928224945068359375e+01 1.902986335754394531e+01 -2.979076206684112549e-01 7.656291007995605469e+00 2.207515001296997070e+00 2.694556117057800293e-01
2.976000000000000000e+03 1.387529373168945312e+01 -2.611909103393554688e+01 8.279211074113845825e-02 -4.181571602821350098e-01 -1.006095111370086670e-01 -3.542350828647613525e-01
2.977000000000000000e+03 1.272482872009277344e+01 -2.495544242858886719e+01 2.675320394337177277e-02 -4.439288377761840820e-01 -1.251526921987533569e-01 -3.645589649677276611e-01
2.978000000000000000e+03 6.764057159423828125e+01 2.197320175170898438e+01 -2.683433592319488525e-01 7.389495849609375000e+00 2.136345624923706055e+00 1.378578096628189087e-01
2.979000000000000000e+03 7.080745697021484375e+01 2.224126625061035156e+01 -1.839645653963088989e-01 7.739720821380615234e+00 2.266726970672607422e+00 1.883994936943054199e-01
2.980000000000000000e+03 6.896808624267578125e+01 9.290175437927246094e+00 -4.230138361454010010e-01 8.008652687072753906e+00 2.275691747665405273e+00 7.505927681922912598e-01
2.981000000000000000e+03 6.755014801025390625e+01 7.005822658538818359e+00 -4.300218522548675537e-01 8.232530593872070312e+00 2.340752601623535156e+00 8.170876502990722656e-01
2.982000000000000000e+03 1.524723434448242188e+01 2.716157722473144531e+01 2.151800990104675293e-01 -7.230952978134155273e-01 -1.523745507001876831e-01 3.630088567733764648e-01
2.983000000000000000e+03 1.768997383117675781e+01 2.372865295410156250e+01 7.025993615388870239e-02 -7.390930056571960449e-01 -2.006499171257019043e-01 3.037452995777130127e-01
2.984000000000000000e+03 6.397316360473632812e+01 -3.114444351196289062e+01 -4.540404975414276123e-01 7.120032787322998047e+00 1.999797701835632324e+00 -3.007464855909347534e-02
2.985000000000000000e+03 9.191811561584472656e+00 2.377779388427734375e+01 -1.232776045799255371e-01 -5.573970675468444824e-01 -2.042023986577987671e-01 5.375372767448425293e-01
2.986000000000000000e+03 5.948501205444335938e+01 -6.116894245147705078e+00 6.683390140533447266e+00 1.222204589843750000e+01 5.671630859375000000e+00 4.245428144931793213e-01
2.987000000000000000e+03 5.973466491699218750e+01 -4.809583663940429688e+00 4.652939319610595703e+00 1.234735393524169922e+01 5.100088119506835938e+00 1.601430177688598633e+00
2.988000000000000000e+03 5.901422500610351562e+01 -7.953039169311523438e+00 4.915903091430664062e+00 1.366069412231445312e+01 5.572978973388671875e+00 -1.886239767074584961e+00
2.989000000000000000e+03 5.923572540283203125e+01 -6.363273620605468750e+00 7.143575668334960938e+00 1.254649734497070312e+01 5.907021999359130859e+00 3.457661718130111694e-02
2.990000000000000000e+03 5.563446807861328125e+01 -1.026072597503662109e+01 1.973831653594970703e-01 1.018771266937255859e+01 3.115528821945190430e+00 4.095507621765136719e+00
2.991000000000000000e+03 5.993363189697265625e+01 -4.312111377716064453e+00 3.737445831298828125e+00 1.221510696411132812e+01 4.785766124725341797e+00 1.633118629455566406e+00
2.992000000000000000e+03 5.883562469482421875e+01 -3.375911951065063477e+00 1.709646344184875488e+00 1.374388885498046875e+01 4.636060714721679688e+00 1.142797708511352539e+00
2.993000000000000000e+03 5.870787811279296875e+01 -4.085509777069091797e+00 2.915012359619140625e+00 1.430003356933593750e+01 5.164513587951660156e+00 1.600892663002014160e+00
2.994000000000000000e+03 5.647174072265625000e+01 -9.846353530883789062e+00 -1.082892194390296936e-01 1.300235652923583984e+01 3.868220090866088867e+00 3.033371925354003906e+00
2.995000000000000000e+03 5.586923980712890625e+01 -9.578958511352539062e+00 3.238151371479034424e-01 1.176310729980468750e+01 3.626076698303222656e+00 4.312412261962890625e+00
2.996000000000000000e+03 5.479052734375000000e+01 -1.022219181060791016e+01 8.025819063186645508e-01 7.609253406524658203e+00 2.523550748825073242e+00 4.410465717315673828e+00
2.997000000000000000e+03 5.304604339599609375e+01 -2.474888801574707031e+00 1.167940020561218262e+00 3.432975530624389648e+00 1.380274653434753418e+00 -3.246723890304565430e+00
2.998000000000000000e+03 5.792155838012695312e+01 -2.810234308242797852e+00 2.890174090862274170e-01 1.391945838928222656e+01 4.262542724609375000e+00 -3.777031898498535156e-01
2.999000000000000000e+03 5.335159301757812500e+01 -1.999129176139831543e+00 1.064817428588867188e+00 4.378561496734619141e+00 1.633013606071472168e+00 -3.547158479690551758e+00
3.000000000000000000e+03 5.379460906982421875e+01 -2.865662813186645508e+00 1.390423893928527832e+00 4.661909103393554688e+00 1.815699815750122070e+00 -3.994612216949462891e+00
3.001000000000000000e+03 5.281128692626953125e+01 -1.128456497192382812e+01 8.885419964790344238e-01 3.863297224044799805e+00 1.425551772117614746e+00 3.168271541595458984e+00
3.002000000000000000e+03 5.326556396484375000e+01 -1.118516540527343750e+01 8.814621567726135254e-01 4.499255180358886719e+00 1.614215254783630371e+00 3.436760902404785156e+00
3.003000000000000000e+03 5.260965347290039062e+01 -1.495877861976623535e+00 9.224981665611267090e-01 3.465009450912475586e+00 1.316252350807189941e+00 -3.007889270782470703e+00
3.004000000000000000e+03 5.141303634643554688e+01 -5.603560805320739746e-01 7.016835212707519531e-01 2.715674877166748047e+00 1.025207519531250000e+00 -2.367766857147216797e+00
3.005000000000000000e+03 5.200560760498046875e+01 -8.714143037796020508e-01 7.821774482727050781e-01 3.139298915863037109e+00 1.176442861557006836e+00 -2.664833784103393555e+00
3.006000000000000000e+03 5.087877273559570312e+01 3.367241322994232178e-01 6.304273009300231934e-01 2.698683500289916992e+00 9.987332224845886230e-01 -2.183271884918212891e+00
3.007000000000000000e+03 5.609008026123046875e+01 -1.080856895446777344e+01 -2.270038127899169922e-01 1.077094650268554688e+01 3.163182735443115234e+00 3.314814805984497070e+00
3.008000000000000000e+03 2.692406463623046875e+01 1.835355043411254883e+00 -3.410098850727081299e-01 -1.505732685327529907e-01 -1.474749445915222168e-01 6.333040595054626465e-01
3.009000000000000000e+03 3.735290145874023438e+01 2.684721708297729492e+00 -2.611923813819885254e-01 2.869926989078521729e-01 7.740093860775232315e-03 3.645312190055847168e-01
3.010000000000000000e+03 3.718307113647460938e+01 1.714542269706726074e+00 -3.844066858291625977e-01 2.141358703374862671e-01 -5.108124762773513794e-02 4.089427888393402100e-01
3.011000000000000000e+03 3.175013923645019531e+01 1.207586169242858887e+00 -4.672238230705261230e-01 4.274190962314605713e-02 -1.273445785045623779e-01 6.095150113105773926e-01
3.012000000000000000e+03 3.101100730895996094e+01 2.374203681945800781e+00 -3.881754577159881592e-01 3.660717234015464783e-02 -1.054704859852790833e-01 6.323925256729125977e-01
3.013000000000000000e+03 3.234157180786132812e+01 1.409567475318908691e+00 -4.604060649871826172e-01 6.363717466592788696e-02 -1.190306693315505981e-01 6.004166007041931152e-01
3.014000000000000000e+03 2.871264457702636719e+01 6.636274814605712891e+00 -2.748327553272247314e-01 -1.067540887743234634e-02 -8.565244823694229126e-02 6.302840113639831543e-01
3.015000000000000000e+03 5.204602432250976562e+01 -1.269463348388671875e+01 6.323877573013305664e-01 3.601962327957153320e+00 1.270305037498474121e+00 2.710102319717407227e+00
3.016000000000000000e+03 4.159774017333984375e+01 -1.606583786010742188e+01 2.338021434843540192e-02 5.850880742073059082e-01 1.825404912233352661e-01 2.106022834777832031e-01
3.017000000000000000e+03 3.522640609741210938e+01 1.830475330352783203e+00 -4.153354465961456299e-01 1.640750169754028320e-01 -7.537812739610671997e-02 5.104078650474548340e-01
3.018000000000000000e+03 3.284568786621093750e+01 2.321312665939331055e+00 -3.877161443233489990e-01 1.025162860751152039e-01 -8.555995672941207886e-02 5.909888148307800293e-01
3.019000000000000000e+03 4.111697769165039062e+01 -1.539486789703369141e+01 -1.327204555273056030e-01 4.560131430625915527e-01 9.698780626058578491e-02 9.736688435077667236e-02
3.020000000000000000e+03 4.280923843383789062e+01 -1.583245563507080078e+01 8.316423743963241577e-02 7.403908371925354004e-01 2.470665276050567627e-01 3.655135929584503174e-01
3.021000000000000000e+03 3.611043930053710938e+01 2.554715394973754883e+00 -3.127972483634948730e-01 2.321806997060775757e-01 -2.418497018516063690e-02 4.480555057525634766e-01
3.022000000000000000e+03 3.389798736572265625e+01 -1.634289741516113281e+01 -2.939914464950561523e-01 1.454160958528518677e-01 -4.457261040806770325e-02 -3.602234423160552979e-01
3.023000000000000000e+03 3.502956008911132812e+01 -1.770306015014648438e+01 -1.002778336405754089e-01 2.507649958133697510e-01 4.514614492654800415e-02 -2.624400854110717773e-01
3.024000000000000000e+03 3.845531463623046875e+01 2.565487623214721680e+00 -2.319549918174743652e-01 3.372394442558288574e-01 3.158533945679664612e-02 2.952531874179840088e-01
3.025000000000000000e+03 3.139917564392089844e+01 1.751610636711120605e+00 -4.297102987766265869e-01 4.012842848896980286e-02 -1.168745607137680054e-01 6.219685077667236328e-01
3.026000000000000000e+03 4.504402542114257812e+01 3.151237010955810547e+00 2.672346234321594238e-01 1.173287868499755859e+00 4.321567714214324951e-01 -6.450887918472290039e-01
3.027000000000000000e+03 4.146154403686523438e+01 2.371697187423706055e+00 -8.449592441320419312e-02 5.163480639457702637e-01 1.295556426048278809e-01 -1.574446359882131219e-04
3.028000000000000000e+03 3.262542343139648438e+01 -1.713885879516601562e+01 -2.377624660730361938e-01 1.280421167612075806e-01 -3.291610255837440491e-02 -3.886346817016601562e-01
3.029000000000000000e+03 4.152239990234375000e+01 1.624768495559692383e+00 -1.779566109180450439e-01 4.327560961246490479e-01 7.643984258174896240e-02 3.935075923800468445e-02
3.030000000000000000e+03 4.473878479003906250e+01 1.998487591743469238e+00 1.394382715225219727e-01 8.921899795532226562e-01 3.094884753227233887e-01 -4.978328943252563477e-01
3.031000000000000000e+03 5.081433868408203125e+01 1.363415360450744629e+00 5.236619710922241211e-01 3.046457052230834961e+00 1.071035742759704590e+00 -2.149637222290039062e+00
3.032000000000000000e+03 4.798234558105468750e+01 2.195603370666503906e+00 4.345414340496063232e-01 1.778712987899780273e+00 6.639763116836547852e-01 -1.295405387878417969e+00
3.033000000000000000e+03 4.077800750732421875e+01 -1.669159317016601562e+01 4.497488588094711304e-02 5.536842346191406250e-01 1.795977503061294556e-01 1.558855772018432617e-01
3.034000000000000000e+03 5.087902069091796875e+01 -1.496583557128906250e+01 4.307855963706970215e-01 3.339872360229492188e+00 1.131197333335876465e+00 2.179912805557250977e+00
3.035000000000000000e+03 2.730413436889648438e+01 -1.719721221923828125e+01 -3.156959712505340576e-01 3.412415459752082825e-02 -8.447153866291046143e-02 -4.888655245304107666e-01
3.036000000000000000e+03 3.377333450317382812e+01 1.749588251113891602e+00 -4.346522688865661621e-01 1.121392697095870972e-01 -9.675389528274536133e-02 5.661973357200622559e-01
3.037000000000000000e+03 5.018098449707031250e+01 -1.483668327331542969e+01 4.628899693489074707e-01 2.806630373001098633e+00 9.808561205863952637e-01 1.977094173431396484e+00
3.038000000000000000e+03 5.042211151123046875e+01 -1.402127552032470703e+01 5.142277479171752930e-01 2.697061777114868164e+00 9.633868932723999023e-01 2.068715810775756836e+00
3.039000000000000000e+03 4.653120422363281250e+01 1.842872619628906250e+00 2.941849529743194580e-01 1.250612974166870117e+00 4.634394049644470215e-01 -8.761523365974426270e-01
3.040000000000000000e+03 4.983397674560546875e+01 1.214691996574401855e+00 5.355844497680664062e-01 2.378330469131469727e+00 8.741744756698608398e-01 -1.820956230163574219e+00
3.041000000000000000e+03 4.944034576416015625e+01 8.358328938484191895e-01 5.197088718414306641e-01 2.016254186630249023e+00 7.607889175415039062e-01 -1.656114697456359863e+00
3.042000000000000000e+03 3.969029998779296875e+01 -1.683342361450195312e+01 6.934449542313814163e-03 4.735527336597442627e-01 1.441461592912673950e-01 5.775710567831993103e-02
3.043000000000000000e+03 7.083382415771484375e+01 -1.262465286254882812e+01 4.865704178810119629e-01 7.662710189819335938e+00 2.444784164428710938e+00 -9.327466487884521484e-01
3.044000000000000000e+03 6.904364013671875000e+01 -1.392121124267578125e+01 3.505776226520538330e-01 8.083703994750976562e+00 2.530284404754638672e+00 -1.080903530120849609e+00
3.045000000000000000e+03 4.844393539428710938e+01 -1.609663200378417969e+01 4.313237369060516357e-01 2.285436630249023438e+00 8.150281310081481934e-01 1.552177071571350098e+00
3.046000000000000000e+03 4.691826629638671875e+01 -1.545222187042236328e+01 3.483070433139801025e-01 1.500538229942321777e+00 5.546535849571228027e-01 1.122943758964538574e+00
3.047000000000000000e+03 4.773627090454101562e+01 -1.570121097564697266e+01 3.916694819927215576e-01 1.874106764793395996e+00 6.797328591346740723e-01 1.331141591072082520e+00
3.048000000000000000e+03 2.776983833312988281e+01 2.216675996780395508e+00 -3.530336916446685791e-01 -1.153833195567131042e-01 -1.405251026153564453e-01 6.489091515541076660e-01
3.049000000000000000e+03 4.565019226074218750e+01 -1.634674072265625000e+01 3.250735998153686523e-01 1.400049686431884766e+00 5.175369977951049805e-01 9.108672142028808594e-01
3.050000000000000000e+03 2.714173126220703125e+01 3.897699117660522461e+00 -3.199625015258789062e-01 -1.534772664308547974e-01 -1.420319378376007080e-01 6.766179203987121582e-01
3.051000000000000000e+03 6.922969055175781250e+01 -2.194135427474975586e+00 9.635106325149536133e-01 7.859093666076660156e+00 2.646781444549560547e+00 8.353745937347412109e-01
3.052000000000000000e+03 3.912986373901367188e+01 2.231265068054199219e+00 -2.387590706348419189e-01 3.583992421627044678e-01 3.589205443859100342e-02 2.483404427766799927e-01
3.053000000000000000e+03 4.119483566284179688e+01 3.308230400085449219e+00 1.920827478170394897e-02 6.202144622802734375e-01 1.918268203735351562e-01 -3.106592036783695221e-02
3.054000000000000000e+03 6.920532989501953125e+01 -1.106557655334472656e+01 8.707323074340820312e-01 7.906841754913330078e+00 2.633272171020507812e+00 -9.046182036399841309e-01
3.055000000000000000e+03 6.960266876220703125e+01 -9.022568702697753906e+00 1.124783396720886230e+00 7.691754817962646484e+00 2.644961357116699219e+00 -5.548416972160339355e-01
3.056000000000000000e+03 6.936830902099609375e+01 3.677304387092590332e-01 5.002999901771545410e-01 8.001708030700683594e+00 2.550602197647094727e+00 1.058512449264526367e+00
3.057000000000000000e+03 7.182073211669921875e+01 -8.639914512634277344e+00 7.692618966102600098e-01 7.249321937561035156e+00 2.405575275421142578e+00 -3.884223997592926025e-01
3.058000000000000000e+03 7.013625335693359375e+01 -7.052342891693115234e+00 1.156165122985839844e+00 7.527892589569091797e+00 2.605217218399047852e+00 -1.349544376134872437e-01
3.059000000000000000e+03 3.191293907165527344e+01 -1.578829097747802734e+01 -4.004358649253845215e-01 6.973160058259963989e-02 -9.921128302812576294e-02 -4.381779134273529053e-01
3.060000000000000000e+03 3.376332473754882812e+01 -1.743447875976562500e+01 -1.762659996747970581e-01 1.769614368677139282e-01 2.086308377329260111e-04 -3.345316052436828613e-01
3.061000000000000000e+03 6.998378753662109375e+01 -1.228930377960205078e+01 5.815973877906799316e-01 7.807400226593017578e+00 2.516699314117431641e+00 -9.623200893402099609e-01
3.062000000000000000e+03 6.963986206054687500e+01 -4.984792232513427734e+00 1.249299168586730957e+00 7.637001514434814453e+00 2.665890216827392578e+00 2.861273288726806641e-01
3.063000000000000000e+03 2.595852851867675781e+01 1.519166851043701172e+01 -2.614592611789703369e-01 -6.595826894044876099e-02 -9.822525829076766968e-02 3.333241641521453857e-01
3.064000000000000000e+03 3.527752685546875000e+01 2.637949943542480469e+00 -3.241716325283050537e-01 2.046381682157516479e-01 -3.586003556847572327e-02 4.930809438228607178e-01
3.065000000000000000e+03 6.932379150390625000e+01 4.116077899932861328e+00 -7.271432876586914062e-02 8.098454475402832031e+00 2.407721996307373047e+00 1.043016910552978516e+00
3.066000000000000000e+03 2.636936187744140625e+01 1.022165012359619141e+01 -3.336000740528106689e-01 -1.412786692380905151e-01 -1.424636244773864746e-01 5.646998882293701172e-01
3.067000000000000000e+03 6.830960845947265625e+01 -1.624166679382324219e+01 -2.941487357020378113e-02 8.274814605712890625e+00 2.473619937896728516e+00 -1.066151142120361328e+00
3.068000000000000000e+03 7.037403106689453125e+01 -1.923989295959472656e+01 -2.166625559329986572e-01 7.961317539215087891e+00 2.323396444320678711e+00 -9.489780664443969727e-01
3.069000000000000000e+03 7.091278839111328125e+01 -1.816201972961425781e+01 -1.256508678197860718e-01 7.889461040496826172e+00 2.329143047332763672e+00 -9.887171387672424316e-01
3.070000000000000000e+03 6.865110015869140625e+01 -2.125884819030761719e+01 -4.203186631202697754e-01 8.062899589538574219e+00 2.292774438858032227e+00 -7.815765738487243652e-01
3.071000000000000000e+03 2.833891296386718750e+01 5.722781658172607422e+00 -2.866345942020416260e-01 -4.165020585060119629e-02 -9.848544001579284668e-02 6.561959981918334961e-01
3.072000000000000000e+03 2.933798980712890625e+01 8.996130943298339844e+00 -2.332631498575210571e-01 1.034950911998748779e-01 -3.893041983246803284e-02 5.399656891822814941e-01
3.073000000000000000e+03 6.973514556884765625e+01 -2.361230087280273438e+01 -3.973050713539123535e-01 7.916562557220458984e+00 2.255777359008789062e+00 -6.706442236900329590e-01
3.074000000000000000e+03 6.694096374511718750e+01 2.605130195617675781e+01 -1.814080327749252319e-01 7.178817749023437500e+00 2.099222898483276367e+00 4.355793073773384094e-02
3.075000000000000000e+03 6.742658233642578125e+01 1.346140861511230469e+01 -5.038803815841674805e-01 7.784482479095458984e+00 2.184180498123168945e+00 4.347644150257110596e-01
3.076000000000000000e+03 6.776557922363281250e+01 1.062820625305175781e+01 -5.102576613426208496e-01 7.946026802062988281e+00 2.230730772018432617e+00 5.911061763763427734e-01
3.077000000000000000e+03 6.883660888671875000e+01 8.048630714416503906e+00 -3.885368406772613525e-01 8.064012527465820312e+00 2.302642822265625000e+00 8.180965781211853027e-01
3.078000000000000000e+03 2.736574745178222656e+01 5.981794357299804688e+00 -3.049654066562652588e-01 -1.282509714365005493e-01 -1.299649178981781006e-01 6.679258942604064941e-01
3.079000000000000000e+03 2.718864059448242188e+01 1.165557956695556641e+01 -2.924988269805908203e-01 -2.132257074117660522e-02 -9.414642304182052612e-02 4.794958829879760742e-01
3.080000000000000000e+03 2.447975730895996094e+01 1.259912967681884766e+01 -4.100415706634521484e-01 -3.085632622241973877e-01 -2.155814617872238159e-01 4.957194924354553223e-01
3.081000000000000000e+03 2.620759201049804688e+01 1.634147071838378906e+01 -2.017945945262908936e-01 -9.810422547161579132e-03 -6.348150223493576050e-02 2.690841853618621826e-01
3.082000000000000000e+03 3.232863235473632812e+01 -1.824542045593261719e+01 -1.262827068567276001e-01 1.517017334699630737e-01 7.625707890838384628e-03 -3.720050454139709473e-01
3.083000000000000000e+03 3.028141021728515625e+01 -1.737327194213867188e+01 -2.599421143531799316e-01 7.343103736639022827e-02 -5.595332756638526917e-02 -4.441144466400146484e-01
3.084000000000000000e+03 2.974089050292968750e+01 -1.842719268798828125e+01 -1.770262420177459717e-01 8.796437084674835205e-02 -2.671856246888637543e-02 -4.395101666450500488e-01
3.085000000000000000e+03 1.363402557373046875e+01 -2.905774497985839844e+01 1.658022403717041016e-01 -4.135289788246154785e-01 -7.431802153587341309e-02 -3.198776841163635254e-01
3.086000000000000000e+03 2.666225242614746094e+01 -1.643741226196289062e+01 -3.938766419887542725e-01 2.823540382087230682e-02 -1.096923723816871643e-01 -5.045306086540222168e-01
3.087000000000000000e+03 6.795964050292968750e+01 1.641291809082031250e+01 -4.085859656333923340e-01 7.643095493316650391e+00 2.170352935791015625e+00 3.204160332679748535e-01
3.088000000000000000e+03 6.807387542724609375e+01 -7.619895935058593750e+00 1.581397056579589844e+00 7.944533824920654297e+00 2.857779264450073242e+00 -3.154355883598327637e-01
3.089000000000000000e+03 2.566718292236328125e+01 1.836277198791503906e+01 -1.355045437812805176e-01 -2.653870172798633575e-02 -4.861297458410263062e-02 1.881107687950134277e-01
3.090000000000000000e+03 6.868627929687500000e+01 2.090985107421875000e+01 -2.785875201225280762e-01 7.538994789123535156e+00 2.178122282028198242e+00 1.938967257738113403e-01
3.091000000000000000e+03 6.753804016113281250e+01 1.497645854949951172e+01 -4.719618558883666992e-01 7.698277473449707031e+00 2.167894601821899414e+00 3.637166321277618408e-01
3.092000000000000000e+03 6.848549652099609375e+01 5.600991725921630859e+00 -2.660389542579650879e-01 8.206075668334960938e+00 2.382010936737060547e+00 9.591138958930969238e-01
3.093000000000000000e+03 6.852378845214843750e+01 -9.329598397016525269e-03 5.945694446563720703e-01 8.138798713684082031e+00 2.620010614395141602e+00 1.068713545799255371e+00
3.094000000000000000e+03 2.402985191345214844e+01 2.350943756103515625e+01 1.167398840188980103e-01 -1.316386759281158447e-01 -4.469636362046003342e-03 1.018904969096183777e-01
3.095000000000000000e+03 6.848888397216796875e+01 1.755278229713439941e+00 2.517195045948028564e-01 8.225540161132812500e+00 2.543178081512451172e+00 1.106851339340209961e+00
3.096000000000000000e+03 2.260324287414550781e+01 2.508842849731445312e+01 1.974100768566131592e-01 -2.690464258193969727e-01 -2.149090543389320374e-02 1.142278611660003662e-01
3.097000000000000000e+03 1.688044357299804688e+01 2.749645042419433594e+01 2.724149525165557861e-01 -6.202716827392578125e-01 -1.043570265173912048e-01 2.819967269897460938e-01
3.098000000000000000e+03 6.527110290527343750e+01 -2.474967002868652344e+01 -6.195275783538818359e-01 7.818982124328613281e+00 2.159836292266845703e+00 -3.220231831073760986e-01
3.099000000000000000e+03 2.335042762756347656e+01 -1.718560981750488281e+01 -3.804912269115447998e-01 -1.851783879101276398e-02 -1.197027266025543213e-01 -4.887946844100952148e-01
3.100000000000000000e+03 5.971356582641601562e+01 -7.479184150695800781e+00 5.419238567352294922e+00 1.213881874084472656e+01 5.267416954040527344e+00 -1.284063339233398438e+00
3.101000000000000000e+03 5.975530242919921875e+01 -6.352444171905517578e+00 6.320124626159667969e+00 1.183695507049560547e+01 5.447124004364013672e+00 5.207385495305061340e-02
3.102000000000000000e+03 5.959703826904296875e+01 -8.668054580688476562e+00 3.428613424301147461e+00 1.275415706634521484e+01 4.854831218719482422e+00 -1.709203243255615234e+00
3.103000000000000000e+03 5.816493225097656250e+01 -9.292370796203613281e+00 1.227552175521850586e+00 1.470930194854736328e+01 4.781055927276611328e+00 -4.906198978424072266e-01
3.104000000000000000e+03 5.768269348144531250e+01 -1.023365020751953125e+01 1.233466155827045441e-02 1.357560539245605469e+01 4.076382160186767578e+00 8.664345145225524902e-01
3.105000000000000000e+03 5.945465850830078125e+01 -6.566818714141845703e+00 6.717675209045410156e+00 1.225865936279296875e+01 5.692900180816650391e+00 -2.755112051963806152e-01
3.106000000000000000e+03 5.497608947753906250e+01 -2.583493232727050781e+00 7.356536388397216797e-01 8.180564880371093750e+00 2.674865484237670898e+00 -4.448269844055175781e+00
3.107000000000000000e+03 5.704203414916992188e+01 -2.320596694946289062e+00 -3.113966882228851318e-01 1.281421184539794922e+01 3.750844478607177734e+00 -2.045464038848876953e+00
3.108000000000000000e+03 5.710338211059570312e+01 -1.042441654205322266e+01 -2.901266813278198242e-01 1.291837787628173828e+01 3.788475275039672852e+00 1.920256137847900391e+00
3.109000000000000000e+03 5.674813079833984375e+01 -1.013094520568847656e+01 -2.188883423805236816e-01 1.300711727142333984e+01 3.836468696594238281e+00 2.528294324874877930e+00
3.110000000000000000e+03 5.317232894897460938e+01 -1.257936596870422363e+00 7.993738055229187012e-01 4.521526336669921875e+00 1.596269965171813965e+00 -3.344113349914550781e+00
3.111000000000000000e+03 5.947609710693359375e+01 -4.176457881927490234e+00 3.428566694259643555e+00 1.292622375488281250e+01 4.906437397003173828e+00 1.683662056922912598e+00
3.112000000000000000e+03 5.372987365722656250e+01 -1.158735275268554688e+01 6.387395858764648438e-01 5.503888130187988281e+00 1.842788338661193848e+00 3.564081430435180664e+00
3.113000000000000000e+03 5.442280578613281250e+01 -2.553397417068481445e+00 1.019942283630371094e+00 6.463294029235839844e+00 2.244971036911010742e+00 -4.323817729949951172e+00
3.114000000000000000e+03 5.447063827514648438e+01 -2.854266643524169922e+00 1.193587779998779297e+00 6.493158817291259766e+00 2.306024074554443359e+00 -4.483236312866210938e+00
3.115000000000000000e+03 5.609210205078125000e+01 -2.325675010681152344e+00 -1.200175955891609192e-01 1.118136405944824219e+01 3.318403959274291992e+00 -3.426565408706665039e+00
3.116000000000000000e+03 5.291463470458984375e+01 -1.181394863128662109e+01 7.357596755027770996e-01 4.340410709381103516e+00 1.522851109504699707e+00 3.186940670013427734e+00
3.117000000000000000e+03 5.414012527465820312e+01 -1.090331649780273438e+01 7.703784704208374023e-01 6.110105514526367188e+00 2.064145088195800781e+00 3.937269210815429688e+00
3.118000000000000000e+03 5.418308258056640625e+01 -2.546451330184936523e+00 1.112116932868957520e+00 5.835355281829833984e+00 2.084241628646850586e+00 -4.142085075378417969e+00
3.119000000000000000e+03 5.238881683349609375e+01 -8.279467821121215820e-01 7.818428874015808105e-01 3.665354728698730469e+00 1.334159255027770996e+00 -2.911160707473754883e+00
3.120000000000000000e+03 5.222707748413085938e+01 -1.269910812377929688e+00 8.682863116264343262e-01 3.189647436141967773e+00 1.217380046844482422e+00 -2.803306102752685547e+00
3.121000000000000000e+03 5.300427627563476562e+01 -1.602876782417297363e+00 9.376181960105895996e-01 3.959338665008544922e+00 1.469087123870849609e+00 -3.256169795989990234e+00
3.122000000000000000e+03 5.155867385864257812e+01 2.036921232938766479e-01 6.373800039291381836e-01 3.247779846191406250e+00 1.165547966957092285e+00 -2.482386350631713867e+00
3.123000000000000000e+03 5.185428237915039062e+01 -3.331716358661651611e-01 6.980106830596923828e-01 3.280921459197998047e+00 1.193679690361022949e+00 -2.607397794723510742e+00
3.124000000000000000e+03 5.071714019775390625e+01 8.011100888252258301e-01 5.771186351776123047e-01 2.777229070663452148e+00 1.006304383277893066e+00 -2.123245954513549805e+00
3.125000000000000000e+03 2.985579872131347656e+01 5.793628215789794922e+00 -2.623675465583801270e-01 4.660248011350631714e-02 -6.472951918840408325e-02 6.243649721145629883e-01
3.126000000000000000e+03 3.717300796508789062e+01 3.419648408889770508e+00 -1.963755041360855103e-01 3.297837376594543457e-01 4.002247005701065063e-02 3.529922366142272949e-01
3.127000000000000000e+03 5.257574462890625000e+01 -1.248920154571533203e+01 6.192349195480346680e-01 4.185809135437011719e+00 1.441513180732727051e+00 2.960050106048583984e+00
3.128000000000000000e+03 5.236620330810546875e+01 -1.147505474090576172e+01 8.536116480827331543e-01 3.338310956954956055e+00 1.257576823234558105e+00 2.886586904525756836e+00
3.129000000000000000e+03 5.105361938476562500e+01 -1.422321701049804688e+01 4.716638028621673584e-01 3.246365308761596680e+00 1.115408778190612793e+00 2.260106325149536133e+00
3.130000000000000000e+03 5.189202499389648438e+01 -1.376907253265380859e+01 4.687220454216003418e-01 3.812818765640258789e+00 1.284462213516235352e+00 2.562488555908203125e+00
3.131000000000000000e+03 4.427785491943359375e+01 2.700015783309936523e+00 1.816217154264450073e-01 9.461953043937683105e-01 3.383451104164123535e-01 -4.692941904067993164e-01
3.132000000000000000e+03 4.545816421508789062e+01 2.366605281829833984e+00 2.429125458002090454e-01 1.090181946754455566e+00 3.999283611774444580e-01 -6.720997095108032227e-01
3.133000000000000000e+03 3.444353866577148438e+01 2.622578620910644531e+00 -3.446608483791351318e-01 1.673975586891174316e-01 -5.317898094654083252e-02 5.309174060821533203e-01
3.134000000000000000e+03 4.152414321899414062e+01 -1.773041343688964844e+01 1.964201480150222778e-01 7.484375834465026855e-01 2.834573090076446533e-01 2.967173755168914795e-01
3.135000000000000000e+03 4.438567733764648438e+01 -1.614492416381835938e+01 2.105639129877090454e-01 9.600448608398437500e-01 3.511826395988464355e-01 6.263635158538818359e-01
3.136000000000000000e+03 3.680513763427734375e+01 2.255419731140136719e+00 -3.229834735393524170e-01 2.342558652162551880e-01 -2.661828137934207916e-02 4.163081347942352295e-01
3.137000000000000000e+03 4.012100982666015625e+01 4.468668460845947266e+00 4.998809844255447388e-02 6.390311121940612793e-01 2.067057639360427856e-01 3.065842390060424805e-02
3.138000000000000000e+03 3.626282501220703125e+01 3.454136133193969727e+00 -2.182621657848358154e-01 2.988986372947692871e-01 2.419093810021877289e-02 4.098842740058898926e-01
3.139000000000000000e+03 4.299713134765625000e+01 3.453592777252197266e+00 1.521287858486175537e-01 8.720413446426391602e-01 3.072510361671447754e-01 -2.981870174407958984e-01
3.140000000000000000e+03 4.236921691894531250e+01 2.546976327896118164e+00 9.505609050393104553e-03 6.486982703208923340e-01 1.974611580371856689e-01 -1.382440477609634399e-01
3.141000000000000000e+03 4.883112716674804688e+01 1.559480547904968262e+00 4.792609214782714844e-01 1.980457186698913574e+00 7.379154562950134277e-01 -1.508850932121276855e+00
3.142000000000000000e+03 4.623433303833007812e+01 2.710830688476562500e+00 3.232039511203765869e-01 1.379583954811096191e+00 5.108363628387451172e-01 -8.720467090606689453e-01
3.143000000000000000e+03 4.217322540283203125e+01 3.407227277755737305e+00 9.358611702919006348e-02 7.486848831176757812e-01 2.526813149452209473e-01 -1.736468374729156494e-01
3.144000000000000000e+03 2.812866020202636719e+01 4.863066673278808594e+00 -3.117836415767669678e-01 -7.630933076143264771e-02 -1.164278909564018250e-01 6.726815700531005859e-01
3.145000000000000000e+03 4.003055572509765625e+01 2.186813354492187500e+00 -1.979528516530990601e-01 3.810330629348754883e-01 5.492406338453292847e-02 1.657616049051284790e-01
3.146000000000000000e+03 4.868508148193359375e+01 2.214182615280151367e+00 4.565680921077728271e-01 2.129046678543090820e+00 7.756844162940979004e-01 -1.493820667266845703e+00
3.147000000000000000e+03 4.975188064575195312e+01 2.040327072143554688e+00 4.996114075183868408e-01 2.600198268890380859e+00 9.299429059028625488e-01 -1.815173983573913574e+00
3.148000000000000000e+03 5.080380630493164062e+01 -1.572808647155761719e+01 3.599245548248291016e-01 3.456886053085327148e+00 1.145043134689331055e+00 2.097292184829711914e+00
3.149000000000000000e+03 4.811114883422851562e+01 -1.690598106384277344e+01 4.213532507419586182e-01 2.349697113037109375e+00 8.313151001930236816e-01 1.498689651489257812e+00
3.150000000000000000e+03 5.023725891113281250e+01 1.686581015586853027e+00 5.148133039474487305e-01 2.783980131149291992e+00 9.896380305290222168e-01 -1.963740944862365723e+00
3.151000000000000000e+03 4.941399765014648438e+01 1.698179006576538086e+00 4.997504055500030518e-01 2.307415246963500977e+00 8.421496748924255371e-01 -1.697473645210266113e+00
3.152000000000000000e+03 3.530071258544921875e+01 3.502441406250000000e+00 -2.468720227479934692e-01 2.473714202642440796e-01 1.498205238021910191e-04 4.675467312335968018e-01
3.153000000000000000e+03 3.259877395629882812e+01 3.102067470550537109e+00 -3.354562520980834961e-01 1.163779944181442261e-01 -6.572347879409790039e-02 5.895411968231201172e-01
3.154000000000000000e+03 2.918806838989257812e+01 1.199943447113037109e+01 -1.897401064634323120e-01 1.832910627126693726e-01 -1.934710540808737278e-03 4.036364555358886719e-01
3.155000000000000000e+03 2.821135711669921875e+01 3.327466249465942383e+00 -3.387284874916076660e-01 -9.102734178304672241e-02 -1.289267539978027344e-01 6.672303080558776855e-01
3.156000000000000000e+03 6.814802551269531250e+01 -2.625702619552612305e+00 1.229792594909667969e+00 8.085720062255859375e+00 2.794653654098510742e+00 8.444602489471435547e-01
3.157000000000000000e+03 6.840807342529296875e+01 -3.767103195190429688e+00 1.362970590591430664e+00 7.940116882324218750e+00 2.790926218032836914e+00 5.978314280509948730e-01
3.158000000000000000e+03 2.392696380615234375e+01 -1.573398017883300781e+01 -4.672765731811523438e-01 1.176891732029616833e-03 -1.398299038410186768e-01 -5.055016875267028809e-01
3.159000000000000000e+03 4.935588836669921875e+01 -1.715839004516601562e+01 3.950023949146270752e-01 2.862385511398315430e+00 9.772164225578308105e-01 1.716199994087219238e+00
3.160000000000000000e+03 6.887747955322265625e+01 -4.629399299621582031e+00 1.376595497131347656e+00 7.812949657440185547e+00 2.756863594055175781e+00 4.105627536773681641e-01
3.161000000000000000e+03 6.830757141113281250e+01 -1.873976707458496094e+01 -2.984627187252044678e-01 8.219069480895996094e+00 2.376181840896606445e+00 -9.391719102859497070e-01
3.162000000000000000e+03 6.936932373046875000e+01 -1.002919769287109375e+01 1.021650671958923340e+00 7.793637752532958984e+00 2.644586563110351562e+00 -7.318140864372253418e-01
3.163000000000000000e+03 7.051432800292968750e+01 -9.251209259033203125e+00 9.415037035942077637e-01 7.526696205139160156e+00 2.540459871292114258e+00 -5.498949289321899414e-01
3.164000000000000000e+03 6.740077209472656250e+01 5.860527515411376953e+00 -3.591595590114593506e-01 8.318662643432617188e+00 2.387850999832153320e+00 8.888728022575378418e-01
3.165000000000000000e+03 6.969169616699218750e+01 -1.331833457946777344e+01 4.310158491134643555e-01 7.926925182342529297e+00 2.507382392883300781e+00 -1.037321329116821289e+00
3.166000000000000000e+03 6.929872131347656250e+01 -1.498201084136962891e+01 1.915906965732574463e-01 8.073407173156738281e+00 2.479499340057373047e+00 -1.088619828224182129e+00
3.167000000000000000e+03 3.789999389648437500e+01 3.168509960174560547e+00 -1.956619918346405029e-01 3.403859436511993408e-01 4.341718181967735291e-02 3.115371167659759521e-01
3.168000000000000000e+03 6.810720062255859375e+01 -1.194495296478271484e+01 7.839733958244323730e-01 8.212267875671386719e+00 2.698872327804565430e+00 -1.055687546730041504e+00
3.169000000000000000e+03 6.656260681152343750e+01 7.042617797851562500e+00 -4.906409680843353271e-01 8.299117088317871094e+00 2.342542648315429688e+00 7.483849525451660156e-01
3.170000000000000000e+03 6.839408874511718750e+01 -1.725901985168457031e+01 -1.555210947990417480e-01 8.242914199829101562e+00 2.426217794418334961e+00 -1.017310261726379395e+00
3.171000000000000000e+03 6.746257019042968750e+01 -1.750070571899414062e+01 -2.333935499191284180e-01 8.372504234313964844e+00 2.441733360290527344e+00 -9.810635447502136230e-01
3.172000000000000000e+03 3.069263648986816406e+01 -1.885660552978515625e+01 -1.153497770428657532e-01 1.204034984111785889e-01 1.516115502454340458e-03 -4.064166843891143799e-01
3.173000000000000000e+03 4.543888854980468750e+01 4.227467536926269531e+00 3.474170863628387451e-01 1.494269490242004395e+00 5.525059700012207031e-01 -8.071939349174499512e-01
3.174000000000000000e+03 3.210292053222656250e+01 2.084162473678588867e+00 -4.081766009330749512e-01 7.212579995393753052e-02 -1.008152365684509277e-01 6.089877486228942871e-01
3.175000000000000000e+03 3.362713623046875000e+01 2.510286331176757812e+00 -3.675385415554046631e-01 1.332355588674545288e-01 -7.029089331626892090e-02 5.638076066970825195e-01
3.176000000000000000e+03 2.391876792907714844e+01 -2.168488883972167969e+01 -5.200214684009552002e-02 -2.095488831400871277e-02 -2.188711054623126984e-02 -4.209016859531402588e-01
3.177000000000000000e+03 2.644662475585937500e+01 -1.821036720275878906e+01 -2.523313760757446289e-01 3.564793989062309265e-02 -6.500503420829772949e-02 -4.770943522453308105e-01
3.178000000000000000e+03 3.909263992309570312e+01 3.132785320281982422e+00 -1.153890043497085571e-01 4.357760250568389893e-01 9.611610323190689087e-02 2.026207447052001953e-01
3.179000000000000000e+03 3.012094688415527344e+01 3.731283187866210938e+00 -3.255439996719360352e-01 1.648591645061969757e-02 -9.271742403507232666e-02 6.446887254714965820e-01
3.180000000000000000e+03 6.821186065673828125e+01 -1.515796756744384766e+01 1.344915628433227539e-01 8.303863525390625000e+00 2.531506538391113281e+00 -1.108078122138977051e+00
3.181000000000000000e+03 2.692890167236328125e+01 1.756337356567382812e+01 -1.165212839841842651e-01 9.096816182136535645e-02 -7.665937300771474838e-03 1.962499320507049561e-01
3.182000000000000000e+03 6.971356964111328125e+01 -4.876890778541564941e-01 6.251919865608215332e-01 7.863781452178955078e+00 2.546691894531250000e+00 9.661459922790527344e-01
3.183000000000000000e+03 4.338379287719726562e+01 -1.734239006042480469e+01 2.720954418182373047e-01 1.065510392189025879e+00 4.012817442417144775e-01 5.534063577651977539e-01
3.184000000000000000e+03 6.939305877685546875e+01 -5.861912250518798828e+00 1.302039742469787598e+00 7.662046432495117188e+00 2.689225912094116211e+00 1.182596087455749512e-01
3.185000000000000000e+03 3.976373672485351562e+01 -1.569849777221679688e+01 -1.613175421953201294e-01 3.538801670074462891e-01 5.776878073811531067e-02 -3.713554935529828072e-03
3.186000000000000000e+03 4.232710266113281250e+01 -1.676942253112792969e+01 1.542248725891113281e-01 7.622998356819152832e-01 2.749574184417724609e-01 3.472039103507995605e-01
3.187000000000000000e+03 3.858819580078125000e+01 -1.647841072082519531e+01 -1.029674708843231201e-01 3.614644706249237061e-01 7.754909992218017578e-02 -6.669290363788604736e-02
3.188000000000000000e+03 6.841883850097656250e+01 -5.558076381683349609e+00 1.541984438896179199e+00 7.865881443023681641e+00 2.822359800338745117e+00 2.208895534276962280e-01
3.189000000000000000e+03 6.666262054443359375e+01 1.024357032775878906e+01 -5.761965513229370117e-01 8.011783599853515625e+00 2.230675935745239258e+00 5.370395183563232422e-01
3.190000000000000000e+03 2.700002670288085938e+01 1.554091548919677734e+01 -1.962775290012359619e-01 6.199272722005844116e-02 -4.028543829917907715e-02 2.920186221599578857e-01
3.191000000000000000e+03 2.878480911254882812e+01 -1.819261932373046875e+01 -2.189044505357742310e-01 5.815531313419342041e-02 -4.822473973035812378e-02 -4.584926366806030273e-01
3.192000000000000000e+03 6.767010498046875000e+01 9.487309455871582031e+00 -5.070518255233764648e-01 8.055412292480468750e+00 2.264508008956909180e+00 6.631027460098266602e-01
3.193000000000000000e+03 6.751150512695312500e+01 8.274797439575195312e+00 -4.868854284286499023e-01 8.136285781860351562e+00 2.294820070266723633e+00 7.250979542732238770e-01
3.194000000000000000e+03 6.805332946777343750e+01 -1.407340526580810547e+01 3.333986699581146240e-01 8.305665016174316406e+00 2.591718912124633789e+00 -1.123743057250976562e+00
3.195000000000000000e+03 6.888142395019531250e+01 -1.065378665924072266e+00 7.703492045402526855e-01 7.995631217956542969e+00 2.629794120788574219e+00 9.722862839698791504e-01
3.196000000000000000e+03 6.746604919433593750e+01 2.136005640029907227e+00 1.552963256835937500e-01 8.444741249084472656e+00 2.580011367797851562e+00 1.107830405235290527e+00
3.197000000000000000e+03 2.864666366577148438e+01 7.540736198425292969e+00 -2.652551829814910889e-01 7.046781480312347412e-03 -7.746251672506332397e-02 6.033769845962524414e-01
3.198000000000000000e+03 2.967385292053222656e+01 7.835353374481201172e+00 -2.370439916849136353e-01 9.223096817731857300e-02 -4.344390705227851868e-02 5.740449428558349609e-01
3.199000000000000000e+03 3.296005630493164062e+01 6.303332328796386719e+00 -1.603958755731582642e-01 2.580055296421051025e-01 2.928289584815502167e-02 5.000545978546142578e-01
3.200000000000000000e+03 2.791959762573242188e+01 6.942985534667968750e+00 -2.971894145011901855e-01 -5.858163163065910339e-02 -1.067313179373741150e-01 6.410762071609497070e-01
3.201000000000000000e+03 6.342091369628906250e+01 -2.789330863952636719e+01 -5.965614914894104004e-01 7.316702365875244141e+00 2.016042232513427734e+00 -1.762549765408039093e-02
3.202000000000000000e+03 6.903076934814453125e+01 -2.262070846557617188e+01 -4.180134534835815430e-01 7.978583812713623047e+00 2.268171072006225586e+00 -7.147369384765625000e-01
3.203000000000000000e+03 6.783872985839843750e+01 -2.346167564392089844e+01 -5.025401711463928223e-01 7.963726520538330078e+00 2.238355875015258789e+00 -6.039171218872070312e-01
3.204000000000000000e+03 6.451841735839843750e+01 1.585920333862304688e+01 -5.356143116950988770e-01 7.362698078155517578e+00 2.048125267028808594e+00 1.204400956630706787e-01
3.205000000000000000e+03 6.715764617919921875e+01 2.786109542846679688e+01 -1.439386308193206787e-01 7.177427291870117188e+00 2.110046625137329102e+00 1.210095360875129700e-02
3.206000000000000000e+03 2.081247901916503906e+01 2.849726676940917969e+01 3.215508162975311279e-01 -3.189529180526733398e-01 7.793683325871825218e-04 1.414193958044052124e-01
3.207000000000000000e+03 1.910226249694824219e+01 2.592241668701171875e+01 2.277037799358367920e-01 -5.344876050949096680e-01 -9.203515201807022095e-02 2.165564298629760742e-01
3.208000000000000000e+03 1.863246536254882812e+01 2.814890289306640625e+01 3.027832508087158203e-01 -5.097940564155578613e-01 -6.210323795676231384e-02 2.187189757823944092e-01
3.209000000000000000e+03 2.494172286987304688e+01 2.083012771606445312e+01 -7.188286166638135910e-03 -4.563578963279724121e-02 -1.584722287952899933e-02 1.299161761999130249e-01
3.210000000000000000e+03 2.753452110290527344e+01 1.427147388458251953e+01 -2.153842002153396606e-01 8.508273959159851074e-02 -3.909043595194816589e-02 3.472813069820404053e-01
3.211000000000000000e+03 5.977086257934570312e+01 -5.815492630004882812e+00 6.077427864074707031e+00 1.191385650634765625e+01 5.397385120391845703e+00 7.608298063278198242e-01
3.212000000000000000e+03 5.865856933593750000e+01 -3.723093986511230469e+00 2.163865327835083008e+00 1.424639034271240234e+01 4.923076629638671875e+00 1.276590824127197266e+00
3.213000000000000000e+03 5.824861907958984375e+01 -2.917594909667968750e+00 6.365644335746765137e-01 1.383755588531494141e+01 4.342236042022705078e+00 1.871738284826278687e-01
3.214000000000000000e+03 5.795317077636718750e+01 -2.391240119934082031e+00 4.906867071986198425e-02 1.335123538970947266e+01 4.020091056823730469e+00 -5.621125698089599609e-01
3.215000000000000000e+03 5.963592147827148438e+01 -6.792008399963378906e+00 6.330151081085205078e+00 1.204491519927978516e+01 5.512519836425781250e+00 -5.472423434257507324e-01
3.216000000000000000e+03 5.989690017700195312e+01 -5.156007289886474609e+00 5.150905609130859375e+00 1.196075534820556641e+01 5.133498668670654297e+00 1.341363906860351562e+00
3.217000000000000000e+03 5.906529998779296875e+01 -3.970031738281250000e+00 2.940860033035278320e+00 1.349809074401855469e+01 4.931684970855712891e+00 1.628705739974975586e+00
3.218000000000000000e+03 6.529471588134765625e+01 -8.737156867980957031e+00 2.119247674942016602e+00 8.737764358520507812e+00 3.257103681564331055e+00 -7.846798896789550781e-01
3.219000000000000000e+03 5.842045211791992188e+01 -9.569242477416992188e+00 1.137060999870300293e+00 1.411733245849609375e+01 4.576317787170410156e+00 -6.194484233856201172e-01
3.220000000000000000e+03 5.545161437988281250e+01 -1.772581219673156738e+00 5.414370447397232056e-02 9.180949211120605469e+00 2.770528078079223633e+00 -3.750512599945068359e+00
3.221000000000000000e+03 5.508964538574218750e+01 -2.768540620803833008e+00 7.732427120208740234e-01 8.623861312866210938e+00 2.819131374359130859e+00 -4.573910713195800781e+00
3.222000000000000000e+03 5.663240814208984375e+01 -2.108852863311767578e+00 -3.483619391918182373e-01 1.195170593261718750e+01 3.481003284454345703e+00 -2.642984867095947266e+00
3.223000000000000000e+03 5.573524093627929688e+01 -1.094295310974121094e+01 -1.090278103947639465e-01 9.913381576538085938e+00 2.941306114196777344e+00 3.564583063125610352e+00
3.224000000000000000e+03 6.718447875976562500e+01 -3.011890172958374023e+00 1.426011323928833008e+00 8.266545295715332031e+00 2.907767057418823242e+00 8.412072062492370605e-01
3.225000000000000000e+03 5.464430618286132812e+01 -1.064101886749267578e+01 6.725471615791320801e-01 7.266426563262939453e+00 2.381692171096801758e+00 4.157826423645019531e+00
3.226000000000000000e+03 5.366719818115234375e+01 -1.119575691223144531e+01 8.145714402198791504e-01 5.183718204498291016e+00 1.799486875534057617e+00 3.665470123291015625e+00
3.227000000000000000e+03 5.399752807617187500e+01 -1.132491302490234375e+01 6.420911550521850586e-01 5.930647850036621094e+00 1.971821784973144531e+00 3.732004880905151367e+00
3.228000000000000000e+03 5.408901977539062500e+01 -1.624025464057922363e+00 6.901445984840393066e-01 6.124629974365234375e+00 2.044432401657104492e+00 -3.798782587051391602e+00
3.229000000000000000e+03 5.584737777709960938e+01 -1.767518401145935059e+00 -1.585652530193328857e-01 1.007053089141845703e+01 2.973589658737182617e+00 -3.409326553344726562e+00
3.230000000000000000e+03 5.851361465454101562e+01 -3.175795078277587891e+00 1.162807345390319824e+00 1.383238792419433594e+01 4.498558521270751953e+00 6.814843416213989258e-01
3.231000000000000000e+03 5.333569335937500000e+01 -1.169080638885498047e+01 6.987969875335693359e-01 4.871989250183105469e+00 1.671235918998718262e+00 3.371014118194580078e+00
3.232000000000000000e+03 5.304894638061523438e+01 -5.994972586631774902e-01 6.373292803764343262e-01 4.564551830291748047e+00 1.560564398765563965e+00 -3.133841514587402344e+00
3.233000000000000000e+03 5.279504394531250000e+01 -1.006235003471374512e+00 7.747392654418945312e-01 4.083608627319335938e+00 1.457504272460937500e+00 -3.091059446334838867e+00
3.234000000000000000e+03 5.233932113647460938e+01 -2.470130771398544312e-01 6.636070609092712402e-01 3.854787588119506836e+00 1.355518341064453125e+00 -2.835428237915039062e+00
3.235000000000000000e+03 5.116364669799804688e+01 6.092893481254577637e-01 5.841999650001525879e-01 3.109553337097167969e+00 1.108125925064086914e+00 -2.297137737274169922e+00
3.236000000000000000e+03 5.227925109863281250e+01 -1.326155662536621094e+01 4.991378188133239746e-01 4.040128707885742188e+00 1.361779928207397461e+00 2.732013225555419922e+00
3.237000000000000000e+03 3.522596740722656250e+01 5.383608818054199219e+00 -1.187586560845375061e-01 3.584348559379577637e-01 7.190285623073577881e-02 4.025658667087554932e-01
3.238000000000000000e+03 3.632015228271484375e+01 4.431341648101806641e+00 -1.311465650796890259e-01 3.644331991672515869e-01 6.998599320650100708e-02 3.684630990028381348e-01
3.239000000000000000e+03 4.953999328613281250e+01 -1.600302124023437500e+01 4.371038973331451416e-01 2.718657255172729492e+00 9.467283487319946289e-01 1.804593443870544434e+00
3.240000000000000000e+03 5.016887664794921875e+01 -1.566733264923095703e+01 4.219905436038970947e-01 2.961624383926391602e+00 1.015084505081176758e+00 1.944200396537780762e+00
3.241000000000000000e+03 3.436244583129882812e+01 3.462049722671508789e+00 -2.764547765254974365e-01 2.027648389339447021e-01 -2.210698090493679047e-02 5.151265263557434082e-01
3.242000000000000000e+03 4.308032226562500000e+01 4.216221332550048828e+00 2.058476507663726807e-01 9.898217320442199707e-01 3.587008118629455566e-01 -3.559286296367645264e-01
3.243000000000000000e+03 4.927996063232421875e+01 2.200906276702880859e+00 4.835734665393829346e-01 2.383691072463989258e+00 8.601793646812438965e-01 -1.663251161575317383e+00
3.244000000000000000e+03 2.981107139587402344e+01 2.513481855392456055e+00 -3.753176927566528320e-01 -1.384663116186857224e-02 -1.167492941021919250e-01 6.495724916458129883e-01
3.245000000000000000e+03 4.217291259765625000e+01 4.311375141143798828e+00 1.571991443634033203e-01 8.777961730957031250e-01 3.104985952377319336e-01 -2.280833721160888672e-01
3.246000000000000000e+03 4.370211791992187500e+01 3.261877536773681641e+00 1.841286867856979370e-01 9.466031193733215332e-01 3.392195403575897217e-01 -4.165032505989074707e-01
3.247000000000000000e+03 3.345735549926757812e+01 3.330064296722412109e+00 -3.058609962463378906e-01 1.570193767547607422e-01 -4.465248808264732361e-02 5.585440397262573242e-01
3.248000000000000000e+03 4.946933746337890625e+01 3.322972774505615234e+00 4.305747747421264648e-01 2.780976772308349609e+00 9.634654521942138672e-01 -1.689349770545959473e+00
3.249000000000000000e+03 3.527914047241210938e+01 4.421419143676757812e+00 -1.765209436416625977e-01 3.015194535255432129e-01 3.749955072999000549e-02 4.335831999778747559e-01
3.250000000000000000e+03 3.324956893920898438e+01 4.217436790466308594e+00 -2.532196342945098877e-01 1.825958788394927979e-01 -2.118712104856967926e-02 5.463245511054992676e-01
3.251000000000000000e+03 5.136940002441406250e+01 1.066229701042175293e+00 5.416653156280517578e-01 3.379197120666503906e+00 1.176258683204650879e+00 -2.358455181121826172e+00
3.252000000000000000e+03 5.048583984375000000e+01 2.297973155975341797e+00 4.626758098602294922e-01 3.136360406875610352e+00 1.079710841178894043e+00 -2.025823831558227539e+00
3.253000000000000000e+03 4.668897628784179688e+01 -1.815153884887695312e+01 3.993542790412902832e-01 2.044906854629516602e+00 7.332783937454223633e-01 1.170918107032775879e+00
3.254000000000000000e+03 6.889801788330078125e+01 -1.303371906280517578e+01 5.255671739578247070e-01 8.091860771179199219e+00 2.585228443145751953e+00 -1.069962024688720703e+00
3.255000000000000000e+03 6.721438598632812500e+01 -1.532779598236083984e+01 6.014429777860641479e-02 8.482800483703613281e+00 2.562883615493774414e+00 -1.091856956481933594e+00
3.256000000000000000e+03 3.141416740417480469e+01 3.522239208221435547e+00 -3.238308727741241455e-01 7.897383719682693481e-02 -7.345711439847946167e-02 6.186318397521972656e-01
3.257000000000000000e+03 3.044098281860351562e+01 -2.124870491027832031e+01 7.642313838005065918e-02 1.697271019220352173e-01 7.384507358074188232e-02 -3.447092175483703613e-01
3.258000000000000000e+03 2.874520874023437500e+01 -1.708992958068847656e+01 -3.184114098548889160e-01 4.680746048688888550e-02 -8.148118853569030762e-02 -4.777055680751800537e-01
3.259000000000000000e+03 4.744956588745117188e+01 -1.671895790100097656e+01 3.915422558784484863e-01 2.028658866882324219e+00 7.260603904724121094e-01 1.276373386383056641e+00
3.260000000000000000e+03 4.169324874877929688e+01 -1.983016967773437500e+01 3.541296124458312988e-01 1.083951473236083984e+00 4.314243197441101074e-01 4.126192331314086914e-01
3.261000000000000000e+03 4.524861907958984375e+01 -1.873141670227050781e+01 3.903088569641113281e-01 1.688813090324401855e+00 6.237365603446960449e-01 8.915127515792846680e-01
3.262000000000000000e+03 4.119310379028320312e+01 4.369045257568359375e+00 1.024576798081398010e-01 7.548703551292419434e-01 2.571984231472015381e-01 -9.618188440799713135e-02
3.263000000000000000e+03 6.829318237304687500e+01 -1.091239547729492188e+01 1.010861158370971680e+00 8.110666275024414062e+00 2.736458063125610352e+00 -9.481854438781738281e-01
3.264000000000000000e+03 6.537040710449218750e+01 4.545795440673828125e+00 -3.762890398502349854e-01 8.670989990234375000e+00 2.488410234451293945e+00 8.318172693252563477e-01
3.265000000000000000e+03 6.646425628662109375e+01 2.430592775344848633e+00 5.677497759461402893e-02 8.636693954467773438e+00 2.608040809631347656e+00 1.080520510673522949e+00
3.266000000000000000e+03 6.731748962402343750e+01 -1.642366409301757812e+01 -1.007763892412185669e-01 8.440041542053222656e+00 2.501779556274414062e+00 -1.037693262100219727e+00
3.267000000000000000e+03 6.667240142822265625e+01 -1.875134086608886719e+01 -4.153979718685150146e-01 8.402708053588867188e+00 2.396193027496337891e+00 -8.441223502159118652e-01
3.268000000000000000e+03 6.614514160156250000e+01 -1.209377646446228027e+00 1.022946953773498535e+00 8.670212745666503906e+00 2.907948017120361328e+00 1.131791949272155762e+00
3.269000000000000000e+03 4.872920989990234375e+01 -1.720899009704589844e+01 4.245249629020690918e-01 2.584308862686157227e+00 9.026501178741455078e-01 1.606327295303344727e+00
3.270000000000000000e+03 3.464308929443359375e+01 -1.903743743896484375e+01 3.757479041814804077e-02 3.013185262680053711e-01 1.016679927706718445e-01 -2.392000108957290649e-01
3.271000000000000000e+03 3.812564086914062500e+01 -1.758414077758789062e+01 7.114655803889036179e-03 4.167740046977996826e-01 1.271665990352630615e-01 -4.810167104005813599e-02
3.272000000000000000e+03 4.062155914306640625e+01 -1.879053688049316406e+01 2.460912764072418213e-01 7.687918543815612793e-01 3.044649362564086914e-01 2.464907169342041016e-01
3.273000000000000000e+03 3.696419525146484375e+01 -1.692205429077148438e+01 -1.198609471321105957e-01 2.931160032749176025e-01 5.197651684284210205e-02 -1.696945875883102417e-01
3.274000000000000000e+03 6.823318481445312500e+01 -6.642807960510253906e+00 1.637901067733764648e+00 7.897719860076904297e+00 2.860686302185058594e+00 -7.475589215755462646e-02
3.275000000000000000e+03 6.844066619873046875e+01 -9.853306770324707031e+00 1.219086766242980957e+00 7.991754531860351562e+00 2.763252496719360352e+00 -7.698674798011779785e-01
3.276000000000000000e+03 6.917191314697265625e+01 -6.832608699798583984e+00 1.381561040878295898e+00 7.701027393341064453e+00 2.724776506423950195e+00 -9.985896944999694824e-02
3.277000000000000000e+03 3.024795150756835938e+01 1.148338985443115234e+01 -1.364840716123580933e-01 2.826560735702514648e-01 4.385160282254219055e-02 3.916255235671997070e-01
3.278000000000000000e+03 6.672033691406250000e+01 3.587696075439453125e+00 -1.342414021492004395e-01 8.550360679626464844e+00 2.524835824966430664e+00 1.016592502593994141e+00
3.279000000000000000e+03 3.218716812133789062e+01 -1.936298179626464844e+01 -2.570496313273906708e-02 1.861711144447326660e-01 4.813984408974647522e-02 -3.494914174079895020e-01
3.280000000000000000e+03 3.584436035156250000e+01 -1.964209556579589844e+01 1.294050663709640503e-01 4.244087934494018555e-01 1.661441624164581299e-01 -1.477842777967453003e-01
3.281000000000000000e+03 3.043146514892578125e+01 5.053697109222412109e+00 -2.763757705688476562e-01 6.095655634999275208e-02 -6.462576240301132202e-02 6.246775388717651367e-01
3.282000000000000000e+03 3.178619384765625000e+01 2.784024238586425781e+00 -3.625622093677520752e-01 7.667647302150726318e-02 -8.576571941375732422e-02 6.152256727218627930e-01
3.283000000000000000e+03 3.024595832824707031e+01 1.277356338500976562e+01 -1.246172934770584106e-01 3.243758678436279297e-01 5.992757156491279602e-02 3.268669545650482178e-01
3.284000000000000000e+03 2.827779006958007812e+01 1.298637199401855469e+01 -2.169538438320159912e-01 1.283484250307083130e-01 -2.658162638545036316e-02 3.879215121269226074e-01
3.285000000000000000e+03 6.612960052490234375e+01 1.346123814582824707e+00 2.670010328292846680e-01 8.739740371704101562e+00 2.702022314071655273e+00 1.128644704818725586e+00
3.286000000000000000e+03 3.843318939208984375e+01 3.954989194869995117e+00 -7.699605822563171387e-02 4.455995857715606689e-01 1.105810627341270447e-01 2.181633561849594116e-01
3.287000000000000000e+03 4.007982254028320312e+01 3.291728734970092773e+00 -5.252695456147193909e-02 5.031039118766784668e-01 1.351730972528457642e-01 1.027919948101043701e-01
3.288000000000000000e+03 2.969732284545898438e+01 6.705479621887207031e+00 -2.478104978799819946e-01 6.677870452404022217e-02 -5.430953949689865112e-02 6.024196147918701172e-01
3.289000000000000000e+03 4.485827255249023438e+01 4.638436317443847656e+00 3.314306735992431641e-01 1.443339943885803223e+00 5.324311852455139160e-01 -6.985460519790649414e-01
3.290000000000000000e+03 4.476512908935546875e+01 3.921151638031005859e+00 2.909615933895111084e-01 1.255376219749450684e+00 4.639013707637786865e-01 -6.346180438995361328e-01
3.291000000000000000e+03 6.780967712402343750e+01 -1.470380783081054688e+00 9.692871570587158203e-01 8.246201515197753906e+00 2.764646530151367188e+00 1.007567048072814941e+00
3.292000000000000000e+03 6.670354461669921875e+01 -1.059879684448242188e+01 1.253641843795776367e+00 8.460593223571777344e+00 2.914270401000976562e+00 -1.005226492881774902e+00
3.293000000000000000e+03 6.702217864990234375e+01 -2.251829338073730469e+01 -5.393860936164855957e-01 8.052483558654785156e+00 2.253929376602172852e+00 -5.998615622520446777e-01
3.294000000000000000e+03 6.762821960449218750e+01 -3.304813206195831299e-01 7.184875607490539551e-01 8.354822158813476562e+00 2.721992969512939453e+00 1.103134393692016602e+00
3.295000000000000000e+03 2.935334968566894531e+01 3.167126655578613281e+00 -3.495195806026458740e-01 -2.180672623217105865e-02 -1.113978922367095947e-01 6.583678722381591797e-01
3.296000000000000000e+03 6.796527099609375000e+01 6.863345503807067871e-01 4.618261456489562988e-01 8.316406250000000000e+00 2.633469820022583008e+00 1.129078865051269531e+00
3.297000000000000000e+03 6.610146331787109375e+01 -2.356741905212402344e+01 -5.968323945999145508e-01 7.952404499053955078e+00 2.206671714782714844e+00 -4.550545215606689453e-01
3.298000000000000000e+03 4.467284011840820312e+01 -1.727029418945312500e+01 3.351227343082427979e-01 1.291757941246032715e+00 4.880642294883728027e-01 7.637333273887634277e-01
3.299000000000000000e+03 6.895327758789062500e+01 -7.817846775054931641e+00 1.385566115379333496e+00 7.773218631744384766e+00 2.747635364532470703e+00 -3.339101076126098633e-01
3.300000000000000000e+03 2.644336700439453125e+01 -2.046267890930175781e+01 -8.292213827371597290e-02 4.471823573112487793e-02 -1.146117225289344788e-02 -4.317368865013122559e-01
3.301000000000000000e+03 2.798709297180175781e+01 1.650325965881347656e+01 -1.089816987514495850e-01 1.928647458553314209e-01 2.516491338610649109e-02 2.252433300018310547e-01
3.302000000000000000e+03 6.575809478759765625e+01 1.351184177398681641e+01 -5.809997320175170898e-01 7.685382843017578125e+00 2.131314992904663086e+00 2.932603955268859863e-01
3.303000000000000000e+03 3.760264968872070312e+01 -1.884480476379394531e+01 1.255111545324325562e-01 4.838730692863464355e-01 1.828152686357498169e-01 -3.888597711920738220e-02
3.304000000000000000e+03 3.937967681884765625e+01 -1.809193801879882812e+01 1.267288774251937866e-01 5.583652853965759277e-01 2.055282443761825562e-01 8.830821514129638672e-02
3.305000000000000000e+03 6.597882843017578125e+01 1.173162651062011719e+01 -6.095852851867675781e-01 7.849390506744384766e+00 2.171941518783569336e+00 3.847339749336242676e-01
3.306000000000000000e+03 6.448075103759765625e+01 8.662977218627929688e+00 -6.895034313201904297e-01 8.171603202819824219e+00 2.244629859924316406e+00 3.885925114154815674e-01
3.307000000000000000e+03 6.331997680664062500e+01 -2.511958312988281250e+01 -6.749815344810485840e-01 7.613486766815185547e+00 2.081551551818847656e+00 -7.708431780338287354e-02
3.308000000000000000e+03 6.620896148681640625e+01 -2.531498908996582031e+01 -5.761007666587829590e-01 7.802700996398925781e+00 2.167980194091796875e+00 -3.780401647090911865e-01
3.309000000000000000e+03 2.538207626342773438e+01 -1.929727554321289062e+01 -1.859825104475021362e-01 1.727117039263248444e-02 -5.061340332031250000e-02 -4.621737599372863770e-01
3.310000000000000000e+03 6.754763793945312500e+01 -1.848319816589355469e+01 -3.225350379943847656e-01 8.308730125427246094e+00 2.395858526229858398e+00 -9.221801757812500000e-01
3.311000000000000000e+03 6.958842468261718750e+01 -1.859607505798339844e+01 -2.232345938682556152e-01 8.059619903564453125e+00 2.350915431976318359e+00 -9.656186699867248535e-01
3.312000000000000000e+03 2.887211036682128906e+01 1.527813148498535156e+01 -1.081499308347702026e-01 2.780053615570068359e-01 5.095663294196128845e-02 2.560970187187194824e-01
3.313000000000000000e+03 2.653934860229492188e+01 2.006883430480957031e+01 -2.289095893502235413e-02 9.213154017925262451e-02 2.077217400074005127e-02 1.132505238056182861e-01
3.314000000000000000e+03 2.831865501403808594e+01 -1.952270889282226562e+01 -1.115058064460754395e-01 7.491435110569000244e-02 -1.097743771970272064e-02 -4.346302151679992676e-01
3.315000000000000000e+03 6.292488861083984375e+01 1.657658004760742188e+01 -5.354595184326171875e-01 7.103543281555175781e+00 1.970425128936767578e+00 -2.771710045635700226e-02
3.316000000000000000e+03 2.574789428710937500e+01 2.280803298950195312e+01 1.067106798291206360e-01 8.078043907880783081e-02 5.624733492732048035e-02 6.691560149192810059e-02
3.317000000000000000e+03 2.798238563537597656e+01 -1.786271858215332031e+01 -2.621217668056488037e-01 4.911422356963157654e-02 -6.390225887298583984e-02 -4.733582437038421631e-01
3.318000000000000000e+03 6.518421936035156250e+01 6.014032363891601562e+00 -5.407009720802307129e-01 8.516502380371093750e+00 2.392740488052368164e+00 6.692166924476623535e-01
3.319000000000000000e+03 5.924183654785156250e+01 -4.612283229827880859e+00 4.311923503875732422e+00 1.325065040588378906e+01 5.268772125244140625e+00 1.786827921867370605e+00
3.320000000000000000e+03 6.683718109130859375e+01 -1.965053081512451172e+00 1.201688885688781738e+00 8.447451591491699219e+00 2.894742012023925781e+00 1.029394268989562988e+00
3.321000000000000000e+03 6.627228546142578125e+01 -4.155031204223632812e+00 1.910429835319519043e+00 8.411349296569824219e+00 3.096533775329589844e+00 6.532059311866760254e-01
3.322000000000000000e+03 6.715321350097656250e+01 -1.177773952484130859e+01 9.085937142372131348e-01 8.434083938598632812e+00 2.802803277969360352e+00 -1.097368121147155762e+00
3.323000000000000000e+03 5.954488754272460938e+01 -7.975639820098876953e+00 4.655481338500976562e+00 1.258251476287841797e+01 5.171398639678955078e+00 -1.635126709938049316e+00
3.324000000000000000e+03 5.811199569702148438e+01 -1.047763824462890625e+01 9.041887521743774414e-02 1.327188777923583984e+01 4.008691787719726562e+00 3.790932297706604004e-01
3.325000000000000000e+03 5.953867340087890625e+01 -7.161315917968750000e+00 6.153599262237548828e+00 1.234773921966552734e+01 5.550401687622070312e+00 -1.094762206077575684e+00
3.326000000000000000e+03 5.922607421875000000e+01 -9.473428726196289062e+00 1.900175333023071289e+00 1.318469810485839844e+01 4.525462150573730469e+00 -1.294891834259033203e+00
3.327000000000000000e+03 5.917477798461914062e+01 -9.050805091857910156e+00 2.521545410156250000e+00 1.336348438262939453e+01 4.765509128570556641e+00 -1.511839151382446289e+00
3.328000000000000000e+03 5.546907043457031250e+01 -2.201827764511108398e+00 2.044068425893783569e-01 9.570038795471191406e+00 2.932333707809448242e+00 -4.001391887664794922e+00
3.329000000000000000e+03 5.518399047851562500e+01 -2.233015537261962891e+00 4.088185429573059082e-01 8.793212890625000000e+00 2.760609388351440430e+00 -4.178913593292236328e+00
3.330000000000000000e+03 5.997068405151367188e+01 -6.627467155456542969e+00 5.993928432464599609e+00 1.156920528411865234e+01 5.268939971923828125e+00 -3.019734323024749756e-01
3.331000000000000000e+03 5.624843597412109375e+01 -1.876852273941040039e+00 -2.855909764766693115e-01 1.093311977386474609e+01 3.194258689880371094e+00 -3.063867807388305664e+00
3.332000000000000000e+03 5.902181625366210938e+01 -3.628753662109375000e+00 2.293368577957153320e+00 1.348389530181884766e+01 4.733179092407226562e+00 1.406177163124084473e+00
3.333000000000000000e+03 5.537421798706054688e+01 -1.093721103668212891e+01 1.088529601693153381e-01 8.944068908691406250e+00 2.715876579284667969e+00 3.814827203750610352e+00
3.334000000000000000e+03 5.758691024780273438e+01 -1.915348768234252930e+00 -3.543217778205871582e-01 1.257713699340820312e+01 3.666844606399536133e+00 -1.324908494949340820e+00
3.335000000000000000e+03 5.371773147583007812e+01 -1.559113144874572754e+00 8.051676750183105469e-01 5.330607414245605469e+00 1.840732574462890625e+00 -3.658383607864379883e+00
3.336000000000000000e+03 5.646444702148437500e+01 -1.414586305618286133e+00 -4.244687259197235107e-01 1.083973884582519531e+01 3.124581098556518555e+00 -2.729773283004760742e+00
3.337000000000000000e+03 5.345365142822265625e+01 -1.216479778289794922e+01 5.479989647865295410e-01 5.200132846832275391e+00 1.724439501762390137e+00 3.310634613037109375e+00
3.338000000000000000e+03 5.450821304321289062e+01 -1.106879997253417969e+01 5.431244969367980957e-01 6.941430091857910156e+00 2.245366334915161133e+00 3.954771280288696289e+00
3.339000000000000000e+03 5.598425292968750000e+01 -1.036319446563720703e+01 -2.925126440823078156e-02 1.097992038726806641e+01 3.285200834274291992e+00 3.675256013870239258e+00
3.340000000000000000e+03 5.501019668579101562e+01 -1.080565261840820312e+01 3.875171244144439697e-01 8.206048965454101562e+00 2.578069925308227539e+00 4.052335739135742188e+00
3.341000000000000000e+03 5.277322387695312500e+01 2.579567134380340576e-01 5.053418874740600586e-01 4.519428253173828125e+00 1.507431030273437500e+00 -2.927491188049316406e+00
3.342000000000000000e+03 5.186317825317382812e+01 6.797826886177062988e-01 5.521851778030395508e-01 3.716907739639282227e+00 1.280727863311767578e+00 -2.564943313598632812e+00
3.343000000000000000e+03 5.209138488769531250e+01 1.285132646560668945e+00 4.251877963542938232e-01 4.136512756347656250e+00 1.368510127067565918e+00 -2.554319143295288086e+00
3.344000000000000000e+03 5.303519058227539062e+01 -1.231283092498779297e+01 5.929087996482849121e-01 4.679526805877685547e+00 1.581730723381042480e+00 3.148751735687255859e+00
3.345000000000000000e+03 5.165586471557617188e+01 -1.444361495971679688e+01 4.108950197696685791e-01 3.782478332519531250e+00 1.258012056350708008e+00 2.419412374496459961e+00
3.346000000000000000e+03 5.241988754272460938e+01 -1.410815525054931641e+01 3.428262770175933838e-01 4.466212272644042969e+00 1.442711472511291504e+00 2.662594318389892578e+00
3.347000000000000000e+03 5.104534149169921875e+01 1.982413053512573242e+00 4.551805853843688965e-01 3.405530214309692383e+00 1.158213257789611816e+00 -2.180929660797119141e+00
3.348000000000000000e+03 5.149625015258789062e+01 -1.512552165985107422e+01 3.586176633834838867e-01 3.804233312606811523e+00 1.248855352401733398e+00 2.294979095458984375e+00
3.349000000000000000e+03 4.322648620605468750e+01 5.095083713531494141e+00 2.698383927345275879e-01 1.159809827804565430e+00 4.288944602012634277e-01 -4.430093467235565186e-01
3.350000000000000000e+03 4.408803939819335938e+01 4.874544620513916016e+00 3.048861026763916016e-01 1.309344053268432617e+00 4.842690527439117432e-01 -5.764716863632202148e-01
3.351000000000000000e+03 4.868532562255859375e+01 2.887350320816040039e+00 4.596777558326721191e-01 2.291137933731079102e+00 8.252447247505187988e-01 -1.513050675392150879e+00
3.352000000000000000e+03 3.059056091308593750e+01 3.039901971817016602e+00 -3.537714183330535889e-01 3.123084455728530884e-02 -9.676217287778854370e-02 6.411212086677551270e-01
3.353000000000000000e+03 3.425245285034179688e+01 4.358735561370849609e+00 -2.181271612644195557e-01 2.421050667762756348e-01 7.193371187895536423e-03 4.978153705596923828e-01
3.354000000000000000e+03 4.935118103027343750e+01 2.745695352554321289e+00 4.633800685405731201e-01 2.565605401992797852e+00 9.086956381797790527e-01 -1.681791067123413086e+00
3.355000000000000000e+03 5.007587814331054688e+01 3.196370124816894531e+00 4.057145118713378906e-01 3.111677408218383789e+00 1.055217623710632324e+00 -1.870331645011901855e+00
3.356000000000000000e+03 3.739506149291992188e+01 4.370048522949218750e+00 -8.489730209112167358e-02 4.301490187644958496e-01 1.035755127668380737e-01 2.885991632938385010e-01
3.357000000000000000e+03 4.133926391601562500e+01 5.432837486267089844e+00 1.781169921159744263e-01 9.164242744445800781e-01 3.283623754978179932e-01 -1.737954318523406982e-01
3.358000000000000000e+03 4.996662139892578125e+01 -1.678520584106445312e+01 3.655185997486114502e-01 3.173647165298461914e+00 1.061749815940856934e+00 1.840752959251403809e+00
3.359000000000000000e+03 4.901272583007812500e+01 -1.654120826721191406e+01 4.384438395500183105e-01 2.588997364044189453e+00 9.082323312759399414e-01 1.689785242080688477e+00
3.360000000000000000e+03 4.273499679565429688e+01 -1.866703796386718750e+01 3.215283155441284180e-01 1.118978500366210938e+00 4.321520328521728516e-01 5.198814272880554199e-01
3.361000000000000000e+03 4.388102340698242188e+01 -1.985162544250488281e+01 3.977317512035369873e-01 1.498335599899291992e+00 5.688202381134033203e-01 7.066873311996459961e-01
3.362000000000000000e+03 2.954897689819335938e+01 4.435675144195556641e+00 -3.058149814605712891e-01 3.949038218706846237e-03 -9.055978059768676758e-02 6.495542526245117188e-01
3.363000000000000000e+03 2.885264778137207031e+01 3.794709920883178711e+00 -3.299962282180786133e-01 -4.617882519960403442e-02 -1.128525212407112122e-01 6.662822365760803223e-01
3.364000000000000000e+03 6.581072235107421875e+01 6.703262329101562500e+00 -5.295917391777038574e-01 8.394806861877441406e+00 2.359564304351806641e+00 6.954426765441894531e-01
3.365000000000000000e+03 6.481607818603515625e+01 3.860768318176269531e+00 -3.426515161991119385e-01 8.850296974182128906e+00 2.552293539047241211e+00 8.283785581588745117e-01
3.366000000000000000e+03 3.169235610961914062e+01 1.005098819732666016e+01 -9.683984518051147461e-02 3.306361436843872070e-01 7.013889402151107788e-02 4.023033380508422852e-01
3.367000000000000000e+03 3.166246414184570312e+01 1.149909591674804688e+01 -7.140564173460006714e-02 4.068731069564819336e-01 1.006402373313903809e-01 3.302327692508697510e-01
3.368000000000000000e+03 6.866935729980468750e+01 -8.810894012451171875e+00 1.331141471862792969e+00 7.878447532653808594e+00 2.762876749038696289e+00 -5.573041439056396484e-01
3.369000000000000000e+03 6.402160644531250000e+01 -8.690700531005859375e+00 2.442434072494506836e+00 9.168649673461914062e+00 3.483325004577636719e+00 -9.005545973777770996e-01
3.370000000000000000e+03 6.286731719970703125e+01 2.648067951202392578e+00 -3.624127805233001709e-01 9.352451324462890625e+00 2.697011470794677734e+00 6.567891836166381836e-01
3.371000000000000000e+03 6.734862518310546875e+01 -5.427880287170410156e+00 1.812955498695373535e+00 8.096374511718750000e+00 2.972799062728881836e+00 2.796422541141510010e-01
3.372000000000000000e+03 4.768545913696289062e+01 -1.767179298400878906e+01 4.092588126659393311e-01 2.328631401062011719e+00 8.213670849800109863e-01 1.368879079818725586e+00
3.373000000000000000e+03 4.859635543823242188e+01 -1.961842727661132812e+01 3.172841668128967285e-01 2.969980478286743164e+00 9.861793518066406250e-01 1.445916771888732910e+00
3.374000000000000000e+03 6.730640411376953125e+01 -6.572452068328857422e+00 1.872304797172546387e+00 8.084057807922363281e+00 2.986908912658691406e+00 -6.362536549568176270e-02
3.375000000000000000e+03 6.547412872314453125e+01 2.663878440856933594e+00 -5.076531693339347839e-02 8.831191062927246094e+00 2.634127616882324219e+00 1.020489692687988281e+00
3.376000000000000000e+03 6.665693664550781250e+01 -1.346518546342849731e-01 7.020553350448608398e-01 8.590127944946289062e+00 2.787654876708984375e+00 1.149757623672485352e+00
3.377000000000000000e+03 6.743818664550781250e+01 -2.050660896301269531e+01 -4.546914398670196533e-01 8.179013252258300781e+00 2.317296504974365234e+00 -7.676372528076171875e-01
3.378000000000000000e+03 6.821713256835937500e+01 -2.013789749145507812e+01 -4.030770063400268555e-01 8.172271728515625000e+00 2.330758333206176758e+00 -8.409921526908874512e-01
3.379000000000000000e+03 4.035375213623046875e+01 5.618314743041992188e+00 1.441583335399627686e-01 8.148133754730224609e-01 2.876915037631988525e-01 -5.602015927433967590e-02
3.380000000000000000e+03 6.092327117919921875e+01 -5.541245937347412109e+00 4.764341831207275391e+00 1.073935604095458984e+01 4.651109218597412109e+00 7.416749000549316406e-01
3.381000000000000000e+03 3.081900024414062500e+01 8.253563880920410156e+00 -1.836251169443130493e-01 1.990890353918075562e-01 4.639174323529005051e-03 5.094975829124450684e-01
3.382000000000000000e+03 6.643532562255859375e+01 -1.774308967590332031e+01 -3.300076425075531006e-01 8.504216194152832031e+00 2.452262401580810547e+00 -9.002547860145568848e-01
3.383000000000000000e+03 6.695346832275390625e+01 -1.294472599029541016e+01 5.945493578910827637e-01 8.539440155029296875e+00 2.740196704864501953e+00 -1.140379428863525391e+00
3.384000000000000000e+03 6.704742431640625000e+01 -1.418229198455810547e+01 2.920632362365722656e-01 8.540492057800292969e+00 2.649766683578491211e+00 -1.135167717933654785e+00
3.385000000000000000e+03 6.521453857421875000e+01 1.656760334968566895e+00 1.407304257154464722e-01 8.944559097290039062e+00 2.725586891174316406e+00 1.075620055198669434e+00
3.386000000000000000e+03 6.627396392822265625e+01 -1.551473140716552734e+01 -1.937081106007099152e-02 8.667044639587402344e+00 2.594302177429199219e+00 -1.054211378097534180e+00
3.387000000000000000e+03 6.483786773681640625e+01 -1.989683723449707031e+01 -6.224814653396606445e-01 8.383233070373535156e+00 2.328225612640380859e+00 -5.473423004150390625e-01
3.388000000000000000e+03 4.705303192138671875e+01 3.023346185684204102e+00 3.969943225383758545e-01 1.711988091468811035e+00 6.326947212219238281e-01 -1.109833002090454102e+00
3.389000000000000000e+03 4.601662445068359375e+01 4.844303607940673828e+00 3.726885020732879639e-01 1.800094127655029297e+00 6.518347859382629395e-01 -9.459438920021057129e-01
3.390000000000000000e+03 5.966395187377929688e+01 -8.344605445861816406e+00 3.984240770339965820e+00 1.261898803710937500e+01 4.980968475341796875e+00 -1.730678439140319824e+00
3.391000000000000000e+03 3.172665977478027344e+01 1.321805858612060547e+01 -3.881083801388740540e-02 4.907280206680297852e-01 1.355751454830169678e-01 2.434082776308059692e-01
3.392000000000000000e+03 6.752718353271484375e+01 -9.824600219726562500e+00 1.378149151802062988e+00 8.196705818176269531e+00 2.872456312179565430e+00 -8.362089991569519043e-01
3.393000000000000000e+03 6.719763946533203125e+01 -7.525770664215087891e+00 1.829922318458557129e+00 8.133323669433593750e+00 2.988973855972290039e+00 -3.358787596225738525e-01
3.394000000000000000e+03 3.745466613769531250e+01 5.500415802001953125e+00 -1.117065455764532089e-02 5.218822360038757324e-01 1.532134860754013062e-01 2.305903285741806030e-01
3.395000000000000000e+03 2.730365371704101562e+01 -1.902051544189453125e+01 -1.792585402727127075e-01 4.629837721586227417e-02 -3.988804668188095093e-02 -4.601895809173583984e-01
3.396000000000000000e+03 3.217695999145507812e+01 -2.225884246826171875e+01 2.027493566274642944e-01 3.083883225917816162e-01 1.533413082361221313e-01 -2.493926882743835449e-01
3.397000000000000000e+03 6.446556854248046875e+01 -2.619275093078613281e+01 -6.025233268737792969e-01 7.583881855010986328e+00 2.094407558441162109e+00 -1.807790249586105347e-01
3.398000000000000000e+03 6.325705718994140625e+01 1.217272567749023438e+01 -6.945132613182067871e-01 7.619201660156250000e+00 2.077406644821166992e+00 7.572071999311447144e-02
3.399000000000000000e+03 6.625768280029296875e+01 8.175149917602539062e+00 -5.634379982948303223e-01 8.207890510559082031e+00 2.293335914611816406e+00 6.347851753234863281e-01
3.400000000000000000e+03 6.680066680908203125e+01 -2.098419952392578125e+01 -5.329510569572448730e-01 8.182739257812500000e+00 2.294936418533325195e+00 -6.671196222305297852e-01
3.401000000000000000e+03 6.401235198974609375e+01 1.394734954833984375e+01 -6.200684309005737305e-01 7.497563838958740234e+00 2.063248634338378906e+00 1.220925599336624146e-01
3.402000000000000000e+03 4.491306686401367188e+01 -2.126954841613769531e+01 4.285145998001098633e-01 1.964494824409484863e+00 7.179028391838073730e-01 8.573670387268066406e-01
3.403000000000000000e+03 6.201776123046875000e+01 -2.648374366760253906e+01 -6.545662283897399902e-01 7.308794975280761719e+00 1.996268630027770996e+00 9.708584100008010864e-02
3.404000000000000000e+03 3.348583221435546875e+01 -1.856920051574707031e+01 -5.280429124832153320e-02 2.196457684040069580e-01 5.005244165658950806e-02 -3.162527978420257568e-01
3.405000000000000000e+03 3.409861373901367188e+01 -2.028028488159179688e+01 1.244728714227676392e-01 3.353112637996673584e-01 1.379352360963821411e-01 -2.261655032634735107e-01
3.406000000000000000e+03 2.744273376464843750e+01 -2.304457092285156250e+01 1.174948737025260925e-01 1.102814897894859314e-01 6.833291053771972656e-02 -3.562578260898590088e-01
3.407000000000000000e+03 2.569248580932617188e+01 -2.232801628112792969e+01 2.845883928239345551e-02 4.457606002688407898e-02 2.191046997904777527e-02 -3.971077203750610352e-01
3.408000000000000000e+03 6.664714050292968750e+01 2.073956489562988281e+01 -3.312035202980041504e-01 7.320877075195312500e+00 2.096902132034301758e+00 1.273147016763687134e-01
3.409000000000000000e+03 3.114440155029296875e+01 1.495681476593017578e+01 -1.517265662550926208e-02 5.057945251464843750e-01 1.471865475177764893e-01 1.861504763364791870e-01
3.410000000000000000e+03 5.852188110351562500e+01 -2.653014421463012695e+00 5.922814011573791504e-01 1.341480255126953125e+01 4.202125072479248047e+00 2.763265669345855713e-01
3.411000000000000000e+03 5.877146911621093750e+01 -2.864946603775024414e+00 1.003057837486267090e+00 1.339711666107177734e+01 4.320052146911621094e+00 6.759496331214904785e-01
3.412000000000000000e+03 5.458793258666992188e+01 -2.198009967803955078e+00 7.296872735023498535e-01 7.076917171478271484e+00 2.341981410980224609e+00 -4.210491180419921875e+00
3.413000000000000000e+03 5.838790130615234375e+01 -1.015012836456298828e+01 4.516412913799285889e-01 1.345152282714843750e+01 4.170948982238769531e+00 -8.377551287412643433e-02
3.414000000000000000e+03 6.011551666259765625e+01 -6.930201530456542969e+00 5.694187164306640625e+00 1.145451545715332031e+01 5.144610881805419922e+00 -6.197375059127807617e-01
3.415000000000000000e+03 5.341451263427734375e+01 -9.127045869827270508e-01 6.504940986633300781e-01 5.013391494750976562e+00 1.699165582656860352e+00 -3.362094163894653320e+00
3.416000000000000000e+03 5.380056381225585938e+01 -1.105040550231933594e+00 5.993575453758239746e-01 5.613260746002197266e+00 1.863785505294799805e+00 -3.539643287658691406e+00
3.417000000000000000e+03 5.720944213867187500e+01 -1.807501792907714844e+00 -4.170494973659515381e-01 1.217197322845458984e+01 3.526477098464965820e+00 -1.808896183967590332e+00
3.418000000000000000e+03 5.434880447387695312e+01 -1.150464344024658203e+01 4.596533775329589844e-01 6.631398677825927734e+00 2.127315521240234375e+00 3.736209154129028320e+00
3.419000000000000000e+03 5.549136352539062500e+01 -1.060367488861083984e+01 1.849430799484252930e-01 9.629232406616210938e+00 2.944252729415893555e+00 3.948765277862548828e+00
3.420000000000000000e+03 5.386201095581054688e+01 -1.202262592315673828e+01 4.733221530914306641e-01 5.823696136474609375e+00 1.889105439186096191e+00 3.462512254714965820e+00
3.421000000000000000e+03 5.490206146240234375e+01 -1.124085235595703125e+01 2.647087872028350830e-01 7.821960449218750000e+00 2.426000833511352539e+00 3.814176082611083984e+00
3.422000000000000000e+03 5.639015960693359375e+01 -1.063794517517089844e+01 -2.952112555503845215e-01 1.159424877166748047e+01 3.389711141586303711e+00 2.974775075912475586e+00
3.423000000000000000e+03 5.938037109375000000e+01 -3.877635478973388672e+00 2.894149541854858398e+00 1.313721275329589844e+01 4.809408664703369141e+00 1.626264333724975586e+00
3.424000000000000000e+03 5.278294754028320312e+01 -2.012440115213394165e-01 6.047563552856445312e-01 4.409306049346923828e+00 1.504218697547912598e+00 -2.990414381027221680e+00
3.425000000000000000e+03 5.234830093383789062e+01 3.914355635643005371e-01 5.389670729637145996e-01 4.095638275146484375e+00 1.390381693840026855e+00 -2.748651266098022461e+00
3.426000000000000000e+03 5.158912277221679688e+01 1.638919711112976074e+00 4.403954148292541504e-01 3.741914510726928711e+00 1.254692912101745605e+00 -2.378638982772827148e+00
3.427000000000000000e+03 5.304307174682617188e+01 -1.384871006011962891e+01 2.624225914478302002e-01 5.042628288269042969e+00 1.591515302658081055e+00 2.816117525100708008e+00
3.428000000000000000e+03 5.223511505126953125e+01 -1.468792438507080078e+01 3.026196360588073730e-01 4.373930454254150391e+00 1.402964949607849121e+00 2.526236057281494141e+00
3.429000000000000000e+03 5.053217697143554688e+01 -1.634129905700683594e+01 3.398371636867523193e-01 3.390240192413330078e+00 1.119023203849792480e+00 1.978109717369079590e+00
3.430000000000000000e+03 5.275458145141601562e+01 -1.298252677917480469e+01 4.943092167377471924e-01 4.524733543395996094e+00 1.505712747573852539e+00 2.944330215454101562e+00
3.431000000000000000e+03 5.127843093872070312e+01 2.648189067840576172e+00 3.576976358890533447e-01 3.756087541580200195e+00 1.234135508537292480e+00 -2.175671577453613281e+00
3.432000000000000000e+03 4.433977127075195312e+01 5.748717308044433594e+00 3.185542523860931396e-01 1.514258027076721191e+00 5.498436689376831055e-01 -6.449016332626342773e-01
3.433000000000000000e+03 4.345218658447265625e+01 6.057406902313232422e+00 2.971004247665405273e-01 1.357963442802429199e+00 4.965191483497619629e-01 -5.157968401908874512e-01
3.434000000000000000e+03 3.850447082519531250e+01 5.730398178100585938e+00 5.088122189044952393e-02 6.035154461860656738e-01 1.963189989328384399e-01 1.277986913919448853e-01
3.435000000000000000e+03 3.906610107421875000e+01 4.841264724731445312e+00 2.656766213476657867e-02 5.808694958686828613e-01 1.822311431169509888e-01 1.219205334782600403e-01
3.436000000000000000e+03 5.068063735961914062e+01 2.981001138687133789e+00 3.813278675079345703e-01 3.406020641326904297e+00 1.136204600334167480e+00 -2.016468048095703125e+00
3.437000000000000000e+03 4.984393692016601562e+01 4.826954364776611328e+00 3.050655126571655273e-01 3.298550844192504883e+00 1.081084966659545898e+00 -1.708667993545532227e+00
3.438000000000000000e+03 4.957636642456054688e+01 -1.807379531860351562e+01 3.044613003730773926e-01 3.167841672897338867e+00 1.041690826416015625e+00 1.681543111801147461e+00
3.439000000000000000e+03 5.041305541992187500e+01 -1.761315345764160156e+01 2.613137364387512207e-01 3.554394483566284180e+00 1.144712448120117188e+00 1.824014425277709961e+00
3.440000000000000000e+03 3.192079925537109375e+01 4.856509208679199219e+00 -2.483464032411575317e-01 1.440628319978713989e-01 -3.128506988286972046e-02 5.778298974037170410e-01
3.441000000000000000e+03 3.229802322387695312e+01 3.935598373413085938e+00 -2.880915701389312744e-01 1.306649148464202881e-01 -4.722799360752105713e-02 5.868900418281555176e-01
3.442000000000000000e+03 3.407003021240234375e+01 6.320617675781250000e+00 -1.180141642689704895e-01 3.351307809352874756e-01 6.513498723506927490e-02 4.391218721866607666e-01
3.443000000000000000e+03 4.252594375610351562e+01 6.278016090393066406e+00 2.752678692340850830e-01 1.228028655052185059e+00 4.509889483451843262e-01 -3.885847628116607666e-01
3.444000000000000000e+03 4.230617904663085938e+01 5.272898674011230469e+00 2.192299664020538330e-01 1.037960767745971680e+00 3.771572113037109375e-01 -3.016136884689331055e-01
3.445000000000000000e+03 4.600005340576171875e+01 -2.012719345092773438e+01 4.010718166828155518e-01 2.140922307968139648e+00 7.625982165336608887e-01 1.013137221336364746e+00
3.446000000000000000e+03 3.097124862670898438e+01 4.292703628540039062e+00 -2.962772846221923828e-01 7.639830559492111206e-02 -6.596369296312332153e-02 6.230289936065673828e-01
3.447000000000000000e+03 6.617339324951171875e+01 -1.445699024200439453e+01 2.070996314287185669e-01 8.732375144958496094e+00 2.681842327117919922e+00 -1.121462225914001465e+00
3.448000000000000000e+03 4.586893844604492188e+01 3.539049625396728516e+00 3.423812389373779297e-01 1.453180789947509766e+00 5.386686325073242188e-01 -8.477041125297546387e-01
3.449000000000000000e+03 6.578621673583984375e+01 -5.025780677795410156e+00 2.209848642349243164e+00 8.487253189086914062e+00 3.209130525588989258e+00 4.470659792423248291e-01
3.450000000000000000e+03 6.002363204956054688e+01 -8.400547027587890625e+00 3.834349632263183594e+00 1.209557819366455078e+01 4.778978347778320312e+00 -1.597835421562194824e+00
3.451000000000000000e+03 3.287371063232421875e+01 1.097219085693359375e+01 -2.809178084135055542e-02 5.016980767250061035e-01 1.420818865299224854e-01 3.015774190425872803e-01
3.452000000000000000e+03 3.349711227416992188e+01 1.390763282775878906e+01 5.085375159978866577e-02 6.931959986686706543e-01 2.232149243354797363e-01 1.427900344133377075e-01
3.453000000000000000e+03 6.388364028930664062e+01 -2.074475288391113281e+01 -7.162322998046875000e-01 8.282469749450683594e+00 2.269871234893798828e+00 -3.444277048110961914e-01
3.454000000000000000e+03 6.338304138183593750e+01 -1.623943519592285156e+01 -4.461497068405151367e-01 9.105391502380371094e+00 2.597772598266601562e+00 -6.411042213439941406e-01
3.455000000000000000e+03 3.622554397583007812e+01 6.502037048339843750e+00 -1.164457295089960098e-02 5.039565563201904297e-01 1.476935893297195435e-01 2.800034582614898682e-01
3.456000000000000000e+03 3.515330123901367188e+01 6.386309623718261719e+00 -7.201088964939117432e-02 4.227176904678344727e-01 1.052120402455329895e-01 3.675777614116668701e-01
3.457000000000000000e+03 3.631797790527343750e+01 5.446117877960205078e+00 -7.210562378168106079e-02 4.310437142848968506e-01 1.076814234256744385e-01 3.240708112716674805e-01
3.458000000000000000e+03 6.419868469238281250e+01 9.565110206604003906e-01 2.254578918218612671e-01 9.290553092956542969e+00 2.854803323745727539e+00 1.067358136177062988e+00
3.459000000000000000e+03 6.436399841308593750e+01 -2.387625503540039062e+01 -6.694490313529968262e-01 7.852458477020263672e+00 2.154902696609497070e+00 -2.602746486663818359e-01
3.460000000000000000e+03 6.630929565429687500e+01 -1.663791275024414062e+01 -2.067400515079498291e-01 8.588501930236816406e+00 2.514528751373291016e+00 -9.727026820182800293e-01
3.461000000000000000e+03 4.519091033935546875e+01 5.356793403625488281e+00 3.453328311443328857e-01 1.659913778305053711e+00 6.015740036964416504e-01 -7.843383550643920898e-01
3.462000000000000000e+03 4.998507308959960938e+01 -1.930040550231933594e+01 2.285569012165069580e-01 3.551901578903198242e+00 1.134137511253356934e+00 1.637073993682861328e+00
3.463000000000000000e+03 4.855570220947265625e+01 -1.818474006652832031e+01 3.696404397487640381e-01 2.692658662796020508e+00 9.186897277832031250e-01 1.519394040107727051e+00
3.464000000000000000e+03 6.572796630859375000e+01 -3.133302688598632812e+00 1.742348313331604004e+00 8.685195922851562500e+00 3.128263235092163086e+00 9.360579848289489746e-01
3.465000000000000000e+03 3.941521072387695312e+01 5.829451084136962891e+00 1.125666126608848572e-01 7.294720411300659180e-01 2.526115775108337402e-01 2.407995611429214478e-02
3.466000000000000000e+03 6.523325347900390625e+01 7.605472564697265625e+00 -6.203501820564270020e-01 8.315745353698730469e+00 2.308618545532226562e+00 5.549482107162475586e-01
3.467000000000000000e+03 6.456020355224609375e+01 5.239133834838867188e+00 -5.305971503257751465e-01 8.664554595947265625e+00 2.440187454223632812e+00 6.540294289588928223e-01
3.468000000000000000e+03 3.710822677612304688e+01 -2.030373191833496094e+01 2.287567555904388428e-01 5.671330690383911133e-01 2.387669533491134644e-01 -1.445139292627573013e-02
3.469000000000000000e+03 3.202795028686523438e+01 8.718332290649414062e+00 -1.113389357924461365e-01 3.078184425830841064e-01 5.894385650753974915e-02 4.384739696979522705e-01
3.470000000000000000e+03 6.731142425537109375e+01 -9.014211654663085938e+00 1.576086521148681641e+00 8.175478935241699219e+00 2.925469398498535156e+00 -6.822357177734375000e-01
3.471000000000000000e+03 6.712232208251953125e+01 -8.324775695800781250e+00 1.765402317047119141e+00 8.178967475891113281e+00 2.983310937881469727e+00 -5.295501947402954102e-01
3.472000000000000000e+03 3.056255722045898438e+01 6.452813625335693359e+00 -2.286311089992523193e-01 1.216282919049263000e-01 -3.210084512829780579e-02 5.827476978302001953e-01
3.473000000000000000e+03 6.756771850585937500e+01 -2.145587539672851562e+01 -4.914055764675140381e-01 8.101204872131347656e+00 2.282939910888671875e+00 -6.994635462760925293e-01
3.474000000000000000e+03 6.702174377441406250e+01 -1.966223716735839844e+01 -4.545468688011169434e-01 8.278464317321777344e+00 2.347175359725952148e+00 -7.934417128562927246e-01
3.475000000000000000e+03 6.785694885253906250e+01 -8.500053405761718750e+00 1.547369837760925293e+00 8.028240203857421875e+00 2.872683048248291016e+00 -5.396675467491149902e-01
3.476000000000000000e+03 3.313360595703125000e+01 -1.961834335327148438e+01 3.459074720740318298e-02 2.412374019622802734e-01 8.274844288825988770e-02 -2.955194115638732910e-01
3.477000000000000000e+03 6.445278167724609375e+01 2.927988290786743164e+00 -2.276663631200790405e-01 9.024303436279296875e+00 2.638991117477416992e+00 8.741508126258850098e-01
3.478000000000000000e+03 6.543419647216796875e+01 -2.090608787536621094e+01 -6.202875971794128418e-01 8.247350692749023438e+00 2.288118839263916016e+00 -5.434502959251403809e-01
3.479000000000000000e+03 6.614162445068359375e+01 -2.178848457336425781e+01 -5.928347110748291016e-01 8.136410713195800781e+00 2.263072967529296875e+00 -5.681421756744384766e-01
3.480000000000000000e+03 6.350463867187500000e+01 9.734622001647949219e+00 -7.440685629844665527e-01 7.970067977905273438e+00 2.167799949645996094e+00 1.786700189113616943e-01
3.481000000000000000e+03 2.783328628540039062e+01 -2.109928512573242188e+01 -1.616101711988449097e-03 8.777664601802825928e-02 2.584816329181194305e-02 -3.957712948322296143e-01
3.482000000000000000e+03 4.263115692138671875e+01 -2.110219955444335938e+01 4.083258509635925293e-01 1.421575188636779785e+00 5.489703416824340820e-01 5.520615577697753906e-01
3.483000000000000000e+03 3.287549591064453125e+01 1.579775619506835938e+01 6.027571484446525574e-02 7.066076993942260742e-01 2.300650179386138916e-01 9.320553392171859741e-02
3.484000000000000000e+03 3.656348037719726562e+01 -2.192920303344726562e+01 3.206035196781158447e-01 6.581462025642395020e-01 2.936249077320098877e-01 -1.825643144547939301e-02
3.485000000000000000e+03 3.523074722290039062e+01 -2.109553718566894531e+01 2.267462909221649170e-01 4.595993459224700928e-01 2.059036940336227417e-01 -1.363091319799423218e-01
3.486000000000000000e+03 6.607120513916015625e+01 1.531718444824218750e+01 -5.147678852081298828e-01 7.555018901824951172e+00 2.112075328826904297e+00 2.507680654525756836e-01
3.487000000000000000e+03 6.527619934082031250e+01 2.189842033386230469e+01 -3.161262571811676025e-01 7.106665134429931641e+00 2.037161827087402344e+00 5.762599781155586243e-02
3.488000000000000000e+03 6.431045532226562500e+01 2.022472000122070312e+01 -3.863472044467926025e-01 7.041152477264404297e+00 1.996441602706909180e+00 3.553455695509910583e-02
3.489000000000000000e+03 6.356404495239257812e+01 -2.280287933349609375e+01 -7.202464938163757324e-01 7.948932170867919922e+00 2.168605566024780273e+00 -1.962736696004867554e-01
3.490000000000000000e+03 6.244445800781250000e+01 -2.384604644775390625e+01 -7.370662689208984375e-01 7.693981647491455078e+00 2.087074756622314453e+00 3.513357369229197502e-03
3.491000000000000000e+03 6.232973480224609375e+01 1.474544143676757812e+01 -6.200760602951049805e-01 7.190465450286865234e+00 1.971116900444030762e+00 -8.288764208555221558e-02
3.492000000000000000e+03 4.716037750244140625e+01 -1.959770393371582031e+01 3.715603947639465332e-01 2.424373388290405273e+00 8.387801647186279297e-01 1.220159769058227539e+00
3.493000000000000000e+03 6.510015869140625000e+01 1.763712882995605469e+01 -4.598628878593444824e-01 7.296682357788085938e+00 2.051045894622802734e+00 1.232697814702987671e-01
3.494000000000000000e+03 6.060788345336914062e+01 -5.202925205230712891e+00 4.677501201629638672e+00 1.111709976196289062e+01 4.738379955291748047e+00 1.077342987060546875e+00
3.495000000000000000e+03 6.488503265380859375e+01 -1.366888809204101562e+01 3.503107726573944092e-01 9.099325180053710938e+00 2.834890842437744141e+00 -1.127839326858520508e+00
3.496000000000000000e+03 5.752249526977539062e+01 -1.069944095611572266e+01 -2.949643731117248535e-01 1.272199058532714844e+01 3.728107690811157227e+00 1.361251354217529297e+00
3.497000000000000000e+03 5.491901397705078125e+01 -1.616176962852478027e+00 2.983263731002807617e-01 7.953516960144042969e+00 2.475553035736083984e+00 -3.856004476547241211e+00
3.498000000000000000e+03 5.336693191528320312e+01 -1.330119228363037109e+01 2.878454625606536865e-01 5.346620559692382812e+00 1.690339803695678711e+00 3.013610124588012695e+00
3.499000000000000000e+03 5.704214477539062500e+01 -1.179234623908996582e+00 -5.421891212463378906e-01 1.123446846008300781e+01 3.207683801651000977e+00 -2.019150972366333008e+00
3.500000000000000000e+03 5.900537490844726562e+01 -1.009666442871093750e+01 9.402111172676086426e-01 1.307261180877685547e+01 4.203846931457519531e+00 -7.366727590560913086e-01
3.501000000000000000e+03 5.532517242431640625e+01 -1.134914970397949219e+01 5.291878432035446167e-02 8.670465469360351562e+00 2.617015361785888672e+00 3.651766061782836914e+00
3.502000000000000000e+03 5.840858459472656250e+01 -2.312179088592529297e+00 2.633631229400634766e-01 1.314213466644287109e+01 4.021649360656738281e+00 -2.789584174752235413e-02
3.503000000000000000e+03 5.426693725585937500e+01 -2.057640075683593750e+00 8.434146046638488770e-01 6.285448074340820312e+00 2.138658761978149414e+00 -3.994168043136596680e+00
3.504000000000000000e+03 5.939399719238281250e+01 -3.556210756301879883e+00 2.386123657226562500e+00 1.300874423980712891e+01 4.618460178375244141e+00 1.490886807441711426e+00
3.505000000000000000e+03 5.799384307861328125e+01 -1.089731407165527344e+01 -2.219378501176834106e-01 1.260834503173828125e+01 3.715922355651855469e+00 7.781183719635009766e-01
3.506000000000000000e+03 5.474670410156250000e+01 -1.165450382232666016e+01 2.300098836421966553e-01 7.461468219757080078e+00 2.307443380355834961e+00 3.641455173492431641e+00
3.507000000000000000e+03 5.359315490722656250e+01 -1.265142059326171875e+01 3.828535377979278564e-01 5.532896041870117188e+00 1.774724960327148438e+00 3.227610349655151367e+00
3.508000000000000000e+03 6.009275436401367188e+01 -6.110321521759033203e+00 5.836351394653320312e+00 1.142343616485595703e+01 5.177936553955078125e+00 3.198898732662200928e-01
3.509000000000000000e+03 5.308781814575195312e+01 4.765670001506805420e-02 5.061505436897277832e-01 4.918558597564697266e+00 1.627412676811218262e+00 -3.060909748077392578e+00
3.510000000000000000e+03 5.738787460327148438e+01 -1.338278412818908691e+00 -4.981081783771514893e-01 1.172610282897949219e+01 3.368398427963256836e+00 -1.623180627822875977e+00
3.511000000000000000e+03 5.683821487426757812e+01 -1.635099411010742188e+00 -4.484097063541412354e-01 1.163477993011474609e+01 3.355911254882812500e+00 -2.298184156417846680e+00
3.512000000000000000e+03 5.294467163085937500e+01 -1.434042167663574219e+01 2.080606818199157715e-01 5.010606765747070312e+00 1.565600275993347168e+00 2.718494415283203125e+00
3.513000000000000000e+03 5.264905929565429688e+01 -1.365986824035644531e+01 3.639903366565704346e-01 4.560305595397949219e+00 1.477288842201232910e+00 2.778011798858642578e+00
3.514000000000000000e+03 5.254760360717773438e+01 9.818440675735473633e-01 4.010264277458190918e-01 4.478600978851318359e+00 1.463888287544250488e+00 -2.707808017730712891e+00
3.515000000000000000e+03 5.154371643066406250e+01 3.358477354049682617e+00 2.421461492776870728e-01 4.113912582397460938e+00 1.306817650794982910e+00 -2.140862464904785156e+00
3.516000000000000000e+03 5.209014892578125000e+01 -1.532066726684570312e+01 2.470002919435501099e-01 4.368171691894531250e+00 1.384551525115966797e+00 2.397475242614746094e+00
3.517000000000000000e+03 5.014224243164062500e+01 3.966706991195678711e+00 3.312237560749053955e-01 3.328605175018310547e+00 1.097948670387268066e+00 -1.811457514762878418e+00
3.518000000000000000e+03 3.123810005187988281e+01 7.197600364685058594e+00 -1.888905018568038940e-01 1.837734729051589966e-01 -1.535110757686197758e-03 5.422394871711730957e-01
3.519000000000000000e+03 4.642795181274414062e+01 5.709626197814941406e+00 3.699408173561096191e-01 2.077425479888916016e+00 7.342098951339721680e-01 -1.032426357269287109e+00
3.520000000000000000e+03 4.668995285034179688e+01 4.041867256164550781e+00 3.890072703361511230e-01 1.826557397842407227e+00 6.646693944931030273e-01 -1.065190792083740234e+00
3.521000000000000000e+03 4.993335723876953125e+01 2.563581228256225586e+00 4.621375203132629395e-01 2.849772691726684570e+00 9.935730695724487305e-01 -1.860143065452575684e+00
3.522000000000000000e+03 4.811633682250976562e+01 3.830213546752929688e+00 4.084856510162353516e-01 2.237132787704467773e+00 7.936854958534240723e-01 -1.372518897056579590e+00
3.523000000000000000e+03 6.424911499023437500e+01 1.887695312500000000e+00 -1.711575500667095184e-02 9.191949844360351562e+00 2.752450227737426758e+00 9.642331004142761230e-01
3.524000000000000000e+03 5.085528564453125000e+01 3.790751218795776367e+00 2.894105017185211182e-01 3.698315858840942383e+00 1.196317911148071289e+00 -1.975565671920776367e+00
3.525000000000000000e+03 6.347743225097656250e+01 3.444221496582031250e+00 -4.121345877647399902e-01 9.115411758422851562e+00 2.610983133316040039e+00 6.816534399986267090e-01
3.526000000000000000e+03 5.991222381591796875e+01 -7.807009220123291016e+00 4.807411670684814453e+00 1.199128341674804688e+01 5.039608478546142578e+00 -1.423052430152893066e+00
3.527000000000000000e+03 4.468605804443359375e+01 6.646074295043945312e+00 3.341213464736938477e-01 1.747404098510742188e+00 6.244576573371887207e-01 -7.242450118064880371e-01
3.528000000000000000e+03 4.374668502807617188e+01 7.146953582763671875e+00 3.212165832519531250e-01 1.591384530067443848e+00 5.737802982330322266e-01 -5.899366736412048340e-01
3.529000000000000000e+03 3.413607406616210938e+01 5.314383029937744141e+00 -1.622503548860549927e-01 2.891014218330383301e-01 3.805531561374664307e-02 4.698769450187683105e-01
3.530000000000000000e+03 5.162362289428710938e+01 -1.645888328552246094e+01 2.022370845079421997e-01 4.132516860961914062e+00 1.300426244735717773e+00 2.163440704345703125e+00
3.531000000000000000e+03 6.537069702148437500e+01 -1.561448764801025391e+01 -1.063955277204513550e-01 8.867357254028320312e+00 2.628288507461547852e+00 -9.902916550636291504e-01
3.532000000000000000e+03 3.130772399902343750e+01 5.714385509490966797e+00 -2.280281037092208862e-01 1.467053741216659546e-01 -2.439681813120841980e-02 5.774866938591003418e-01
3.533000000000000000e+03 6.633760070800781250e+01 -5.716426372528076172e+00 2.114506244659423828e+00 8.321310997009277344e+00 3.130745172500610352e+00 2.339324355125427246e-01
3.534000000000000000e+03 6.545391845703125000e+01 -3.858058214187622070e+00 2.056794881820678711e+00 8.698797225952148438e+00 3.226677656173706055e+00 8.187482357025146484e-01
3.535000000000000000e+03 6.637689208984375000e+01 -3.234749317169189453e+00 1.610479354858398438e+00 8.457806587219238281e+00 3.020485639572143555e+00 8.583011031150817871e-01
3.536000000000000000e+03 6.555737304687500000e+01 -2.060711383819580078e+00 1.384203076362609863e+00 8.813757896423339844e+00 3.059388399124145508e+00 1.104894518852233887e+00
3.537000000000000000e+03 3.729621887207031250e+01 6.681703567504882812e+00 4.333499446511268616e-02 6.028504371643066406e-01 1.938556432723999023e-01 1.906841248273849487e-01
3.538000000000000000e+03 6.649594116210937500e+01 -9.212628364562988281e+00 1.706822037696838379e+00 8.416737556457519531e+00 3.037067890167236328e+00 -8.086025118827819824e-01
3.539000000000000000e+03 6.441040039062500000e+01 6.826220035552978516e+00 -6.473420262336730957e-01 8.440138816833496094e+00 2.337839126586914062e+00 4.980107545852661133e-01
3.540000000000000000e+03 6.398785400390625000e+01 4.391366481781005859e+00 -4.871691465377807617e-01 8.866677284240722656e+00 2.513852357864379883e+00 6.585186719894409180e-01
3.541000000000000000e+03 4.058024978637695312e+01 6.779396533966064453e+00 2.001180052757263184e-01 9.843404889106750488e-01 3.553375303745269775e-01 -1.435655057430267334e-01
3.542000000000000000e+03 4.156793594360351562e+01 6.498441219329833984e+00 2.403832674026489258e-01 1.097155213356018066e+00 4.012615382671356201e-01 -2.530831098556518555e-01
3.543000000000000000e+03 6.624397277832031250e+01 -2.017683219909667969e+01 -5.344445109367370605e-01 8.284126281738281250e+00 2.324904441833496094e+00 -6.835814118385314941e-01
3.544000000000000000e+03 4.789970016479492188e+01 3.061956405639648438e+00 4.313686788082122803e-01 1.992121219635009766e+00 7.270469665527343750e-01 -1.316433548927307129e+00
3.545000000000000000e+03 3.211539459228515625e+01 7.508494853973388672e+00 -1.439234614372253418e-01 2.674771547317504883e-01 3.706610575318336487e-02 4.835434556007385254e-01
3.546000000000000000e+03 6.372147750854492188e+01 5.953413009643554688e+00 -6.581147313117980957e-01 8.609949111938476562e+00 2.385550260543823242e+00 4.543743729591369629e-01
3.547000000000000000e+03 6.570087432861328125e+01 2.695848941802978516e-01 5.625047087669372559e-01 8.872586250305175781e+00 2.830527067184448242e+00 1.166865348815917969e+00
3.548000000000000000e+03 6.642325592041015625e+01 -6.641048431396484375e+00 2.113751888275146484e+00 8.284154891967773438e+00 3.119372129440307617e+00 -8.777872473001480103e-02
3.549000000000000000e+03 6.576580810546875000e+01 -1.921723556518554688e+01 -5.254535079002380371e-01 8.422080039978027344e+00 2.368988037109375000e+00 -7.009137272834777832e-01
3.550000000000000000e+03 3.549032592773437500e+01 9.713492393493652344e+00 6.591629981994628906e-02 6.662213802337646484e-01 2.196413129568099976e-01 1.910557001829147339e-01
3.551000000000000000e+03 5.966114044189453125e+01 -9.042066574096679688e+00 2.743327140808105469e+00 1.265634346008300781e+01 4.619901180267333984e+00 -1.581543207168579102e+00
3.552000000000000000e+03 6.454644775390625000e+01 -2.180333518981933594e+01 -6.837897896766662598e-01 8.129224777221679688e+00 2.233630418777465820e+00 -3.858571052551269531e-01
3.553000000000000000e+03 3.125573158264160156e+01 -1.965752220153808594e+01 -2.678748778998851776e-02 1.549468189477920532e-01 3.844780102372169495e-02 -3.681639134883880615e-01
3.554000000000000000e+03 4.700879287719726562e+01 -2.099123764038085938e+01 3.753820955753326416e-01 2.593981742858886719e+00 8.908091783523559570e-01 1.157793402671813965e+00
3.555000000000000000e+03 6.232460784912109375e+01 1.067703819274902344e+01 -7.632999420166015625e-01 7.730303287506103516e+00 2.090101003646850586e+00 -2.768143266439437866e-02
3.556000000000000000e+03 3.758691406250000000e+01 2.052816963195800781e+01 2.429612278938293457e-01 1.602309703826904297e+00 5.535812377929687500e-01 -2.146508991718292236e-01
3.557000000000000000e+03 3.015161323547363281e+01 1.639929389953613281e+01 -2.186637744307518005e-02 4.568150639533996582e-01 1.304846107959747314e-01 1.595489680767059326e-01
3.558000000000000000e+03 6.355176925659179688e+01 1.842638969421386719e+01 -4.545488059520721436e-01 7.043822288513183594e+00 1.976782083511352539e+00 6.048885639756917953e-03
3.559000000000000000e+03 6.288027572631835938e+01 -2.165377044677734375e+01 -7.655108571052551270e-01 8.064504623413085938e+00 2.189697980880737305e+00 -1.337915062904357910e-01
3.560000000000000000e+03 6.166264343261718750e+01 1.302421569824218750e+01 -6.838573217391967773e-01 7.292931556701660156e+00 1.982722282409667969e+00 -1.490046232938766479e-01
3.561000000000000000e+03 6.108509445190429688e+01 -2.485235404968261719e+01 -7.104395031929016113e-01 7.345541954040527344e+00 1.990530729293823242e+00 2.013214081525802612e-01
3.562000000000000000e+03 3.838349914550781250e+01 -2.081827735900878906e+01 3.059892058372497559e-01 7.351120114326477051e-01 3.123303651809692383e-01 1.081455275416374207e-01
3.563000000000000000e+03 3.881361770629882812e+01 -1.938277244567871094e+01 2.264325767755508423e-01 6.446624994277954102e-01 2.613285183906555176e-01 9.711406379938125610e-02
3.564000000000000000e+03 6.193403625488281250e+01 1.926302909851074219e+01 -4.365467727184295654e-01 6.744528770446777344e+00 1.892394661903381348e+00 -1.131330132484436035e-01
3.565000000000000000e+03 6.132112503051757812e+01 1.733038902282714844e+01 -5.045660734176635742e-01 6.785394191741943359e+00 1.884248495101928711e+00 -1.670001894235610962e-01
3.566000000000000000e+03 3.079226493835449219e+01 -2.290621757507324219e+01 1.978980302810668945e-01 2.478595674037933350e-01 1.337272822856903076e-01 -2.830795049667358398e-01
3.567000000000000000e+03 6.011677932739257812e+01 -7.247964382171630859e+00 5.402019023895263672e+00 1.154750823974609375e+01 5.084857940673828125e+00 -9.494696259498596191e-01
3.568000000000000000e+03 6.003570938110351562e+01 -3.865235567092895508e+00 3.061633110046386719e+00 1.216788101196289062e+01 4.568854331970214844e+00 1.602406978607177734e+00
3.569000000000000000e+03 5.465259933471679688e+01 -7.021023035049438477e-01 1.553856432437896729e-01 7.223102569580078125e+00 2.213546514511108398e+00 -3.457188367843627930e+00
3.570000000000000000e+03 5.875992965698242188e+01 -1.048174667358398438e+01 4.340395927429199219e-01 1.281189823150634766e+01 3.973781347274780273e+00 -2.774070501327514648e-01
3.571000000000000000e+03 5.936344146728515625e+01 -9.900025367736816406e+00 1.372749567031860352e+00 1.277053642272949219e+01 4.242985725402832031e+00 -1.079582571983337402e+00
3.572000000000000000e+03 5.888134002685546875e+01 -2.547540903091430664e+00 7.260742187500000000e-01 1.298019218444824219e+01 4.111879825592041016e+00 5.498091578483581543e-01
3.573000000000000000e+03 6.489276885986328125e+01 -1.210527133941650391e+01 8.549832701683044434e-01 9.120206832885742188e+00 2.992557048797607422e+00 -1.209089756011962891e+00
3.574000000000000000e+03 5.616003417968750000e+01 -1.108832716941833496e+00 -3.977536559104919434e-01 1.014733028411865234e+01 2.924872875213623047e+00 -2.888420343399047852e+00
3.575000000000000000e+03 6.034037780761718750e+01 -4.890593051910400391e+00 4.484500408172607422e+00 1.148895072937011719e+01 4.792035579681396484e+00 1.321542382240295410e+00
3.576000000000000000e+03 5.335601806640625000e+01 -2.606161236763000488e-01 4.991548359394073486e-01 5.167585372924804688e+00 1.700022101402282715e+00 -3.204448223114013672e+00
3.577000000000000000e+03 5.804178619384765625e+01 -1.569237112998962402e+00 -3.287992477416992188e-01 1.226082992553710938e+01 3.579609394073486328e+00 -8.717744946479797363e-01
3.578000000000000000e+03 6.035482025146484375e+01 -6.441271305084228516e+00 5.603601932525634766e+00 1.115038871765136719e+01 5.026197433471679688e+00 -5.338837578892707825e-02
3.579000000000000000e+03 6.048355102539062500e+01 -5.842281341552734375e+00 5.343821525573730469e+00 1.108451175689697266e+01 4.928500175476074219e+00 5.431597828865051270e-01
3.580000000000000000e+03 5.797791290283203125e+01 -1.959256410598754883e+00 -1.874786466360092163e-01 1.276735496520996094e+01 3.773962974548339844e+00 -7.635133862495422363e-01
3.581000000000000000e+03 5.431437683105468750e+01 -1.240820884704589844e+01 1.989632397890090942e-01 6.584949016571044922e+00 2.035173654556274414e+00 3.336445569992065430e+00
3.582000000000000000e+03 5.351209640502929688e+01 -1.387161254882812500e+01 1.343963444232940674e-01 5.591634750366210938e+00 1.717809319496154785e+00 2.852249622344970703e+00
3.583000000000000000e+03 5.639786148071289062e+01 -1.121127128601074219e+01 -3.945594727993011475e-01 1.087168884277343750e+01 3.143138885498046875e+00 2.840303897857666016e+00
3.584000000000000000e+03 5.670640563964843750e+01 -9.884625673294067383e-01 -5.283277034759521484e-01 1.070076847076416016e+01 3.051732301712036133e+00 -2.346212148666381836e+00
3.585000000000000000e+03 6.512508392333984375e+01 -2.816903591156005859e+00 1.746631264686584473e+00 8.904506683349609375e+00 3.195341587066650391e+00 1.054580330848693848e+00
3.586000000000000000e+03 5.426113128662109375e+01 -7.140959501266479492e-01 3.254518508911132812e-01 6.472556591033935547e+00 2.039402484893798828e+00 -3.486705064773559570e+00
3.587000000000000000e+03 5.396890640258789062e+01 -1.251546478271484375e+01 2.971079051494598389e-01 6.077185630798339844e+00 1.912288069725036621e+00 3.298422098159790039e+00
3.588000000000000000e+03 5.534763336181640625e+01 -1.175034713745117188e+01 -5.396900326013565063e-02 8.590917587280273438e+00 2.561084747314453125e+00 3.467006921768188477e+00
3.589000000000000000e+03 5.212471008300781250e+01 2.923150777816772461e+00 2.049122154712677002e-01 4.476767063140869141e+00 1.404503822326660156e+00 -2.302387475967407227e+00
3.590000000000000000e+03 5.194832992553710938e+01 -1.594847297668457031e+01 2.081473767757415771e-01 4.358466148376464844e+00 1.369984030723571777e+00 2.283035993576049805e+00
3.591000000000000000e+03 6.674754333496093750e+01 -9.919356346130371094e+00 1.481891870498657227e+00 8.406046867370605469e+00 2.966381788253784180e+00 -9.233796596527099609e-01
3.592000000000000000e+03 6.626716613769531250e+01 -7.543260097503662109e+00 2.112775087356567383e+00 8.353907585144042969e+00 3.140004873275756836e+00 -3.841459155082702637e-01
3.593000000000000000e+03 5.183556747436523438e+01 2.266678571701049805e+00 3.253186047077178955e-01 4.124565124511718750e+00 1.334965109825134277e+00 -2.351384401321411133e+00
3.594000000000000000e+03 5.333944702148437500e+01 4.234308302402496338e-01 3.352538347244262695e-01 5.312223434448242188e+00 1.694243192672729492e+00 -3.020708560943603516e+00
3.595000000000000000e+03 3.195501518249511719e+01 6.534906864166259766e+00 -1.852066814899444580e-01 2.003991305828094482e-01 4.557735752314329147e-03 5.325384736061096191e-01
3.596000000000000000e+03 5.100863647460937500e+01 -1.850601196289062500e+01 1.492113173007965088e-01 4.039913177490234375e+00 1.256737351417541504e+00 1.828793525695800781e+00
3.597000000000000000e+03 4.735072708129882812e+01 5.574137210845947266e+00 3.725314736366271973e-01 2.323890924453735352e+00 8.089267015457153320e-01 -1.207758188247680664e+00
3.598000000000000000e+03 4.933906555175781250e+01 4.425173759460449219e+00 3.551619350910186768e-01 2.918349027633666992e+00 9.820532798767089844e-01 -1.627434134483337402e+00
3.599000000000000000e+03 6.544347381591796875e+01 -1.463596439361572266e+01 1.022424474358558655e-01 8.911643981933593750e+00 2.704165935516357422e+00 -1.079841136932373047e+00
3.600000000000000000e+03 6.431170654296875000e+01 1.992002725601196289e-01 5.083250999450683594e-01 9.287215232849121094e+00 2.938662052154541016e+00 1.146569252014160156e+00
3.601000000000000000e+03 6.330536651611328125e+01 1.781989097595214844e+00 -1.139944419264793396e-01 9.403996467590332031e+00 2.787000656127929688e+00 8.621819615364074707e-01
3.602000000000000000e+03 6.590134429931640625e+01 -1.288863277435302734e+01 6.204339861869812012e-01 8.803079605102539062e+00 2.827054262161254883e+00 -1.177917003631591797e+00
3.603000000000000000e+03 3.300606536865234375e+01 5.209801197052001953e+00 -2.058316767215728760e-01 2.113141417503356934e-01 1.644736621528863907e-03 5.311803221702575684e-01
3.604000000000000000e+03 6.471604919433593750e+01 -1.453402137756347656e+01 5.352333560585975647e-02 9.084750175476074219e+00 2.741482019424438477e+00 -1.038661599159240723e+00
3.605000000000000000e+03 6.447554016113281250e+01 -5.111581802368164062e+00 2.659570693969726562e+00 8.888969421386718750e+00 3.464561939239501953e+00 5.064709186553955078e-01
3.606000000000000000e+03 6.536325836181640625e+01 -1.810385513305664062e+01 -4.675294160842895508e-01 8.599880218505859375e+00 2.439705133438110352e+00 -7.597665190696716309e-01
3.607000000000000000e+03 3.459097671508789062e+01 9.159069061279296875e+00 1.751053705811500549e-02 5.556833744049072266e-01 1.719581633806228638e-01 2.747382819652557373e-01
3.608000000000000000e+03 3.840361404418945312e+01 6.972829818725585938e+00 1.143161877989768982e-01 7.278921008110046387e-01 2.526624798774719238e-01 7.409219443798065186e-02
3.609000000000000000e+03 6.452892303466796875e+01 -1.552093410491943359e+01 -1.659235805273056030e-01 9.024307250976562500e+00 2.657515048980712891e+00 -9.209592342376708984e-01
3.610000000000000000e+03 6.357955169677734375e+01 7.694016456604003906e+00 -7.343041896820068359e-01 8.307079315185546875e+00 2.271832704544067383e+00 2.993815839290618896e-01
3.611000000000000000e+03 6.284774398803710938e+01 6.684359550476074219e+00 -7.610594034194946289e-01 8.483481407165527344e+00 2.316726684570312500e+00 2.285811901092529297e-01
3.612000000000000000e+03 3.586448287963867188e+01 8.629299163818359375e+00 6.197544187307357788e-02 6.242948770523071289e-01 2.058810889720916748e-01 2.152057588100433350e-01
3.613000000000000000e+03 3.496775054931640625e+01 8.352731704711914062e+00 1.150371693074703217e-02 5.357227325439453125e-01 1.641679257154464722e-01 2.844212353229522705e-01
3.614000000000000000e+03 3.406202316284179688e+01 7.354218482971191406e+00 -8.129077404737472534e-02 4.026281833648681641e-01 9.640122950077056885e-02 3.986587226390838623e-01
3.615000000000000000e+03 4.848282241821289062e+01 -2.139496612548828125e+01 2.695706188678741455e-01 3.144733428955078125e+00 1.024291157722473145e+00 1.311712503433227539e+00
3.616000000000000000e+03 5.094290924072265625e+01 -2.045508575439453125e+01 8.423404395580291748e-02 4.069700717926025391e+00 1.246180534362792969e+00 1.589612007141113281e+00
3.617000000000000000e+03 4.554511260986328125e+01 6.148693084716796875e+00 3.489585220813751221e-01 1.872716546058654785e+00 6.665025353431701660e-01 -8.633450269699096680e-01
3.618000000000000000e+03 6.328507232666015625e+01 -1.969445419311523438e+01 -7.346046566963195801e-01 8.445530891418457031e+00 2.313277959823608398e+00 -3.052561581134796143e-01
3.619000000000000000e+03 6.224688720703125000e+01 -2.053465270996093750e+01 -7.952422499656677246e-01 8.221208572387695312e+00 2.227789878845214844e+00 -5.638926103711128235e-02
3.620000000000000000e+03 4.518285369873046875e+01 7.503385543823242188e+00 3.346070349216461182e-01 2.004506349563598633e+00 7.017340064048767090e-01 -8.195785284042358398e-01
3.621000000000000000e+03 4.247372817993164062e+01 8.318989753723144531e+00 2.976649701595306396e-01 1.495027542114257812e+00 5.378077626228332520e-01 -4.443431198596954346e-01
3.622000000000000000e+03 4.187012100219726562e+01 7.511366844177246094e+00 2.652262151241302490e-01 1.257944464683532715e+00 4.569512009620666504e-01 -3.268790841102600098e-01
3.623000000000000000e+03 6.503142547607421875e+01 -4.574408531188964844e+00 2.370829105377197266e+00 8.750867843627929688e+00 3.336508989334106445e+00 6.558049321174621582e-01
3.624000000000000000e+03 6.525577545166015625e+01 -5.667982578277587891e+00 2.482387542724609375e+00 8.609460830688476562e+00 3.327554464340209961e+00 2.669899463653564453e-01
3.625000000000000000e+03 6.525802612304687500e+01 -7.882990837097167969e-01 8.943279385566711426e-01 8.991278648376464844e+00 2.965682029724121094e+00 1.194376587867736816e+00
3.626000000000000000e+03 6.632126617431640625e+01 -1.132855796813964844e+01 1.076729655265808105e+00 8.619352340698242188e+00 2.908824443817138672e+00 -1.107105731964111328e+00
3.627000000000000000e+03 4.882591247558593750e+01 3.499164342880249023e+00 4.287638068199157715e-01 2.457449197769165039e+00 8.658639192581176758e-01 -1.543831586837768555e+00
3.628000000000000000e+03 4.590044021606445312e+01 6.912958621978759766e+00 3.531818091869354248e-01 2.095509052276611328e+00 7.346072793006896973e-01 -9.448635578155517578e-01
3.629000000000000000e+03 3.378997421264648438e+01 9.921798706054687500e+00 -1.092853257432579994e-03 5.331759452819824219e-01 1.596249341964721680e-01 2.949409782886505127e-01
3.630000000000000000e+03 6.624564361572265625e+01 -8.421030998229980469e+00 1.956026792526245117e+00 8.404204368591308594e+00 3.108069419860839844e+00 -6.027578115463256836e-01
3.631000000000000000e+03 3.952614212036132812e+01 7.039719104766845703e+00 1.585839092731475830e-01 8.611441850662231445e-01 3.059184253215789795e-01 -3.780864924192428589e-02
3.632000000000000000e+03 6.180284118652343750e+01 -2.253851699829101562e+01 -7.842993140220642090e-01 7.820385456085205078e+00 2.110825777053833008e+00 7.167044281959533691e-02
3.633000000000000000e+03 3.157933616638183594e+01 -2.089354705810546875e+01 8.901380747556686401e-02 2.197957485914230347e-01 9.264286607503890991e-02 -3.186226189136505127e-01
3.634000000000000000e+03 3.035825157165527344e+01 -1.989230918884277344e+01 -3.123902156949043274e-02 1.371469497680664062e-01 3.177237883210182190e-02 -3.847244083881378174e-01
3.635000000000000000e+03 3.990190887451171875e+01 -1.989614295959472656e+01 2.935544252395629883e-01 8.054885864257812500e-01 3.297129273414611816e-01 2.155190855264663696e-01
3.636000000000000000e+03 3.959006881713867188e+01 -2.106765174865722656e+01 3.551448285579681396e-01 8.972627520561218262e-01 3.757222890853881836e-01 2.197840660810470581e-01
3.637000000000000000e+03 3.415448379516601562e+01 1.218157577514648438e+01 5.869253352284431458e-02 6.963754892349243164e-01 2.265204042196273804e-01 1.756230890750885010e-01
3.638000000000000000e+03 4.124778366088867188e+01 -2.211523246765136719e+01 4.201338589191436768e-01 1.262655854225158691e+00 5.048369169235229492e-01 3.981641232967376709e-01
3.639000000000000000e+03 6.262729644775390625e+01 8.543656349182128906e+00 -7.926355004310607910e-01 8.116256713867187500e+00 2.197086334228515625e+00 8.556216210126876831e-02
3.640000000000000000e+03 6.203072357177734375e+01 -2.977878761291503906e+01 -5.273218154907226562e-01 6.974455833435058594e+00 1.934140205383300781e+00 8.954587578773498535e-02
3.641000000000000000e+03 3.312689208984375000e+01 -2.375732994079589844e+01 3.155166506767272949e-01 4.329493343830108643e-01 2.245397865772247314e-01 -1.628411412239074707e-01
3.642000000000000000e+03 3.328882598876953125e+01 -2.137470817565917969e+01 1.798449754714965820e-01 3.326574862003326416e-01 1.537507325410842896e-01 -2.315876334905624390e-01
3.643000000000000000e+03 5.977216339111328125e+01 -7.012277603149414062e+00 6.088015079498291016e+00 1.192101860046386719e+01 5.402709960937500000e+00 -8.185601234436035156e-01
3.644000000000000000e+03 5.640192031860351562e+01 -7.665923237800598145e-01 -4.972932338714599609e-01 1.021369647979736328e+01 2.914920806884765625e+00 -2.647773742675781250e+00
3.645000000000000000e+03 6.564057922363281250e+01 -1.185745143890380859e+01 9.435940384864807129e-01 8.845651626586914062e+00 2.936773777008056641e+00 -1.169889688491821289e+00
3.646000000000000000e+03 5.998791122436523438e+01 -8.672751426696777344e+00 3.422569036483764648e+00 1.218636798858642578e+01 4.682681083679199219e+00 -1.621868371963500977e+00
3.647000000000000000e+03 5.695819854736328125e+01 -1.107318210601806641e+01 -4.786121547222137451e-01 1.181067466735839844e+01 3.399618864059448242e+00 2.160703659057617188e+00
3.648000000000000000e+03 6.078413772583007812e+01 -6.204820632934570312e+00 5.166568756103515625e+00 1.076922702789306641e+01 4.780738830566406250e+00 1.621440351009368896e-01
3.649000000000000000e+03 6.001892089843750000e+01 -7.544239997863769531e+00 5.085843086242675781e+00 1.179362106323242188e+01 5.063839435577392578e+00 -1.241597414016723633e+00
3.650000000000000000e+03 6.034149169921875000e+01 -7.644918918609619141e+00 4.775447845458984375e+00 1.143188285827636719e+01 4.862199306488037109e+00 -1.225789308547973633e+00
3.651000000000000000e+03 5.391461181640625000e+01 -6.927657127380371094e-01 4.282250404357910156e-01 5.950662136077880859e+00 1.913666129112243652e+00 -3.448645114898681641e+00
3.652000000000000000e+03 5.391996383666992188e+01 1.315110087394714355e+00 1.763955131173133850e-02 6.087060451507568359e+00 1.831410050392150879e+00 -2.811561346054077148e+00
3.653000000000000000e+03 5.386014175415039062e+01 2.222567796707153320e+00 -7.901418209075927734e-02 5.975621223449707031e+00 1.768982172012329102e+00 -2.587809085845947266e+00
3.654000000000000000e+03 5.964458465576171875e+01 -3.730237722396850586e+00 2.705148220062255859e+00 1.264566326141357422e+01 4.605243682861328125e+00 1.550796270370483398e+00
3.655000000000000000e+03 5.956469345092773438e+01 -3.138014078140258789e+00 1.870537042617797852e+00 1.269332313537597656e+01 4.369158267974853516e+00 1.322889208793640137e+00
3.656000000000000000e+03 5.376406860351562500e+01 -1.316537380218505859e+01 2.107742130756378174e-01 5.822476387023925781e+00 1.809975147247314453e+00 3.076313734054565430e+00
3.657000000000000000e+03 5.843536376953125000e+01 -1.083495140075683594e+01 2.895435318350791931e-02 1.264222145080566406e+01 3.801352739334106445e+00 1.816738992929458618e-01
3.658000000000000000e+03 5.788563919067382812e+01 -1.141428852081298828e+01 -4.388518333435058594e-01 1.204228401184082031e+01 3.481029748916625977e+00 1.039693593978881836e+00
3.659000000000000000e+03 5.461518478393554688e+01 -1.232977008819580078e+01 9.991021454334259033e-02 7.097844123840332031e+00 2.159326314926147461e+00 3.377151012420654297e+00
3.660000000000000000e+03 5.822945022583007812e+01 -1.245052337646484375e+00 -3.808268010616302490e-01 1.192513179779052734e+01 3.463291645050048828e+00 -7.346931099891662598e-01
3.661000000000000000e+03 5.879031372070312500e+01 -1.816892266273498535e+00 1.283910274505615234e-01 1.248705005645751953e+01 3.784632205963134766e+00 9.664285182952880859e-02
3.662000000000000000e+03 5.413257980346679688e+01 -1.300167369842529297e+01 1.242541000247001648e-01 6.315296173095703125e+00 1.931865096092224121e+00 3.130805730819702148e+00
3.663000000000000000e+03 5.502909469604492188e+01 -1.223295331001281738e+00 1.351642608642578125e-01 8.095202445983886719e+00 2.469110012054443359e+00 -3.635242462158203125e+00
3.664000000000000000e+03 5.543654632568359375e+01 -1.271340847015380859e+00 -4.889455810189247131e-02 8.923230171203613281e+00 2.662300825119018555e+00 -3.528867721557617188e+00
3.665000000000000000e+03 5.772710037231445312e+01 -1.466848254203796387e+00 -4.257299602031707764e-01 1.208123779296875000e+01 3.496652364730834961e+00 -1.221475243568420410e+00
3.666000000000000000e+03 5.738354873657226562e+01 -1.121143245697021484e+01 -4.712416231632232666e-01 1.201086997985839844e+01 3.461888313293457031e+00 1.615037918090820312e+00
3.667000000000000000e+03 6.486100006103515625e+01 -1.729463934898376465e+00 1.310489416122436523e+00 9.078729629516601562e+00 3.116765499114990234e+00 1.181507587432861328e+00
3.668000000000000000e+03 6.023139190673828125e+01 -4.087285518646240234e+00 3.382851600646972656e+00 1.187069606781005859e+01 4.576064109802246094e+00 1.575531363487243652e+00
3.669000000000000000e+03 6.448365020751953125e+01 -2.523875474929809570e+00 1.699838757514953613e+00 9.160818099975585938e+00 3.258197069168090820e+00 1.143757343292236328e+00
3.670000000000000000e+03 5.689012908935546875e+01 -5.684822797775268555e-01 -6.090444326400756836e-01 1.048964786529541016e+01 2.964181184768676758e+00 -2.097260475158691406e+00
3.671000000000000000e+03 5.835417175292968750e+01 -1.556008934974670410e+00 -2.168581336736679077e-01 1.232705116271972656e+01 3.633057832717895508e+00 -4.599631428718566895e-01
3.672000000000000000e+03 5.449641418457031250e+01 -1.962532997131347656e+00 6.949202418327331543e-01 7.011020660400390625e+00 2.311782360076904297e+00 -4.056279659271240234e+00
3.673000000000000000e+03 5.279838943481445312e+01 1.541684508323669434e+00 2.653381824493408203e-01 4.853575706481933594e+00 1.535674214363098145e+00 -2.659384965896606445e+00
3.674000000000000000e+03 5.234063720703125000e+01 1.891395449638366699e+00 2.914478182792663574e-01 4.485602855682373047e+00 1.433115243911743164e+00 -2.509143829345703125e+00
3.675000000000000000e+03 5.139389038085937500e+01 -1.582975006103515625e+01 2.958600223064422607e-01 3.868106126785278320e+00 1.249189853668212891e+00 2.195891618728637695e+00
3.676000000000000000e+03 5.309509277343750000e+01 2.105815410614013672e+00 1.140625774860382080e-01 5.223109245300292969e+00 1.601151585578918457e+00 -2.577895402908325195e+00
3.677000000000000000e+03 6.439749145507812500e+01 -4.169241905212402344e+00 2.449979305267333984e+00 9.021022796630859375e+00 3.441300630569458008e+00 8.631837368011474609e-01
3.678000000000000000e+03 5.173246002197265625e+01 -1.770959472656250000e+01 1.011923998594284058e-01 4.386001586914062500e+00 1.346158266067504883e+00 2.001057386398315430e+00
3.679000000000000000e+03 5.269563293457031250e+01 -1.554159355163574219e+01 1.233624964952468872e-01 4.928968906402587891e+00 1.515699505805969238e+00 2.432474374771118164e+00
3.680000000000000000e+03 6.263760757446289062e+01 -1.577815914154052734e+01 -4.726322591304779053e-01 9.312822341918945312e+00 2.652056932449340820e+00 -5.456079840660095215e-01
3.681000000000000000e+03 5.187846755981445312e+01 4.072700023651123047e+00 1.246006190776824951e-01 4.443128585815429688e+00 1.370318770408630371e+00 -2.085685968399047852e+00
3.682000000000000000e+03 5.117316055297851562e+01 4.588873863220214844e+00 1.815896779298782349e-01 4.000814914703369141e+00 1.254721403121948242e+00 -1.918547511100769043e+00
3.683000000000000000e+03 6.477584838867187500e+01 -3.526020526885986328e+00 2.098305463790893555e+00 8.955382347106933594e+00 3.316106319427490234e+00 9.589328169822692871e-01
3.684000000000000000e+03 6.425975799560546875e+01 -1.213910388946533203e+01 8.134709000587463379e-01 9.362751007080078125e+00 3.052866458892822266e+00 -1.223566889762878418e+00
3.685000000000000000e+03 6.498712921142578125e+01 -1.286146163940429688e+01 6.146479845046997070e-01 9.106000900268554688e+00 2.916194677352905273e+00 -1.196267962455749512e+00
3.686000000000000000e+03 6.223162460327148438e+01 5.668039321899414062e+00 -7.668414115905761719e-01 8.693147659301757812e+00 2.377891778945922852e+00 1.608437001705169678e-01
3.687000000000000000e+03 6.490411376953125000e+01 7.071909308433532715e-01 3.947600424289703369e-01 9.095130920410156250e+00 2.846967220306396484e+00 1.137489676475524902e+00
3.688000000000000000e+03 6.572238159179687500e+01 -1.066671752929687500e+01 1.378358364105224609e+00 8.758617401123046875e+00 3.041092872619628906e+00 -1.092653751373291016e+00
3.689000000000000000e+03 3.306898880004882812e+01 7.443298339843750000e+00 -1.165076866745948792e-01 3.194749951362609863e-01 6.089019775390625000e-02 4.511207938194274902e-01
3.690000000000000000e+03 5.224548721313476562e+01 -1.695718383789062500e+01 7.052075862884521484e-02 4.646976947784423828e+00 1.415249347686767578e+00 2.151846408843994141e+00
3.691000000000000000e+03 3.709067153930664062e+01 7.790281295776367188e+00 8.786198496818542480e-02 6.707387566566467285e-01 2.275802195072174072e-01 1.568759828805923462e-01
3.692000000000000000e+03 6.047876739501953125e+01 -3.797751426696777344e+00 2.975465536117553711e+00 1.159607982635498047e+01 4.371463775634765625e+00 1.540561556816101074e+00
3.693000000000000000e+03 5.012046432495117188e+01 -2.192967796325683594e+01 1.295594274997711182e-01 3.800119876861572266e+00 1.178903818130493164e+00 1.401035666465759277e+00
3.694000000000000000e+03 5.230131912231445312e+01 -2.127280807495117188e+01 -1.107156053185462952e-01 4.780918598175048828e+00 1.401060819625854492e+00 1.507129430770874023e+00
3.695000000000000000e+03 6.486360168457031250e+01 -6.129395961761474609e+00 2.724241971969604492e+00 8.726956367492675781e+00 3.435359477996826172e+00 8.843182772397994995e-02
3.696000000000000000e+03 4.910849380493164062e+01 5.432851314544677734e+00 3.289943933486938477e-01 3.070694684982299805e+00 1.019906759262084961e+00 -1.535543084144592285e+00
3.697000000000000000e+03 4.660266876220703125e+01 6.633209228515625000e+00 3.499374985694885254e-01 2.299684524536132812e+00 7.948865890502929688e-01 -1.060174226760864258e+00
3.698000000000000000e+03 6.132249450683593750e+01 6.262420177459716797e+00 -8.389352560043334961e-01 8.490919113159179688e+00 2.295594930648803711e+00 -9.210442751646041870e-02
3.699000000000000000e+03 4.431113433837890625e+01 8.226124763488769531e+00 3.245067596435546875e-01 1.872469544410705566e+00 6.590929031372070312e-01 -6.763315796852111816e-01
3.700000000000000000e+03 4.741938018798828125e+01 6.651885986328125000e+00 3.330603241920471191e-01 2.565573453903198242e+00 8.695901036262512207e-01 -1.196223020553588867e+00
3.701000000000000000e+03 6.523587799072265625e+01 -6.479501247406005859e+00 2.566435813903808594e+00 8.627924919128417969e+00 3.358308315277099609e+00 -2.337857335805892944e-02
3.702000000000000000e+03 6.081255722045898438e+01 -1.962769508361816406e+01 -8.510521650314331055e-01 8.259466171264648438e+00 2.222524166107177734e+00 2.436483651399612427e-01
3.703000000000000000e+03 6.177942657470703125e+01 -1.948760414123535156e+01 -8.148530125617980957e-01 8.383530616760253906e+00 2.270603179931640625e+00 -3.008217317983508110e-03
3.704000000000000000e+03 4.155720138549804688e+01 9.082845687866210938e+00 2.802439033985137939e-01 1.416809678077697754e+00 5.091160535812377930e-01 -3.520492315292358398e-01
3.705000000000000000e+03 4.824416732788085938e+01 5.620196819305419922e+00 3.586072921752929688e-01 2.697642087936401367e+00 9.168748259544372559e-01 -1.381962299346923828e+00
3.706000000000000000e+03 4.094938659667968750e+01 7.950338363647460938e+00 2.395009249448776245e-01 1.171694397926330566e+00 4.233585894107818604e-01 -2.369470149278640747e-01
3.707000000000000000e+03 3.659812164306640625e+01 1.014234066009521484e+01 1.102888658642768860e-01 8.171943426132202148e-01 2.782449424266815186e-01 9.890475124120712280e-02
3.708000000000000000e+03 6.043236160278320312e+01 -9.220360755920410156e+00 2.652874231338500977e+00 1.169085311889648438e+01 4.303118228912353516e+00 -1.536733865737915039e+00
3.709000000000000000e+03 3.812376022338867188e+01 8.094326972961425781e+00 1.391698271036148071e-01 8.071969151496887207e-01 2.839100062847137451e-01 5.080487579107284546e-02
3.710000000000000000e+03 6.423867034912109375e+01 -1.669115447998046875e+01 -4.117928147315979004e-01 8.907380104064941406e+00 2.548676013946533203e+00 -7.422397732734680176e-01
3.711000000000000000e+03 3.721806716918945312e+01 1.317197132110595703e+01 1.658015251159667969e-01 1.121023893356323242e+00 3.860476315021514893e-01 -5.307991057634353638e-02
3.712000000000000000e+03 6.155081176757812500e+01 9.306001663208007812e+00 -8.140578269958496094e-01 7.862470626831054688e+00 2.114523887634277344e+00 -1.358621269464492798e-01
3.713000000000000000e+03 3.005047225952148438e+01 1.880116844177246094e+01 5.056136846542358398e-02 5.010645985603332520e-01 1.654877811670303345e-01 7.398749142885208130e-02
3.714000000000000000e+03 6.036424255371093750e+01 6.794066905975341797e+00 -8.742870688438415527e-01 8.245186805725097656e+00 2.211269855499267578e+00 -3.515338599681854248e-01
3.715000000000000000e+03 6.311934661865234375e+01 5.028506755828857422e+00 -6.519567370414733887e-01 8.827082633972167969e+00 2.452537775039672852e+00 4.207627773284912109e-01
3.716000000000000000e+03 6.127714157104492188e+01 -2.136755180358886719e+01 -8.217443823814392090e-01 7.950215816497802734e+00 2.138541460037231445e+00 1.617866903543472290e-01
3.717000000000000000e+03 6.057740402221679688e+01 -2.323242187500000000e+01 -7.658348083496093750e-01 7.467434883117675781e+00 2.010479927062988281e+00 3.066744208335876465e-01
3.718000000000000000e+03 4.787779617309570312e+01 -2.330466270446777344e+01 2.833753824234008789e-01 3.129117727279663086e+00 1.023747920989990234e+00 1.099426984786987305e+00
3.719000000000000000e+03 4.619271469116210938e+01 -2.253682518005371094e+01 3.847895562648773193e-01 2.527114629745483398e+00 8.735712766647338867e-01 9.934837222099304199e-01
3.720000000000000000e+03 6.588661193847656250e+01 -2.688619041442871094e+01 -5.377355813980102539e-01 7.648061752319335938e+00 2.133097887039184570e+00 -2.935478389263153076e-01
3.721000000000000000e+03 5.951843643188476562e+01 1.202119636535644531e+01 -6.999161243438720703e-01 7.031622409820556641e+00 1.899511933326721191e+00 -4.576129913330078125e-01
3.722000000000000000e+03 5.911598587036132812e+01 1.044032764434814453e+01 -7.532002329826354980e-01 7.208292961120605469e+00 1.936527848243713379e+00 -5.694589018821716309e-01
3.723000000000000000e+03 5.115496444702148438e+01 -2.411804199218750000e+01 7.681830902583897114e-04 4.271251201629638672e+00 1.281605839729309082e+00 1.237134099006652832e+00
3.724000000000000000e+03 6.074092483520507812e+01 1.548838615417480469e+01 -5.745458602905273438e-01 6.842427253723144531e+00 1.880364418029785156e+00 -2.405790537595748901e-01
3.725000000000000000e+03 3.275290298461914062e+01 -2.683528900146484375e+01 4.345247447490692139e-01 5.407394766807556152e-01 2.925792634487152100e-01 -1.077807173132896423e-01
3.726000000000000000e+03 3.435332107543945312e+01 -2.249844169616699219e+01 2.881122231483459473e-01 4.669979810714721680e-01 2.265330553054809570e-01 -1.392273455858230591e-01
3.727000000000000000e+03 7.131282806396484375e+01 2.417778015136718750e+01 -1.430131644010543823e-01 7.780063152313232422e+00 2.291115045547485352e+00 1.377391070127487183e-01
3.728000000000000000e+03 6.055855560302734375e+01 -6.814714908599853516e+00 5.301024913787841797e+00 1.097987461090087891e+01 4.884269714355468750e+00 -4.543750286102294922e-01
3.729000000000000000e+03 6.037849807739257812e+01 -8.420790672302246094e+00 3.719502449035644531e+00 1.157706069946289062e+01 4.588968753814697266e+00 -1.489726305007934570e+00
3.730000000000000000e+03 6.571630096435546875e+01 -6.675206184387207031e+00 2.348628282546997070e+00 8.473493576049804688e+00 3.246636629104614258e+00 -9.209588915109634399e-02
3.731000000000000000e+03 6.011996841430664062e+01 -4.596154212951660156e+00 4.186761379241943359e+00 1.187492847442626953e+01 4.818507194519042969e+00 1.533139586448669434e+00
3.732000000000000000e+03 6.357067108154296875e+01 -6.472887992858886719e-01 7.868672013282775879e-01 9.610437393188476562e+00 3.119191408157348633e+00 1.194548249244689941e+00
3.733000000000000000e+03 5.349596786499023438e+01 -1.449278068542480469e+01 6.735275685787200928e-02 5.592067241668701172e+00 1.697826027870178223e+00 2.710492849349975586e+00
3.734000000000000000e+03 5.506189727783203125e+01 -1.192576503753662109e+01 1.875538378953933716e-02 8.036568641662597656e+00 2.416597127914428711e+00 3.498098373413085938e+00
3.735000000000000000e+03 5.461277389526367188e+01 -1.195298910140991211e+00 3.367404639720916748e-01 7.142190456390380859e+00 2.243679285049438477e+00 -3.691067934036254883e+00
3.736000000000000000e+03 5.970320129394531250e+01 -9.420719146728515625e+00 2.219818830490112305e+00 1.252179241180419922e+01 4.422483444213867188e+00 -1.440198540687561035e+00
3.737000000000000000e+03 5.936940002441406250e+01 -1.029421234130859375e+01 9.568700790405273438e-01 1.249968624114990234e+01 4.036966800689697266e+00 -8.435193300247192383e-01
3.738000000000000000e+03 6.137406158447265625e+01 -5.183326244354248047e+00 4.186705589294433594e+00 1.045118999481201172e+01 4.391368865966796875e+00 9.000504016876220703e-01
3.739000000000000000e+03 5.653903579711914062e+01 -3.931461870670318604e-01 -5.845675468444824219e-01 9.933799743652343750e+00 2.804769515991210938e+00 -2.376917600631713867e+00
3.740000000000000000e+03 5.706425094604492188e+01 -1.485533714294433594e-01 -6.743983626365661621e-01 1.031380176544189453e+01 2.891820907592773438e+00 -1.907950043678283691e+00
3.741000000000000000e+03 5.885104370117187500e+01 -2.194743394851684570e+00 4.669269919395446777e-01 1.275025272369384766e+01 3.965153932571411133e+00 3.510120213031768799e-01
3.742000000000000000e+03 5.618439102172851562e+01 -1.161257934570312500e+01 -3.871852457523345947e-01 1.017510223388671875e+01 2.936375141143798828e+00 2.918145656585693359e+00
3.743000000000000000e+03 5.679818725585937500e+01 -1.147900485992431641e+01 -5.283414125442504883e-01 1.113001537322998047e+01 3.180501937866210938e+00 2.337487220764160156e+00
3.744000000000000000e+03 5.552785491943359375e+01 -1.205983257293701172e+01 -2.166536599397659302e-01 8.679430961608886719e+00 2.538833141326904297e+00 3.180475473403930664e+00
3.745000000000000000e+03 5.438145065307617188e+01 -1.348664093017578125e+01 -4.921173676848411560e-02 6.688353061676025391e+00 1.991742372512817383e+00 2.980109930038452148e+00
3.746000000000000000e+03 6.155213165283203125e+01 -6.321476936340332031e+00 4.510731697082519531e+00 1.018474578857421875e+01 4.408643245697021484e+00 5.613382160663604736e-02
3.747000000000000000e+03 5.868701171875000000e+01 4.987288951873779297e+00 -8.827579021453857422e-01 8.368022918701171875e+00 2.245579481124877930e+00 -8.433293104171752930e-01
3.748000000000000000e+03 5.296537780761718750e+01 7.186752557754516602e-01 3.649023473262786865e-01 4.866306781768798828e+00 1.569362759590148926e+00 -2.870477676391601562e+00
3.749000000000000000e+03 5.366945266723632812e+01 8.526629209518432617e-02 3.319376409053802490e-01 5.737748622894287109e+00 1.820905923843383789e+00 -3.160254240036010742e+00
3.750000000000000000e+03 6.396498489379882812e+01 -4.730907917022705078e+00 2.762321233749389648e+00 9.121588706970214844e+00 3.565172910690307617e+00 7.135789394378662109e-01
3.751000000000000000e+03 6.125291824340820312e+01 -5.912021160125732422e+00 4.689422130584716797e+00 1.042241859436035156e+01 4.533552169799804688e+00 3.795531392097473145e-01
3.752000000000000000e+03 5.931497192382812500e+01 -2.554715156555175781e+00 1.014249682426452637e+00 1.261722183227539062e+01 4.089441299438476562e+00 8.697618246078491211e-01
3.753000000000000000e+03 5.550389099121093750e+01 -6.920571327209472656e-01 -2.086579203605651855e-01 8.709110260009765625e+00 2.550135612487792969e+00 -3.174992322921752930e+00
3.754000000000000000e+03 5.397161483764648438e+01 -1.373258876800537109e+01 3.405374661087989807e-02 6.117353916168212891e+00 1.845422267913818359e+00 2.900620937347412109e+00
3.755000000000000000e+03 5.427557754516601562e+01 -1.422503757476806641e+01 -1.067652106285095215e-01 6.420983791351318359e+00 1.894265532493591309e+00 2.774356365203857422e+00
3.756000000000000000e+03 5.302180099487304688e+01 -1.737957191467285156e+01 -8.924964070320129395e-02 5.230661392211914062e+00 1.542423486709594727e+00 2.107966423034667969e+00
3.757000000000000000e+03 5.228782272338867188e+01 4.797178745269775391e+00 -5.038434639573097229e-03 4.784648418426513672e+00 1.433883070945739746e+00 -1.999007821083068848e+00
3.758000000000000000e+03 5.247367477416992188e+01 3.595439910888671875e+00 7.074880599975585938e-02 4.829776763916015625e+00 1.470157742500305176e+00 -2.224000453948974609e+00
3.759000000000000000e+03 6.411019134521484375e+01 -1.522881150245666504e+00 1.234083056449890137e+00 9.383385658264160156e+00 3.185240745544433594e+00 1.236130237579345703e+00
3.760000000000000000e+03 6.381430053710937500e+01 -3.850021839141845703e+00 2.449553966522216797e+00 9.278629302978515625e+00 3.518455028533935547e+00 1.006909251213073730e+00
3.761000000000000000e+03 6.572994995117187500e+01 -9.536546707153320312e+00 1.750542879104614258e+00 8.673942565917968750e+00 3.127345800399780273e+00 -9.351213574409484863e-01
3.762000000000000000e+03 6.375188064575195312e+01 -1.527997398376464844e+01 -2.237213551998138428e-01 9.204310417175292969e+00 2.694176912307739258e+00 -8.349953889846801758e-01
3.763000000000000000e+03 5.186804962158203125e+01 -1.933656692504882812e+01 9.453915059566497803e-03 4.537250518798828125e+00 1.364011406898498535e+00 1.784537076950073242e+00
3.764000000000000000e+03 5.421977996826171875e+01 -2.058213806152343750e+01 -3.601792752742767334e-01 5.753413677215576172e+00 1.617970347404479980e+00 1.510999321937561035e+00
3.765000000000000000e+03 6.436633300781250000e+01 -6.358928680419921875e-01 8.196549415588378906e-01 9.299699783325195312e+00 3.035806417465209961e+00 1.207944512367248535e+00
3.766000000000000000e+03 6.000661087036132812e+01 -3.231171131134033203e+00 2.227209091186523438e+00 1.217802333831787109e+01 4.321569442749023438e+00 1.467745184898376465e+00
3.767000000000000000e+03 6.249435043334960938e+01 1.443082332611083984e+00 -1.603880226612091064e-01 9.689340591430664062e+00 2.858685731887817383e+00 7.437374591827392578e-01
3.768000000000000000e+03 6.343648529052734375e+01 8.754845261573791504e-01 1.749776154756546021e-01 9.490717887878417969e+00 2.899708509445190430e+00 1.010910034179687500e+00
3.769000000000000000e+03 6.414826965332031250e+01 -3.223640918731689453e+00 2.085681438446044922e+00 9.225937843322753906e+00 3.393485784530639648e+00 1.094943165779113770e+00
3.770000000000000000e+03 6.208871841430664062e+01 3.262251615524291992e+00 -5.768146514892578125e-01 9.299240112304687500e+00 2.616727590560913086e+00 3.793570399284362793e-01
3.771000000000000000e+03 6.257903289794921875e+01 4.103281974792480469e+00 -6.234546303749084473e-01 9.070863723754882812e+00 2.534222602844238281e+00 3.898133635520935059e-01
3.772000000000000000e+03 6.480614471435546875e+01 -1.060185241699218750e+01 1.525717258453369141e+00 9.072534561157226562e+00 3.179475545883178711e+00 -1.180994510650634766e+00
3.773000000000000000e+03 6.413182830810546875e+01 -1.355356216430664062e+01 3.042879700660705566e-01 9.332001686096191406e+00 2.890886783599853516e+00 -1.090386271476745605e+00
3.774000000000000000e+03 5.046577453613281250e+01 5.273223400115966797e+00 2.224658578634262085e-01 3.683719396591186523e+00 1.171855568885803223e+00 -1.736639857292175293e+00
3.775000000000000000e+03 4.833913803100585938e+01 6.631267070770263672e+00 2.975418865680694580e-01 2.867295980453491211e+00 9.494513869285583496e-01 -1.344080328941345215e+00
3.776000000000000000e+03 6.104871368408203125e+01 -6.602701187133789062e+00 4.903594493865966797e+00 1.056628131866455078e+01 4.640962600708007812e+00 -1.982737034559249878e-01
3.777000000000000000e+03 6.469313812255859375e+01 -5.650167465209960938e+00 2.660099029541015625e+00 8.792173385620117188e+00 3.435681581497192383e+00 2.825723588466644287e-01
3.778000000000000000e+03 5.962495422363281250e+01 -1.771198463439941406e+01 -8.762845993041992188e-01 8.660289764404296875e+00 2.335201740264892578e+00 5.385947227478027344e-01
3.779000000000000000e+03 4.932600402832031250e+01 6.394694805145263672e+00 2.406875938177108765e-01 3.280772447586059570e+00 1.056437969207763672e+00 -1.484061717987060547e+00
3.780000000000000000e+03 4.337789535522460938e+01 9.170024871826171875e+00 3.093888759613037109e-01 1.784486174583435059e+00 6.281625032424926758e-01 -5.709865689277648926e-01
3.781000000000000000e+03 4.238064575195312500e+01 1.019586181640625000e+01 2.822036743164062500e-01 1.706442356109619141e+00 5.965937972068786621e-01 -4.628214836120605469e-01
3.782000000000000000e+03 6.522585296630859375e+01 -1.108970546722412109e+01 1.286345481872558594e+00 8.955824851989746094e+00 3.072650909423828125e+00 -1.171982407569885254e+00
3.783000000000000000e+03 4.677268600463867188e+01 8.788525581359863281e+00 2.795855104923248291e-01 2.681057214736938477e+00 8.881928324699401855e-01 -1.041648149490356445e+00
3.784000000000000000e+03 3.987527847290039062e+01 8.392802238464355469e+00 2.119403481483459473e-01 1.053859829902648926e+00 3.797400295734405518e-01 -1.242170855402946472e-01
3.785000000000000000e+03 6.544748687744140625e+01 -7.367745399475097656e+00 2.369030952453613281e+00 8.577459335327148438e+00 3.283947229385375977e+00 -3.595269322395324707e-01
3.786000000000000000e+03 3.807448196411132812e+01 -2.255510902404785156e+01 3.877207934856414795e-01 8.578034043312072754e-01 3.736572563648223877e-01 1.312299519777297974e-01
3.787000000000000000e+03 4.452102279663085938e+01 -2.734137535095214844e+01 4.117702543735504150e-01 2.440995216369628906e+00 8.558295965194702148e-01 6.456966400146484375e-01
3.788000000000000000e+03 6.033379745483398438e+01 -2.187273406982421875e+01 -8.030219674110412598e-01 7.659919738769531250e+00 2.057069301605224609e+00 3.757522702217102051e-01
3.789000000000000000e+03 6.429080200195312500e+01 -1.878265380859375000e+01 -6.071802377700805664e-01 8.583410263061523438e+00 2.392868995666503906e+00 -5.532096624374389648e-01
3.790000000000000000e+03 6.191364288330078125e+01 7.383953094482421875e+00 -8.234884142875671387e-01 8.290110588073730469e+00 2.239986658096313477e+00 -6.764370482414960861e-03
3.791000000000000000e+03 4.903268051147460938e+01 4.016620159149169922e+00 3.874249160289764404e-01 2.655018568038940430e+00 9.127330183982849121e-01 -1.573599338531494141e+00
3.792000000000000000e+03 5.923975753784179688e+01 -2.193077850341796875e+01 -7.857301235198974609e-01 7.453844070434570312e+00 2.000434160232543945e+00 5.690147280693054199e-01
3.793000000000000000e+03 5.922240829467773438e+01 -2.358714294433593750e+01 -7.292996048927307129e-01 7.132015705108642578e+00 1.920814871788024902e+00 5.411008000373840332e-01
3.794000000000000000e+03 3.885411453247070312e+01 8.914203643798828125e+00 1.836123317480087280e-01 9.590813517570495605e-01 3.428080976009368896e-01 -4.611628130078315735e-02
3.795000000000000000e+03 3.490413665771484375e+01 1.084783935546875000e+01 6.104175746440887451e-02 6.992425322532653809e-01 2.280852794647216797e-01 1.814570873975753784e-01
3.796000000000000000e+03 5.922316741943359375e+01 1.616804122924804688e+01 -5.192299485206604004e-01 6.514611244201660156e+00 1.798614263534545898e+00 -3.724153935909271240e-01
3.797000000000000000e+03 3.923685455322265625e+01 1.034048461914062500e+01 2.134280800819396973e-01 1.172033548355102539e+00 4.156384766101837158e-01 -1.351955533027648926e-01
3.798000000000000000e+03 3.789459991455078125e+01 9.143465995788574219e+00 1.522736549377441406e-01 8.883658051490783691e-01 3.121918439865112305e-01 3.088580630719661713e-02
3.799000000000000000e+03 4.617789077758789062e+01 9.715135574340820312e+00 2.641034126281738281e-01 2.602638244628906250e+00 8.600224852561950684e-01 -9.196406006813049316e-01
3.800000000000000000e+03 4.518987274169921875e+01 9.096815109252929688e+00 3.070196211338043213e-01 2.264899015426635742e+00 7.715755701065063477e-01 -8.081998825073242188e-01
3.801000000000000000e+03 5.982262802124023438e+01 8.561972618103027344e+00 -8.393782973289489746e-01 7.717619895935058594e+00 2.063472509384155273e+00 -4.848344326019287109e-01
3.802000000000000000e+03 3.413601684570312500e+01 8.361640930175781250e+00 -2.960315346717834473e-02 4.745146632194519043e-01 1.334734559059143066e-01 3.399296402931213379e-01
3.803000000000000000e+03 6.090344619750976562e+01 8.014389038085937500e+00 -8.509732484817504883e-01 8.032476425170898438e+00 2.154451131820678711e+00 -2.462058067321777344e-01
3.804000000000000000e+03 5.389501190185546875e+01 3.272676706314086914e+00 -1.894863247871398926e-01 5.977135181427001953e+00 1.736294746398925781e+00 -2.310914278030395508e+00
3.805000000000000000e+03 6.031120300292968750e+01 -2.792811584472656250e+01 -5.784726738929748535e-01 6.830766677856445312e+00 1.875688195228576660e+00 2.681728005409240723e-01
3.806000000000000000e+03 2.941147994995117188e+01 -2.558416175842285156e+01 3.044363558292388916e-01 2.527416646480560303e-01 1.671534031629562378e-01 -2.472109347581863403e-01
3.807000000000000000e+03 3.768966293334960938e+01 -2.477635002136230469e+01 4.642039835453033447e-01 9.831332564353942871e-01 4.342011809349060059e-01 1.289521753787994385e-01
3.808000000000000000e+03 6.541947174072265625e+01 -3.299496841430664062e+01 -3.854821324348449707e-01 7.172852516174316406e+00 2.036211013793945312e+00 -1.067348048090934753e-01
3.809000000000000000e+03 3.652112579345703125e+01 -2.710968399047851562e+01 5.095234513282775879e-01 9.625098705291748047e-01 4.416100084781646729e-01 8.906146883964538574e-02
3.810000000000000000e+03 5.741108322143554688e+01 -3.048005402088165283e-01 -6.748142242431640625e-01 1.070897579193115234e+01 3.010248422622680664e+00 -1.635358333587646484e+00
3.811000000000000000e+03 6.516535949707031250e+01 -1.006768608093261719e+01 1.683943748474121094e+00 8.899692535400390625e+00 3.175090789794921875e+00 -1.076680064201354980e+00
3.812000000000000000e+03 5.530482864379882812e+01 -1.228043651580810547e+01 -1.866455525159835815e-01 8.342803001403808594e+00 2.446847438812255859e+00 3.220222234725952148e+00
3.813000000000000000e+03 5.980189895629882812e+01 -9.794588088989257812e+00 1.731637120246887207e+00 1.235064125061035156e+01 4.224683761596679688e+00 -1.317221522331237793e+00
3.814000000000000000e+03 5.507136535644531250e+01 -6.819974780082702637e-01 -3.372368589043617249e-02 7.987189769744873047e+00 2.386039733886718750e+00 -3.379658460617065430e+00
3.815000000000000000e+03 6.008547210693359375e+01 -8.948219299316406250e+00 3.018297672271728516e+00 1.206626319885253906e+01 4.525368213653564453e+00 -1.587085247039794922e+00
3.816000000000000000e+03 5.912755966186523438e+01 -3.009256601333618164e+00 1.436186552047729492e+00 1.310729026794433594e+01 4.363042831420898438e+00 1.053970813751220703e+00
3.817000000000000000e+03 5.835349655151367188e+01 -1.166292953491210938e+01 -3.735488355159759521e-01 1.186709785461425781e+01 3.448064804077148438e+00 6.157443523406982422e-01
3.818000000000000000e+03 6.021586990356445312e+01 -3.648928165435791016e+00 2.716682195663452148e+00 1.191999149322509766e+01 4.391002178192138672e+00 1.541240811347961426e+00
3.819000000000000000e+03 6.285147094726562500e+01 -4.397201165556907654e-02 4.588877856731414795e-01 9.831356048583984375e+00 3.087073087692260742e+00 1.075161337852478027e+00
3.820000000000000000e+03 5.758136367797851562e+01 -8.886436820030212402e-01 -5.823556780815124512e-01 1.132768630981445312e+01 3.223598957061767578e+00 -1.455610036849975586e+00
3.821000000000000000e+03 5.633916091918945312e+01 7.780923843383789062e-01 -6.112331151962280273e-01 8.975900650024414062e+00 2.509400367736816406e+00 -2.287070989608764648e+00
3.822000000000000000e+03 6.203622817993164062e+01 -2.925515651702880859e+00 2.114671945571899414e+00 1.036708354949951172e+01 3.744526624679565430e+00 1.362971305847167969e+00
3.823000000000000000e+03 5.813255310058593750e+01 -5.670092701911926270e-01 -5.546963810920715332e-01 1.127232646942138672e+01 3.215288877487182617e+00 -9.626327157020568848e-01
3.824000000000000000e+03 5.921801376342773438e+01 -1.111369800567626953e+01 2.328959554433822632e-01 1.213605022430419922e+01 3.710683822631835938e+00 -3.476275205612182617e-01
3.825000000000000000e+03 6.066403198242187500e+01 -7.139026165008544922e+00 4.993862628936767578e+00 1.094448566436767578e+01 4.781504631042480469e+00 -7.063841819763183594e-01
3.826000000000000000e+03 6.132774734497070312e+01 -7.009569168090820312e+00 4.549896240234375000e+00 1.039908123016357422e+01 4.484693527221679688e+00 -4.945104718208312988e-01
3.827000000000000000e+03 5.389377593994140625e+01 -2.959097027778625488e-01 3.309950232505798340e-01 5.996447086334228516e+00 1.898232579231262207e+00 -3.307127237319946289e+00
3.828000000000000000e+03 5.463239669799804688e+01 -1.396448040008544922e+01 -1.886241137981414795e-01 6.913247585296630859e+00 2.017386913299560547e+00 2.821983575820922852e+00
3.829000000000000000e+03 5.721934127807617188e+01 -1.174763011932373047e+01 -5.902105569839477539e-01 1.120461368560791016e+01 3.184320926666259766e+00 1.822990298271179199e+00
3.830000000000000000e+03 6.046567535400390625e+01 -4.319790840148925781e+00 3.684244632720947266e+00 1.151181221008300781e+01 4.558816909790039062e+00 1.485659837722778320e+00
3.831000000000000000e+03 5.446214294433593750e+01 -1.283114051818847656e+01 5.216112732887268066e-02 6.798084259033203125e+00 2.055073499679565430e+00 3.177791118621826172e+00
3.832000000000000000e+03 5.495166778564453125e+01 -1.301107406616210938e+01 -1.615423411130905151e-01 7.545579433441162109e+00 2.215211153030395508e+00 3.090059518814086914e+00
3.833000000000000000e+03 6.072707748413085938e+01 -7.688880443572998047e+00 4.506136894226074219e+00 1.102804183959960938e+01 4.660253524780273438e+00 -1.089201331138610840e+00
3.834000000000000000e+03 6.402901458740234375e+01 -6.230151653289794922e+00 3.039253950119018555e+00 8.993620872497558594e+00 3.609862565994262695e+00 7.373185455799102783e-02
3.835000000000000000e+03 5.263507080078125000e+01 2.507706165313720703e+00 1.645182520151138306e-01 4.846296310424804688e+00 1.503244280815124512e+00 -2.443977355957031250e+00
3.836000000000000000e+03 5.437278366088867188e+01 1.856610029935836792e-01 6.899511069059371948e-02 6.731817722320556641e+00 2.040243864059448242e+00 -3.148453712463378906e+00
3.837000000000000000e+03 5.421346664428710938e+01 1.796370506286621094e+00 -1.203499063849449158e-01 6.384144783020019531e+00 1.879138469696044922e+00 -2.653295993804931641e+00
3.838000000000000000e+03 6.398626327514648438e+01 -1.437859630584716797e+01 3.477458655834197998e-02 9.287053108215332031e+00 2.796548366546630859e+00 -9.822906255722045898e-01
3.839000000000000000e+03 6.281957626342773438e+01 -1.716361808776855469e+01 -6.164743304252624512e-01 8.976209640502929688e+00 2.507920742034912109e+00 -4.268622100353240967e-01
3.840000000000000000e+03 5.345306015014648438e+01 2.682879447937011719e+00 -2.790373936295509338e-02 5.598044395446777344e+00 1.671042203903198242e+00 -2.465416669845581055e+00
3.841000000000000000e+03 5.254977416992187500e+01 -1.832668495178222656e+01 -5.391452461481094360e-02 4.908976078033447266e+00 1.456518411636352539e+00 1.944264173507690430e+00
3.842000000000000000e+03 5.332983398437500000e+01 -1.567405319213867188e+01 -2.240650169551372528e-02 5.503892421722412109e+00 1.644445776939392090e+00 2.437058925628662109e+00
3.843000000000000000e+03 5.333982849121093750e+01 -1.507619762420654297e+01 3.954459354281425476e-02 5.462317943572998047e+00 1.650558710098266602e+00 2.600247144699096680e+00
3.844000000000000000e+03 6.328598785400390625e+01 -1.418699073791503906e+01 -4.794689361006021500e-03 9.492721557617187500e+00 2.846378087997436523e+00 -9.114975333213806152e-01
3.845000000000000000e+03 6.354518127441406250e+01 9.441946446895599365e-02 4.849443733692169189e-01 9.561985969543457031e+00 3.014079093933105469e+00 1.115065574645996094e+00
3.846000000000000000e+03 5.273554992675781250e+01 5.561699867248535156e+00 -1.167259663343429565e-01 5.125602722167968750e+00 1.502663016319274902e+00 -1.889986395835876465e+00
3.847000000000000000e+03 5.289183044433593750e+01 4.300471782684326172e+00 -7.051332294940948486e-02 5.183533668518066406e+00 1.533906102180480957e+00 -2.118402957916259766e+00
3.848000000000000000e+03 6.100704193115234375e+01 -3.553915500640869141e+00 2.670611143112182617e+00 1.113195610046386719e+01 4.140770435333251953e+00 1.465943574905395508e+00
3.849000000000000000e+03 6.440954589843750000e+01 -6.546350002288818359e+00 2.892195224761962891e+00 8.855757713317871094e+00 3.524385929107666016e+00 -7.482127100229263306e-02
3.850000000000000000e+03 6.401323699951171875e+01 -5.432913780212402344e+00 2.925122022628784180e+00 9.034733772277832031e+00 3.587956666946411133e+00 4.080789983272552490e-01
3.851000000000000000e+03 6.174610137939453125e+01 2.567995309829711914e+00 -5.120462775230407715e-01 9.512052536010742188e+00 2.700001955032348633e+00 3.824461102485656738e-01
3.852000000000000000e+03 6.168848800659179688e+01 4.662311553955078125e+00 -7.622911334037780762e-01 8.920355796813964844e+00 2.447419404983520508e+00 1.021175682544708252e-01
3.853000000000000000e+03 6.183206558227539062e+01 1.330535173416137695e+00 -2.317159771919250488e-01 9.910142898559570312e+00 2.903527975082397461e+00 6.113198995590209961e-01
3.854000000000000000e+03 5.023180770874023438e+01 6.172873497009277344e+00 1.854463815689086914e-01 3.661272048950195312e+00 1.154015541076660156e+00 -1.634739875793457031e+00
3.855000000000000000e+03 5.049621963500976562e+01 7.160876750946044922e+00 9.581655263900756836e-02 3.914141416549682617e+00 1.202987432479858398e+00 -1.554809689521789551e+00
3.856000000000000000e+03 5.181489944458007812e+01 7.455318450927734375e+00 -7.620769739151000977e-02 4.631691455841064453e+00 1.366645097732543945e+00 -1.607888579368591309e+00
3.857000000000000000e+03 5.162627029418945312e+01 5.317648887634277344e+00 6.825599074363708496e-02 4.395797729492187500e+00 1.339216113090515137e+00 -1.858348488807678223e+00
3.858000000000000000e+03 5.978778076171875000e+01 -1.940080070495605469e+01 -8.731762766838073730e-01 8.154490470886230469e+00 2.184394121170043945e+00 5.029755830764770508e-01
3.859000000000000000e+03 6.050852966308593750e+01 -2.074230003356933594e+01 -8.448950648307800293e-01 7.969500541687011719e+00 2.137381553649902344e+00 3.282404839992523193e-01
3.860000000000000000e+03 5.330579757690429688e+01 -1.645779418945312500e+01 -9.110937267541885376e-02 5.450716495513916016e+00 1.607882022857666016e+00 2.280920267105102539e+00
3.861000000000000000e+03 4.728819656372070312e+01 1.125107955932617188e+01 1.805528253316879272e-01 3.071496009826660156e+00 9.756146669387817383e-01 -9.684825539588928223e-01
3.862000000000000000e+03 4.730891799926757812e+01 7.801553726196289062e+00 2.865975499153137207e-01 2.694481372833251953e+00 8.943236470222473145e-01 -1.136563897132873535e+00
3.863000000000000000e+03 6.485816192626953125e+01 -6.962455272674560547e+00 2.698807477951049805e+00 8.756681442260742188e+00 3.436646699905395508e+00 -2.259880006313323975e-01
3.864000000000000000e+03 6.077305603027343750e+01 -8.054557800292968750e+00 4.082084178924560547e+00 1.109860038757324219e+01 4.554205417633056641e+00 -1.291506528854370117e+00
3.865000000000000000e+03 6.385252761840820312e+01 -1.138988971710205078e+01 1.157390594482421875e+00 9.478037834167480469e+00 3.190628528594970703e+00 -1.234276890754699707e+00
3.866000000000000000e+03 6.360536575317382812e+01 -1.783867263793945312e+01 -6.008551120758056641e-01 8.778817176818847656e+00 2.453388690948486328e+00 -5.260704159736633301e-01
3.867000000000000000e+03 6.128498458862304688e+01 -1.869705200195312500e+01 -8.372160792350769043e-01 8.569925308227539062e+00 2.319812774658203125e+00 1.001377776265144348e-01
3.868000000000000000e+03 5.366379165649414062e+01 -2.194686889648437500e+01 -2.818126380443572998e-01 5.382137775421142578e+00 1.530097603797912598e+00 1.380982160568237305e+00
3.869000000000000000e+03 4.440958404541015625e+01 1.018129348754882812e+01 2.894998192787170410e-01 2.155949115753173828e+00 7.336347103118896484e-01 -6.908590197563171387e-01
3.870000000000000000e+03 4.046815872192382812e+01 9.753517150878906250e+00 2.468358576297760010e-01 1.320507407188415527e+00 4.702029824256896973e-01 -2.481591552495956421e-01
3.871000000000000000e+03 3.788726425170898438e+01 1.046705055236816406e+01 1.683366894721984863e-01 9.917048215866088867e-01 3.480124473571777344e-01 -1.668562740087509155e-02
3.872000000000000000e+03 3.752223205566406250e+01 1.181105804443359375e+01 1.824941635131835938e-01 1.060109853744506836e+00 3.727812170982360840e-01 -4.165704548358917236e-02
3.873000000000000000e+03 6.270412063598632812e+01 -1.875436401367187500e+01 -7.423652410507202148e-01 8.595450401306152344e+00 2.355925559997558594e+00 -2.483383864164352417e-01
3.874000000000000000e+03 3.319252777099609375e+01 8.689907073974609375e+00 -6.975898146629333496e-02 4.079905450344085693e-01 1.014694720506668091e-01 3.910244703292846680e-01
3.875000000000000000e+03 4.340433883666992188e+01 1.134833812713623047e+01 2.787249982357025146e-01 2.035149097442626953e+00 6.941621899604797363e-01 -5.845029354095458984e-01
3.876000000000000000e+03 5.946052551269531250e+01 -2.057833099365234375e+01 -8.362549543380737305e-01 7.789036273956298828e+00 2.085834503173828125e+00 5.679819583892822266e-01
3.877000000000000000e+03 5.589401626586914062e+01 -2.485384368896484375e+01 -4.567582607269287109e-01 5.957904815673828125e+00 1.650343894958496094e+00 8.715202808380126953e-01
3.878000000000000000e+03 6.036774063110351562e+01 9.949035644531250000e+00 -7.964959740638732910e-01 7.548036098480224609e+00 2.025461912155151367e+00 -3.550378680229187012e-01
3.879000000000000000e+03 5.862633895874023438e+01 1.451555252075195312e+01 -5.716747045516967773e-01 6.525174140930175781e+00 1.786049723625183105e+00 -4.890553951263427734e-01
3.880000000000000000e+03 5.752629089355468750e+01 9.376142501831054688e+00 -7.126218080520629883e-01 6.932434558868408203e+00 1.865943908691406250e+00 -8.763371109962463379e-01
3.881000000000000000e+03 4.197549819946289062e+01 -2.384417343139648438e+01 4.679878652095794678e-01 1.624963283538818359e+00 6.278853416442871094e-01 5.016951560974121094e-01
3.882000000000000000e+03 4.361038589477539062e+01 -2.259178161621093750e+01 4.523434042930603027e-01 1.796133875846862793e+00 6.745432019233703613e-01 6.964693069458007812e-01
3.883000000000000000e+03 4.305385589599609375e+01 -2.566471481323242188e+01 4.678456485271453857e-01 1.985084295272827148e+00 7.358790040016174316e-01 5.804126262664794922e-01
3.884000000000000000e+03 5.741442871093750000e+01 1.524839019775390625e+01 -4.886875450611114502e-01 6.188995838165283203e+00 1.710092425346374512e+00 -5.701584815979003906e-01
3.885000000000000000e+03 4.569725036621093750e+01 1.105008220672607422e+01 2.464035302400588989e-01 2.603581190109252930e+00 8.549954295158386230e-01 -8.221322298049926758e-01
3.886000000000000000e+03 5.755747604370117188e+01 -2.566363525390625000e+01 -5.514726042747497559e-01 6.435350418090820312e+00 1.765163302421569824e+00 6.247031092643737793e-01
3.887000000000000000e+03 3.983705139160156250e+01 1.189868640899658203e+01 2.383314669132232666e-01 1.421097993850708008e+00 4.978288412094116211e-01 -2.330134510993957520e-01
3.888000000000000000e+03 5.657639694213867188e+01 -2.783205604553222656e+01 -4.142660498619079590e-01 5.954281806945800781e+00 1.662004828453063965e+00 6.108128428459167480e-01
3.889000000000000000e+03 7.230033111572265625e+01 -3.601230239868164062e+01 -1.501272022724151611e-01 7.920503139495849609e+00 2.331112861633300781e+00 -1.598963886499404907e-01
3.890000000000000000e+03 6.988343048095703125e+01 3.211691665649414062e+01 -7.291626930236816406e-02 7.495799064636230469e+00 2.226864814758300781e+00 3.217184171080589294e-02
3.891000000000000000e+03 6.270003509521484375e+01 2.125029182434082031e+01 -3.565108180046081543e-01 6.737551212310791016e+00 1.914312124252319336e+00 -6.566597521305084229e-02
3.892000000000000000e+03 5.808945083618164062e+01 1.852370452880859375e+01 -4.103228747844696045e-01 6.077518939971923828e+00 1.700158715248107910e+00 -4.210819303989410400e-01
3.893000000000000000e+03 6.647702026367187500e+01 2.331583404541015625e+01 -2.531438469886779785e-01 7.208180427551269531e+00 2.086510896682739258e+00 6.981892138719558716e-02
3.894000000000000000e+03 6.176571655273437500e+01 -5.554221153259277344e+00 4.166430950164794922e+00 1.008682346343994141e+01 4.275976181030273438e+00 5.897350311279296875e-01
3.895000000000000000e+03 5.931802368164062500e+01 -2.102066040039062500e+00 6.306601166725158691e-01 1.232112979888916016e+01 3.885537147521972656e+00 6.401378512382507324e-01
3.896000000000000000e+03 5.872937774658203125e+01 -1.129393482208251953e+01 -8.836676180362701416e-02 1.213537406921386719e+01 3.614102125167846680e+00 1.555153429508209229e-01
3.897000000000000000e+03 6.343717956542968750e+01 -4.416549205780029297e+00 2.849242925643920898e+00 9.385963439941406250e+00 3.670562028884887695e+00 8.914560079574584961e-01
3.898000000000000000e+03 6.011818695068359375e+01 -9.543252944946289062e+00 2.196788072586059570e+00 1.203013515472412109e+01 4.268076896667480469e+00 -1.469166636466979980e+00
3.899000000000000000e+03 6.336133956909179688e+01 -1.219105339050292969e+01 7.286574840545654297e-01 9.674883842468261719e+00 3.121062278747558594e+00 -1.193111777305603027e+00
3.900000000000000000e+03 5.917063903808593750e+01 -1.068798351287841797e+01 4.948866069316864014e-01 1.242270755767822266e+01 3.875278234481811523e+00 -4.947356283664703369e-01
3.901000000000000000e+03 6.312975311279296875e+01 -9.993538856506347656e+00 1.956784009933471680e+00 9.762601852416992188e+00 3.515815973281860352e+00 -1.277139067649841309e+00
3.902000000000000000e+03 6.338924026489257812e+01 -1.377948999404907227e+00 1.110690355300903320e+00 9.695541381835937500e+00 3.241869449615478516e+00 1.238741874694824219e+00
3.903000000000000000e+03 6.103065490722656250e+01 -4.858624935150146484e+00 4.106499195098876953e+00 1.080637264251708984e+01 4.473861694335937500e+00 1.141116380691528320e+00
3.904000000000000000e+03 6.271626281738281250e+01 -3.417616605758666992e+00 2.441499471664428711e+00 9.903324127197265625e+00 3.703446865081787109e+00 1.252153992652893066e+00
3.905000000000000000e+03 6.011076736450195312e+01 -1.015177822113037109e+01 1.458868980407714844e+00 1.200064086914062500e+01 4.037853240966796875e+00 -1.248713374137878418e+00
3.906000000000000000e+03 6.020697021484375000e+01 -7.910052299499511719e+00 4.537515163421630859e+00 1.165073585510253906e+01 4.856475353240966797e+00 -1.359403371810913086e+00
3.907000000000000000e+03 6.115305328369140625e+01 -7.595379829406738281e+00 4.310863018035888672e+00 1.062234878540039062e+01 4.479963779449462891e+00 -9.551663994789123535e-01
3.908000000000000000e+03 6.178141784667968750e+01 -3.941489934921264648e+00 2.963263511657714844e+00 1.039873981475830078e+01 4.008601188659667969e+00 1.293762683868408203e+00
3.909000000000000000e+03 5.723314285278320312e+01 -7.385668754577636719e-01 -6.115453839302062988e-01 1.095583343505859375e+01 3.103286504745483398e+00 -1.796482920646667480e+00
3.910000000000000000e+03 6.032289505004882812e+01 4.085747241973876953e+00 -8.350958228111267090e-01 9.032046318054199219e+00 2.459085226058959961e+00 -2.560388147830963135e-01
3.911000000000000000e+03 5.793946838378906250e+01 -1.033187389373779297e+00 -4.952608644962310791e-01 1.165039062500000000e+01 3.346538782119750977e+00 -1.062526583671569824e+00
3.912000000000000000e+03 5.776202392578125000e+01 -4.396559000015258789e-01 -6.309067010879516602e-01 1.100460815429687500e+01 3.112110376358032227e+00 -1.338652729988098145e+00
3.913000000000000000e+03 5.476670074462890625e+01 -1.266772174835205078e+01 -3.397195786237716675e-02 7.320847034454345703e+00 2.186062574386596680e+00 3.221774339675903320e+00
3.914000000000000000e+03 5.792418289184570312e+01 2.346060797572135925e-02 -6.977671980857849121e-01 1.069202327728271484e+01 2.998276948928833008e+00 -1.220507144927978516e+00
3.915000000000000000e+03 5.508966827392578125e+01 -1.388046360015869141e+01 -2.979971170425415039e-01 7.429090499877929688e+00 2.139328002929687500e+00 2.746480941772460938e+00
3.916000000000000000e+03 5.655726623535156250e+01 -1.228450870513916016e+01 -5.716496109962463379e-01 1.002228260040283203e+01 2.835189819335937500e+00 2.415585279464721680e+00
3.917000000000000000e+03 5.588379287719726562e+01 -8.120957016944885254e-01 -3.269486427307128906e-01 9.307979583740234375e+00 2.694309473037719727e+00 -2.999480485916137695e+00
3.918000000000000000e+03 5.599105072021484375e+01 -1.199186325073242188e+01 -3.789522051811218262e-01 9.577589035034179688e+00 2.759590864181518555e+00 2.934578418731689453e+00
3.919000000000000000e+03 5.698941802978515625e+01 4.742355346679687500e-01 -6.989316344261169434e-01 9.713575363159179688e+00 2.704393148422241211e+00 -1.898164391517639160e+00
3.920000000000000000e+03 5.642123413085937500e+01 3.373549878597259521e-01 -6.021710038185119629e-01 9.374148368835449219e+00 2.631592988967895508e+00 -2.329210281372070312e+00
3.921000000000000000e+03 5.505149459838867188e+01 -1.249047183990478516e+01 -1.195796057581901550e-01 7.874854087829589844e+00 2.326582431793212891e+00 3.267258882522583008e+00
3.922000000000000000e+03 5.469179534912109375e+01 -1.322524547576904297e+01 -9.881919622421264648e-02 7.096784114837646484e+00 2.099389553070068359e+00 3.026939868927001953e+00
3.923000000000000000e+03 5.768975830078125000e+01 -1.198729896545410156e+01 -5.928142666816711426e-01 1.127335071563720703e+01 3.204160928726196289e+00 1.378571391105651855e+00
3.924000000000000000e+03 5.460111999511718750e+01 6.195014715194702148e-01 -8.514731377363204956e-02 6.976431369781494141e+00 2.067385196685791016e+00 -2.987521409988403320e+00
3.925000000000000000e+03 6.009978485107421875e+01 -2.179341316223144531e+00 9.929170012474060059e-01 1.183062171936035156e+01 3.847061634063720703e+00 1.023630857467651367e+00
3.926000000000000000e+03 5.299205017089843750e+01 3.139172554016113281e+00 2.009265497326850891e-02 5.209295749664306641e+00 1.568816542625427246e+00 -2.350602865219116211e+00
3.927000000000000000e+03 6.266735076904296875e+01 6.603043675422668457e-01 1.267193257808685303e-01 9.787405014038085938e+00 2.974237442016601562e+00 9.115527868270874023e-01
3.928000000000000000e+03 5.353759384155273438e+01 -1.884365653991699219e+01 -2.293097674846649170e-01 5.496799945831298828e+00 1.580247044563293457e+00 1.834903120994567871e+00
3.929000000000000000e+03 6.211221694946289062e+01 -1.655510139465332031e+01 -6.340640187263488770e-01 9.159899711608886719e+00 2.557750701904296875e+00 -3.148827850818634033e-01
3.930000000000000000e+03 6.302864456176757812e+01 -1.497384071350097656e+01 -2.549043893814086914e-01 9.417618751525878906e+00 2.748814344406127930e+00 -7.410162091255187988e-01
3.931000000000000000e+03 5.342459487915039062e+01 3.800553798675537109e+00 -1.331062018871307373e-01 5.570283412933349609e+00 1.631153106689453125e+00 -2.220638036727905273e+00
3.932000000000000000e+03 5.543522262573242188e+01 -1.328576755523681641e+01 -3.550113737583160400e-01 8.030171394348144531e+00 2.302548170089721680e+00 2.797314882278442383e+00
3.933000000000000000e+03 5.403713226318359375e+01 -1.474278354644775391e+01 -9.865388274192810059e-02 6.177772998809814453e+00 1.823735713958740234e+00 2.635207414627075195e+00
3.934000000000000000e+03 5.980216979980468750e+01 -2.646969318389892578e+00 1.333613038063049316e+00 1.222791481018066406e+01 4.068458557128906250e+00 1.113983988761901855e+00
3.935000000000000000e+03 6.417147064208984375e+01 -5.827986717224121094e+00 2.942152261734008789e+00 8.963274002075195312e+00 3.571627855300903320e+00 2.368113249540328979e-01
3.936000000000000000e+03 6.364868545532226562e+01 -5.597332000732421875e+00 3.178668260574340820e+00 9.186026573181152344e+00 3.709408521652221680e+00 3.483617007732391357e-01
3.937000000000000000e+03 6.350386047363281250e+01 -2.976418256759643555e+00 2.023768186569213867e+00 9.520024299621582031e+00 3.463137626647949219e+00 1.193254828453063965e+00
3.938000000000000000e+03 6.378693008422851562e+01 -2.290930271148681641e+00 1.653395771980285645e+00 9.462229728698730469e+00 3.334687709808349609e+00 1.224615097045898438e+00
3.939000000000000000e+03 6.220381546020507812e+01 -3.516256809234619141e+00 2.596035718917846680e+00 1.019285488128662109e+01 3.836667299270629883e+00 1.309699535369873047e+00
3.940000000000000000e+03 6.161738967895507812e+01 7.977362275123596191e-01 -1.204035356640815735e-01 1.009604167938232422e+01 2.992691516876220703e+00 6.507646441459655762e-01
3.941000000000000000e+03 6.025987625122070312e+01 -2.823521852493286133e+00 1.769495487213134766e+00 1.183488845825195312e+01 4.081315040588378906e+00 1.339783549308776855e+00
3.942000000000000000e+03 6.346452331542968750e+01 -1.275047397613525391e+01 5.264630317687988281e-01 9.605953216552734375e+00 3.039724826812744141e+00 -1.141312479972839355e+00
3.943000000000000000e+03 6.342447280883789062e+01 -1.344119548797607422e+01 2.585451602935791016e-01 9.554421424865722656e+00 2.943890094757080078e+00 -1.038798093795776367e+00
3.944000000000000000e+03 6.081263732910156250e+01 5.171683311462402344e+00 -8.423488140106201172e-01 8.741668701171875000e+00 2.369796037673950195e+00 -1.694207340478897095e-01
3.945000000000000000e+03 6.130556869506835938e+01 1.257552146911621094e+00 -3.361535966396331787e-01 1.005585956573486328e+01 2.915911912918090820e+00 4.438988268375396729e-01
3.946000000000000000e+03 5.600397109985351562e+01 7.874751836061477661e-02 -4.633490741252899170e-01 9.015453338623046875e+00 2.565631389617919922e+00 -2.654762744903564453e+00
3.947000000000000000e+03 5.621080780029296875e+01 8.328523635864257812e+00 -6.339389085769653320e-01 6.649551391601562500e+00 1.804683685302734375e+00 -1.200335144996643066e+00
3.948000000000000000e+03 6.268918228149414062e+01 -5.293469429016113281e+00 3.563071727752685547e+00 9.643107414245605469e+00 3.961853742599487305e+00 6.113383173942565918e-01
3.949000000000000000e+03 6.436129760742187500e+01 -7.396396160125732422e+00 2.825930118560791016e+00 8.906735420227050781e+00 3.519799709320068359e+00 -4.105212390422821045e-01
3.950000000000000000e+03 5.297559738159179688e+01 -2.002086448669433594e+01 -1.777789592742919922e-01 5.113978862762451172e+00 1.480859875679016113e+00 1.672692060470581055e+00
3.951000000000000000e+03 6.449972534179687500e+01 -9.115935325622558594e+00 2.192701578140258789e+00 9.035669326782226562e+00 3.368511199951171875e+00 -9.721013307571411133e-01
3.952000000000000000e+03 6.485124206542968750e+01 -7.965666294097900391e+00 2.478893518447875977e+00 8.789216041564941406e+00 3.380432844161987305e+00 -6.015635132789611816e-01
3.953000000000000000e+03 5.437197875976562500e+01 -1.575936222076416016e+01 -2.615028321743011475e-01 6.386811733245849609e+00 1.837592601776123047e+00 2.370959520339965820e+00
3.954000000000000000e+03 6.419725036621093750e+01 -1.279927539825439453e+01 5.893908143043518066e-01 9.357589721679687500e+00 2.984094142913818359e+00 -1.170698046684265137e+00
3.955000000000000000e+03 6.399442291259765625e+01 -1.086337375640869141e+01 1.400954008102416992e+00 9.408867835998535156e+00 3.242946624755859375e+00 -1.238014578819274902e+00
3.956000000000000000e+03 6.446764373779296875e+01 -1.162160491943359375e+01 1.055236220359802246e+00 9.246670722961425781e+00 3.090571880340576172e+00 -1.212466239929199219e+00
3.957000000000000000e+03 6.396544647216796875e+01 -9.444382667541503906e+00 2.187161207199096680e+00 9.302845954895019531e+00 3.447002172470092773e+00 -1.110798001289367676e+00
3.958000000000000000e+03 5.308280181884765625e+01 7.254666328430175781e+00 -2.426764219999313354e-01 5.305053710937500000e+00 1.518713116645812988e+00 -1.640819191932678223e+00
3.959000000000000000e+03 5.337764358520507812e+01 5.064235210418701172e+00 -2.040750086307525635e-01 5.526784420013427734e+00 1.596812844276428223e+00 -1.988099217414855957e+00
3.960000000000000000e+03 5.094219589233398438e+01 8.161243438720703125e+00 6.094407290220260620e-03 4.216175079345703125e+00 1.266680836677551270e+00 -1.477062702178955078e+00
3.961000000000000000e+03 6.209093856811523438e+01 -1.797388839721679688e+01 -7.471129298210144043e-01 8.789209365844726562e+00 2.412628889083862305e+00 -1.706890165805816650e-01
3.962000000000000000e+03 5.641533279418945312e+01 -2.312682914733886719e+01 -5.508444905281066895e-01 6.381897449493408203e+00 1.749315857887268066e+00 9.420934319496154785e-01
3.963000000000000000e+03 5.991761398315429688e+01 5.651468276977539062e+00 -8.852680921554565430e-01 8.481828689575195312e+00 2.278968095779418945e+00 -4.526926577091217041e-01
3.964000000000000000e+03 5.934434127807617188e+01 7.258217334747314453e+00 -8.714306354522705078e-01 7.918059825897216797e+00 2.113988876342773438e+00 -6.161073446273803711e-01
3.965000000000000000e+03 4.466617965698242188e+01 1.252209949493408203e+01 2.419079393148422241e-01 2.483806133270263672e+00 8.177142143249511719e-01 -6.992059350013732910e-01
3.966000000000000000e+03 4.317745971679687500e+01 1.382787895202636719e+01 2.504692077636718750e-01 2.238176822662353516e+00 7.465938329696655273e-01 -5.390317440032958984e-01
3.967000000000000000e+03 6.072443771362304688e+01 -1.798132514953613281e+01 -8.490543365478515625e-01 8.710008621215820312e+00 2.358286142349243164e+00 1.974534094333648682e-01
3.968000000000000000e+03 6.119845581054687500e+01 3.654095649719238281e+00 -7.354778647422790527e-01 9.232572555541992188e+00 2.549128532409667969e+00 5.255417898297309875e-02
3.969000000000000000e+03 4.765098571777343750e+01 -2.522407531738281250e+01 2.694908678531646729e-01 3.163324832916259766e+00 1.029844641685485840e+00 9.538026452064514160e-01
3.970000000000000000e+03 4.838747406005859375e+01 7.891105651855468750e+00 2.375611811876296997e-01 3.074358701705932617e+00 9.935759305953979492e-01 -1.269860863685607910e+00
3.971000000000000000e+03 4.858100128173828125e+01 9.321790695190429688e+00 1.652925908565521240e-01 3.319493770599365234e+00 1.045435905456542969e+00 -1.195850968360900879e+00
3.972000000000000000e+03 4.096432113647460938e+01 -2.724521446228027344e+01 5.023202896118164062e-01 1.675165891647338867e+00 6.532458662986755371e-01 3.756051361560821533e-01
3.973000000000000000e+03 5.718984603881835938e+01 -1.992759132385253906e+01 -7.320600152015686035e-01 7.230632781982421875e+00 1.949571847915649414e+00 1.132930994033813477e+00
3.974000000000000000e+03 5.780343627929687500e+01 1.077594566345214844e+01 -6.779910922050476074e-01 6.832532405853271484e+00 1.846362471580505371e+00 -7.385351657867431641e-01
3.975000000000000000e+03 5.869449996948242188e+01 9.014688491821289062e+00 -7.922118306159973145e-01 7.361771106719970703e+00 1.970867753028869629e+00 -6.904360651969909668e-01
3.976000000000000000e+03 5.390497589111328125e+01 5.934229373931884766e+00 -3.274181783199310303e-01 5.809162616729736328e+00 1.644523382186889648e+00 -1.796861052513122559e+00
3.977000000000000000e+03 4.950510787963867188e+01 7.585494995117187500e+00 1.664135307073593140e-01 3.517472505569458008e+00 1.105165839195251465e+00 -1.414084434509277344e+00
3.978000000000000000e+03 3.617862701416015625e+01 1.142599201202392578e+01 1.199450343847274780e-01 8.531624078750610352e-01 2.919322252273559570e-01 7.977266609668731689e-02
3.979000000000000000e+03 4.735937500000000000e+01 -2.695433616638183594e+01 2.651529014110565186e-01 3.176769018173217773e+00 1.032576560974121094e+00 8.164960145950317383e-01
3.980000000000000000e+03 3.992630767822265625e+01 -2.485481643676757812e+01 4.814337491989135742e-01 1.304300308227539062e+00 5.357202291488647461e-01 2.963758707046508789e-01
3.981000000000000000e+03 5.807673263549804688e+01 1.220809364318847656e+01 -6.483355164527893066e-01 6.685082435607910156e+00 1.811024188995361328e+00 -6.489691734313964844e-01
3.982000000000000000e+03 5.410332107543945312e+01 9.354774475097656250e+00 -3.838935196399688721e-01 5.644886016845703125e+00 1.578297853469848633e+00 -1.327090144157409668e+00
3.983000000000000000e+03 5.805180740356445312e+01 -2.179841804504394531e+01 -7.432867884635925293e-01 7.157000064849853516e+00 1.924113988876342773e+00 8.195371031761169434e-01
3.984000000000000000e+03 5.444041061401367188e+01 -2.408244705200195312e+01 -3.441185057163238525e-01 5.538640499114990234e+00 1.558356642723083496e+00 1.096349596977233887e+00
3.985000000000000000e+03 4.120190429687500000e+01 1.109817314147949219e+01 2.652860283851623535e-01 1.575917959213256836e+00 5.523611903190612793e-01 -3.539467453956604004e-01
3.986000000000000000e+03 6.534214019775390625e+01 2.932803916931152344e+01 -1.230420693755149841e-01 6.914008617401123047e+00 2.037289857864379883e+00 -1.349162217229604721e-02
3.987000000000000000e+03 6.070045471191406250e+01 -8.844890594482421875e+00 3.135281324386596680e+00 1.133583641052246094e+01 4.341335296630859375e+00 -1.487216711044311523e+00
3.988000000000000000e+03 5.858390045166015625e+01 -1.043213009834289551e+00 -3.398329615592956543e-01 1.177831745147705078e+01 3.431545257568359375e+00 -4.671318531036376953e-01
3.989000000000000000e+03 6.121456146240234375e+01 -8.888203620910644531e+00 3.017253398895263672e+00 1.087477111816406250e+01 4.167607307434082031e+00 -1.405316233634948730e+00
3.990000000000000000e+03 6.097056579589843750e+01 -7.253123283386230469e+00 4.767786502838134766e+00 1.073604583740234375e+01 4.651149749755859375e+00 -7.836498022079467773e-01
3.991000000000000000e+03 5.920928955078125000e+01 -1.684821367263793945e+00 2.636515796184539795e-01 1.208492851257324219e+01 3.704573869705200195e+00 3.341082334518432617e-01
3.992000000000000000e+03 6.190190505981445312e+01 -9.888980865478515625e+00 2.067390441894531250e+00 1.047641086578369141e+01 3.763140439987182617e+00 -1.381335496902465820e+00
3.993000000000000000e+03 6.061743927001953125e+01 -3.067121267318725586e+00 2.189110755920410156e+00 1.151935386657714844e+01 4.112539768218994141e+00 1.451400637626647949e+00
3.994000000000000000e+03 5.810630416870117188e+01 3.682135820388793945e+00 -8.757964372634887695e-01 8.694243431091308594e+00 2.345534086227416992e+00 -1.108942151069641113e+00
3.995000000000000000e+03 6.076421737670898438e+01 -3.976508378982543945e+00 3.171708345413208008e+00 1.128536319732666016e+01 4.337121486663818359e+00 1.474739074707031250e+00
3.996000000000000000e+03 5.901758575439453125e+01 -1.174176120758056641e+01 -1.778224408626556396e-01 1.165728759765625000e+01 3.443839550018310547e+00 8.602382242679595947e-02
3.997000000000000000e+03 6.050053787231445312e+01 -1.050512886047363281e+01 1.270843863487243652e+00 1.152109718322753906e+01 3.837582349777221680e+00 -1.204737067222595215e+00
3.998000000000000000e+03 5.815368652343750000e+01 -1.215026664733886719e+01 -5.665140748023986816e-01 1.132827663421630859e+01 3.228528738021850586e+00 9.609913229942321777e-01
3.999000000000000000e+03 6.107811355590820312e+01 -4.188719272613525391e+00 3.389150619506835938e+00 1.090856456756591797e+01 4.289314270019531250e+00 1.354398131370544434e+00
4.000000000000000000e+03 5.615954589843750000e+01 -1.237506580352783203e+01 -4.814190864562988281e-01 9.478718757629394531e+00 2.699189901351928711e+00 2.718268156051635742e+00
4.001000000000000000e+03 5.659477233886718750e+01 -1.186149787902832031e+01 -5.103677511215209961e-01 1.050834655761718750e+01 2.999393463134765625e+00 2.448705673217773438e+00
4.002000000000000000e+03 5.505354309082031250e+01 -7.741425931453704834e-02 -1.275049448013305664e-01 7.744407653808593750e+00 2.285070657730102539e+00 -3.144467830657958984e+00
4.003000000000000000e+03 6.052321243286132812e+01 1.642742633819580078e+00 -5.465350747108459473e-01 1.000887298583984375e+01 2.838701248168945312e+00 1.118640303611755371e-01
4.004000000000000000e+03 5.503442764282226562e+01 -1.338765144348144531e+01 -2.453359961509704590e-01 7.509977340698242188e+00 2.179392337799072266e+00 2.910062074661254883e+00
4.005000000000000000e+03 6.234414672851562500e+01 -6.526248931884765625e+00 3.933717012405395508e+00 9.707625389099121094e+00 4.092402458190917969e+00 -8.762480318546295166e-02
4.006000000000000000e+03 6.286712265014648438e+01 -6.320370197296142578e+00 3.667252540588378906e+00 9.464586257934570312e+00 3.939551591873168945e+00 3.094104304909706116e-02
4.007000000000000000e+03 6.078884887695312500e+01 -8.437063217163085938e+00 3.632849693298339844e+00 1.115801620483398438e+01 4.437259674072265625e+00 -1.400891661643981934e+00
4.008000000000000000e+03 6.295324707031250000e+01 -6.557404994964599609e-01 7.318103909492492676e-01 9.843852043151855469e+00 3.172698736190795898e+00 1.167652964591979980e+00
4.009000000000000000e+03 5.910898590087890625e+01 -1.284506797790527344e+00 -3.428692743182182312e-02 1.189065361022949219e+01 3.556910037994384766e+00 8.220599591732025146e-02
4.010000000000000000e+03 6.420551300048828125e+01 -1.031208515167236328e+01 1.670648097991943359e+00 9.268897056579589844e+00 3.281863451004028320e+00 -1.186289787292480469e+00
4.011000000000000000e+03 5.499053192138671875e+01 1.667185306549072266e+00 -3.158854544162750244e-01 7.204492092132568359e+00 2.066581964492797852e+00 -2.611730575561523438e+00
4.012000000000000000e+03 5.441177368164062500e+01 3.884417772293090820e+00 -3.365464806556701660e-01 6.304813385009765625e+00 1.790480136871337891e+00 -2.120371818542480469e+00
4.013000000000000000e+03 5.425812530517578125e+01 9.108446240425109863e-01 -2.629375644028186798e-02 6.496753692626953125e+00 1.941138029098510742e+00 -2.913029909133911133e+00
4.014000000000000000e+03 5.550926589965820312e+01 -2.106037902832031250e+01 -5.184875726699829102e-01 6.303174972534179688e+00 1.735406160354614258e+00 1.284248709678649902e+00
4.015000000000000000e+03 5.494650268554687500e+01 -1.799256324768066406e+01 -4.566463530063629150e-01 6.453622341156005859e+00 1.799092769622802734e+00 1.833385229110717773e+00
4.016000000000000000e+03 6.278875350952148438e+01 -2.809883832931518555e+00 1.982998609542846680e+00 9.924000740051269531e+00 3.572099685668945312e+00 1.287917017936706543e+00
4.017000000000000000e+03 6.246499252319335938e+01 -8.483754396438598633e-01 7.686175107955932617e-01 1.010339164733886719e+01 3.261602878570556641e+00 1.163692116737365723e+00
4.018000000000000000e+03 6.197881317138671875e+01 -1.531238460540771484e+01 -4.857186377048492432e-01 9.521821975708007812e+00 2.710831165313720703e+00 -4.366093873977661133e-01
4.019000000000000000e+03 6.112451934814453125e+01 1.888116121292114258e+00 -4.836127460002899170e-01 9.881602287292480469e+00 2.819396972656250000e+00 2.809466719627380371e-01
4.020000000000000000e+03 6.081041717529296875e+01 9.981022477149963379e-01 -3.683816492557525635e-01 1.022682857513427734e+01 2.957534074783325195e+00 3.382245302200317383e-01
4.021000000000000000e+03 6.295882034301757812e+01 -4.114143371582031250e+00 2.837152719497680664e+00 9.675197601318359375e+00 3.753705263137817383e+00 1.052874088287353516e+00
4.022000000000000000e+03 5.380271530151367188e+01 -1.538640213012695312e+01 -1.021668538451194763e-01 5.883020401000976562e+00 1.734256029129028320e+00 2.478990077972412109e+00
4.023000000000000000e+03 6.377164840698242188e+01 -5.948028564453125000e+00 3.181907653808593750e+00 9.112200736999511719e+00 3.688232660293579102e+00 2.134551852941513062e-01
4.024000000000000000e+03 6.197724914550781250e+01 2.998285591602325439e-01 1.238519996404647827e-01 1.012253665924072266e+01 3.073916673660278320e+00 8.411214351654052734e-01
4.025000000000000000e+03 5.249848175048828125e+01 6.784893035888671875e+00 -1.364741474390029907e-01 4.940057754516601562e+00 1.441075086593627930e+00 -1.705498218536376953e+00
4.026000000000000000e+03 5.828552627563476562e+01 7.657836914062500000e+00 -8.148089647293090820e-01 7.500700950622558594e+00 2.005767583847045898e+00 -8.466765284538269043e-01
4.027000000000000000e+03 6.411083221435546875e+01 -8.214625358581542969e+00 2.627062320709228516e+00 9.079044342041015625e+00 3.511831998825073242e+00 -7.588524222373962402e-01
4.028000000000000000e+03 6.394386672973632812e+01 -6.943752765655517578e+00 3.081569433212280273e+00 9.030103683471679688e+00 3.633502006530761719e+00 -2.586573362350463867e-01
4.029000000000000000e+03 5.990313339233398438e+01 -1.840554618835449219e+01 -8.769303560256958008e-01 8.439336776733398438e+00 2.268721818923950195e+00 4.572822451591491699e-01
4.030000000000000000e+03 5.677917098999023438e+01 -1.323716163635253906e+01 -6.923415660858154297e-01 9.639762878417968750e+00 2.684226274490356445e+00 2.090331554412841797e+00
4.031000000000000000e+03 5.895455169677734375e+01 6.051288604736328125e+00 -8.814586400985717773e-01 8.152389526367187500e+00 2.181279182434082031e+00 -7.409293651580810547e-01
4.032000000000000000e+03 3.851504516601562500e+01 1.273046588897705078e+01 2.010489255189895630e-01 1.271874308586120605e+00 4.418769776821136475e-01 -1.362038701772689819e-01
4.033000000000000000e+03 5.532039260864257812e+01 6.108559131622314453e+00 -5.510644316673278809e-01 6.599458694458007812e+00 1.814518213272094727e+00 -1.621987938880920410e+00
4.034000000000000000e+03 6.087836074829101562e+01 -1.660136985778808594e+01 -7.610909938812255859e-01 9.157808303833007812e+00 2.519015312194824219e+00 4.692777246236801147e-02
4.035000000000000000e+03 6.329130554199218750e+01 -1.175626850128173828e+01 9.497787952423095703e-01 9.741449356079101562e+00 3.207368612289428711e+00 -1.236982941627502441e+00
4.036000000000000000e+03 6.372711181640625000e+01 -1.191017913818359375e+01 8.727099299430847168e-01 9.522395133972167969e+00 3.118531465530395508e+00 -1.209954380989074707e+00
4.037000000000000000e+03 6.020977020263671875e+01 2.405650854110717773e+00 -7.124098539352416992e-01 9.666798591613769531e+00 2.686316728591918945e+00 -1.490356475114822388e-01
4.038000000000000000e+03 6.238007354736328125e+01 -1.464303970336914062e+01 -2.769564092159271240e-01 9.631169319152832031e+00 2.806263923645019531e+00 -6.579956412315368652e-01
4.039000000000000000e+03 5.973003387451171875e+01 -1.659220314025878906e+01 -8.663719296455383301e-01 9.104379653930664062e+00 2.471402168273925781e+00 4.638461768627166748e-01
4.040000000000000000e+03 5.915025329589843750e+01 -1.829488945007324219e+01 -8.784875869750976562e-01 8.283381462097167969e+00 2.221467971801757812e+00 7.237846255302429199e-01
4.041000000000000000e+03 6.147262191772460938e+01 -1.728182792663574219e+01 -7.561291456222534180e-01 8.975214004516601562e+00 2.465725421905517578e+00 -7.265606522560119629e-02
4.042000000000000000e+03 5.683133316040039062e+01 6.684672832489013672e+00 -7.332404851913452148e-01 7.212253093719482422e+00 1.943703770637512207e+00 -1.250316977500915527e+00
4.043000000000000000e+03 5.243600082397460938e+01 8.178578376770019531e+00 -1.754783391952514648e-01 4.951079845428466797e+00 1.432680487632751465e+00 -1.523023128509521484e+00
4.044000000000000000e+03 5.502459716796875000e+01 -2.256345176696777344e+01 -4.271467626094818115e-01 5.897615909576416016e+00 1.641140699386596680e+00 1.182763695716857910e+00
4.045000000000000000e+03 4.986481094360351562e+01 8.818163871765136719e+00 8.546543866395950317e-02 3.776033163070678711e+00 1.158449530601501465e+00 -1.348487019538879395e+00
4.046000000000000000e+03 4.898755264282226562e+01 1.082719516754150391e+01 8.288975805044174194e-02 3.629143476486206055e+00 1.113610029220581055e+00 -1.126553058624267578e+00
4.047000000000000000e+03 4.269562911987304688e+01 1.657819175720214844e+01 2.244409322738647461e-01 2.321537256240844727e+00 7.637934684753417969e-01 -4.725051522254943848e-01
4.048000000000000000e+03 4.425698089599609375e+01 1.524860382080078125e+01 2.193576246500015259e-01 2.563804149627685547e+00 8.349485397338867188e-01 -5.973400473594665527e-01
4.049000000000000000e+03 5.673082351684570312e+01 1.247274875640869141e+01 -5.608772635459899902e-01 6.250504493713378906e+00 1.706888198852539062e+00 -8.159642815589904785e-01
4.050000000000000000e+03 5.636373519897460938e+01 1.110775279998779297e+01 -5.697358846664428711e-01 6.297482967376708984e+00 1.718324184417724609e+00 -9.328567385673522949e-01
4.051000000000000000e+03 5.281692123413085938e+01 1.205678176879882812e+01 -2.522351741790771484e-01 5.036711215972900391e+00 1.435342788696289062e+00 -1.100045204162597656e+00
4.052000000000000000e+03 5.835869216918945312e+01 -2.034973526000976562e+01 -8.041070103645324707e-01 7.567405223846435547e+00 2.028989315032958984e+00 8.189793229103088379e-01
4.053000000000000000e+03 4.069708251953125000e+01 1.344685840606689453e+01 2.521262168884277344e-01 1.712844729423522949e+00 5.894913077354431152e-01 -3.389566242694854736e-01
4.054000000000000000e+03 4.212955856323242188e+01 1.245042514801025391e+01 2.672621011734008789e-01 1.897816896438598633e+00 6.495236754417419434e-01 -4.557743668556213379e-01
4.055000000000000000e+03 4.601083374023437500e+01 -2.574362182617187500e+01 3.634156584739685059e-01 2.722434520721435547e+00 9.257550835609436035e-01 8.346147537231445312e-01
4.056000000000000000e+03 6.023899078369140625e+01 2.005102920532226562e+01 -3.941667377948760986e-01 6.391551494598388672e+00 1.799215435981750488e+00 -2.225774675607681274e-01
4.057000000000000000e+03 5.664762115478515625e+01 1.903493499755859375e+01 -3.325590193271636963e-01 5.738982200622558594e+00 1.621927022933959961e+00 -4.721741080284118652e-01
4.058000000000000000e+03 5.483073806762695312e+01 1.511924171447753906e+01 -3.496681451797485352e-01 5.474935054779052734e+00 1.537580132484436035e+00 -7.814428210258483887e-01
4.059000000000000000e+03 4.584121322631835938e+01 1.390112876892089844e+01 1.919975578784942627e-01 2.877113342285156250e+00 9.207333326339721680e-01 -7.476651668548583984e-01
4.060000000000000000e+03 6.702560424804687500e+01 -3.496307754516601562e+01 -3.193060755729675293e-01 7.276087760925292969e+00 2.087034463882446289e+00 -1.319458782672882080e-01
4.061000000000000000e+03 6.138967514038085938e+01 -3.210358619689941406e+00 2.358584165573120117e+00 1.081732749938964844e+01 3.952773571014404297e+00 1.419580101966857910e+00
4.062000000000000000e+03 6.048052597045898438e+01 -9.864055633544921875e+00 1.950248718261718750e+00 1.166051006317138672e+01 4.083227634429931641e+00 -1.431246280670166016e+00
4.063000000000000000e+03 5.996323013305664062e+01 -1.109060955047607422e+01 5.653262734413146973e-01 1.173179149627685547e+01 3.689135551452636719e+00 -7.733494043350219727e-01
4.064000000000000000e+03 5.502602005004882812e+01 2.178090095520019531e+00 -3.790510594844818115e-01 7.124948501586914062e+00 2.023769140243530273e+00 -2.425086498260498047e+00
4.065000000000000000e+03 5.733553695678710938e+01 6.787054538726806641e-01 -7.544945478439331055e-01 9.854573249816894531e+00 2.730023622512817383e+00 -1.647467136383056641e+00
4.066000000000000000e+03 6.279933166503906250e+01 -1.218245029449462891e+01 6.666077375411987305e-01 9.914178848266601562e+00 3.174235820770263672e+00 -1.149153232574462891e+00
4.067000000000000000e+03 5.667938232421875000e+01 -1.276416110992431641e+01 -6.489424705505371094e-01 9.817145347595214844e+00 2.750461101531982422e+00 2.229602575302124023e+00
4.068000000000000000e+03 5.956667327880859375e+01 -1.087652969360351562e+01 5.576150417327880859e-01 1.198350143432617188e+01 3.762335062026977539e+00 -6.509913802146911621e-01
4.069000000000000000e+03 5.975055313110351562e+01 -1.906675934791564941e+00 7.054471969604492188e-01 1.198000240325927734e+01 3.805634975433349609e+00 8.108447194099426270e-01
4.070000000000000000e+03 5.758341598510742188e+01 1.425639837980270386e-01 -7.155522704124450684e-01 1.042896556854248047e+01 2.914024114608764648e+00 -1.505791544914245605e+00
4.071000000000000000e+03 6.061503219604492188e+01 -2.373010158538818359e+00 1.405017852783203125e+00 1.141587543487548828e+01 3.846267938613891602e+00 1.251661539077758789e+00
4.072000000000000000e+03 6.036297607421875000e+01 -1.749871015548706055e+00 8.026716709136962891e-01 1.148991298675537109e+01 3.687775373458862305e+00 9.719481468200683594e-01
4.073000000000000000e+03 6.179211425781250000e+01 -4.751648902893066406e+00 3.660909414291381836e+00 1.023360443115234375e+01 4.168354034423828125e+00 1.024172067642211914e+00
4.074000000000000000e+03 5.457575988769531250e+01 -1.502716064453125000e+01 -2.710286080837249756e-01 6.729223728179931641e+00 1.937458515167236328e+00 2.525896787643432617e+00
4.075000000000000000e+03 5.552843093872070312e+01 -4.344192892313003540e-02 -3.109674453735351562e-01 8.438251495361328125e+00 2.438185214996337891e+00 -2.930687427520751953e+00
4.076000000000000000e+03 5.592691421508789062e+01 6.873876452445983887e-01 -4.891926646232604980e-01 8.497568130493164062e+00 2.402512550354003906e+00 -2.518465518951416016e+00
4.077000000000000000e+03 5.415686416625976562e+01 -1.667721748352050781e+01 -2.665335237979888916e-01 6.092412471771240234e+00 1.747763633728027344e+00 2.191734790802001953e+00
4.078000000000000000e+03 5.514652252197265625e+01 -1.515401649475097656e+01 -4.150599241256713867e-01 7.207214355468750000e+00 2.037646293640136719e+00 2.383623838424682617e+00
4.079000000000000000e+03 6.177874755859375000e+01 -7.817811012268066406e+00 3.798927307128906250e+00 1.023065948486328125e+01 4.208876132965087891e+00 -9.395741224288940430e-01
4.080000000000000000e+03 5.760816574096679688e+01 -1.259999847412109375e+01 -6.767083406448364258e-01 1.068693542480468750e+01 3.003068208694458008e+00 1.496665358543395996e+00
4.081000000000000000e+03 5.996662521362304688e+01 1.232143044471740723e+00 -5.802487134933471680e-01 1.017977809906005859e+01 2.879858732223510742e+00 -7.641109079122543335e-02
4.082000000000000000e+03 6.360966491699218750e+01 -6.541559219360351562e+00 3.247271776199340820e+00 9.144503593444824219e+00 3.717532634735107422e+00 -8.438646793365478516e-02
4.083000000000000000e+03 6.158664321899414062e+01 -7.412208557128906250e+00 4.146773338317871094e+00 1.028479290008544922e+01 4.329469680786132812e+00 -7.640463113784790039e-01
4.084000000000000000e+03 5.582922744750976562e+01 -1.308966159820556641e+01 -4.576069414615631104e-01 8.660015106201171875e+00 2.460722446441650391e+00 2.714581489562988281e+00
4.085000000000000000e+03 5.624402999877929688e+01 -1.289512634277343750e+01 -5.454701185226440430e-01 9.197788238525390625e+00 2.595695257186889648e+00 2.507512331008911133e+00
4.086000000000000000e+03 6.281680297851562500e+01 -1.197145104408264160e+00 9.984884858131408691e-01 9.938531875610351562e+00 3.281106233596801758e+00 1.228079319000244141e+00
4.087000000000000000e+03 5.549567413330078125e+01 6.113501787185668945e-01 -3.777069449424743652e-01 8.128587722778320312e+00 2.325264453887939453e+00 -2.732255458831787109e+00
4.088000000000000000e+03 5.458889389038085938e+01 1.628053307533264160e+00 -2.233173847198486328e-01 6.867226123809814453e+00 1.993172645568847656e+00 -2.676026821136474609e+00
4.089000000000000000e+03 5.549050521850585938e+01 1.262293696403503418e+00 -4.439244866371154785e-01 7.835527896881103516e+00 2.217481136322021484e+00 -2.543819904327392578e+00
4.090000000000000000e+03 5.469041824340820312e+01 -1.444777107238769531e+01 -2.691087722778320312e-01 6.913995265960693359e+00 1.993465900421142578e+00 2.646437883377075195e+00
4.091000000000000000e+03 6.267473220825195312e+01 -5.813307762145996094e+00 3.698484659194946289e+00 9.578280448913574219e+00 3.983029603958129883e+00 3.515670895576477051e-01
4.092000000000000000e+03 6.321206283569335938e+01 -5.703429222106933594e+00 3.360505819320678711e+00 9.319427490234375000e+00 3.803979873657226562e+00 3.447395563125610352e-01
4.093000000000000000e+03 5.516960525512695312e+01 -1.448014450073242188e+01 -3.928751051425933838e-01 7.363232135772705078e+00 2.091107130050659180e+00 2.557655096054077148e+00
4.094000000000000000e+03 6.223353195190429688e+01 -3.130584359169006348e-01 4.637256264686584473e-01 1.013151168823242188e+01 3.178571224212646484e+00 1.031112670898437500e+00
4.095000000000000000e+03 6.303485107421875000e+01 -2.094557762145996094e+00 1.546126484870910645e+00 9.852784156799316406e+00 3.419673204421997070e+00 1.283119201660156250e+00
4.096000000000000000e+03 6.281116867065429688e+01 -1.271757221221923828e+01 4.325407147407531738e-01 9.868987083435058594e+00 3.090458154678344727e+00 -1.078803777694702148e+00
4.097000000000000000e+03 6.277457046508789062e+01 -1.331991672515869141e+01 2.011324018239974976e-01 9.789592742919921875e+00 2.997217655181884766e+00 -9.712653756141662598e-01
4.098000000000000000e+03 5.394382095336914062e+01 4.502125263214111328e+00 -2.743980288505554199e-01 5.910117626190185547e+00 1.690715909004211426e+00 -2.061036348342895508e+00
4.099000000000000000e+03 5.431636810302734375e+01 2.715962886810302734e+00 -2.499457597732543945e-01 6.417680263519287109e+00 1.850320458412170410e+00 -2.407176017761230469e+00
4.100000000000000000e+03 5.457146072387695312e+01 2.160022974014282227e+00 -2.731933891773223877e-01 6.738554954528808594e+00 1.939608573913574219e+00 -2.487084865570068359e+00
4.101000000000000000e+03 5.749267959594726562e+01 2.401222229003906250e+00 -8.352673053741455078e-01 8.951969146728515625e+00 2.435010433197021484e+00 -1.440115451812744141e+00
4.102000000000000000e+03 6.110742950439453125e+01 4.312533438205718994e-01 -1.009842082858085632e-01 1.037778949737548828e+01 3.083041429519653320e+00 5.749766826629638672e-01
4.103000000000000000e+03 6.239840316772460938e+01 -1.758889079093933105e+00 1.297968745231628418e+00 1.017605686187744141e+01 3.442207574844360352e+00 1.276674270629882812e+00
4.104000000000000000e+03 6.217053222656250000e+01 -4.285766124725341797e+00 3.146098375320434570e+00 1.004913806915283203e+01 3.958570957183837891e+00 1.129765033721923828e+00
4.105000000000000000e+03 6.251854705810546875e+01 -3.863387346267700195e+00 2.804533720016479492e+00 9.939724922180175781e+00 3.823277711868286133e+00 1.187241435050964355e+00
4.106000000000000000e+03 6.031321716308593750e+01 6.727846264839172363e-01 -3.727847933769226074e-01 1.044817638397216797e+01 3.022617340087890625e+00 2.111829668283462524e-01
4.107000000000000000e+03 6.449993896484375000e+01 -9.724430084228515625e+00 1.936012864112854004e+00 9.107044219970703125e+00 3.312917232513427734e+00 -1.087240099906921387e+00
4.108000000000000000e+03 6.318083953857421875e+01 -7.982689857482910156e+00 3.081762790679931641e+00 9.466774940490722656e+00 3.764561414718627930e+00 -7.971334457397460938e-01
4.109000000000000000e+03 6.332818984985351562e+01 -1.132726287841796875e+01 1.166022777557373047e+00 9.714757919311523438e+00 3.264234066009521484e+00 -1.257170319557189941e+00
4.110000000000000000e+03 6.360179901123046875e+01 -1.015947818756103516e+01 1.812314748764038086e+00 9.519196510314941406e+00 3.399453401565551758e+00 -1.217249631881713867e+00
4.111000000000000000e+03 5.460464477539062500e+01 5.236790180206298828e+00 -4.312577545642852783e-01 6.333463668823242188e+00 1.770661830902099609e+00 -1.850048065185546875e+00
4.112000000000000000e+03 6.264300918579101562e+01 -1.397221088409423828e+01 -4.679044336080551147e-02 9.711659431457519531e+00 2.899460554122924805e+00 -8.281477689743041992e-01
4.113000000000000000e+03 6.182809066772460938e+01 -1.430488967895507812e+01 -2.938339412212371826e-01 9.829240798950195312e+00 2.860621929168701172e+00 -5.646057724952697754e-01
4.114000000000000000e+03 5.607229232788085938e+01 -1.808446884155273438e+01 -6.453146338462829590e-01 7.135542869567871094e+00 1.947068452835083008e+00 1.576459646224975586e+00
4.115000000000000000e+03 5.392532348632812500e+01 -1.773402976989746094e+01 -2.722656726837158203e-01 5.812978744506835938e+00 1.662213921546936035e+00 2.001301050186157227e+00
4.116000000000000000e+03 6.339440155029296875e+01 -1.061404514312744141e+01 1.545428633689880371e+00 9.657085418701171875e+00 3.360754251480102539e+00 -1.270151138305664062e+00
4.117000000000000000e+03 6.129089736938476562e+01 -7.994574546813964844e+00 3.911093711853027344e+00 1.059063243865966797e+01 4.350517749786376953e+00 -1.125098228454589844e+00
4.118000000000000000e+03 6.377926635742187500e+01 -7.702960491180419922e+00 2.924054384231567383e+00 9.141083717346191406e+00 3.619541406631469727e+00 -5.672103762626647949e-01
4.119000000000000000e+03 5.789196777343750000e+01 6.328061580657958984e+00 -8.221090435981750488e-01 7.705617427825927734e+00 2.065052509307861328e+00 -1.039843201637268066e+00
4.120000000000000000e+03 5.846757125854492188e+01 4.165427684783935547e+00 -8.770856857299804688e-01 8.556988716125488281e+00 2.303971052169799805e+00 -9.506437182426452637e-01
4.121000000000000000e+03 6.146324920654296875e+01 -1.596161937713623047e+01 -6.491627097129821777e-01 9.363842010498046875e+00 2.614403963088989258e+00 -1.964244693517684937e-01
4.122000000000000000e+03 5.876212310791015625e+01 -1.917948722839355469e+01 -8.593575954437255859e-01 7.929798603057861328e+00 2.121132373809814453e+00 7.946699261665344238e-01
4.123000000000000000e+03 5.915431213378906250e+01 -1.718897628784179688e+01 -8.765973448753356934e-01 8.716654777526855469e+00 2.352017164230346680e+00 7.013749480247497559e-01
4.124000000000000000e+03 5.632418441772460938e+01 9.635727882385253906e+00 -6.110337376594543457e-01 6.492625236511230469e+00 1.764477491378784180e+00 -1.057036638259887695e+00
4.125000000000000000e+03 5.316006851196289062e+01 6.371682643890380859e+00 -2.210316956043243408e-01 5.369925975799560547e+00 1.544668316841125488e+00 -1.742036342620849609e+00
4.126000000000000000e+03 5.502334594726562500e+01 4.475770473480224609e+00 -4.884652793407440186e-01 6.717408180236816406e+00 1.868682861328125000e+00 -1.925018548965454102e+00
4.127000000000000000e+03 5.381123352050781250e+01 7.716969490051269531e+00 -3.425015509128570557e-01 5.621156215667724609e+00 1.583596348762512207e+00 -1.535099148750305176e+00
4.128000000000000000e+03 5.319692230224609375e+01 8.813145637512207031e+00 -2.727075517177581787e-01 5.257139682769775391e+00 1.495329737663269043e+00 -1.426275372505187988e+00
4.129000000000000000e+03 5.306654357910156250e+01 -2.336146163940429688e+01 -2.079401016235351562e-01 5.079073905944824219e+00 1.461340188980102539e+00 1.237580299377441406e+00
4.130000000000000000e+03 5.722911453247070312e+01 8.017889022827148438e+00 -7.320271134376525879e-01 7.090468883514404297e+00 1.907532572746276855e+00 -1.039501190185546875e+00
4.131000000000000000e+03 5.120660018920898438e+01 -2.570244216918945312e+01 -1.464555878192186356e-02 4.333864688873291016e+00 1.295765757560729980e+00 1.056136488914489746e+00
4.132000000000000000e+03 5.370007324218750000e+01 -2.562623214721679688e+01 -2.508643567562103271e-01 5.157393932342529297e+00 1.471958875656127930e+00 9.814757108688354492e-01
4.133000000000000000e+03 5.593332290649414062e+01 -1.954224586486816406e+01 -6.163494586944580078e-01 6.769773960113525391e+00 1.846027374267578125e+00 1.418700098991394043e+00
4.134000000000000000e+03 5.157996749877929688e+01 9.118313789367675781e+00 -1.007082313299179077e-01 4.564380645751953125e+00 1.339101672172546387e+00 -1.402329802513122559e+00
4.135000000000000000e+03 4.947513961791992188e+01 -2.560196685791015625e+01 1.318939179182052612e-01 3.794698953628540039e+00 1.177977919578552246e+00 1.027507424354553223e+00
4.136000000000000000e+03 3.914799499511718750e+01 1.433929061889648438e+01 2.354073822498321533e-01 1.522654294967651367e+00 5.274184942245483398e-01 -2.359175086021423340e-01
4.137000000000000000e+03 3.541705322265625000e+01 1.480386734008789062e+01 1.372359246015548706e-01 1.010675430297851562e+00 3.443734049797058105e-01 -1.857751281931996346e-03
4.138000000000000000e+03 4.923102951049804688e+01 1.232597923278808594e+01 4.273733496665954590e-02 3.791197299957275391e+00 1.150180459022521973e+00 -1.060680627822875977e+00
4.139000000000000000e+03 4.755195999145507812e+01 1.289692687988281250e+01 1.343268305063247681e-01 3.271548271179199219e+00 1.021762490272521973e+00 -9.127593040466308594e-01
4.140000000000000000e+03 5.467614364624023438e+01 -1.925094985961914062e+01 -4.292525947093963623e-01 6.120374202728271484e+00 1.707336425781250000e+00 1.664349675178527832e+00
4.141000000000000000e+03 4.163046646118164062e+01 1.500616168975830078e+01 2.507138550281524658e-01 2.003298044204711914e+00 6.762035489082336426e-01 -4.149396717548370361e-01
4.142000000000000000e+03 6.963977813720703125e+01 3.446517944335937500e+01 -4.684426262974739075e-02 7.489861011505126953e+00 2.232905149459838867e+00 1.855863444507122040e-02
4.143000000000000000e+03 5.490831375122070312e+01 2.109453392028808594e+01 -2.264484614133834839e-01 5.263729572296142578e+00 1.511184334754943848e+00 -4.950028657913208008e-01
4.144000000000000000e+03 5.338297271728515625e+01 1.767747306823730469e+01 -2.258280515670776367e-01 5.026974678039550781e+00 1.440343976020812988e+00 -6.913061738014221191e-01
4.145000000000000000e+03 5.671588897705078125e+01 1.430491447448730469e+01 -4.982027113437652588e-01 6.114204406738281250e+00 1.684800505638122559e+00 -6.589491963386535645e-01
4.146000000000000000e+03 2.547010803222656250e+01 2.470104598999023438e+01 2.062543034553527832e-01 8.981299400329589844e-02 8.882018923759460449e-02 4.691509157419204712e-02
4.147000000000000000e+03 2.411928176879882812e+01 2.660510444641113281e+01 2.882725298404693604e-01 -4.474953189492225647e-02 7.305689901113510132e-02 7.438216358423233032e-02
4.148000000000000000e+03 5.994208908081054688e+01 -8.528856635093688965e-01 7.645864784717559814e-02 1.131994628906250000e+01 3.418921470642089844e+00 4.624772667884826660e-01
4.149000000000000000e+03 5.852961730957031250e+01 -6.079224944114685059e-01 -4.703140556812286377e-01 1.138469219207763672e+01 3.274313449859619141e+00 -6.262878775596618652e-01
4.150000000000000000e+03 6.221308135986328125e+01 -5.084466934204101562e+00 3.670625448226928711e+00 9.892413139343261719e+00 4.068911552429199219e+00 7.766485810279846191e-01
4.151000000000000000e+03 6.141983795166015625e+01 -4.443133831024169922e+00 3.559679746627807617e+00 1.057430076599121094e+01 4.240193843841552734e+00 1.231329679489135742e+00
4.152000000000000000e+03 5.869148635864257812e+01 -1.195876216888427734e+01 -3.501887917518615723e-01 1.157516288757324219e+01 3.367492198944091797e+00 3.809043765068054199e-01
4.153000000000000000e+03 5.556894683837890625e+01 -1.380945682525634766e+01 -4.363569021224975586e-01 8.044806480407714844e+00 2.282534837722778320e+00 2.616993904113769531e+00
4.154000000000000000e+03 6.351000595092773438e+01 -9.731117248535156250e+00 2.095332622528076172e+00 9.504969596862792969e+00 3.480090618133544922e+00 -1.190300226211547852e+00
4.155000000000000000e+03 5.602542877197265625e+01 -1.364827156066894531e+01 -5.484607219696044922e-01 8.568385124206542969e+00 2.405977249145507812e+00 2.439211845397949219e+00
4.156000000000000000e+03 5.953809356689453125e+01 -1.108267664909362793e+00 5.902207270264625549e-02 1.158567523956298828e+01 3.493409156799316406e+00 3.252975344657897949e-01
4.157000000000000000e+03 5.920291137695312500e+01 -1.218353176116943359e+01 -2.744030356407165527e-01 1.131627368927001953e+01 3.312561035156250000e+00 9.187477082014083862e-02
4.158000000000000000e+03 5.484369659423828125e+01 3.267342805862426758e+00 -4.098812639713287354e-01 6.799279689788818359e+00 1.916819572448730469e+00 -2.192137479782104492e+00
4.159000000000000000e+03 5.853374481201171875e+01 -1.228923416137695312e+01 -5.097149610519409180e-01 1.134393024444580078e+01 3.250264644622802734e+00 6.151381134986877441e-01
4.160000000000000000e+03 6.107854080200195312e+01 -2.712950468063354492e+00 1.849780678749084473e+00 1.109479427337646484e+01 3.883372545242309570e+00 1.381597518920898438e+00
4.161000000000000000e+03 5.832234191894531250e+01 9.898405075073242188e-01 -7.577154636383056641e-01 1.012992763519287109e+01 2.811663627624511719e+00 -1.001731753349304199e+00
4.162000000000000000e+03 5.796494674682617188e+01 2.795382261276245117e+00 -8.670659661293029785e-01 9.009222030639648438e+00 2.442646741867065430e+00 -1.232059121131896973e+00
4.163000000000000000e+03 5.693922805786132812e+01 -1.214081001281738281e+01 -6.136075258255004883e-01 1.063545227050781250e+01 3.006553411483764648e+00 2.040372848510742188e+00
4.164000000000000000e+03 6.226876831054687500e+01 -7.667603969573974609e+00 3.603838682174682617e+00 9.858159065246582031e+00 4.038599491119384766e+00 -7.642594575881958008e-01
4.165000000000000000e+03 6.275315475463867188e+01 -9.034081459045410156e+00 2.623418092727661133e+00 9.809797286987304688e+00 3.729964494705200195e+00 -1.167662262916564941e+00
4.166000000000000000e+03 6.285028076171875000e+01 -7.512964725494384766e+00 3.416749477386474609e+00 9.554370880126953125e+00 3.891336202621459961e+00 -6.198491454124450684e-01
4.167000000000000000e+03 5.718848419189453125e+01 -1.320261669158935547e+01 -7.334344387054443359e-01 9.940349578857421875e+00 2.762074470520019531e+00 1.796870112419128418e+00
4.168000000000000000e+03 5.712974929809570312e+01 -1.263420963287353516e+01 -6.847581267356872559e-01 1.038018131256103516e+01 2.908627033233642578e+00 1.881991267204284668e+00
4.169000000000000000e+03 5.571998977661132812e+01 -1.516491794586181641e+01 -5.574087500572204590e-01 7.708419322967529297e+00 2.145303010940551758e+00 2.241264820098876953e+00
4.170000000000000000e+03 5.504320144653320312e+01 1.150092482566833496e+00 -3.018523454666137695e-01 7.369068622589111328e+00 2.120164871215820312e+00 -2.698107004165649414e+00
4.171000000000000000e+03 5.871337127685546875e+01 -1.668239974975585938e+01 -8.717673420906066895e-01 8.762804985046386719e+00 2.367311477661132812e+00 8.503748774528503418e-01
4.172000000000000000e+03 5.504149246215820312e+01 5.555639266967773438e-01 -2.141104489564895630e-01 7.528362751007080078e+00 2.194275617599487305e+00 -2.911025047302246094e+00
4.173000000000000000e+03 6.139827346801757812e+01 -1.137278750538825989e-01 1.725646406412124634e-01 1.045672416687011719e+01 3.188786506652832031e+00 7.933106422424316406e-01
4.174000000000000000e+03 6.209428405761718750e+01 -6.015913963317871094e+00 4.080713748931884766e+00 9.863140106201171875e+00 4.183156013488769531e+00 2.655409872531890869e-01
4.175000000000000000e+03 6.215659713745117188e+01 -8.093059539794921875e+00 3.440117835998535156e+00 1.001833915710449219e+01 4.037537097930908203e+00 -9.868631362915039062e-01
4.176000000000000000e+03 6.182448959350585938e+01 -6.761213779449462891e+00 4.261034488677978516e+00 1.002148723602294922e+01 4.284756660461425781e+00 -2.580650448799133301e-01
4.177000000000000000e+03 6.137845993041992188e+01 -3.717319488525390625e+00 2.816341638565063477e+00 1.070853328704833984e+01 4.057462215423583984e+00 1.384016513824462891e+00
4.178000000000000000e+03 6.335783004760742188e+01 -6.136617183685302734e+00 3.385177373886108398e+00 9.251634597778320312e+00 3.791043758392333984e+00 1.606198102235794067e-01
4.179000000000000000e+03 6.258902740478515625e+01 -4.584256172180175781e+00 3.180089235305786133e+00 9.777349472045898438e+00 3.887231349945068359e+00 9.567208290100097656e-01
4.180000000000000000e+03 6.025804901123046875e+01 -1.116881489753723145e+00 3.378357887268066406e-01 1.126632690429687500e+01 3.481248855590820312e+00 7.138891220092773438e-01
4.181000000000000000e+03 5.536858367919921875e+01 1.837142586708068848e+00 -4.436296522617340088e-01 7.584828853607177734e+00 2.142359733581542969e+00 -2.408273935317993164e+00
4.182000000000000000e+03 5.577681732177734375e+01 2.290521383285522461e+00 -5.491921901702880859e-01 7.789868831634521484e+00 2.172202825546264648e+00 -2.204790830612182617e+00
4.183000000000000000e+03 6.165229034423828125e+01 -1.308196163177490234e+01 5.399547517299652100e-02 1.020890617370605469e+01 3.078870296478271484e+00 -7.769480943679809570e-01
4.184000000000000000e+03 5.956300735473632812e+01 1.788650512695312500e+00 -7.192034721374511719e-01 9.889760971069335938e+00 2.751167297363281250e+00 -3.772523105144500732e-01
4.185000000000000000e+03 6.027038574218750000e+01 -1.593620681762695312e+01 -7.711740136146545410e-01 9.380661010742187500e+00 2.582846164703369141e+00 2.079445570707321167e-01
4.186000000000000000e+03 6.167623901367187500e+01 -6.797060370445251465e-01 4.986166954040527344e-01 1.046603012084960938e+01 3.289394140243530273e+00 9.925740361213684082e-01
4.187000000000000000e+03 6.342441177368164062e+01 -7.242559432983398438e+00 3.222283124923706055e+00 9.241517066955566406e+00 3.739140033721923828e+00 -4.110807776451110840e-01
4.188000000000000000e+03 6.130661010742187500e+01 -8.432916641235351562e+00 3.501051425933837891e+00 1.070062828063964844e+01 4.260503768920898438e+00 -1.283462047576904297e+00
4.189000000000000000e+03 5.618730545043945312e+01 1.844450354576110840e+00 -6.355526447296142578e-01 8.318627357482910156e+00 2.304922580718994141e+00 -2.153732061386108398e+00
4.190000000000000000e+03 5.776425552368164062e+01 5.132298469543457031e+00 -8.364267349243164062e-01 7.976268291473388672e+00 2.141952514648437500e+00 -1.153943061828613281e+00
4.191000000000000000e+03 5.787393569946289062e+01 4.253940582275390625e+00 -8.590555191040039062e-01 8.358086585998535156e+00 2.249709367752075195e+00 -1.183271646499633789e+00
4.192000000000000000e+03 6.227831268310546875e+01 -1.159535980224609375e+01 9.140637516975402832e-01 1.020900535583496094e+01 3.336920738220214844e+00 -1.197855234146118164e+00
4.193000000000000000e+03 6.281075286865234375e+01 -1.170666027069091797e+01 9.344350695610046387e-01 9.945465087890625000e+00 3.263970136642456055e+00 -1.215236783027648926e+00
4.194000000000000000e+03 5.851896667480468750e+01 -1.783826637268066406e+01 -8.664394021034240723e-01 8.284950256347656250e+00 2.225553274154663086e+00 9.167997837066650391e-01
4.195000000000000000e+03 5.673633193969726562e+01 -1.368306732177734375e+01 -7.101932168006896973e-01 9.252577781677246094e+00 2.562715291976928711e+00 2.024780273437500000e+00
4.196000000000000000e+03 6.086346054077148438e+01 -1.533849143981933594e+01 -6.521635651588439941e-01 9.603652954101562500e+00 2.685446739196777344e+00 -7.005733996629714966e-02
4.197000000000000000e+03 5.529423522949218750e+01 8.498515129089355469e+00 -5.319938659667968750e-01 6.253736019134521484e+00 1.716522574424743652e+00 -1.310461640357971191e+00
4.198000000000000000e+03 5.450679397583007812e+01 6.810195922851562500e+00 -4.302490651607513428e-01 6.044926643371582031e+00 1.684403300285339355e+00 -1.613427996635437012e+00
4.199000000000000000e+03 5.620326995849609375e+01 5.499739170074462891e+00 -6.726130843162536621e-01 7.192035675048828125e+00 1.955826759338378906e+00 -1.533246397972106934e+00
4.200000000000000000e+03 5.689410018920898438e+01 -1.566789722442626953e+01 -7.568350434303283691e-01 8.344526290893554688e+00 2.276307344436645508e+00 1.687701702117919922e+00
4.201000000000000000e+03 5.504964065551757812e+01 -1.686109733581542969e+01 -4.630449712276458740e-01 6.751127719879150391e+00 1.886424779891967773e+00 2.008989572525024414e+00
4.202000000000000000e+03 5.679722976684570312e+01 -2.148284149169921875e+01 -6.548429131507873535e-01 6.769152641296386719e+00 1.834292888641357422e+00 1.061847686767578125e+00
4.203000000000000000e+03 5.627671432495117188e+01 4.063066482543945312e+00 -6.813631653785705566e-01 7.543791294097900391e+00 2.058728456497192383e+00 -1.703543901443481445e+00
4.204000000000000000e+03 5.508148193359375000e+01 7.601357460021972656e+00 -5.137435793876647949e-01 6.263731479644775391e+00 1.724996447563171387e+00 -1.447832465171813965e+00
4.205000000000000000e+03 5.424218368530273438e+01 1.275851821899414062e+01 -3.701822459697723389e-01 5.508436679840087891e+00 1.541476249694824219e+00 -9.843709468841552734e-01
4.206000000000000000e+03 3.737538528442382812e+01 1.499495410919189453e+01 1.938014328479766846e-01 1.262326478958129883e+00 4.368383884429931641e-01 -1.116713806986808777e-01
4.207000000000000000e+03 5.063269042968750000e+01 1.255329990386962891e+01 -6.100056320428848267e-02 4.233432292938232422e+00 1.251729488372802734e+00 -1.072762966156005859e+00
4.208000000000000000e+03 5.045957565307617188e+01 1.009365940093994141e+01 -7.616858929395675659e-03 4.102282047271728516e+00 1.228399634361267090e+00 -1.266273975372314453e+00
4.209000000000000000e+03 5.147861480712890625e+01 1.120359802246093750e+01 -1.160105839371681213e-01 4.514499187469482422e+00 1.319546580314636230e+00 -1.190305471420288086e+00
4.210000000000000000e+03 5.200741958618164062e+01 1.636160850524902344e+01 -1.662273406982421875e-01 4.669969081878662109e+00 1.351122617721557617e+00 -8.025708794593811035e-01
4.211000000000000000e+03 5.328833389282226562e+01 1.453850460052490234e+01 -2.668231129646301270e-01 5.097455501556396484e+00 1.449189662933349609e+00 -8.868535161018371582e-01
4.212000000000000000e+03 5.762694931030273438e+01 -1.320388412475585938e+01 -7.516359090805053711e-01 1.018910884857177734e+01 2.831241846084594727e+00 1.497679710388183594e+00
4.213000000000000000e+03 5.945011520385742188e+01 -1.158592224121093750e+01 4.487034305930137634e-02 1.167802047729492188e+01 3.516867399215698242e+00 -2.740567624568939209e-01
4.214000000000000000e+03 5.937125778198242188e+01 -7.155963182449340820e-01 -1.890258491039276123e-01 1.137757682800292969e+01 3.356565237045288086e+00 5.676793307065963745e-02
4.215000000000000000e+03 5.862318801879882812e+01 -1.470143198966979980e-01 -5.517239570617675781e-01 1.099280834197998047e+01 3.132325172424316406e+00 -6.431099772453308105e-01
4.216000000000000000e+03 6.001019287109375000e+01 -1.544220805168151855e+00 5.476297140121459961e-01 1.159371089935302734e+01 3.642402172088623047e+00 7.758330702781677246e-01
4.217000000000000000e+03 6.080972290039062500e+01 -1.844336748123168945e+00 1.017647981643676758e+00 1.116662311553955078e+01 3.655281305313110352e+00 1.134160041809082031e+00
4.218000000000000000e+03 6.084746170043945312e+01 -9.552893638610839844e+00 2.334443569183349609e+00 1.128799915313720703e+01 4.086732864379882812e+00 -1.463743090629577637e+00
4.219000000000000000e+03 6.223754501342773438e+01 -1.209713172912597656e+01 6.247521042823791504e-01 1.019057559967041016e+01 3.244598150253295898e+00 -1.105246663093566895e+00
4.220000000000000000e+03 6.016478347778320312e+01 -1.076486873626708984e+01 9.247418045997619629e-01 1.171096420288085938e+01 3.790711879730224609e+00 -9.969967603683471680e-01
4.221000000000000000e+03 6.039898681640625000e+01 -1.109055614471435547e+01 7.364130616188049316e-01 1.137422752380371094e+01 3.633192300796508789e+00 -9.535463452339172363e-01
4.222000000000000000e+03 5.773397827148437500e+01 6.188802123069763184e-01 -7.555581927299499512e-01 1.013569450378417969e+01 2.814040899276733398e+00 -1.367509007453918457e+00
4.223000000000000000e+03 5.809518814086914062e+01 4.997130930423736572e-01 -7.357160449028015137e-01 1.040458011627197266e+01 2.900659084320068359e+00 -1.117396354675292969e+00
4.224000000000000000e+03 5.826958847045898438e+01 -8.413318544626235962e-02 -6.297907829284667969e-01 1.085561084747314453e+01 3.067746162414550781e+00 -9.391652345657348633e-01
4.225000000000000000e+03 6.174717712402343750e+01 -2.268191337585449219e+00 1.556545138359069824e+00 1.058411598205566406e+01 3.642198562622070312e+00 1.323325991630554199e+00
4.226000000000000000e+03 5.761531066894531250e+01 3.337079048156738281e+00 -8.374872207641601562e-01 8.622299194335937500e+00 2.335443496704101562e+00 -1.327219247817993164e+00
4.227000000000000000e+03 5.687679672241210938e+01 1.324555635452270508e+00 -7.294338345527648926e-01 9.143335342407226562e+00 2.524170398712158203e+00 -1.884279012680053711e+00
4.228000000000000000e+03 5.638187026977539062e+01 1.343564867973327637e+00 -6.553428769111633301e-01 8.712848663330078125e+00 2.417251586914062500e+00 -2.143865823745727539e+00
4.229000000000000000e+03 6.129167175292968750e+01 -9.314296722412109375e+00 2.579138278961181641e+00 1.087873172760009766e+01 4.037361145019531250e+00 -1.428678393363952637e+00
4.230000000000000000e+03 6.085493087768554688e+01 -4.546004831790924072e-01 1.875924468040466309e-01 1.074260520935058594e+01 3.279059171676635742e+00 7.169898748397827148e-01
4.231000000000000000e+03 5.974441909790039062e+01 -4.472830891609191895e-01 -1.551483571529388428e-01 1.115022754669189453e+01 3.298523664474487305e+00 2.230777144432067871e-01
4.232000000000000000e+03 5.665224838256835938e+01 -1.419310951232910156e+01 -7.004744410514831543e-01 8.938740730285644531e+00 2.471479892730712891e+00 2.004693508148193359e+00
4.233000000000000000e+03 6.141987991333007812e+01 -1.483048152923583984e+01 -4.807755053043365479e-01 9.749560356140136719e+00 2.780635356903076172e+00 -3.562774360179901123e-01
4.234000000000000000e+03 5.956738662719726562e+01 -1.542224884033203125e+01 -8.042882680892944336e-01 9.527186393737792969e+00 2.616869449615478516e+00 4.403887391090393066e-01
4.235000000000000000e+03 6.313972091674804688e+01 -9.370656967163085938e+00 2.370726108551025391e+00 9.644048690795898438e+00 3.604432344436645508e+00 -1.183976769447326660e+00
4.236000000000000000e+03 6.314150238037109375e+01 -8.704382896423339844e+00 2.716555833816528320e+00 9.561629295349121094e+00 3.683455705642700195e+00 -1.013262510299682617e+00
4.237000000000000000e+03 5.717585754394531250e+01 -1.373869895935058594e+01 -7.622486352920532227e-01 9.555416107177734375e+00 2.637950181961059570e+00 1.757481694221496582e+00
4.238000000000000000e+03 6.234199142456054688e+01 -8.723839759826660156e+00 2.929687976837158203e+00 1.001509666442871094e+01 3.883435249328613281e+00 -1.157143354415893555e+00
4.239000000000000000e+03 6.222442626953125000e+01 -1.263130092620849609e+01 3.574505448341369629e-01 1.010533046722412109e+01 3.138834238052368164e+00 -9.987229108810424805e-01
4.240000000000000000e+03 6.100370025634765625e+01 -1.430053234100341797e+01 -4.437872469425201416e-01 9.952234268188476562e+00 2.852534055709838867e+00 -3.024430871009826660e-01
4.241000000000000000e+03 6.198339080810546875e+01 -1.243031740188598633e+00 9.060896635055541992e-01 1.039299106597900391e+01 3.389724016189575195e+00 1.184432506561279297e+00
4.242000000000000000e+03 6.061104583740234375e+01 1.193331405520439148e-01 -1.215624660253524780e-01 1.061284255981445312e+01 3.147383928298950195e+00 4.745835959911346436e-01
4.243000000000000000e+03 6.271884536743164062e+01 -9.700488090515136719e+00 2.187715530395507812e+00 9.953120231628417969e+00 3.642250537872314453e+00 -1.292633056640625000e+00
4.244000000000000000e+03 6.312261581420898438e+01 -6.789967060089111328e+00 3.472229957580566406e+00 9.365032196044921875e+00 3.851178646087646484e+00 -2.129160016775131226e-01
4.245000000000000000e+03 5.968572616577148438e+01 3.109004974365234375e+00 -8.299677968025207520e-01 9.324272155761718750e+00 2.548291206359863281e+00 -4.431891739368438721e-01
4.246000000000000000e+03 6.112145233154296875e+01 -1.037913560867309570e+00 5.375004410743713379e-01 1.081472110748291016e+01 3.405666351318359375e+00 9.473233819007873535e-01
4.247000000000000000e+03 6.207865142822265625e+01 -1.375553607940673828e+01 -7.888679206371307373e-02 9.922293663024902344e+00 2.953022003173828125e+00 -7.514386773109436035e-01
4.248000000000000000e+03 5.534292221069335938e+01 3.857639551162719727e+00 -5.326910018920898438e-01 7.055329322814941406e+00 1.956791400909423828e+00 -2.021129131317138672e+00
4.249000000000000000e+03 5.532242202758789062e+01 2.761440277099609375e+00 -4.789864122867584229e-01 7.237173557281494141e+00 2.027456045150756836e+00 -2.239600896835327148e+00
4.250000000000000000e+03 5.579223251342773438e+01 3.391930341720581055e+00 -5.849171876907348633e-01 7.422934532165527344e+00 2.051405191421508789e+00 -1.987352013587951660e+00
4.251000000000000000e+03 6.239766693115234375e+01 -1.114011669158935547e+01 1.173289656639099121e+00 1.016804313659667969e+01 3.402399778366088867e+00 -1.257765650749206543e+00
4.252000000000000000e+03 6.310045242309570312e+01 -1.097210884094238281e+01 1.338662028312683105e+00 9.804210662841796875e+00 3.342861652374267578e+00 -1.274649977684020996e+00
4.253000000000000000e+03 5.689778518676757812e+01 4.772037029266357422e+00 -7.717674970626831055e-01 7.738974571228027344e+00 2.090162038803100586e+00 -1.432676196098327637e+00
4.254000000000000000e+03 5.708352661132812500e+01 1.967147111892700195e+00 -7.861197590827941895e-01 8.926611900329589844e+00 2.442147731781005859e+00 -1.718370199203491211e+00
4.255000000000000000e+03 5.758458328247070312e+01 -1.433157634735107422e+01 -8.047888278961181641e-01 9.454725265502929688e+00 2.594980955123901367e+00 1.470149040222167969e+00
4.256000000000000000e+03 6.288179016113281250e+01 -1.129659938812255859e+01 1.149006843566894531e+00 9.959372520446777344e+00 3.332513809204101562e+00 -1.279332876205444336e+00
4.257000000000000000e+03 6.182935714721679688e+01 -1.094713592529296875e+01 1.229217529296875000e+00 1.053260135650634766e+01 3.528545618057250977e+00 -1.256469249725341797e+00
4.258000000000000000e+03 5.779943084716796875e+01 -1.868421173095703125e+01 -8.202760219573974609e-01 7.748439788818359375e+00 2.078449010848999023e+00 1.094703078269958496e+00
4.259000000000000000e+03 5.986405563354492188e+01 -1.473097801208496094e+01 -7.167712450027465820e-01 9.866087913513183594e+00 2.744794845581054688e+00 2.367280870676040649e-01
4.260000000000000000e+03 5.509277725219726562e+01 -1.592348670959472656e+01 -4.436034262180328369e-01 6.993420124053955078e+00 1.964944958686828613e+00 2.190628767013549805e+00
4.261000000000000000e+03 5.688697433471679688e+01 -1.663375091552734375e+01 -7.499185204505920410e-01 7.962951660156250000e+00 2.163909912109375000e+00 1.580364584922790527e+00
4.262000000000000000e+03 5.801908493041992188e+01 -1.718237304687500000e+01 -8.573624491691589355e-01 8.374121665954589844e+00 2.255027770996093750e+00 1.081134080886840820e+00
4.263000000000000000e+03 5.588833236694335938e+01 7.160536289215087891e+00 -6.201453208923339844e-01 6.695293426513671875e+00 1.822544455528259277e+00 -1.393204927444458008e+00
4.264000000000000000e+03 5.452507400512695312e+01 8.287521362304687500e+00 -4.365373849868774414e-01 5.919600486755371094e+00 1.644919037818908691e+00 -1.424640297889709473e+00
4.265000000000000000e+03 5.515758895874023438e+01 9.662842750549316406e+00 -5.042558908462524414e-01 6.071454524993896484e+00 1.670159697532653809e+00 -1.202727079391479492e+00
4.266000000000000000e+03 5.355873489379882812e+01 1.063845825195312500e+01 -3.226715624332427979e-01 5.324637889862060547e+00 1.500589847564697266e+00 -1.213541746139526367e+00
4.267000000000000000e+03 5.488481140136718750e+01 1.112063503265380859e+01 -4.561201333999633789e-01 5.824632167816162109e+00 1.610553622245788574e+00 -1.082594871520996094e+00
4.268000000000000000e+03 5.244807434082031250e+01 9.959973335266113281e+00 -2.054397016763687134e-01 4.918977737426757812e+00 1.414061427116394043e+00 -1.324966907501220703e+00
4.269000000000000000e+03 4.915460205078125000e+01 1.589250659942626953e+01 4.693818744271993637e-03 3.907951831817626953e+00 1.173793673515319824e+00 -7.875045537948608398e-01
4.270000000000000000e+03 3.809952545166015625e+01 1.712175941467285156e+01 2.208623141050338745e-01 1.502989411354064941e+00 5.171555280685424805e-01 -1.969804763793945312e-01
4.271000000000000000e+03 5.565635681152343750e+01 1.992636871337890625e+01 -2.636803388595581055e-01 5.389116287231445312e+00 1.537630796432495117e+00 -5.106905698776245117e-01
4.272000000000000000e+03 5.066990661621093750e+01 1.827098274230957031e+01 -6.670160591602325439e-02 4.297368526458740234e+00 1.269200086593627930e+00 -6.913619637489318848e-01
4.273000000000000000e+03 6.015124130249023438e+01 -1.625885218381881714e-01 -1.418754756450653076e-01 1.087495803833007812e+01 3.219924688339233398e+00 3.638977110385894775e-01
4.274000000000000000e+03 6.035380935668945312e+01 -6.522700786590576172e-01 1.375343352556228638e-01 1.102011680603027344e+01 3.347295284271240234e+00 6.176891326904296875e-01
4.275000000000000000e+03 5.889713287353515625e+01 -5.568398237228393555e-01 -3.883929550647735596e-01 1.138425350189208984e+01 3.298758029937744141e+00 -3.218248486518859863e-01
4.276000000000000000e+03 5.986141204833984375e+01 3.071994185447692871e-01 -3.827192187309265137e-01 1.069532489776611328e+01 3.093781709671020508e+00 7.624418288469314575e-02
4.277000000000000000e+03 6.185912322998046875e+01 -8.501836776733398438e+00 3.254788875579833984e+00 1.027946281433105469e+01 4.060275554656982422e+00 -1.198444843292236328e+00
4.278000000000000000e+03 6.086636352539062500e+01 -1.022620391845703125e+01 1.645690441131591797e+00 1.127977180480957031e+01 3.877638816833496094e+00 -1.353338360786437988e+00
4.279000000000000000e+03 5.885877990722656250e+01 -1.229314517974853516e+01 -4.009850621223449707e-01 1.127443504333496094e+01 3.262034893035888672e+00 3.434799015522003174e-01
4.280000000000000000e+03 6.018744277954101562e+01 -1.304625225067138672e+01 -3.005601167678833008e-01 1.064712905883789062e+01 3.103970766067504883e+00 -2.417295873165130615e-01
4.281000000000000000e+03 5.740502929687500000e+01 1.220764160156250000e+00 -7.632858157157897949e-01 9.592110633850097656e+00 2.648647546768188477e+00 -1.551456212997436523e+00
4.282000000000000000e+03 5.867616653442382812e+01 7.310002446174621582e-01 -7.033010125160217285e-01 1.040859985351562500e+01 2.911589622497558594e+00 -7.504671216011047363e-01
4.283000000000000000e+03 6.139888381958007812e+01 -1.646710276603698730e+00 1.036350011825561523e+00 1.078189754486083984e+01 3.545474290847778320e+00 1.184846639633178711e+00
4.284000000000000000e+03 5.790203857421875000e+01 1.152315855026245117e+00 -7.903924584388732910e-01 9.899150848388671875e+00 2.732627630233764648e+00 -1.262407779693603516e+00
4.285000000000000000e+03 5.851785659790039062e+01 -1.273945331573486328e+01 -6.076250672340393066e-01 1.094468975067138672e+01 3.101119518280029297e+00 7.418906092643737793e-01
4.286000000000000000e+03 6.268601608276367188e+01 -8.344918251037597656e+00 3.092283725738525391e+00 9.745294570922851562e+00 3.851273536682128906e+00 -9.945036172866821289e-01
4.287000000000000000e+03 6.174194717407226562e+01 -9.203211784362792969e+00 2.694187641143798828e+00 1.047880554199218750e+01 3.951898097991943359e+00 -1.362550139427185059e+00
4.288000000000000000e+03 5.914981079101562500e+01 2.317349910736083984e-01 -5.464072823524475098e-01 1.077845287322998047e+01 3.069613695144653320e+00 -3.680407106876373291e-01
4.289000000000000000e+03 5.895117568969726562e+01 -2.051114886999130249e-01 -4.838563203811645508e-01 1.111058330535888672e+01 3.188018083572387695e+00 -4.020996391773223877e-01
4.290000000000000000e+03 5.762007141113281250e+01 -1.376851940155029297e+01 -7.890022397041320801e-01 9.816527366638183594e+00 2.708257436752319336e+00 1.487374186515808105e+00
4.291000000000000000e+03 5.641818618774414062e+01 -1.340214633941650391e+01 -6.174615025520324707e-01 9.083684921264648438e+00 2.539867162704467773e+00 2.268605947494506836e+00
4.292000000000000000e+03 6.162665939331054688e+01 -1.024944591522216797e+01 1.741394042968750000e+00 1.065712738037109375e+01 3.719556331634521484e+00 -1.358557224273681641e+00
4.293000000000000000e+03 6.170479583740234375e+01 -8.881278038024902344e+00 2.969521284103393555e+00 1.045376014709472656e+01 4.026984691619873047e+00 -1.324342370033264160e+00
4.294000000000000000e+03 6.064331054687500000e+01 -1.372203469276428223e+00 6.127647757530212402e-01 1.112347793579101562e+01 3.520872831344604492e+00 9.308204650878906250e-01
4.295000000000000000e+03 5.570163726806640625e+01 -1.445251369476318359e+01 -5.167751908302307129e-01 7.883550167083740234e+00 2.210032463073730469e+00 2.397829532623291016e+00
4.296000000000000000e+03 6.357313156127929688e+01 -9.055186271667480469e+00 2.396586894989013672e+00 9.412541389465332031e+00 3.542738437652587891e+00 -1.075025081634521484e+00
4.297000000000000000e+03 5.849986267089843750e+01 -1.607254028320312500e+01 -8.688902854919433594e-01 8.992568016052246094e+00 2.437103271484375000e+00 9.334988594055175781e-01
4.298000000000000000e+03 6.218898773193359375e+01 -1.318843173980712891e+01 1.333557516336441040e-01 1.000791835784912109e+01 3.042382240295410156e+00 -8.791853189468383789e-01
4.299000000000000000e+03 6.260083389282226562e+01 -7.014603137969970703e+00 3.726485013961791992e+00 9.609102249145507812e+00 4.000676155090332031e+00 -3.721772730350494385e-01
4.300000000000000000e+03 5.948592758178710938e+01 7.427567839622497559e-01 -5.732464194297790527e-01 1.046390628814697266e+01 2.967197895050048828e+00 -2.639999389648437500e-01
4.301000000000000000e+03 5.907495117187500000e+01 1.176642417907714844e+00 -7.115494608879089355e-01 1.018563270568847656e+01 2.842225074768066406e+00 -5.727304816246032715e-01
4.302000000000000000e+03 6.047277450561523438e+01 -1.463541698455810547e+01 -6.098062992095947266e-01 9.886610031127929688e+00 2.783041000366210938e+00 -2.609040588140487671e-02
4.303000000000000000e+03 5.580357742309570312e+01 -1.587971305847167969e+01 -5.872785449028015137e-01 7.541041374206542969e+00 2.086128950119018555e+00 2.024672508239746094e+00
4.304000000000000000e+03 5.757389450073242188e+01 -1.493164253234863281e+01 -8.114317059516906738e-01 9.086847305297851562e+00 2.482624530792236328e+00 1.430469036102294922e+00
4.305000000000000000e+03 6.207387542724609375e+01 -7.212633132934570312e+00 3.933003425598144531e+00 9.901238441467285156e+00 4.150272369384765625e+00 -5.343276262283325195e-01
4.306000000000000000e+03 6.118687057495117188e+01 -1.355798530578613281e+01 -2.058971226215362549e-01 1.020472335815429688e+01 2.999648094177246094e+00 -5.258375406265258789e-01
4.307000000000000000e+03 5.906228637695312500e+01 2.272731781005859375e+00 -8.199443817138671875e-01 9.618537902832031250e+00 2.639578104019165039e+00 -6.793779134750366211e-01
4.308000000000000000e+03 6.261139297485351562e+01 -1.073213863372802734e+01 1.481483101844787598e+00 1.008929538726806641e+01 3.471233367919921875e+00 -1.312333822250366211e+00
4.309000000000000000e+03 6.237706375122070312e+01 -1.009124565124511719e+01 1.939823508262634277e+00 1.019589614868164062e+01 3.640716075897216797e+00 -1.357870697975158691e+00
4.310000000000000000e+03 6.235774612426757812e+01 -9.354886054992675781e+00 2.493138551712036133e+00 1.010765647888183594e+01 3.780238628387451172e+00 -1.304516553878784180e+00
4.311000000000000000e+03 5.712006378173828125e+01 2.901642084121704102e+00 -8.011890649795532227e-01 8.538513183593750000e+00 2.321197271347045898e+00 -1.539715766906738281e+00
4.312000000000000000e+03 5.845806884765625000e+01 2.506679773330688477e+00 -8.506868481636047363e-01 9.300833702087402344e+00 2.535043954849243164e+00 -9.755012392997741699e-01
4.313000000000000000e+03 5.665227127075195312e+01 2.363010644912719727e+00 -7.230850458145141602e-01 8.458493232727050781e+00 2.320622444152832031e+00 -1.838404893875122070e+00
4.314000000000000000e+03 5.916382598876953125e+01 -1.611904907226562500e+01 -8.694103956222534180e-01 9.166124343872070312e+00 2.489014148712158203e+00 6.625995635986328125e-01
4.315000000000000000e+03 5.810424423217773438e+01 -1.482091903686523438e+01 -8.361331820487976074e-01 9.402204513549804688e+00 2.569821596145629883e+00 1.149626135826110840e+00
4.316000000000000000e+03 5.626630783081054688e+01 -1.539865112304687500e+01 -6.627452969551086426e-01 8.027389526367187500e+00 2.209393262863159180e+00 1.953450441360473633e+00
4.317000000000000000e+03 5.569784164428710938e+01 4.557115554809570312e+00 -6.025757193565368652e-01 7.088041305541992188e+00 1.945639729499816895e+00 -1.795790195465087891e+00
4.318000000000000000e+03 5.773374176025390625e+01 -1.638407325744628906e+01 -8.354789018630981445e-01 8.513518333435058594e+00 2.303411960601806641e+00 1.249184608459472656e+00
4.319000000000000000e+03 5.714485931396484375e+01 -1.776936912536621094e+01 -7.758954167366027832e-01 7.724794387817382812e+00 2.084669828414916992e+00 1.351474404335021973e+00
4.320000000000000000e+03 5.597298812866210938e+01 -1.681489562988281250e+01 -6.321722865104675293e-01 7.408593654632568359e+00 2.032926321029663086e+00 1.822944521903991699e+00
4.321000000000000000e+03 5.189915847778320312e+01 1.355157566070556641e+01 -1.736111342906951904e-01 4.700960159301757812e+00 1.358204722404479980e+00 -1.000106573104858398e+00
4.322000000000000000e+03 3.632825469970703125e+01 1.840873908996582031e+01 2.014640569686889648e-01 1.300738930702209473e+00 4.506608843803405762e-01 -1.305500715970993042e-01
4.323000000000000000e+03 3.475104141235351562e+01 1.981198692321777344e+01 1.863580793142318726e-01 1.128854393959045410e+00 3.945637345314025879e-01 -9.184039384126663208e-02
4.324000000000000000e+03 6.025398254394531250e+01 -1.393291568756103516e+01 -5.040576457977294922e-01 1.026269626617431641e+01 2.927591562271118164e+00 -6.851852685213088989e-02
4.325000000000000000e+03 6.120985412597656250e+01 -9.928913116455078125e+00 1.993660092353820801e+00 1.095618820190429688e+01 3.884954452514648438e+00 -1.391619920730590820e+00
4.326000000000000000e+03 6.049893188476562500e+01 -1.151277256011962891e+01 5.236493945121765137e-01 1.121831226348876953e+01 3.522588491439819336e+00 -8.627756237983703613e-01
4.327000000000000000e+03 6.166744613647460938e+01 -1.255271816253662109e+01 2.787831723690032959e-01 1.033125591278076172e+01 3.183011531829833984e+00 -8.909016251564025879e-01
4.328000000000000000e+03 5.995982742309570312e+01 -1.152959632873535156e+01 2.951031029224395752e-01 1.152465629577636719e+01 3.545928001403808594e+00 -6.120861768722534180e-01
4.329000000000000000e+03 5.841941070556640625e+01 3.641896545886993408e-01 -6.981563568115234375e-01 1.056759929656982422e+01 2.960833072662353516e+00 -9.017732739448547363e-01
4.330000000000000000e+03 6.160533523559570312e+01 -1.357345008850097656e+01 -1.170732378959655762e-01 1.008389568328857422e+01 2.990046739578247070e+00 -6.499848365783691406e-01
4.331000000000000000e+03 5.949004745483398438e+01 -6.672815233469009399e-02 -3.684539496898651123e-01 1.094827175140380859e+01 3.173945426940917969e+00 -5.504394322633743286e-02
4.332000000000000000e+03 5.808806610107421875e+01 -1.324001026153564453e+01 -7.326424717903137207e-01 1.040116882324218750e+01 2.900557994842529297e+00 1.153107404708862305e+00
4.333000000000000000e+03 5.808344268798828125e+01 -1.268096828460693359e+01 -6.553401947021484375e-01 1.087230300903320312e+01 3.065088748931884766e+00 1.083741664886474609e+00
4.334000000000000000e+03 6.167115402221679688e+01 -1.201331329345703125e+01 5.409242510795593262e-01 1.045439052581787109e+01 3.298594236373901367e+00 -1.014528036117553711e+00
4.335000000000000000e+03 5.619775772094726562e+01 -1.427539920806884766e+01 -6.116846203804016113e-01 8.447375297546386719e+00 2.350707292556762695e+00 2.191704273223876953e+00
4.336000000000000000e+03 5.711861038208007812e+01 -1.429220962524414062e+01 -7.568664550781250000e-01 9.207814216613769531e+00 2.535284280776977539e+00 1.731061577796936035e+00
4.337000000000000000e+03 5.876383209228515625e+01 3.242813646793365479e-01 -6.236475110054016113e-01 1.065369510650634766e+01 3.009014368057250977e+00 -6.297890543937683105e-01
4.338000000000000000e+03 6.153934097290039062e+01 -9.667659759521484375e+00 2.240981101989746094e+00 1.073989295959472656e+01 3.894262075424194336e+00 -1.417453408241271973e+00
4.339000000000000000e+03 6.192623901367187500e+01 -9.533245086669921875e+00 2.384296417236328125e+00 1.042373943328857422e+01 3.842410802841186523e+00 -1.385152816772460938e+00
4.340000000000000000e+03 5.864265060424804688e+01 1.552428364753723145e+00 -7.890050411224365234e-01 9.882265090942382812e+00 2.727977991104125977e+00 -8.472587466239929199e-01
4.341000000000000000e+03 6.061895370483398438e+01 -1.250957870483398438e+01 1.212443131953477859e-02 1.078364276885986328e+01 3.238730192184448242e+00 -5.738741755485534668e-01
4.342000000000000000e+03 5.727585220336914062e+01 3.966010570526123047e+00 -8.184430599212646484e-01 8.215860366821289062e+00 2.219225168228149414e+00 -1.378803849220275879e+00
4.343000000000000000e+03 5.758044052124023438e+01 1.853026390075683594e+00 -8.147752285003662109e-01 9.295174598693847656e+00 2.544119834899902344e+00 -1.424239277839660645e+00
4.344000000000000000e+03 5.623268508911132812e+01 2.882644176483154297e+00 -6.600447893142700195e-01 7.912438392639160156e+00 2.175718069076538086e+00 -1.924607753753662109e+00
4.345000000000000000e+03 5.847363662719726562e+01 3.166302442550659180e+00 -8.678072690963745117e-01 9.047278404235839844e+00 2.453841447830200195e+00 -9.632030129432678223e-01
4.346000000000000000e+03 5.834445571899414062e+01 -1.538506889343261719e+01 -8.584283590316772461e-01 9.208714485168457031e+00 2.505085706710815430e+00 1.010189652442932129e+00
4.347000000000000000e+03 5.893953704833984375e+01 -1.492202281951904297e+01 -8.273119330406188965e-01 9.643632888793945312e+00 2.644896268844604492e+00 7.148820161819458008e-01
4.348000000000000000e+03 4.969195175170898438e+01 1.364272499084472656e+01 -1.542848348617553711e-02 3.953387975692749023e+00 1.181387782096862793e+00 -9.624012708663940430e-01
4.349000000000000000e+03 4.105362701416015625e+01 1.787749862670898438e+01 2.310139536857604980e-01 2.066083908081054688e+00 6.891293525695800781e-01 -3.645376265048980713e-01
4.350000000000000000e+03 3.255818939208984375e+01 1.902289962768554688e+01 1.153436675667762756e-01 8.021172285079956055e-01 2.752382755279541016e-01 2.816233085468411446e-03
4.351000000000000000e+03 5.809112930297851562e+01 -1.380843257904052734e+01 -7.944917082786560059e-01 9.985493659973144531e+00 2.757300615310668945e+00 1.190663576126098633e+00
4.352000000000000000e+03 5.855069732666015625e+01 -1.327088451385498047e+01 -6.775264739990234375e-01 1.055710124969482422e+01 2.963872671127319336e+00 7.831212878227233887e-01
4.353000000000000000e+03 6.129798126220703125e+01 -1.062756729125976562e+01 1.362514853477478027e+00 1.087003040313720703e+01 3.669763565063476562e+00 -1.275495648384094238e+00
4.354000000000000000e+03 5.960481262207031250e+01 -1.208177471160888672e+01 -1.075084134936332703e-01 1.128250217437744141e+01 3.352498054504394531e+00 -1.920321583747863770e-01
4.355000000000000000e+03 6.168280792236328125e+01 -1.146035385131835938e+01 8.739963173866271973e-01 1.055141544342041016e+01 3.427623510360717773e+00 -1.145731806755065918e+00
4.356000000000000000e+03 6.110711288452148438e+01 -1.197781181335449219e+01 4.262120127677917480e-01 1.072442722320556641e+01 3.345191717147827148e+00 -8.986512422561645508e-01
4.357000000000000000e+03 5.980091094970703125e+01 -1.303429889678955078e+01 -3.879385292530059814e-01 1.073720169067382812e+01 3.104778766632080078e+00 -5.934363603591918945e-02
4.358000000000000000e+03 5.892100143432617188e+01 -1.272696304321289062e+01 -5.020053982734680176e-01 1.099926948547363281e+01 3.149179220199584961e+00 4.020519852638244629e-01
4.359000000000000000e+03 6.106621932983398438e+01 -1.143840885162353516e+01 7.450838685035705566e-01 1.088775348663330078e+01 3.489851236343383789e+00 -1.042086958885192871e+00
4.360000000000000000e+03 5.804542160034179688e+01 -1.433922004699707031e+01 -8.225571513175964355e-01 9.675120353698730469e+00 2.655769109725952148e+00 1.213217854499816895e+00
4.361000000000000000e+03 5.936135101318359375e+01 -1.440951347351074219e+01 -7.384660243988037109e-01 9.949332237243652344e+00 2.763259649276733398e+00 4.523501992225646973e-01
4.362000000000000000e+03 6.210383605957031250e+01 -1.050785923004150391e+01 1.602721095085144043e+00 1.037737655639648438e+01 3.594029188156127930e+00 -1.328880429267883301e+00
4.363000000000000000e+03 5.651613235473632812e+01 -1.473945426940917969e+01 -6.962477564811706543e-01 8.500908851623535156e+00 2.341398239135742188e+00 1.967549324035644531e+00
4.364000000000000000e+03 5.813261413574218750e+01 1.787522196769714355e+00 -8.218629956245422363e-01 9.608471870422363281e+00 2.635982751846313477e+00 -1.131459832191467285e+00
4.365000000000000000e+03 5.859707641601562500e+01 -1.388646507263183594e+01 -7.647136449813842773e-01 1.010290718078613281e+01 2.801457881927490234e+00 8.368956446647644043e-01
4.366000000000000000e+03 5.978425598144531250e+01 -1.414553070068359375e+01 -6.230585575103759766e-01 1.018746852874755859e+01 2.869322776794433594e+00 1.581716090440750122e-01
4.367000000000000000e+03 6.073804855346679688e+01 -1.370389747619628906e+01 -3.533446192741394043e-01 1.025967121124267578e+01 2.971898078918457031e+00 -3.097755610942840576e-01
4.368000000000000000e+03 5.761827850341796875e+01 -1.560926723480224609e+01 -8.242030739784240723e-01 8.730486869812011719e+00 2.371885299682617188e+00 1.362842559814453125e+00
4.369000000000000000e+03 4.782572937011718750e+01 1.671597099304199219e+01 6.698776781558990479e-02 3.523100852966308594e+00 1.077026605606079102e+00 -7.243229746818542480e-01
4.370000000000000000e+03 4.682307052612304688e+01 1.540536594390869141e+01 1.327438503503799438e-01 3.242246627807617188e+00 1.012497186660766602e+00 -7.461213469505310059e-01
4.371000000000000000e+03 4.067005920410156250e+01 2.112295532226562500e+01 2.434440106153488159e-01 2.152144670486450195e+00 7.186765670776367188e-01 -3.271804451942443848e-01
4.372000000000000000e+03 5.931322097778320312e+01 -1.265169906616210938e+01 -3.913057744503021240e-01 1.099819660186767578e+01 3.182067394256591797e+00 1.363798528909683228e-01
4.373000000000000000e+03 6.056760025024414062e+01 -1.198904514312744141e+01 2.591405212879180908e-01 1.101971721649169922e+01 3.383657217025756836e+00 -7.337698936462402344e-01
4.374000000000000000e+03 6.086600875854492188e+01 -1.092663764953613281e+01 1.029475808143615723e+00 1.112656307220458984e+01 3.646811485290527344e+00 -1.144640445709228516e+00
4.375000000000000000e+03 5.703116226196289062e+01 -1.491198539733886719e+01 -7.722678184509277344e-01 8.777243614196777344e+00 2.401492595672607422e+00 1.720104098320007324e+00
4.376000000000000000e+03 5.910128784179687500e+01 -1.383825206756591797e+01 -6.897153854370117188e-01 1.022748851776123047e+01 2.861331701278686523e+00 5.162560343742370605e-01
4.377000000000000000e+03 5.998767471313476562e+01 -1.343350028991699219e+01 -4.445425868034362793e-01 1.051345729827880859e+01 3.020674467086791992e+00 -7.213528454303741455e-02
4.378000000000000000e+03 6.063923263549804688e+01 -1.308606338500976562e+01 -1.961828768253326416e-01 1.053344535827636719e+01 3.101178884506225586e+00 -4.165037870407104492e-01
4.379000000000000000e+03 6.112724685668945312e+01 -1.251361560821533203e+01 1.600862741470336914e-01 1.056920814514160156e+01 3.218788385391235352e+00 -7.538107633590698242e-01
4.380000000000000000e+03 5.672460556030273438e+01 3.465445995330810547e+00 -7.446184754371643066e-01 8.056308746337890625e+00 2.193507194519042969e+00 -1.634995937347412109e+00
4.381000000000000000e+03 5.217639541625976562e+01 1.935449218750000000e+01 -1.325819194316864014e-01 4.672605514526367188e+00 1.362007021903991699e+00 -6.465517878532409668e-01
4.382000000000000000e+03 4.537672042846679688e+01 1.669927215576171875e+01 1.647821813821792603e-01 2.921445369720458984e+00 9.258682131767272949e-01 -6.326609849929809570e-01
4.383000000000000000e+03 4.662454986572265625e+01 1.808001708984375000e+01 1.137006357312202454e-01 3.293429851531982422e+00 1.022139191627502441e+00 -6.380066275596618652e-01
4.384000000000000000e+03 5.971836853027343750e+01 -1.256901073455810547e+01 -2.676236331462860107e-01 1.097147846221923828e+01 3.211156368255615234e+00 -1.097619906067848206e-01
4.385000000000000000e+03 5.899177932739257812e+01 -1.324118709564208984e+01 -6.068078279495239258e-01 1.062871551513671875e+01 3.006572246551513672e+00 4.847244024276733398e-01
4.386000000000000000e+03 5.956689834594726562e+01 -1.364565753936767578e+01 -5.732707977294921875e-01 1.038662242889404297e+01 2.944005727767944336e+00 1.853584796190261841e-01
4.387000000000000000e+03 5.941157150268554688e+01 -1.314485645294189453e+01 -4.869433045387268066e-01 1.068641853332519531e+01 3.059842586517333984e+00 1.782275885343551636e-01
4.388000000000000000e+03 5.359289169311523438e+01 2.033114814758300781e+01 -1.928301751613616943e-01 5.009612083435058594e+00 1.445034623146057129e+00 -5.643857121467590332e-01
4.389000000000000000e+03 4.959690856933593750e+01 2.026983261108398438e+01 -8.336643222719430923e-04 4.038494110107421875e+00 1.211298108100891113e+00 -5.878429412841796875e-01
4.390000000000000000e+03 4.527432632446289062e+01 1.963573265075683594e+01 1.577294021844863892e-01 3.032019376754760742e+00 9.569246172904968262e-01 -5.396810770034790039e-01
4.391000000000000000e+03 3.122017478942871094e+01 1.924370384216308594e+01 1.027802824974060059e-01 6.662233471870422363e-01 2.307010889053344727e-01 2.201514504849910736e-02
4.392000000000000000e+03 5.035684204101562500e+01 2.334547996520996094e+01 1.093780994415283203e-02 4.205390453338623047e+00 1.264898419380187988e+00 -4.692142903804779053e-01
4.393000000000000000e+03 5.603848266601562500e+01 2.205511856079101562e+01 -2.227820903062820435e-01 5.483060359954833984e+00 1.578083395957946777e+00 -4.063227176666259766e-01
4.394000000000000000e+03 3.049236297607421875e+01 -2.806336784362792969e+01 4.260827898979187012e-01 3.941319584846496582e-01 2.460644394159317017e-01 -1.589125543832778931e-01
4.395000000000000000e+03 5.291248703002929688e+01 2.209044647216796875e+01 -1.110191270709037781e-01 4.796426296234130859e+00 1.405622124671936035e+00 -5.066986083984375000e-01
4.396000000000000000e+03 5.845921707153320312e+01 2.065590667724609375e+01 -3.308733999729156494e-01 5.997117996215820312e+00 1.699873447418212891e+00 -3.198353946208953857e-01
4.397000000000000000e+03 7.138645935058593750e+01 -3.815267181396484375e+01 -1.546003669500350952e-01 7.826308727264404297e+00 2.301512479782104492e+00 -1.005186364054679871e-01
4.398000000000000000e+03 2.022907257080078125e+01 -2.310902976989746094e+01 -4.085201770067214966e-02 -1.696130633354187012e-01 -6.313952058553695679e-02 -3.748940527439117432e-01
4.399000000000000000e+03 1.900240516662597656e+01 -2.560268020629882812e+01 1.082063689827919006e-01 -2.227981537580490112e-01 -3.437753766775131226e-02 -3.495598733425140381e-01
4.400000000000000000e+03 2.498538208007812500e+01 3.000394248962402344e+01 3.896890878677368164e-01 1.322069913148880005e-01 1.565688252449035645e-01 4.722037911415100098e-02
4.401000000000000000e+03 6.306971740722656250e+01 -3.344965744018554688e+01 -3.897134661674499512e-01 6.870359420776367188e+00 1.944193720817565918e+00 2.978043258190155029e-02
4.402000000000000000e+03 6.051132583618164062e+01 -3.197418022155761719e+01 -4.068286120891571045e-01 6.565319538116455078e+00 1.847547292709350586e+00 1.509045362472534180e-01
4.403000000000000000e+03 5.841605758666992188e+01 -2.978409194946289062e+01 -4.394411146640777588e-01 6.258617401123046875e+00 1.745752930641174316e+00 3.504394590854644775e-01
4.404000000000000000e+03 5.505904769897460938e+01 -2.645035934448242188e+01 -3.607981503009796143e-01 5.630649566650390625e+00 1.580955386161804199e+00 8.295349478721618652e-01
4.405000000000000000e+03 8.544642448425292969e+00 3.655088043212890625e+01 1.793441474437713623e-01 -6.904454231262207031e-01 -1.533303856849670410e-01 1.908492296934127808e-01
4.406000000000000000e+03 2.585764312744140625e+01 -2.814815902709960938e+01 3.368802070617675781e-01 1.089822053909301758e-01 1.337587237358093262e-01 -2.576603889465332031e-01
4.407000000000000000e+03 1.574885940551757812e+01 2.912807655334472656e+01 3.000468611717224121e-01 -6.308448910713195801e-01 -9.923940896987915039e-02 3.023396134376525879e-01
4.408000000000000000e+03 4.680497741699218750e+01 2.099928283691406250e+01 1.079350709915161133e-01 3.413842916488647461e+00 1.056533336639404297e+00 -5.386844873428344727e-01
4.409000000000000000e+03 4.411922073364257812e+01 -3.342919540405273438e+01 4.154879450798034668e-01 2.622927427291870117e+00 9.115245938301086426e-01 3.717135787010192871e-01
4.410000000000000000e+03 4.750181579589843750e+01 -3.429756927490234375e+01 2.599386572837829590e-01 3.383423566818237305e+00 1.093008637428283691e+00 3.867170810699462891e-01
4.411000000000000000e+03 3.242573928833007812e+01 1.748391151428222656e+01 8.994082361459732056e-02 7.210533022880554199e-01 2.432982325553894043e-01 5.303584039211273193e-02
4.412000000000000000e+03 3.372384643554687500e+01 1.824901771545410156e+01 1.348777860403060913e-01 9.403877258300781250e-01 3.225796520709991455e-01 -1.885841228067874908e-02
4.413000000000000000e+03 4.390389633178710938e+01 1.813559722900390625e+01 1.965692341327667236e-01 2.657285928726196289e+00 8.561565876007080078e-01 -5.134400725364685059e-01
4.414000000000000000e+03 1.120983028411865234e+01 -3.455667495727539062e+01 1.959736645221710205e-01 -4.506451189517974854e-01 -7.640143483877182007e-02 -2.155147939920425415e-01
4.415000000000000000e+03 2.705544090270996094e+01 -2.548350334167480469e+01 2.425382435321807861e-01 1.343410164117813110e-01 1.130637750029563904e-01 -2.975313067436218262e-01
4.416000000000000000e+03 7.517161560058593750e+01 -3.786410522460937500e+01 -8.731388300657272339e-02 8.372957229614257812e+00 2.485692977905273438e+00 -1.465002745389938354e-01
4.417000000000000000e+03 2.240363693237304688e+01 -2.464647865295410156e+01 8.442813158035278320e-02 -9.630325436592102051e-02 -3.562537487596273422e-03 -3.528671562671661377e-01
4.418000000000000000e+03 1.375858306884765625e+01 3.026546096801757812e+01 2.739962637424468994e-01 -6.578748822212219238e-01 -1.151635870337486267e-01 3.315402567386627197e-01
4.419000000000000000e+03 1.641823005676269531e+01 3.329648208618164062e+01 3.732477128505706787e-01 -4.924849569797515869e-01 -3.577117249369621277e-02 2.086101919412612915e-01
4.420000000000000000e+03 6.093527984619140625e+01 2.224998474121093750e+01 -3.168390691280364990e-01 6.396827220916748047e+00 1.823996424674987793e+00 -1.626341789960861206e-01
4.421000000000000000e+03 6.520425415039062500e+01 2.506355857849121094e+01 -2.239814400672912598e-01 6.982638359069824219e+00 2.027596950531005859e+00 1.173382531851530075e-02
4.422000000000000000e+03 3.103952789306640625e+01 1.770639038085937500e+01 5.258605256676673889e-02 5.890402197837829590e-01 1.924878805875778198e-01 8.428563922643661499e-02
4.423000000000000000e+03 4.936560821533203125e+01 -2.773049354553222656e+01 1.317197084426879883e-01 3.756096601486206055e+00 1.166344881057739258e+00 8.514086008071899414e-01
4.424000000000000000e+03 5.366198730468750000e+01 -2.736927223205566406e+01 -2.183906584978103638e-01 5.120269298553466797e+00 1.470563650131225586e+00 8.343203067779541016e-01
4.425000000000000000e+03 5.239664077758789062e+01 -2.485051155090332031e+01 -1.389621943235397339e-01 4.769673347473144531e+00 1.389213323593139648e+00 1.114261388778686523e+00
4.426000000000000000e+03 3.657368469238281250e+01 -3.153369712829589844e+01 5.740547776222229004e-01 1.158809304237365723e+00 5.198591947555541992e-01 9.834913164377212524e-02
4.427000000000000000e+03 3.876865005493164062e+01 -2.927111434936523438e+01 5.394750237464904785e-01 1.416944980621337891e+00 5.869259834289550781e-01 2.011237591505050659e-01
4.428000000000000000e+03 8.152842521667480469e+00 -4.099365234375000000e+01 1.174991577863693237e-01 -5.612995624542236328e-01 -1.331401169300079346e-01 -3.998507186770439148e-02
4.429000000000000000e+03 1.357489109039306641e+01 -3.291297531127929688e+01 2.251278012990951538e-01 -4.032247960567474365e-01 -5.342909693717956543e-02 -2.508661150932312012e-01
4.430000000000000000e+03 1.179359722137451172e+01 3.342385864257812500e+01 2.728085815906524658e-01 -6.316336989402770996e-01 -1.076475307345390320e-01 2.937782108783721924e-01
4.431000000000000000e+03 1.062980747222900391e+01 3.771965408325195312e+01 2.377106547355651855e-01 -6.454900503158569336e-01 -1.223338171839714050e-01 1.586054563522338867e-01
4.432000000000000000e+03 2.306501197814941406e+01 2.888272094726562500e+01 3.410930037498474121e-01 -1.431885212659835815e-01 5.937134101986885071e-02 7.766067236661911011e-02
4.433000000000000000e+03 8.614933013916015625e+00 4.078292846679687500e+01 1.669237166643142700e-01 -7.026066184043884277e-01 -1.607048809528350830e-01 5.836347863078117371e-02
4.434000000000000000e+03 4.637478637695312500e+01 -2.870353889465332031e+01 3.101620972156524658e-01 3.014117002487182617e+00 9.972837567329406738e-01 7.005625367164611816e-01
4.435000000000000000e+03 5.164092636108398438e+01 -2.784232330322265625e+01 -4.407489299774169922e-02 4.449163436889648438e+00 1.321526527404785156e+00 8.443297743797302246e-01
4.436000000000000000e+03 4.117251205444335938e+01 -3.165567970275878906e+01 5.188100337982177734e-01 2.011013507843017578e+00 7.589470744132995605e-01 3.157425820827484131e-01
4.437000000000000000e+03 1.247158145904541016e+01 -3.738848495483398438e+01 2.402913123369216919e-01 -4.125133752822875977e-01 -5.166662111878395081e-02 -1.405532360076904297e-01
4.438000000000000000e+03 2.307278442382812500e+01 -3.768442535400390625e+01 4.961394965648651123e-01 3.357008844614028931e-02 1.589128673076629639e-01 -9.853208065032958984e-02
4.439000000000000000e+03 3.912984085083007812e+01 -3.444467926025390625e+01 5.642133951187133789e-01 1.706372976303100586e+00 6.811758875846862793e-01 1.651822924613952637e-01
4.440000000000000000e+03 3.587503814697265625e+01 -3.658942413330078125e+01 6.011520624160766602e-01 1.298299312591552734e+00 5.698353648185729980e-01 6.043822690844535828e-02
4.441000000000000000e+03 4.738399505615234375e+01 -4.075777053833007812e+01 2.623427212238311768e-01 3.444778442382812500e+00 1.112136363983154297e+00 7.828889787197113037e-02
4.442000000000000000e+03 4.732815551757812500e+01 -3.738278579711914062e+01 2.661564648151397705e-01 3.409975290298461914e+00 1.102839469909667969e+00 2.331512272357940674e-01
4.443000000000000000e+03 5.876034545898437500e+01 -3.462356948852539062e+01 -2.996828854084014893e-01 6.034383296966552734e+00 1.720410108566284180e+00 1.963668614625930786e-01
4.444000000000000000e+03 5.574357986450195312e+01 -3.661687088012695312e+01 -1.633751243352890015e-01 5.378450870513916016e+00 1.564522743225097656e+00 2.197233587503433228e-01
4.445000000000000000e+03 6.612951660156250000e+01 3.711504364013671875e+01 -1.877577416598796844e-02 6.902314186096191406e+00 2.065061569213867188e+00 -9.126685559749603271e-03
4.446000000000000000e+03 5.701897430419921875e+01 3.751394653320312500e+01 4.245642200112342834e-02 5.346176624298095703e+00 1.616589903831481934e+00 -6.867302209138870239e-02
4.447000000000000000e+03 3.640575027465820312e+01 3.623183441162109375e+01 4.268963038921356201e-01 1.762179851531982422e+00 6.567228436470031738e-01 -9.390346705913543701e-02
4.448000000000000000e+03 1.846775054931640625e+01 3.771325683593750000e+01 4.450197815895080566e-01 -3.127930462360382080e-01 3.966802731156349182e-02 8.751399815082550049e-02
4.449000000000000000e+03 2.292534828186035156e+01 3.774516296386718750e+01 5.064874887466430664e-01 4.489759355783462524e-02 1.654155254364013672e-01 3.348070010542869568e-02
4.450000000000000000e+03 1.423049736022949219e+01 3.780528640747070312e+01 3.405168354511260986e-01 -5.179061889648437500e-01 -5.321681499481201172e-02 1.337237507104873657e-01
4.451000000000000000e+03 2.920846366882324219e+01 2.051710128784179688e+01 9.347009658813476562e-02 4.480804204940795898e-01 1.624651551246643066e-01 4.431480914354324341e-02
4.452000000000000000e+03 5.456308364868164062e+01 2.250232315063476562e+01 -1.562809199094772339e-01 5.152692317962646484e+00 1.498923420906066895e+00 -4.425671696662902832e-01
4.453000000000000000e+03 3.451025009155273438e+01 -2.902089118957519531e+01 5.253027081489562988e-01 8.250938057899475098e-01 4.051189422607421875e-01 1.143166329711675644e-02
4.454000000000000000e+03 3.888286209106445312e+01 2.265318679809570312e+01 2.646366357803344727e-01 1.883573293685913086e+00 6.444629430770874023e-01 -2.582655847072601318e-01
4.455000000000000000e+03 3.302162170410156250e+01 2.077552604675292969e+01 1.788718849420547485e-01 9.315492510795593262e-01 3.331263363361358643e-01 -4.976666718721389771e-02
4.456000000000000000e+03 2.833887672424316406e+01 -2.961285018920898438e+01 4.340018332004547119e-01 2.927613258361816406e-01 2.180289477109909058e-01 -1.830008476972579956e-01
4.457000000000000000e+03 6.350458526611328125e+01 2.693201255798339844e+01 -1.864604949951171875e-01 6.658113479614257812e+00 1.941495895385742188e+00 -3.550312295556068420e-02
4.458000000000000000e+03 5.759491729736328125e+01 2.670655250549316406e+01 -1.437634974718093872e-01 5.632956504821777344e+00 1.646757960319519043e+00 -2.265921086072921753e-01
4.459000000000000000e+03 1.541251850128173828e+01 -3.086478614807128906e+01 2.320761829614639282e-01 -3.501822352409362793e-01 -3.543181344866752625e-02 -2.831919789314270020e-01
4.460000000000000000e+03 1.565044593811035156e+01 -3.530739593505859375e+01 3.068454861640930176e-01 -3.216758966445922852e-01 -4.449122585356235504e-03 -1.836340278387069702e-01
4.461000000000000000e+03 4.804594421386718750e+01 1.924553298950195312e+01 5.926586315035820007e-02 3.679916620254516602e+00 1.121754765510559082e+00 -6.225229501724243164e-01
4.462000000000000000e+03 2.077646636962890625e+01 -2.521787452697753906e+01 9.320187568664550781e-02 -1.564719974994659424e-01 -1.898103393614292145e-02 -3.458116948604583740e-01
4.463000000000000000e+03 4.544250488281250000e+01 2.283518409729003906e+01 1.580314189195632935e-01 3.157987356185913086e+00 9.948056936264038086e-01 -4.515200555324554443e-01
4.464000000000000000e+03 1.937342262268066406e+01 -2.755654716491699219e+01 2.127331197261810303e-01 -2.049403488636016846e-01 2.337830141186714172e-03 -3.205213546752929688e-01
4.465000000000000000e+03 5.012067413330078125e+01 -3.146779441833496094e+01 7.805189490318298340e-02 4.044145107269287109e+00 1.236659169197082520e+00 5.936968326568603516e-01
4.466000000000000000e+03 2.770509719848632812e+01 2.210471534729003906e+01 1.132487133145332336e-01 2.901268899440765381e-01 1.210126802325248718e-01 3.416315466165542603e-02
4.467000000000000000e+03 2.588174247741699219e+01 2.768868827819824219e+01 3.233693540096282959e-01 1.987189799547195435e-01 1.566265076398849487e-01 4.194436594843864441e-02
4.468000000000000000e+03 3.138515281677246094e+01 2.375457763671875000e+01 2.292343229055404663e-01 7.721210718154907227e-01 3.004066348075866699e-01 -6.008493527770042419e-02
4.469000000000000000e+03 5.896973419189453125e+01 2.310550117492675781e+01 -2.671645283699035645e-01 5.995998859405517578e+00 1.718650221824645996e+00 -2.429525256156921387e-01
4.470000000000000000e+03 6.748727416992187500e+01 3.119495773315429688e+01 -8.557883650064468384e-02 7.161128520965576172e+00 2.122664928436279297e+00 -4.234835039824247360e-03
4.471000000000000000e+03 4.856220245361328125e+01 -2.974708366394042969e+01 1.798977404832839966e-01 3.638081550598144531e+00 1.145393729209899902e+00 6.958181262016296387e-01
4.472000000000000000e+03 5.475474548339843750e+01 -2.942569541931152344e+01 -2.459387332201004028e-01 5.328428745269775391e+00 1.524747014045715332e+00 6.360969543457031250e-01
4.473000000000000000e+03 1.933803558349609375e+01 3.433411407470703125e+01 4.345087707042694092e-01 -3.077193796634674072e-01 3.803681954741477966e-02 1.294338703155517578e-01
4.474000000000000000e+03 4.392439270019531250e+01 2.476394653320312500e+01 2.083505690097808838e-01 2.886178255081176758e+00 9.283586740493774414e-01 -3.731132149696350098e-01
4.475000000000000000e+03 4.218551254272460938e+01 2.299567031860351562e+01 2.291884422302246094e-01 2.509882926940917969e+00 8.217213749885559082e-01 -3.606820702552795410e-01
4.476000000000000000e+03 4.938753128051757812e+01 2.552454757690429688e+01 6.600298732519149780e-02 3.976417541503906250e+00 1.212726116180419922e+00 -4.120835959911346436e-01
4.477000000000000000e+03 4.039413070678710938e+01 2.477310752868652344e+01 2.682905495166778564e-01 2.219016313552856445e+00 7.461920380592346191e-01 -2.786655724048614502e-01
4.478000000000000000e+03 3.692036819458007812e+01 2.414464187622070312e+01 2.826298177242279053e-01 1.605890393257141113e+00 5.665560364723205566e-01 -2.009094059467315674e-01
4.479000000000000000e+03 2.318771362304687500e+01 3.437149047851562500e+01 4.713929891586303711e-01 2.199416607618331909e-02 1.480161547660827637e-01 5.171595886349678040e-02
4.480000000000000000e+03 5.244113540649414062e+01 2.422512245178222656e+01 -5.473921447992324829e-02 4.668331146240234375e+00 1.384077548980712891e+00 -4.348059892654418945e-01
4.481000000000000000e+03 2.731541824340820312e+01 -3.191080093383789062e+01 4.831500947475433350e-01 2.664456069469451904e-01 2.248787134885787964e-01 -1.668050289154052734e-01
4.482000000000000000e+03 5.162053298950195312e+01 -3.736979675292968750e+01 4.708604142069816589e-02 4.409644126892089844e+00 1.337019085884094238e+00 2.326146811246871948e-01
4.483000000000000000e+03 5.067940521240234375e+01 2.907952499389648438e+01 8.475977927446365356e-02 4.262279510498046875e+00 1.304111719131469727e+00 -2.985542118549346924e-01
4.484000000000000000e+03 3.103547477722167969e+01 2.120750999450683594e+01 1.453503072261810303e-01 6.786289811134338379e-01 2.471937835216522217e-01 -1.355000585317611694e-02
4.485000000000000000e+03 5.467352294921875000e+01 2.452198028564453125e+01 -1.212044954299926758e-01 5.088655948638916016e+00 1.490235447883605957e+00 -3.850560486316680908e-01
4.486000000000000000e+03 2.898248672485351562e+01 2.463091659545898438e+01 2.242522239685058594e-01 4.908690750598907471e-01 2.145363986492156982e-01 -2.483911253511905670e-02
4.487000000000000000e+03 1.762070846557617188e+01 -3.246096801757812500e+01 3.190170228481292725e-01 -2.586147487163543701e-01 1.812068559229373932e-02 -2.456560879945755005e-01
4.488000000000000000e+03 2.153343009948730469e+01 -2.755149078369140625e+01 2.388869822025299072e-01 -1.109098866581916809e-01 3.839312866330146790e-02 -3.107598721981048584e-01
4.489000000000000000e+03 3.836537933349609375e+01 2.654358673095703125e+01 3.072758018970489502e-01 1.890132665634155273e+00 6.592225432395935059e-01 -2.229048460721969604e-01
4.490000000000000000e+03 4.815578460693359375e+01 2.775641059875488281e+01 1.281604617834091187e-01 3.754936933517456055e+00 1.164929270744323730e+00 -3.515398800373077393e-01
4.491000000000000000e+03 2.744637298583984375e+01 3.083637809753417969e+01 4.228154718875885010e-01 4.270268976688385010e-01 2.549526989459991455e-01 -1.802263222634792328e-02
4.492000000000000000e+03 5.254674530029296875e+01 3.438381958007812500e+01 9.249357134103775024e-02 4.574216365814208984e+00 1.400013089179992676e+00 -1.641011536121368408e-01
4.493000000000000000e+03 5.542862319946289062e+01 3.054876518249511719e+01 -8.836347609758377075e-03 5.136773109436035156e+00 1.538381099700927734e+00 -2.004121690988540649e-01
4.494000000000000000e+03 5.191051483154296875e+01 2.676093482971191406e+01 6.643972825258970261e-03 4.502551555633544922e+00 1.352758646011352539e+00 -3.556300997734069824e-01
4.495000000000000000e+03 2.723293304443359375e+01 -3.476001739501953125e+01 5.399441123008728027e-01 2.944372892379760742e-01 2.503144145011901855e-01 -1.167567595839500427e-01
4.496000000000000000e+03 2.446998786926269531e+01 -3.111906242370605469e+01 4.151048958301544189e-01 6.613994389772415161e-02 1.443734467029571533e-01 -2.219571471214294434e-01
4.497000000000000000e+03 5.249000930786132812e+01 -3.048464393615722656e+01 -7.752106338739395142e-02 4.661946773529052734e+00 1.375327706336975098e+00 6.372714638710021973e-01
4.498000000000000000e+03 5.393346786499023438e+01 -3.332368469238281250e+01 -1.273053437471389771e-01 4.995942592620849609e+00 1.460591197013854980e+00 4.285608828067779541e-01
4.499000000000000000e+03 6.130527496337890625e+01 2.853893280029296875e+01 -1.378481537103652954e-01 6.205880641937255859e+00 1.820409774780273438e+00 -9.554211795330047607e-02
4.500000000000000000e+03 2.994478607177734375e+01 2.748009490966796875e+01 3.383236527442932129e-01 6.787807941436767578e-01 3.051313459873199463e-01 -6.140650808811187744e-02
4.501000000000000000e+03 2.772250366210937500e+01 2.804952430725097656e+01 3.449615240097045898e-01 4.206646382808685303e-01 2.296878397464752197e-01 -2.983152493834495544e-02
4.502000000000000000e+03 3.162225532531738281e+01 -3.754788970947265625e+01 6.191217899322509766e-01 7.580546736717224121e-01 4.131529331207275391e-01 -3.152846544981002808e-02
4.503000000000000000e+03 4.762578582763671875e+01 4.074530029296875000e+01 2.371305078268051147e-01 3.648126125335693359e+00 1.165577054023742676e+00 -3.259395435452461243e-02
4.504000000000000000e+03 3.473400115966796875e+01 2.548100852966308594e+01 2.952693402767181396e-01 1.288778066635131836e+00 4.752142131328582764e-01 -1.509802192449569702e-01
4.505000000000000000e+03 3.371176147460937500e+01 2.297154998779296875e+01 2.442004978656768799e-01 1.086939215660095215e+00 3.993419110774993896e-01 -1.046433225274085999e-01
4.506000000000000000e+03 2.147475051879882812e+01 -3.045103073120117188e+01 3.405111432075500488e-01 -9.827720373868942261e-02 7.267017662525177002e-02 -2.580663859844207764e-01
4.507000000000000000e+03 2.366000556945800781e+01 -2.648419570922851562e+01 2.143574357032775879e-01 -2.508976124227046967e-02 5.678030103445053101e-02 -3.154058456420898438e-01
4.508000000000000000e+03 5.866440200805664062e+01 2.979050445556640625e+01 -9.114166349172592163e-02 5.752083301544189453e+00 1.698282480239868164e+00 -1.643350422382354736e-01
4.509000000000000000e+03 3.605831909179687500e+01 2.817334747314453125e+01 3.437816202640533447e-01 1.554019093513488770e+00 5.693402290344238281e-01 -1.778243035078048706e-01
4.510000000000000000e+03 4.590474700927734375e+01 2.635806465148925781e+01 1.723262667655944824e-01 3.309821128845214844e+00 1.044644236564636230e+00 -3.644970059394836426e-01
4.511000000000000000e+03 3.345409011840820312e+01 2.952839088439941406e+01 3.788561224937438965e-01 1.197048306465148926e+00 4.727713167667388916e-01 -1.259160041809082031e-01
4.512000000000000000e+03 4.810031890869140625e+01 3.732079315185546875e+01 2.168501317501068115e-01 3.714089155197143555e+00 1.179281711578369141e+00 -1.014773100614547729e-01
4.513000000000000000e+03 3.190676498413085938e+01 3.715310668945312500e+01 4.886777997016906738e-01 1.082092881202697754e+00 4.712311923503875732e-01 -3.701654821634292603e-02
4.514000000000000000e+03 5.481440353393554688e+01 2.725753211975097656e+01 -7.070852816104888916e-02 5.054372310638427734e+00 1.495099186897277832e+00 -2.963648736476898193e-01
4.515000000000000000e+03 4.946800994873046875e+01 3.129867362976074219e+01 1.361001878976821899e-01 3.959071874618530273e+00 1.228551626205444336e+00 -2.397210150957107544e-01
4.516000000000000000e+03 3.236490631103515625e+01 2.658834648132324219e+01 3.115020394325256348e-01 9.768618345260620117e-01 3.865091502666473389e-01 -1.047493964433670044e-01
4.517000000000000000e+03 3.475399780273437500e+01 3.268416595458984375e+01 4.155288040637969971e-01 1.449287056922912598e+00 5.594447255134582520e-01 -1.271270960569381714e-01
4.518000000000000000e+03 4.243192672729492188e+01 3.123326492309570312e+01 2.978535890579223633e-01 2.720954418182373047e+00 9.056423902511596680e-01 -2.229754775762557983e-01
4.519000000000000000e+03 4.431108093261718750e+01 2.866627120971679688e+01 2.344238460063934326e-01 3.016058444976806641e+00 9.751446843147277832e-01 -2.985158860683441162e-01
4.520000000000000000e+03 4.003689956665039062e+01 3.409636306762695312e+01 3.613353669643402100e-01 2.294678688049316406e+00 7.968041896820068359e-01 -1.446894705295562744e-01
4.521000000000000000e+03 4.677143478393554688e+01 3.020043563842773438e+01 2.032651752233505249e-01 3.493203639984130859e+00 1.108940601348876953e+00 -2.768885195255279541e-01
4.522000000000000000e+03 1.769351577758789062e+01 -7.698027610778808594e+00 -6.416612863540649414e-02 -8.192730695009231567e-02 -4.382802918553352356e-02 -7.466053217649459839e-02
4.523000000000000000e+03 1.784594154357910156e+01 -7.167366027832031250e+00 1.124125719070434570e-02 -8.049961252254433930e-06 3.369962098076939583e-03 -1.924677193164825439e-02
4.524000000000000000e+03 1.916954803466796875e+01 -3.760838508605957031e+00 -1.935586705803871155e-02 -3.738405928015708923e-02 -1.702197827398777008e-02 3.004523366689682007e-02
4.525000000000000000e+03 4.001950919628143311e-01 -2.191720008850097656e+00 1.020853669615462422e-04 -4.896281461697071791e-05 1.593676643096841872e-05 4.825087671633809805e-05
4.526000000000000000e+03 5.330859756469726562e+01 -4.203845977783203125e+00 1.358592987060546875e+00 1.770787000656127930e+00 9.388139843940734863e-01 -2.674444675445556641e+00
4.527000000000000000e+03 5.460711288452148438e+01 -4.752920150756835938e+00 2.954967260360717773e+00 4.029169082641601562e+00 2.095240831375122070e+00 -4.695075511932373047e+00
4.528000000000000000e+03 5.436111450195312500e+01 -4.575898647308349609e+00 2.566343069076538086e+00 3.531672477722167969e+00 1.829404711723327637e+00 -4.266825199127197266e+00
4.529000000000000000e+03 5.542166137695312500e+01 -4.743854999542236328e+00 2.891770124435424805e+00 1.036840820312500000e+01 3.978053331375122070e+00 -7.017499446868896484e+00
4.530000000000000000e+03 5.666556167602539062e+01 -4.786762714385986328e+00 1.467387795448303223e+00 2.011218643188476562e+01 6.473872184753417969e+00 -1.931168079376220703e+00
4.531000000000000000e+03 5.701264190673828125e+01 -4.253598690032958984e+00 1.047502160072326660e+00 1.768286514282226562e+01 5.619110107421875000e+00 -1.083121895790100098e+00
4.532000000000000000e+03 5.749185180664062500e+01 -5.479489326477050781e+00 7.433560848236083984e+00 1.896100807189941406e+01 7.918370246887207031e+00 2.635142326354980469e+00
4.533000000000000000e+03 5.760168838500976562e+01 -5.657323360443115234e+00 8.834547996520996094e+00 1.811607933044433594e+01 8.085187911987304688e+00 2.600690364837646484e+00
4.534000000000000000e+03 5.769474411010742188e+01 -5.844514846801757812e+00 9.900808334350585938e+00 1.725733375549316406e+01 8.147442817687988281e+00 2.151266336441040039e+00
4.535000000000000000e+03 5.767777252197265625e+01 -6.912637710571289062e+00 9.888722419738769531e+00 1.732395935058593750e+01 8.163805007934570312e+00 -2.083896398544311523e+00
4.536000000000000000e+03 5.796152114868164062e+01 -7.006818294525146484e+00 8.866477012634277344e+00 1.614225387573242188e+01 7.502619266510009766e+00 -1.940805435180664062e+00
4.537000000000000000e+03 5.752044677734375000e+01 -7.920239925384521484e+00 3.823067426681518555e+00 1.831402397155761719e+01 6.641127586364746094e+00 -1.574949026107788086e+00
4.538000000000000000e+03 5.652036285400390625e+01 -8.415981292724609375e+00 7.746120691299438477e-01 1.759308052062988281e+01 5.510307312011718750e+00 3.046721458435058594e+00
4.539000000000000000e+03 5.627197265625000000e+01 -8.357197761535644531e+00 8.463487029075622559e-01 1.681577110290527344e+01 5.298635959625244141e+00 4.303754806518554688e+00
4.540000000000000000e+03 5.522008895874023438e+01 -8.008267402648925781e+00 3.168268918991088867e+00 8.207990646362304688e+00 3.412877798080444336e+00 6.568663597106933594e+00
4.541000000000000000e+03 5.504591369628906250e+01 -8.033712387084960938e+00 3.300686359405517578e+00 7.077765941619873047e+00 3.113535642623901367e+00 6.272043228149414062e+00
4.542000000000000000e+03 5.463531112670898438e+01 -8.116909980773925781e+00 2.945739269256591797e+00 4.520098686218261719e+00 2.239751338958740234e+00 4.892984390258789062e+00
4.543000000000000000e+03 5.368867492675781250e+01 -8.585012435913085938e+00 1.728771805763244629e+00 2.526525497436523438e+00 1.276589155197143555e+00 3.254110574722290039e+00
4.544000000000000000e+03 1.823612403869628906e+01 -7.706019878387451172e+00 -1.309219449758529663e-01 -6.881982088088989258e-02 -5.992253124713897705e-02 -1.101567521691322327e-01
4.545000000000000000e+03 1.791714859008789062e+01 -7.126368522644042969e+00 -5.243874620646238327e-03 3.119277535006403923e-03 -6.373791256919503212e-04 -1.303788460791110992e-02
4.546000000000000000e+03 5.366344451904296875e+01 -3.877721071243286133e+00 1.769835591316223145e+00 3.006474256515502930e+00 1.432893037796020508e+00 -3.537603139877319336e+00
4.547000000000000000e+03 1.016643333435058594e+01 -2.130227661132812500e+01 -1.933822929859161377e-01 -4.592645764350891113e-01 -1.957940608263015747e-01 -3.896141648292541504e-01
4.548000000000000000e+03 5.515739822387695312e+01 -8.431629180908203125e+00 2.411988496780395508e+00 8.604232788085937500e+00 3.304866552352905273e+00 6.018145084381103516e+00
4.549000000000000000e+03 5.501063919067382812e+01 -8.769791603088378906e+00 1.947225332260131836e+00 7.782390117645263672e+00 2.918884515762329102e+00 5.518630981445312500e+00
4.550000000000000000e+03 5.551032257080078125e+01 -8.494544029235839844e+00 1.848242998123168945e+00 1.115663433074951172e+01 3.901463270187377930e+00 6.148252010345458984e+00
4.551000000000000000e+03 5.478349304199218750e+01 -4.410223007202148438e+00 2.718442201614379883e+00 6.076179027557373047e+00 2.638386487960815430e+00 -5.507805347442626953e+00
4.552000000000000000e+03 5.584564971923828125e+01 -4.493489265441894531e+00 1.497236490249633789e+00 1.412439155578613281e+01 4.686488628387451172e+00 -5.942541122436523438e+00
4.553000000000000000e+03 5.484841918945312500e+01 -3.972683191299438477e+00 2.007446527481079102e+00 7.171063423156738281e+00 2.753552913665771484e+00 -5.387846469879150391e+00
4.554000000000000000e+03 5.467467117309570312e+01 -4.178266048431396484e+00 2.401496648788452148e+00 5.946275711059570312e+00 2.504331827163696289e+00 -5.203353881835937500e+00
4.555000000000000000e+03 5.568741607666015625e+01 -8.581443786621093750e+00 1.358946681022644043e+00 1.238254928588867188e+01 4.122448921203613281e+00 5.631973743438720703e+00
4.556000000000000000e+03 5.585449218750000000e+01 -8.323655128479003906e+00 1.357207059860229492e+00 1.411910247802734375e+01 4.642892837524414062e+00 5.920467853546142578e+00
4.557000000000000000e+03 5.605320739746093750e+01 -8.584893226623535156e+00 8.088179230690002441e-01 1.478966712951660156e+01 4.679545402526855469e+00 5.011198043823242188e+00
4.558000000000000000e+03 5.705911254882812500e+01 -8.373705863952636719e+00 1.347647309303283691e+00 1.816466903686523438e+01 5.853694915771484375e+00 6.886395215988159180e-01
4.559000000000000000e+03 5.646353530883789062e+01 -8.790346145629882812e+00 4.359047114849090576e-01 1.587228584289550781e+01 4.892457008361816406e+00 3.349950790405273438e+00
4.560000000000000000e+03 5.684851837158203125e+01 -8.236703872680664062e+00 1.164833188056945801e+00 1.907079887390136719e+01 6.070689201354980469e+00 1.421196699142456055e+00
4.561000000000000000e+03 5.788226699829101562e+01 -8.134113311767578125e+00 3.621388912200927734e+00 1.678137779235839844e+01 6.120830059051513672e+00 -1.682333469390869141e+00
4.562000000000000000e+03 5.587390136718750000e+01 -4.293891429901123047e+00 1.190156102180480957e+00 1.388240909576416016e+01 4.521769523620605469e+00 -5.439041137695312500e+00
4.563000000000000000e+03 5.602339553833007812e+01 -4.499289512634277344e+00 1.259220600128173828e+00 1.569511318206787109e+01 5.086299896240234375e+00 -5.488591670989990234e+00
4.564000000000000000e+03 5.648812484741210938e+01 -3.224488973617553711e+00 3.765255585312843323e-02 1.381690406799316406e+01 4.156366825103759766e+00 -3.058514356613159180e+00
4.565000000000000000e+03 5.611802291870117188e+01 -4.034074306488037109e+00 6.049970388412475586e-01 1.446204757690429688e+01 4.520113468170166016e+00 -4.531643867492675781e+00
4.566000000000000000e+03 5.702771377563476562e+01 -4.530994415283203125e+00 1.725621581077575684e+00 1.891256141662597656e+01 6.191454887390136719e+00 -4.789373576641082764e-01
4.567000000000000000e+03 5.765498733520507812e+01 -4.341234207153320312e+00 2.394822359085083008e+00 1.695060157775878906e+01 5.803627490997314453e+00 9.318853020668029785e-01
4.568000000000000000e+03 5.772929382324218750e+01 -4.586683750152587891e+00 3.277812004089355469e+00 1.716067886352539062e+01 6.131546974182128906e+00 1.423153638839721680e+00
4.569000000000000000e+03 5.729991531372070312e+01 -4.141104698181152344e+00 1.258944511413574219e+00 1.702050209045410156e+01 5.483833789825439453e+00 -3.580563068389892578e-01
4.570000000000000000e+03 5.788403701782226562e+01 -5.008489131927490234e+00 5.076526165008544922e+00 1.700092506408691406e+01 6.623235225677490234e+00 2.138931512832641602e+00
4.571000000000000000e+03 5.817612838745117188e+01 -5.333512783050537109e+00 6.685577869415283203e+00 1.575334262847900391e+01 6.731676101684570312e+00 2.211079597473144531e+00
4.572000000000000000e+03 5.833302307128906250e+01 -6.043985843658447266e+00 8.831099510192871094e+00 1.459680843353271484e+01 7.028372287750244141e+00 9.101291894912719727e-01
4.573000000000000000e+03 5.418552017211914062e+01 -9.140030860900878906e+00 1.871270298957824707e+00 4.764853954315185547e+00 1.990837335586547852e+00 4.410977363586425781e+00
4.574000000000000000e+03 5.492499160766601562e+01 -8.462068557739257812e+00 2.558319568634033203e+00 7.072553634643554688e+00 2.889261960983276367e+00 5.749934196472167969e+00
4.575000000000000000e+03 5.430381393432617188e+01 -4.038386821746826172e+00 2.257730484008789062e+00 4.656566619873046875e+00 2.074289083480834961e+00 -4.601353168487548828e+00
4.576000000000000000e+03 5.845938110351562500e+01 -6.632683753967285156e+00 8.668399810791015625e+00 1.419755935668945312e+01 6.859787940979003906e+00 -6.746862530708312988e-01
4.577000000000000000e+03 5.866039276123046875e+01 -6.112138748168945312e+00 8.245081901550292969e+00 1.377147865295410156e+01 6.604968547821044922e+00 5.953914523124694824e-01
4.578000000000000000e+03 5.812836074829101562e+01 -7.341953277587890625e+00 7.232894420623779297e+00 1.583832168579101562e+01 6.921364784240722656e+00 -2.191098690032958984e+00
4.579000000000000000e+03 2.078362226486206055e+00 3.706503677368164062e+01 1.457602344453334808e-02 -9.309235215187072754e-01 -2.749042510986328125e-01 5.560037121176719666e-02
4.580000000000000000e+03 2.110456085205078125e+01 1.188361048698425293e+00 -8.800909668207168579e-02 -4.421954154968261719e-01 -1.590613573789596558e-01 3.390917778015136719e-01
4.581000000000000000e+03 2.251196861267089844e+01 1.945589303970336914e+00 -1.762477159500122070e-01 -4.186917245388031006e-01 -1.784818321466445923e-01 4.906598627567291260e-01
4.582000000000000000e+03 5.585982894897460938e+01 -4.050723552703857422e+00 8.737078905105590820e-01 1.329562282562255859e+01 4.250799179077148438e+00 -5.116041660308837891e+00
4.583000000000000000e+03 5.686760330200195312e+01 -8.707855224609375000e+00 5.752149224281311035e-01 1.714197349548339844e+01 5.315156459808349609e+00 1.911037921905517578e+00
4.584000000000000000e+03 5.707823944091796875e+01 -8.713737487792968750e+00 9.213927984237670898e-01 1.688210487365722656e+01 5.341049194335937500e+00 1.111529588699340820e+00
4.585000000000000000e+03 5.605403137207031250e+01 -4.302199363708496094e+00 9.424206614494323730e-01 1.499654388427734375e+01 4.781689167022705078e+00 -4.984838008880615234e+00
4.586000000000000000e+03 5.612926101684570312e+01 -3.656790256500244141e+00 4.295672178268432617e-01 1.364231300354003906e+01 4.221563816070556641e+00 -4.259433269500732422e+00
4.587000000000000000e+03 5.581654739379882812e+01 -3.742866039276123047e+00 7.146487832069396973e-01 1.242907142639160156e+01 3.943116188049316406e+00 -4.883629798889160156e+00
4.588000000000000000e+03 3.055937767028808594e+01 3.049060058593750000e+01 4.025147855281829834e-01 8.313582539558410645e-01 3.701619207859039307e-01 -6.550516188144683838e-02
4.589000000000000000e+03 5.202140045166015625e+01 -9.509928703308105469e+00 7.255020737648010254e-01 1.456465721130371094e+00 6.545903086662292480e-01 2.024574041366577148e+00
4.590000000000000000e+03 5.587034606933593750e+01 -8.586431503295898438e+00 1.053401231765747070e+00 1.365626049041748047e+01 4.412898540496826172e+00 5.374038696289062500e+00
4.591000000000000000e+03 5.724282836914062500e+01 -8.932752609252929688e+00 7.005329728126525879e-01 1.637218856811523438e+01 5.121816635131835938e+00 8.458628654479980469e-01
4.592000000000000000e+03 5.747920989990234375e+01 -8.439342498779296875e+00 2.010481119155883789e+00 1.736102867126464844e+01 5.811452865600585938e+00 -4.777844846248626709e-01
4.593000000000000000e+03 5.790388107299804688e+01 -8.844762802124023438e+00 1.653903841972351074e+00 1.583549499511718750e+01 5.246819972991943359e+00 -6.297023296356201172e-01
4.594000000000000000e+03 4.760099887847900391e+00 3.603536224365234375e+01 9.104555845260620117e-02 -7.857817411422729492e-01 -2.084208428859710693e-01 1.626194864511489868e-01
4.595000000000000000e+03 5.623559188842773438e+01 -8.639787673950195312e+00 6.374555826187133789e-01 1.549222469329833984e+01 4.838903903961181641e+00 4.259326457977294922e+00
4.596000000000000000e+03 5.729555892944335938e+01 -9.655848503112792969e+00 1.144197285175323486e-01 1.455914783477783203e+01 4.402070522308349609e+00 1.266863942146301270e+00
4.597000000000000000e+03 5.880549240112304688e+01 -5.815570354461669922e+00 7.419524669647216797e+00 1.359441757202148438e+01 6.304182529449462891e+00 1.195645332336425781e+00
4.598000000000000000e+03 5.881632995605468750e+01 -6.441039562225341797e+00 8.030344963073730469e+00 1.342071437835693359e+01 6.435317993164062500e+00 -1.214827895164489746e-01
4.599000000000000000e+03 5.682164382934570312e+01 -3.611485958099365234e+00 2.512046992778778076e-01 1.533779525756835938e+01 4.676700115203857422e+00 -2.285933494567871094e+00
4.600000000000000000e+03 5.404946517944335938e+01 -3.805210113525390625e+00 1.949179053306579590e+00 4.236136913299560547e+00 1.855594754219055176e+00 -4.197018623352050781e+00
4.601000000000000000e+03 5.422418212890625000e+01 -3.339324235916137695e+00 1.595459699630737305e+00 5.332965850830078125e+00 2.078527688980102539e+00 -4.417433738708496094e+00
4.602000000000000000e+03 5.322469711303710938e+01 -2.925119161605834961e+00 1.335289239883422852e+00 3.318202257156372070e+00 1.396047472953796387e+00 -3.355264902114868164e+00
4.603000000000000000e+03 1.156426429748535156e+01 2.444017791748046875e+01 -1.183270476758480072e-02 -7.697769999504089355e-01 -2.344828993082046509e-01 5.443988442420959473e-01
4.604000000000000000e+03 5.481839752197265625e+01 -8.904348373413085938e+00 1.944436073303222656e+00 6.993413925170898438e+00 2.681354999542236328e+00 5.322423458099365234e+00
4.605000000000000000e+03 5.514286804199218750e+01 -8.981667518615722656e+00 1.532793760299682617e+00 8.888576507568359375e+00 3.126410961151123047e+00 5.443340778350830078e+00
4.606000000000000000e+03 5.938031768798828125e+01 -5.636267662048339844e+00 6.334028244018554688e+00 1.250416660308837891e+01 5.651458740234375000e+00 1.096739411354064941e+00
4.607000000000000000e+03 5.495999908447265625e+01 -9.180184364318847656e+00 1.504254937171936035e+00 8.074017524719238281e+00 2.873481750488281250e+00 5.201480865478515625e+00
4.608000000000000000e+03 5.384844970703125000e+01 -8.958811759948730469e+00 1.967257618904113770e+00 3.657106637954711914e+00 1.687309265136718750e+00 3.967205047607421875e+00
4.609000000000000000e+03 5.392461013793945312e+01 -9.220901489257812500e+00 1.738224506378173828e+00 4.103189945220947266e+00 1.752424240112304688e+00 4.072739601135253906e+00
4.610000000000000000e+03 4.270465373992919922e+00 -2.275505256652832031e+01 -5.772441253066062927e-02 -2.088062018156051636e-01 -7.995918393135070801e-02 -2.034554332494735718e-01
4.611000000000000000e+03 5.828419113159179688e+01 -8.238793373107910156e+00 3.752233743667602539e+00 1.544530487060546875e+01 5.759261608123779297e+00 -1.807622313499450684e+00
4.612000000000000000e+03 5.830642700195312500e+01 -7.937785625457763672e+00 4.782061100006103516e+00 1.548411846160888672e+01 6.079853534698486328e+00 -2.053586483001708984e+00
4.613000000000000000e+03 5.349402236938476562e+01 -9.382940292358398438e+00 1.516821503639221191e+00 3.305605888366699219e+00 1.446728229522705078e+00 3.535360097885131836e+00
4.614000000000000000e+03 5.431867599487304688e+01 -3.712944030761718750e+00 1.886025547981262207e+00 5.230555534362792969e+00 2.134974241256713867e+00 -4.617059230804443359e+00
4.615000000000000000e+03 5.451488494873046875e+01 -4.055528640747070312e+00 2.225763320922851562e+00 5.321547508239746094e+00 2.264193296432495117e+00 -4.946390628814697266e+00
4.616000000000000000e+03 5.842006301879882812e+01 -5.082692146301269531e+00 5.664173126220703125e+00 1.502655029296875000e+01 6.207216739654541016e+00 2.094326496124267578e+00
4.617000000000000000e+03 7.674970245361328125e+01 3.413541412353515625e+01 -4.517718683928251266e-03 8.642374038696289062e+00 2.591356992721557617e+00 1.512729655951261520e-02
4.618000000000000000e+03 5.588847732543945312e+01 -8.859992980957031250e+00 8.344133496284484863e-01 1.329609012603759766e+01 4.239151000976562500e+00 4.907289981842041016e+00
4.619000000000000000e+03 5.626414489746093750e+01 -9.561698913574218750e+00 7.986439019441604614e-02 1.309500694274902344e+01 3.952461481094360352e+00 3.698251008987426758e+00
4.620000000000000000e+03 5.371947479248046875e+01 -9.145513534545898438e+00 1.636035323143005371e+00 3.633381605148315430e+00 1.580825090408325195e+00 3.750951290130615234e+00
4.621000000000000000e+03 5.604709243774414062e+01 -9.311096191406250000e+00 3.271862268447875977e-01 1.281295490264892578e+01 3.942042350769042969e+00 4.227207660675048828e+00
4.622000000000000000e+03 5.670814514160156250e+01 -9.335969924926757812e+00 8.581816405057907104e-02 1.463349342346191406e+01 4.415793418884277344e+00 2.667250871658325195e+00
4.623000000000000000e+03 3.207289695739746094e+00 1.878151130676269531e+01 -3.990466892719268799e-02 -4.616311937570571899e-02 -2.582033537328243256e-02 2.127368375658988953e-02
4.624000000000000000e+03 4.533306121826171875e+00 3.886548042297363281e+00 1.261065044673159719e-04 7.054839516058564186e-04 2.494771324563771486e-04 3.607699472922831774e-04
4.625000000000000000e+03 5.860803222656250000e+01 -7.037257671356201172e+00 7.617088317871093750e+00 1.408345985412597656e+01 6.510164737701416016e+00 -1.393894553184509277e+00
4.626000000000000000e+03 5.582144546508789062e+01 -3.153165102005004883e+00 3.433642685413360596e-01 1.154266738891601562e+01 3.565809488296508789e+00 -4.399737358093261719e+00
4.627000000000000000e+03 5.392150878906250000e+01 -2.455106735229492188e+00 1.126798272132873535e+00 5.370251655578613281e+00 1.949115037918090820e+00 -3.999567270278930664e+00
4.628000000000000000e+03 5.364642333984375000e+01 -2.370616436004638672e+00 1.173451185226440430e+00 4.785990715026855469e+00 1.787832617759704590e+00 -3.846257209777832031e+00
4.629000000000000000e+03 5.337219619750976562e+01 -2.375375270843505859e+00 1.193211197853088379e+00 4.095722675323486328e+00 1.586680054664611816e+00 -3.583641767501831055e+00
4.630000000000000000e+03 5.623406219482421875e+01 -2.820454359054565430e+00 -5.620434880256652832e-02 1.218817424774169922e+01 3.639590978622436523e+00 -3.529125213623046875e+00
4.631000000000000000e+03 4.827279567718505859e+00 -2.488583755493164062e+01 -2.311557531356811523e-02 -3.150763809680938721e-01 -1.014575883746147156e-01 -2.542121410369873047e-01
4.632000000000000000e+03 5.032536029815673828e+00 -5.065876960754394531e+00 2.347666741115972400e-04 -2.750773855950683355e-04 -1.209321544592967257e-05 -4.027925897389650345e-04
4.633000000000000000e+03 5.663614654541015625e+01 -9.617857933044433594e+00 -3.727385774254798889e-02 1.373105430603027344e+01 4.108134269714355469e+00 2.754622936248779297e+00
4.634000000000000000e+03 5.817793655395507812e+01 -4.051723003387451172e+00 2.367574453353881836e+00 1.525941848754882812e+01 5.288097858428955078e+00 1.234591007232666016e+00
4.635000000000000000e+03 5.791753768920898438e+01 -3.998111724853515625e+00 1.824749350547790527e+00 1.577161216735839844e+01 5.278908252716064453e+00 7.518745064735412598e-01
4.636000000000000000e+03 5.771590423583984375e+01 -9.355552673339843750e+00 7.811812162399291992e-01 1.501255512237548828e+01 4.738121032714843750e+00 1.142073720693588257e-01
4.637000000000000000e+03 5.764830780029296875e+01 -8.922857284545898438e+00 1.301475644111633301e+00 1.595465755462646484e+01 5.176839828491210938e+00 -1.653380692005157471e-01
4.638000000000000000e+03 5.866128921508789062e+01 -7.960333824157714844e+00 4.861123085021972656e+00 1.443185901641845703e+01 5.787894725799560547e+00 -1.986113071441650391e+00
4.639000000000000000e+03 5.861732101440429688e+01 -7.687766075134277344e+00 5.702650070190429688e+00 1.445854568481445312e+01 6.048358917236328125e+00 -1.991145968437194824e+00
4.640000000000000000e+03 5.901691436767578125e+01 -6.561126708984375000e+00 7.481766223907470703e+00 1.295910644531250000e+01 6.132261753082275391e+00 -3.839307427406311035e-01
4.641000000000000000e+03 5.277149581909179688e+01 -1.014439582824707031e+01 1.142792820930480957e+00 2.797084093093872070e+00 1.181963086128234863e+00 2.967100143432617188e+00
4.642000000000000000e+03 5.528481292724609375e+01 -1.004313755035400391e+01 5.563260316848754883e-01 9.259355545043945312e+00 2.944704532623291016e+00 4.468701362609863281e+00
4.643000000000000000e+03 1.634959220886230469e+01 -2.384706497192382812e+01 -1.135186012834310532e-02 -3.337924480438232422e-01 -1.035432890057563782e-01 -3.547112047672271729e-01
4.644000000000000000e+03 2.310198974609375000e+01 1.158185195922851562e+01 -4.810967147350311279e-01 -5.360446572303771973e-01 -3.051424026489257812e-01 5.790868401527404785e-01
4.645000000000000000e+03 1.183564281463623047e+01 -2.612189483642578125e+01 6.259608268737792969e-02 -4.489985108375549316e-01 -1.159207224845886230e-01 -3.660680949687957764e-01
4.646000000000000000e+03 1.259730434417724609e+01 2.859045410156250000e+01 2.161113172769546509e-01 -7.017162442207336426e-01 -1.456814855337142944e-01 4.008961617946624756e-01
4.647000000000000000e+03 2.492042541503906250e+01 4.814677715301513672e+00 -3.006537556648254395e-01 -3.376967012882232666e-01 -1.915051341056823730e-01 6.666412353515625000e-01
4.648000000000000000e+03 5.487954711914062500e+01 -2.975776672363281250e+00 1.053999900817871094e+00 7.895556449890136719e+00 2.684866905212402344e+00 -4.709188938140869141e+00
4.649000000000000000e+03 5.474691390991210938e+01 -2.720120906829833984e+00 9.730082750320434570e-01 7.427466869354248047e+00 2.520142555236816406e+00 -4.529843330383300781e+00
4.650000000000000000e+03 5.867092895507812500e+01 -7.254471302032470703e+00 6.926659107208251953e+00 1.407651615142822266e+01 6.300952434539794922e+00 -1.657585382461547852e+00
4.651000000000000000e+03 5.837863922119140625e+01 -7.427363395690917969e+00 6.756464004516601562e+00 1.503281688690185547e+01 6.536784172058105469e+00 -2.030404806137084961e+00
4.652000000000000000e+03 7.574539184570312500e+01 3.247927856445312500e+01 -2.444260567426681519e-02 8.487329483032226562e+00 2.538866043090820312e+00 2.746316790580749512e-02
4.653000000000000000e+03 5.528862762451171875e+01 -2.899086236953735352e+00 6.792827844619750977e-01 9.376123428344726562e+00 3.016621828079223633e+00 -4.621700763702392578e+00
4.654000000000000000e+03 5.567541885375976562e+01 -2.644319057464599609e+00 2.356433570384979248e-01 1.052813720703125000e+01 3.229134082794189453e+00 -4.149910449981689453e+00
4.655000000000000000e+03 5.600119018554687500e+01 -1.001119804382324219e+01 7.625751942396163940e-02 1.145668601989746094e+01 3.459883213043212891e+00 3.841265439987182617e+00
4.656000000000000000e+03 5.776111125946044922e+00 3.027872276306152344e+01 6.499516963958740234e-02 -6.194871664047241211e-01 -1.663475930690765381e-01 3.202801346778869629e-01
4.657000000000000000e+03 5.814475631713867188e+01 -9.817725181579589844e+00 5.856687426567077637e-01 1.403166961669921875e+01 4.385201454162597656e+00 1.258724927902221680e-02
4.658000000000000000e+03 5.930598068237304688e+01 -4.954139709472656250e+00 5.068635940551757812e+00 1.299197864532470703e+01 5.418184280395507812e+00 1.699366092681884766e+00
4.659000000000000000e+03 1.636364173889160156e+01 2.189446830749511719e+01 -1.050244271755218506e-01 -9.234521985054016113e-01 -3.085429966449737549e-01 3.978535830974578857e-01
4.660000000000000000e+03 5.368735122680664062e+01 -1.996324419975280762e+00 9.934861660003662109e-01 5.089851856231689453e+00 1.825001358985900879e+00 -3.783126354217529297e+00
4.661000000000000000e+03 5.335048294067382812e+01 -1.589694380760192871e+00 8.875078558921813965e-01 4.653068542480468750e+00 1.662172913551330566e+00 -3.477102756500244141e+00
4.662000000000000000e+03 5.297976303100585938e+01 -2.024257659912109375e+00 1.070432782173156738e+00 3.695209980010986328e+00 1.429692864418029785e+00 -3.238309860229492188e+00
4.663000000000000000e+03 5.864023208618164062e+01 -4.825254440307617188e+00 4.903925895690917969e+00 1.458927249908447266e+01 5.847959518432617188e+00 1.978580117225646973e+00
4.664000000000000000e+03 5.848270797729492188e+01 -4.560797214508056641e+00 4.031216144561767578e+00 1.493184947967529297e+01 5.688919544219970703e+00 1.886799812316894531e+00
4.665000000000000000e+03 5.906304931640625000e+01 -7.134325981140136719e+00 6.742015838623046875e+00 1.314276790618896484e+01 5.965435028076171875e+00 -1.296811223030090332e+00
4.666000000000000000e+03 5.876646804809570312e+01 -9.467279434204101562e+00 1.547857046127319336e+00 1.372207450866699219e+01 4.580979347229003906e+00 -1.003397822380065918e+00
4.667000000000000000e+03 5.868394088745117188e+01 -9.842227935791015625e+00 1.003658533096313477e+00 1.346067619323730469e+01 4.339300632476806641e+00 -6.482033729553222656e-01
4.668000000000000000e+03 5.939152526855468750e+01 -8.183729171752929688e+00 4.281274795532226562e+00 1.297544479370117188e+01 5.177015781402587891e+00 -1.764814257621765137e+00
4.669000000000000000e+03 5.930948257446289062e+01 -7.939531803131103516e+00 4.825988769531250000e+00 1.305787944793701172e+01 5.365160465240478516e+00 -1.728070020675659180e+00
4.670000000000000000e+03 5.905353927612304688e+01 -7.647447109222412109e+00 5.594863414764404297e+00 1.345564746856689453e+01 5.715153217315673828e+00 -1.754185676574707031e+00
4.671000000000000000e+03 5.889239120483398438e+01 -7.313744068145751953e+00 6.572142601013183594e+00 1.357802104949951172e+01 6.045049190521240234e+00 -1.554582595825195312e+00
4.672000000000000000e+03 4.774880218505859375e+01 -3.172355842590332031e+01 2.362076044082641602e-01 3.433812379837036133e+00 1.101006031036376953e+00 5.258653759956359863e-01
4.673000000000000000e+03 7.469198608398437500e+01 -3.388371658325195312e+01 -9.311580657958984375e-02 8.187304496765136719e+00 2.428256511688232422e+00 -2.324774116277694702e-01
4.674000000000000000e+03 7.425431823730468750e+01 -3.273339080810546875e+01 -9.760235995054244995e-02 8.136843681335449219e+00 2.411772489547729492e+00 -2.417404502630233765e-01
4.675000000000000000e+03 5.219321060180664062e+01 -1.103334712982177734e+01 9.090025424957275391e-01 2.860652923583984375e+00 1.130896568298339844e+00 2.740631580352783203e+00
4.676000000000000000e+03 4.379962158203125000e+01 2.128498649597167969e+01 1.962483525276184082e-01 2.768333435058593750e+00 8.893744945526123047e-01 -4.442578256130218506e-01
4.677000000000000000e+03 1.613591384887695312e+01 2.351672554016113281e+01 2.168907038867473602e-02 -8.427363038063049316e-01 -2.463141679763793945e-01 3.791516423225402832e-01
4.678000000000000000e+03 2.341931343078613281e+01 -2.344788932800292969e+01 5.003453418612480164e-02 -4.390562698245048523e-02 1.838672906160354614e-03 -3.854907155036926270e-01
4.679000000000000000e+03 6.786890411376953125e+01 2.433884239196777344e+01 -2.122953683137893677e-01 7.340934753417968750e+00 2.138591766357421875e+00 9.447952359914779663e-02
4.680000000000000000e+03 5.625304412841796875e+01 -1.000464725494384766e+01 -8.988725394010543823e-02 1.223960971832275391e+01 3.644916772842407227e+00 3.391878843307495117e+00
4.681000000000000000e+03 5.466755676269531250e+01 -2.449342489242553711e+00 8.392504453659057617e-01 7.171225547790527344e+00 2.403142690658569336e+00 -4.352921485900878906e+00
4.682000000000000000e+03 5.434123229980468750e+01 -2.318857431411743164e+00 9.074630141258239746e-01 6.348122119903564453e+00 2.176675558090209961e+00 -4.113496780395507812e+00
4.683000000000000000e+03 5.518669509887695312e+01 -2.532047033309936523e+00 5.371917486190795898e-01 8.925283432006835938e+00 2.838742733001708984e+00 -4.381709098815917969e+00
4.684000000000000000e+03 5.491864395141601562e+01 -2.326325178146362305e+00 6.275012493133544922e-01 7.961610317230224609e+00 2.576733589172363281e+00 -4.311559200286865234e+00
4.685000000000000000e+03 5.629918670654296875e+01 -1.032423686981201172e+01 -1.815562546253204346e-01 1.190994930267333984e+01 3.518517971038818359e+00 3.179889202117919922e+00
4.686000000000000000e+03 5.658673095703125000e+01 -1.041455650329589844e+01 -2.697430253028869629e-01 1.234518337249755859e+01 3.622632026672363281e+00 2.742625713348388672e+00
4.687000000000000000e+03 5.941572952270507812e+01 -7.407502174377441406e+00 5.864274978637695312e+00 1.264868736267089844e+01 5.553888797760009766e+00 -1.368255019187927246e+00
4.688000000000000000e+03 5.962864685058593750e+01 -7.731235027313232422e+00 5.080312252044677734e+00 1.240108299255371094e+01 5.244418621063232422e+00 -1.519005060195922852e+00
4.689000000000000000e+03 7.498963928222656250e+01 -3.087071037292480469e+01 -1.126221492886543274e-01 8.144708633422851562e+00 2.409626007080078125e+00 -2.984023988246917725e-01
4.690000000000000000e+03 5.959809112548828125e+01 -4.487671852111816406e+00 4.072578907012939453e+00 1.267085647583007812e+01 5.023030281066894531e+00 1.712287902832031250e+00
4.691000000000000000e+03 6.015570449829101562e+01 -5.503920555114746094e+00 5.383373260498046875e+00 1.153730773925781250e+01 5.076204299926757812e+00 9.699174165725708008e-01
4.692000000000000000e+03 5.511544799804687500e+01 -1.882502436637878418e+00 2.870379984378814697e-01 8.438765525817871094e+00 2.617740869522094727e+00 -3.975370883941650391e+00
4.693000000000000000e+03 5.686025238037109375e+01 2.064622306823730469e+01 -2.930038273334503174e-01 5.702696323394775391e+00 1.622907757759094238e+00 -4.087006449699401855e-01
4.694000000000000000e+03 2.917410087585449219e+01 -2.133583641052246094e+01 5.191054195165634155e-02 1.324481964111328125e-01 5.530761927366256714e-02 -3.697057068347930908e-01
4.695000000000000000e+03 5.483916091918945312e+01 -2.055580615997314453e+00 5.672668814659118652e-01 7.689704418182373047e+00 2.477091312408447266e+00 -4.180814743041992188e+00
4.696000000000000000e+03 5.979104995727539062e+01 -7.235049247741699219e+00 5.737665653228759766e+00 1.197672176361083984e+01 5.314316272735595703e+00 -1.077296137809753418e+00
4.697000000000000000e+03 5.979689788818359375e+01 -8.068924903869628906e+00 4.447909355163574219e+00 1.230364322662353516e+01 5.025465965270996094e+00 -1.601723194122314453e+00
4.698000000000000000e+03 5.640231323242187500e+01 -2.492935180664062500e+00 -1.939671337604522705e-01 1.208953475952148438e+01 3.568670272827148438e+00 -3.061126708984375000e+00
4.699000000000000000e+03 5.420180130004882812e+01 -1.179934740066528320e+00 4.939379096031188965e-01 6.383371353149414062e+00 2.063192844390869141e+00 -3.661091089248657227e+00
4.700000000000000000e+03 5.979060363769531250e+01 -1.048588371276855469e+01 9.922313094139099121e-01 1.207328605651855469e+01 3.919655323028564453e+00 -9.621716737747192383e-01
4.701000000000000000e+03 5.583486557006835938e+01 -1.284088611602783203e+00 -2.176275998353958130e-01 9.667831420898437500e+00 2.835061073303222656e+00 -3.230464935302734375e+00
4.702000000000000000e+03 2.404954147338867188e+01 -1.858354449272155762e+00 -2.408618777990341187e-01 -1.569034010171890259e-01 -1.193295791745185852e-01 3.639590144157409668e-01
4.703000000000000000e+03 5.048297119140625000e+01 -2.612328290939331055e+00 2.564549744129180908e-01 9.732595086097717285e-01 3.689143359661102295e-01 -1.359339714050292969e+00
4.704000000000000000e+03 5.837997817993164062e+01 -1.921634912490844727e+00 -1.349134463816881180e-02 1.269935035705566406e+01 3.805757761001586914e+00 -2.919564545154571533e-01
4.705000000000000000e+03 5.575680541992187500e+01 -1.140589141845703125e+01 -2.011928856372833252e-01 9.699713706970214844e+00 2.849556207656860352e+00 3.357192039489746094e+00
4.706000000000000000e+03 6.030923843383789062e+01 -8.716109275817871094e+00 3.332319736480712891e+00 1.173042011260986328e+01 4.518822193145751953e+00 -1.546268105506896973e+00
4.707000000000000000e+03 6.037757110595703125e+01 -8.120865821838378906e+00 4.167852878570556641e+00 1.151460933685302734e+01 4.704738616943359375e+00 -1.418860316276550293e+00
4.708000000000000000e+03 6.008079147338867188e+01 -8.141438484191894531e+00 4.236749172210693359e+00 1.192530918121337891e+01 4.848617553710937500e+00 -1.525243639945983887e+00
4.709000000000000000e+03 5.454948806762695312e+01 1.892955398559570312e+01 -2.438943684101104736e-01 5.254163265228271484e+00 1.503080725669860840e+00 -5.798968672752380371e-01
4.710000000000000000e+03 5.663117599487304688e+01 -1.091665077209472656e+01 -4.143607318401336670e-01 1.154791927337646484e+01 3.340067386627197266e+00 2.701112270355224609e+00
4.711000000000000000e+03 5.687097549438476562e+01 -1.069934558868408203e+01 -3.453166782855987549e-01 1.225260066986083984e+01 3.572185277938842773e+00 2.262085914611816406e+00
4.712000000000000000e+03 5.425872802734375000e+01 -1.195865154266357422e+01 3.515661358833312988e-01 6.498303413391113281e+00 2.054960727691650391e+00 3.542047023773193359e+00
4.713000000000000000e+03 5.977494430541992188e+01 -4.028357505798339844e+00 3.257692337036132812e+00 1.246777153015136719e+01 4.717639446258544922e+00 1.646922111511230469e+00
4.714000000000000000e+03 6.073178482055664062e+01 -4.573477745056152344e+00 3.932434797286987305e+00 1.116281795501708984e+01 4.528575897216796875e+00 1.350466489791870117e+00
4.715000000000000000e+03 3.474816131591796875e+01 1.675980567932128906e+01 1.458388715982437134e-01 1.012139201164245605e+00 3.473934233188629150e-01 -2.192176878452301025e-02
4.716000000000000000e+03 3.252527236938476562e+01 -2.037415885925292969e+01 8.387690782546997070e-02 2.479115575551986694e-01 9.953653812408447266e-02 -2.967332899570465088e-01
4.717000000000000000e+03 5.435800170898437500e+01 -1.753881096839904785e+00 6.583035588264465332e-01 6.604020118713378906e+00 2.178697109222412109e+00 -3.910429239273071289e+00
4.718000000000000000e+03 5.471807098388671875e+01 -1.820131778717041016e+00 5.409678816795349121e-01 7.457696437835693359e+00 2.399599313735961914e+00 -4.064761638641357422e+00
4.719000000000000000e+03 7.320380401611328125e+01 2.359726905822753906e+01 -9.699350595474243164e-02 8.040030479431152344e+00 2.382911205291748047e+00 1.646488606929779053e-01
4.720000000000000000e+03 5.461526107788085938e+01 -1.574244499206542969e+00 4.705102741718292236e-01 7.191959381103515625e+00 2.298740863800048828e+00 -3.846529245376586914e+00
4.721000000000000000e+03 4.067379379272460938e+01 -2.074217605590820312e+01 3.685775399208068848e-01 9.975277185440063477e-01 4.098315834999084473e-01 3.226578831672668457e-01
4.722000000000000000e+03 5.027949905395507812e+01 -1.497145056724548340e+00 5.498004555702209473e-01 1.499426960945129395e+00 6.147682070732116699e-01 -1.681638002395629883e+00
4.723000000000000000e+03 5.196951675415039062e+01 -1.161979961395263672e+01 8.127959370613098145e-01 2.993666410446166992e+00 1.141938686370849609e+00 2.674808025360107422e+00
4.724000000000000000e+03 5.199559402465820312e+01 -1.209603786468505859e+01 7.390007376670837402e-01 3.244620800018310547e+00 1.195086479187011719e+00 2.699009180068969727e+00
4.725000000000000000e+03 6.042359924316406250e+01 -7.333135128021240234e+00 5.034623622894287109e+00 1.120312976837158203e+01 4.871325969696044922e+00 -9.274150133132934570e-01
4.726000000000000000e+03 5.871046066284179688e+01 -1.431011676788330078e+00 -1.291448771953582764e-01 1.214406681060791016e+01 3.604476451873779297e+00 -1.895999163389205933e-01
4.727000000000000000e+03 2.410651016235351562e+01 1.132221126556396484e+01 -4.333809018135070801e-01 -3.803890645503997803e-01 -2.441309988498687744e-01 5.660241246223449707e-01
4.728000000000000000e+03 5.568199539184570312e+01 1.788295936584472656e+01 -3.288328945636749268e-01 5.557494640350341797e+00 1.568598508834838867e+00 -5.833031535148620605e-01
4.729000000000000000e+03 5.480855560302734375e+01 1.672435569763183594e+01 -3.188889026641845703e-01 5.371307373046875000e+00 1.515725493431091309e+00 -7.081306576728820801e-01
4.730000000000000000e+03 5.992786026000976562e+01 -3.597184896469116211e+00 2.599662780761718750e+00 1.232009983062744141e+01 4.475928783416748047e+00 1.562026023864746094e+00
4.731000000000000000e+03 2.965245056152343750e+01 1.401645374298095703e+01 -1.140391007065773010e-01 3.085975348949432373e-01 5.836753174662590027e-02 2.856486141681671143e-01
4.732000000000000000e+03 5.567210006713867188e+01 -1.178894138336181641e+01 -2.228827327489852905e-01 9.214827537536621094e+00 2.697583436965942383e+00 3.225918769836425781e+00
4.733000000000000000e+03 5.362431716918945312e+01 -5.475482344627380371e-01 4.869309365749359131e-01 5.469947338104248047e+00 1.787063479423522949e+00 -3.313450813293457031e+00
4.734000000000000000e+03 5.459989929199218750e+01 -1.200413227081298828e+01 1.952038407325744629e-01 7.133584499359130859e+00 2.198636531829833984e+00 3.517020463943481445e+00
4.735000000000000000e+03 5.013536071777343750e+01 -1.111466765403747559e+00 5.516419410705566406e-01 1.576626420021057129e+00 6.384805440902709961e-01 -1.685883045196533203e+00
4.736000000000000000e+03 7.112967681884765625e+01 1.992089080810546875e+01 -2.089272439479827881e-01 7.800837039947509766e+00 2.277572870254516602e+00 2.669286131858825684e-01
4.737000000000000000e+03 6.035259628295898438e+01 -3.346454620361328125e+00 2.423058986663818359e+00 1.179706001281738281e+01 4.266035556793212891e+00 1.512015700340270996e+00
4.738000000000000000e+03 5.581083297729492188e+01 -1.231898689270019531e+01 -3.633903563022613525e-01 8.973807334899902344e+00 2.583125114440917969e+00 2.939138650894165039e+00
4.739000000000000000e+03 5.616759872436523438e+01 -4.404385983943939209e-01 -4.777868986129760742e-01 9.528553962707519531e+00 2.715229988098144531e+00 -2.733071327209472656e+00
4.740000000000000000e+03 5.165705490112304688e+01 -2.265181350708007812e+01 -4.273653402924537659e-02 4.496729850769042969e+00 1.336198091506958008e+00 1.360611557960510254e+00
4.741000000000000000e+03 5.624441909790039062e+01 1.538048362731933594e+01 -4.399543702602386475e-01 5.933576583862304688e+00 1.648086667060852051e+00 -6.529526114463806152e-01
4.742000000000000000e+03 5.623902130126953125e+01 1.672922706604003906e+01 -4.026165604591369629e-01 5.800859451293945312e+00 1.619472861289978027e+00 -6.079369783401489258e-01
4.743000000000000000e+03 2.629887580871582031e+01 -9.866449832916259766e-01 -3.731061518192291260e-01 -1.152591779828071594e-01 -1.465096026659011841e-01 4.989224672317504883e-01
4.744000000000000000e+03 5.319150543212890625e+01 -1.279968261718750000e+01 4.476647973060607910e-01 5.021195888519287109e+00 1.640658140182495117e+00 3.090027093887329102e+00
4.745000000000000000e+03 2.937172889709472656e+01 -1.977335739135742188e+01 -6.658808141946792603e-02 1.055165976285934448e-01 1.167855504900217056e-02 -4.057541489601135254e-01
4.746000000000000000e+03 5.898966598510742188e+01 -9.081535339355468750e-01 -2.471754550933837891e-01 1.160242748260498047e+01 3.406575679779052734e+00 -1.539060026407241821e-01
4.747000000000000000e+03 5.725471878051757812e+01 2.583932280540466309e-01 -7.155549526214599609e-01 1.015743923187255859e+01 2.832565307617187500e+00 -1.737694859504699707e+00
4.748000000000000000e+03 5.670867156982421875e+01 4.253260046243667603e-02 -6.294431090354919434e-01 9.800220489501953125e+00 2.751233100891113281e+00 -2.198124170303344727e+00
4.749000000000000000e+03 5.671052932739257812e+01 7.288625836372375488e-01 -6.891671419143676758e-01 9.427994728088378906e+00 2.621648311614990234e+00 -2.038304567337036133e+00
4.750000000000000000e+03 5.484790039062500000e+01 -1.217976379394531250e+01 4.014540836215019226e-02 7.557690620422363281e+00 2.279350757598876953e+00 3.415587663650512695e+00
4.751000000000000000e+03 6.006330108642578125e+01 -1.201902484893798828e+01 5.160430818796157837e-02 1.120499515533447266e+01 3.376979827880859375e+00 -4.647119343280792236e-01
4.752000000000000000e+03 4.960354232788085938e+01 -3.718906342983245850e-01 4.815694391727447510e-01 1.617295861244201660e+00 6.296595931053161621e-01 -1.561027169227600098e+00
4.753000000000000000e+03 4.655683517456054688e+01 -1.672564888000488281e+01 3.866434097290039062e-01 1.693369269371032715e+00 6.240037679672241211e-01 1.109246969223022461e+00
4.754000000000000000e+03 3.123471832275390625e+01 -1.786768913269042969e+01 -1.867103278636932373e-01 1.077095344662666321e-01 -2.370023727416992188e-02 -4.115960896015167236e-01
4.755000000000000000e+03 3.071043777465820312e+01 2.751457095146179199e-01 -5.134876966476440430e-01 2.350893104448914528e-03 -1.533410400152206421e-01 6.016422510147094727e-01
4.756000000000000000e+03 6.069977569580078125e+01 -7.389068126678466797e+00 4.748425960540771484e+00 1.095350456237792969e+01 4.710578918457031250e+00 -9.130653738975524902e-01
4.757000000000000000e+03 5.526332473754882812e+01 -1.285610389709472656e+01 -2.472342699766159058e-01 8.002048492431640625e+00 2.326444149017333984e+00 3.020420551300048828e+00
4.758000000000000000e+03 6.067331314086914062e+01 -3.425967216491699219e+00 2.538587093353271484e+00 1.143207454681396484e+01 4.191198348999023438e+00 1.493792891502380371e+00
4.759000000000000000e+03 5.558389663696289062e+01 -1.263792800903320312e+01 -3.272125422954559326e-01 8.526580810546875000e+00 2.459810495376586914e+00 2.950442552566528320e+00
4.760000000000000000e+03 5.559718322753906250e+01 1.352361011505126953e+01 -4.529078006744384766e-01 5.861093044281005859e+00 1.622455596923828125e+00 -8.349568247795104980e-01
4.761000000000000000e+03 6.286931228637695312e+01 -1.035369777679443359e+01 1.759842157363891602e+00 9.921913146972656250e+00 3.504526615142822266e+00 -1.301091551780700684e+00
4.762000000000000000e+03 5.462491607666015625e+01 -1.826068013906478882e-01 3.724174946546554565e-02 7.142999649047851562e+00 2.154072284698486328e+00 -3.255325317382812500e+00
4.763000000000000000e+03 5.424812316894531250e+01 -2.400504350662231445e-01 2.131303995847702026e-01 6.467235565185546875e+00 2.004109859466552734e+00 -3.305310964584350586e+00
4.764000000000000000e+03 5.919413375854492188e+01 -3.892356157302856445e-01 -3.454247117042541504e-01 1.120165157318115234e+01 3.256868124008178711e+00 -1.612749844789505005e-01
4.765000000000000000e+03 6.300724792480468750e+01 -4.862452507019042969e+00 3.192508935928344727e+00 9.538422584533691406e+00 3.819279432296752930e+00 7.914649248123168945e-01
4.766000000000000000e+03 6.206622314453125000e+01 -9.033935546875000000e+00 2.803382635116577148e+00 1.024272155761718750e+01 3.913831472396850586e+00 -1.296452045440673828e+00
4.767000000000000000e+03 7.165467071533203125e+01 -1.077517700195312500e+01 6.170926094055175781e-01 7.378161430358886719e+00 2.398576259613037109e+00 -7.010613679885864258e-01
4.768000000000000000e+03 5.108002090454101562e+01 -1.699590682983398438e+01 2.318495959043502808e-01 3.874838352203369141e+00 1.232006430625915527e+00 2.003681898117065430e+00
4.769000000000000000e+03 6.319010162353515625e+01 -5.241594791412353516e+00 3.241589784622192383e+00 9.377723693847656250e+00 3.785794019699096680e+00 5.519366860389709473e-01
4.770000000000000000e+03 5.962913513183593750e+01 -1.527873992919921875e+00 3.335735797882080078e-01 1.180891799926757812e+01 3.642747402191162109e+00 5.288649797439575195e-01
4.771000000000000000e+03 5.397918701171875000e+01 4.800933301448822021e-01 1.425635516643524170e-01 6.146652221679687500e+00 1.886764764785766602e+00 -3.041915416717529297e+00
4.772000000000000000e+03 6.025323867797851562e+01 -1.721153640747070312e+01 -8.541190624237060547e-01 8.928261756896972656e+00 2.422242879867553711e+00 3.236491680145263672e-01
4.773000000000000000e+03 5.296801376342773438e+01 -1.341915893554687500e+01 3.449465930461883545e-01 4.879039764404296875e+00 1.567195892333984375e+00 2.886947631835937500e+00
4.774000000000000000e+03 7.103819274902343750e+01 -1.038213062286376953e+01 7.591968178749084473e-01 7.483108043670654297e+00 2.472691297531127930e+00 -6.992373466491699219e-01
4.775000000000000000e+03 3.066782951354980469e+01 -1.644244003295898438e+01 -3.536204397678375244e-01 6.139700859785079956e-02 -8.766702562570571899e-02 -4.584523141384124756e-01
4.776000000000000000e+03 6.896875000000000000e+01 -1.948616218566894531e+01 -3.157810866832733154e-01 8.110982894897460938e+00 2.338560581207275391e+00 -9.108935594558715820e-01
4.777000000000000000e+03 6.775688934326171875e+01 -1.929686355590820312e+01 -3.840810358524322510e-01 8.247835159301757812e+00 2.359126091003417969e+00 -8.723455667495727539e-01
4.778000000000000000e+03 3.464419937133789062e+01 -1.359428882598876953e+01 -7.183476686477661133e-01 4.821978881955146790e-02 -2.010383605957031250e-01 -3.815259337425231934e-01
4.779000000000000000e+03 3.454616546630859375e+01 -1.451445007324218750e+01 -5.494279861450195312e-01 8.219323307275772095e-02 -1.401704251766204834e-01 -3.655353188514709473e-01
4.780000000000000000e+03 3.405808258056640625e+01 -1.349031925201416016e+01 -7.487667798995971680e-01 3.378869593143463135e-02 -2.144934386014938354e-01 -3.978449702262878418e-01
4.781000000000000000e+03 5.767381668090820312e+01 1.339576911926269531e+01 -5.773876905441284180e-01 6.428568363189697266e+00 1.755354285240173340e+00 -6.313400864601135254e-01
4.782000000000000000e+03 7.025090789794921875e+01 -1.020817470550537109e+01 8.666523098945617676e-01 7.620098114013671875e+00 2.546025037765502930e+00 -7.135304808616638184e-01
4.783000000000000000e+03 6.015166091918945312e+01 -1.252199935913085938e+01 -1.117647066712379456e-01 1.090624046325683594e+01 3.238342761993408203e+00 -3.709279000759124756e-01
4.784000000000000000e+03 2.862773704528808594e+01 -1.456727409362792969e+01 -5.591686367988586426e-01 2.056657150387763977e-02 -1.615806072950363159e-01 -4.985231757164001465e-01
4.785000000000000000e+03 6.366968536376953125e+01 -5.204402923583984375e+00 3.041178703308105469e+00 9.198840141296386719e+00 3.672005653381347656e+00 5.383036136627197266e-01
4.786000000000000000e+03 4.589361953735351562e+01 8.211618423461914062e+00 3.164767920970916748e-01 2.312038183212280273e+00 7.885544896125793457e-01 -9.354395866394042969e-01
4.787000000000000000e+03 7.158253479003906250e+01 -4.070907592773437500e+00 8.125370740890502930e-01 7.295815467834472656e+00 2.432505607604980469e+00 4.118329882621765137e-01
4.788000000000000000e+03 3.507097244262695312e+01 7.395459651947021484e+00 -2.080944553017616272e-02 4.824979305267333984e-01 1.385065466165542603e-01 3.207622766494750977e-01
4.789000000000000000e+03 3.607762527465820312e+01 7.561004161834716797e+00 3.099772892892360687e-02 5.742953419685363770e-01 1.815879195928573608e-01 2.461536973714828491e-01
4.790000000000000000e+03 6.114033889770507812e+01 -1.305086231231689453e+01 -5.933424085378646851e-02 1.037460041046142578e+01 3.094579696655273438e+00 -6.091049909591674805e-01
4.791000000000000000e+03 5.593265914916992188e+01 1.305062413215637207e+00 -5.414020419120788574e-01 8.234375000000000000e+00 2.307891845703125000e+00 -2.377271890640258789e+00
4.792000000000000000e+03 6.355976486206054688e+01 -8.387066841125488281e+00 2.775339841842651367e+00 9.355891227722167969e+00 3.639369249343872070e+00 -8.903747200965881348e-01
4.793000000000000000e+03 5.461246871948242188e+01 1.118641734123229980e+00 -1.768369525671005249e-01 6.937090873718261719e+00 2.028076171875000000e+00 -2.816285848617553711e+00
4.794000000000000000e+03 5.351720428466796875e+01 1.709794044494628906e+00 7.436766475439071655e-02 5.610601902008056641e+00 1.705490827560424805e+00 -2.691963672637939453e+00
4.795000000000000000e+03 7.013018035888671875e+01 -1.122674560546875000e+01 7.280963659286499023e-01 7.709765911102294922e+00 2.531358718872070312e+00 -8.526925444602966309e-01
4.796000000000000000e+03 6.782791900634765625e+01 3.284657716751098633e+00 -2.606871165335178375e-02 8.354089736938476562e+00 2.498406410217285156e+00 1.065129399299621582e+00
4.797000000000000000e+03 5.848738098144531250e+01 -1.447548580169677734e+01 -8.232129216194152832e-01 9.749840736389160156e+00 2.677988290786743164e+00 9.326462745666503906e-01
4.798000000000000000e+03 6.922882843017578125e+01 -1.722055435180664062e+01 -1.015433296561241150e-01 8.110832214355468750e+00 2.402786731719970703e+00 -1.038108468055725098e+00
4.799000000000000000e+03 5.133642959594726562e+01 6.645307064056396484e+00 2.036909945309162140e-02 4.325996875762939453e+00 1.303909778594970703e+00 -1.678487658500671387e+00
4.800000000000000000e+03 6.602539062500000000e+01 5.272730350494384766e+00 -3.991733789443969727e-01 8.522695541381835938e+00 2.437056541442871094e+00 8.348346948623657227e-01
4.801000000000000000e+03 6.648103332519531250e+01 6.146665096282958984e+00 -4.410087466239929199e-01 8.396572113037109375e+00 2.386669158935546875e+00 8.105108141899108887e-01
4.802000000000000000e+03 6.325789642333984375e+01 -3.586751222610473633e+00 2.445475101470947266e+00 9.587934494018554688e+00 3.610022783279418945e+00 1.146401643753051758e+00
4.803000000000000000e+03 3.344036865234375000e+01 -1.367421150207519531e+01 -7.111488580703735352e-01 3.252768889069557190e-02 -2.035863548517227173e-01 -4.131366610527038574e-01
4.804000000000000000e+03 5.206142425537109375e+01 6.073489189147949219e+00 -3.647504746913909912e-02 4.715473175048828125e+00 1.403699398040771484e+00 -1.784276366233825684e+00
4.805000000000000000e+03 6.705432128906250000e+01 1.021708130836486816e+00 3.586599528789520264e-01 8.517765998840332031e+00 2.662927865982055664e+00 1.133794903755187988e+00
4.806000000000000000e+03 6.567701721191406250e+01 -1.383769607543945312e+01 3.229802846908569336e-01 8.858863830566406250e+00 2.754553079605102539e+00 -1.130294799804687500e+00
4.807000000000000000e+03 6.140301132202148438e+01 -1.396619701385498047e+01 -2.897438704967498779e-01 1.003147697448730469e+01 2.922519922256469727e+00 -5.102192163467407227e-01
4.808000000000000000e+03 4.247206878662109375e+01 7.795466780662536621e-01 -2.684055268764495850e-01 4.164456725120544434e-01 4.441204667091369629e-02 -9.192438796162605286e-03
4.809000000000000000e+03 6.904885864257812500e+01 -1.208504486083984375e+01 6.860913634300231934e-01 8.010820388793945312e+00 2.609073400497436523e+00 -1.008772373199462891e+00
4.810000000000000000e+03 6.463700866699218750e+01 -1.111486148834228516e+01 1.266565322875976562e+00 9.162586212158203125e+00 3.128745317459106445e+00 -1.201735258102416992e+00
4.811000000000000000e+03 5.095817184448242188e+01 5.858753681182861328e+00 1.220059171319007874e-01 4.089355945587158203e+00 1.263408660888671875e+00 -1.745969176292419434e+00
4.812000000000000000e+03 4.954317092895507812e+01 3.906026363372802734e+00 3.742151260375976562e-01 2.924452781677246094e+00 9.896003603935241699e-01 -1.677656054496765137e+00
4.813000000000000000e+03 4.854304122924804688e+01 4.330975055694580078e+00 3.816761374473571777e-01 2.549976825714111328e+00 8.794958591461181641e-01 -1.468383193016052246e+00
4.814000000000000000e+03 4.884429168701171875e+01 4.791419506072998047e+00 3.805565834045410156e-01 2.807397603988647461e+00 9.563862681388854980e-01 -1.534102916717529297e+00
4.815000000000000000e+03 4.752038574218750000e+01 4.538454532623291016e+00 4.049115478992462158e-01 2.196494102478027344e+00 7.804216742515563965e-01 -1.240236163139343262e+00
4.816000000000000000e+03 6.565481567382812500e+01 -6.096599102020263672e+00 2.414470195770263672e+00 8.496880531311035156e+00 3.273405075073242188e+00 1.200272291898727417e-01
4.817000000000000000e+03 6.731221771240234375e+01 -4.176899909973144531e+00 1.672472000122070312e+00 8.156015396118164062e+00 2.948546409606933594e+00 5.823510289192199707e-01
4.818000000000000000e+03 4.394652938842773438e+01 4.010582923889160156e+00 2.566465139389038086e-01 1.112989783287048340e+00 4.108909070491790771e-01 -5.040109753608703613e-01
4.819000000000000000e+03 6.100159072875976562e+01 2.690794706344604492e+00 -6.525822877883911133e-01 9.540759086608886719e+00 2.666453123092651367e+00 1.005769893527030945e-01
4.820000000000000000e+03 6.612852478027343750e+01 -2.538715839385986328e+00 1.467281341552734375e+00 8.598700523376464844e+00 3.019794702529907227e+00 1.020661115646362305e+00
4.821000000000000000e+03 6.966236114501953125e+01 -4.190183162689208984e+00 1.167593359947204590e+00 7.668578147888183594e+00 2.650851488113403320e+00 4.843266904354095459e-01
4.822000000000000000e+03 5.951843643188476562e+01 4.603429794311523438e+00 -8.906181454658508301e-01 8.737389564514160156e+00 2.354031324386596680e+00 -5.669903755187988281e-01
4.823000000000000000e+03 3.593614959716796875e+01 1.753240227699279785e+00 -4.140748083591461182e-01 1.745841056108474731e-01 -7.184720784425735474e-02 4.793763458728790283e-01
4.824000000000000000e+03 4.824565124511718750e+01 4.842648983001708984e+00 3.968085050582885742e-01 2.588062524795532227e+00 8.954613208770751953e-01 -1.399106144905090332e+00
4.825000000000000000e+03 5.904468536376953125e+01 3.699104547500610352e+00 -8.728682994842529297e-01 8.919095039367675781e+00 2.413867950439453125e+00 -7.268240451812744141e-01
4.826000000000000000e+03 6.225270462036132812e+01 2.154741764068603516e+00 -3.601368367671966553e-01 9.568569183349609375e+00 2.762529611587524414e+00 5.925075411796569824e-01
4.827000000000000000e+03 6.617959594726562500e+01 -1.018213272094726562e+01 1.457018733024597168e+00 8.587185859680175781e+00 3.013261318206787109e+00 -9.955105781555175781e-01
4.828000000000000000e+03 6.171335983276367188e+01 1.961544513702392578e+00 -4.126558601856231689e-01 9.721183776855468750e+00 2.792558193206787109e+00 4.625268280506134033e-01
4.829000000000000000e+03 1.488040065765380859e+01 1.046121835708618164e+00 9.682813106337562203e-05 4.289913631509989500e-04 1.577458460815250874e-04 3.776464654947631061e-05
4.830000000000000000e+03 1.433596038818359375e+01 8.109902739524841309e-01 1.203931606141850352e-04 -7.370359526248648763e-05 1.400687142449896783e-05 3.423943417146801949e-04
4.831000000000000000e+03 1.339948463439941406e+01 9.943951964378356934e-01 2.969737106468528509e-04 -8.465257269563153386e-05 6.369633774738758802e-05 -4.567034466163022444e-06
4.832000000000000000e+03 1.399857616424560547e+01 1.078236818313598633e+00 -3.837533877231180668e-04 -1.332746032858267426e-04 -1.551083987578749657e-04 -9.136321750702336431e-05
4.833000000000000000e+03 1.342517852783203125e+01 2.516243755817413330e-01 -6.944325286895036697e-05 1.088749195332638919e-04 1.182950018119299784e-05 1.589523344591725618e-05
4.834000000000000000e+03 1.503903388977050781e+01 3.840551078319549561e-01 -4.811198959941975772e-05 -5.633173350361175835e-05 -3.133311474812217057e-05 -5.124388917465694249e-05
4.835000000000000000e+03 1.424006271362304688e+01 2.423980534076690674e-01 1.145222449849825352e-05 -6.512564596050651744e-06 1.481897925259545445e-06 -1.151311948888178449e-06
4.836000000000000000e+03 1.447602939605712891e+01 1.142013788223266602e+00 3.600442432798445225e-04 -5.538603363675065339e-05 9.139746543951332569e-05 7.829452806618064642e-05
4.837000000000000000e+03 1.113503360748291016e+01 3.384475409984588623e-01 -5.378610512707382441e-05 -2.340551436645910144e-04 -8.635237463749945164e-05 4.495473694987595081e-05
4.838000000000000000e+03 1.115649890899658203e+01 1.078244447708129883e+00 -3.559124306775629520e-04 8.548101322958245873e-05 -8.112943032756447792e-05 -2.840988745447248220e-04
4.839000000000000000e+03 1.038435840606689453e+01 3.729175329208374023e-01 -2.520419366192072630e-04 1.700122084002941847e-04 -2.460892028466332704e-05 -1.199033285956829786e-04
4.840000000000000000e+03 1.188578510284423828e+01 3.038018345832824707e-01 -1.302826276514679193e-04 2.563474990893155336e-04 3.781946361414156854e-05 -6.821523129474371672e-05
4.841000000000000000e+03 1.263660717010498047e+01 2.689834535121917725e-01 5.260285252006724477e-05 -2.304499503225088120e-04 -5.335413152351975441e-05 -2.436322802168433554e-06
4.842000000000000000e+03 1.266393947601318359e+01 1.008509635925292969e+00 -2.445204881951212883e-04 3.112811828032135963e-05 -6.401770951924845576e-05 -1.568879961268976331e-04
4.843000000000000000e+03 1.040289020538330078e+01 1.112849831581115723e+00 1.356819120701402426e-04 1.741014239087235183e-05 4.592761979438364506e-05 2.779946371447294950e-04
4.844000000000000000e+03 1.191018390655517578e+01 1.043463349342346191e+00 1.366173237329348922e-04 -6.914338882779702544e-05 2.024217974394559860e-05 6.871167715871706605e-05
4.845000000000000000e+03 9.630480766296386719e+00 3.871794641017913818e-01 -1.362340990453958511e-04 -1.176795649371342734e-05 -4.440061820787377656e-05 1.372108526993542910e-04
4.846000000000000000e+03 8.873666763305664062e+00 3.829238712787628174e-01 -3.100568428635597229e-04 -1.866259990492835641e-04 -1.490048452978953719e-04 -1.907985279103741050e-04
4.847000000000000000e+03 9.660673141479492188e+00 1.127179503440856934e+00 -3.642252995632588863e-04 -1.346049102721735835e-04 -1.496490585850551724e-04 -4.542792157735675573e-04
4.848000000000000000e+03 8.116720199584960938e+00 3.805542886257171631e-01 -1.670934434514492750e-04 4.012583231087774038e-04 7.024946535238996148e-05 2.012490294873714447e-04
4.849000000000000000e+03 7.360193252563476562e+00 3.795430362224578857e-01 -3.517684817779809237e-04 -5.908661405555903912e-04 -2.827903954312205315e-04 -2.361161750741302967e-04
4.850000000000000000e+03 5.847065925598144531e+00 3.768712580204010010e-01 -3.472345415502786636e-04 -8.227797225117683411e-04 -3.510042733978480101e-04 -2.509463229216635227e-04
4.851000000000000000e+03 5.091114044189453125e+00 3.758820295333862305e-01 -1.260466960957273841e-04 8.405916742049157619e-04 2.143634774256497622e-04 2.664178609848022461e-04
4.852000000000000000e+03 3.579006433486938477e+00 3.681437373161315918e-01 -5.112958024255931377e-05 6.809085025452077389e-04 1.889336708700284362e-04 2.343556261621415615e-04
4.853000000000000000e+03 2.823871612548828125e+00 3.614119887351989746e-01 -1.985342823900282383e-04 -5.486552836373448372e-04 -2.241568727185949683e-04 -1.649089826969429851e-04
4.854000000000000000e+03 2.070111274719238281e+00 3.578882515430450439e-01 2.552544174250215292e-05 4.029792034998536110e-04 1.285513862967491150e-04 1.676503597991541028e-04
4.855000000000000000e+03 2.362852334976196289e+00 1.097888231277465820e+00 -1.536562049295753241e-04 -3.781210689339786768e-04 -1.595331850694492459e-04 -3.691680831252597272e-05
4.856000000000000000e+03 1.328713655471801758e+00 3.659794926643371582e-01 -5.998941560392268002e-05 -2.548205666244029999e-04 -9.444299212191253901e-05 -7.181648834375664592e-05
4.857000000000000000e+03 1.647709608078002930e+00 1.105979442596435547e+00 3.156483671773457900e-06 2.976763353217393160e-04 9.024984319694340229e-05 1.142878900282084942e-04
4.858000000000000000e+03 6.516475677490234375e-01 3.939257264137268066e-01 -1.575118585606105626e-05 6.670222501270473003e-05 1.528531174699310213e-05 8.873707884049508721e-07
4.859000000000000000e+03 3.489431142807006836e-01 9.570703506469726562e-01 8.233595872297883034e-05 7.101950177457183599e-05 4.600664033205248415e-05 3.897974693245487288e-06
4.860000000000000000e+03 3.090358018875122070e+00 1.101411938667297363e+00 1.357705787086160854e-05 4.703461017925292253e-04 1.451769494451582432e-04 1.796787109924480319e-04
4.861000000000000000e+03 3.819237709045410156e+00 1.108143687248229980e+00 -2.312319702468812466e-04 -5.456934450194239616e-04 -2.330776333110406995e-04 -1.045782773871906102e-04
4.862000000000000000e+03 4.335169315338134766e+00 3.733847737312316895e-01 -2.901581465266644955e-04 -7.815531571395695210e-04 -3.215133910998702049e-04 -2.201688621426001191e-04
4.863000000000000000e+03 6.008533000946044922e+00 1.116871237754821777e+00 -1.107165917346719652e-05 6.386568420566618443e-04 1.882755459519103169e-04 3.680337104015052319e-04
4.864000000000000000e+03 6.603851795196533203e+00 3.786112964153289795e-01 -1.646096789045259356e-04 7.433379068970680237e-04 1.736184785841032863e-04 2.537256223149597645e-04
4.865000000000000000e+03 8.930113792419433594e+00 1.122923851013183594e+00 5.814126052428036928e-05 2.698405296541750431e-04 9.839453559834510088e-05 4.258776607457548380e-04
4.866000000000000000e+03 8.199422836303710938e+00 1.120554327964782715e+00 -3.897001151926815510e-04 -3.759155806619673967e-04 -2.296847087563946843e-04 -4.870802804362028837e-04
4.867000000000000000e+03 7.469150543212890625e+00 1.119543075561523438e+00 2.489146208972670138e-05 5.060486728325486183e-04 1.592820335645228624e-04 4.456575552467256784e-04
4.868000000000000000e+03 6.739063739776611328e+00 1.118611335754394531e+00 -3.653369203675538301e-04 -5.671230610460042953e-04 -2.797379856929183006e-04 -4.051552386954426765e-04
4.869000000000000000e+03 5.278835773468017578e+00 1.115882039070129395e+00 -3.038145659957081079e-04 -6.260217051021754742e-04 -2.789509017020463943e-04 -2.493344072718173265e-04
4.870000000000000000e+03 4.549146175384521484e+00 1.113384723663330078e+00 -2.321369356650393456e-05 6.237481720745563507e-04 1.801603502826765180e-04 2.604110923130065203e-04
4.871000000000000000e+03 9.968983530998229980e-01 1.133925795555114746e+00 -5.513302312465384603e-06 -3.240955993533134460e-04 -9.888266504276543856e-05 3.872335946653038263e-05
4.872000000000000000e+03 7.947246074676513672e+00 -3.790149092674255371e-01 -1.117568244808353484e-04 4.287928095436654985e-05 -2.066326123895123601e-05 5.694418359780684114e-05
4.873000000000000000e+03 8.798082351684570312e+00 -1.121163964271545410e+00 -6.861615838715806603e-05 5.280322875478304923e-05 -4.743877980217803270e-06 1.632401690585538745e-04
4.874000000000000000e+03 9.582462310791015625e+00 -3.862577378749847412e-01 -6.617679900955408812e-05 1.058878915500827134e-04 1.191332739836070687e-05 5.434289050754159689e-05
4.875000000000000000e+03 7.128131389617919922e+00 -3.778152763843536377e-01 -1.176050427602604032e-04 -3.968370947404764593e-06 -3.647202538559213281e-05 -4.691711365012452006e-05
4.876000000000000000e+03 6.302709579467773438e+00 -3.771458566188812256e-01 -1.400972541887313128e-04 -2.817121458065230399e-05 -5.048053935752250254e-05 5.872188921784982085e-05
4.877000000000000000e+03 5.439445972442626953e+00 -3.834656774997711182e-01 -1.254542876267805696e-04 6.176546594360843301e-05 -1.910664468596223742e-05 -6.258580833673477173e-05
4.878000000000000000e+03 4.549984931945800781e+00 -3.402172923088073730e-01 -6.914046389283612370e-05 -8.373070886591449380e-05 -4.586135037243366241e-05 2.213916741311550140e-05
4.879000000000000000e+03 4.365737915039062500e+00 -8.721476197242736816e-01 -2.309195697307586670e-04 7.098480273270979524e-05 -4.798042937181890011e-05 -8.021263784030452371e-05
4.880000000000000000e+03 2.784216165542602539e+00 -7.810403704643249512e-01 -8.353517478099092841e-05 3.717607251019217074e-05 -1.390773013554280624e-05 -1.252157380804419518e-04
4.881000000000000000e+03 1.180924773216247559e+00 -3.613742887973785400e-01 1.765559863997623324e-05 -2.026244510489050299e-05 -7.820538598934945185e-07 2.546488758525811136e-05
4.882000000000000000e+03 4.100910127162933350e-01 -5.529776215553283691e-01 -1.180347771878587082e-05 -1.296483787882607430e-05 -7.430494861182523891e-06 -1.732917917252052575e-05
4.883000000000000000e+03 7.475960254669189453e-01 -1.101374268531799316e+00 -8.629804506199434400e-05 7.711486250627785921e-05 -2.754954948613885790e-06 -1.133208570536226034e-05
4.884000000000000000e+03 9.582078933715820312e+00 -1.126257777214050293e+00 -4.010166958323679864e-05 -7.194343925220891833e-05 -3.361353083164431155e-05 -9.903655154630541801e-05
4.885000000000000000e+03 8.013586997985839844e+00 -1.119014978408813477e+00 -7.041240314720198512e-05 -2.429789856250863522e-05 -2.841309105861000717e-05 -1.148826850112527609e-04
4.886000000000000000e+03 7.227835178375244141e+00 -1.117815256118774414e+00 -1.046392208081670105e-04 1.729100222291890532e-05 -2.620446502987761050e-05 1.515060430392622948e-04
4.887000000000000000e+03 6.435775756835937500e+00 -1.117145895957946777e+00 -6.083234984544105828e-05 1.688578595349099487e-05 -1.318396880378713831e-05 -1.354489504592493176e-04
4.888000000000000000e+03 5.605874538421630859e+00 -1.123465657234191895e+00 -1.619320246390998363e-04 -1.474150303693022579e-05 -5.300205521052703261e-05 1.434392324881628156e-04
4.889000000000000000e+03 4.870606899261474609e+00 -1.221678614616394043e+00 6.312550249276682734e-05 2.797106390062253922e-05 2.732896973611786962e-05 -1.990878809010609984e-04
4.890000000000000000e+03 4.215381145477294922e+00 -1.291930317878723145e+00 -3.017497147084213793e-05 -6.126523658167570829e-05 -2.743206277955323458e-05 1.851768320193514228e-04
4.891000000000000000e+03 3.483533143997192383e+00 -1.264367222785949707e+00 -1.439593615941703320e-04 6.107042281655594707e-05 -2.486668381607159972e-05 -2.491883351467549801e-04
4.892000000000000000e+03 2.720056772232055664e+00 -1.259521603584289551e+00 4.781568350153975189e-05 -3.927265424863435328e-05 2.562908775871619582e-06 1.546392886666581035e-04
4.893000000000000000e+03 1.356012225151062012e+00 -1.203287243843078613e+00 1.927030534716323018e-04 -1.359620364382863045e-04 1.702230474620591849e-05 1.741456071613356471e-05
4.894000000000000000e+03 1.973117947578430176e+00 -8.476541042327880859e-01 -5.809966023662127554e-05 1.085497160602244548e-06 -1.710424839984625578e-05 6.063489490770734847e-05
4.895000000000000000e+03 8.765102386474609375e+00 -3.811639845371246338e-01 -8.718474418856203556e-05 -7.672509673284366727e-05 -4.917295154882594943e-05 -3.732432014658115804e-05
4.896000000000000000e+03 3.694828748703002930e+00 -2.827752828598022461e-01 -9.837582183536142111e-05 6.735420902259647846e-05 -9.306483661930542439e-06 -1.915283974085468799e-05
4.897000000000000000e+03 2.863922595977783203e+00 -2.815187871456146240e-01 -5.766393951489590108e-05 -3.465049667283892632e-05 -2.769433012872468680e-05 8.408521352976094931e-06
4.898000000000000000e+03 1.994147539138793945e+00 -3.323310017585754395e-01 -3.547393134795129299e-05 5.505630724655929953e-06 -8.990490641735959798e-06 -4.124958650209009647e-05
4.899000000000000000e+03 1.978801369667053223e+00 -1.275323033332824707e+00 -1.656453823670744896e-04 3.436239785514771938e-05 -3.938489680876955390e-05 -1.989331794902682304e-04
4.900000000000000000e+03 3.578665971755981445e+00 -7.871425151824951172e-01 -3.102056507486850023e-05 -3.692696918733417988e-05 -2.038426100625656545e-05 7.912531145848333836e-05
4.901000000000000000e+03 1.511178874969482422e+01 -1.151870131492614746e+00 -2.316141035407781601e-05 -3.582177305361256003e-05 -1.769495611370075494e-05 -3.045258745260071009e-05
4.902000000000000000e+03 1.328532791137695312e+01 -1.267471551895141602e+00 2.147639315808191895e-05 3.688162905746139586e-05 1.750740739225875586e-05 5.962665090919472277e-05
4.903000000000000000e+03 1.480503654479980469e+01 -5.744030475616455078e-01 4.107434506295248866e-05 -1.888440351649478544e-06 1.175577199319377542e-05 9.308866538049187511e-06
4.904000000000000000e+03 1.453040313720703125e+01 -1.313965797424316406e+00 -6.764133286196738482e-05 5.104134470457211137e-05 -4.979995537723880261e-06 5.383756433730013669e-05
4.905000000000000000e+03 1.393833351135253906e+01 -1.278923630714416504e+00 3.310312195026199333e-06 -2.040460276475641876e-05 -5.128287284605903551e-06 -6.289151497185230255e-05
4.906000000000000000e+03 1.336329460144042969e+01 -5.279909372329711914e-01 -4.103665105503750965e-06 -7.618787640240043402e-05 -2.408746149740181863e-05 -3.013825880771037191e-05
4.907000000000000000e+03 1.411463356018066406e+01 -5.394020080566406250e-01 5.836518539581447840e-06 5.439458618639037013e-05 1.806933141779154539e-05 2.804911673592869192e-05
4.908000000000000000e+03 1.111242771148681641e+01 -4.403275847434997559e-01 -2.664718522282782942e-05 1.309252984356135130e-04 3.128343450953252614e-05 3.902125536114908755e-05
4.909000000000000000e+03 1.260764503479003906e+01 -5.095726251602172852e-01 7.008602551650255919e-06 9.004255844047293067e-05 2.911535011662635952e-05 2.517287794034928083e-05
4.910000000000000000e+03 1.185993289947509766e+01 -4.741277396678924561e-01 -6.909285730216652155e-06 -1.178148158942349255e-04 -3.741723048733547330e-05 -1.459858412999892607e-05
4.911000000000000000e+03 1.109096240997314453e+01 -1.180124521255493164e+00 3.267546162533108145e-06 -1.199878242914564908e-04 -3.501608443912118673e-05 -6.109401874709874392e-05
4.912000000000000000e+03 1.036482620239257812e+01 -4.067706167697906494e-01 -3.918966467608697712e-05 -1.325907069258391857e-04 -5.153410893399268389e-05 -2.753959051915444434e-05
4.913000000000000000e+03 1.034629440307617188e+01 -1.146702885627746582e+00 -5.017584771849215031e-05 9.505623165750876069e-05 1.346411590930074453e-05 1.450361014576628804e-04
4.914000000000000000e+03 1.258031177520751953e+01 -1.249099493026733398e+00 -1.398049334966344759e-05 -8.566389442421495914e-05 -2.989331551361829042e-05 -3.944580021197907627e-05
4.915000000000000000e+03 1.183553314208984375e+01 -1.213789224624633789e+00 -1.895198874990455806e-05 9.887874330161139369e-05 2.397802563791628927e-05 7.612989429617300630e-05
4.916000000000000000e+03 5.601591873168945312e+01 -6.398849964141845703e+00 3.362660217285156250e+01 6.309108257293701172e+00 1.198071384429931641e+01 1.231643772125244141e+01
4.917000000000000000e+03 5.601987075805664062e+01 -6.417912960052490234e+00 3.079376792907714844e+01 1.878672599792480469e+01 1.487414836883544922e+01 2.349598312377929688e+01
4.918000000000000000e+03 5.602745819091796875e+01 -6.435841560363769531e+00 2.835208511352539062e+01 3.088067626953125000e+01 1.776982879638671875e+01 2.735057067871093750e+01
4.919000000000000000e+03 5.603839111328125000e+01 -6.451950073242187500e+00 2.432545852661132812e+01 4.326874160766601562e+01 2.027826118469238281e+01 2.844942092895507812e+01
4.920000000000000000e+03 5.605224990844726562e+01 -6.465621948242187500e+00 2.092043113708496094e+01 5.461339187622070312e+01 2.266014671325683594e+01 2.648332214355468750e+01
4.921000000000000000e+03 5.606850814819335938e+01 -6.476334095001220703e+00 1.762929344177246094e+01 6.425434112548828125e+01 2.456509017944335938e+01 2.205398368835449219e+01
4.922000000000000000e+03 5.608653640747070312e+01 -6.483676433563232422e+00 1.603107452392578125e+01 7.127047729492187500e+01 2.619046592712402344e+01 1.580085468292236328e+01
4.923000000000000000e+03 5.610565185546875000e+01 -6.487368106842041016e+00 1.603845977783203125e+01 7.510642242431640625e+01 2.734346389770507812e+01 8.530349731445312500e+00
4.924000000000000000e+03 5.612512207031250000e+01 -6.487267971038818359e+00 1.828172683715820312e+01 7.579258728027343750e+01 2.822229576110839844e+01 1.365497112274169922e+00
4.925000000000000000e+03 5.614419555664062500e+01 -6.483379364013671875e+00 2.211640739440917969e+01 7.353741455078125000e+01 2.869614601135253906e+01 -4.778202056884765625e+00
4.926000000000000000e+03 5.616215133666992188e+01 -6.475851535797119141e+00 2.729301261901855469e+01 6.927684020996093750e+01 2.897095489501953125e+01 -9.088719367980957031e+00
4.927000000000000000e+03 5.617829513549804688e+01 -6.464972972869873047e+00 3.287653350830078125e+01 6.384769058227539062e+01 2.901726722717285156e+01 -1.125645732879638672e+01
4.928000000000000000e+03 5.619201278686523438e+01 -6.451159000396728516e+00 3.817251205444335938e+01 5.832266616821289062e+01 2.894855308532714844e+01 -1.125224590301513672e+01
4.929000000000000000e+03 5.620277786254882812e+01 -6.434938430786132812e+00 4.258726501464843750e+01 5.349218750000000000e+01 2.882383537292480469e+01 -9.390365600585937500e+00
4.930000000000000000e+03 5.621018218994140625e+01 -6.416932582855224609e+00 4.569549179077148438e+01 5.002839279174804688e+01 2.871716499328613281e+01 -6.170739173889160156e+00
4.931000000000000000e+03 5.621393585205078125e+01 -6.397830009460449219e+00 4.728474426269531250e+01 4.816586685180664062e+01 2.863518333435058594e+01 -2.098931550979614258e+00
4.932000000000000000e+03 5.621390151977539062e+01 -6.378362178802490234e+00 4.727769088745117188e+01 4.819676971435546875e+01 2.864233970642089844e+01 2.181478977203369141e+00
4.933000000000000000e+03 5.621007537841796875e+01 -6.359272956848144531e+00 4.564472961425781250e+01 5.005588150024414062e+01 2.871018409729003906e+01 6.249785423278808594e+00
4.934000000000000000e+03 5.620261001586914062e+01 -6.341294288635253906e+00 4.252507400512695312e+01 5.354489517211914062e+01 2.882099151611328125e+01 9.440671920776367188e+00
4.935000000000000000e+03 5.619178390502929688e+01 -6.325113296508789062e+00 3.808289718627929688e+01 5.843346786499023438e+01 2.895491027832031250e+01 1.127802085876464844e+01
4.936000000000000000e+03 5.617801666259765625e+01 -6.311349391937255859e+00 3.275514221191406250e+01 6.390242004394531250e+01 2.899726867675781250e+01 1.126398277282714844e+01
4.937000000000000000e+03 5.616183090209960938e+01 -6.300529003143310547e+00 2.718008232116699219e+01 6.935494232177734375e+01 2.896050643920898438e+01 9.044322013854980469e+00
4.938000000000000000e+03 5.614385223388671875e+01 -6.293066501617431641e+00 2.202808189392089844e+01 7.357728576660156250e+01 2.868161201477050781e+01 4.709641456604003906e+00
4.939000000000000000e+03 5.612475967407226562e+01 -6.289247512817382812e+00 1.815714454650878906e+01 7.577458953857421875e+01 2.817952156066894531e+01 -1.474817514419555664e+00
4.940000000000000000e+03 5.610529327392578125e+01 -6.289217948913574219e+00 1.596366977691650391e+01 7.504195404052734375e+01 2.730168724060058594e+01 -8.606802940368652344e+00
4.941000000000000000e+03 5.608618927001953125e+01 -6.292979240417480469e+00 1.602866172790527344e+01 7.114788818359375000e+01 2.615296554565429688e+01 -1.590316677093505859e+01
4.942000000000000000e+03 5.606818771362304688e+01 -6.300387382507324219e+00 1.752337837219238281e+01 6.403775024414062500e+01 2.446833992004394531e+01 -2.213700103759765625e+01
4.943000000000000000e+03 5.605197143554687500e+01 -6.311158180236816406e+00 2.083131027221679688e+01 5.445091247558593750e+01 2.258466720581054688e+01 -2.648654937744140625e+01
4.944000000000000000e+03 5.603816223144531250e+01 -6.324880599975585938e+00 2.434428977966308594e+01 4.305468368530273438e+01 2.021969223022460938e+01 -2.839610862731933594e+01
4.945000000000000000e+03 5.602728652954101562e+01 -6.341028690338134766e+00 2.810753059387207031e+01 3.059681129455566406e+01 1.761130332946777344e+01 -2.734602355957031250e+01
4.946000000000000000e+03 5.601976394653320312e+01 -6.358984947204589844e+00 3.064248657226562500e+01 1.869313430786132812e+01 1.480068588256835938e+01 -2.338808441162109375e+01
4.947000000000000000e+03 5.601588058471679688e+01 -6.378061771392822266e+00 3.342149734497070312e+01 6.419319152832031250e+00 1.195224475860595703e+01 -1.220221233367919922e+01
